time,ASR_ext,ASR_strain,ASR_strain_xx,ASR_strain_yy,ASR_strain_zz,disp_x_101,disp_x_102,disp_x_103,disp_x_104,disp_x_105,disp_x_106,disp_x_p10_neg,disp_x_p10_pos,disp_x_p11_neg,disp_x_p11_pos,disp_x_p12_neg,disp_x_p12_pos,disp_x_p13_neg,disp_x_p13_pos,disp_x_p14_neg,disp_x_p14_pos,disp_x_p15_neg,disp_x_p15_pos,disp_x_p16_neg,disp_x_p16_pos,disp_x_p1_neg,disp_x_p1_pos,disp_x_p2_neg,disp_x_p2_pos,disp_x_p3_neg,disp_x_p3_pos,disp_x_p4_neg,disp_x_p4_pos,disp_x_p5_neg,disp_x_p5_pos,disp_x_p6_neg,disp_x_p6_pos,disp_x_p7_neg,disp_x_p7_pos,disp_x_p8_neg,disp_x_p8_pos,disp_x_p9_neg,disp_x_p9_pos,disp_y_101,disp_y_102,disp_y_103,disp_y_104,disp_y_105,disp_y_106,disp_y_p10_neg,disp_y_p10_pos,disp_y_p11_neg,disp_y_p11_pos,disp_y_p12_neg,disp_y_p12_pos,disp_y_p1_neg,disp_y_p1_pos,disp_y_p2_neg,disp_y_p2_pos,disp_y_p3_neg,disp_y_p3_pos,disp_y_p4_neg,disp_y_p4_pos,disp_y_p5_neg,disp_y_p5_pos,disp_y_p6_neg,disp_y_p6_pos,disp_y_p7_neg,disp_y_p7_pos,disp_y_p8_neg,disp_y_p8_pos,disp_y_p9_neg,disp_y_p9_pos,disp_z_101,disp_z_102,disp_z_103,disp_z_104,disp_z_105,disp_z_106,disp_z_p10_neg,disp_z_p10_pos,disp_z_p11_neg,disp_z_p11_pos,disp_z_p12_neg,disp_z_p12_pos,disp_z_p13_neg,disp_z_p13_pos,disp_z_p14_neg,disp_z_p14_pos,disp_z_p15_neg,disp_z_p15_pos,disp_z_p16_neg,disp_z_p16_pos,disp_z_p1_neg,disp_z_p1_pos,disp_z_p2_neg,disp_z_p2_pos,disp_z_p3_neg,disp_z_p3_pos,disp_z_p4_neg,disp_z_p4_pos,disp_z_p5_neg,disp_z_p5_pos,disp_z_p6_neg,disp_z_p6_pos,disp_z_p7_neg,disp_z_p7_pos,disp_z_p8_neg,disp_z_p8_pos,disp_z_p9_neg,disp_z_p9_pos,humidity,ndof,nelem,strain_xx,strain_yy,strain_zz,temp,thermal_strain_xx,thermal_strain_yy,thermal_strain_zz,vonmises,vstrain
14391759,0,0,0,0,0,0,0,0,0,0,0,0,0,0,0,0,0,0,0,0,0,0,0,0,0,0,0,0,0,0,0,0,0,0,0,0,0,0,0,0,0,0,0,0,0,0,0,0,0,0,0,0,0,0,0,0,0,0,0,0,0,0,0,0,0,0,0,0,0,0,0,0,0,0,0,0,0,0,0,0,0,0,0,0,0,0,0,0,0,0,0,0,0,0,0,0,0,0,0,0,0,0,0,0,0,0,0,0,0,0,0,0,0,0,0,0,0,0,0,0,0,0,0
15391759,0.10007878924328,0.0017518121525344,0.00058393738417813,0.00058393738417813,0.00058393738417813,-0.0001620340678498,0.00016193070597788,-1.8882092348922e-07,-1.5133527745639e-07,-2.4282241794068e-08,-2.1136123136292e-08,-0.00014348416373633,0.00014278540880282,-0.00016081324141395,0.00016075021649084,-0.00016078239786837,0.00016110326469694,-0.00014359649034059,0.00014293776321828,-0.00014348708845013,0.00014278290305957,-0.00016081603256395,0.00016074713016341,-0.0001607854335478,0.00016110042192623,-0.00017012879863672,0.00017004763006962,-0.00017009883452223,0.00017015678788017,-0.00017012779130023,0.00017004878177881,-0.00017009771650872,0.00017015782916727,-0.00016035531141238,0.00016001614759184,-0.00016026008318376,0.00015983697491022,-0.0001603561939457,0.00016001502693234,-0.00016026119182242,0.00015983608043005,-0.00014359401418192,0.00014294071780365,9.1161576157307e-10,-1.9267478452053e-09,-5.6579992248972e-09,4.6818561366853e-09,-0.00017588649173448,0.00017588551258358,-0.00017265859553378,0.00017266863225555,-0.00017450471070196,0.00017450290924107,-0.00017446497126296,0.00017445767697748,-0.00017788756431869,0.00017788393469198,-0.00017789672640032,0.00017790058930637,-0.00017788617405031,0.000177880372858,-0.00017790142082272,0.0001779031121636,-0.0001726708500773,0.00017265886849011,-0.00017271365505704,0.00017272170249664,-0.00017450820958311,0.0001745134975789,-0.00017427299125397,0.0001742727861507,-0.00017261837796111,0.00017260838560568,2.8451431845467e-08,2.8106148473261e-07,-0.00016809165012644,0.00016813217515885,2.8026788782547e-08,1.7123647353747e-08,-0.0001660629642569,0.00016609893369416,-0.00016665220463922,0.00016615945964086,-0.00016671901643241,0.00016666144232465,-0.00016640155427439,0.00016795825276651,-0.00016605319327794,0.0001661089821612,-0.00016664179990468,0.00016616974635055,-0.0001667087363872,0.00016667185306393,-0.00017238847796112,0.00017238828548846,-0.00017239217302963,0.00017238453132174,-0.00017237116131917,0.00017231607513603,-0.00017237491397678,0.00017231237841216,-0.00016822206092429,0.00016874023167052,-0.00016808334088344,0.00016813749630365,-0.00016807985276367,0.00016814111769863,-0.00016821844515391,0.00016874372512308,-0.00016641159384354,0.00016794847409624,0.70055894083924,122718,2924,0.00067470008045875,0.00073258798059434,0.00070021993498717,27.14486491888,0.00013235891935104,0.00013235891935104,0.00013235891935104,1381636.1845943,0.0021097340620059
16391759,0.18871202959969,0.0033992577482409,0.0011011982144647,0.0011676976140609,0.0011303619197153,-0.0002722998110986,0.00027202029203185,-6.1997672312484e-07,-3.2612647938831e-07,-7.3464139649609e-08,-6.0996105817519e-08,-0.00022947962355302,0.00022782808913146,-0.00027544678704088,0.00027521606122883,-0.00027530627483087,0.00027624229859824,-0.00022996536830145,0.00022793541049544,-0.00022949160878958,0.00022781807399468,-0.0002754579498235,0.00027520352137803,-0.00027531860115679,0.00027623091483758,-0.00028943138917347,0.00028913607668601,-0.00028928872537945,0.0002895387301657,-0.00028942742845582,0.0002891406774329,-0.00028928424924461,0.00028954281745403,-0.00027162724550857,0.00027049695905323,-0.00027118715576706,0.00027016505747911,-0.00027163069275977,0.00027049242517978,-0.00027119164039163,0.00027016155687989,-0.00022995548261137,0.00022794752841044,3.3274115818529e-09,-8.0357709530369e-09,-2.5087257005284e-08,2.0535772355266e-08,-0.00031458903977305,0.00031458447739726,-0.00030896578982799,0.00030900955867777,-0.00031141055104956,0.0003114013668587,-0.00031129531578346,0.00031126400326043,-0.0003180541921908,0.00031803750566161,-0.0003180787943436,0.00031809481867996,-0.00031804033643056,0.00031801527927269,-0.00031812444499687,0.00031813209870219,-0.00030901143516356,0.00030895859806458,-0.00030930389451539,0.0003093397827567,-0.00031141168893091,0.00031143366749415,-0.00031085471758493,0.00031085456171844,-0.00030886364916422,0.00030881868848869,1.5940764071743e-07,8.313463787125e-07,-0.00028970470804886,0.0002898126246237,9.2814811875296e-08,4.4608055013201e-08,-0.00029180623523308,0.0002920435514132,-0.00029219878978724,0.00029050909574624,-0.0002923804528683,0.0002922314766902,-0.00029275519924128,0.00029728671256095,-0.00029176280016693,0.000292087957735,-0.0002921525160578,0.00029055491791565,-0.00029233465434793,0.00029227777533315,-0.00029780204203287,0.00029785616033436,-0.00029781841489418,0.00029783958442746,-0.00029774254178747,0.00029752746648196,-0.00029775911419551,0.00029751109342714,-0.0002925558492285,0.00029407728747789,-0.0002921500845047,0.00029245498847495,-0.00029213464267002,0.00029247090389918,-0.00029253995809534,0.00029409275264265,-0.00029279956187012,0.0002972432357901,0.7587163515091,122718,2924,0.0011333708241479,0.0013099112019701,0.0012065971531487,24.45172910454,0.00011081383283632,0.00011081383283632,0.00011081383283632,2136418.7376256,0.0036565549109904
17391759,0.2676877127687,0.0047046356079559,0.0014813283003898,0.001665098064083,0.0015582092434831,-0.00035151657863435,0.00035092624570009,-1.3186898121844e-06,-6.0730269845965e-07,-1.3694291887006e-07,-1.0952100588374e-07,-0.00027159297637047,0.00026869112008666,-0.0003579525790382,0.00035740103544675,-0.00035760872454198,0.00035941306827861,-0.00027276006430131,0.00026866259411317,-0.00027161903906416,0.00026866872365538,-0.00035797712899441,0.00035737362631282,-0.00035763561432359,0.00035938798372675,-0.00038222134533437,0.00038156807662136,-0.00038188179889708,0.00038240425669964,-0.0003822125963503,0.00038157811644868,-0.00038187203183386,0.00038241328152885,-0.00034846022606469,0.00034600156908736,-0.00034742035659871,0.00034534886455955,-0.00034846792724981,0.00034599175241151,-0.00034743005754977,0.0003453410475041,-0.00027273797027373,0.00026868895010399,7.0222406165606e-09,-1.7955536366285e-08,-4.965840493014e-08,3.9077189005538e-08,-0.00043336377928262,0.00043335317132738,-0.0004234713351608,0.00042355575003589,-0.0004260376254203,0.00042602079130918,-0.00042576838797923,0.00042570291518479,-0.00043997467914147,0.00043994166743777,-0.00044002919734159,0.00044005944196601,-0.00043994655915459,0.00043989531112866,-0.0004401280817606,0.00044014009818312,-0.00042357293463841,0.00042346744145997,-0.00042454917593845,0.00042461626111726,-0.00042604456415461,0.00042608832439186,-0.00042489880559009,0.000424893910542,-0.00042326329733841,0.00042317508033307,3.9577546118677e-07,1.6037864206931e-06,-0.00038337021848872,0.00038354429383245,1.6590542491277e-07,7.1720081945374e-08,-0.00038715291773763,0.00038778743307268,-0.00038863511962256,0.00038494975192322,-0.00038900091369047,0.00038874694162552,-0.00038915749295197,0.00039781870213021,-0.00038706835400335,0.00038787394328224,-0.00038854487159941,0.00038503901396231,-0.00038891165142701,0.0003888372194994,-0.0003985108076338,0.00039865772900567,-0.00039854276355707,0.00039862534724915,-0.00039845710419664,0.00039798694341503,-0.00039848949121674,0.00039795499267531,-0.00038897543870002,0.00039203979391804,-0.00038798267051862,0.0003887386036315,-0.00038795265440527,0.00038876959883823,-0.0003889444839507,0.00039206984478744,-0.00038924393706564,0.00039773403931774,0.68097528185715,122718,2924,0.0014623980772097,0.0018040045458227,0.001596460114643,22.117533971377,9.2140271771018e-05,9.2140271771018e-05,9.2140271771018e-05,2695348.2718127,0.0048747241346574
18391759,0.32456250419994,0.0055303676799891,0.0017155777833951,0.001989786146948,0.001825003749646,-0.00039443248182159,0.00039361285981821,-1.8236182883571e-06,-7.9665774624249e-07,-2.0049365122443e-07,-1.5952158863021e-07,-0.00029272840518749,0.00028903790752648,-0.00040425401327767,0.00040344129220796,-0.00040375734839031,0.00040614976883432,-0.00029440594503962,0.00028890026309274,-0.00029276787265212,0.0002890036276471,-0.00040429103750266,0.00040340010627127,-0.00040379771400912,0.0004061119102456,-0.00043420773650078,0.00043326165059048,-0.00043371958560549,0.0004344472197728,-0.00043419471551567,0.0004332765829906,-0.00043370507495829,0.00043446066821158,-0.00038844086049595,0.00038499282359731,-0.00038695085149824,0.00038417481786971,-0.0003884524584075,0.00038497814878876,-0.00038696534697794,0.00038416303903874,-0.00029437214275399,0.00028894020149524,9.9571451380803e-09,-2.7760050561033e-08,-8.2019285996437e-08,6.4753932115382e-08,-0.00050438955562562,0.0005043722517732,-0.00048993301804832,0.00049007170314215,-0.00049104620717538,0.00049101542639796,-0.00049065641701426,0.00049055201916632,-0.0005164647492308,0.00051640922248288,-0.00051653105268816,0.00051657930906721,-0.00051641790402472,0.00051633538017443,-0.00051670139107273,0.00051672266941065,-0.00049009915624426,0.00048992607823499,-0.00049152031262565,0.00049163303907265,-0.00049104415696845,0.00049111315566285,-0.00048955373063346,0.00048954909269865,-0.0004896913598976,0.0004895441584292,5.6649041751582e-07,2.1587701773268e-06,-0.00043555513010179,0.00043575182640637,2.1737922864196e-07,6.265272095797e-08,-0.00043898830474056,0.00043988257607742,-0.00044362648312339,0.00043854640366774,-0.00044415462009221,0.00044378656298661,-0.00044157636531996,0.00045299062908909,-0.00043884758412081,0.00044002583730911,-0.00044347778824549,0.00043869382078654,-0.00044400720000958,0.0004439352974159,-0.00045643623907102,0.00045664971780418,-0.00045648867637697,0.00045659672739613,-0.0004563564002605,0.00045570073926008,-0.00045640940656955,0.00045564831776053,-0.0004414540870869,0.00044567391818719,-0.00044011299496012,0.00044118740781884,-0.00044006339712843,0.00044123828238042,-0.00044140326884251,0.00044572356397686,-0.0004417195226757,0.00045284976235054,0.60484717275765,122718,2924,0.0016404876240249,0.0020993351769442,0.0018135731522908,17.517306372708,5.5338450981663e-05,5.5338450981663e-05,5.5338450981663e-05,3127527.4988827,0.0055688764047862
19391759,0.38315091687233,0.0065533238166784,0.0020006078199898,0.0023971460109944,0.0021555699856942,-0.00045846327942484,0.0004573099524383,-2.5174012936313e-06,-1.0744857753061e-06,-2.849528236572e-07,-2.2679873663093e-07,-0.00032839113174002,0.00032358676831787,-0.00047606320980082,0.00047486110482161,-0.00047536079836335,0.00047852534443353,-0.00033075514328794,0.00032326988515949,-0.00032844712604323,0.00032353768021711,-0.00047611583827034,0.00047480264209971,-0.00047541806465333,0.00047847149587562,-0.00050696358359989,0.00050562330492112,-0.00050627658724278,0.00050725411854586,-0.00050694511418185,0.00050564449113526,-0.00050625598978383,0.00050727318748186,-0.00045171285499242,0.0004469161299764,-0.0004496205713139,0.00044581406433547,-0.00045172935810438,0.00044689529323623,-0.00044964113690456,0.00044579728069777,-0.00033070677446453,0.00032332658467626,1.3669572903916e-08,-4.0035614856845e-08,-1.233740224948e-07,9.7768093494178e-08,-0.00060457053254888,0.00060454488538929,-0.00058758993933542,0.00058779836447134,-0.00058655389539655,0.00058650504498613,-0.00058601709439436,0.00058586342811321,-0.00061910270075601,0.00061901858416387,-0.00061918571488435,0.00061925738367975,-0.00061903119423153,0.00061890876534928,-0.00061945798867425,0.00061949135204339,-0.0005879054220988,0.00058764598772952,-0.0005901465836936,0.00059031810183163,-0.00058654072145995,0.00058664193533543,-0.00058455036831211,0.00058454673107202,-0.00058731487448273,0.00058709220369006,7.9750842242718e-07,2.9128985621032e-06,-0.00051157081257421,0.00051179928355114,2.800508266622e-07,4.7834743613624e-08,-0.00052058548511125,0.00052184070900558,-0.00052681480862513,0.00051966847494061,-0.00052759443385544,0.00052709017817356,-0.00052405981285194,0.00053962772431632,-0.00052037321161022,0.00052205633368379,-0.00052659138636961,0.0005198901790321,-0.00052737265561584,0.00052731359630151,-0.00053625621897339,0.00053656011389976,-0.00053633495560876,0.00053648064397057,-0.00053616506419658,0.00053526988809271,-0.00053624457261499,0.00053519119850285,-0.00052142095776792,0.00052719582260823,-0.00051957042975843,0.00052107538176012,-0.00051949578720348,0.00052115173130689,-0.00052134468744596,0.00052727052465964,-0.00052427529922684,0.00053941527028173,0.73021614767059,122718,2924,0.0019061646099321,0.0025157459971078,0.0021297493546986,17.480318631716,5.5042549053731e-05,5.5042549053731e-05,5.5042549053731e-05,3427109.6732198,0.0065732059300018
20391759,0.44751501019378,0.0077240507926934,0.0023142745100404,0.0028830234190758,0.0025267528635772,-0.00052783155546595,0.00052610865635562,-3.6654461008149e-06,-1.5458236654762e-06,-3.9567803483261e-07,-3.0745072539493e-07,-0.00034978398058102,0.00034298378915638,-0.00055285974117176,0.00055110356276841,-0.00055179172641166,0.00055624372697053,-0.00035336798932135,0.00034261448672311,-0.00034986766399536,0.0003429086715688,-0.0005529398108587,0.00055101556898971,-0.00055187790086471,0.00055616179429993,-0.00059177997852583,0.00058974831720818,-0.00059076684757229,0.0005920208933347,-0.0005917518237963,0.00058978018483662,-0.00059073586855636,0.00059204994781646,-0.00051858519358162,0.00051157429024203,-0.00051551255502295,0.00050996077065215,-0.00051861061309397,0.00051154316172719,-0.00051554328263839,0.00050993492771054,-0.00035329390469783,0.00034269914488206,2.1386481682018e-08,-5.9957765172284e-08,-1.7291319193988e-07,1.355124516123e-07,-0.00072847514867633,0.00072843767278555,-0.00070922680534326,0.00070951790931727,-0.0007064746323134,0.00070641097609713,-0.00070562801543104,0.00070540571682399,-0.00074337002596018,0.00074325382850448,-0.0007434978947494,0.00074359790827856,-0.00074327481711882,0.00074310062095397,-0.00074389007799617,0.00074393214882712,-0.00070969564357764,0.00070933006013108,-0.00071323807991834,0.00071347322272863,-0.00070647950621392,0.00070662509194356,-0.00070352861399182,0.00070351547537002,-0.00070881705320129,0.00070850719386794,1.1874763489928e-06,4.0898752958471e-06,-0.00059630558763159,0.00059660115122528,3.8265275944277e-07,5.8424813326028e-08,-0.00061004234735266,0.00061195607316698,-0.00061679629595531,0.00060647194271076,-0.00061784197631752,0.00061714971682065,-0.00061530394311379,0.00063783930480535,-0.00060974654461777,0.0006122568540046,-0.00061648480830194,0.00060678091466782,-0.00061753292824819,0.0006174612256633,-0.00062846502900375,0.00062891228057579,-0.00062857477895781,0.00062880142825489,-0.00062844085770413,0.00062710219151647,-0.00062855176481436,0.00062699252242009,-0.00061482124988514,0.00062306130273393,-0.0006118751522374,0.00061410399944555,-0.00061177114455457,0.00061421057130833,-0.00061471478635866,0.00062316539251517,-0.00061560455838941,0.00063754324705066,0.76377140340812,122718,2924,0.0021935266979745,0.0030304969925639,0.0024821454795732,18.600448306804,6.4003586454435e-05,6.4003586454435e-05,6.4003586454435e-05,3592407.9076203,0.0077359925208135
21391759,0.49764006577554,0.0085463023802416,0.0025329023930397,0.0032327539513866,0.0027806460358153,-0.00056760760771492,0.00056541794385064,-4.5829696995751e-06,-1.9205359576916e-06,-5.0028799780926e-07,-3.7571752056998e-07,-0.00035771551089579,0.00034933522231629,-0.00059758627859158,0.00059538722172796,-0.00059621571075947,0.00060167728889228,-0.00036231854037051,0.00034905982440966,-0.00035783369326267,0.00034922696187038,-0.00059770031049532,0.00059526312808441,-0.00059633723826775,0.00060156060536808,-0.00064351773060962,0.0006408967243411,-0.00064224129618177,0.00064370234588912,-0.0006434779295755,0.00064094121957402,-0.00064219810216283,0.00064374346528695,-0.00055476159967534,0.00054596597172496,-0.00055089798310916,0.00054398272556446,-0.00055479815614151,0.00054592251140212,-0.00055094088711688,0.00054394558137068,-0.00036221169917106,0.00034917933636137,3.0811527483618e-08,-8.4787617761757e-08,-2.3675330384738e-07,1.8447482824401e-07,-0.00080989213637277,0.00080983973788162,-0.00078694498342331,0.00078734287825153,-0.00078234310581974,0.00078225967991175,-0.00078122796715948,0.00078091880127462,-0.00082808553511881,0.00082792761634613,-0.00082822986391906,0.00082836555063759,-0.00082796277547205,0.00082772336529958,-0.00082872084076078,0.00082877515069948,-0.00078754959812858,0.00078704759537105,-0.0007918648468544,0.00079218351839665,-0.00078234636734401,0.00078254820572551,-0.00077868316893168,0.00077865913042063,-0.00078647437165982,0.00078605130726735,1.4982737773893e-06,5.0058249392196e-06,-0.0006456232079787,0.00064596255768071,4.7943516081438e-07,3.8285052137643e-08,-0.00066025989152538,0.00066265479312388,-0.00066976259622613,0.00065709220685778,-0.00067100649361198,0.0006701013056561,-0.00066677165692656,0.00069445294843516,-0.00065985488118894,0.00066306628235048,-0.00066933811400984,0.00065751348793796,-0.00067058515985486,0.00067052587034542,-0.00068467355466051,0.00068523282459791,-0.00068482252019623,0.00068508245304403,-0.00068468952403084,0.00068299845457028,-0.00068483995852385,0.00068284957892299,-0.00066877846666969,0.00067900820404191,-0.00066498632644532,0.00066777695523369,-0.00066484443643547,0.00066792215275326,-0.00066863342606576,0.00067915021118558,-0.00066718289294489,0.0006940475483949,0.6908403174145,122718,2924,0.0023580016723791,0.0033685611104885,0.0026872071258797,15.320932971103,3.7767463768828e-05,3.7767463768828e-05,3.7767463768828e-05,3770177.0789083,0.0084493383791742
22391759,0.54493117391859,0.0093202998079824,0.0027377537361375,0.0035650448265202,0.0030175012453247,-0.00061136324966753,0.00060873593393827,-5.3999352854511e-06,-2.2637928046209e-06,-6.0064168380835e-07,-4.4213633821033e-07,-0.00037672422574605,0.00036711778894381,-0.00064730192172472,0.0006446756616083,-0.00064566143144378,0.00065192447279474,-0.00038223102007806,0.00036680361395453,-0.00037687498098994,0.00036697812988564,-0.00064744783420024,0.00064451768948157,-0.00064581605675667,0.00065177509281469,-0.0006967862602907,0.00069360772974047,-0.00069527847739524,0.00069691566480702,-0.00069673560413038,0.0006936639994303,-0.00069522390374253,0.0006969680387604,-0.00059503265376537,0.00058461921456181,-0.00059047512504657,0.00058230569354439,-0.00059507965984218,0.0005845642047215,-0.0005905294215187,0.00058225793950065,-0.00038209319305103,0.00036695609125616,3.8119602964722e-08,-1.0964189763058e-07,-3.0809471285877e-07,2.3878779293531e-07,-0.00089108676577894,0.00089101729592401,-0.00086441270933423,0.00086492724306481,-0.00085705543545796,0.0008569438514784,-0.00085569189678036,0.00085529152671356,-0.0009135745083407,0.00091336780401183,-0.00091372484567027,0.00091389720722044,-0.00091341861591224,0.0009131087187921,-0.00091431195384527,0.00091438128454037,-0.00086516139315973,0.00086450886173893,-0.00087021207083128,0.00087062561072563,-0.00085704723298125,0.00085730529983284,-0.00085283647099118,0.00085280556104684,-0.00086392764133815,0.00086337571480482,1.7630673616117e-06,5.8260690781374e-06,-0.00069745175572699,0.0006978153406071,5.6815907679976e-07,-2.4992225528783e-09,-0.00071413150722209,0.00071690644652676,-0.00072608775705277,0.00071129128007744,-0.00072753518844084,0.000726399959657,-0.00072156862241037,0.00075364113124363,-0.00071360425790626,0.00071744140224623,-0.00072553771394648,0.00071183757835924,-0.00072698883626609,0.00072695014859403,-0.00074203869465036,0.000742693466845,-0.00074223110793978,0.00074249942823211,-0.00074206048106009,0.00074006105403807,-0.00074225460983047,0.00073986876437024,-0.00072436642468255,0.00073644711663934,-0.00071989237456559,0.00072315142440691,-0.00071970830818139,0.00072333938788264,-0.00072417866048068,0.00073663132849446,-0.00072210323232747,0.00075311334569584,0.69163756941875,122718,2924,0.0025390415923133,0.0037055843473908,0.0029026188522389,14.812362210697,3.3698897685575e-05,3.3698897685575e-05,3.3698897685575e-05,3974237.4879468,0.009189297581563
23391759,0.5931554058503,0.010074090789838,0.0029354697258098,0.0038926876462816,0.0032459334177462,-0.00065432753054276,0.00065117360911614,-6.383681766478e-06,-2.7008755860285e-06,-7.1882585708047e-07,-5.2112404006632e-07,-0.00038868934992511,0.00037733935754831,-0.00069568121310584,0.00069256024748444,-0.00069371521139785,0.00070101447326882,-0.00039528618874841,0.00037719693308708,-0.000388876983767,0.00037716365104345,-0.00069586389685242,0.0006923634980814,-0.00069390777164041,0.00070082746321134,-0.00075131341856179,0.00074747706069265,-0.00074953003739231,0.00075135730657179,-0.00075125009670226,0.00074754694393779,-0.00074946226957239,0.00075142277391508,-0.00063429286643297,0.00062194943050251,-0.00062891396484601,0.00061923335383472,-0.00063435201197437,0.000621881190058,-0.00062898132429475,0.00061917329036883,-0.00039511270452399,0.0003773866592963,4.6967371366133e-08,-1.3770071761032e-07,-3.8483720331822e-07,2.9687991515006e-07,-0.0009751878415617,0.00097509967713757,-0.00094415477935854,0.00094479486398478,-0.00093517450522532,0.00093503459300348,-0.0009335254912936,0.00093302461070551,-0.0010017181897567,0.0010014598116703,-0.0010018780429792,0.0010020904576134,-0.0010015300904724,0.0010011431331734,-0.0010025582300218,0.0010026422575845,-0.00094506951145728,0.00094425428510704,-0.00095090692425277,0.00095142094843758,-0.00093516272201129,0.00093548301531193,-0.00093020008871778,0.00093015921444144,-0.00094363664574408,0.00094294699824443,2.084355974703e-06,6.769196662276e-06,-0.00074826821428183,0.00074868933356508,6.7519232878271e-07,-3.4354316821232e-08,-0.00076608796323584,0.00076934538589575,-0.00078124217265737,0.00076398985614542,-0.00078289294545001,0.00078151658563246,-0.00077480992402179,0.00081226800364395,-0.00076542976004514,0.0007700128215049,-0.00078055751459835,0.00076467005071606,-0.00078221265435442,0.00078220139141091,-0.00079972614469476,0.00080050068575923,-0.00079996515656954,0.0008002597678577,-0.00079978873507341,0.00079743503908683,-0.00080002978698416,0.00079719619844279,-0.00077969811074063,0.00079386382609053,-0.00077432123722166,0.00077815202173553,-0.00077409194493829,0.00077838596741441,-0.00077946439573592,0.00079409327524694,-0.00077547695986603,0.00081160915893419,0.66282300645257,122718,2924,0.0027166037957303,0.0040545336710019,0.0031138553247373,15.632920702717,4.0263365621739e-05,4.0263365621739e-05,4.0263365621739e-05,4078251.2001221,0.0099341229627151
24391759,0.64584555702482,0.010934353832522,0.0031609156942194,0.0042687329750059,0.003504705163297,-0.0007060874681759,0.00070231040500251,-7.5352265739672e-06,-3.2155703767746e-06,-8.5216081082562e-07,-6.1026025961308e-07,-0.00040675860188803,0.00039339548034105,-0.00075474088781911,0.0007510346614321,-0.00075238863743051,0.00076086739408625,-0.00041464346613298,0.00039346770488599,-0.00040698755106769,0.00039317958324463,-0.00075496486772542,0.00075079423266859,-0.00075262394087756,0.0007606381312087,-0.00081531997828323,0.00081070464810762,-0.00081321480864991,0.00081525017658664,-0.00081524236249307,0.00081078994741678,-0.00081313208354189,0.00081533040497109,-0.00068224829978566,0.00066763585394347,-0.00067591171499316,0.00066441987626738,-0.00068232101581184,0.00066755269813497,-0.00067599380656151,0.00066434606614011,-0.00041443019712295,0.0003936991467166,5.6349097975751e-08,-1.6957662532251e-07,-4.6602810748806e-07,3.5621435521105e-07,-0.0010739076582891,0.0010737975918927,-0.0010383628258963,0.0010391322501021,-0.001027060186068,0.001026890897104,-0.0010250656489854,0.0010244547599073,-0.0011046066873745,0.0011042928451424,-0.0011047824726045,0.0011050355430754,-0.0011043761427531,0.0011039051771105,-0.001105571559974,0.0011056677433107,-0.0010394580410573,0.0010384699431476,-0.0010462819437095,0.0010468972363905,-0.0010270515090183,0.0010274369512944,-0.0010212128507483,0.0010211564851232,-0.0010377975220784,0.0010369629590217,2.462036192788e-06,7.8846234346375e-06,-0.00080809555694581,0.00080858933809336,7.9369733585762e-07,-6.1418045968531e-08,-0.00082831727710926,0.00083216203200036,-0.00084704572951385,0.00082691901006282,-0.00084894296731751,0.00084730543026245,-0.00083851836096387,0.00088225648746122,-0.0008275228982946,0.00083296755153284,-0.00084622027372228,0.00082773910098436,-0.00084812272210073,0.0008481310262186,-0.00086675202974999,0.00086766621053754,-0.00086703995854515,0.00086737602763833,-0.00086685730574065,0.00086408597292733,-0.00086714768011806,0.00086379828265214,-0.00084521839967978,0.00086189335686708,-0.00083879201725288,0.00084329861173744,-0.00083851553643173,0.00084358068659826,-0.00084493658595984,0.00086216999970904,-0.00083932341781912,0.00088146133656313,0.69344629843763,122718,2924,0.002930501657098,0.0044639738248584,0.0033625056638329,17.852684187819,5.8021473502554e-05,5.8021473502554e-05,5.8021473502554e-05,4190466.8239977,0.010815184382775
25391759,0.70042233754126,0.011912169491353,0.0034162269835696,0.0046998721516186,0.0037960703561646,-0.00076184677727755,0.00075725051757985,-9.0828321844951e-06,-3.9204501535199e-06,-1.0130441968014e-06,-7.0664367019099e-07,-0.00041740373654777,0.00040108912288548,-0.00081900825021636,0.00081457060317071,-0.00081612677556522,0.00082632090459181,-0.00042706873522541,0.00040165365563456,-0.00041769203150429,0.00040081479411436,-0.00081929250343332,0.00081426696687696,-0.00081642404645483,0.00082603009442065,-0.00088648240229041,0.00088085087634286,-0.00088394165350552,0.00088621015627878,-0.00088638381567039,0.00088095858046661,-0.00088383718483715,0.00088631203115093,-0.00073447534723688,0.0007168418988898,-0.00072684822442541,0.00071289106647584,-0.00073456803862269,0.00071673725419139,-0.00072695157186448,0.00071279705590911,-0.00042679746941105,0.00040194486537743,7.2350788873152e-08,-2.135435480576e-07,-5.6057764194066e-07,4.2369469192682e-07,-0.001187631655783,0.0011874944505424,-0.0011478696599002,0.00114879051575,-0.001134907740269,0.0011347146082093,-0.0011324491078948,0.0011316972492997,-0.0012206288330945,0.0012202536308491,-0.0012208337219466,0.0012211363809715,-0.0012203504739507,0.0012197761971023,-0.0012217341109153,0.0012218380163616,-0.0011491977178467,0.0011480043179886,-0.0011573409672167,0.001158066764813,-0.0011349198299915,0.001135390565599,-0.0011277551349049,0.0011276669261894,-0.0011472064199315,0.0011462073097375,2.9858159901369e-06,9.348729151146e-06,-0.0008719987301367,0.00087262393119556,9.5196931494812e-07,-7.141862798191e-08,-0.00089503406932429,0.00089973535724496,-0.00091824169260498,0.00089428742516628,-0.00092041705720586,0.00091848374636792,-0.00090750662412661,0.00095990810326288,-0.00089408332527287,0.00090070011651885,-0.00091725377966956,0.00089526864748837,-0.00091943565048204,0.00091947183746607,-0.00093959999113138,0.0009407131725417,-0.00093994438649924,0.00094036595407162,-0.00093982099906865,0.00093649471154591,-0.00094016847266277,0.00093615062642549,-0.00091790806775529,0.000937869431238,-0.00090992214447089,0.00091537213331583,-0.00090959132870136,0.0009157100052328,-0.00091757048307414,0.00093820039858126,-0.00090847088691492,0.00095895643366955,0.76207065498803,122718,2924,0.0031606246238474,0.004935396878775,0.0036281540571756,19.835138679919,7.3881109439351e-05,7.3881109439351e-05,7.3881109439351e-05,4228974.1589957,0.011793353485103
26391759,0.75046068580225,0.012880299936514,0.0036699909202083,0.0051301870032514,0.0040801220130544,-0.00081246815476478,0.00080695593886064,-1.0863142668956e-05,-4.7291337264363e-06,-1.1889773986175e-06,-7.9581500183829e-07,-0.00041905052501481,0.0003991508452987,-0.00087782866052314,0.00087260021715086,-0.00087432165417302,0.00088666500916552,-0.00043083850411309,0.00040049583468811,-0.00041941880496846,0.00039879714198268,-0.00087819441943285,0.00087221168459788,-0.00087470223656668,0.00088629105910294,-0.00095381496494807,0.00094704668826462,-0.00095076682731594,0.0009532950310893,-0.00095368818000405,0.00094718432215922,-0.00095063334986879,0.00095342605037597,-0.00078184155302735,0.00076075325391431,-0.00077271335209221,0.00075591337365424,-0.00078196141071205,0.00076061988701555,-0.00077284513838127,0.00075579192145488,-0.00043048837574219,0.00040086753021171,9.5907217327462e-08,-2.7107049017968e-07,-6.7075595994073e-07,5.0111970614714e-07,-0.0012999608946711,0.0012997908327733,-0.0012559002473897,0.0012569989056534,-0.001242427034406,0.0012422162968193,-0.0012394149474911,0.0012384868726725,-0.0013341696591318,0.0013337259692207,-0.0013344037021412,0.0013347663197982,-0.0013338496644929,0.0013331504658429,-0.0013354022104392,0.0013355096759623,-0.001257488151566,0.0012560517356257,-0.0012670430695859,0.0012678914937309,-0.0012424690480877,0.0012430484727308,-0.0012336051469402,0.001233467034859,-0.001255117330345,0.0012539302565615,3.6058511490439e-06,1.100612455207e-05,-0.00092849274711846,0.00092929101625354,1.1426930286685e-06,-7.519889994899e-08,-0.00095321720706872,0.00095894268081973,-0.00098237248023354,0.00095409727384569,-0.00098482112001318,0.00098256515219513,-0.00096845402697096,0.001030769202004,-0.00095208538690131,0.00096009196941178,-0.00098119664890697,0.00095526482312471,-0.00098365337652064,0.00098374123022874,-0.001006339422596,0.0010076921604827,-0.0010067489656559,0.0010072790989451,-0.0010067309630047,0.0010027598965987,-0.0010071443407716,0.0010023507385027,-0.00098423729259695,0.0010079508471394,-0.00097436701216585,0.00098093130303137,-0.00097397332010661,0.00098133383424327,-0.00098383507363613,0.0010083446699523,-0.00096960274096855,0.0010296363122631,0.82335182229769,122718,2924,0.00336920569536,0.0054007632546519,0.0038630858324401,20.411878245013,7.8495025960104e-05,7.8495025960104e-05,7.8495025960104e-05,4209453.8843714,0.01271342532211
27391759,0.79833068172942,0.013717168899901,0.0038923349830842,0.0055038947629969,0.0043209391538196,-0.00085671768029779,0.0008503347280289,-1.2613072566907e-05,-5.5052958561972e-06,-1.3846744989195e-06,-8.9380584525073e-07,-0.00041929619211437,0.0003957662452785,-0.00092821022233487,0.00092223328752629,-0.00092407334476314,0.00093869816938837,-0.00043322639520641,0.00039804270775283,-0.00041975580857146,0.0003953218647189,-0.00092866856366211,0.00092174874257856,-0.00092454826719782,0.00093822991831524,-0.0010146180218992,0.0010067286889773,-0.0010110668377311,0.0010139245399974,-0.0010144595670391,0.0010068998860084,-0.0010109008871993,0.0010140883455132,-0.00082167150925498,0.00079719994314351,-0.0008110607591932,0.00079159434554808,-0.00082182218774314,0.00079703414616279,-0.00081122467824503,0.00079144178204675,-0.00043278612320794,0.00039850619893043,1.2230360616852e-07,-3.3670641581856e-07,-7.9465361041091e-07,5.8713471695978e-07,-0.0014019024584232,0.0014016944103917,-0.0013511011539187,0.0013523979049871,-0.001338760494001,0.0013385304455671,-0.0013351902349282,0.0013340624673864,-0.0014399472567486,0.0014394258483572,-0.0014401952348903,0.001440623718309,-0.0014395986681007,0.0014387584564088,-0.0014412990882656,0.001441409176204,-0.0013529167664954,0.001351206840505,-0.0013635122663273,0.0013644965218835,-0.0013388273934466,0.0013395285119538,-0.0013282303907315,0.0013280336510661,-0.0013502196202187,0.0013488211864684,4.2204263195194e-06,1.2634125112984e-05,-0.00097499222789944,0.00097596254339264,1.3474272980574e-06,-8.7511709662134e-08,-0.00099846621101081,0.0010051762194765,-0.0010357318169028,0.0010033931962323,-0.0010384333934713,0.0010358294568356,-0.0010163449900451,0.0010880426537381,-0.0009971309802009,0.0010065321971164,-0.0010343458226974,0.0010047694921673,-0.0010370569489055,0.0010372157608299,-0.0010643141760939,0.0010659093078336,-0.0010647964640498,0.0010654228727746,-0.0010648402628997,0.0010602271057708,-0.0010653270808325,0.0010597452714432,-0.0010377282052898,0.0010650598597594,-0.0010261075622423,0.0010337651796074,-0.0010256433850726,0.001034239880044,-0.0010372538522397,0.0010655241536605,-0.0010177003288041,0.0010867062149185,0.74366212196709,122718,2924,0.0035513881943744,0.005822859855363,0.004056504569227,22.213998121278,9.291198497022e-05,9.291198497022e-05,9.291198497022e-05,4133550.9159183,0.013521644101764
28391759,0.84088273568841,0.014563862380013,0.0041204592805133,0.0058790488494209,0.0045643542500783,-0.00090341227108774,0.00089622982419846,-1.4156886687442e-05,-6.2011258905002e-06,-1.5607194167456e-06,-9.6710867668613e-07,-0.00043323205696417,0.0004069578228692,-0.00098371889397507,0.00097708801952966,-0.00097902748760431,0.00099551793313311,-0.00044905232645194,0.0004097341322768,-0.00043378882225393,0.00040641682828741,-0.0009842751161103,0.00097650212100187,-0.00097960187594223,0.00099494985636125,-0.0010735108465752,0.0010645649976047,-0.0010695221263331,0.001072622078751,-0.0010733191083555,0.0010647713489729,-0.0010693221827298,0.0010728203570103,-0.00086478262024389,0.00083727411468895,-0.00085287755770972,0.00083093248400215,-0.00086496593773053,0.00083707421070253,-0.00085307525471049,0.0008307469673384,-0.00044851618525618,0.00041029542918535,1.4719239453638e-07,-4.0920501727323e-07,-9.3239296468177e-07,6.787447295806e-07,-0.0015006146822799,0.0015003603905625,-0.0014441078519234,0.0014456155322086,-0.0014312856515824,0.0014310269562022,-0.0014271671167462,0.0014258195590716,-0.0015425557872941,0.0015419438798621,-0.001542798871132,0.001543292398932,-0.0015421626129104,0.0015411658772768,-0.0015439936146519,0.0015441027245423,-0.0014461807596282,0.0014441680473268,-0.0014577702351241,0.0014588997482243,-0.0014313518074011,0.0014321778864698,-0.0014193159113514,0.0014190530763762,-0.0014432101432995,0.0014415744201314,4.7454017258949e-06,1.4102252467387e-05,-0.0010234876517893,0.0010246076340553,1.5412307960111e-06,-1.2966134657425e-07,-0.0010507372242587,0.0010582373116083,-0.0010931657939114,0.0010572230944418,-0.0010961389868812,0.0010931599660833,-0.0010705936428733,0.0011501691343103,-0.0010491787697084,0.0010598196443607,-0.0010915505532665,0.001058827337474,-0.0010945346262544,0.0010947755809997,-0.00112046218483,0.0011222635334195,-0.0011210234718968,0.001121697574059,-0.0011210506449533,0.0011158841902975,-0.0011216170770445,0.0011153234555118,-0.0010929698152446,0.0011237893763912,-0.0010799038899184,0.0010884818709743,-0.001079362822204,0.0010890349914191,-0.001092417086196,0.0011243305494816,-0.0010721751819726,0.0011486092297331,0.84556057744222,122718,2924,0.0037437943843845,0.0062314004479397,0.0042581124271059,23.41388951873,0.00010251111614984,0.00010251111614984,0.00010251111614984,4176810.461123,0.014335428729029
29391759,0.87768116507304,0.015120455085627,0.0042714635373615,0.0061278938212272,0.004721097727038,-0.00092822582658341,0.00092022817336437,-1.5909971976185e-05,-6.9589651413763e-06,-1.7898473573859e-06,-1.0811962583938e-06,-0.00041534357480317,0.00038486892979375,-0.0010109747934348,0.0010035965881961,-0.0010056340239693,0.0010247390979762,-0.00043339714420259,0.00038905678070265,-0.0004160087493984,0.0003842189872185,-0.0010116412702252,0.0010028979541167,-0.0010063195532317,0.0010240591244385,-0.0011144349183632,0.0011044186302906,-0.0011099271229549,0.0011135049757186,-0.0011142057646914,0.0011046641493851,-0.0011096892406369,0.0011137419238677,-0.00088571554044571,0.00085487715280168,-0.0008723008616521,0.0008479425670303,-0.0008859358840536,0.0008546391415992,-0.00087253638279392,0.00084771975569987,-0.00043275225835289,0.0003897267030071,1.8197606245303e-07,-4.8431725151359e-07,-1.078569431583e-06,7.8602571349624e-07,-0.0015738095306097,0.0015735162410905,-0.0015100904643475,0.0015118438362512,-0.0015016911092793,0.0015014154615639,-0.0014971272453815,0.0014955471212045,-0.0016189554034862,0.0016182565185332,-0.001619188498172,0.0016197669337963,-0.0016185760475552,0.001617417207031,-0.0016204785199139,0.0016205974383406,-0.0015124289925755,0.0015100931392167,-0.0015247261637049,0.0015260273694041,-0.0015017807123276,0.0015027593713259,-0.0014878968631789,0.0014875710711963,-0.001509130897027,0.0015072459202209,5.3909554634103e-06,1.5642993821702e-05,-0.0010447528764862,0.0010460693593426,1.7801174095968e-06,-1.498680061257e-07,-0.0010661874433616,0.0010746931116963,-0.0011191228690422,0.0010792141724693,-0.0011222739580762,0.0011189547097168,-0.0010889784721342,0.0011781082086269,-0.0010643821055659,0.0010765246853165,-0.0011172558307504,0.0010810692336865,-0.0011204188636519,0.0011208221817586,-0.0011545548573186,0.0011566532304897,-0.0011552028660979,0.0011560000329202,-0.0011553024948551,0.0011495207824127,-0.0011559562190358,0.0011488733748087,-0.0011197401748856,0.0011536261395452,-0.0011048898449753,0.0011145986727733,-0.0011042637512628,0.0011152382188029,-0.0011191010562265,0.0011542523160151,-0.0010908092799609,0.0011763015109439,0.64299206939106,122718,2924,0.0038453840012792,0.00653412434932,0.004346862310314,24.735204791424,0.00011308163833139,0.00011308163833139,0.00011308163833139,3945936.7399816,0.01483574909979
30391759,0.90844458121935,0.015524267862218,0.0043838484776093,0.0063057716921162,0.0048346476924929,-0.00095079487005391,0.0009424700097737,-1.6504146520389e-05,-7.196902048624e-06,-1.9230029750438e-06,-1.1128987189115e-06,-0.00043470416866223,0.00040394179398418,-0.0010389498851711,0.0010313371086577,-0.0010333995041363,0.0010530387164892,-0.00045349584298644,0.00040782396015736,-0.00043546976630895,0.00040319140101183,-0.001039715329816,0.0010305370938988,-0.0010341844555315,0.0010522578143808,-0.0011415623519336,0.0011309862189888,-0.0011368980798941,0.0011405669565635,-0.0011413004886215,0.001131265938499,-0.0011366272878163,0.0011408379135783,-0.00090340463932472,0.00087130878050018,-0.00088950911579881,0.00086424903103636,-0.00090365821500519,0.00087103677519817,-0.0008897782739464,0.00086399263335206,-0.00045275153961713,0.00040859530118726,2.0092812077086e-07,-5.648456318577e-07,-1.2461671769428e-06,8.9353125343961e-07,-0.0016208447530593,0.0016204912990368,-0.0015493324438357,0.0015513286804794,-0.001540666671321,0.0015403361346778,-0.0015358868629031,0.0015340558471724,-0.0016751423950955,0.0016743245319367,-0.0016753002115394,0.0016759432787062,-0.0016747428854341,0.0016734001624336,-0.0016766798151913,0.0016767984742273,-0.001551888042199,0.0015491895794197,-0.001563947639871,0.0015654255178079,-0.0015406792137768,0.00154178596045,-0.001526635310277,0.0015262416743859,-0.0015485822414539,0.0015464007277289,5.5513636363685e-06,1.6279191238186e-05,-0.0010674924406653,0.0010688350263415,1.936625698972e-06,-2.7149121699877e-07,-0.0010941414570688,0.0011026582472022,-0.0011484195674216,0.001107358929045,-0.001151775264576,0.001148042701058,-0.0011167569847944,0.0012076247695711,-0.0010920653124819,0.0011047622071289,-0.0011462798779482,0.0011094863463681,-0.0011496479045112,0.0011501829222514,-0.0011796831669327,0.001181854220033,-0.0011804241144486,0.0011811080353275,-0.0011802742670335,0.0011743013160486,-0.0011810210644212,0.0011735610623541,-0.0011419277594147,0.0011775263029613,-0.0011269007474717,0.0011368384907588,-0.0011261826701662,0.0011375705822558,-0.0011411962280637,0.0011782445732108,-0.0011188597862066,0.0012055468365652,0.55654009761524,122718,2924,0.0039384209249384,0.0067286193983128,0.0044412816188498,26.075145863574,0.0001238011669086,0.0001238011669086,0.0001238011669086,4036975.4555137,0.015223445361709
31391759,0.93435111814682,0.015946689480965,0.0045002274344907,0.0064912764439213,0.0049551856025534,-0.00097546849793632,0.0009665792340123,-1.7577540392575e-05,-7.7213543717256e-06,-2.0918884868974e-06,-1.1869877786661e-06,-0.00043785752910519,0.00040475807360834,-0.0010680936083907,0.0010600068269284,-0.0010621642750109,0.0010832042274937,-0.00045795955373632,0.00040932613431744,-0.00043871397683238,0.00040391572148366,-0.0010689508280858,0.0010591136763447,-0.0010630409722678,0.0010823301330463,-0.0011736677635207,0.0011623582842329,-0.0011686991835353,0.0011725937089673,-0.0011733749304073,0.0011626699373628,-0.0011683973683905,0.0011728965583122,-0.00092631728811066,0.00089213889184122,-0.00091154284473068,0.00088464827141077,-0.00092660195951527,0.00089183558869432,-0.00091184307967402,0.00088436057061165,-0.00045712362215671,0.00041018865288221,2.2517437442869e-07,-6.3244478634902e-07,-1.4021511708624e-06,1.0072914802121e-06,-0.0016751994318042,0.0016748036707597,-0.0015996928740326,0.0016019418811218,-0.0015927980760995,0.0015924248618056,-0.0015877396045796,0.0015856854270696,-0.0017314311862879,0.0017305123192251,-0.0017315390598294,0.0017322607173054,-0.0017310246589271,0.0017295194323033,-0.001732971148375,0.0017331069166812,-0.0016025475047255,0.0015995121080291,-0.0016151062505623,0.0016167754273106,-0.0015927763640537,0.0015940199428202,-0.001577728702809,0.001577291499152,-0.0015990490425833,0.0015965919458917,5.9075436536223e-06,1.7206056897339e-05,-0.0010902894745069,0.0010917527185631,2.1258653883095e-06,-3.542601790745e-07,-0.0011185307137735,0.0011274716856812,-0.0011766090959691,0.0011330933404842,-0.0011801100808479,0.0011760206620214,-0.0011425840170397,0.0012390526218608,-0.0011161900545851,0.0011298414084848,-0.0011742034009551,0.0011354863145259,-0.0011777172242421,0.0011784269350672,-0.0012074470471102,0.0012097959038197,-0.0012082786705047,0.0012089588301679,-0.0012080785212871,0.0012017973676339,-0.0012089162655552,0.0012009664971496,-0.0011689018625918,0.0012065231682664,-0.0011528784422852,0.0011633965760235,-0.0011520702752108,0.0011642194393531,-0.0011680795758771,0.0012073315030743,-0.0011449525320788,0.001236710128826,0.69215549466537,122718,2924,0.0040398027958737,0.0069533227301478,0.0045361594594493,28.359036888449,0.00014207229510759,0.00014207229510759,0.00014207229510759,3966228.2255229,0.015650948017792
32391759,0.95390068231597,0.016312456703099,0.0046017068538838,0.006651220357916,0.0050595294912993,-0.0009900941202056,0.00098043936080128,-1.9334693253303e-05,-8.4348765147057e-06,-2.2995047303621e-06,-1.2847083026444e-06,-0.00040913312114862,0.00037127005138771,-0.0010839532400049,0.0010750965742678,-0.0010773400515317,0.0011012842235952,-0.0004315995902138,0.00037766245768205,-0.00041009189051813,0.00037032414858894,-0.0010849157427039,0.001074096808467,-0.0010783222424725,0.0011003036612581,-0.0012016869496314,0.0011894212555009,-0.0011961675491176,0.0012006152707208,-0.0012013581368552,0.001189770109772,-0.0011958295062847,0.0012009550950449,-0.00094112487219658,0.00090369963846569,-0.00092478006304821,0.00089559162635709,-0.00094144516790856,0.00090336026334816,-0.00092511617564399,0.00089526813559875,-0.00043065968823674,0.00037862691098867,2.6830549503753e-07,-6.9414224803192e-07,-1.5379535177622e-06,1.1257453722077e-06,-0.0017272831896576,0.0017268699516478,-0.0016502614768408,0.0016527769602399,-0.0016483780912545,0.0016480047200809,-0.0016429580382041,0.001640697994094,-0.0017792894379596,0.00177830396861,-0.0017793891301622,0.0017802155368882,-0.0017789332772733,0.0017772887960879,-0.0017808864670327,0.0017810543249266,-0.0016534559796497,0.0016501196305757,-0.0016669577317565,0.0016688226447808,-0.0016483996269074,0.0016498127723357,-0.0016312324177036,0.0016307591588486,-0.0016495429506392,0.0016468555052813,6.6216496654755e-06,1.864819203733e-05,-0.0010966412674413,0.0010983328114419,2.3806329285313e-06,-3.5753625881945e-07,-0.0011161528205588,0.0011262571195881,-0.0011859078126336,0.001138143201153,-0.0011894823183917,0.0011851654369402,-0.0011438048474879,0.0012508047271114,-0.0011135642790725,0.0011288761768753,-0.0011832510844038,0.0011407864765099,-0.0011868393077221,0.001187822835403,-0.001226041529083,0.0012287794960905,-0.0012269592178917,0.0012278558000355,-0.0012269689780644,0.0012200906710345,-0.0012278933357642,0.0012191737147059,-0.0011833553020107,0.0012234901063902,-0.0011652592899809,0.0011770205235724,-0.0011643660172538,0.0011779297188519,-0.0011824466669373,0.0012243834583093,-0.00114642297251,0.0012482147223521,0.79325035118638,122718,2924,0.0040992188084104,0.0071684980706019,0.004563131445054,29.293209960835,0.00014954567968668,0.00014954567968668,0.00014954567968668,3636764.3386517,0.015957362768132
33391759,0.96772693128836,0.016579311408398,0.0046781329988924,0.0067655625690852,0.0051356158404203,-0.00099853725952029,0.00098834296639311,-2.0741248790216e-05,-8.9659804969069e-06,-2.4490198166107e-06,-1.2260558981862e-06,-0.00039058493887794,0.00034926664930558,-0.0010932640049337,0.0010841067612295,-0.0010861327089116,0.0011128508492004,-0.00041510916140166,0.00035689436582666,-0.00039174317412759,0.00034811919447455,-0.0010944278986053,0.001082902907534,-0.0010873160062921,0.0011116658497728,-0.0012192033586673,0.0012061472964313,-0.0012132489730438,0.0012181446831961,-0.0012188068165503,0.0012065661833798,-0.0012128432856851,0.0012185546474115,-0.00094852747474776,0.00090830648294242,-0.00093079573568876,0.00089945466792996,-0.00094891619805173,0.00090789833751284,-0.00093120002170029,0.00089906218035616,-0.00041396822539952,0.00035805885144324,3.40313530648e-07,-8.2492375910129e-07,-1.7923262585568e-06,1.3240632426486e-06,-0.0017616466132854,0.0017611770819908,-0.0016826590794459,0.0016856299005198,-0.0016844881960257,0.0016841054445628,-0.0016786910589679,0.0016760230858288,-0.0018121524891539,0.001811029392132,-0.001812168486523,0.0018131587241196,-0.0018118540321886,0.0018099344378938,-0.0018137572607523,0.0018139514224902,-0.0016863380501403,0.0016824348258566,-0.001700270838397,0.0017024548117133,-0.0016844253932732,0.0016861305199722,-0.0016654286897887,0.001664848961718,-0.0016820648846643,0.0016789466654453,7.2022455086982e-06,1.9845096911467e-05,-0.0010979870773757,0.0010998414774474,2.6770904138485e-06,-5.1575178459845e-07,-0.0011126238352401,0.0011234557091419,-0.0011903705229707,0.0011391086401632,-0.0011940940819457,0.0011892589867475,-0.0011427031190793,0.0012576984330381,-0.0011095921637132,0.0011265207182459,-0.0011872687398016,0.0011421962295438,-0.0011910071901648,0.0011923617864255,-0.0012358609394689,0.0012389707804208,-0.0012369299480694,0.0012378950096086,-0.001236966924962,0.0012296215970339,-0.0012380433064085,0.0012285532526435,-0.0011908235046029,0.0012333432584192,-0.0011709208440728,0.0011837153698761,-0.0011698769177334,0.0011847771443401,-0.0011897625080345,0.001234387395551,-0.0011457670331324,0.0012546652899758,0.81381076464073,122718,2924,0.0041333309373403,0.0073103225338739,0.0045691755596685,29.275810956282,0.00014940648765025,0.00014940648765025,0.00014940648765025,3387266.2762319,0.016142318094313
34391759,0.97833117053416,0.016763413068673,0.004731917802862,0.0068433604295338,0.0051881348362771,-0.001008518281705,0.00099802649805308,-2.1440686802726e-05,-9.1503910926832e-06,-2.6176378180549e-06,-1.3019836061926e-06,-0.0003888938025273,0.00034628603172434,-0.0011060050964556,0.0010964098975047,-0.0010985391361739,0.0011261337211053,-0.00041448340125531,0.00035429382013572,-0.00039014395914244,0.00034504597865419,-0.0011072598484518,0.0010951138608795,-0.0010998131913978,0.0011248564551149,-0.001234450300327,0.0012209197538681,-0.0012282636215023,0.0012334201437308,-0.0012340241558144,0.0012213694147076,-0.0012278283312144,0.0012338608808506,-0.00095707473609294,0.00091568952243914,-0.00093877283244019,0.00090700065482779,-0.00095749409233687,0.00091525053464452,-0.00093920770250991,0.00090657726954925,-0.0004132501170907,0.00035555050962149,3.6878591559854e-07,-8.8754170682668e-07,-1.9273568016186e-06,1.4262417941486e-06,-0.0017915287565095,0.0017910262826875,-0.0017090620621313,0.0017122631450497,-0.0017129524789817,0.001712547308594,-0.0017071633892785,0.0017042926767128,-0.0018437275654069,0.0018425223960377,-0.001843690359095,0.0018447566308961,-0.0018434882757628,0.0018414275037241,-0.0018453830551651,0.0018455941300565,-0.0017129899527916,0.0017087911027777,-0.0017266435329836,0.0017289974231725,-0.0017128950049062,0.0017147351273406,-0.0016936044220821,0.0016929794681771,-0.0017086313901456,0.0017052777867878,7.4858472459642e-06,2.0508479406233e-05,-0.0011015586929704,0.001103458732077,2.8629933071113e-06,-5.6917366590209e-07,-0.0011144009590344,0.0011255153316271,-0.0011978264574312,0.0011448261707282,-0.0012015922049045,0.0011965461610234,-0.0011452631436918,0.0012638520977578,-0.0011111349898313,0.0011288144492053,-0.0011944902583487,0.001148148326706,-0.0011982708802675,0.0011998834826467,-0.0012447847792123,0.00124807696078,-0.0012459334840998,0.0012469215832064,-0.0012459183347612,0.0012382973527125,-0.0012470743561341,0.0012371493461812,-0.0011958674873153,0.001239409576456,-0.0011755790366902,0.0011887481220464,-0.0011744555922675,0.0011898893151309,-0.0011947271572881,0.0012405333068334,-0.0011485610348156,0.0012605845728412,0.7296115327816,122718,2924,0.004174233006067,0.0074337217397984,0.0045841802145253,31.392765796178,0.00016634212636942,0.00016634212636942,0.00016634212636942,3284994.1261417,0.016324567463865
35391759,0.98675557053724,0.016895189712753,0.0047707926753127,0.0068986687337122,0.0052257283037282,-0.0010226979950299,0.0010120506457996,-2.1706772446609e-05,-9.285762336367e-06,-2.7100729849427e-06,-1.3197724412522e-06,-0.00040374948649262,0.00036094898190537,-0.0011227087517207,0.0011130195572648,-0.0011151528717237,0.0011429666919328,-0.00042967676535891,0.00036889170996587,-0.00040507368642612,0.00035963404904378,-0.0011240368241292,0.0011116492800752,-0.0011164998686109,0.0011416148201412,-0.001249689326308,0.0012358916567702,-0.0012434431887134,0.001248653004144,-0.0012492390974176,0.0012363662027171,-0.0012429839961498,0.0012491188098858,-0.00096921814856909,0.00092727449478766,-0.0009507342436267,0.00091854672431131,-0.00096966240506935,0.00092681069997859,-0.00095119369242971,0.00091809820635309,-0.00042836914849443,0.00037022299972353,3.83422710721e-07,-9.4672085724943e-07,-2.0668553941788e-06,1.5222505261163e-06,-0.001814563564778,0.0018140175561421,-0.001728533656709,0.0017319469850937,-0.0017333302811851,0.0017328753583473,-0.0017275001547234,0.0017244341323909,-0.0018703446009076,0.0018690424457218,-0.0018702333012591,0.0018713582123517,-0.0018701114579219,0.0018679057500641,-0.0018719785968226,0.0018722003415279,-0.0017326555380833,0.0017281577700322,-0.001745968480582,0.0017484855954133,-0.0017332042565101,0.0017351508844814,-0.0017139619151542,0.0017132979795016,-0.0017283145487074,0.0017247109647751,7.5350231839428e-06,2.0815943262691e-05,-0.001114105301496,0.0011160154659671,2.9867351850269e-06,-6.8119353003057e-07,-0.0011311082387559,0.001142067767789,-0.0012140930174696,0.0011605543701595,-0.0012179516197206,0.0012125837735348,-0.001161694360032,0.001281081321784,-0.0011276100613026,0.0011455996893014,-0.00121052517578,0.0011641081520516,-0.0012143987348983,0.0012161527932941,-0.0012573240010409,0.0012606595316226,-0.0012585511488889,0.0012594257591564,-0.0012583495440541,0.0012506740042618,-0.0012595840198973,0.0012494476153313,-0.0012084622740589,0.0012527859489857,-0.0011881808522804,0.0012013709064652,-0.0011869789202435,0.0012025907693213,-0.0012072433798669,0.0012539882625767,-0.0011652247878777,0.0012775813427334,0.65593630488581,122718,2924,0.0042327440962222,0.0075288694220233,0.0046362571019442,35.839104750826,0.00020191283800661,0.00020191283800661,0.00020191283800661,3269496.6886591,0.016533684794886
36391759,0.99221934757237,0.016984724232615,0.0047971807485743,0.0069361300248702,0.0052514134591708,-0.0010302760308771,0.0010195106664208,-2.1882897714465e-05,-9.4016650418016e-06,-2.7774664802201e-06,-1.3364054548468e-06,-0.00041052167342196,0.00036745300023121,-0.0011317909328635,0.0011220342461177,-0.0011241855651054,0.0011521477464884,-0.00043663874146492,0.00037542953866511,-0.00041189619400411,0.00036608682381024,-0.0011331690520605,0.0011206137541625,-0.001125582034917,0.0011507450984068,-0.0012578492893743,0.0012438770703238,-0.0012515641149009,0.0012568035028302,-0.0012573825236449,0.0012443684009651,-0.0012510886661688,0.001257286372279,-0.00097592620500622,0.00093362309013848,-0.00095733224786048,0.00092485533756625,-0.00097638762230885,0.00093314254575397,-0.00095780832457199,0.00092438953358215,-0.00043528016528458,0.00037681144762262,3.9384546028471e-07,-9.8682965519216e-07,-2.1773623668331e-06,1.6036460169888e-06,-0.0018274818923533,0.0018269067459265,-0.001739543840523,0.0017431332631347,-0.0017449851054162,0.0017444868082085,-0.0017391475392528,0.0017359385203256,-0.0018849688401767,0.0018835911326942,-0.0018847945773981,0.0018859698282484,-0.0018847370307457,0.0018824231159505,-0.0018865626534433,0.0018868020683636,-0.0017438479128554,0.00173911598799,-0.0017570176489474,0.0017596773536914,-0.0017447980871152,0.0017468285055487,-0.0017255539287461,0.0017248742197798,-0.0017395036473878,0.0017356993479294,7.5601821110694e-06,2.097312692731e-05,-0.0011210897536215,0.0011230089333982,3.0814327129682e-06,-7.7765420699399e-07,-0.0011405501513306,0.0011513598010166,-0.0012231534227038,0.0011692099339967,-0.0012270618593582,0.0012214480273384,-0.0011710196958841,0.0012911075765125,-0.0011368625352307,0.0011550812258577,-0.0012193975442536,0.0011729518420232,-0.0012233209002744,0.0012252051281865,-0.0012640614921026,0.0012674330375206,-0.0012653520950066,0.0012661358722468,-0.0012650299605406,0.0012573535776895,-0.0012663278560842,0.0012560637627855,-0.0012157150357835,0.0012604197705441,-0.0011954016224806,0.0012085766008881,-0.0011941358174911,0.0012098603093855,-0.0012144323424539,0.0012616859984086,-0.0011747394968568,0.0012874180508519,0.68699515304475,122718,2924,0.0042639500750585,0.0075822147863583,0.0046652496608549,37.525275479643,0.00021540220383714,0.00021540220383714,0.00021540220383714,3271894.5335185,0.01664911731927
37391759,0.99544511646996,0.017037052207325,0.0048125984681119,0.0069580302448763,0.0052664234943368,-0.0010316630660451,0.0010207884062638,-2.2210449377031e-05,-9.4340610049957e-06,-2.8224279400497e-06,-1.338125346078e-06,-0.00040298795984542,0.00035926262538217,-0.0011331820065198,0.0011232459653854,-0.0011254195885066,0.0011539839452737,-0.00042964863718612,0.00036738908143292,-0.00040440428302443,0.00035785391673099,-0.0011346023511788,0.0011217832546408,-0.0011268578503543,0.0011525386372786,-0.0012619131212829,0.001247750564042,-0.001255498801807,0.0012608842798895,-0.0012614321804169,0.0012482561972249,-0.001255009388446,0.0012613816635384,-0.00097779702172,0.00093492624611977,-0.00095887489277252,0.00092618906242262,-0.0009782729070529,0.00093443156621156,-0.00095936501832482,0.00092570870676655,-0.00042824739387341,0.00036881267028609,4.1311786263878e-07,-1.0100317345689e-06,-2.255144034374e-06,1.6779138277114e-06,-0.001835570276596,0.001834991557943,-0.0017476510267929,0.0017514002550543,-0.0017540861072183,0.0017535755589956,-0.0017482268118126,0.0017449217802344,-0.0018920406987775,0.0018906236120462,-0.0018918286092306,0.0018930643705687,-0.0018918296883848,0.0018894481946227,-0.0018936139862293,0.0018938856947928,-0.0017521356445606,0.0017472369454102,-0.0017653720702013,0.0017681632416105,-0.0017538712515924,0.0017559901851963,-0.0017342643233736,0.0017335894200697,-0.0017477030279842,0.0017437602371662,7.686779282861e-06,2.1251017119197e-05,-0.0011195268251434,0.001121475221344,3.182525941527e-06,-8.2857367801516e-07,-0.0011352211706229,0.0011461280343941,-0.0012218961079826,0.0011669747556886,-0.0012258112789952,0.0012200451095535,-0.0011663320556024,0.0012887813708269,-0.0011313834392728,0.0011499994022377,-0.0012179910323951,0.0011708659459601,-0.0012219211307883,0.0012239514776554,-0.0012656831145956,0.0012691515717735,-0.0012670241425481,0.0012678039292089,-0.0012667134862395,0.0012589579736037,-0.0012680618375188,0.0012576177075857,-0.0012154871721544,0.0012604808788631,-0.0011948000611762,0.0012081494524187,-0.001193483510438,0.0012094839647059,-0.0012141536683918,0.0012617978258026,-0.0011702018845299,0.0012849418551295,0.68009907945379,122718,2924,0.0042695512800192,0.0076155760907352,0.0046588721247244,37.635465641536,0.00021628372513229,0.00021628372513229,0.00021628372513229,3165999.7876037,0.016682267425237
38391759,0.99730782751995,0.017068955096269,0.0048220604286266,0.0069712811633953,0.0052756135042471,-0.0010316209284956,0.0010207011100009,-2.2347706521104e-05,-9.4332596192906e-06,-2.839360743483e-06,-1.3509402112561e-06,-0.00040025523396217,0.00035636788004126,-0.0011333951914538,0.001123351676005,-0.001125560805384,0.0011543080732056,-0.00042712501913748,0.00036447554423872,-0.00040167547515126,0.0003549553281174,-0.0011348195263366,0.0011218849627536,-0.0011270031085396,0.0011528588109744,-0.0012628829994182,0.0012486333570963,-0.0012564146468208,0.001261859724591,-0.0012624007282765,0.0012491403563742,-0.0012559238876445,0.0012623584587291,-0.00097780192569513,0.00093470312518872,-0.00095875763697018,0.00092604872237001,-0.00097827914439472,0.00093420710382295,-0.00095924912316805,0.0009255670522761,-0.00042571982663544,0.00036590295047997,4.1444413134554e-07,-1.0124319640456e-06,-2.2629844501665e-06,1.6847284287881e-06,-0.0018388329695967,0.0018382532244122,-0.0017507437828245,0.0017545076020069,-0.0017574457539847,0.0017569329869077,-0.0017515780461756,0.0017482634113856,-0.0018951864544433,0.0018937646784018,-0.0018949715402482,0.0018962125270786,-0.0018949840820602,0.0018925953393782,-0.0018967688557506,0.0018970432272339,-0.0017552541629847,0.0017503388388917,-0.0017685020632601,0.001771305341897,-0.001757236696521,0.00175936310413,-0.0017375345051519,0.0017368597048294,-0.001750800708415,0.0017468437611667,7.7427731416962e-06,2.1384663529471e-05,-0.0011181885698821,0.0011201503331094,3.2053677312211e-06,-8.2115078762098e-07,-0.0011329449879043,0.0011439393172951,-0.0012209573971006,0.0011657002907302,-0.001224882307674,0.0012191076961691,-0.0011642510546692,0.0012874424696626,-0.0011290925283204,0.0011478253230216,-0.0012170373595877,0.0011696064415368,-0.0012209772081825,0.0012230290274769,-0.0012655181430388,0.001269015143123,-0.0012668643186297,0.0012676623485614,-0.0012665588397558,0.0012587527315031,-0.0012679123402687,0.0012574073160294,-0.00121453390204,0.0012597026837888,-0.0011937641370434,0.0012072009923176,-0.0011924425167333,0.0012085405688904,-0.0012131953363693,0.0012610247012864,-0.0011681355487379,0.0012835882686795,0.71704436579938,122718,2924,0.0042693056538057,0.0076290354474765,0.0046533691780743,37.195993440358,0.00021276794752286,0.00021276794752286,0.00021276794752286,3133719.9238862,0.016690113527112
38880000,0.9979878117929,0.017081038387348,0.004825650882791,0.0069762862974193,0.0052791012071375,-0.0010313522099565,0.0010203442170048,-2.2582161285715e-05,-9.511295971395e-06,-2.8712316847872e-06,-1.374489645316e-06,-0.00039454328833993,0.00034991159233232,-0.0011331479411961,0.0011229740567692,-0.0011252072347916,0.001154367286922,-0.00042176881593223,0.00035837928534555,-0.00039597125560857,0.00034849135767064,-0.0011345802482285,0.0011214993339495,-0.0011266575547936,0.0011529100542246,-0.0012642976829548,0.0012499408236777,-0.00125774844445,0.0012632960735963,-0.0012638127102439,0.0012504506065608,-0.0012572549310242,0.0012637975398106,-0.00097761378918697,0.00093411348274245,-0.00095834656211368,0.00092541605150169,-0.00097809365240913,0.00093361473366371,-0.00095884077898881,0.00092493173957613,-0.00042035575649272,0.00035981424782336,4.2093722353344e-07,-1.013800438296e-06,-2.2749372225672e-06,1.701866495207e-06,-0.001842497517122,0.0018419229455438,-0.0017542079246448,0.0017580080115847,-0.0017617829540613,0.0017612734550279,-0.0017558922886474,0.0017525653526116,-0.0018981040042527,0.0018966802318068,-0.0018978912858208,0.0018991500988346,-0.0018979190499472,0.0018955227898672,-0.0018997039460426,0.0018999906167833,-0.0017587611648956,0.0017538199484644,-0.0017720728559095,0.0017749071170249,-0.0017615940566847,0.001763743127606,-0.0017416165157106,0.0017409488270955,-0.0017542509012732,0.0017502733295921,7.8651226789108e-06,2.1550740086161e-05,-0.0011154838332673,0.0011174710815261,3.2438558074208e-06,-8.1225022413509e-07,-0.0011279538935642,0.0011391604396677,-0.0012184360314336,0.001162579889975,-0.0012223436523404,0.0012165819622715,-0.0011598516294093,0.0012844890543046,-0.0011240729063828,0.0011430748429305,-0.0012144872412934,0.0011665147751749,-0.0012184098257161,0.0012205320426697,-0.0012649449763922,0.0012685185273189,-0.001266301045019,0.0012671558168554,-0.0012660521327858,0.0012581429444236,-0.0012674155477011,0.001256787631928,-0.0012127082646233,0.0012580678310275,-0.001191640222898,0.0012052796647437,-0.0011903087954757,0.001206629056581,-0.0012113598591592,0.0012593996236451,-0.0011637646106969,0.0012806064398835,0.74364572121898,122718,2924,0.0042680510924241,0.0076441552577695,0.0046422410578668,37.193648666968,0.00021274918933574,0.00021274918933574,0.00021274918933574,3085599.3894802,0.016692910053755
