time,ASR_ext,ASR_strain,ASR_strain_xx,ASR_strain_yy,ASR_strain_zz,disp_x_101,disp_x_102,disp_x_103,disp_x_104,disp_x_105,disp_x_106,disp_x_p10_neg,disp_x_p10_pos,disp_x_p11_neg,disp_x_p11_pos,disp_x_p12_neg,disp_x_p12_pos,disp_x_p13_neg,disp_x_p13_pos,disp_x_p14_neg,disp_x_p14_pos,disp_x_p15_neg,disp_x_p15_pos,disp_x_p16_neg,disp_x_p16_pos,disp_x_p1_neg,disp_x_p1_pos,disp_x_p2_neg,disp_x_p2_pos,disp_x_p3_neg,disp_x_p3_pos,disp_x_p4_neg,disp_x_p4_pos,disp_x_p5_neg,disp_x_p5_pos,disp_x_p6_neg,disp_x_p6_pos,disp_x_p7_neg,disp_x_p7_pos,disp_x_p8_neg,disp_x_p8_pos,disp_x_p9_neg,disp_x_p9_pos,disp_y_101,disp_y_102,disp_y_103,disp_y_104,disp_y_105,disp_y_106,disp_y_p10_neg,disp_y_p10_pos,disp_y_p11_neg,disp_y_p11_pos,disp_y_p12_neg,disp_y_p12_pos,disp_y_p1_neg,disp_y_p1_pos,disp_y_p2_neg,disp_y_p2_pos,disp_y_p3_neg,disp_y_p3_pos,disp_y_p4_neg,disp_y_p4_pos,disp_y_p5_neg,disp_y_p5_pos,disp_y_p6_neg,disp_y_p6_pos,disp_y_p7_neg,disp_y_p7_pos,disp_y_p8_neg,disp_y_p8_pos,disp_y_p9_neg,disp_y_p9_pos,disp_z_101,disp_z_102,disp_z_103,disp_z_104,disp_z_105,disp_z_106,disp_z_p10_neg,disp_z_p10_pos,disp_z_p11_neg,disp_z_p11_pos,disp_z_p12_neg,disp_z_p12_pos,disp_z_p13_neg,disp_z_p13_pos,disp_z_p14_neg,disp_z_p14_pos,disp_z_p15_neg,disp_z_p15_pos,disp_z_p16_neg,disp_z_p16_pos,disp_z_p1_neg,disp_z_p1_pos,disp_z_p2_neg,disp_z_p2_pos,disp_z_p3_neg,disp_z_p3_pos,disp_z_p4_neg,disp_z_p4_pos,disp_z_p5_neg,disp_z_p5_pos,disp_z_p6_neg,disp_z_p6_pos,disp_z_p7_neg,disp_z_p7_pos,disp_z_p8_neg,disp_z_p8_pos,disp_z_p9_neg,disp_z_p9_pos,humidity,ndof,nelem,strain_xx,strain_yy,strain_zz,temp,thermal_strain_xx,thermal_strain_yy,thermal_strain_zz,vonmises,vstrain
14391759,0,0,0,0,0,0,0,0,0,0,0,0,0,0,0,0,0,0,0,0,0,0,0,0,0,0,0,0,0,0,0,0,0,0,0,0,0,0,0,0,0,0,0,0,0,0,0,0,0,0,0,0,0,0,0,0,0,0,0,0,0,0,0,0,0,0,0,0,0,0,0,0,0,0,0,0,0,0,0,0,0,0,0,0,0,0,0,0,0,0,0,0,0,0,0,0,0,0,0,0,0,0,0,0,0,0,0,0,0,0,0,0,0,0,0,0,0,0,0,0,0,0,0
15391759,0.1000625857269,0.0017515034435499,0.00058383448118331,0.00058383448118331,0.00058383448118331,-0.0001650780023541,0.00016507224133866,-2.5259321220811e-09,-2.5259321442495e-09,-2.0646916952606e-09,-2.9212306804962e-09,-0.00015008710665654,0.00015008010452607,-0.00016514494371531,0.00016513891332394,-0.00016514550883721,0.00016513947844534,-0.00015008566442164,0.00015008021721489,-0.00015008633124865,0.00015008088403663,-0.00016514413918814,0.00016513973684471,-0.00016514470141161,0.00016514029907212,-0.00017193560670098,0.00017193079194239,-0.00017193583275044,0.00017193101799058,-0.00017193589032883,0.00017193049677463,-0.00017193611769146,0.00017193072413825,-0.00016170212866909,0.00016169656023981,-0.00016170233494803,0.00016169676651142,-0.00016170185459032,0.00016169684080435,-0.00016170205806428,0.00016169704427572,-0.0001500864341231,0.00015007943197195,-2.5902738760466e-10,5.4238896657413e-10,2.0230276669376e-10,6.9588824351831e-11,-0.00017566669474234,0.00017566696770275,-0.00017462435516782,0.00017462422117593,-0.00017231498635451,0.0001723145316456,-0.0001723145854919,0.00017231569128541,-0.00017706349974802,0.0001770635268531,-0.00017706365394017,0.00017706358525501,-0.00017706335934327,0.00017706396824866,-0.00017706351353767,0.00017706402664314,-0.00017462359397179,0.00017462426949781,-0.00017462422619257,0.00017462464454754,-0.00017231490482504,0.00017231435928029,-0.00017231450395741,0.00017231551891017,-0.0001746237229434,0.00017462384612937,-3.0517001580961e-10,-3.0516999184619e-10,-0.00016564572353285,0.00016564408710845,-4.4565952074947e-10,-3.0613924509738e-10,-0.00015983327156405,0.00015983206331309,-0.00015853027881607,0.00015852836749962,-0.00015853015444417,0.00015852824312229,-0.00015983387346333,0.00015983241064594,-0.00015983337375914,0.00015983191093719,-0.00015853042155423,0.00015852824473458,-0.00015853027479911,0.00015852809798306,-0.00017204762188815,0.00017204703356118,-0.00017204757969357,0.00017204708662502,-0.00017204780715739,0.00017204721882737,-0.00017204775472607,0.00017204726166063,-0.00016925789886826,0.00016925748642968,-0.00016925746474205,0.00016925705229674,-0.00016925749819096,0.00016925699470619,-0.00016925795480332,0.00016925745131356,-0.00015983372419002,0.00015983251592472,0.70055894083924,123579,2954,0.00068757686959097,0.00073167572114641,0.00068994851267169,27.143361799666,0.00013234689439733,0.00013234689439733,0.00013234689439733,1288938.4261187,0.0021114309435331
16391759,0.18873729115242,0.0034010291391793,0.0011186111066521,0.001164457375749,0.0011179606567783,-0.00028174213641837,0.00028173608128949,-2.8059593805876e-09,-2.8059597289593e-09,-1.9630519982928e-09,-3.5602185631381e-09,-0.00024673514082371,0.00024672711776156,-0.00028831879358871,0.00028831173055112,-0.00028831949179652,0.00028831242877638,-0.00024673325633574,0.00024672813632444,-0.00024673369615334,0.00024672857611343,-0.00028831727260986,0.00028831328754204,-0.00028831796654598,0.00028831398149696,-0.00029571117207262,0.00029570593608925,-0.00029571147618765,0.00029570624020622,-0.00029571170763071,0.00029570538315662,-0.00029571201332793,0.00029570568885801,-0.00027666706040931,0.0002766608058638,-0.0002766675256527,0.00027666127110091,-0.00027666655012409,0.00027666132637578,-0.00027666701276423,0.00027666178900804,-0.00024673469391045,0.00024672667083311,-4.0683480359037e-10,1.0804816330002e-09,3.8293618296688e-10,2.6929068865578e-10,-0.00031353119549505,0.00031353184956187,-0.00031320450042482,0.00031320453070868,-0.00030548227195243,0.00030548152413032,-0.00030548099133045,0.00030548315489973,-0.00031515503307158,0.00031515519414452,-0.00031515554399762,0.00031515562606993,-0.00031515487019595,0.0003151560831399,-0.00031515538112372,0.00031515651506143,-0.00031320344428248,0.00031320471372466,-0.00031320435332724,0.0003132054004253,-0.00030548229738368,0.00030548147234623,-0.00030548101675151,0.00030548310310062,-0.00031320359141202,0.00031320384404986,-3.6858590848292e-10,-3.6858618838245e-10,-0.00028227314915733,0.00028227160279831,-4.1108279440869e-10,-2.8998418212347e-10,-0.00027524394712487,0.0002752430058596,-0.00026746165052204,0.00026746027342352,-0.00026746150701372,0.00026746012993853,-0.00027524446644919,0.00027524330627815,-0.00027524400803906,0.000275242847861,-0.00026746179020575,0.00026746017724605,-0.00026746160071081,0.00026745998777801,-0.00029644223013467,0.00029644144546255,-0.00029644219808712,0.00029644149626621,-0.00029644258522471,0.000296441800552,-0.00029644253461837,0.00029644183280001,-0.00029583828315036,0.00029583761007923,-0.00029583799392637,0.0002958373208513,-0.00029583800877382,0.00029583725762432,-0.00029583834247539,0.00029583759132705,-0.00027524431506515,0.00027524337378349,0.7587163515091,123579,2954,0.0011732327135228,0.0013055221703553,0.0011754455612567,24.451948571609,0.00011081558857287,0.00011081558857287,0.00011081558857287,1965011.1744787,0.0036608927295396
17391759,0.26773872915049,0.0047079509717528,0.0015242692228617,0.001659161654517,0.0015245200943741,-0.00036843397045943,0.00036843099191754,-1.3937730956519e-09,-1.3937732294934e-09,-8.4807963673454e-10,-1.8706107620223e-09,-0.00030035802279455,0.00030035405346089,-0.00038266346803078,0.00038265985319476,-0.00038266393104965,0.00038266031622703,-0.0003003569947854,0.00030035488157479,-0.00030035710035746,0.00030035498712049,-0.00038266248937039,0.00038266085949855,-0.00038266294995244,0.00038266132009752,-0.00039382392459886,0.00039382128467601,-0.00039382411628029,0.00039382147635902,-0.00039382427367353,0.00039382092928044,-0.00039382446636695,0.00039382112197748,-0.0003571991591241,0.00035719596190638,-0.00035719944750548,0.00035719625028495,-0.00035719883583561,0.00035719629257168,-0.00035719912275529,0.00035719657948481,-0.00030035791331819,0.00030035394396015,-1.9303066150587e-10,7.4929056239354e-10,3.1176776522348e-10,2.3062391498741e-10,-0.00043174325786234,0.00043174380118174,-0.00043355121587978,0.00043355135912229,-0.00041456073954426,0.00041456039518681,-0.00041455977471759,0.0004145612836641,-0.00043438864793671,0.00043438889621045,-0.00043438896261727,0.00043438915518486,-0.00043438851056639,0.00043438939297986,-0.00043438882524946,0.00043438965195318,-0.00043355116056918,0.00043355209889508,-0.00043355108935564,0.00043355186822813,-0.00041456077335226,0.00041456037472146,-0.00041455980851792,0.00041456126318752,-0.00043355128711393,0.00043355158981969,-2.1016902301002e-10,-2.1016905754573e-10,-0.00036912920621842,0.00036912839305189,-1.6544522039444e-10,-7.9238712013946e-11,-0.00035635784577726,0.00035635747404776,-0.0003397351435451,0.00033973487226596,-0.00033973508462354,0.00033973481336032,-0.00035635787288581,0.0003563573446968,-0.00035635789956807,0.00035635737134895,-0.00033973524338946,0.00033973480185409,-0.00033973515659004,0.0003397347150698,-0.00039562401141538,0.00039562339282811,-0.00039562398618969,0.00039562342647374,-0.00039562421357327,0.00039562359498767,-0.00039562417871954,0.00039562361900789,-0.00039577015808797,0.00039576971757809,-0.00039577014729899,0.000395769706788,-0.00039577015972732,0.00039576966411797,-0.00039577019787108,0.00039576970226277,-0.00035635777324983,0.00035635740152048,0.68097528185715,123579,2954,0.0015339904306291,0.0017972942552167,0.0015368658387848,22.117745580661,9.2141964645285e-05,9.2141964645285e-05,9.2141964645285e-05,2558451.3163976,0.0048800404434844
18391759,0.32462124711508,0.0055342993487897,0.0017769056726766,0.0019814481096624,0.0017759455664507,-0.00041648702255297,0.00041648651105574,-2.6826704389066e-10,-2.6826725689886e-10,-4.7370174653092e-11,-4.8311536192202e-10,-0.00032692314479307,0.00032692236573028,-0.00043686747606746,0.00043686669566546,-0.00043686771878605,0.00043686693839788,-0.00032692300102201,0.00032692298487314,-0.00032692276558359,0.00032692274940973,-0.00043686705673486,0.00043686712710371,-0.00043686729839509,0.00043686736877959,-0.00044989686219248,0.00044989633007622,-0.00044989695939164,0.00044989642727648,-0.00044989701842852,0.00044989617616017,-0.00044989711612034,0.00044989627385614,-0.00040016033638935,0.00040015967215233,-0.00040016050476668,0.00040015984052613,-0.00040016020143623,0.00040015981033812,-0.0004001603694044,0.00040015997829845,-0.00032692337873854,0.00032692259965193,-5.1547771717353e-11,3.3794403002715e-10,1.5288689509412e-10,1.2928970559707e-10,-0.00050209863266619,0.00050209891433995,-0.00050273722165212,0.00050273735029394,-0.00047590845978009,0.00047590836990427,-0.00047590797732488,0.00047590865675364,-0.00050873417753753,0.00050873433754493,-0.0005087343818354,0.00050873452655343,-0.00050873412368223,0.00050873453528437,-0.00050873432798109,0.00050873472429144,-0.00050273752434507,0.00050273795878259,-0.00050273720065599,0.00050273758770074,-0.00047590851088722,0.00047590840591131,-0.00047590802842494,0.00047590869275055,-0.00050273754536062,0.00050273772140392,-8.7728231065701e-11,-8.7728373199227e-11,-0.00041694017046541,0.00041693988311244,-2.2183248831681e-11,3.9812719631097e-12,-0.00039989668747527,0.00039989673185825,-0.00037799661951641,0.00037799689684062,-0.00037799661547496,0.00037799689281321,-0.00039989643463242,0.00039989643412423,-0.00039989670362811,0.00039989670308834,-0.00037799665402446,0.00037799687653095,-0.0003779966398024,0.0003779968623252,-0.00045281453765284,0.00045281415564505,-0.00045281452920032,0.00045281416519219,-0.00045281463359943,0.00045281425159413,-0.00045281462241651,0.00045281425840974,-0.00045104137311434,0.00045104110847459,-0.00045104151228899,0.00045104124764609,-0.00045104151388987,0.00045104123346652,-0.0004510413857725,0.00045104110535296,-0.00039989640624709,0.00039989645063553,0.60484717275765,123579,2954,0.0017339124869595,0.002089855382425,0.0017357626255422,17.51771645483,5.5341731638638e-05,5.5341731638638e-05,5.5341731638638e-05,3001454.6992037,0.0055750503527954
19391759,0.38320995517405,0.0065569837456089,0.0020866527363003,0.0023868382267083,0.0020834927826003,-0.00048695881358361,0.00048695863698223,-8.0155967746089e-11,-8.0156245825829e-11,8.0018820641721e-11,-2.4788512137529e-10,-0.00037017855214995,0.00037017833673507,-0.00051965624259295,0.00051965595175051,-0.00051965641777898,0.00051965612694918,-0.0003701786415165,0.0003701789801268,-0.00037017827467359,0.00037017861325341,-0.00051965592475657,0.00051965627257057,-0.00051965609933875,0.00051965644716779,-0.00052742321908985,0.00052742302905859,-0.00052742329448063,0.00052742310445099,-0.00052742333937565,0.00052742291272021,-0.00052742341515713,0.0005274229885043,-0.00046723950060098,0.00046723927020267,-0.00046723959123212,0.00046723936083081,-0.00046723939937499,0.00046723937281091,-0.00046723948959342,0.00046723946302278,-0.00037017891793832,0.00037017870250242,-6.0041392647791e-11,2.2652925560586e-10,8.8843093478008e-11,7.7686029362776e-11,-0.00060176139627543,0.00060176156100771,-0.00060511674750085,0.00060511680743244,-0.00056622978413055,0.00056622967276491,-0.00056622945121257,0.00056622990325632,-0.0006089783672403,0.00060897843487844,-0.00060897849842338,0.00060897855790828,-0.00060897824907498,0.00060897851424205,-0.00060897838025995,0.00060897863727101,-0.0006051171851407,0.00060511745745074,-0.00060511669213105,0.0006051169416915,-0.0005662298436147,0.00056622972546671,-0.00056622951069164,0.00056622995595222,-0.00060511724052792,0.00060511732321923,-7.8662036355256e-11,-7.8662290630576e-11,-0.00048670499910701,0.00048670466115281,-3.1480232815202e-11,-1.7824762884847e-11,-0.00046990264378122,0.00046990268449219,-0.00043816915179751,0.00043816937362134,-0.00043816914640965,0.00043816936824807,-0.00046990230861047,0.00046990232877328,-0.00046990265005138,0.00046990267018083,-0.00043816917228805,0.00043816936400325,-0.00043816916091553,0.0004381693526458,-0.00053146289034335,0.00053146251277425,-0.00053146288547667,0.00053146251768905,-0.00053146293496913,0.00053146255740165,-0.00053146292839447,0.00053146256060706,-0.00053415877038649,0.00053415852253005,-0.00053415890966864,0.00053415866181245,-0.00053415890903996,0.00053415865353126,-0.0005341587777092,0.00053415852220301,-0.00046990229346078,0.00046990233418331,0.73021614767059,123579,2954,0.0020270371032516,0.0025041370805898,0.0020259199206972,17.480328053648,5.5042624429187e-05,5.5042624429187e-05,5.5042624429187e-05,3293817.4924496,0.0065786822694232
20391759,0.44757676566129,0.0077278222530659,0.002428891350712,0.0028727432159221,0.0024261876864319,-0.00056367624567218,0.00056367615587293,-4.603046185981e-11,-4.6030830245615e-11,1.2094351040216e-10,-2.3407539219421e-10,-0.00040262431641453,0.00040262418415329,-0.00060970593258734,0.00060970569539367,-0.0006097061189603,0.00060970588177948,-0.00040262439057001,0.00040262486451499,-0.00040262401152435,0.00040262448543592,-0.0006097055866616,0.00060970604045607,-0.00060970577248312,0.00060970622629286,-0.00061742524093739,0.0006174251264758,-0.00061742531339893,0.00061742519893884,-0.00061742537043875,0.00061742500092788,-0.00061742544327262,0.00061742507376278,-0.0005364283493817,0.00053642821536857,-0.00053642841395154,0.00053642827993261,-0.00053642823789212,0.00053642832718614,-0.00053642830200751,0.00053642839129411,-0.00040262469440267,0.00040262456210544,-8.8182273080599e-11,2.2685177518693e-10,7.4601140692243e-11,6.5438879548914e-11,-0.0007260485329298,0.00072604867054786,-0.00073674561376859,0.00073674563928258,-0.00067931812461568,0.00067931795730793,-0.00067931777422249,0.00067931822423892,-0.00073055652710839,0.00073055655503113,-0.00073055665439823,0.0007305566750948,-0.00073055636252399,0.00073055661326897,-0.00073055648981381,0.00073055673333163,-0.00073674595604368,0.00073674620960007,-0.00073674552467146,0.00073674575955218,-0.00067931817031784,0.00067931799747838,-0.00067931781992017,0.00067931826440278,-0.00073674604515499,0.00073674608935774,-8.4635831756966e-11,-8.4636097127535e-11,-0.00056304845753961,0.00056304808351351,-4.9725607137423e-11,-3.8123741162053e-11,-0.00053988886000325,0.00053988885433526,-0.00049497638033167,0.00049497652501722,-0.0004949763730753,0.00049497651777312,-0.00053988850359219,0.00053988848129466,-0.0005398888648838,0.0005398888425494,-0.00049497639836426,0.0004949765169165,-0.00049497638550767,0.00049497650407473,-0.00062308360353945,0.00062308321631274,-0.00062308359932513,0.00062308322062346,-0.00062308363078661,0.0006230832435646,-0.00062308362490341,0.0006230832462047,-0.00063336079754041,0.00063336055210721,-0.00063336096288936,0.00063336071745429,-0.00063336096203501,0.00063336071020991,-0.00063336080413137,0.00063336055231048,-0.00053988849067309,0.00053988848501097,0.76377140340812,123579,2954,0.0023460880910192,0.0030205187433138,0.0023433658657279,18.600349348768,6.4002794790144e-05,6.4002794790144e-05,6.4002794790144e-05,3509357.8221265,0.0077398353790749
21391759,0.49770381274155,0.0085502347652067,0.0026657821630231,0.0032225857343233,0.0026618668678603,-0.00060833454596115,0.00060833665290257,9.1482286898049e-10,9.1482241937658e-10,9.0855495368159e-10,8.7101941548416e-10,-0.00041627467412299,0.0004162771949786,-0.00066347606287384,0.0006634781259801,-0.0006634760504127,0.00066347811353481,-0.00041627523923511,0.00041627778918193,-0.0004162746568799,0.00041627720679495,-0.00066347601503994,0.00066347816509682,-0.00066347600307297,0.00066347815314291,-0.00067287540088144,0.00067287712460248,-0.00067287538913274,0.00067287711285564,-0.00067287542528764,0.00067287710846443,-0.00067287541341383,0.00067287709659018,-0.00057379266084201,0.00057379466067148,-0.00057379265317171,0.0005737946530016,-0.00057379265085258,0.00057379466833047,-0.00057379264379284,0.0005737946612646,-0.00041627525746331,0.0004162777782746,2.103266398482e-12,2.0303551119127e-11,-1.0854059342408e-11,3.9243187265214e-11,-0.00080756058122799,0.00080756060672858,-0.00082106260788086,0.00082106268162709,-0.00075013318645262,0.00075013317289508,-0.00075013298994822,0.0007501330153861,-0.00081303106569005,0.00081303106930737,-0.00081303114010732,0.00081303117887485,-0.00081303094622399,0.0008130309572537,-0.00081303102063941,0.00081303106681896,-0.00082106322272303,0.00082106320564442,-0.0008210625607166,0.00082106263990979,-0.00075013325067535,0.00075013327193735,-0.00075013305416882,0.00075013311442205,-0.00082106326990539,0.00082106324738997,2.3472851096982e-11,2.3472671907603e-11,-0.00060708471037431,0.00060708494147374,1.1488828940339e-10,6.449906278173e-11,-0.00057726459542845,0.00057726501332231,-0.0005237620194219,0.00052376286152594,-0.00052376205643423,0.00052376289855604,-0.00057726402755018,0.00057726454277009,-0.00057726455207325,0.00057726506724521,-0.00052376197471148,0.00052376290905722,-0.00052376201371377,0.00052376294807934,-0.00067985902728683,0.00067985885999526,-0.00067985904235759,0.00067985884139822,-0.00067985898377179,0.00067985881648095,-0.00067985900071873,0.00067985879976191,-0.00069266300432012,0.00069266290291665,-0.00069266333353,0.00069266323213166,-0.00069266331669013,0.00069266324943632,-0.00069266298697941,0.00069266291973179,-0.00057726407925579,0.00057726449715451,0.6908403174145,123579,2954,0.0025318001691644,0.0033590199295021,0.0025264485379172,15.321221545359,3.7769772362873e-05,3.7769772362873e-05,3.7769772362873e-05,3718703.2505049,0.0084528812882827
22391759,0.54499235210955,0.009323975794621,0.0028869324941662,0.0035552405181524,0.0028818027823023,-0.00065632967415487,0.0006563314855726,8.0017675688464e-10,8.0017629654576e-10,7.6060403451002e-10,7.8629634028213e-10,-0.00043902522782649,0.00043902746147731,-0.00072085405317082,0.00072085593384731,-0.00072085409544236,0.00072085597613383,-0.00043902578760425,0.00043902791712454,-0.00043902527598382,0.00043902740547235,-0.00072085406827042,0.00072085590708755,-0.00072085411076941,0.00072085594960218,-0.00072945274426624,0.00072945424306823,-0.00072945274555905,0.0007294542443611,-0.00072945274928567,0.00072945424714738,-0.00072945275061976,0.00072945424848431,-0.00061553264834378,0.00061553443303768,-0.00061553264851988,0.00061553443320987,-0.00061553265884811,0.00061553441999184,-0.0006155326591309,0.00061553442026532,-0.00043902573974454,0.00043902797335565,2.1715547116201e-12,-4.2973793617603e-11,-4.8214812526456e-11,1.5048934662435e-11,-0.00088862388621992,0.00088862384985588,-0.00090379132609695,0.00090379137165833,-0.00082049375333695,0.00082049373586492,-0.0008204936828082,0.00082049357695132,-0.00089639958993436,0.00089639954501003,-0.00089639962031715,0.00089639961738352,-0.0008963994407648,0.00089639937108897,-0.00089639947114935,0.00089639944345887,-0.00090379197025409,0.00090379185864015,-0.00090379127435003,0.00090379128517879,-0.00082049378075057,0.00082049380639478,-0.00082049371021824,0.00082049364748169,-0.00090379202201602,0.00090379194514837,-1.5710703578202e-11,-1.5710911626993e-11,-0.00065460500336526,0.00065460503450189,6.6192901131719e-11,3.3011771439513e-12,-0.00062099862875849,0.00062099884786246,-0.00055914699911861,0.00055914756229629,-0.00055914702620244,0.00055914758939516,-0.00062099808717463,0.00062099843072412,-0.00062099857134882,0.00062099891485999,-0.00055914694181478,0.00055914762286794,-0.00055914697029904,0.00055914765136907,-0.00073811705419554,0.00073811683539449,-0.00073811707358976,0.00073811681329086,-0.00073811700191243,0.00073811678310921,-0.00073811702252167,0.00073811676221927,-0.00075293962603256,0.00075293946764714,-0.00075293991400327,0.00075293975561972,-0.00075293989272728,0.00075293977691945,-0.00075293960481079,0.00075293948900447,-0.00062099815158648,0.00062099837070778,0.69163756941875,123579,2954,0.0027313348457289,0.0036955399768977,0.0027239727969367,14.812411532996,3.3699292263969e-05,3.3699292263969e-05,3.3699292263969e-05,3936885.7753971,0.0091929516584167
23391759,0.59321216363948,0.010077447422492,0.0031003896546709,0.0038829893622728,0.003094068405548,-0.00070327010120042,0.00070327155218247,6.3749391791017e-10,6.3749349777594e-10,6.2482856799703e-10,5.9762067501037e-10,-0.00045530326282386,0.0004553050508438,-0.00077719417110457,0.00077719566511791,-0.00077719426503688,0.00077719575906348,-0.00045530371926615,0.00045530549727947,-0.00045530326380299,0.00045530504178789,-0.00077719413650082,0.00077719568823121,-0.00077719423039541,0.00077719578213772,-0.00078699026249081,0.00078699145507822,-0.00078699028039038,0.00078699147297685,-0.00078699028515783,0.00078699144071688,-0.00078699030320522,0.0007869914587672,-0.00065527513355593,0.00065527657269784,-0.00065527514588352,0.00065527658502381,-0.00065527512687289,0.0006552765770858,-0.00065527513904153,0.00065527658924579,-0.00045530371803944,0.0004553055060143,-2.8311730307183e-11,-2.3761742925947e-11,-5.2411205138365e-11,7.6433547360535e-12,-0.00097280530562141,0.00097280525761017,-0.00099042905191068,0.00099042906533443,-0.00089352762295367,0.00089352754669661,-0.00089352754151375,0.00089352747314698,-0.00098226481628003,0.00098226474182642,-0.00098226484718404,0.00098226481187161,-0.00098226463520139,0.00098226457490302,-0.00098226466610837,0.00098226464494734,-0.00099042963275957,0.00099042953002935,-0.00099042898030556,0.00099042899396443,-0.00089352763302023,0.00089352759748698,-0.00089352755158212,0.00089352752393361,-0.00099042970437711,0.0009904296014244,-4.2354814265968e-11,-4.2355132175374e-11,-0.00070094144352299,0.00070094133847205,2.6513152982552e-11,-3.2668356827653e-11,-0.00066065627541541,0.0006606563792057,-0.00059058651582167,0.00059058689174856,-0.00059058653367086,0.00059058690960903,-0.00066065578256747,0.00066065600498272,-0.00066065621894395,0.00066065644131509,-0.0005905864624436,0.00059058694959628,-0.00059058647984644,0.00059058696701325,-0.00079729038719442,0.00079729012388803,-0.00079729040580976,0.00079729010371113,-0.00079729033924266,0.00079729007593686,-0.00079729035816757,0.00079729005606921,-0.00081419832593165,0.0008141981320464,-0.00081419859003705,0.0008141983961555,-0.0008141985689968,0.00081419841530286,-0.00081419830668728,0.00081419815299462,-0.00066065584239098,0.00066065594618755,0.66282300645257,123579,2954,0.0029264767447561,0.0040448716379316,0.0029165558642742,15.632848857615,4.0262790860923e-05,4.0262790860923e-05,4.0262790860923e-05,4064652.1936444,0.0099370876175872
24391759,0.64589483929429,0.010936956166035,0.0033426080396651,0.0042599197203435,0.0033344284060264,-0.00075918268021854,0.00075918338464882,2.9541851728473e-10,2.9541806129866e-10,3.5101186468877e-10,1.9299964689768e-10,-0.00047758947028458,0.00047759032635258,-0.00084484406915036,0.00084484473337385,-0.00084484425360442,0.00084484491784289,-0.00047758971984338,0.0004775908040239,-0.00047758935255767,0.00047759043671456,-0.0008448439110667,0.00084484488224682,-0.00084484409506114,0.00084484506625545,-0.00085407569495285,0.00085407624054253,-0.00085407574700883,0.00085407629259763,-0.00085407576076489,0.00085407618120658,-0.00085407581314308,0.00085407623358706,-0.00070371317280269,0.00070371386964975,-0.0007037132115675,0.00070371390841016,-0.00070371312411712,0.00070371391682617,-0.0007037131623636,0.00070371395506347,-0.00047758983652471,0.00047759069254975,-7.6815254320342e-11,5.0351579018088e-11,-3.3002533501138e-11,1.2230329165957e-11,-0.0010716794963445,0.0010716794724902,-0.0010924222096999,0.0010924221904466,-0.00097974120956552,0.00097974104360713,-0.00097974106071379,0.00097974114191609,-0.0010827045840339,0.0010827044948464,-0.0010827046470438,0.0010827045863301,-0.0010827043712919,0.0010827043843513,-0.001082704434305,0.0010827044758338,-0.0010924226549547,0.0010924226326361,-0.0010924221124182,0.0010924221778313,-0.00097974120401604,0.00097974106857318,-0.0009797410551615,0.00097974116687665,-0.0010924227522503,0.0010924226452766,-8.312317829102e-11,-8.3123494145342e-11,-0.00075593435030381,0.00075593402718427,-3.768448617658e-11,-8.1129515284292e-11,-0.00070939602898072,0.00070939596353111,-0.00062965502146851,0.00062965511080579,-0.00062965502284498,0.00062965511219392,-0.00070939562863463,0.00070939565335525,-0.00070939598291289,0.00070939600759016,-0.00062965498432953,0.00062965515504635,-0.00062965498181165,0.00062965515254331,-0.00086631342909962,0.00086631308920981,-0.00086631344322648,0.00086631307535595,-0.0008663134025001,0.00086631306261026,-0.00086631341537208,0.00086631304749955,-0.0008865376900643,0.00088653744401275,-0.00088653791023621,0.00088653766418702,-0.00088653789242211,0.00088653767628112,-0.00088653767754847,0.00088653746141058,-0.00070939567102485,0.00070939560558116,0.69344629843763,123579,2954,0.0031588771490253,0.0044550069386234,0.0031450745969266,17.852486807255,5.8019894458038e-05,5.8019894458038e-05,5.8019894458038e-05,4191406.4462789,0.010817213973046
25391759,0.70046345825429,0.011913703081824,0.0036155815041128,0.004693341797583,0.0036047797801287,-0.00081927307094436,0.00081927361586847,2.059141105388e-10,2.0591324525641e-10,3.6258640811647e-10,2.4737726632373e-12,-0.00049321401551056,0.00049321449657006,-0.00092062008016402,0.00092062036510154,-0.00092062030480499,0.00092062058976864,-0.00049321402643154,0.00049321513389367,-0.00049321370007126,0.00049321480753848,-0.0009206197259451,0.0009206207146716,-0.00092061995013477,0.00092062093881304,-0.00092824634243603,0.00092824677301923,-0.00092824640776245,0.00092824683835882,-0.00092824647274184,0.00092824664643004,-0.00092824653838874,0.0009282467120619,-0.0007527840940308,0.00075278455365995,-0.00075278414176063,0.00075278460135951,-0.00075278397898734,0.00075278466799553,-0.00075278402629434,0.00075278471532524,-0.00049321434073877,0.00049321482181086,-1.4433500672224e-10,1.8263091905226e-10,8.2891288022168e-12,3.2605304695029e-11,-0.0011853330198537,0.0011853330581054,-0.0012154688629106,0.0012154688178736,-0.0010780295064435,0.0010780292139773,-0.0010780291693392,0.0010780295187609,-0.001194853327617,0.0011948532425415,-0.0011948534318004,0.0011948533618844,-0.0011948530677577,0.0011948532130695,-0.0011948531719286,0.001194853332411,-0.0012154691502494,0.0012154692764943,-0.0012154687116313,0.0012154688846026,-0.0010780294990666,0.0010780292232214,-0.0010780291619946,0.0010780295280193,-0.0012154693015193,0.0012154692098409,-8.4351329330672e-11,-8.4351283295314e-11,-0.00081455924816271,0.00081455890161659,-5.8441937624216e-11,-8.1005050101324e-11,-0.0007581520566232,0.00075815197697368,-0.00066482041846234,0.00066482045663407,-0.00066482041464329,0.00066482045285226,-0.00075815170934757,0.00075815167860014,-0.00075815202995224,0.00075815199920094,-0.00066482040177499,0.00066482048031948,-0.00066482039310115,0.0006648204716556,-0.00094230752856156,0.00094230718494558,-0.00094230753606592,0.00094230717826539,-0.00094230751180081,0.00094230716815469,-0.00094230751776167,0.00094230715997332,-0.00097159673271135,0.00097159650229636,-0.00097159695158014,0.00097159672112046,-0.00097159694008611,0.00097159672558977,-0.00097159672745585,0.00097159651297751,-0.00075815173078974,0.00075815165111575,0.76207065498803,123579,2954,0.0034086456869048,0.0049262158356976,0.0033886681858472,19.834960409282,7.3879683274259e-05,7.3879683274259e-05,7.3879683274259e-05,4210206.9903177,0.0117927392821
26391759,0.75049460831384,0.012880678428269,0.0038848773270973,0.0051256625085195,0.0038701385926519,-0.00087291129688489,0.00087291262147189,5.3974799096643e-10,5.3974736744136e-10,6.5397031656014e-10,3.7408019677589e-10,-0.00049948725850631,0.00049948864181723,-0.00098801930731769,0.00098802036728177,-0.00098801947796211,0.00098802053794607,-0.00049948736519209,0.00049948923463122,-0.00049948701371335,0.00049948888313854,-0.00098801902815066,0.00098802064127142,-0.00098801919863131,0.00098802081174613,-0.00099753692006981,0.00099753800167419,-0.00099753696421894,0.00099753804583141,-0.00099753702335207,0.00099753790304072,-0.00099753706763747,0.00099753794732315,-0.00079847964181815,0.00079848083748085,-0.00079847968495827,0.0007984808806093,-0.00079847955244292,0.00079848092571843,-0.00079847959558697,0.00079848096886546,-0.00049948760959607,0.00049948899288048,-1.1731677308649e-10,1.3598574089073e-10,-7.7586466257302e-12,2.9501637098179e-11,-0.0012992791510223,0.0012992791703163,-0.001335828788889,0.0013358287627877,-0.0011789818441091,0.001178981599109,-0.0011789815354838,0.0011789817899721,-0.0013063079630924,0.0013063078833642,-0.0013063080689172,0.0013063080143322,-0.0013063077203977,0.0013063078129274,-0.0013063078262166,0.0013063079438949,-0.0013358291309418,0.0013358292001905,-0.0013358286480481,0.0013358287888862,-0.0011789818458762,0.0011789816264176,-0.0011789815372533,0.0011789818172761,-0.0013358292717847,0.0013358291741325,-4.86093088131e-11,-4.860895137549e-11,-0.00086558556685089,0.00086558544122634,-2.7727916754706e-12,-3.9330607800459e-11,-0.00079700051558789,0.00079700057675366,-0.00069358386428248,0.00069358415877259,-0.00069358387129681,0.00069358416581171,-0.00079700013998164,0.00079700027458093,-0.00079700047893518,0.00079700061349124,-0.0006935838333679,0.00069358419454081,-0.00069358383752716,0.00069358419870608,-0.0010130375585428,0.0010130372986938,-0.0010130375703771,0.0010130372866454,-0.0010130375246921,0.0010130372648358,-0.0010130375360939,0.001013037252364,-0.001048147464933,0.0010481472859781,-0.0010481477349382,0.0010481475559745,-0.0010481477201851,0.0010481475662273,-0.0010481474539595,0.0010481473000118,-0.00079700017598555,0.00079700023714609,0.82335182229769,123579,2954,0.0036316268111945,0.0053983745634426,0.0036006880130566,20.411824495505,7.8494595964039e-05,7.8494595964039e-05,7.8494595964039e-05,4235394.671106,0.01271108256335
27391759,0.7983575318749,0.013716757400843,0.0041180016213648,0.0055005174902164,0.0040982382892613,-0.00091909373946738,0.00091909436663231,2.2465913327357e-10,2.2465845719129e-10,3.6956381196893e-10,3.9332228103901e-11,-0.0005019684237203,0.00050196900321447,-0.0010461207209445,0.0010461210897433,-0.0010461209848745,0.0010461213536947,-0.00050196840818433,0.00050196955459023,-0.00050196813861842,0.00050196928500941,-0.0010461203967028,0.0010461214104673,-0.0010461206600692,0.0010461216738307,-0.0010595773206505,0.0010595777901833,-0.0010595774005327,0.0010595778700698,-0.0010595774413566,0.0010595776732967,-0.0010595775215766,0.0010595777535127,-0.00083446147152866,0.000834461996538,-0.00083446154175393,0.00083446206675375,-0.00083446136663834,0.00083446210106033,-0.0008344614364071,0.0008344621708239,-0.00050196869215118,0.00050196927160962,-1.3131973832355e-10,1.6523008949595e-10,3.4476077367737e-12,3.2698222209404e-11,-0.0014017219564702,0.001401721990323,-0.0014429190731185,0.0014429190382075,-0.0012672621955712,0.0012672619271744,-0.001267261891296,0.0012672622049462,-0.0014088614663205,0.0014088613863378,-0.0014088615945398,0.0014088615329789,-0.0014088612122138,0.0014088613405327,-0.0014088613404277,0.0014088614871719,-0.0014429193411278,0.0014429194479331,-0.001442918929281,0.0014429190924503,-0.0012672621801926,0.0012672619316039,-0.0012672618759222,0.0012672622093733,-0.0014429194849673,0.0014429193937313,-9.122493308209e-11,-9.1224521462312e-11,-0.00090885872062296,0.00090885836898492,-6.3417503844671e-11,-9.089442612738e-11,-0.00082530459122247,0.00082530446355928,-0.00071351667391086,0.00071351666846787,-0.00071351666434147,0.00071351665892852,-0.0008253042946305,0.00082530422572783,-0.00082530455908287,0.00082530449013206,-0.00071351665236915,0.00071351669707659,-0.00071351663750266,0.00071351668221435,-0.0010762762808995,0.0010762759430101,-0.0010762762901363,0.0010762759348665,-0.0010762762679307,0.0010762759300354,-0.0010762762754954,0.0010762759202292,-0.0011150134197031,0.0011150131837489,-0.001115013639557,0.0011150134035949,-0.0011150136263011,0.00111501340956,-0.0011150134128936,0.001115013196161,-0.00082530432071862,0.00082530419304796,0.74366212196709,123579,2954,0.0038236283046192,0.0058226507352036,0.0037805014370279,22.213836616647,9.2910692933176e-05,9.2910692933176e-05,9.2910692933176e-05,4173085.7199619,0.013517690247506
28391759,0.84090326035513,0.01456231028009,0.0043547335157309,0.0058780252485631,0.0043295515157957,-0.00096770671886834,0.00096770774010567,3.9243506543695e-10,3.9243437082582e-10,5.2586248421796e-10,2.1494749523686e-10,-0.0005176773030524,0.00051767830812589,-0.0011082078897284,0.0011082086289749,-0.0011082081303765,0.0011082088696436,-0.00051767730782431,0.00051767885142799,-0.00051767703246999,0.00051767857606528,-0.0011082075826451,0.0011082089327383,-0.0011082078228962,0.001108209172982,-0.0011194668792617,0.0011194676892324,-0.0011194669497261,0.0011194677597027,-0.0011194669930046,0.0011194675794224,-0.0011194670637114,0.0011194676501261,-0.00087551558253002,0.0008755164745267,-0.00087551565340771,0.00087551654539498,-0.00087551548356185,0.00087551657292671,-0.00087551555423741,0.00087551664360398,-0.00051767757763886,0.00051767858267869,-1.2513480094596e-10,1.554066676021e-10,1.4247505924944e-15,3.2438437380946e-11,-0.0015003849144869,0.0015003849447436,-0.0015452728840614,0.0015452728543044,-0.0013526642985711,0.0013526640404233,-0.001352663993147,0.0013526642871045,-0.0015084466525772,0.0015084465756848,-0.0015084467877807,0.0015084467323261,-0.0015084464020382,0.0015084465171198,-0.0015084465372349,0.0015084466737599,-0.0015452731486336,0.0015452732429389,-0.0015452727396221,0.0015452728962363,-0.0013526642887905,0.0013526640527608,-0.0013526639833701,0.001352664299439,-0.001545273293074,0.0015452732010484,-7.2183367259444e-11,-7.2182970720087e-11,-0.00095500419603761,0.00095500395879293,-3.6864575768398e-11,-6.8135184252185e-11,-0.00086422003810181,0.0008642199841652,-0.00074289365610918,0.00074289378449735,-0.00074289365219011,0.00074289378060255,-0.00086421973876253,0.0008642197492979,-0.00086422000418632,0.00086422001467862,-0.00074289363065569,0.00074289381597699,-0.00074289362232034,0.00074289380764575,-0.0011376569344222,0.00113765664221,-0.0011376569447879,0.0011376566324238,-0.0011376569138497,0.0011376566216322,-0.0011376569230974,0.0011376566107359,-0.0011812721141419,0.0011812719085852,-0.0011812723561551,0.0011812721505916,-0.0011812723423274,0.0011812721583486,-0.0011812721055601,0.0011812719215873,-0.00086421976882085,0.00086421971488358,0.84556057744222,123579,2954,0.004025644479024,0.0062310893023502,0.0039721790610503,23.413779575878,0.00010251023660702,0.00010251023660702,0.00010251023660702,4211951.5155307,0.014331053561845
29391759,0.87769648985994,0.015118482686074,0.0045108718403445,0.0061258853831477,0.0044817254625816,-0.0009919547690512,0.00099195571088735,3.5241103684944e-10,3.5241031945959e-10,4.8878800842068e-10,1.7852409188801e-10,-0.00049975491929905,0.00049975583839206,-0.0011400094699373,0.0011400101361812,-0.0011400097313798,0.0011400103976482,-0.00049975490487418,0.00049975635863361,-0.00049975465075939,0.00049975610451137,-0.0011400091641195,0.0011400104391219,-0.0011400094250813,0.0011400107000776,-0.0011597932510064,0.0011597939829482,-0.0011597933296732,0.0011597940616206,-0.0011597933646852,0.0011597938731025,-0.0011597934436326,0.0011597939520482,-0.00089023706435607,0.00089023787540374,-0.00089023714288329,0.00089023795392248,-0.00089023696581255,0.00089023797352121,-0.00089023704406707,0.00089023805177521,-0.00049975517252394,0.00049975609157965,-1.2493964202173e-10,1.5386472104574e-10,-9.1782501989919e-13,3.1884040023287e-11,-0.0015740128686182,0.0015740128974572,-0.0016230676659461,0.0016230676355354,-0.0014154159833863,0.0014154157256745,-0.0014154156821665,0.0014154159728316,-0.0015814819719106,0.0015814818939022,-0.0015814821161423,0.0015814820596461,-0.0015814817224935,0.0015814818357475,-0.0015814818667199,0.0015814820014909,-0.0016230679155877,0.0016230680076168,-0.0016230675229916,0.0016230676780934,-0.0014154159704867,0.0014154157350645,-0.0014154156692699,0.0014154159822175,-0.0016230680585432,0.0016230679650969,-7.8518298261062e-11,-7.851788434356e-11,-0.00097561530980294,0.00097561504374622,-4.461334300476e-11,-7.6089492716757e-11,-0.00086451716775596,0.00086451708298137,-0.00073950597764412,0.00073950606074003,-0.00073950596956068,0.00073950605268109,-0.00086451689355824,0.00086451687411447,-0.00086451713293624,0.00086451711344211,-0.00073950595205744,0.00073950609268022,-0.00073950593915015,0.00073950607977818,-0.0011783593654427,0.0011783590646359,-0.0011783593759449,0.001178359054914,-0.0011783593497622,0.0011783590489485,-0.001178359358964,0.0011783590379371,-0.0012231213707135,0.0012231211574959,-0.0012231216033457,0.0012231213901176,-0.0012231215892226,0.0012231213977608,-0.0012231213622488,0.001223121170794,-0.00086451692360106,0.00086451683882243,0.64299206939106,123579,2954,0.0041266122013237,0.0065357301154267,0.004057925126717,24.735084154756,0.00011308067323805,0.00011308067323805,0.00011308067323805,3991750.5776444,0.014829670208844
30391759,0.90845561370049,0.015521984512156,0.0046258460290566,0.0063023849809786,0.0045937535021209,-0.0010158544992532,0.0010158554661546,3.6243801907613e-10,3.6243729783346e-10,4.9534822329739e-10,1.8822141971483e-10,-0.00051874406658184,0.00051874500147635,-0.0011705891810964,0.0011705898698108,-0.0011705894490638,0.0011705901377988,-0.00051874405451614,0.00051874551819757,-0.00051874380099417,0.00051874526466337,-0.0011705888783373,0.0011705901698182,-0.0011705891458115,0.0011705904372851,-0.0011875407361784,0.0011875414953484,-0.0011875408175883,0.0011875415767628,-0.0011875408487816,0.0011875413865242,-0.001187540930475,0.0011875414682146,-0.00090949924704181,0.00090950008422276,-0.00090949932769145,0.00090950016486408,-0.00090949914954291,0.00090950018131644,-0.00090949922992266,0.00090950026169518,-0.0005187443192036,0.00051874525406245,-1.23499466089e-10,1.5221046508213e-10,-1.2730439917328e-12,3.1973257856567e-11,-0.0016190961790126,0.001619096207613,-0.0016622169385444,0.001662216909346,-0.001450548601756,0.001450548346681,-0.0014505483116515,0.0014505485989445,-0.0016347596138696,0.0016347595368049,-0.0016347597654131,0.0016347597102009,-0.0016347593656879,0.0016347594771784,-0.0016347595172262,0.0016347596505731,-0.0016622171756239,0.0016622172659273,-0.0016622167971837,0.0016622169514161,-0.0014505485892837,0.001450548356793,-0.0014505482991822,0.0014505486090549,-0.0016622173169861,0.0016622172238958,-7.8078707131446e-11,-7.8078337458915e-11,-0.00099919883203468,0.0009991985631614,-4.5351414457184e-11,-7.7277004894957e-11,-0.00088969019985699,0.00088969011528779,-0.00075973470447016,0.0007597347805606,-0.00075973469677929,0.00075973477289547,-0.00088968992689812,0.0008896899085409,-0.00088969016460417,0.00088969014619764,-0.00075973467841927,0.00075973481291627,-0.0007597346659203,0.00075973480042153,-0.0012077338899806,0.0012077335913484,-0.0012077339006302,0.0012077335814768,-0.0012077338742241,0.0012077335755875,-0.0012077338835883,0.0012077335644383,-0.0012497935830525,0.0012497933719994,-0.0012497938141268,0.0012497936030665,-0.0012497937998675,0.0012497936108684,-0.0012497935744215,0.0012497933854294,-0.00088968995737944,0.00088968987280631,0.55654009761524,123579,2954,0.0042258503542958,0.0067222394685967,0.0041558315999205,26.075022762572,0.00012380018210058,0.00012380018210058,0.00012380018210058,4086476.1856855,0.015219095437175
31391759,0.93435860399646,0.015943759878763,0.0047449595029088,0.0064885359494438,0.0047102644264105,-0.0010404155338651,0.001040415611424,-3.8886201509119e-11,-3.8886898355478e-11,1.607235504838e-10,-2.6938649910384e-10,-0.0005219931404035,0.00052199302706454,-0.0012024086647502,0.0012024084110581,-0.0012024090294681,0.0012024087757974,-0.00052199297374122,0.0005219936086751,-0.00052199276524779,0.00052199340017383,-0.0012024082464004,0.0012024088290862,-0.0012024086102409,0.0012024091929202,-0.0012192609016834,0.0012192608800443,-0.0012192610223503,0.0012192610007161,-0.0012192610554731,0.0012192607284864,-0.001219261176623,0.0012192608496336,-0.00092959745287266,0.00092959741294831,-0.00092959755000052,0.00092959751006653,-0.00092959731622427,0.00092959755009178,-0.00092959741263793,0.00092959764650347,-0.00052199334728027,0.00052199323390651,-1.5818527986951e-10,2.301554632027e-10,2.8563665164342e-11,4.3810951281982e-11,-0.0016732705692594,0.0016732706396712,-0.0017195373545309,0.0017195373108426,-0.0014978746782032,0.0014978743625484,-0.0014978743180585,0.0014978747638492,-0.0016885945689152,0.0016885944983328,-0.0016885947615222,0.0016885946995332,-0.0016885942997749,0.0016885945008439,-0.0016885944923771,0.0016885947020422,-0.0017195374850561,0.0017195376729198,-0.0017195371974941,0.0017195374145309,-0.0014978746579819,0.001497874352608,-0.0014978742978404,0.0014978747539061,-0.0017195376420929,0.0017195375692686,-1.1996116579814e-10,-1.1996081878668e-10,-0.001021928564494,0.0010219280476435,-1.13222199316e-10,-1.2587055316012e-10,-0.00090562185060248,0.00090562160410095,-0.00077114451326902,0.00077114428088754,-0.00077114449043182,0.0007711442580744,-0.00090562164726118,0.00090562143235997,-0.00090562182929092,0.00090562161434073,-0.00077114450673736,0.00077114429614044,-0.00077114447646245,0.0007711442658689,-0.0012400432074509,0.0012400428074366,-0.0012400432121656,0.0012400428049441,-0.0012400432179396,0.0012400428179192,-0.0012400432199701,0.0012400428127512,-0.0012851881933764,0.00128518792641,-0.0012851883790625,0.0012851881120885,-0.0012851883692554,0.0012851881118118,-0.0012851881926173,0.001285187935181,-0.00090562165738331,0.00090562141088202,0.69215549466537,123579,2954,0.0043279455597186,0.006946300087736,0.0042502555878963,28.358826525696,0.00014207061220557,0.00014207061220557,0.00014207061220557,4013022.906085,0.015646219522998
32391759,0.95390577001217,0.016308934065681,0.004848393047726,0.0066495697071702,0.0048109713107844,-0.0010521548072462,0.0010521561074386,5.0480036890112e-10,5.0479960804201e-10,6.6163968292068e-10,3.1049867815499e-10,-0.00049142881327956,0.00049143005874661,-0.001220156962051,0.0012201579137449,-0.0012201572119438,0.0012201581636575,-0.00049142875272995,0.00049143062422762,-0.00049142849965914,0.00049143037114479,-0.0012201566148405,0.0012201582595112,-0.0012201568643774,0.0012201585090431,-0.0012450295659784,0.0012450306300622,-0.0012450296385426,0.0012450307026309,-0.0012450296920128,0.0012450305072159,-0.0012450297647693,0.0012450305799689,-0.00093501516764724,0.00093501629255362,-0.0009350152486331,0.0009350163735317,-0.00093501505504212,0.00093501640476079,-0.00093501513601729,0.00093501648573607,-0.00049142906577939,0.00049143031120941,-1.4013436375425e-10,1.8266642762191e-10,8.9685997213172e-12,3.4719452932781e-11,-0.0017271141301827,0.0017271141719265,-0.0017844089852855,0.0017844089463454,-0.0015471650322285,0.0015471647459839,-0.0015471646723355,0.0015471650229683,-0.0017343440251477,0.0017343439504261,-0.001734344182619,0.0017343441256823,-0.0017343437613504,0.0017343439004899,-0.001734343918817,0.0017343440757431,-0.0017844091863188,0.0017844093122302,-0.0017844088226905,0.001784408997546,-0.0015471650252372,0.0015471647567636,-0.0015471646653469,0.0015471650337448,-0.0017844093489131,0.0017844092610703,-5.9760718851061e-11,-5.9760267894249e-11,-0.0010285362536217,0.0010285360897616,-2.5550320543481e-11,-5.0612195390996e-11,-0.00088929657140049,0.00088929656703687,-0.00075358084004655,0.00075358104833288,-0.00075358083552387,0.00075358104383677,-0.00088929632212315,0.00088929636868975,-0.00088929654459648,0.00088929659111378,-0.00075358082055071,0.00075358107314691,-0.00075358081195373,0.00075358106455492,-0.0012647080925866,0.0012647078358504,-0.0012647081008788,0.0012647078279286,-0.0012647080724991,0.0012647078157576,-0.0012647080799771,0.0012647078070314,-0.0013156340306982,0.0013156338543575,-0.0013156342759077,0.0013156340995595,-0.0013156342645482,0.0013156341055069,-0.0013156340238827,0.0013156338648499,-0.0008892963458891,0.00088929634152312,0.79325035118638,123579,2954,0.004377051439308,0.0071688751294862,0.0042779161435776,29.293121133756,0.00014954496907005,0.00014954496907005,0.00014954496907005,3675374.3693706,0.0159504151416
32891759,0.96196967666873,0.016436653457295,0.0048854416936943,0.0067044882543261,0.0048467235092746,-0.0010524776555999,0.0010524801199302,1.0243719660514e-09,1.0243712249711e-09,1.0902972368369e-09,9.1595557462711e-10,-0.00047402719883547,0.00047402984958644,-0.0012228652176423,0.0012228674236952,-0.0012228653454531,0.0012228675515269,-0.00047402733025395,0.0004740302852052,-0.00047402704599962,0.00047403000094191,-0.0012228650376469,0.0012228675992985,-0.0012228651655291,0.0012228677271735,-0.0012521008515637,0.001252102915989,-0.0012521008757315,0.0012521029401616,-0.0012521009190683,0.0012521028538117,-0.00125210094319,0.0012521028779316,-0.00093192970517186,0.0009319319794019,-0.00093192977493179,0.00093193204915304,-0.00093192964935619,0.00093193203369086,-0.00093192971966132,0.00093193210399601,-0.00047402748328309,0.00047403013399581,-8.5715682274363e-11,7.1983532290735e-11,-3.3310527092145e-11,2.287803809164e-11,-0.0017468537179427,0.0017468537054139,-0.0018076130487549,0.0018076130416149,-0.0015643260547901,0.0015643258636478,-0.0015643257938866,0.0015643259175693,-0.0017516949155046,0.0017516948358609,-0.0017516950260356,0.0017516949862778,-0.001751694684513,0.0017516946989852,-0.0017516947950383,0.0017516948494005,-0.0018076134002753,0.001807613386583,-0.0018076129105436,0.0018076130046205,-0.0015643260566213,0.0015643259039468,-0.0015643257957196,0.0015643259578647,-0.0018076135384863,0.0018076134236146,-8.9693810209784e-12,-8.9689376962864e-12,-0.0010259191501636,0.0010259193262539,7.0535598230009e-11,1.3287184423872e-11,-0.00087527765308678,0.00087527786822058,-0.00073973623288399,0.00073973688195519,-0.00073973624541004,0.00073973689450555,-0.00087527733079174,0.00087527765535277,-0.00087527760017105,0.00087527792468038,-0.00073973618155032,0.00073973693632367,-0.00073973619252697,0.0007397369473034,-0.0012711033854623,0.001271103255039,-0.0012711034040405,0.0012711032353462,-0.0012711033358818,0.0012711032054539,-0.0012711033550777,0.0012711031863867,-0.0013232317127894,0.0013232315968805,-0.0013232320178222,0.0013232319019061,-0.0013232319978232,0.001323231920239,-0.0013232316938576,0.0013232316162788,-0.00087527738658034,0.00087527760171364,0.66855895222188,123579,2954,0.0043785857760181,0.0072504314064891,0.0042671821039283,29.182717987592,0.00014866174390073,0.00014866174390073,0.00014866174390073,3497375.1296477,0.016023986757447
33891759,0.97377490964133,0.016645619164705,0.0049466238975598,0.0067931353025781,0.0049058599645672,-0.0010637154766833,0.0010637170034009,6.0597925716142e-10,6.0597851421353e-10,6.5756693524474e-10,5.174195542025e-10,-0.00048815589116258,0.00048815756589257,-0.0012391471990978,0.0012391485728858,-0.0012391474354261,0.0012391488092359,-0.00048815604105183,0.00048815792571413,-0.00048815578480589,0.00048815766945989,-0.0012391470572111,0.0012391487097464,-0.0012391472931531,0.0012391489456821,-0.0012636684100738,0.0012636696213923,-0.0012636684772912,0.0012636696886146,-0.001263668468355,0.0012636695689365,-0.0012636685357873,0.0012636696363662,-0.00094174614161194,0.00094174755208725,-0.00094174622620573,0.00094174763667239,-0.00094174609873443,0.00094174759386655,-0.00094174618326795,0.00094174767839785,-0.0004881561467737,0.00048815782146616,-7.3511831742287e-11,4.0927195974315e-11,-4.6846435285323e-11,1.8230751886573e-11,-0.0017690801538099,0.0017690801230284,-0.001824717778711,0.0018247177757082,-0.0015814119979555,0.0015814118297924,-0.0015814118385124,0.0015814118962707,-0.0017791194631069,0.0017791193725054,-0.0017791196021812,0.0017791195553665,-0.0017791192594205,0.0017791192448171,-0.0017791193984896,0.0017791194276765,-0.0018247180858321,0.0018247180318615,-0.0018247176781145,0.0018247177500515,-0.0015814119806559,0.0015814118563707,-0.0015814118212149,0.0015814119228456,-0.0018247181864284,0.001824718057555,-5.9730995935546e-11,-5.973058142615e-11,-0.0010369136405651,0.0010369135056629,-3.0062483670583e-12,-6.7499688754372e-11,-0.00089231271011619,0.00089231268224143,-0.00075285983218956,0.00075286004273545,-0.00075285983011705,0.00075286004068807,-0.0008923124207283,0.00089231252130788,-0.00089231264529637,0.00089231274582534,-0.00075285977393289,0.00075286010617946,-0.00075285976833361,0.00075286010058291,-0.0012833332470662,0.0012833330120069,-0.0012833332683192,0.0012833329907947,-0.0012833332213639,0.0012833329862995,-0.0012833332420541,0.001283332964533,-0.0013348860145144,0.0013348858215348,-0.0013348862641271,0.0013348860711409,-0.00133488624005,0.0013348860906746,-0.001334885994414,0.0013348858450461,-0.00089231248353407,0.00089231245565691,0.74514432892262,123579,2954,0.0044252084039981,0.0073422963814918,0.0043127968657698,30.030504305244,0.00015544403444195,0.00015544403444195,0.00015544403444195,3543313.6115604,0.016211046632983
34891759,0.98311151324768,0.016817342763283,0.0049966447086391,0.0068663413314921,0.004954356723152,-0.0010738787830429,0.0010738775817446,-6.1822343712483e-10,-6.1822411173658e-10,-3.910846795359e-10,-8.5768991683825e-10,-0.00047454328554139,0.00047454178112957,-0.0012517789446383,0.0012517774728295,-0.0012517794768152,0.0012517780050295,-0.00047454308723289,0.00047454236824652,-0.00047454289156486,0.00047454217257417,-0.0012517784970836,0.0012517779210903,-0.0012517790278122,0.0012517784518133,-0.0012814209686807,0.0012814197850249,-0.0012814211528001,0.0012814199691486,-0.0012814211364738,0.0012814196190402,-0.0012814213214005,0.0012814198039638,-0.00094826880362385,0.00094826754062652,-0.00094826890911061,0.00094826764610423,-0.00094826865707284,0.00094826768853533,-0.00094826876111413,0.00094826779257576,-0.00047454347867797,0.00047454197422743,-1.695305858036e-10,2.4226296045197e-10,2.9522675867223e-11,4.3220112243474e-11,-0.0018011793152614,0.0018011793861011,-0.0018637267740122,0.0018637267203632,-0.0016117161706472,0.0016117158355842,-0.0016117158472202,0.0016117163152769,-0.0018061720514146,0.0018061719690142,-0.00180617230489,0.0018061722275678,-0.001806171797791,0.0018061720148795,-0.0018061720512603,0.0018061722734324,-0.0018637267882801,0.001863726986893,-0.0018637266438695,0.0018637268695831,-0.00161171612628,0.0016117157998371,-0.0016117158028537,0.001611716279526,-0.0018637269184229,0.0018637268377094,-1.8155890047081e-10,-1.8155852520286e-10,-0.0010437254388928,0.0010437245095397,-2.1901617901489e-10,-2.2792353576891e-10,-0.00088416268239788,0.00088416214269097,-0.00074497729496675,0.00074497646844459,-0.00074497725190658,0.00074497642540942,-0.00088416256027789,0.0008841620510434,-0.0008841626587022,0.00088416214941813,-0.00074497729198704,0.00074497648218952,-0.00074497723946098,0.00074497642966662,-0.0013002143242836,0.0013002137817932,-0.0013002143280358,0.001300213781658,-0.0013002143712508,0.001300213828756,-0.0013002143709308,0.0013002138245566,-0.001354979277379,0.0013549789298717,-0.0013549793895883,0.0013549790420743,-0.0013549793788446,0.0013549790389415,-0.0013549792794276,0.0013549789395317,-0.00088416256690995,0.00088416202720168,0.77491537438297,123579,2954,0.0044676085919968,0.0074749543580647,0.0043412134477201,33.431844273247,0.00018265475418598,0.00018265475418598,0.00018265475418598,3318831.6866144,0.016417924485448
35891759,0.99005293853776,0.016940133453271,0.0050329185030695,0.0069178038647406,0.0049894110854612,-0.0010842089358588,0.0010842069422034,-9.7560217334681e-10,-9.7560284785562e-10,-6.2055334992554e-10,-1.3405492066272e-09,-0.00047415732218625,0.00047415473495208,-0.0012643863907252,0.0012643839297076,-0.0012643870123736,0.0012643845513783,-0.0004741568792416,0.00047415556284492,-0.00047415668615433,0.00047415536974948,-0.0012643856991429,0.0012643846262819,-0.0012643863191361,0.0012643852462692,-0.0012958632868833,0.0012958614571944,-0.0012958635062486,0.0012958616765643,-0.0012958635370052,0.0012958612057915,-0.0012958637572945,0.0012958614260782,-0.00095649007551109,0.0009564879814038,-0.00095649018345542,0.00095648808934001,-0.00095648984610082,0.00095648821331004,-0.0009564899523275,0.00095648831953594,-0.00047415751241171,0.00047415492513997,-2.5114975186584e-10,4.0547567643024e-10,9.1782426786334e-11,5.9279352938812e-11,-0.0018255526092969,0.0018255527587207,-0.0018898115812144,0.0018898114783735,-0.0016339752633164,0.0016339747837309,-0.0016339747376037,0.0016339755423496,-0.0018295423007029,0.0018295422283763,-0.0018295426044955,0.0018295425055987,-0.0018295419849432,0.0018295423791662,-0.0018295422887299,0.0018295426563872,-0.0018898114208684,0.0018898118246164,-0.0018898113922121,0.0018898117330372,-0.001633975223078,0.0016339747211839,-0.0016339746973669,0.0016339754797994,-0.0018898116098702,0.0018898115699891,-2.0972310286787e-10,-2.0972272246773e-10,-0.0010518237297646,0.0010518225782436,-2.9292161912208e-10,-2.5453382195322e-10,-0.00088547591302187,0.00088547527092293,-0.00074622796841925,0.00074622686944239,-0.00074622791464362,0.0007462268156912,-0.00088547586488766,0.00088547516297892,-0.00088547593250276,0.00088547523054358,-0.0007462280118277,0.00074622683773519,-0.00074622794722185,0.00074622677313119,-0.001314171969173,0.0013141713385094,-0.0013141719574763,0.0013141713547615,-0.0013141720367121,0.0013141714060436,-0.0013141720200952,0.0013141714173837,-0.0013697300036655,0.0013697296365212,-0.0013697300783892,0.0013697297112383,-0.0013697300820584,0.0013697296912374,-0.0013697300222363,0.0013697296314225,-0.00088547582484376,0.00088547518274481,0.74258283665401,123579,2954,0.0045105906453161,0.0075756681896618,0.0043748938948332,37.441119849562,0.00021472895879649,0.00021472895879649,0.00021472895879649,3185957.1747707,0.016598269452221
36891759,0.99406372096272,0.017000774583272,0.0050509775344461,0.0069429168937003,0.0050068801551258,-0.0010841598212128,0.0010841628915513,1.2922105837066e-09,1.2922099136241e-09,1.4367022743567e-09,1.0962936827893e-09,-0.00047238176084947,0.00047238485891743,-0.0012659669293435,0.0012659695278683,-0.0012659670072497,0.0012659696057961,-0.00047238172334354,0.00047238547699387,-0.00047238143336406,0.00047238518700658,-0.001265966584363,0.0012659698715591,-0.0012659666626634,0.0012659699498532,-0.00129690036731,0.0012969030502394,-0.0012969003679528,0.0012969030508867,-0.0012969004864479,0.001296902934297,-0.0012969004868421,0.0012969029346887,-0.00095537892478828,0.00095538170985038,-0.00095537898973442,0.00095538177478784,-0.00095537881243323,0.00095538182085224,-0.00095537887843193,0.00095538188684946,-0.00047238205162679,0.0004723851496562,-1.4585717125671e-10,1.8533666790084e-10,9.0461324998028e-12,3.1309778684224e-11,-0.0018312688339321,0.0018312688724505,-0.0018945312900979,0.0018945312431382,-0.0016378715691388,0.0016378712690236,-0.0016378711185999,0.001637871478577,-0.001836479305527,0.0018364792347349,-0.0018364794102532,0.001836479358541,-0.0018364790108119,0.0018364791382246,-0.0018364791155326,0.0018364792620289,-0.0018945315478711,0.0018945316750737,-0.0018945310795653,0.0018945312475558,-0.0016378715850703,0.001637871301192,-0.001637871134533,0.0016378715107423,-0.0018945317584033,0.0018945316706926,2.6779691251756e-11,2.6780061696321e-11,-0.0010513382224137,0.0010513385835006,9.8624284728153e-11,7.3963133352046e-11,-0.00088486555971904,0.0008848659411672,-0.0007445159985934,0.00074451690691226,-0.00074451601893477,0.00074451692727839,-0.00088486526299356,0.0008848656862405,-0.00088486554231467,0.00088486596551083,-0.00074451597887579,0.00074451692785023,-0.00074451599899463,0.0007445169479715,-0.0013152995763555,0.0013152995269199,-0.0013152995840017,0.0013152995174394,-0.0013152995111849,0.0013152994617443,-0.0013152995202994,0.0013152994537402,-0.0013709145659858,0.0013709145255367,-0.0013709148900602,0.0013709148496042,-0.0013709148822373,0.001370914857985,-0.0013709145567992,0.0013709145325537,-0.00088486528693701,0.00088486566838344,0.63318519148288,123579,2954,0.0045104279031828,0.0075992728862505,0.0043729033815661,36.81400189069,0.00020971201512552,0.00020971201512552,0.00020971201512552,3166101.4704599,0.016620085138679
37891759,0.99653157695945,0.017035562621246,0.0050613425011594,0.0069572920081582,0.0050169281119282,-0.0010892311170471,0.0010892325995909,5.8397915648469e-10,5.8397849137265e-10,6.994536141428e-10,4.3198539608385e-10,-0.00048528713025967,0.00048528863351427,-0.0012720787680512,0.00127207997587,-0.0012720790166508,0.0012720802244914,-0.00048528715805665,0.00048528912533134,-0.00048528689749569,0.00048528886476201,-0.0012720785019795,0.0012720802393478,-0.0012720787502382,0.0012720804876001,-0.001299558571401,0.0012995597824957,-0.0012995586434288,0.0012995598545283,-0.0012995586703017,0.0012995596877959,-0.0012995587425146,0.0012995597600068,-0.00096101410841374,0.00096101543234414,-0.00096101419624191,0.00096101552016365,-0.00096101402330394,0.00096101551676886,-0.00096101411115876,0.00096101560462211,-0.00048528739028402,0.00048528889350045,-1.1546279179265e-10,1.2585860192228e-10,-1.1117512338218e-11,2.367875904193e-11,-0.0018335411365659,0.0018335411471347,-0.0018930235825321,0.0018930235487184,-0.001638808725983,0.0016388084849134,-0.001638808442354,0.0016388086780983,-0.0018421514834297,0.0018421514027193,-0.0018421516434187,0.0018421515867044,-0.0018421512437853,0.0018421513208876,-0.0018421514037687,0.0018421515048709,-0.0018930238039589,0.0018930238627773,-0.0018930234432034,0.0018930235685662,-0.001638808719433,0.0016388085021611,-0.001638808435806,0.0016388086953431,-0.0018930239432875,0.0018930238429661,-5.6110330691443e-11,-5.6109980165386e-11,-0.0010576502879335,0.0010576501466285,-1.6784558243267e-11,-5.1122560667334e-11,-0.00089808303512445,0.00089808304536304,-0.00075599796342759,0.00075599818833593,-0.00075599796000417,0.00075599818493731,-0.0008980827855413,0.0008980828645418,-0.00089808299996894,0.00089808307891935,-0.00075599793463111,0.00075599822196836,-0.00075599792772752,0.00075599821506746,-0.0013185619104787,0.0013185616734073,-0.001318561921763,0.0013185616622251,-0.0013185618877314,0.0013185616506551,-0.0013185618984648,0.0013185616389301,-0.0013733564711214,0.0013733562965123,-0.0013733567158428,0.0013733565412266,-0.0013733567017748,0.0013733565506149,-0.0013733564609906,0.0013733563098376,-0.00089808281857919,0.00089808282881666,0.59016651981575,123579,2954,0.0045313810774691,0.0076086834603216,0.0043990340827395,37.705310637257,0.00021684248509805,0.00021684248509805,0.00021684248509805,3249318.881932,0.016677492099531
38880000,0.99794047444399,0.017059385110302,0.0050683887325673,0.0069672348263461,0.0050237615513881,-0.0010900785455566,0.0010900816080453,1.2943013022484e-09,1.294300636901e-09,1.2663838973412e-09,1.27513304984e-09,-0.00048485152496754,0.00048485495338021,-0.0012731059798139,0.0012731089259251,-0.0012731060666621,0.0012731090127951,-0.00048485184073966,0.00048485522592149,-0.00048485154548661,0.00048485493066011,-0.0012731059762253,0.0012731089223033,-0.0012731060632788,0.0012731090093506,-0.0013005381398497,0.0013005407151115,-0.0013005381452466,0.0013005407205129,-0.0013005381473392,0.0013005407151691,-0.0013005381526072,0.0013005407204347,-0.00096176692322136,0.00096176982356419,-0.00096176699600095,0.00096176989633531,-0.00096176692703045,0.0009617698174269,-0.0009617670005854,0.0009617698909802,-0.0004848518207002,0.00048485524907435,-3.4497278754057e-11,-5.1782842672643e-11,-8.097656125105e-11,2.4988577792572e-13,-0.0018349750710592,0.0018349749881132,-0.0018950201921407,0.0018950201981615,-0.0016401558741254,0.0016401557742418,-0.0016401557721977,0.0016401556440413,-0.0018432389674666,0.0018432388704661,-0.0018432390550057,0.0018432390152692,-0.0018432387847158,0.0018432386595813,-0.0018432388722492,0.0018432388043825,-0.0018950206120506,0.001895020445182,-0.0018950200994693,0.0018950200890903,-0.0016401558726094,0.0016401558279297,-0.0016401557706835,0.0016401556977262,-0.0018950207047215,0.0018950205542899,1.2360108230707e-11,1.2360463616909e-11,-0.0010585491593518,0.001058549462586,1.0881122130365e-10,2.5722514268375e-11,-0.00089858447720243,0.00089858474988945,-0.0007563112500226,0.00075631202155796,-0.00075631126927987,0.00075631204083998,-0.00089858412306548,0.00089858455438747,-0.00089858440186655,0.00089858483313775,-0.00075631117288023,0.00075631210038343,-0.00075631119216134,0.00075631211966707,-0.0013195500819504,0.0013195500292662,-0.0013195501088386,0.0013195500003516,-0.0013195500182082,0.0013195499655191,-0.00131955004662,0.0013195499381363,-0.0013747813338381,0.0013747812451035,-0.0013747816511144,0.0013747815623729,-0.0013747816239032,0.0013747815905556,-0.0013747813053225,0.0013747812719818,-0.0008985842052637,0.00089858447794929,0.70927916323616,123579,2954,0.004534909293271,0.0076146137543379,0.004402767690073,37.196438686896,0.00021277150949517,0.00021277150949517,0.00021277150949517,3260397.9032697,0.016690908635838
