time,ASR_ext,ASR_strain,ASR_strain_xx,ASR_strain_yy,ASR_strain_zz,disp_x_101,disp_x_102,disp_x_103,disp_x_104,disp_x_105,disp_x_106,disp_x_p10_neg,disp_x_p10_pos,disp_x_p11_neg,disp_x_p11_pos,disp_x_p12_neg,disp_x_p12_pos,disp_x_p13_neg,disp_x_p13_pos,disp_x_p14_neg,disp_x_p14_pos,disp_x_p15_neg,disp_x_p15_pos,disp_x_p16_neg,disp_x_p16_pos,disp_x_p1_neg,disp_x_p1_pos,disp_x_p2_neg,disp_x_p2_pos,disp_x_p3_neg,disp_x_p3_pos,disp_x_p4_neg,disp_x_p4_pos,disp_x_p5_neg,disp_x_p5_pos,disp_x_p6_neg,disp_x_p6_pos,disp_x_p7_neg,disp_x_p7_pos,disp_x_p8_neg,disp_x_p8_pos,disp_x_p9_neg,disp_x_p9_pos,disp_y_101,disp_y_102,disp_y_103,disp_y_104,disp_y_105,disp_y_106,disp_y_p10_neg,disp_y_p10_pos,disp_y_p11_neg,disp_y_p11_pos,disp_y_p12_neg,disp_y_p12_pos,disp_y_p1_neg,disp_y_p1_pos,disp_y_p2_neg,disp_y_p2_pos,disp_y_p3_neg,disp_y_p3_pos,disp_y_p4_neg,disp_y_p4_pos,disp_y_p5_neg,disp_y_p5_pos,disp_y_p6_neg,disp_y_p6_pos,disp_y_p7_neg,disp_y_p7_pos,disp_y_p8_neg,disp_y_p8_pos,disp_y_p9_neg,disp_y_p9_pos,disp_z_101,disp_z_102,disp_z_103,disp_z_104,disp_z_105,disp_z_106,disp_z_p10_neg,disp_z_p10_pos,disp_z_p11_neg,disp_z_p11_pos,disp_z_p12_neg,disp_z_p12_pos,disp_z_p13_neg,disp_z_p13_pos,disp_z_p14_neg,disp_z_p14_pos,disp_z_p15_neg,disp_z_p15_pos,disp_z_p16_neg,disp_z_p16_pos,disp_z_p1_neg,disp_z_p1_pos,disp_z_p2_neg,disp_z_p2_pos,disp_z_p3_neg,disp_z_p3_pos,disp_z_p4_neg,disp_z_p4_pos,disp_z_p5_neg,disp_z_p5_pos,disp_z_p6_neg,disp_z_p6_pos,disp_z_p7_neg,disp_z_p7_pos,disp_z_p8_neg,disp_z_p8_pos,disp_z_p9_neg,disp_z_p9_pos,humidity,ndof,nelem,strain_xx,strain_yy,strain_zz,temp,thermal_strain_xx,thermal_strain_yy,thermal_strain_zz,vonmises,vstrain
14391759,0,0,0,0,0,0,0,0,0,0,0,0,0,0,0,0,0,0,0,0,0,0,0,0,0,0,0,0,0,0,0,0,0,0,0,0,0,0,0,0,0,0,0,0,0,0,0,0,0,0,0,0,0,0,0,0,0,0,0,0,0,0,0,0,0,0,0,0,0,0,0,0,0,0,0,0,0,0,0,0,0,0,0,0,0,0,0,0,0,0,0,0,0,0,0,0,0,0,0,0,0,0,0,0,0,0,0,0,0,0,0,0,0,0,0,0,0,0,0,0,0,0,0
14891759,0.063482540837917,0.0010188694526477,0.00033962315088258,0.00033962315088258,0.00033962315088258,-0.00011475673382295,0.000114695147389,-8.602539250874e-08,-8.9616112347009e-08,-1.6935933538371e-08,-1.7901023489449e-08,-0.00010187756810173,0.00010148486688665,-0.00011195102176966,0.0001119112926176,-0.0001119430774669,0.00011208499177594,-0.00010190899329476,0.00010159438821158,-0.0001018767788584,0.0001014859366741,-0.00011195002193722,0.00011191216752131,-0.0001119422230536,0.00011208601208883,-0.00012098004766756,0.00012093721173786,-0.0001209726413239,0.00012098725045607,-0.00012098039576234,0.0001209369165603,-0.0001209729234679,0.00012098688933585,-0.00011165497368121,0.00011149809541248,-0.00011162980260672,0.00011139178358693,-0.00011165458852395,0.00011149835001146,-0.00011162955262385,0.00011139217339435,-0.0001019100509067,0.00010159358695464,-3.105185905044e-10,6.4245350735767e-10,-2.0063751135844e-09,2.3242842407376e-09,-0.00012162089124902,0.0001216212106689,-0.00011787074616691,0.00011787491492442,-0.00011875888065361,0.000118756776253,-0.00011873823261833,0.00011873799093524,-0.00012501935982949,0.00012501772933543,-0.00012502460538663,0.00012502621719188,-0.0001250192622962,0.0001250182826157,-0.00012502997348671,0.00012503223610606,-0.00011787381246765,0.0001178702768127,-0.00011789632676665,0.00011790114378394,-0.00011876129969994,0.00011876219773452,-0.00011864554742181,0.00011864830817445,-0.00011784982142199,0.00011784563755793,1.6455727276125e-09,1.4539311701935e-07,-0.00011775879409284,0.00011776969777179,1.0971660900394e-08,6.3033087912101e-09,-0.00011258057324427,0.00011257380246809,-0.0001149014201485,0.00011466344598759,-0.00011494084750122,0.00011490292969176,-0.00011272618447777,0.00011348425018572,-0.00011257644311454,0.00011257790182828,-0.00011489704857538,0.00011466782435288,-0.00011493646548033,0.00011490729747894,-0.00012218577520519,0.00012217513071551,-0.00012218738725425,0.00012217352434549,-0.00012216987369318,0.00012214557785215,-0.00012217148112269,0.00012214396684632,-0.0001155809553339,0.00011585101948309,-0.00011553536486634,0.00011553736786781,-0.00011553384983688,0.00011553886853872,-0.00011557945249217,0.0001158525323149,-0.0001127302881761,0.00011348012466397,0.64373504832551,122718,2924,0.00047790989264389,0.00050662434369688,0.00049056262159979,30.462880881844,0.00015890304705475,0.00015890304705475,0.00015890304705475,1313008.61221,0.0014761910423563
15391759,0.11459663099722,0.0018509831064865,0.00060949571620332,0.00062562938585078,0.00061585800443243,-0.00016846090311152,0.00016835707800305,-2.1608287538063e-07,-1.4720617624552e-07,-2.6454573172905e-08,-2.4843301631376e-08,-0.00014637139067711,0.00014567268284591,-0.00016555645304091,0.00016547523143269,-0.00016551521398921,0.000165883693495,-0.00014651547053434,0.00014580758186769,-0.00014637309118164,0.00014567171259365,-0.00016555773777456,0.0001654735423967,-0.00016551688083895,0.00016588238644809,-0.0001802031916214,0.00018009902413729,-0.00018016345044498,0.00018025136811341,-0.00018020272851156,0.0001800996784211,-0.00018016281215414,0.00018025184737029,-0.00016411970450374,0.00016372000567673,-0.00016399422418373,0.00016355859456301,-0.00016412002686993,0.00016371932078855,-0.0001639949038261,0.00016355826665458,-0.00014651451415086,0.00014580929423786,4.915554942031e-10,-9.0668899998299e-10,-8.734736350962e-09,8.3378101726225e-09,-0.000185291029484,0.00018529063125246,-0.00017896271982337,0.00017897941565347,-0.0001803743090999,0.00018036944196488,-0.00018032109381044,0.00018031353180883,-0.00019201369009939,0.00019200774139604,-0.00019202328517353,0.00019202956346459,-0.00019200914304843,0.00019200207718147,-0.00019204159963311,0.00019204675974087,-0.00017897609869516,0.00017895861243391,-0.00017895568032311,0.00017897138238483,-0.00018037637717356,0.0001803831225177,-0.00018014387703481,0.00018014792676145,-0.00017892649755294,0.00017891000338806,3.8884295415415e-08,3.2789624242962e-07,-0.00017546017512621,0.00017549528671243,3.6057100849687e-08,1.8081336177209e-08,-0.00016843193191991,0.00016848075914962,-0.00017238311885877,0.0001718373512274,-0.00017247010445382,0.00017240297128982,-0.00016873381655028,0.00017036815766647,-0.00016841547165664,0.00016849740877588,-0.00017236584508885,0.00017185453900289,-0.00017245291708716,0.00017242024828736,-0.00018369035411189,0.00018369304844292,-0.00018369647551995,0.0001836868872893,-0.00018365493149432,0.00018357708493692,-0.00018366109146394,0.00018357096295982,-0.00017262060149823,0.00017324009771763,-0.00017250118045358,0.00017257384337153,-0.00017249536151269,0.00017257975098321,-0.00017261469652777,0.00017324591875913,-0.00016875046279587,0.00017035169344348,0.66498198186136,122718,2924,0.00070145814461316,0.00077174318497215,0.00073088715885759,27.264469382917,0.00013331575506333,0.00013331575506333,0.00013331575506333,1805406.2219432,0.0022065317935851
15891759,0.16083514924949,0.002688998053399,0.00087271919582003,0.00092288118235033,0.00089339767522861,-0.00022385278225066,0.00022365544481807,-4.4530295208088e-07,-2.4375771191117e-07,-5.3321110579776e-08,-4.3714380228376e-08,-0.00018980689400999,0.00018862515059847,-0.00022351783563888,0.00022335504126603,-0.00022341931654153,0.00022411657652627,-0.00019014948640153,0.0001887099543245,-0.0001898161851587,0.00018861719051078,-0.00022352651549804,0.00022334541555283,-0.00022342877146274,0.00022410772453067,-0.00024005342335547,0.00023983397380974,-0.00023995542837202,0.00024014758286564,-0.00024005038367542,0.00023983746854134,-0.00023995203975573,0.00024015072864658,-0.00022044384914508,0.00021962782398293,-0.00022013921337555,0.00021939215558319,-0.00022044657109086,0.00021962436225524,-0.00022014263713972,0.00021938939475885,-0.00019014162504938,0.00018871934661696,2.7628326125808e-09,-6.1204641783588e-09,-2.1514924779831e-08,1.8281324815737e-08,-0.00025558391330612,0.00025558066910745,-0.00024862854468235,0.0002486671510673,-0.00025032116590829,0.00025031300333601,-0.00025022144379586,0.00025019596176724,-0.00026275965985254,0.00026274564636673,-0.00026277498250717,0.00026278904004585,-0.00026274960138077,0.00026272912008388,-0.0002628113864155,0.00026281897493103,-0.00024866534747172,0.00024862030006215,-0.00024876243541721,0.00024879491108936,-0.00025032054952351,0.00025033938358448,-0.00024989656539861,0.00024989807795544,-0.00024856248560665,0.00024852356466318,1.0662664333114e-07,6.0626012720319e-07,-0.00023674248783601,0.0002368189984151,7.578664132938e-08,3.418713432416e-08,-0.00023274540065868,0.00023289473330527,-0.00023566806329312,0.0002344964953956,-0.00023581380060132,0.00023569458358365,-0.00023339085262659,0.00023659301354219,-0.00023270716802165,0.00023293363196732,-0.00023562789572683,0.00023453638224994,-0.00023577393584092,0.00023573477605904,-0.00024671606528221,0.00024674734655389,-0.0002467301642012,0.00024673310715065,-0.0002466662585862,0.00024651420656531,-0.00024668049235406,0.00024650010354543,-0.000235898227629,0.00023702331264738,-0.00023561668714663,0.00023581761864343,-0.000235603237872,0.00023583138863037,-0.00023588447499599,0.00023703677766855,-0.00023342971981136,0.00023655474710144,0.7444907159995,122718,2924,0.0009318803245744,0.0010643527091573,0.00098609676992939,25.412305065895,0.00011849844052716,0.00011849844052716,0.00011849844052716,1828653.2333141,0.0029867937105672
16391759,0.20592235764711,0.003515041617546,0.0011228933780542,0.0012270194571834,0.0011651287823084,-0.00027731544492447,0.00027696219109493,-7.959743040513e-07,-3.8971890163422e-07,-9.1960756470763e-08,-7.0969824826359e-08,-0.00022384230984608,0.00022187878924034,-0.00027971452635294,0.00027941032089279,-0.00027952237423657,0.00028068595794319,-0.00022449919992969,0.00022197400202392,-0.00022386250872505,0.00022186089423975,-0.00027973369604176,0.00027938935106015,-0.00027954295146854,0.00028066638828079,-0.00029959672837365,0.00029920519786904,-0.00029940463317123,0.00029973192666533,-0.00029959001620045,0.00029921275314133,-0.00029939730028033,0.00029973886285319,-0.00027442025938033,0.00027295895700433,-0.0002738304339886,0.00027259549680652,-0.00027442638057955,0.00027295149748693,-0.00027383780920475,0.00027258928816345,-0.00022448154312275,0.00022199442626586,5.9368246539497e-09,-1.3635533152072e-08,-4.124239638488e-08,3.3819329086858e-08,-0.00032920926613804,0.00032920181839007,-0.00032085499915956,0.00032092751519596,-0.00032320889767172,0.00032319490547595,-0.00032303907543651,0.0003229868792074,-0.00033659320225985,0.0003365665446616,-0.00033661821058425,0.0003366440996835,-0.00033657309592054,0.00033653246219271,-0.00033667080284335,0.00033668271492993,-0.00032095468863997,0.00032086739496049,-0.00032129327741072,0.00032135229490651,-0.00032320487189217,0.00032324180949593,-0.00032246812574468,0.00032246685115917,-0.00032075554400577,0.00032068172311194,2.2037845325485e-07,1.0000050858879e-06,-0.00029764976302354,0.00029777238297613,1.2795718268155e-07,4.966154310533e-08,-0.00029710477623009,0.00029742779681462,-0.00029942929295443,0.00029726137584791,-0.00029967208548037,0.00029949815885432,-0.00029831536175709,0.00030383330644123,-0.00029703282475743,0.00029750101316128,-0.0002993536331308,0.00029733645847695,-0.00029959703651265,0.00029957387370203,-0.00030994708138574,0.00031003131533803,-0.00030997359443597,0.00031000452624461,-0.00030990663573433,0.00030964244054653,-0.00030993341703504,0.00030961592505906,-0.00029907190891042,0.00030091719943529,-0.00029849056734836,0.00029890545652609,-0.00029846524217273,0.00029893140260878,-0.000299045994301,0.00030094255011978,-0.00029838851462276,0.00030376128558153,0.75197985070181,122718,2924,0.0011540975571617,0.0013707362573715,0.0012396902885545,24.44805968869,0.00011078447750952,0.00011078447750952,0.00011078447750952,2098272.3353967,0.0037716325140071
16891759,0.25059341781398,0.0043844400209452,0.0013775925360568,0.0015567074264863,0.0014501400584021,-0.00033289253867046,0.00033233950956469,-1.2379287326491e-06,-5.6289333914058e-07,-1.349954725041e-07,-9.9255811913961e-08,-0.00025815489690818,0.00025546519234131,-0.00033939933188679,0.0003388838437846,-0.00033907864796648,0.00034077138359136,-0.0002592505575697,0.00025540858598642,-0.00025818923404064,0.00025543439107768,-0.00033943201474127,0.00033884818852593,-0.00033911358808101,0.00034073796403906,-0.00036153093971415,0.00036091577400563,-0.00036121279957464,0.00036170682773907,-0.00036151952017035,0.00036092858786178,-0.00036120036156486,0.00036171863128621,-0.00033053337747015,0.00032823585993106,-0.00032955792182056,0.000327645716663,-0.00033054383753992,0.00032822321365281,-0.00032957041635739,0.00032763509221099,-0.00025922019569518,0.00025544332409468,9.8618823822039e-09,-2.3535308542384e-08,-6.9942431063227e-08,5.6748565685066e-08,-0.0004092517659822,0.00040923852932887,-0.00039986590122182,0.00039998774132664,-0.00040249952805622,0.00040247564111702,-0.00040224515979529,0.00040215602917428,-0.00041623053426974,0.00041618494781663,-0.00041626639204534,0.00041630958596894,-0.00041619935238329,0.0004161299964648,-0.00041635082809127,0.00041637021530583,-0.00040004264055536,0.00039989454019202,-0.00040084419753031,0.00040094302784521,-0.00040248982850052,0.00040255183377439,-0.00040139667636476,0.00040139340585733,-0.00039972102933553,0.00039959586102136,3.753495911556e-07,1.5057062419266e-06,-0.00036206820982957,0.00036223438025418,1.8556965881135e-07,5.3668512645072e-08,-0.00036602444213183,0.00036658535020602,-0.00036789672080739,0.00036439245115009,-0.00036827357254265,0.00036801441120707,-0.0003678841981686,0.00037616323257924,-0.00036590299707746,0.00036670876790971,-0.00036776929459664,0.00036451890345836,-0.00036814713057097,0.0003681419117224,-0.00037663336578474,0.00037679270002133,-0.00037667801209974,0.00037674761883757,-0.00037660349548359,0.00037619696686029,-0.00037664857098087,0.00037615232631085,-0.00036695603908983,0.00036980598466846,-0.00036600113250916,0.00036670543822208,-0.00036595844917485,0.00036674910772302,-0.00036691242344478,0.00036984870753023,-0.00036800750523859,0.00037604167531966,0.80138220899585,122718,2924,0.001384980872324,0.0017037108689497,0.0015078228414881,23.815146360451,0.00010572117088361,0.00010572117088361,0.00010572117088361,2452193.858236,0.0046071091080162
17391759,0.29077037741451,0.0050747537060779,0.001574485380936,0.0018269433210799,0.001673325004062,-0.00037270336152834,0.00037193332669805,-1.699764976434e-06,-7.4339035311423e-07,-1.839780287697e-07,-1.3449949470648e-07,-0.0002760185305822,0.00027254310025505,-0.00038124477567127,0.00038051553928251,-0.00038078146726443,0.0003830196105787,-0.0002775953954944,0.00027241934339527,-0.00027606603248959,0.00027250000526802,-0.00038129016313602,0.00038046617204618,-0.00038082981164943,0.00038297317327006,-0.00040924289909805,0.00040836463829571,-0.00040879240247976,0.00040942722118481,-0.00040922709061658,0.00040838226730412,-0.00040877529401242,0.00040944356030293,-0.00036836612921302,0.00036518193680745,-0.00036698816472462,0.00036438551362805,-0.00036838073006892,0.00036516456877451,-0.00036700531693205,0.00036437067904965,-0.00027755290256077,0.00027246740045207,1.3286503292768e-08,-3.3035887555753e-08,-9.8454133281707e-08,7.9383420481804e-08,-0.00047316710252538,0.00047314797121433,-0.00046153535642902,0.00046170562786134,-0.00046381406208908,0.00046377954175641,-0.00046344960043312,0.0004633245243323,-0.00048159006951359,0.00048152557556018,-0.00048163748889845,0.0004816967651655,-0.00048154996386599,0.00048145285008873,-0.00048176722074488,0.00048179385866421,-0.00046177585742459,0.00046156762873889,-0.00046297540171121,0.00046311384931389,-0.0004638020716166,0.00046388793835579,-0.00046234576952238,0.00046234103911076,-0.0004613465818298,0.0004611700626859,5.3398578595094e-07,2.0038595530914e-06,-0.000409676974009,0.00040987521820758,2.4244000267078e-07,5.7549241875723e-08,-0.00041416155223035,0.00041497142162783,-0.0004167812506518,0.00041200988302695,-0.00041726714481352,0.00041691346866883,-0.00041669844711961,0.00042767761796764,-0.00041399062021967,0.00041514490868236,-0.00041660264084512,0.00041218722309841,-0.00041708982122068,0.00041709218165159,-0.00042834118996889,0.00042856660183848,-0.00042840361350879,0.00042850361714667,-0.00042832227880903,0.00042774457215747,-0.00042838526388129,0.00042768216059406,-0.00041685726314182,0.00042073292476826,-0.00041548879639934,0.00041648595161676,-0.00041542894441752,0.00041654708300749,-0.00041679620420859,0.00042079283351369,-0.00041687178732125,0.00042750652426287,0.7107781577386,122718,2924,0.0015501913239871,0.001969508049828,0.0017059412274717,22.122934280171,9.2183474241368e-05,9.2183474241368e-05,9.2183474241368e-05,2692536.6329123,0.0052393400036529
17891759,0.32445503164177,0.005554197544315,0.0017100396633631,0.0020178694449847,0.0018262884359672,-0.0003982524011209,0.00039735986900889,-1.969660762094e-06,-8.2931254693788e-07,-2.2133989693322e-07,-1.6213157506955e-07,-0.00029099082239549,0.0002871836628779,-0.00040802406954837,0.00040715007451842,-0.0004074727363238,0.00040999891274977,-0.0002928629576071,0.0002869731119283,-0.00029104824593514,0.00028713152776599,-0.00040807861209507,0.00040709071330848,-0.00040753082079691,0.00040994306090744,-0.00044026603911144,0.00043920933244394,-0.00043973381930864,0.00044046979536437,-0.00044024718606829,0.0004392303841367,-0.00043971340889457,0.00044048930203417,-0.0003910528606045,0.00038732753645145,-0.00038942686229412,0.00038646903212758,-0.00039107037348405,0.00038730670569251,-0.00038944742417169,0.00038645123147911,-0.0002928115842764,0.00028703124544534,1.4932322861044e-08,-4.0773734598764e-08,-1.2905712632528e-07,1.0404996017945e-07,-0.00051490956320601,0.00051488448494363,-0.00049968926127564,0.00049991079256163,-0.00050072470848278,0.00050067480756582,-0.00050028558233313,0.00050012665798398,-0.00052789029242839,0.0005278041256169,-0.00052793782953619,0.00052801315184715,-0.00052784102442694,0.00052771608900436,-0.00052811681636477,0.00052815335811509,-0.00049997199574661,0.00049970068458233,-0.00050131786308648,0.00050150129536951,-0.00050070177789012,0.00050080933409833,-0.00049910639003626,0.00049910487470164,-0.00049950295412033,0.00049926960564285,6.2593475807749e-07,2.3202888527013e-06,-0.00044003200583358,0.00044023066682917,2.8162907977206e-07,3.990185554635e-08,-0.00044254628059842,0.00044347137474912,-0.00044799224632859,0.00044247843564219,-0.00044857266587221,0.00044812504522702,-0.0004452749801618,0.00045759478990241,-0.00044232128985243,0.00044369917064516,-0.00044775836861324,0.00044271093610098,-0.00044834017839575,0.0004483590354656,-0.00046279335140759,0.00046305829305857,-0.00046287489640652,0.00046297615655432,-0.00046274489457951,0.00046205910521223,-0.00046282704514057,0.00046197758706133,-0.00044620295409534,0.00045075697480509,-0.00044468885271317,0.00044584841548652,-0.00044461039275845,0.000445928260969,-0.00044612319651243,0.00045083550375263,-0.00044550258758243,0.00045736959189908,0.59260256382937,122718,2924,0.0016562350992806,0.0021430531846293,0.0018321974544684,19.639121212858,7.2312969702864e-05,7.2312969702864e-05,7.2312969702864e-05,2998666.6485674,0.0056474043167212
18391759,0.35341266555093,0.0059646229495325,0.0018251168497524,0.0021820903589864,0.0019574157407937,-0.0004205186200399,0.00041952439859255,-2.1811756385233e-06,-8.9890353594705e-07,-2.5377861764557e-07,-1.8968438609462e-07,-0.000305922933277,0.00030189171619372,-0.00043255602034384,0.00043154629451019,-0.00043193740565108,0.00043466189450587,-0.00030801641384777,0.00030157203417874,-0.00030598561217994,0.00030183499008487,-0.00043261514605743,0.00043148178196987,-0.00043200049544437,0.00043460131117785,-0.0004661735821038,0.0004649708835459,-0.00046557653190382,0.00046639645536736,-0.00046615322887394,0.00046499368707297,-0.00046555441541754,0.00046641750827922,-0.00041165391789031,0.0004074996580658,-0.00040983241555746,0.00040659177025958,-0.00041167284748287,0.00040747699463205,-0.00040985478053077,0.00040657252207185,-0.00030796054971474,0.00030163552288196,1.5079338294801e-08,-4.5446531969865e-08,-1.6011941405266e-07,1.306634627364e-07,-0.00055026439122486,0.00055023486383325,-0.00053231499050971,0.00053259013702154,-0.00053193847597226,0.00053186950076442,-0.00053144532866633,0.00053125784390948,-0.0005671592585711,0.0005670506423414,-0.00056720171130677,0.00056729371110732,-0.00056710129960151,0.00056695087385226,-0.00056742989355765,0.00056748007298423,-0.00053266570385981,0.0005323319143709,-0.00053416496388217,0.00053439882730931,-0.00053189974472712,0.00053202679292429,-0.00053021850542793,0.00053022699240001,-0.00053215477164611,0.00053186210477142,6.9504135889098e-07,2.5688692770919e-06,-0.00046637833806206,0.00046657396655871,3.1479965892138e-07,1.4268505051406e-08,-0.00046888930461279,0.00046988462189327,-0.00047633831675478,0.00047019638624762,-0.00047701812968146,0.00047648148670411,-0.00047171933543044,0.00048512920105328,-0.00046860774548111,0.00047016898310446,-0.000476047102216,0.00047048622853687,-0.00047672828442197,0.00047677281573387,-0.0004918109739401,0.00049210597689577,-0.00049191230486775,0.00049200407238595,-0.00049172803086373,0.00049096886219401,-0.00049182996091463,0.00049086757188522,-0.0004718805463525,0.00047697328341784,-0.00047028743092312,0.00047156463272868,-0.00047018957093557,0.00047166386851263,-0.00047178140621601,0.00047707121890349,-0.00047200348003826,0.00048484739786871,0.59387052420227,122718,2924,0.0017486531104896,0.0022900195803869,0.0019417603845164,17.515533846478,5.5324270771822e-05,5.5324270771822e-05,5.5324270771822e-05,3256073.6553241,0.0059983904255197
18891759,0.3814041363579,0.0063989036946998,0.0019454317744389,0.0023566738289972,0.0020967980912637,-0.00044584761702622,0.00044467324392211,-2.5343822069608e-06,-1.0515687804818e-06,-3.0181888509867e-07,-2.2835008292105e-07,-0.00031612682572358,0.00031147260457797,-0.00046083158988459,0.00045961966425964,-0.00046010736943135,0.00046322319161815,-0.00031857140693961,0.00031110956407722,-0.00031619841951042,0.00031140754481789,-0.00046089935576187,0.00045954584921149,-0.00046017957170489,0.00046315376513218,-0.00049648518278239,0.00049507190079243,-0.00049578789295289,0.00049671527802902,-0.00049646181862873,0.00049509805575652,-0.00049576250987681,0.000496739431461,-0.00043623578813737,0.00043139842328395,-0.0004341134110193,0.00043035096560743,-0.00043625749881778,0.00043137246272468,-0.0004341390298572,0.00043032888711715,-0.00031850732622629,0.00031118206754442,1.7117413979165e-08,-5.2205007701261e-08,-1.9461899194104e-07,1.6055820178015e-07,-0.00059280156558949,0.00059276742875859,-0.00057310946584971,0.00057344596740468,-0.00057235560338361,0.00057226887825862,-0.00057179004654732,0.00057156769568001,-0.00061125196899836,0.00061111994698591,-0.00061129335990873,0.00061140590014709,-0.0006111846872631,0.0006110046145154,-0.00061156679403227,0.00061163125205341,-0.00057355693041513,0.00057315262123316,-0.0005753786651616,0.0005756678607188,-0.00057230439746387,0.00057245690540223,-0.00057036065449253,0.00057037747067885,-0.00057295537655953,0.00057259816738243,8.109337429875e-07,2.9249663245861e-06,-0.000497117950119,0.00049733703338011,3.6031999807444e-07,-5.9029201514884e-09,-0.00050167152151371,0.00050282137320764,-0.00050985700029949,0.00050271068937351,-0.00051064571926995,0.00051001432726585,-0.00050496868204382,0.00052051237027886,-0.00050132748569375,0.00050316863533934,-0.00050950193167317,0.00050306418136659,-0.00051029218969666,0.0005103695107387,-0.0005249589368272,0.0005253070898605,-0.00052508237764358,0.00052518299144991,-0.00052487933098539,0.00052401772110244,-0.00052500346212272,0.00052389433222494,-0.00050434851221962,0.00051015532006875,-0.00050247299837822,0.0005039558482029,-0.00050235356795039,0.00050407686780618,-0.0005042276011488,0.00051027482899503,-0.00050531570378499,0.00052016807958956,0.65137566946256,122718,2924,0.0018536517089144,0.0024668108268029,0.0020696352713699,16.908316409069,5.0466531272554e-05,5.0466531272554e-05,5.0466531272554e-05,3347934.1463499,0.0064106028996217
19391759,0.41090709739516,0.0069025461457497,0.0020831335405956,0.0025616050574742,0.0022578075476799,-0.00047657691268099,0.00047516205069742,-3.0095533556248e-06,-1.2548139123336e-06,-3.5944188631832e-07,-2.701908736472e-07,-0.00032668254981692,0.00032115590856501,-0.00049527474968448,0.0004938098041999,-0.00049440489005529,0.00049805777137784,-0.00032961650115876,0.00032077740748242,-0.00032676892403022,0.0003210764600015,-0.00049535723526889,0.00049372044833434,-0.00049449229796593,0.00049797329153866,-0.00053337618993274,0.00053168752111146,-0.00053254419883871,0.00053360255203881,-0.00053334771875796,0.00053171920522662,-0.00053251344775095,0.00053363197307353,-0.00046638753917803,0.00046063915635455,-0.00046386034205876,0.00045939023244573,-0.00046641411250635,0.00046060781815946,-0.00046389126831323,0.00045936322091256,-0.00032953819674645,0.00032086485048535,2.1329634246168e-08,-6.2894931863975e-08,-2.327728081392e-07,1.9244586878443e-07,-0.0006454964612417,0.00064545604108025,-0.00062469919189062,0.00062510297214832,-0.0006235306799279,0.00062342855354589,-0.00062286588126023,0.00062259902863089,-0.00066424725266201,0.00066409041951631,-0.00066429374023219,0.00066442910311884,-0.00066417240972791,0.00066395708132236,-0.0006646231863044,0.0006647000347916,-0.00062525565406446,0.00062477158652439,-0.00062757728819435,0.00062792359180376,-0.00062347156206104,0.00062365568979042,-0.00062114328961525,0.00062116262347378,-0.00062452948538387,0.00062410265658555,9.678354947159e-07,3.4013915009812e-06,-0.00053436367280912,0.00053460964351092,4.1276885404858e-07,-2.5002994299099e-08,-0.00054173936823708,0.00054311742140524,-0.00055027855925758,0.0005417714232029,-0.00055119032354191,0.00055044521073102,-0.00054574739778362,0.00056425836381213,-0.00054132754252479,0.00054353310981096,-0.0005498540717904,0.00054219405184536,-0.0005507676587834,0.00055086982658033,-0.00056493047439357,0.00056534265447615,-0.0005650779138211,0.00056519441883203,-0.00056487644242149,0.00056385667125524,-0.00056502471346887,0.00056370928664226,-0.00054505986821775,0.0005518161622458,-0.0005427519479156,0.00054451711017096,-0.00054260910937831,0.00054466186885887,-0.0005449152356612,0.00055195909319716,-0.00054616282245731,0.00056384624076967,0.71635337683096,122718,2924,0.0019809850901389,0.0026857704999153,0.0022245515340046,17.474277820135,5.4994222561079e-05,5.4994222561079e-05,5.4994222561079e-05,3406075.2328801,0.0069151568578983
19891759,0.44329479910413,0.0074164032538122,0.002222276210302,0.0027746062964035,0.0024195207471066,-0.00050835119448611,0.0005066693456983,-3.5375534717439e-06,-1.4729500949643e-06,-4.2377292088911e-07,-3.1516633303396e-07,-0.00033744716361739,0.00033091605910286,-0.00052996274219453,0.0005282370457086,-0.00052892545921006,0.00053317786549162,-0.00034094553743366,0.00033061898833404,-0.00033755182587129,0.00033081891911924,-0.00053006333443089,0.00052812855413633,-0.00052903159562901,0.00053307486934792,-0.00057245472114131,0.00057044000571215,-0.0005714722741958,0.00057266048541864,-0.00057242001129958,0.00057047843568398,-0.00057143498230718,0.00057269635136149,-0.0004964171314346,0.00048964863704761,-0.00049343834160274,0.00048819349600492,-0.00049644966796401,0.0004896107084887,-0.0004934757728877,0.00048816043609005,-0.00034084973223852,0.00033072491217671,2.6407456397702e-08,-7.611827007232e-08,-2.7393569027573e-07,2.25732793059e-07,-0.00070149431140356,0.00070144599397372,-0.00067850127881155,0.00067897612378504,-0.00067676374184153,0.00067664640951465,-0.00067596730370473,0.00067564944170588,-0.0007217731354577,0.00072158943845808,-0.00072182651145251,0.00072198579934767,-0.00072168838005296,0.00072143350368425,-0.00072221791074615,0.0007223060057292,-0.000679150789469,0.0006785799759066,-0.00068196359514076,0.0006823685044443,-0.00067669950231203,0.0006769184428872,-0.00067394945355197,0.0006739677958269,-0.00067830651049002,0.00067780535610178,1.1443142259386e-06,3.9376407274981e-06,-0.00057244251881312,0.00057271321349804,4.7321768532966e-07,-4.1002532989115e-08,-0.00058058252627576,0.00058222187756637,-0.00059058869148771,0.000580642394285,-0.00059161985823712,0.00059074799392675,-0.00058534790535759,0.00060700923881203,-0.00058009857125544,0.00058271044819434,-0.00059009011036718,0.00058113877567679,-0.00059112344444512,0.00059124672211642,-0.00060705809276651,0.00060754246775422,-0.00060723119003753,0.00060736842065565,-0.00060702750344883,0.00060580989157633,-0.00060720159575207,0.00060563686111479,-0.00058594652835108,0.00059379366437687,-0.00058315735403577,0.00058523944402244,-0.00058298957967021,0.00058540952281194,-0.00058577659730141,0.00059396154891286,-0.00058583618249743,0.00060652494173655,0.66678161365177,122718,2924,0.0021125992368679,0.0029183951135706,0.0023829036919266,18.684645103867,6.4677160830936e-05,6.4677160830936e-05,6.4677160830936e-05,3486742.9468093,0.0074415093479845
20391759,0.47534177631054,0.0079735447392601,0.0023725710472208,0.0030068942013659,0.0025940794906734,-0.00054167637322508,0.0005397471466626,-4.0153472268134e-06,-1.6565264781048e-06,-4.8134709064355e-07,-3.5286689170979e-07,-0.00035506766256201,0.00034784692913667,-0.00056803927597436,0.00056605961619988,-0.00056684710951782,0.00057156504433545,-0.0003590890826944,0.00034747176308206,-0.00035519145018827,0.00034773139554028,-0.00056815851681292,0.00056593128256524,-0.00056697260031303,0.00057144291303073,-0.00061116655447609,0.00060883071565137,-0.00061004599875742,0.00061133772829648,-0.00061112548043449,0.0006088760487506,-0.00061000202440803,0.0006113801781237,-0.00052838012557542,0.00052066639545733,-0.00052498486853788,0.00051901589323006,-0.00052841877706507,0.00052062166702753,-0.00052502899849648,0.00051897661640798,-0.00035897514713805,0.00034759706218029,3.0908071830548e-08,-9.0525145539443e-08,-3.2067117912618e-07,2.6286959233416e-07,-0.00075831504664454,0.00075825710615876,-0.00073391743290596,0.00073447110568423,-0.00073011069127807,0.00072997388530405,-0.00072918235038296,0.00072880794359979,-0.00078026129901397,0.00078004598962896,-0.0007803173566314,0.00078050204887568,-0.00078016157371901,0.0007798622562778,-0.00078078157486843,0.00078088225894052,-0.00073467304027427,0.00073400429310073,-0.00073802140230763,0.00073849232499632,-0.00073003428193811,0.0007302900229126,-0.00072697928898035,0.00072699735676747,-0.00073372227731506,0.00073313594479182,1.3021583199704e-06,4.4499841516426e-06,-0.00061184292391031,0.00061211787823835,5.2829429355212e-07,-7.1963437477736e-08,-0.00062265119917525,0.00062450722583179,-0.00063364013686138,0.00062230629096945,-0.00063481492318232,0.00063380018958519,-0.00062793405036947,0.00065238569936369,-0.00062208570770624,0.00062507802676936,-0.00063305804095916,0.00062288588035244,-0.00063423530365188,0.00063438245483413,-0.00064926273852148,0.00064981039563208,-0.00064946469524836,0.00064960736695863,-0.00064923025833861,0.00064782608297027,-0.00064943335003534,0.00064762421374075,-0.00062835576859392,0.00063731320606051,-0.0006251857820704,0.00062754636628045,-0.00062498991641147,0.00062774487427357,-0.00062815743573478,0.00063750920734124,-0.00062850449988039,0.00065181978451449,0.7310461920672,122718,2924,0.0022506799191273,0.0031543806925202,0.0025466817397864,18.606952379608,6.4055619036866e-05,6.4055619036866e-05,6.4055619036866e-05,3652953.415528,0.0079835057599576
20891759,0.504425992181,0.0084455184877238,0.0024983511836759,0.0032070208546303,0.0027401464494176,-0.00056526819898782,0.00056303434811098,-4.6060345181181e-06,-1.9143577581143e-06,-5.5115370865341e-07,-3.9767204591493e-07,-0.00035664698654221,0.00034826439538856,-0.0005943046189983,0.00059203899171873,-0.00059292071145242,0.00059832039787169,-0.00036131499103592,0.00034803762304183,-0.00035679416587118,0.0003481257842194,-0.00059444737348782,0.00059188609240064,-0.00059307026559189,0.00059817422975511,-0.00064238526892562,0.00063968335095883,-0.00064109724481636,0.00064252394441209,-0.00064233608178648,0.00063973732315552,-0.00064104489397251,0.00064257477382462,-0.00055017851902744,0.00054132986100771,-0.00054628439315802,0.00053943634367726,-0.00055022500352079,0.00054127674996391,-0.00054633680201626,0.00053938912640858,-0.00036117819047447,0.00034818652654648,3.7666610618475e-08,-1.074146493948e-07,-3.6841809323229e-07,3.0083451602504e-07,-0.00080689343083416,0.00080682567823125,-0.00078036509865023,0.00078100076089377,-0.00077630847687968,0.00077615597764372,-0.00077523214537645,0.00077479579759825,-0.00083000771488511,0.00082976184784934,-0.00083006925546632,0.00083028147724033,-0.00082989630399957,0.00082955004041207,-0.00083058829967323,0.00083070014159295,-0.00078123235212773,0.00078046214731965,-0.00078507557835802,0.0007856123989389,-0.0007762283510368,0.00077652590103177,-0.00077267946407057,0.00077269307066597,-0.00078014641290752,0.00077947466463928,1.5000460149507e-06,5.0143311517218e-06,-0.00064110295871608,0.0006414149034835,5.9758666427358e-07,-9.0371762703095e-08,-0.00065266010467202,0.00065481040101633,-0.00066494471120591,0.00065208650982961,-0.00066622848602703,0.00066507260970158,-0.00065883381732639,0.00068672300415927,-0.00065201147640371,0.00065546529866895,-0.00066427748951475,0.00065275080741165,-0.00066556416958593,0.00066574003418673,-0.00068271159652153,0.0006833410288745,-0.00068294290859383,0.00068310844906316,-0.00068272235451434,0.00068110250845479,-0.00068295500834447,0.00068087129596009,-0.00066091369094202,0.00067104938548917,-0.0006571630174738,0.00065987520085821,-0.00065693850099344,0.00066010285215836,-0.00066068624319745,0.00067127405885539,-0.00065948832362951,0.0006860738944076,0.68432815189094,122718,2924,0.002348180259347,0.003356073470549,0.0026683651176119,17.403167164151,5.4425337313211e-05,5.4425337313211e-05,5.4425337313211e-05,3705026.0728023,0.008407844445218
21391759,0.52917798600935,0.0088383321345292,0.0026030886605179,0.0033745667842738,0.0028606766897374,-0.00058410537699389,0.00058167401159665,-4.9887753335579e-06,-2.057186951263e-06,-6.0003790641411e-07,-4.2242386564597e-07,-0.00036430821480707,0.00035542927653756,-0.00061622597146241,0.00061376887903577,-0.0006147130732572,0.00062050085969153,-0.00036941647680779,0.00035513164550536,-0.00036447881632646,0.00035526759252325,-0.00061639174485605,0.0006135919011908,-0.00061488613030822,0.0006203310822264,-0.00066579783433175,0.00066282888492773,-0.00066439843639965,0.00066591300251893,-0.0006657409043195,0.0006628911099676,-0.00066433813109815,0.00066597187552225,-0.00056714177853676,0.00055753125862764,-0.00056291208597158,0.00055549776134539,-0.00056719591547165,0.00055746999170727,-0.00056297253359269,0.00055544277147474,-0.00036925691828563,0.0003553042769316,4.3275401625098e-08,-1.2510580035543e-07,-4.215148044688e-07,3.4222888240565e-07,-0.00084413055392278,0.00084405106703321,-0.000815508014107,0.00081623230444594,-0.00080988303125606,0.00080970979424693,-0.00080869411379658,0.00080819125123511,-0.00086980029493828,0.00086951876708295,-0.00086985423481935,0.00087009444510631,-0.00086967699622386,0.00086927952825785,-0.00087043102973414,0.00087055532467116,-0.00081647595745404,0.00081559382210529,-0.00082061819445158,0.0008212279724708,-0.00080978517301006,0.00081012517193538,-0.00080600378519941,0.00080601404925392,-0.00081531622275829,0.00081454817566189,1.6253568258973e-06,5.4139773863591e-06,-0.00066401845077088,0.00066433081122522,6.5378855239753e-07,-1.302920204855e-07,-0.00067642268271194,0.00067871653093476,-0.00069024371046405,0.00067633695956699,-0.00069163578748025,0.00069033100432082,-0.00068294278395581,0.00071285694981004,-0.00067568179135215,0.00067946432718366,-0.00068948278934056,0.00067709472728325,-0.00069087802886164,0.00069109216888584,-0.00070842731282041,0.00070911072927163,-0.00070869077713237,0.00070884589804597,-0.00070843101902923,0.00070666057561831,-0.00070869593735279,0.00070639722570373,-0.00068531984078815,0.00069634887424287,-0.00068127384493139,0.00068419724618824,-0.00068101774156395,0.00068445677629414,-0.00068506055090655,0.00069660516694496,-0.00068369010085134,0.00071211546415198,0.67004884739747,122718,2924,0.0024261069906058,0.0035106449028837,0.0027635936132091,15.325473927612,3.78037914209e-05,3.78037914209e-05,3.78037914209e-05,3837548.6383831,0.0087383874377561
21891759,0.55131522622627,0.0091785227532078,0.0026931813279346,0.0035207676201857,0.0029645738050875,-0.00060056979932707,0.00059792704446175,-5.3877750366935e-06,-2.2275826682456e-06,-6.5270527083914e-07,-4.5190819017555e-07,-0.00036805771008338,0.00035851273472749,-0.00063511914182536,0.00063246286420141,-0.00063347481788946,0.00063968729231796,-0.00037361234300037,0.00035824520832615,-0.00036825051735652,0.00035832891693831,-0.00063530703997538,0.00063226292449615,-0.00063367031456189,0.00063949485799721,-0.00068707918582779,0.00068384037570507,-0.00068556639761623,0.00068716724845319,-0.00068701475964216,0.00068391051890386,-0.00068549844296442,0.00068723388813751,-0.00058197189746442,0.000571579437815,-0.00057740426155671,0.00056939542525752,-0.00058203344166152,0.00057151040082806,-0.00057747237500477,0.00056933292312257,-0.00037343090606831,0.0003584402971407,4.8830236122643e-08,-1.4186587087608e-07,-4.7441040620753e-07,3.8426311930047e-07,-0.00087806091062154,0.00087797053236809,-0.00084740593176752,0.00084821979231379,-0.00084100102097101,0.00084080680580069,-0.00083970512945293,0.00083913751128194,-0.00090572759051465,0.00090541094103121,-0.00090577317960875,0.0009060419792162,-0.00090559362747482,0.00090514601229359,-0.0009063975368202,0.00090653540743027,-0.00084847967352394,0.00084748633476427,-0.00085291460852275,0.000853598921381,-0.00084088724159749,0.00084126968141497,-0.00083682474040917,0.00083683365566423,-0.00084723924061835,0.00084637499202066,1.7530421272769e-06,5.7978591429317e-06,-0.00068415781785741,0.00068448169942476,7.1182623734345e-07,-1.6848535756807e-07,-0.00069722142957656,0.00069966417531064,-0.00071231635470015,0.00069735925099239,-0.00071379836495022,0.00071234780414163,-0.00070419939939094,0.00073628677475719,-0.00069638785704404,0.00070050527615474,-0.00071146154992732,0.00069821066073575,-0.00071294698145079,0.00071320287743579,-0.00073141994756915,0.00073215887010492,-0.0007317155698296,0.00073186177683405,-0.0007314334560516,0.00072951985563207,-0.00073173065151071,0.00072922436483486,-0.00070712928230265,0.00071899291944807,-0.0007027363889245,0.0007058737527285,-0.00070244858878894,0.0007061652786802,-0.00070683802469546,0.00071928093042822,-0.0007050399607952,0.00073545252982211,0.65030596713663,122718,2924,0.0024941415272108,0.0036514646821008,0.0028473025562529,13.95122296002,2.6809783680164e-05,2.6809783680164e-05,2.6809783680164e-05,3914432.7371285,0.0090335592806908
22391759,0.57444116720452,0.0095437171385414,0.0027895228242023,0.0036783229886761,0.003075871325663,-0.00062293440109559,0.00062005862205455,-5.8157786000632e-06,-2.4158078520814e-06,-7.0774111463383e-07,-4.8367527840973e-07,-0.00037726649898445,0.00036702385884463,-0.00066044574583668,0.00065757004689098,-0.00065866089693956,0.00066531034805787,-0.00038329763523577,0.00036677749239486,-0.00037748151592468,0.00036681795416962,-0.00066065578165099,0.00065734707677306,-0.00065887889312369,0.00066509523269188,-0.00071426929021067,0.00071073877359268,-0.00071263655672484,0.00071432128221616,-0.00071419733223761,0.00071081688432815,-0.00071256089412619,0.00071439571631463,-0.00060278543559284,0.00059155019585621,-0.00059786012268165,0.00058918556165825,-0.00060285437787056,0.00059147335353821,-0.00059793593774122,0.00058911555643687,-0.0003830943668194,0.00036699503992316,5.4059700294294e-08,-1.589385615058e-07,-5.2820879709941e-07,4.26569064669e-07,-0.00091896218026625,0.00091886027970822,-0.00088646924028969,0.00088737318306286,-0.00087901476510417,0.00087879848478338,-0.00087759998778929,0.00087696658849929,-0.00094847935829516,0.00094812653036518,-0.0009485179642689,0.00094881519869387,-0.0009483323765752,0.00094783352049766,-0.00094919252929499,0.00094934378021791,-0.00088765375886721,0.00088654744501911,-0.00089243958771595,0.00089319893212913,-0.00087888619939639,0.00087931081527933,-0.0008745209780005,0.00087452833960554,-0.00088632502660598,0.00088536281454185,1.8882342329014e-06,6.2154045486857e-06,-0.00071028073533367,0.00071061784598704,7.7110404041658e-07,-2.0677433448264e-07,-0.00072445186263983,0.00072705738495233,-0.0007407891583606,0.00072469267403041,-0.00074237231415481,0.00074077028295642,-0.00073191842195022,0.00076636396764027,-0.00072352454364195,0.0007279929197058,-0.00073983924173205,0.00072563892523882,-0.00074142610229185,0.00074172049304578,-0.00076033889993042,0.00076113510814485,-0.00076066714090975,0.00076080528373632,-0.00076036195118262,0.00075829690082237,-0.00076069189626812,0.00075796881155241,-0.00073533711611466,0.00074812114969799,-0.00073057086980944,0.00073393580693279,-0.00073025097125708,0.00073425975816583,-0.00073501346067889,0.00074844127937012,-0.00073285335365268,0.00076543588936571,0.66901198509521,122718,2924,0.0025866516071775,0.0038211948012432,0.0029558672721873,14.801033806611,3.3608270452888e-05,3.3608270452888e-05,3.3608270452888e-05,3980259.9486359,0.0094077916619665
22891759,0.59794743415564,0.0098724563882162,0.002876254361754,0.0038212560663007,0.0031749459601615,-0.00064147709516901,0.00063835529050616,-6.2845592248221e-06,-2.6248784875166e-06,-7.7099600754488e-07,-5.2070435546363e-07,-0.0003805822491883,0.0003694202548023,-0.00068084881733786,0.00067774908831882,-0.00067890925672986,0.000686099951708,-0.00038713935409701,0.00036933009029055,-0.00038082218096809,0.00036918950450222,-0.00068108385055947,0.00067750024635571,-0.00067915259037072,0.00068585929419107,-0.00073870528140735,0.00073486412102078,-0.00073694061752114,0.00073872529342573,-0.00073862481046105,0.00073495121018613,-0.00073685626804029,0.00073880853528531,-0.00061935436422496,0.00060720874671595,-0.00061403761224767,0.00060467406132251,-0.000619431676397,0.00060712313295569,-0.00061412209262131,0.00060459557947767,-0.00038691146379636,0.00036957277636197,6.0484345817033e-08,-1.7763398644754e-07,-5.8430121963988e-07,4.7076123526473e-07,-0.00095652920243576,0.00095641537238605,-0.0009213176339685,0.00092231625736062,-0.00091369326892007,0.00091345586696668,-0.00091215318894742,0.0009114494462235,-0.00098839202184277,0.00098800217885664,-0.00098842273520029,0.0009887504573132,-0.00098823527340825,0.00098768231213006,-0.00098914505124629,0.00098930971179124,-0.00092261037741357,0.00092138568196119,-0.00092768024892735,0.00092851731632145,-0.00091355155667535,0.0009140220847548,-0.00090881367793788,0.00090881772798206,-0.00092118977414912,0.00092012610147831,2.0397220980685e-06,6.6566434423037e-06,-0.00073217254969754,0.00073253471115117,8.3800025334496e-07,-2.4164327120294e-07,-0.00074597536501572,0.00074877042989425,-0.00076434783662032,0.00074707731221993,-0.00076602041513793,0.00076426367770454,-0.00075404810297818,0.00079105375972754,-0.00074495024973353,0.00074980454149396,-0.00076329870492557,0.0007481224718787,-0.00076497530806414,0.000765313126127,-0.00078597913709426,0.00078684165953383,-0.00078634140265041,0.00078647767630473,-0.00078602292416799,0.00078379541413703,-0.00078638704826086,0.00078343332026834,-0.00075881967488845,0.00077253023536383,-0.00075362502798747,0.000757247129634,-0.00075327163092075,0.00075760496032309,-0.00075846216620582,0.00077288388166193,-0.00075508156234313,0.00079002783476286,0.59348875359801,122718,2924,0.0026632521445943,0.003977052724114,0.003046870772479,15.341191408243,3.7929531265941e-05,3.7929531265941e-05,3.7929531265941e-05,4009329.4238321,0.0097343632579791
23391759,0.62131401955935,0.010216969711454,0.002967251302214,0.0039707827469131,0.0032789356623273,-0.00066225817799309,0.00065895070665918,-6.6187117843385e-06,-2.7564800168055e-06,-8.1604732359704e-07,-5.4437146821025e-07,-0.0003936371560286,0.00038212863734511,-0.0007050664945467,0.00070178431531387,-0.00070301321285619,0.00071048722668249,-0.00040057680332243,0.00038192972111887,-0.00039389792540593,0.00038187726746894,-0.0007053219909593,0.00070151409038814,-0.00070327737652467,0.00071022554265996,-0.00076295222866244,0.00075885476047254,-0.00076109282803055,0.00076293798570899,-0.00076286487920462,0.00075894915653078,-0.00076100142970885,0.00076302836597232,-0.00063828239280795,0.0006254546962625,-0.00063268099733149,0.00062278796383625,-0.00063836651561454,0.00062536184944044,-0.00063277260333101,0.00062270256320697,-0.00040032860503377,0.00038219355119415,6.3839239469246e-08,-1.9494421413326e-07,-6.4096959625628e-07,5.1382270313009e-07,-0.0009934106196223,0.00099328315910464,-0.00095598819217041,0.0009570778146867,-0.00094648605963114,0.00094622170556054,-0.00094483513491216,0.00094406387301111,-0.0010283947230011,0.0010279647274311,-0.001028412088371,0.0010287666275356,-0.0010282219983428,0.0010276152371076,-0.0010291908085455,0.0010293686448581,-0.00095738771041261,0.00095604490767874,-0.00096270279208077,0.00096361700362623,-0.00094632255648744,0.00094683272394561,-0.00094141926066393,0.00094142237207584,-0.00095591078129752,0.00095474281462906,2.1417227863372e-06,7.0101210798247e-06,-0.00075609525540019,0.00075645437219047,8.9251815236301e-07,-2.8827722852229e-07,-0.00077118830720109,0.00077407735671189,-0.00079100278491941,0.0007728239381507,-0.0007927871353452,0.00079087535386527,-0.00077944818953564,0.00081811001685055,-0.00077006561312688,0.00077520957132911,-0.00078985490907545,0.00077396765640884,-0.00079164347011383,0.00079202355548657,-0.00081212867362449,0.00081303449425771,-0.00081252477515717,0.0008126366258395,-0.00081214796886574,0.00080979600908587,-0.00081254600894481,0.00080940011076501,-0.00078375232063717,0.00079829826443145,-0.0007783392637324,0.00078212522980199,-0.00077795252616086,0.00078251661499992,-0.00078336128567379,0.00079868527466231,-0.00078057966167281,0.00081698640500426,0.62584069172871,122718,2924,0.0027492521218878,0.0041300483832956,0.0031462405768819,15.634100745128,4.0272805961024e-05,4.0272805961024e-05,4.0272805961024e-05,4124202.9244658,0.010076085482991
23891759,0.64603074142154,0.010635983118312,0.0030768152874467,0.004153248488541,0.0034059193423241,-0.00068716045887761,0.00068349415589164,-7.2794345750068e-06,-3.0771908618089e-06,-8.9291626335727e-07,-5.8993842604132e-07,-0.00039698355757229,0.00038409579981358,-0.00073361908655671,0.00073001234159807,-0.00073134988597433,0.00073955398821004,-0.00040465445081617,0.00038415808819472,-0.00039727324652973,0.00038381549694128,-0.00073390408872843,0.00072971157365042,-0.0007316439758735,0.00073926216968503,-0.00079459440532681,0.00079007982314751,-0.00079255211000131,0.00079452006094201,-0.0007944967969993,0.00079018500169442,-0.00079245022653304,0.00079462100105802,-0.00066222372480722,0.00064811950630218,-0.00065608261917696,0.00064513867254314,-0.00066231774453952,0.00064801627853574,-0.00065618449031613,0.00064504325798832,-0.00040437751139795,0.0003844510322828,7.2133767165016e-08,-2.1612025132816e-07,-6.9794430138548e-07,5.5834121187089e-07,-0.0010427609248329,0.0010426209667936,-0.0010040970593396,0.0010052834460299,-0.00099435598848233,0.00099407361138122,-0.00099253752307598,0.00099169067452246,-0.0010777702099468,0.0010773038749281,-0.0010777895362891,0.001078176262452,-0.0010775812724161,0.0010769175925838,-0.0010786149512009,0.0010788044146481,-0.0010056424925494,0.0010041781122335,-0.0010115629950069,0.0010125539195956,-0.00099418931964395,0.00099474943348213,-0.00098871763523435,0.00098871313312467,-0.0010040070128051,0.0010027374769996,2.3584813234756e-06,7.6082248723385e-06,-0.00078523603941727,0.00078565124047795,9.709414111069e-07,-3.1323913043591e-07,-0.00080232863114418,0.00080553759842177,-0.00082319517810082,0.00080332107775073,-0.00082509088016163,0.00082302140231186,-0.00081160394526457,0.00085415441951511,-0.00080110746166931,0.00080676951948836,-0.00082194676065103,0.00080456479909388,-0.00082384721727547,0.00082427015633494,-0.00084479653078163,0.00084579646049787,-0.00084522718878519,0.00084536379170514,-0.00084487749833731,0.0008423117947267,-0.0008453103625642,0.0008418813644362,-0.00081729167372513,0.00083311775331582,-0.00081118908119173,0.00081535428333639,-0.00081076849429969,0.00081578014293074,-0.00081686618050224,0.00083353861746865,-0.00081283510105641,0.00085293228993739,0.72029407872103,122718,2924,0.0028520580183023,0.0043347236601794,0.0032674022086603,16.931084137778,5.0648673102223e-05,5.0648673102223e-05,5.0648673102223e-05,4112633.9668154,0.010509154477467
24391759,0.67130229700698,0.011050361819775,0.0031855323857976,0.0043350944624874,0.0035297349714896,-0.00070936534444212,0.00070529822469772,-8.0633131346933e-06,-3.4381024266855e-06,-9.8317133883799e-07,-6.3577628352591e-07,-0.00039353743482231,0.00037890709952539,-0.00075845333835105,0.00075450474880177,-0.00075591945947453,0.00076511175511722,-0.00040211787067218,0.00037938908786385,-0.00039386854264086,0.0003785853559169,-0.00075878042639303,0.00075416055409949,-0.00075625616950629,0.00076477702898047,-0.00082533193999573,0.00082033546277481,-0.00082306772906467,0.0008251785758982,-0.00082521985554335,0.00082045584679147,-0.0008229511032088,0.00082529446281398,-0.00068305321569548,0.00066745423925899,-0.00067625657362811,0.0006641208443204,-0.00068316138344561,0.00066733628407848,-0.00067637302019499,0.00066401113113536,-0.00040179971525519,0.00037972367755852,8.5390863532057e-08,-2.4503435663952e-07,-7.623988540012e-07,6.0774190599844e-07,-0.0010924428113241,0.0010922877429106,-0.0010517643409853,0.0010530612012905,-0.0010426107290388,0.0010423159319507,-0.0010405950088963,0.0010396531977744,-0.0011275770015487,0.0011270717595496,-0.0011275995219145,0.0011280244492366,-0.0011273790328316,0.0011266472676229,-0.0011284746341669,0.001128673137883,-0.0010534644456524,0.0010518596147743,-0.0010599720958799,0.0010610448779325,-0.001042445909978,0.0010430699152226,-0.0010362272143774,0.001036204067006,-0.0010516459725263,0.0010502645647181,2.6294618086256e-06,8.32490800096e-06,-0.0008110534281002,0.00081154391956048,1.0694299533698e-06,-3.3091375368909e-07,-0.00082804660634068,0.00083166902248191,-0.00085152239492284,0.00082969189339469,-0.00085352383650798,0.00085128669236872,-0.00083862615487316,0.00088577108788753,-0.00082671505954889,0.00083301278854335,-0.00085016110068394,0.0008310478679627,-0.00085216796558538,0.00085264836201727,-0.00087573384854148,0.00087685530691226,-0.00087620332849521,0.00087638351197213,-0.00087590368676541,0.00087307088089477,-0.00087637569527479,0.00087260164646327,-0.00084759976081649,0.00086490095348146,-0.00084064512172966,0.00084528821474065,-0.00084018652063829,0.00084575284704214,-0.0008471355191159,0.00086535984045087,-0.00083996913167016,0.00088443853414384,0.6966732932835,122718,2924,0.0029435836563249,0.0045407099275983,0.0033747949721516,17.85457050604,5.8036564048323e-05,5.8036564048323e-05,5.8036564048323e-05,4057075.5279457,0.01091841900061
24891759,0.69618217061915,0.011409824676037,0.0032809954872537,0.0044932844550949,0.0036355447336881,-0.0007294102610743,0.00072508934465005,-8.566716428196e-06,-3.6325893061625e-06,-1.0490962455712e-06,-6.6015066258574e-07,-0.0004012921609958,0.00038591886299645,-0.00078132878903718,0.00077716285473406,-0.00077861639433967,0.00078839428115554,-0.00041048758422705,0.00038642790522734,-0.00040166334958049,0.00038555733096622,-0.00078169568102999,0.00077677735507125,-0.00077899349718829,0.00078801882893175,-0.00085092494777861,0.00084556647761084,-0.00084851631140459,0.00085071224211615,-0.00085079948786951,0.00084570102936262,-0.0008483860490076,0.00085084204149999,-0.00070052548170749,0.00068392983520791,-0.00069329589357247,0.00068041591389283,-0.00070064693202514,0.00068379794682054,-0.0006934260946363,0.00068029274201763,-0.00041013007662681,0.00038680299921307,9.508836046033e-08,-2.753326321077e-07,-8.31793138337e-07,6.5718279404699e-07,-0.0011332897429624,0.0011331146725346,-0.0010892757862682,0.0010906824393666,-0.0010791818644007,0.0010788661016452,-0.0010770063292321,0.0010759649766468,-0.001171921030916,0.0011713692664829,-0.0011719312784684,0.0011723899793991,-0.0011717114715675,0.0011709063593907,-0.0011728705318253,0.0011730760015821,-0.0010910930574197,0.001089338707445,-0.0010978217438304,0.0010989774321122,-0.001079000364538,0.0010796828806457,-0.001072423024724,0.0010723798212589,-0.0010891900444054,0.0010876859477211,2.7971798086868e-06,8.8425896391435e-06,-0.0008336183520559,0.00083412746160257,1.1487741717473e-06,-3.7260190191754e-07,-0.00085051637918943,0.00085433966581953,-0.00087677613944104,0.00085369567884723,-0.00087889817945789,0.0008764778538383,-0.00086157254540732,0.00091121553667606,-0.00084906891982762,0.00085580049666398,-0.00087529684975983,0.00085516923970491,-0.00087742476116459,0.00087795757034639,-0.00090213174162037,0.00090332689767543,-0.00090264171123043,0.00090281444853082,-0.00090229812542443,0.00089926964138841,-0.00090281081987362,0.00089875995028683,-0.00087143038785561,0.00088989149037644,-0.00086406882950439,0.00086899465899242,-0.00086357049340584,0.00086949953552912,-0.00087092595214159,0.00089039015040344,-0.00086303245616692,0.0009097669197026,0.61363158009265,122718,2924,0.0030263873431524,0.0047100295721726,0.0034685484575834,18.325730457643,6.1805843661145e-05,6.1805843661145e-05,6.1805843661145e-05,4114461.8240453,0.011268145107043
25391759,0.72213946587903,0.01184746984538,0.00339682570919,0.0046851655715819,0.0037654785646081,-0.00075747982234775,0.00075286887997236,-9.0847370228592e-06,-3.8597413107408e-06,-1.1119504894745e-06,-6.8439957981099e-07,-0.00041847523502238,0.00040245643660057,-0.00081449383736413,0.00081007670159179,-0.00081160324269248,0.00082186030729016,-0.00042827720197915,0.00040290151581468,-0.00041888353875807,0.00040205797732758,-0.00081489760150638,0.00080965284509408,-0.00081201776070121,0.00082144703656653,-0.00088320950549891,0.00087745510202986,-0.0008806572440129,0.00088290637042723,-0.00088307156234505,0.00087760282570355,-0.00088051426038343,0.00088304911040509,-0.00072678771702449,0.00070914224529882,-0.0007191283289084,0.00070537569945744,-0.00072692149605015,0.00070899743487832,-0.00071927128094958,0.0007052400293712,-0.00042788324950792,0.00040331418095349,1.0226438271645e-07,-3.0517978733086e-07,-9.0603936782448e-07,7.0937913184593e-07,-0.0011832946801761,0.001183097512709,-0.0011371146709726,0.0011386355355185,-0.0011249080662618,0.0011245637521942,-0.001122554637475,0.0011214120861889,-0.0012246241409898,0.0012240203807372,-0.0012246210023515,0.0012251126979102,-0.0012243899206753,0.0012235080872963,-0.0012256207049494,0.0012258344651356,-0.0011390798921278,0.0011371674089813,-0.0011462199605109,0.0011474649657938,-0.0011247050211849,0.0011254434708987,-0.001117806973232,0.0011177470653815,-0.001137079677651,0.0011354422794893,2.9579427148383e-06,9.3713053657615e-06,-0.0008649028411281,0.00086543035339818,1.2262932698984e-06,-4.236913082879e-07,-0.00088490242504925,0.00088890859179206,-0.0009123168814913,0.00088789096984122,-0.00091458553073798,0.00091196326020482,-0.00089636387444581,0.00094861378487593,-0.00088333148208892,0.0008904940117864,-0.00091071214175837,0.00088948954902534,-0.00091298709375809,0.00091356843811081,-0.00093572427440086,0.00093698519870532,-0.00093627724339281,0.00093642961764182,-0.00093587792362277,0.0009326619621107,-0.00093643380327267,0.00093210932617038,-0.00090523362562391,0.00092498369793001,-0.00089746147104053,0.00090265344424375,-0.00089692088000142,0.00090320103977116,-0.00090468650285887,0.00092552463239304,-0.00089794824861263,0.00094704151106085,0.71638642109267,122718,2924,0.0031424375388227,0.0049172879118612,0.0035984929556005,19.829896993943,7.383917595154e-05,7.383917595154e-05,7.383917595154e-05,4217278.1231593,0.011726616433232
25891759,0.74791087855316,0.012287941365335,0.0035124900911336,0.0048801489123805,0.0038953023618205,-0.00078006178824086,0.00077493255655534,-1.0095836780082e-05,-4.3565963924339e-06,-1.2283248382338e-06,-7.4610788949815e-07,-0.00040938962538217,0.00039087398261185,-0.00083967882095831,0.00083482300161637,-0.00083644430095307,0.00084803478989396,-0.00042036983763042,0.00039208040007106,-0.00040984838392459,0.00039042484671649,-0.00084013436266042,0.00083434603314226,-0.00083691108475139,0.0008475688659475,-0.00091586004458162,0.00090949897320057,-0.00091302183069152,0.00091545304966161,-0.00091570417482684,0.00090966540081343,-0.00091286064838981,0.00091561423324429,-0.00074830314917416,0.00072874331160102,-0.00073980835101703,0.00072451323040176,-0.00074845439553084,0.00072858050885182,-0.00073996915360677,0.00072435995569065,-0.00041992528865647,0.00039254360559588,1.1955863161273e-07,-3.3951442328072e-07,-9.8043814713437e-07,7.674117735825e-07,-0.0012375664656455,0.001237352861995,-0.0011893217816512,0.0011909731327331,-0.0011788169984619,0.0011784619195109,-0.0011762150649349,0.0011749607821868,-0.0012780126374656,0.0012773658686923,-0.0012780149376246,0.0012785531460759,-0.0012777687676918,0.0012768079189107,-0.0012790538774877,0.0012792781604629,-0.0011914790943218,0.0011894035330638,-0.0011993848582967,0.0012007252845827,-0.0011786247553217,0.0011794411451721,-0.0011706901289518,0.0011706072150732,-0.0011892391281296,0.0011874736647155,3.3092520938197e-06,1.0243912946509e-05,-0.00089014023393482,0.00089078609056817,1.349963402921e-06,-4.3506587454315e-07,-0.00090966952260014,0.00091423211257286,-0.00094036150751534,0.00091348868449825,-0.00094273235082308,0.00093992250520164,-0.00092295440407511,0.00098118591280546,-0.00090797020070259,0.00091594765979214,-0.00093862556100031,0.00091521766552522,-0.00094100353842552,0.00094165891107,-0.0009671771337741,0.00096859554919486,-0.00096777519770224,0.00096799448476726,-0.00096746868516064,0.00096392934555482,-0.00096807007892311,0.00096333164260515,-0.00093620465103554,0.00095774642573174,-0.00092728092251199,0.0009330925410647,-0.00092669611260714,0.0009336853031495,-0.00093561235262384,0.00095833154513086,-0.00092466895629924,0.00097948531263871,0.72745708413827,122718,2924,0.0032353021847249,0.0051421459581603,0.0037035455568343,20.751278230747,8.1210225845973e-05,8.1210225845973e-05,8.1210225845973e-05,4105773.9045414,0.012154472732308
26391759,0.77137918916484,0.012722527603422,0.0036282485787213,0.0050716074355626,0.0040226715891385,-0.0008017080481162,0.00079618613726891,-1.0877672192706e-05,-4.6904585866907e-06,-1.3145349165229e-06,-7.6865265927066e-07,-0.0004112848763398,0.00039135803692072,-0.00086552935561489,0.00086035782075897,-0.00086201601594838,0.00087458802086988,-0.00042323736771739,0.00039278481534172,-0.00041180405750258,0.0003908484213983,-0.00086604570191969,0.00085981815167191,-0.00086254423511158,0.00087406000527506,-0.00094441263681251,0.00093754167446674,-0.0009413494698395,0.00094390098181571,-0.00094423614225839,0.0009377297489334,-0.00094116738488375,0.00094408354536632,-0.00076855762703023,0.00074747980848124,-0.00075939359522411,0.00074286749170426,-0.00076872932017255,0.00074729588413517,-0.00075957528680657,0.00074269354669996,-0.00042273279709226,0.00039330890001531,1.3703127410311e-07,-3.830109176734e-07,-1.0668716446719e-06,8.2876643297177e-07,-0.001286360649302,0.0012861218810697,-0.0012361442272972,0.0012379356763532,-0.0012251728793145,0.0012248023389573,-0.0012223365351426,0.0012209471212762,-0.0013276030320337,0.0013269022482691,-0.0013275964820545,0.0013281803235683,-0.0013273477676141,0.0013262915219362,-0.0013286921653965,0.0013289207179736,-0.0012384854163081,0.0012362198423765,-0.0012469281959424,0.0012483675772879,-0.0012249714703275,0.0012258712493836,-0.0012163227423229,0.0012162035729382,-0.0012360737113705,0.0012341592932513,3.5840175163901e-06,1.099532402486e-05,-0.00091387595334686,0.00091459118227848,1.4639869997224e-06,-4.7149162938525e-07,-0.00093465306270648,0.00093960377048228,-0.0009681074080518,0.00093926501368302,-0.00097061057385617,0.0009675902013746,-0.00094902374649603,0.0010115488126251,-0.00093280990830252,0.00094146491485196,-0.00096622487309502,0.00094113990152011,-0.00096873593289591,0.00096947328119405,-0.00099520958125083,0.00099675561804899,-0.00099585786938196,0.00099610401621124,-0.00099556207323657,0.00099174543880621,-0.0009962140352052,0.0009910975449756,-0.0009642242778638,0.00098743857891888,-0.000954497948926,0.0009607839471091,-0.00095386380779747,0.00096142688801734,-0.00096358184322885,0.00098807304968161,-0.00095088376597587,0.0010097042315838,0.78667634666428,122718,2924,0.0033244924058905,0.005344251130892,0.0038022471842777,20.418259742301,7.8546077938411e-05,7.8546077938411e-05,7.8546077938411e-05,4112167.8069338,0.012549307338807
26891759,0.79419794261205,0.013125535006303,0.0037360523366302,0.0052499405224852,0.0041395421471875,-0.0008225069570927,0.00081654165822544,-1.1780215244129e-05,-5.0969400823266e-06,-1.4225901008287e-06,-8.0644147686502e-07,-0.0004078612585909,0.0003859394137341,-0.00088909630546413,0.00088356189825877,-0.00088526198067772,0.00089908220177976,-0.00042093459693509,0.00038790949401489,-0.00040844695112021,0.00038536309941849,-0.00088967986543642,0.00088295326384496,-0.00088585795631461,0.00089848573728039,-0.00097360855339295,0.00096617651954437,-0.00097028530248953,0.00097301086264612,-0.00097340924769825,0.0009663884580572,-0.00097008014031337,0.00097321703481869,-0.00078777452434478,0.00076497551903511,-0.0007778444695302,0.00075996462549008,-0.00078796886105871,0.000764768336132,-0.00077804920269822,0.0007597678257873,-0.00042036363509392,0.00038850039178945,1.5822304461915e-07,-4.291412506626e-07,-1.1579889133222e-06,8.9591744498427e-07,-0.0013355689752171,0.0013353061489908,-0.0012826940966622,0.0012846390558587,-0.0012727407589913,0.0012723586232185,-0.0012696582294638,0.0012681250964609,-0.0013773702905647,0.0013766152700735,-0.0013773549602024,0.001377991321836,-0.0013771129991194,0.0013759566619331,-0.0013785037747749,0.0013787390058574,-0.0012852280207995,0.0012827612353422,-0.0012942097895172,0.0012957572775272,-0.0012725364054665,0.0012735304067119,-0.0012629728081227,0.0012628157770534,-0.0012826194920607,0.0012805491905691,3.9039877111992e-06,1.1819626026215e-05,-0.00093564361502585,0.00093644922943828,1.5933983625045e-06,-5.0306179414892e-07,-0.00095562022594546,0.00096103838338454,-0.00099304456649879,0.00096200462186757,-0.00099566129391135,0.00099242248903611,-0.00097143706636738,0.0010390513477189,-0.00095362299486739,0.00096305531972752,-0.00099100524126776,0.00096403562344115,-0.00099363062160932,0.00099446244521325,-0.0010227136260033,0.0010244090059304,-0.0010234156511588,0.0010237033287313,-0.0010231599203969,0.0010190303799656,-0.0010238659846978,0.0010183287754461,-0.00099020375290738,0.0010151526058046,-0.00097951677043214,0.00098635579022691,-0.00097882975903629,0.00098705248517075,-0.00098950759650366,0.0010158399512658,-0.00097345280796484,0.0010370526281602,0.750276560455,122718,2924,0.0034100762624994,0.0055480170956138,0.0038928251187179,21.226456367978,8.5011650943821e-05,8.5011650943821e-05,8.5011650943821e-05,4046094.5544463,0.012934105347027
27391759,0.81639580227695,0.013504496368704,0.0038385381394615,0.0054171818250358,0.004248776404207,-0.00084392401583685,0.00083763270255112,-1.2432759285057e-05,-5.3649106415825e-06,-1.5082720497217e-06,-8.2696179664736e-07,-0.00041597348501179,0.000393035044392,-0.00091418676140036,0.00090839410126817,-0.00091011455886763,0.00092474691159185,-0.00042987580932809,0.0003951068120216,-0.00041662189474212,0.00039239603328995,-0.00091483297409758,0.00090772091839432,-0.00091077375554429,0.00092408644576543,-0.0010007416479385,0.00099284716173282,-0.00099723218058891,0.0010000635905328,-0.001000521310945,0.00099308121520691,-0.00099700573244653,0.001000291633186,-0.00080685448086626,0.0007827725442212,-0.00079637014435216,0.00077749394769011,-0.00080706984209152,0.00078254366455453,-0.00079659633094181,0.00077727588687842,-0.00042924271058263,0.00039576095376689,1.7382375346277e-07,-4.7628431757186e-07,-1.2530794916167e-06,9.6047565615506e-07,-0.0013804309988251,0.0013801375616335,-0.0013241552898883,0.0013262471269856,-0.0013138434189343,0.0013134382382907,-0.0013105439593429,0.0013088644602864,-0.0014252034558914,0.0014243854549919,-0.0014251665562939,0.0014258473895624,-0.0014249358416747,0.0014236745057948,-0.0014263763532647,0.0014266140170527,-0.0013268542605023,0.0013241798125918,-0.0013360934587613,0.0013377456943572,-0.0013136184431921,0.001314695994488,-0.0013035197532024,0.0013033229859178,-0.0013241331003654,0.0013218971818204,4.1238804648859e-06,1.2471278295982e-05,-0.00095801520419542,0.00095886646874739,1.7038417200407e-06,-5.5485747848711e-07,-0.00097911226355283,0.00098479370051256,-0.001019317901174,0.00098670996314425,-0.0010220687918335,0.0010185958824792,-0.00099560180839385,0.0010664339869058,-0.00097695909257794,0.00098696818448177,-0.0010171201985633,0.00098889879267522,-0.0010198803616521,0.0010207942929375,-0.0010489178705279,0.0010507136823984,-0.0010496740860258,0.0010499535956891,-0.0010493702921097,0.0010450012605128,-0.0010501308177686,0.0010442455185935,-0.0010147537566791,0.0010412117575459,-0.0010035081608632,0.0010107134409588,-0.0010027678064608,0.0010114641896574,-0.0010140036032051,0.0010419524816132,-0.00099777491840646,0.0010642791242529,0.72451637575547,122718,2924,0.0034984140205592,0.0057337498415226,0.0039857988335419,22.213100384031,9.2904803072246e-05,9.2904803072246e-05,9.2904803072246e-05,4070115.5502108,0.013305981749971
27891759,0.83735005014244,0.01388094509935,0.0039402835523897,0.0055832842323523,0.0043573773146084,-0.00086435908767417,0.00085769306758878,-1.3164740801101e-05,-5.6991084915077e-06,-1.6041400697845e-06,-8.5913766916849e-07,-0.00042021530518288,0.000395887502583,-0.00093825574234277,0.0009321606961988,-0.00093392299842954,0.00094948381565295,-0.00043501990833732,0.00039825180634792,-0.00042092457936895,0.00039518744896453,-0.00093896314550416,0.0009314247371319,-0.0009346437955467,0.00094876096562126,-0.0010271734799696,0.0010187808123514,-0.0010234559984096,0.0010264133711029,-0.0010269324625038,0.0010190364662197,-0.0010232086689869,0.0010266628238818,-0.00082558144668398,0.00080007471763971,-0.000814485599969,0.00079447691912816,-0.00082581741699492,0.00079982472270093,-0.00081473270336287,0.0007942380566623,-0.00043432616810996,0.00039896718605005,1.8973986943461e-07,-5.215666039388e-07,-1.3481280443835e-06,1.027066662835e-06,-0.0014249220687454,0.0014246001007548,-0.0013657788044089,0.0013680210076789,-0.0013557045529081,0.0013552762812991,-0.0013521790836538,0.0013503563306657,-0.0014715193624289,0.0014706394968094,-0.0014714623015384,0.0014721897349757,-0.001471240269035,0.0014698758660332,-0.0014727201334547,0.0014729632082001,-0.0013686605049659,0.0013657790208295,-0.0013782921940637,0.0013800536667207,-0.0013554625447896,0.0013566248599923,-0.0013446993438667,0.0013444672216332,-0.0013658005826288,0.0013633986696266,4.3707080739292e-06,1.3151188830952e-05,-0.00097915731358284,0.000980076878719,1.82041768737e-06,-6.0225665261637e-07,-0.0010015942636848,0.0010075931567233,-0.0010443345360851,0.0010099840187581,-0.0010472056619622,0.0010435032618989,-0.0010190151412948,0.001093663295126,-0.00099928316248004,0.0010099270352547,-0.0010419767611193,0.0010123323683001,-0.0010448577541015,0.0010458617908885,-0.001073915639014,0.0010758251255841,-0.0010747265889526,0.0010750100844011,-0.0010744026557813,0.0010697880407178,-0.001075218190247,0.0010689776200637,-0.0010389176424418,0.0010669227293358,-0.0010269820187338,0.0010346012597776,-0.0010261876621321,0.0010354066894714,-0.0010381128308514,0.0010677174548381,-0.0010213475412473,0.0010913503818476,0.76282598426134,122718,2924,0.0035825819308326,0.0059179058549814,0.0040737125651185,22.881252872782,9.8250022982258e-05,9.8250022982258e-05,9.8250022982258e-05,4068478.519913,0.013667045745433
28391759,0.85679588390078,0.014257508018315,0.0040422058310248,0.0057493690075886,0.0044659331797011,-0.00088318049555034,0.00087604379039776,-1.4118991647342e-05,-6.1450695132142e-06,-1.7222972253274e-06,-9.0117526586654e-07,-0.00041501747600473,0.00038849022475556,-0.00096001210949798,0.00095353681218535,-0.00095533898923332,0.00097225777373112,-0.00043101403846966,0.00039150823508712,-0.00041579882061615,0.00038771768465089,-0.00096079252891527,0.00095272633068886,-0.00095613313483274,0.00097146070444765,-0.0010538239565347,0.0010448436659595,-0.001049830133511,0.0010529874605553,-0.0010535581285217,0.0010451250922077,-0.0010495578097109,0.0010532625136136,-0.00084348817429758,0.00081616626542552,-0.00083158523520651,0.00081013439606332,-0.00084374883070012,0.00081589115211721,-0.00083185726221605,0.00080987066273989,-0.00043024798733048,0.00039229584630843,2.131660617879e-07,-5.7120947018969e-07,-1.4503272203296e-06,1.1040361296626e-06,-0.0014709690162132,0.0014706217241918,-0.0014097160366678,0.0014121329283505,-0.001401139166084,0.0014006967914375,-0.0013973554092165,0.0013953751440405,-0.0015172360742132,0.0015162958980447,-0.0015171632184315,0.0015179505493509,-0.0015169567095111,0.0015154823005183,-0.0015184627415032,0.0015187160238727,-0.0014128218763467,0.0014097154830879,-0.0014230540640037,0.0014249409983355,-0.0014008911645181,0.0014021589538548,-0.0013891047786413,0.0013888347762876,-0.0014097484843934,0.0014071707844292,4.7114863471515e-06,1.3988200284239e-05,-0.00099753286912923,0.00099856254759553,1.9638535660565e-06,-6.4038817549617e-07,-0.0010194944509255,0.0010259839873247,-0.0010661655359049,0.0010295033858333,-0.0010691403565594,0.0010652060307632,-0.001038503539424,0.0011185719244087,-0.0010170085142303,0.0010284942443717,-0.0010636306833784,0.0010320281985149,-0.0010666160694764,0.0010677417215148,-0.0010977358336558,0.0010998126397851,-0.0010986073301934,0.0010989367278683,-0.0010983292474455,0.0010934073570375,-0.0010992056820944,0.0010925364180777,-0.001061983237998,0.001091737952319,-0.0010490113346163,0.0010572136065767,-0.0010481571422322,0.0010580797108902,-0.0010611177629662,0.0010925924892269,-0.0010410123050021,0.0011160841743527,0.82233028262121,122718,2924,0.0036598922207001,0.006108443077132,0.0041502417298274,23.414586319232,0.00010251669055385,0.00010251669055385,0.00010251669055385,3985729.5333346,0.014016224465487
28891759,0.87468402996397,0.014594918990052,0.0041346325977223,0.0058977582154744,0.0045625281768554,-0.00089912839523672,0.00089154271207534,-1.5078873386743e-05,-6.5617966019749e-06,-1.843298141047e-06,-9.4088264697519e-07,-0.00040735320427426,0.00037858740392299,-0.00097817909113028,0.00097132540377753,-0.00097315210268367,0.00099152280190669,-0.00042459329016747,0.00038229818461562,-0.00040821186429408,0.00037773720119362,-0.00097903764565268,0.00097043522073546,-0.00097402474146755,0.00099064636048495,-0.0010778399351729,0.0010682824631397,-0.0010735621475809,0.0010769560715385,-0.0010775476940439,0.0010685913774259,-0.0010732632103744,0.0010772584243598,-0.00085828651079516,0.00082915465799711,-0.00084555538157123,0.00082273006483686,-0.00085857355024793,0.00082885266832794,-0.00084585407288087,0.00082243974794453,-0.0004237497262618,0.00038316324913888,2.3911286916489e-07,-6.2348155312529e-07,-1.5547878618425e-06,1.1832373614361e-06,-0.0015132646205711,0.0015128919715562,-0.0014495550865089,0.0014521527393097,-0.0014428421092005,0.0014423891867705,-0.0014388132845703,0.00143666881948,-0.0015594566333578,0.0015584561985497,-0.0015593661506021,0.0015602166938498,-0.0015591890368068,0.0015576012602747,-0.0015607169034147,0.001560980296325,-0.0014528818214726,0.0014495444034488,-0.0014636018321428,0.0014656168941333,-0.0014425916015201,0.0014439714178689,-0.0014297545329436,0.0014294429607252,-0.0014495962133642,0.0014468400208647,5.0677011787926e-06,1.4846734857413e-05,-0.001011805632854,0.001012944488198,2.1156647556617e-06,-6.7480634348324e-07,-0.0010317358865818,0.0010387414235743,-0.0010834962107833,0.0010445127408588,-0.0010865707981947,0.0010824117303642,-0.0010523773142585,0.0011379015356063,-0.0010290706179418,0.0010414324598477,-0.0010807797471366,0.001047218592797,-0.0010838655704266,0.0010851291228999,-0.0011181989734109,0.0011204582966302,-0.0011191325950069,0.0011195199453313,-0.0011188995829317,0.0011136534725671,-0.0011198384836763,0.0011127204304745,-0.0010804575332348,0.0011119272631338,-0.0010664546094499,0.0010752664496464,-0.0010655390275706,0.0010761947693218,-0.0010795298712679,0.0011128431816047,-0.0010550668453098,0.0011352344607249,0.79975737494462,122718,2924,0.0037253188500017,0.0062834025409435,0.0042097500023937,23.939498071825,0.0001067159845746,0.0001067159845746,0.0001067159845746,3877802.2462641,0.014320404576246
29391759,0.89124751244382,0.014855056955833,0.004207052949721,0.0060119022994458,0.0046361017066664,-0.00091229122320874,0.00090442915590227,-1.5682588149752e-05,-6.7864088829563e-06,-1.9379986779069e-06,-9.6113532652558e-07,-0.00040948170849193,0.00037970274746521,-0.00099354577348812,0.00098646398562564,-0.00098828869059042,0.0010075116720564,-0.0004275356686119,0.00038359946275594,-0.00041041256700701,0.00037878008861158,-0.00099447642613771,0.00098550006661265,-0.00098923372350289,0.0010065617785252,-0.0010963261385812,0.00108634653226,-0.0010918711485113,0.0010954152410677,-0.0010960098580169,0.0010866805835522,-0.001091548021169,0.0010957425878754,-0.00086894666028615,0.00083863989319596,-0.00085569026937606,0.00083204693329256,-0.00086925797346969,0.00083831312420427,-0.00085601349211986,0.00083173209855502,-0.00042662012135791,0.00038453719571977,2.5793233490057e-07,-6.7691298527595e-07,-1.6635079322851e-06,1.2584569441775e-06,-0.0015456400219131,0.0015452337979831,-0.0014779763752877,0.0014807449517183,-0.0014721463011993,0.0014716687547554,-0.0014679499710762,0.001465638715536,-0.0015951072026769,0.0015940359914866,-0.0015949813914459,0.0015958844654654,-0.0015948466955922,0.0015931399570261,-0.0015963949696519,0.0015966627037607,-0.001481471411271,0.0014778963668359,-0.0014922047903864,0.00149434240817,-0.0014718689953304,0.0014733467512046,-0.0014585413575792,0.0014581856067617,-0.001478097528023,0.0014751520015078,5.280576034184e-06,1.5443573893923e-05,-0.0010237571358913,0.0010249414954542,2.2404676126584e-06,-7.3605998994662e-07,-0.001043493801858,0.0010507224032308,-0.0010986188522287,0.00105823919027,-0.001101802863748,0.0010973980454398,-0.0010647359285331,0.0011531394183649,-0.0010406483199188,0.0010535949846881,-0.0010957204255284,0.0010611266127606,-0.0010989161484562,0.0011002974728935,-0.0011342116013852,0.0011365834502832,-0.0011352073188295,0.0011355828413112,-0.0011349068628056,0.0011294424679467,-0.0011359080733546,0.001128447379668,-0.0010936024250576,0.0011263605025784,-0.001079114624929,0.001088271508532,-0.0010781375964367,0.0010892618905632,-0.0010926127803522,0.0011273379249382,-0.0010676068139452,0.001150291957637,0.66449988364994,122718,2924,0.0037794667066043,0.0064172949712109,0.0042594745434479,24.733816619525,0.0001130705329562,0.0001130705329562,0.0001130705329562,3847824.4059463,0.014561619963914
29891759,0.90634283584291,0.015099345907616,0.0042752190334488,0.0061184628471402,0.0047056640270271,-0.00092686054310795,0.00091886475251916,-1.5897316999563e-05,-6.8587420024356e-06,-1.9951137639025e-06,-9.6335753131682e-07,-0.00042654747362546,0.00039710929183556,-0.0010122039350632,0.0010050427265825,-0.001006869463809,0.0010261498031586,-0.00044487297954728,0.00040058580923033,-0.0004275329150535,0.00039613163249461,-0.00101318824692,0.0010040237449819,-0.0010078682299116,0.0010251449320125,-0.0011119911193055,0.0011017475231285,-0.0011074844318278,0.00111102682205,-0.0011116571791996,0.0011021000177561,-0.0011071436395384,0.0011113726090785,-0.0008808876771974,0.0008500894486478,-0.00086746553215389,0.00084345695462116,-0.00088121711126293,0.00084974430588713,-0.00086780690091663,0.00084312377040874,-0.00044390325630673,0.00040157893264903,2.6304942175308e-07,-7.2575439192486e-07,-1.7733968400948e-06,1.3255661364728e-06,-0.0015725443164996,0.0015720952797579,-0.0015009103910432,0.0015038278972103,-0.0014939292278135,0.0014934022925585,-0.0014896214590314,0.0014871545418028,-0.0016272632640979,0.0016261082706622,-0.0016270846102679,0.0016280214133688,-0.0016269855635247,0.0016251602863668,-0.0016285508075596,0.0016288175194902,-0.001504548950308,0.0015007397287949,-0.0015150701909647,0.0015173208845793,-0.0014935930933518,0.0014951391051827,-0.0014803484263774,0.0014799547070547,-0.0015012006393691,0.0014980567238421,5.3184032815685e-06,1.5731659400361e-05,-0.0010393206532232,0.0010404950149307,2.3271862578934e-06,-8.2739860610203e-07,-0.00106409575688,0.00107120436017,-0.0011186186261716,0.0010778117984414,-0.0011219266809845,0.001117256054789,-0.0010848526883064,0.0011734856072838,-0.0010610760882882,0.0010742520738499,-0.0011155453962853,0.0010808738399872,-0.0011188653499459,0.0011203302930056,-0.0011496231909548,0.0011520124693766,-0.0011506782878172,0.0011509525515851,-0.0011501989189649,0.0011446600594211,-0.0011512595382827,0.0011436056944835,-0.0011086747532054,0.0011423440795405,-0.0010942630074282,0.0011034416772342,-0.0010932269283321,0.0011044913214655,-0.0011076259288794,0.0011433806291974,-0.0010878983645291,0.0011704635918225,0.68461390406998,122718,2924,0.0038396618954325,0.0065285651269424,0.0043240315527348,25.429796141592,0.00011863836913274,0.00011863836913274,0.00011863836913274,3950213.620174,0.014801103708527
30391759,0.91993095026004,0.015288979064029,0.0043278808605341,0.0062018333981844,0.0047592648053101,-0.0009353483330903,0.00092698309735363,-1.6653721458932e-05,-7.2371112121952e-06,-2.1191092754318e-06,-1.030131389535e-06,-0.00041572498722292,0.00038409706506472,-0.0010208557409973,0.0010133513363189,-0.0010152562439569,0.0010357007770305,-0.00043496662077801,0.00038844400606936,-0.00041676487080722,0.00038306444459838,-0.0010218954858725,0.0010122766370505,-0.0010163102796733,0.001034640002133,-0.0011268607408195,0.0011161612237762,-0.0011221332720239,0.0011258995180712,-0.0011265079719563,0.0011165329626612,-0.0011217736622915,0.0011262645687975,-0.00088839407493924,0.00085618337591197,-0.00087434575273353,0.00084932563195695,-0.00088874234290379,0.0008558194237789,-0.00087470586963986,0.00084897355919817,-0.00043394169268353,0.00038949134477027,2.8278093521801e-07,-7.6141117143046e-07,-1.867312415771e-06,1.4040431185933e-06,-0.0015986695045815,0.0015982049859379,-0.0015243886363629,0.0015274780109933,-0.0015203524731397,0.0015198068040664,-0.001515915115297,0.0015133207144282,-0.0016537086647706,0.0016524996672911,-0.0016535000937337,0.0016544977431188,-0.0016534425981809,0.0016515257214328,-0.0016549916301736,0.001655281582872,-0.0015282208282,0.0015242089486176,-0.0015390678931678,0.0015414533394523,-0.0015200034785858,0.0015216454516256,-0.0015059639181228,0.001505557460679,-0.0015247192498564,0.001521409730094,5.5848098931308e-06,1.6305424653903e-05,-0.0010454846013847,0.0010467484040727,2.4547870903968e-06,-8.7320806602577e-07,-0.0010673889968799,0.0010748486175723,-0.0011259934928889,0.0010834577251084,-0.0011293448968467,0.0011244724379061,-0.0010895218070482,0.0011824791044743,-0.0010642002339575,0.0010780658762099,-0.0011227507018292,0.0010866890747592,-0.0011261142954027,0.0011277162505683,-0.0011608698536314,0.0011634037624262,-0.00116198271862,0.0011622859060921,-0.0011615327782269,0.0011557842649123,-0.0011626513488404,0.0011546721387981,-0.0011172479968172,0.001151932258781,-0.0011020331751279,0.001111650799236,-0.0011009395001618,0.001112758428108,-0.0011161411617113,0.0011530263489719,-0.0010927371769815,0.0011792881995755,0.59098872163378,122718,2924,0.0038742510333133,0.0066365742720324,0.0043498409780592,26.075399301269,0.00012380319441015,0.00012380319441015,0.00012380319441015,3829262.4902549,0.014972051557895
30891759,0.93226913980013,0.015489376954636,0.0043839118513935,0.0062888576495952,0.0048166074536477,-0.00094760567256408,0.00093908169982062,-1.6925894304196e-05,-7.3431539398328e-06,-2.1757235179591e-06,-1.0393160873632e-06,-0.00042707001090577,0.00039541134997978,-0.0010364455915343,0.0010288346014395,-0.0010307490374166,0.0010514016749003,-0.00044665796330984,0.0003995340653677,-0.00042815663268153,0.00039433143778545,-0.001037531647012,0.0010277126575452,-0.0010318493108062,0.0010502935868982,-0.0011405894704618,0.0011296313980164,-0.00113579071754,0.0011395790457063,-0.0011402213246897,0.0011300190287965,-0.0011354157796803,0.001139960041379,-0.00089904530529083,0.0008662564885986,-0.00088477766673001,0.00085929525299097,-0.00089940929470085,0.00086587674711409,-0.00088515340656319,0.00085892729330269,-0.00044558627972013,0.00040062867377451,2.8838735381595e-07,-8.0240086895304e-07,-1.9687586926989e-06,1.4708466117648e-06,-0.0016221801993668,0.0016216810105111,-0.0015452208575464,0.0015484562398531,-0.0015405943204587,0.0015400032367807,-0.0015360443717821,0.0015333128523082,-0.0016804300609,0.0016791460712907,-0.0016801744582193,0.001681208631718,-0.001680153868303,0.0016781317437505,-0.0016817054419633,0.0016820016605932,-0.0015492054940177,0.0015449785587214,-0.0015599770919948,0.0015624775096348,-0.0015401967793153,0.0015419051673509,-0.0015260609366209,0.0015256292392913,-0.0015456913493247,0.0015421977452038,5.6553237449265e-06,1.6617965569379e-05,-0.0010578932548103,0.0010591685263457,2.5453504808859e-06,-9.5153448294709e-07,-0.0010832981045306,0.0010907172090197,-0.0011420866188745,0.0010989307232377,-0.0011455369126416,0.0011404296547326,-0.0011053001682053,0.0011991515069411,-0.001079943868836,0.0010941006043835,-0.0011386780902425,0.0011023276612216,-0.0011421407225854,0.0011438392011364,-0.0011737013707562,0.0011762769768335,-0.0011748704988106,0.0011751029041659,-0.0011742935865688,0.0011684674625414,-0.0011754684500169,0.0011672991519587,-0.0011302129343701,0.0011657426695834,-0.0011149057771944,0.0011246077031054,-0.0011137559903908,0.0011257716094138,-0.0011290498736043,0.0011668929134474,-0.0011086814472241,0.0011957948898278,0.68714590328657,122718,2924,0.0039248139271867,0.0067337780536217,0.0044013549930786,27.063956618362,0.00013171165294689,0.00013171165294689,0.00013171165294689,3874605.9183504,0.015174338064295
31391759,0.94350144299487,0.015679394829245,0.0044368209495876,0.0063716173702488,0.0048709565094088,-0.00095658991334055,0.00094758305357048,-1.7979586285136e-05,-7.8428498050849e-06,-2.3169529417205e-06,-1.112014877463e-06,-0.00040730386944816,0.0003723613297169,-0.0010448915584775,0.0010368158870772,-0.0010388095550488,0.0010612596790921,-0.00042823809022892,0.00037785409056745,-0.00040845466827556,0.00037121686371708,-0.0010460435251014,0.00103562777524,-0.0010399756592835,0.0010600853001851,-0.0011578640283938,0.0011463470697863,-0.0011527440189159,0.0011568626058118,-0.0011574732725384,0.0011467577907025,-0.0011523464212641,0.0011572666540198,-0.00090855393674329,0.00087383911546751,-0.00089337796944786,0.00086648682278997,-0.0009089403110628,0.00087343694736635,-0.00089377609011449,0.00086609644528866,-0.00042710120250669,0.00037901225602692,3.196745308899e-07,-8.3687785727321e-07,-2.0599954369965e-06,1.5594247335171e-06,-0.0016518005550865,0.0016512986263688,-0.0015742379999771,0.0015776686869842,-0.001573532926158,0.0015729436108393,-0.0015688062072779,0.0015659473746843,-0.0017066736319568,0.001705349578973,-0.0017064016395036,0.0017075160473692,-0.0017064286968761,0.0017043208940195,-0.0017079535152513,0.0017082843371161,-0.0015784686019335,0.0015740410897758,-0.0015898996169106,0.0015925510332746,-0.0015731479691797,0.0015749778648779,-0.0015576861171114,0.0015572469094929,-0.0015746848794979,0.0015710349193668,6.0675835984035e-06,1.740949299252e-05,-0.0010621229022212,0.0010635428150223,2.7058767467337e-06,-9.7234890912654e-07,-0.0010812279983326,0.0010892897260112,-0.0011467955391989,0.0011010745702622,-0.0011502655229646,0.0011449941134019,-0.0011055689969911,0.0012060326989391,-0.0010776977230404,0.0010928496742089,-0.0011432100794215,0.0011046480900259,-0.0011466928618325,0.0011485806606345,-0.0011853793910543,0.0011881909519798,-0.0011866088965561,0.0011869561489295,-0.0011861752704643,0.0011800430004914,-0.0011874108270246,0.0011788142645275,-0.0011393058512168,0.00117609397637,-0.0011226935801954,0.001133100224708,-0.0011214836804962,0.0011343248805181,-0.0011380819871271,0.0011773042320857,-0.0011091271548176,0.0012025004532472,0.71628541114011,122718,2924,0.0039612920733989,0.0068561977112151,0.0044192849091937,28.357433968386,0.00014205947174709,0.00014205947174709,0.00014205947174709,3653883.273511,0.015353917506796
31891759,0.95336909901949,0.015849308885959,0.004485160670369,0.0064445884796227,0.0049195597359669,-0.00096462222534789,0.0009553385846223,-1.8639364006174e-05,-8.0712727149299e-06,-2.4030361061609e-06,-1.1303090434013e-06,-0.00040178206786149,0.00036537575426881,-0.001054226900703,0.0010458928603072,-0.0010478809147285,0.0010714139361911,-0.00042365726642488,0.0003713319740465,-0.0004029980001301,0.0003641658347325,-0.0010554444018061,0.0010446381415947,-0.0010491126608519,0.0010701730390486,-0.0011708679554594,0.0011589612871736,-0.0011655412815544,0.0011698615415068,-0.0011704552091991,0.0011593948251924,-0.0011651216178366,0.0011702883385043,-0.00091589592383223,0.0008799379764202,-0.00090011645962663,0.00087236520430575,-0.00091630444972942,0.00087951336419753,-0.00090053684288984,0.00087195249987247,-0.00042245498768355,0.00037255535155121,3.4180215421611e-07,-8.8041036447938e-07,-2.1558157214236e-06,1.6347617419668e-06,-0.0016754507027426,0.0016749282158562,-0.0015963806997387,0.00159998059175,-0.001597147131603,0.001596544251924,-0.0015922676296972,0.0015892660390648,-0.0017302195891644,0.0017288401024248,-0.0017299202427205,0.0017310937758783,-0.0017300000766028,0.0017277925143979,-0.0017315224326375,0.001731868038352,-0.0016007960133345,0.0015961585455985,-0.0016123807892263,0.0016151573398427,-0.0015967525363828,0.0015986828427899,-0.001580568702492,0.0015801007692955,-0.0015968727355773,0.0015930568118322,6.3373147825018e-06,1.8019375382365e-05,-0.00106668629847,0.0010681812804995,2.8398331472874e-06,-1.0111862761581e-06,-0.0010834719278188,0.0010918927912717,-0.0011535479818334,0.0011061906163644,-0.0011570812919615,0.0011516319664183,-0.001108885994467,0.0012130508742981,-0.0010797738793398,0.0010956213613717,-0.0011497936006073,0.001109932762752,-0.0011533401015762,0.0011553875030007,-0.0011945193178574,0.0011974948979736,-0.0011958064178532,0.0011962023082707,-0.0011953847518403,0.001189022827115,-0.0011966781107444,0.0011877365068525,-0.0011465435430856,0.0011844623844949,-0.0011292272271766,0.0011400861123125,-0.001127960137413,0.0011413684986676,-0.0011452619984564,0.0011857298506707,-0.0011126127357127,0.0012093508630051,0.72644232686627,122718,2924,0.0039941560708087,0.0069539131173319,0.0044384320233411,29.266044243267,0.00014932835394613,0.00014932835394613,0.00014932835394613,3547390.3414114,0.015505979823007
32391759,0.96157095463109,0.016003562355058,0.0045294256788348,0.0065102512652339,0.0049638854109895,-0.00097056706532344,0.00096105014205668,-1.9194138271224e-05,-8.2633576398282e-06,-2.4813839568625e-06,-1.1452520016969e-06,-0.00039746645339269,0.00035988311648341,-0.0010617716489199,0.0010532187447197,-0.0010552036309021,0.0010796169810441,-0.00042012965645091,0.00036620488739814,-0.00039874357439472,0.00035861164871895,-0.001063050587706,0.001051901622157,-0.0010564968396807,0.0010783136932223,-0.0011806224147222,0.0011683739804354,-0.0011751228038861,0.0011796152361266,-0.0011801891169036,0.0011688288270708,-0.0011746825593559,0.0011800633180661,-0.00092117314543546,0.00088416652326255,-0.00090488930804893,0.00087643780367496,-0.00092160245759503,0.00088372092427051,-0.00090533050848242,0.00087600414763411,-0.00041886596023356,0.00036748959618995,3.6162810139597e-07,-9.2213783057767e-07,-2.2482141993964e-06,1.7061305209663e-06,-0.0016948119177445,0.0016942683346135,-0.0016142480878972,0.0016180080670002,-0.0016162684652597,0.0016156499745208,-0.0016112676308687,0.0016081292781253,-0.0017497659986159,0.0017483316746119,-0.0017494360665659,0.0017506640857506,-0.0017495669093863,0.0017472631627513,-0.0017510839504279,0.0017514426797552,-0.0016188368991424,0.001613997497013,-0.0016305004888787,0.0016333958822867,-0.0016158573356577,0.0016178809936961,-0.001599124582831,0.0015986289072559,-0.0016148059244286,0.0016108292380806,6.5593674196497e-06,1.8525064657385e-05,-0.0010698443652526,0.0010713990049434,2.9601775531512e-06,-1.0559004361737e-06,-0.0010859377946959,0.0010946299915627,-0.0011590794003497,0.0011103709200044,-0.0011626690289402,0.0011570448270163,-0.0011121527053289,0.0012193079773499,-0.001082079028009,0.0010985200440866,-0.00115516349428,0.0011142743507309,-0.0011587666399474,0.0011609619493586,-0.0012009855503713,0.0012040982940362,-0.0012023276358633,0.0012027505726888,-0.0012018967271573,0.0011953411251156,-0.0012032452399464,0.0011939998375503,-0.001151894668746,0.0011907885976547,-0.0011340265535015,0.0011452503051042,-0.0011327047789754,0.0011465878284674,-0.0011505580372755,0.001192110774221,-0.0011160408633143,0.0012154472238174,0.79219730183482,122718,2924,0.0040184219126473,0.0070338927652712,0.0044517072785159,29.297808273989,0.00014958246619191,0.00014958246619191,0.00014958246619191,3474663.5682382,0.015625351023229
32891759,0.96832245675574,0.016110964111122,0.0045605375303239,0.0065559700019673,0.0049944565788312,-0.00097305433563715,0.00096326636889847,-1.9873891074964e-05,-8.514724315598e-06,-2.5755330034902e-06,-1.171036318853e-06,-0.00038479037792085,0.00034532568763625,-0.0010641969488776,0.0010553661397725,-0.0010573583518561,0.0010830046038137,-0.00040841844271137,0.00035240551691663,-0.00038613310825171,0.00034398824342409,-0.0010655421204014,0.0010539821740185,-0.0010587177091302,0.0010816343653813,-0.001188106023273,0.0011754850699692,-0.001182387852028,0.0011871288513133,-0.0011876504782907,0.0011759628424632,-0.0011819253582643,0.0011875998639034,-0.00092335536150289,0.00088509588768524,-0.00090644312883173,0.00087718586554298,-0.00092380713118212,0.00088462772571595,-0.00090690675696718,0.0008767296231817,-0.00040708858778792,0.00035375567882715,3.886527263552e-07,-9.6154547145573e-07,-2.3386204134573e-06,1.7849247383589e-06,-0.0017104254907005,0.0017098702241345,-0.0016287418021483,0.0016326781259409,-0.0016330099315111,0.0016323884336677,-0.0016279029281624,0.0016246308337673,-0.0017644042270053,0.0017629244192374,-0.0017640471403329,0.0017653425859693,-0.0017642404072319,0.0017618461714163,-0.0017657377834157,0.0017661189134902,-0.0016335279162001,0.0016284890935823,-0.001645379045755,0.0016484062428669,-0.001632592751254,0.0016347259371803,-0.0016150717201001,0.0016145548938176,-0.0016293369975793,0.0016252053591983,6.8471207455136e-06,1.9070997705443e-05,-0.0010678877214331,0.0010695199969004,3.0935492975925e-06,-1.0928726101436e-06,-0.0010796225956465,0.0010887168386665,-0.0011579438668266,0.0011075542836653,-0.0011615623768609,0.0011557862932363,-0.0011071598062191,0.0012183445024316,-0.0010755977039632,0.0010927734227872,-0.0011538613878541,0.0011116241328607,-0.0011574936930428,0.0011598700732939,-0.001204134622404,0.0012074286291285,-0.0012055334278238,0.0012060239870015,-0.0012051546680363,0.0011983681199705,-0.0012065600860131,0.0011969700891125,-0.0011523894043259,0.0011921603548043,-0.0011337338604003,0.0011454404504354,-0.0011323555549045,0.0011468349482483,-0.0011509958293647,0.0011935390610934,-0.0011112145777374,0.0012143177783652,0.66888370250489,122718,2924,0.004028292584534,0.0070983598565482,0.0044438224415838,29.18277469835,0.0001486621975868,0.0001486621975868,0.0001486621975868,3341777.9378132,0.015692875572442
33391759,0.97393365485507,0.016213486475707,0.0045904837665103,0.0065990133135743,0.0050239893956222,-0.00097902871307073,0.00096920494435299,-1.989414883587e-05,-8.5545893760877e-06,-2.5850798009645e-06,-1.1745423489506e-06,-0.00039639259007941,0.00035728903601656,-0.0010708097203977,0.0010619900465266,-0.0010639847572082,0.0010895158359639,-0.000419950250917,0.0003640883295571,-0.00039774139270052,0.00035594574719863,-0.0010721608286255,0.0010605997374348,-0.0010653503062189,0.0010881395140142,-0.0011931256237577,0.0011804225026976,-0.0011874208249344,0.0011920979494004,-0.0011926682468262,0.0011809024398985,-0.0011869564535447,0.001192571081657,-0.00092845311972996,0.00089008071776388,-0.00091156634897431,0.00088224010668273,-0.00092890687264617,0.00088961050324334,-0.00091203201969676,0.00088178186988131,-0.00041861480633154,0.00036544481355655,3.7795600079241e-07,-9.77810659352e-07,-2.3592938350002e-06,1.7789329023688e-06,-0.0017184275990293,0.0017178456982194,-0.0016361627085022,0.0016400887606466,-0.0016396623425502,0.0016390143283949,-0.0016345243736326,0.0016312150268946,-0.0017739753014802,0.0017724660241073,-0.0017736025594722,0.0017748786443859,-0.0017738108142888,0.0017713831291777,-0.0017753219759351,0.0017756797681743,-0.0016409473311259,0.0016358655810036,-0.0016526842872479,0.0016556974975101,-0.0016392234298711,0.0016413398202815,-0.001621838727349,0.001621294368786,-0.0016367987933939,0.0016326279290054,6.8163273266164e-06,1.915282500705e-05,-0.0010749724861083,0.0010765936694307,3.0901812962693e-06,-1.1121662927822e-06,-0.0010906355652537,0.0010996335253752,-0.0011660450356945,0.001115804459849,-0.0011697575576736,0.0011639018348856,-0.0011175316499964,0.0012277403934947,-0.0010865959348905,0.0011037056475906,-0.0011619467970624,0.0011198898172456,-0.0011656734015395,0.0011680014064744,-0.0012095169522031,0.0012127773854105,-0.0012109210649145,0.0012113673343308,-0.0012104221733865,0.0012036420254272,-0.0012118329897501,0.0012022386827587,-0.0011588932096195,0.0011990726128364,-0.0011405030471175,0.0011521589521421,-0.0011391197495843,0.0011535587870641,-0.001157494439111,0.0012004564609432,-0.0011216017161078,0.0012236986901952,0.76703045550566,122718,2924,0.0040529655135379,0.0071314356346298,0.0044731750438868,29.274766833856,0.00014939813467085,0.00014939813467085,0.00014939813467085,3433034.830974,0.015781332398365
33891759,0.97873721257461,0.016300505749323,0.004615731310713,0.0066357749506812,0.0050489994879287,-0.00098214476788122,0.00097203854171896,-2.0560220706936e-05,-8.8011220320211e-06,-2.6933202627331e-06,-1.2191306007191e-06,-0.00038299462727317,0.00034197300493136,-0.0010754323810061,0.0010662905629405,-0.0010683367091912,0.0010949881084398,-0.00040751456937419,0.00034958464414621,-0.00038440482690837,0.0003405678564068,-0.0010768452394957,0.001064838033699,-0.0010697637792143,0.0010935493186312,-0.0012011999640857,0.0011881252787481,-0.0011952780753431,0.0012002359055861,-0.0012007217281078,0.0011886264967406,-0.0011947928424649,0.0012007303230228,-0.00093136803654032,0.00089179100762957,-0.00091386724021833,0.00088372187245464,-0.00093184270366205,0.00089129973259313,-0.00091435384777486,0.00088324260337822,-0.00040611706429442,0.0003510023494692,4.0846791514187e-07,-1.0094642751972e-06,-2.4435292304982e-06,1.862560178086e-06,-0.0017352703455598,0.0017346877592918,-0.0016510679166089,0.0016551784714147,-0.0016572524119268,0.0016566088673679,-0.0016520146315557,0.0016485872917995,-0.001790253117281,0.001788707948081,-0.0017898580785056,0.0017912101456974,-0.0017901047071715,0.0017875997356076,-0.00179159666533,0.001791989026375,-0.0016560384998204,0.0016507711138048,-0.0016679985432429,0.0016711546941461,-0.0016568144637034,0.0016590470321491,-0.0016387060932321,0.001638155512731,-0.0016517406423675,0.00164742563155,7.0977484384765e-06,1.9648245503901e-05,-0.0010733380941802,0.0010750446470745,3.2264653714973e-06,-1.1441439884132e-06,-0.0010854102752097,0.0010948088592137,-0.001166588749255,0.0011146853285034,-0.0011702834152584,0.0011642936816542,-0.0011138546321473,0.00122847983738,-0.0010812060220427,0.0010990454569383,-0.0011623261096817,0.0011189351078326,-0.0011660348492693,0.0011685576428894,-0.0012127858392225,0.0012162206976538,-0.0012142460667568,0.0012147545287596,-0.0012138280516158,0.0012068187456014,-0.0012152950428027,0.0012053593338787,-0.001160055267061,0.0012009913281831,-0.0011407994904699,0.0011529182975842,-0.0011393601221118,0.0011543742544028,-0.001158600262294,0.0012024310972844,-0.0011180893943021,0.0012242737888472,0.76172156471975,122718,2924,0.0040654406444187,0.0072009908982744,0.0044666453683885,30.02710472784,0.00015541683782272,0.00015541683782272,0.00015541683782272,3263827.7636295,0.015858068703342
34391759,0.98292851601858,0.016372447261175,0.004636897901675,0.0066659027963642,0.0050696465631361,-0.00098717316601365,0.0009769691639785,-2.0809329781998e-05,-8.8559043983334e-06,-2.7400773206772e-06,-1.2141661203347e-06,-0.00038540735654038,0.00034409815086829,-0.0010815531180568,0.0010723352442794,-0.0010743492769815,0.0011013802905925,-0.00041033482035727,0.00035171230669911,-0.00038686830528419,0.00034264175447184,-0.001083016452742,0.0010708314540222,-0.0010758266833838,0.0010998901010065,-0.0012078674607865,0.0011946168268386,-0.0012018673562483,0.0012068998583279,-0.0012073725837635,0.0011951353210876,-0.0012013655525522,0.0012074116237119,-0.00093557284280157,0.00089551086211957,-0.00091783608847987,0.00088738639705874,-0.00093606462744732,0.00089500242212975,-0.00091833968158856,0.00088688983090153,-0.00040888634727157,0.00035318105100461,4.2237094953154e-07,-1.0463607924412e-06,-2.5287484261423e-06,1.9255927428173e-06,-0.0017467892889703,0.0017461844631938,-0.0016612368904784,0.0016654876915113,-0.0016679282909258,0.0016672627675869,-0.0016626368996709,0.0016590873913888,-0.0018028022918472,0.0018012027216995,-0.001802369531427,0.0018037654976246,-0.0018026721473937,0.0018000792888213,-0.0018041505190602,0.0018045532793608,-0.0016663412178141,0.0016608894227719,-0.0016781447915056,0.0016814072798177,-0.0016674603226045,0.0016697693912703,-0.0016491808909214,0.001648606667415,-0.0016620098840235,0.0016575443172089,7.1965742872099e-06,1.9922505689574e-05,-0.0010763669457175,0.0010780893987237,3.3165357231285e-06,-1.2027711031352e-06,-0.0010886380416041,0.001098077730229,-0.0011713888571021,0.0011188361264539,-0.0011751291577787,0.001168969304579,-0.001117228850518,0.0012330175778995,-0.0010842879299077,0.0011024606925551,-0.001166980328029,0.0011232317231871,-0.0011707348586058,0.0011733792223604,-0.0012173403506867,0.001220851609714,-0.0012188500412505,0.0012193359288792,-0.0012183722349564,0.0012112764431239,-0.0012198887545014,0.001209767583189,-0.0011638129242789,0.0012052953126267,-0.0011443648006832,0.0011566245962803,-0.0011428760163377,0.0011581302199427,-0.001162308333758,0.0012067845668541,-0.0011216098187141,0.0012286655385642,0.71950148343769,122718,2924,0.0040861292923723,0.0072485526549307,0.0044792717152832,31.389517161792,0.00016631613729433,0.00016631613729433,0.00016631613729433,3223070.7379856,0.015940237026285
34891759,0.98663263908753,0.01643996022507,0.0046567950462813,0.0066940432482482,0.005089121930541,-0.00099408796504069,0.00098382691942466,-2.0906954102083e-05,-8.895796742987e-06,-2.7813339163443e-06,-1.2101154644844e-06,-0.00039362172522266,0.00035239153667933,-0.0010899758693036,0.0010807433974164,-0.0010827369757919,0.0011098241001592,-0.00041869626259705,0.00035988040523436,-0.00039512758008184,0.00035088949237248,-0.0010914837293345,0.0010791945545259,-0.0010842585587594,0.0011082885193941,-0.0012150485346002,0.0012016825022831,-0.0012090283308516,0.0012140691819439,-0.0012145390609075,0.0012022160459931,-0.0012085121135196,0.0012145961790732,-0.00094151016010707,0.00090123790656102,-0.0009237072542973,0.00089310437838176,-0.00094201713413339,0.00090071446714409,-0.00092422569045993,0.00089259246391301,-0.0004172025400641,0.00036139445913834,4.3140710870722e-07,-1.0822214180277e-06,-2.6208069403881e-06,1.9915255086113e-06,-0.0017578509138801,0.0017572199279931,-0.0016706548362059,0.0016750496020138,-0.0016775548959221,0.0016768545116582,-0.0016722484273359,0.00166857550174,-0.0018156183125744,0.0018139553859034,-0.0018151359787237,0.0018165725938801,-0.0018154939368092,0.0018128086151238,-0.0018169484950299,0.00181736278671,-0.0016758965592643,0.0016702487511323,-0.0016874565795952,0.0016908331856122,-0.0016770378802695,0.0016794168937913,-0.0016588308957276,0.0016582381046331,-0.0016715773748522,0.0016669455922692,7.207387822199e-06,2.0062229046102e-05,-0.0010827904803349,0.0010845061242937,3.3932706828701e-06,-1.2836653069484e-06,-0.001097696999053,0.0011069918061212,-0.0011798927197489,0.0011270841766684,-0.001183679912043,0.001177313172179,-0.0011260116784197,0.0012420210352411,-0.0010931912246129,0.0011115308284449,-0.0011753291908766,0.0011316347706549,-0.0011791306712192,0.0011818781398385,-0.0012234698479193,0.0012270065053784,-0.0012250318940706,0.0012254384993391,-0.0012244437866133,0.0012173333027408,-0.0012260126648178,0.0012157721212765,-0.0011702771248542,0.0012121270556537,-0.0011508722171002,0.0011631039789124,-0.0011493308870146,0.0011646622556188,-0.0011687199585464,0.0012136689276183,-0.0011305485014993,0.0012375131379884,0.76368749739882,122718,2924,0.0041146976477749,0.0072942460478432,0.0045059093262925,33.428521875981,0.00018262817500785,0.00018262817500785,0.00018262817500785,3224891.9179819,0.016042748522135
35391759,0.98986338096135,0.01649237593172,0.0046722660752934,0.0067159495309473,0.0051041603254797,-0.0010004888651099,0.00099003976279894,-2.1336890987152e-05,-9.100483399925e-06,-2.8508156921653e-06,-1.2373248800756e-06,-0.00038988683378417,0.00034717814038397,-0.0010958415209009,0.0010864147637837,-0.0010884407675809,0.0011163571038957,-0.00041554181518286,0.00035534401427681,-0.00039143325864827,0.0003456352316351,-0.0010973905233111,0.0010848248610676,-0.0010900032187328,0.0011147801747323,-0.0012242567684181,0.0012106628665437,-0.0012181025298294,0.0012233014825463,-0.0012237333997754,0.0012112104830751,-0.001217572518638,0.0012238426565992,-0.00094816455663008,0.00090711381127925,-0.00092998881476693,0.00089883258675545,-0.00094868556117406,0.00090657651929047,-0.00093052106845933,0.00089830660963314,-0.00041400690174618,0.00035689833743068,4.5087956143819e-07,-1.104009471333e-06,-2.6898704134982e-06,2.0585822954114e-06,-0.0017707716758813,0.0017701386418503,-0.0016833971009629,0.001687937027047,-0.0016919166534912,0.001691209603861,-0.0016865701108207,0.0016828092714642,-0.0018272003474419,0.0018255043231602,-0.0018266899038213,0.0018281834949951,-0.0018271000949508,0.0018243537210639,-0.0018285193192043,0.0018289626136543,-0.0016888076019257,0.0016830106470414,-0.001700556444031,0.0017040506153153,-0.0016913871164612,0.0016938497774489,-0.0016726309360133,0.0016720405941104,-0.0016843713672179,0.0016796179776028,7.3778952521399e-06,2.0375853072111e-05,-0.0010856541880245,0.0010874203725743,3.4889435223477e-06,-1.3243041041362e-06,-0.0010967525063539,0.0011062546177276,-0.0011826151406477,0.0011286791408485,-0.0011864136691694,0.001179921570366,-0.0011259996853854,0.0012448491175864,-0.001092112578388,0.0011109276410988,-0.0011779180255969,0.0011333633364469,-0.0011817309160497,0.0011846201830252,-0.0012296198952947,0.0012332743384796,-0.0012312272336889,0.0012316609232942,-0.001230673768869,0.0012234491445281,-0.0012322880242633,0.0012218426333776,-0.0011747016182744,0.001216971386,-0.0011547752003397,0.0011672745778776,-0.0011531884210383,0.0011688784488979,-0.0011730988431912,0.00121855867097,-0.001130670671064,0.0012402072877707,0.67947291040118,122718,2924,0.0041409408813227,0.0073476172755781,0.0045179408719848,35.837080761309,0.00020189664609047,0.00020189664609047,0.00020189664609047,3122571.9737263,0.01613589182452
35891759,0.99248927162298,0.016537166669541,0.0046855707019955,0.0067345031832813,0.0051170927842645,-0.0010058614654451,0.00099546634247325,-2.1169641482437e-05,-9.0142260530708e-06,-2.8561868998358e-06,-1.2172555375157e-06,-0.00040366783834533,0.00036204432169473,-0.0011033296014707,0.0010940113811435,-0.0010959940474644,0.001123422215913,-0.00042911392764356,0.00036960120736144,-0.0004052403703135,0.00036047445306312,-0.0011049039626104,0.0010923955858997,-0.0010975814961202,0.001121819055765,-0.0012281383485156,0.0012145542807971,-0.0012220494221195,0.0012271564571487,-0.0012276069317993,0.0012151102878774,-0.0012215115758157,0.0012277062308461,-0.00095208631088683,0.00091129482688509,-0.00093408109431959,0.00090309541458026,-0.00095261602677947,0.00091074905189851,-0.00093462167117422,0.0009025605598848,-0.00042755274238687,0.00037118232021401,4.4722973657598e-07,-1.1333690734074e-06,-2.7672646540713e-06,2.1035801954466e-06,-0.0017768489509238,0.0017761835158008,-0.0016874316194976,0.0016920680568735,-0.0016951641095032,0.0016944088347425,-0.0016898227353789,0.0016859628968617,-0.0018365039515422,0.001834743672713,-0.0018359443898619,0.0018374537938179,-0.0018363946278117,0.0018335682435167,-0.0018378024672581,0.0018382458157104,-0.0016929129041888,0.00168695487238,-0.0017042116787531,0.0017077853873433,-0.00169457655233,0.0016970721349534,-0.0016762732607551,0.001675665094838,-0.0016885729461445,0.0016836754243604,7.2748769865862e-06,2.034947545811e-05,-0.0010925117710748,0.0010942367747957,3.5290410757104e-06,-1.4057888421675e-06,-0.0011090975951307,0.0011182585619596,-0.0011920966736369,0.0011385815683031,-0.0011959501907688,0.0011892645342922,-0.0011373645628275,0.0012546122692245,-0.0011043370437017,0.0011230527137636,-0.0011872796719627,0.0011433856533615,-0.0011911475393902,0.0011940830358096,-0.0012340414072833,0.0012376516671009,-0.0012356890877564,0.0012359980505235,-0.0012349631949615,0.001227805546531,-0.0012366177207827,0.0012261587674538,-0.0011804980093905,0.0012229460421289,-0.0011609819714253,0.0011732570413165,-0.0011593546076028,0.0011749014890419,-0.0011788547626094,0.0012245740261516,-0.001142156312009,0.0012498494311142,0.71348599053829,122718,2924,0.0041632893336626,0.007372720530447,0.0045462767772686,37.445759703101,0.0002147660776248,0.0002147660776248,0.0002147660776248,3185147.5798416,0.016212887801753
36391759,0.99444404291154,0.016570052491808,0.0046952879909275,0.0067481875161506,0.0051265769847302,-0.0010065465934422,0.00099611358447616,-2.1310069799426e-05,-8.9664617291436e-06,-2.8747965221639e-06,-1.2340286310687e-06,-0.00039879966757378,0.00035702396053412,-0.001104346060483,0.0010948708324319,-0.0010969211810374,0.0011245514549013,-0.00042450046328248,0.00036452941046574,-0.00040037392753391,0.00035545244316282,-0.0011059221852592,0.0010932534075922,-0.0010985103597699,0.0011229466265717,-0.0012304256330996,0.0012167514495709,-0.0012242662409733,0.0012294675263133,-0.0012298934959359,0.0012173080045312,-0.0012237276849793,0.0012300178584792,-0.00095332510772993,0.00091233014809772,-0.00093517860151667,0.00090425513269751,-0.00095385542004012,0.00091178380808872,-0.00093571977268628,0.00090371971162754,-0.00042293739980733,0.00036611202605558,4.5338057726284e-07,-1.1287948814635e-06,-2.7666282241836e-06,2.1135280001217e-06,-0.001781676379133,0.0017810215085741,-0.0016922852942667,0.0016969418997326,-0.0017004707366462,0.0016997247882392,-0.0016951315732175,0.0016912778314964,-0.0018407912346768,0.0018390387943793,-0.0018402324569562,0.0018417557569501,-0.0018406834747064,0.0018378641120271,-0.0018420869501681,0.0018425433742669,-0.0016977914060689,0.0016918343096299,-0.0017091563185881,0.0017127492219636,-0.0016998916570791,0.0017024026222661,-0.001681475189383,0.0016808791948738,-0.0016934233644303,0.0016885277389233,7.3240166149836e-06,2.0492779876764e-05,-0.0010916452775307,0.0010933984970787,3.5601118714275e-06,-1.3847614941847e-06,-0.0011056960517834,0.0011149442812122,-0.0011915261878775,0.0011376276033825,-0.0011953675294256,0.00118868612615,-0.0011343560868484,0.0012529058985122,-0.0011009257227407,0.0011197477348697,-0.0011866995738079,0.0011424414339762,-0.0011905551211605,0.0011935142249366,-0.0012351581929369,0.0012387944632263,-0.0012368092386121,0.0012371375387141,-0.001236111886511,0.0012289277457132,-0.0012377697259608,0.0012272776052232,-0.001180287740902,0.001222807058654,-0.0011606378052044,0.0011729852293092,-0.0011590070323785,0.0011746328724642,-0.0011786412143823,0.0012244383605025,-0.0011391572843297,0.0012481334393641,0.70433655235509,122718,2924,0.0041661019250455,0.0073926569192981,0.004542762995989,37.533459235109,0.00021546767388087,0.00021546767388087,0.00021546767388087,3094294.8361884,0.016232451285155
36891759,0.99584861069974,0.016591413695996,0.00470164174999,0.0067570487024594,0.0051327232435464,-0.0010060310561475,0.00099544155647416,-2.1626661718392e-05,-9.1994267266506e-06,-2.9230021409211e-06,-1.2577306421387e-06,-0.00039321311204696,0.00035014529436071,-0.0011031504228446,0.0010935948776713,-0.0010956364484979,0.0011238715860545,-0.00041926340234181,0.00035833053769449,-0.00039481050655302,0.0003485505603712,-0.0011047503328508,0.0010919537720246,-0.0010972492981473,0.0011222429519499,-0.0012312890298999,0.0012174606830976,-0.001225050092939,0.0012303382842564,-0.0012307488183764,0.0012180254867364,-0.001224503492664,0.0012308968986742,-0.00095256641081616,0.00091094350204396,-0.00093414849309669,0.00090264718098602,-0.0009531048192525,0.00091038915192402,-0.00093469767165967,0.00090210366289278,-0.00041767692716874,0.00035993611111902,4.6093981063025e-07,-1.145024765914e-06,-2.818629019507e-06,2.1570664018575e-06,-0.0017842087315635,0.0017835453967032,-0.0016945371213034,0.0016992868487215,-0.0017039641236021,0.0017032011710745,-0.0016985738063962,0.0016946564067996,-0.0018425451483607,0.0018407608867473,-0.0018419661160777,0.0018435211477413,-0.0018424539078362,0.0018395859921221,-0.0018438353441099,0.0018443067551912,-0.0017001514190718,0.0016940843149354,-0.0017116636214695,0.0017153336265774,-0.0017033747288755,0.0017059322102311,-0.0016845247957175,0.0016839286910959,-0.0016957034072922,0.0016907137577776,7.4683225426422e-06,2.0653858321355e-05,-0.0010893990655414,0.0010911862354543,3.615743575378e-06,-1.4244259725193e-06,-0.0011024337097832,0.0011118768459901,-0.0011890103062856,0.0011343945628702,-0.0011928619161627,0.0011861037176034,-0.0011317029531314,0.0012517532648099,-0.0010975697462959,0.0011167742164793,-0.0011840901808111,0.0011393017498768,-0.001187956209503,0.0011910253620229,-0.0012341688893708,0.0012379062778721,-0.0012358516031186,0.0012362175245248,-0.0012351789719317,0.0012278956827445,-0.0012368686095355,0.0012262138399922,-0.0011790761691581,0.0012219291399575,-0.001159008034381,0.0011716034585659,-0.0011573455716294,0.0011732831065004,-0.001177397675751,0.0012235921552608,-0.0011365981290608,0.0012468872758957,0.6357490455962,122718,2924,0.0041636688800859,0.0074030924069323,0.004533543100712,36.818338537436,0.00020974670829949,0.00020974670829949,0.00020974670829949,3097009.0834017,0.016231222301309
37391759,0.99693469170133,0.016608753032977,0.0047068003195322,0.006764219756426,0.0051377329570191,-0.0010088244794427,0.00099829289969965,-2.1441141759948e-05,-9.1339779116802e-06,-2.9199036675439e-06,-1.2401693997511e-06,-0.00040301600562685,0.00036081417630134,-0.0011072238576416,0.0010977826543423,-0.0010997914523944,0.0011275799247377,-0.00042880598959255,0.00036855082531031,-0.00040462847751872,0.0003592035918611,-0.0011088383667829,0.0010961267739027,-0.0011014185180724,0.0011259361507682,-0.0012325116639146,0.0012187275053328,-0.0012263438309574,0.0012315347547775,-0.0012319668612614,0.0012192970151545,-0.0012257928564662,0.0012320982887196,-0.0009544464542797,0.00091312768489414,-0.00093621585319748,0.0009048869449491,-0.0009549899655533,0.00091256854086271,-0.00093676972469118,0.00090433821821601,-0.00042720416416548,0.00037017197211325,4.5694629933689e-07,-1.1639771727095e-06,-2.875154809655e-06,2.1909949623633e-06,-0.0017859026524626,0.0017852167240006,-0.0016949923932924,0.0016998134552322,-0.0017037324863101,0.0017029313483725,-0.0016983600860968,0.0016943749780432,-0.0018464464994219,0.0018446148865494,-0.0018458289163522,0.0018473953923611,-0.0018463448257868,0.0018434206633416,-0.0018477105168716,0.0018481844754115,-0.001700662284049,0.0016944787878142,-0.001711857737701,0.0017155892435167,-0.001703093090241,0.0017056723117604,-0.0016846192222501,0.0016840153513768,-0.001696290047417,0.0016911938237687,7.3605947876068e-06,2.0559988835629e-05,-0.0010939548110211,0.0010956987975676,3.6347179774419e-06,-1.4948097177386e-06,-0.001111203980274,0.0011203342481037,-0.0011950931088123,0.0011409155496808,-0.0011989796406382,0.0011920695671831,-0.0011396612459636,0.0012582336872014,-0.0011062508450376,0.0011253210397799,-0.0011900847500956,0.0011459110164594,-0.0011939856429255,0.0011970794436661,-0.0012364001138266,0.0012400865884533,-0.0012381124198635,0.0012383683624389,-0.001237310747078,0.0012301050799824,-0.0012390299031113,0.0012283936949802,-0.0011826621623214,0.0012255085623018,-0.0011629435885659,0.0011753162060848,-0.0011612512025615,0.0011770257119738,-0.0011809538828191,0.0012272015820164,-0.001144645585235,0.0012532782520606,0.66747126441366,122718,2924,0.0041753299565072,0.0074100902030791,0.0045523235631374,37.627363642863,0.0002162189091429,0.0002162189091429,0.0002162189091429,3157878.5516469,0.016269255239458
37891759,0.99773969086158,0.016620484528494,0.0047102789325187,0.0067690987539797,0.0051411068419957,-0.0010088605178651,0.00099830539332755,-2.1534905257275e-05,-9.0993090579808e-06,-2.9324748342541e-06,-1.2516016428427e-06,-0.00039838956132094,0.00035601815598937,-0.0011074177935342,0.0010978666194169,-0.0010999226370024,0.0011278680465584,-0.00042436423254269,0.00036376839640624,-0.00040000307993099,0.00035440657631188,-0.0011090333815751,0.0010962097826658,-0.001101550737294,0.0011262232682524,-0.0012337880948186,0.0012199526278792,-0.0012275702615779,0.0012328325062465,-0.0012332428111879,0.0012205224524742,-0.0012270188190186,0.0012333963674151,-0.00095499177956828,0.00091354917470514,-0.00093666159740757,0.00090537632474214,-0.00095553565601555,0.00091298969559577,-0.00093721582180568,0.00090482725161786,-0.00042276121580311,0.00036539039828921,4.6336411398768e-07,-1.1585044829681e-06,-2.8729750627692e-06,2.2005681495912e-06,-0.001788529195831,0.0017878549993108,-0.0016977241371722,0.0017025644563401,-0.0017068814051704,0.0017060907801008,-0.0017015149605669,0.0016975383624861,-0.0018484692374525,0.0018466470704948,-0.0018478535605922,0.0018494342654613,-0.0018483686753706,0.0018454535256653,-0.0018497284182515,0.0018502161695921,-0.001703415192726,0.0016972358793207,-0.0017146741589227,0.0017184243523854,-0.0017062503361348,0.0017088448746247,-0.0016876757435564,0.0016870852018538,-0.001699016387881,0.0016939249081886,7.4010756300867e-06,2.0643609549258e-05,-0.0010927482670644,0.0010945129318438,3.6581688393964e-06,-1.479195283413e-06,-0.0011076446303337,0.0011168501505768,-0.0011939528472348,0.001139482094995,-0.0011978163490853,0.0011909194748015,-0.0011364726549378,0.0012560872180661,-0.0011026837279388,0.0011218442614161,-0.0011889369642687,0.0011444852091396,-0.0011928146939397,0.0011959368628904,-0.0012368216056073,0.0012405337166624,-0.0012385365375315,0.001238812917382,-0.00123777302139,0.0012305488805946,-0.0012394947555079,0.0012288348723557,-0.0011819918119402,0.0012248205604284,-0.0011621359114259,0.0011745680454882,-0.001160440829559,0.0011762800436009,-0.0011802809574467,0.0012265161874541,-0.0011414644553488,0.0012511241638624,0.60954457296436,122718,2924,0.0041754715142648,0.0074209372134096,0.0045473792912565,37.709293813426,0.00021687435050741,0.00021687435050741,0.00021687435050741,3085566.267272,0.016275411448734
38391759,0.99832104732248,0.016629948358202,0.0047130900769693,0.0067730090652664,0.0051438492159661,-0.0010089495056548,0.00099837272297033,-2.1525482039228e-05,-9.175977148543e-06,-2.9408810383297e-06,-1.2490397610207e-06,-0.00040134706248047,0.00035890690615023,-0.0011074951011907,0.0010980111379758,-0.0011000338739042,0.001127941984248,-0.00042723719420762,0.00036673143457376,-0.00040297133211351,0.00035728413640111,-0.0011091216152878,0.0010963434756053,-0.0011016726345923,0.0011262861209669,-0.0012331264299318,0.0012192846866496,-0.0012269327156436,0.0012321503013065,-0.0012325775876096,0.0012198581396965,-0.0012263778559376,0.0012327179320227,-0.00095455674116505,0.00091308171642606,-0.00093625761652789,0.00090482531882101,-0.00095510443387812,0.00091251868385959,-0.00093681536558895,0.00090427239833825,-0.00042562315946034,0.00036836436279149,4.6056332395186e-07,-1.1723978541205e-06,-2.9206087694182e-06,2.2317151008292e-06,-0.0017876691491398,0.001786978478937,-0.001696463095555,0.0017013680179348,-0.0017055571113145,0.0017047345276138,-0.0017001840384524,0.0016961537429488,-0.0018482216942114,0.0018463611038591,-0.0018475774356051,0.0018491712924587,-0.0018481220688451,0.0018451610642089,-0.0018494615617793,0.0018499550290211,-0.0017022232611053,0.0016959464479106,-0.0017134024485059,0.0017172098275673,-0.0017048931623975,0.0017075080111232,-0.0016863491435101,0.0016857571866295,-0.0016978348722895,0.0016926532929436,7.3863511234057e-06,2.060722798223e-05,-0.001093722371845,0.0010954718968971,3.6785407574034e-06,-1.536576547082e-06,-0.0011108157927643,0.0011199109884496,-0.001195117531513,0.0011406940339812,-0.0011990068334091,0.0011920054743084,-0.0011393626292223,0.0012584476323119,-0.0011057775797675,0.0011249827605267,-0.0011900249322787,0.0011457737847223,-0.0011939285746832,0.0011970996068431,-0.0012365117642877,0.0012402304762234,-0.001238252427532,0.0012384838969658,-0.0012374288223487,0.0012302232693084,-0.0012391763269632,0.0012284835219768,-0.0011827229414263,0.0012256227942621,-0.0011629201266503,0.0011753106948668,-0.0011611990895191,0.0011770488182008,-0.0011809860414362,0.0012273444578815,-0.0011444319608472,0.0012534071439767,0.68081525693756,122718,2924,0.0041757697772034,0.0074173744459621,0.0045513769436663,37.199128399851,0.0002127930271988,0.0002127930271988,0.0002127930271988,3151802.5003229,0.016276147380044
38880000,0.99874528651625,0.016637235606043,0.004715245183164,0.0067760305341895,0.0051459598886897,-0.0010084044652542,0.00099776146938221,-2.1752455168139e-05,-9.1769356201049e-06,-2.9649601802059e-06,-1.2702406691173e-06,-0.00039183235082575,0.00034875216445709,-0.0011068176469956,0.0010971422208825,-0.0010992294241616,0.0011275617479329,-0.00041811430237817,0.00035680652111077,-0.00039345899543131,0.00034712730306253,-0.0011084468060845,0.0010954721584425,-0.0011008708515943,0.0011259034993594,-0.0012348475762366,0.001220911089456,-0.0012285511496342,0.001233906450866,-0.0012342976543249,0.0012214853922854,-0.0012279951910975,0.0012344749120937,-0.00095493158721132,0.00091312626425068,-0.00093640261627747,0.00090494084068178,-0.00095548013363407,0.00091256239767396,-0.00093696126176123,0.00090438713124794,-0.00041649771198851,0.00035844137122128,4.7319078934823e-07,-1.1622688880844e-06,-2.9156981897886e-06,2.2493589645904e-06,-0.0017912189290557,0.001790550781746,-0.0017004534050726,0.0017053940861468,-0.0017105209376774,0.001709719599725,-0.001705154320751,0.0017011400881463,-0.0018500520659149,0.0018482104287473,-0.0018494138618812,0.0018510352706112,-0.0018499670295943,0.0018470231415925,-0.0018512915822293,0.0018518107581678,-0.0017062672192935,0.0016999996584128,-0.0017176154790257,0.0017214569803898,-0.0017098800132691,0.0017125244510344,-0.0016910372067124,0.0016904696816491,-0.0017018024554027,0.0016966317474685,7.4918714506795e-06,2.0767249342732e-05,-0.0010903131302792,0.0010920936398988,3.7176415938726e-06,-1.5110093968783e-06,-0.0011027308800668,0.0011120232455069,-0.00119139429342,0.0011362924682316,-0.0011952389679278,0.0011882733869237,-0.0011320945213181,0.0012532361773183,-0.001097679561158,0.0011171075065671,-0.0011862887145051,0.0011413853083587,-0.0011901476487795,0.0011933805180166,-0.001236260915029,0.0012400450711939,-0.0012380061091895,0.0012382939659067,-0.0012372797067144,0.001230002979336,-0.0012390317042966,0.0012282586628022,-0.0011803990013603,0.0012232771651009,-0.0011602643190776,0.0011728177055511,-0.0011585387135165,0.0011745601917085,-0.0011786576290621,0.0012250032744393,-0.0011371766158148,0.001248182874993,0.71913113407407,122718,2924,0.0041734463743824,0.0074320322128116,0.004537341303816,37.193701503425,0.0002127496120274,0.0002127496120274,0.0002127496120274,3045154.6083749,0.016274442140715
