time,ASR_ext,ASR_strain,ASR_strain_xx,ASR_strain_yy,ASR_strain_zz,disp_x_101,disp_x_102,disp_x_103,disp_x_104,disp_x_105,disp_x_106,disp_x_p10_neg,disp_x_p10_pos,disp_x_p11_neg,disp_x_p11_pos,disp_x_p12_neg,disp_x_p12_pos,disp_x_p13_neg,disp_x_p13_pos,disp_x_p14_neg,disp_x_p14_pos,disp_x_p15_neg,disp_x_p15_pos,disp_x_p16_neg,disp_x_p16_pos,disp_x_p1_neg,disp_x_p1_pos,disp_x_p2_neg,disp_x_p2_pos,disp_x_p3_neg,disp_x_p3_pos,disp_x_p4_neg,disp_x_p4_pos,disp_x_p5_neg,disp_x_p5_pos,disp_x_p6_neg,disp_x_p6_pos,disp_x_p7_neg,disp_x_p7_pos,disp_x_p8_neg,disp_x_p8_pos,disp_x_p9_neg,disp_x_p9_pos,disp_y_101,disp_y_102,disp_y_103,disp_y_104,disp_y_105,disp_y_106,disp_y_p10_neg,disp_y_p10_pos,disp_y_p11_neg,disp_y_p11_pos,disp_y_p12_neg,disp_y_p12_pos,disp_y_p1_neg,disp_y_p1_pos,disp_y_p2_neg,disp_y_p2_pos,disp_y_p3_neg,disp_y_p3_pos,disp_y_p4_neg,disp_y_p4_pos,disp_y_p5_neg,disp_y_p5_pos,disp_y_p6_neg,disp_y_p6_pos,disp_y_p7_neg,disp_y_p7_pos,disp_y_p8_neg,disp_y_p8_pos,disp_y_p9_neg,disp_y_p9_pos,disp_z_101,disp_z_102,disp_z_103,disp_z_104,disp_z_105,disp_z_106,disp_z_p10_neg,disp_z_p10_pos,disp_z_p11_neg,disp_z_p11_pos,disp_z_p12_neg,disp_z_p12_pos,disp_z_p13_neg,disp_z_p13_pos,disp_z_p14_neg,disp_z_p14_pos,disp_z_p15_neg,disp_z_p15_pos,disp_z_p16_neg,disp_z_p16_pos,disp_z_p1_neg,disp_z_p1_pos,disp_z_p2_neg,disp_z_p2_pos,disp_z_p3_neg,disp_z_p3_pos,disp_z_p4_neg,disp_z_p4_pos,disp_z_p5_neg,disp_z_p5_pos,disp_z_p6_neg,disp_z_p6_pos,disp_z_p7_neg,disp_z_p7_pos,disp_z_p8_neg,disp_z_p8_pos,disp_z_p9_neg,disp_z_p9_pos,humidity,ndof,nelem,strain_xx,strain_yy,strain_zz,temp,thermal_strain_xx,thermal_strain_yy,thermal_strain_zz,vonmises,vstrain
14391759,0,0,0,0,0,0,0,0,0,0,0,0,0,0,0,0,0,0,0,0,0,0,0,0,0,0,0,0,0,0,0,0,0,0,0,0,0,0,0,0,0,0,0,0,0,0,0,0,0,0,0,0,0,0,0,0,0,0,0,0,0,0,0,0,0,0,0,0,0,0,0,0,0,0,0,0,0,0,0,0,0,0,0,0,0,0,0,0,0,0,0,0,0,0,0,0,0,0,0,0,0,0,0,0,0,0,0,0,0,0,0,0,0,0,0,0,0,0,0,0,0,0,0
15391759,0.10054933691868,0.0015492377304913,0.00051641257683045,0.00051641257683045,0.00051641257683045,-0.00014716296271727,0.00014708219725305,-1.5533794232135e-07,-1.2672883534994e-07,-2.0962548154329e-08,-4.5719636028692e-09,-0.00013080549484638,0.00013023466015284,-0.00014602837717882,0.00014599533680862,-0.00014600440855307,0.00014631659935695,-0.00013090926091118,0.00013034715699743,-0.00013082134931848,0.0001302186185708,-0.00014604421048791,0.00014597914119605,-0.00014602025179105,0.00014630041322943,-0.00015434981806982,0.00015428074681402,-0.00015432550625382,0.0001543819891761,-0.00015434452771674,0.0001542862605191,-0.00015432021137994,0.00015438749847814,-0.00014551847049181,0.00014524398520526,-0.00014544120660436,0.00014509112084707,-0.00014552384524133,0.00014523852753786,-0.00014544659064244,0.0001450856725001,-0.00013089342475495,0.0001303632169202,5.2575244031281e-09,-1.0852404614547e-08,-3.0484477958756e-08,2.5128269439375e-08,-0.00015925356988621,0.00015924818737404,-0.00015624699243964,0.0001563015231899,-0.00015792926623694,0.00015792103572346,-0.00015788203411473,0.00015784211229514,-0.00016116772390005,0.00016114925704221,-0.00016116167940409,0.00016118031270037,-0.00016116856707201,0.00016113928273918,-0.00016118169207729,0.00016118950784284,-0.00015630509284487,0.00015623990056767,-0.00015630494293107,0.00015634864919121,-0.00015791648565365,0.00015794533862332,-0.00015770379014648,0.00015770095176503,-0.0001562554118284,0.00015620104385638,1.7942023277078e-08,2.4210153012974e-07,-0.0001524554125147,0.00015248633546237,4.2452426134338e-08,-1.3174819946015e-08,-0.00015057024485173,0.00015054175212139,-0.00015117253327393,0.00015069878192735,-0.00015123568608166,0.00015113028514043,-0.00015079647605695,0.00015219701592345,-0.00015051596721948,0.00015059634771054,-0.00015111805555468,0.00015075321273296,-0.00015118132392502,0.00015118483130474,-0.00015629736374291,0.00015630424875801,-0.00015631587423121,0.0001562856663189,-0.00015627903933593,0.00015624679393869,-0.00015629760429407,0.00015622826591055,-0.00015244233186858,0.0001528780316445,-0.00015233347273579,0.00015235233654832,-0.00015231501044087,0.00015237095307641,-0.00015242374578702,0.00015289652418976,-0.00015085100666369,0.00015214267380141,0.70055894083924,122718,2924,0.00061282374917303,0.0006633237418764,0.00063509265450611,27.188289267375,0.000132706314139,0.000132706314139,0.000132706314139,1233751.1274969,0.0019130708338539
16391759,0.18930467015898,0.0030042804331753,0.00097732330533893,0.0010276038439817,0.00099935328385467,-0.00024447629598563,0.00024425631933559,-5.0786278523316e-07,-2.7368121198454e-07,-6.9033533164969e-08,-2.3600928941327e-08,-0.00020789318316219,0.00020654513167803,-0.00024682246809069,0.00024668181172639,-0.00024670955657721,0.00024755971898851,-0.00020832222960178,0.00020660839745827,-0.00020793702022489,0.00020650070316719,-0.00024686634269592,0.00024663693618948,-0.00024675344326655,0.00024751485303348,-0.00025924586402308,0.00025900101194006,-0.00025913008188501,0.00025934259167668,-0.00025923110317542,0.00025901633141821,-0.00025911531577122,0.00025935790663769,-0.00024376565687676,0.00024285313615244,-0.00024340920058885,0.00024256384713839,-0.00024378056687302,0.00024283800439529,-0.00024342412060103,0.00024254872549182,-0.00020827841159316,0.00020665284696604,1.2938576317412e-08,-3.160053994988e-08,-1.0566132463147e-07,8.7654673378941e-08,-0.00028007960922454,0.00028006153763758,-0.00027509643113455,0.00027528275971448,-0.00027756444405999,0.00027752523038254,-0.00027748199037322,0.00027735528582646,-0.00028302386858755,0.00028295648452244,-0.00028299530240618,0.00028305681078208,-0.00028302160871656,0.00028292432214372,-0.00028305142403001,0.00028308302902997,-0.00027529382654897,0.00027507164221201,-0.00027536750229994,0.00027552389915923,-0.00027751432882841,0.00027760399584409,-0.00027705184652154,0.00027705402284479,-0.00027515888013483,0.00027496662485775,1.0872587657054e-07,6.8288733781678e-07,-0.00025921546946712,0.00025927321641517,1.3459154390354e-07,-5.8758345675138e-08,-0.00026084533002831,0.00026084129071634,-0.0002611349419895,0.00025954993401302,-0.00026129625581589,0.00026097846922042,-0.00026147674439987,0.00026541446694884,-0.00026065651650317,0.00026103106084159,-0.0002609455426766,0.00025973915873818,-0.00026110720128238,0.00026116804040587,-0.00026615634108611,0.00026621274896923,-0.000266220702863,0.00026614820288348,-0.00026610373110713,0.00026594515766125,-0.00026616825133042,0.00026588076980098,-0.00026159787033342,0.00026279650553054,-0.00026126555937785,0.0002614209263328,-0.00026120133907195,0.00026148559674907,-0.00026153328982673,0.0002628608149742,-0.0002616663240911,0.00026522546310165,0.7587163515091,122718,2924,0.0010176843536767,0.0011662741695974,0.0010796000038951,24.444989989966,0.00011075991991973,0.00011075991991973,0.00011075991991973,1894731.3751529,0.0032688950503184
17391759,0.26838988127453,0.0041580635570903,0.0013188509488125,0.00146044699912,0.0013787656091578,-0.00031491842160599,0.00031444458457455,-1.0822941505366e-06,-5.0976876233941e-07,-1.4100183809921e-07,-4.0623302294064e-08,-0.00024708518246025,0.00024472159201291,-0.00031986315401257,0.00031951137073074,-0.00031958750790336,0.00032122250945517,-0.00024810505558886,0.00024463736114828,-0.00024718218743804,0.00024462337198833,-0.00031996001724091,0.00031941215617709,-0.00031968441883229,0.00032112333234825,-0.00034117468281417,0.00034062564357628,-0.00034089957579082,0.00034132209480605,-0.00034114209945882,0.00034065947070042,-0.00034086697002307,0.00034135590182012,-0.00031235317640983,0.0003103671045949,-0.00031151152849194,0.00030981637672125,-0.00031238611414313,0.00031033366310264,-0.00031154451195555,0.00030978298159818,-0.00024800813528651,0.00024473566996824,2.8550213061478e-08,-6.9923461997476e-08,-2.196189220122e-07,1.7970395045211e-07,-0.00038302295809039,0.0003829828939348,-0.00037439175854843,0.00037477608203502,-0.00037720808250763,0.00037713059276933,-0.00037703949994422,0.00037676856203172,-0.00038853105230892,0.00038839122703509,-0.00038847122153095,0.00038859772324332,-0.00038852901357085,0.00038832322343378,-0.00038857785939273,0.00038863839451622,-0.00037481873691856,0.00037435494671516,-0.00037523043380161,0.0003755486225005,-0.00037710572241373,0.00037729447520364,-0.00037617736518774,0.00037617266682655,-0.0003745332497372,0.00037413558576003,2.8492382345595e-07,1.3035315370107e-06,-0.00034176291939202,0.00034185131447296,2.6459531801309e-07,-1.348728399511e-07,-0.0003448141038305,0.00034493166925336,-0.00034597375563027,0.00034258490027516,-0.00034628728537881,0.00034568544897385,-0.00034615920441727,0.00035366176260674,-0.0003444240812861,0.00034532363356041,-0.00034558248794172,0.00034297577706416,-0.00034589675128957,0.00034607705960366,-0.00035454218197672,0.00035469901116714,-0.00035467518016304,0.00035456565761626,-0.00035449696523522,0.00035415985120498,-0.0003546302839945,0.00035402681733565,-0.00034641101527285,0.0003487775910417,-0.00034558984554142,0.00034602454667947,-0.00034545713981169,0.0003461581177404,-0.00034627759046321,0.00034891044003756,-0.0003465508068119,0.00035327138077245,0.68097528185715,122718,2924,0.0013103464674305,0.0015945539938939,0.0014231803147154,22.111452437929,9.2091619503432e-05,9.2091619503432e-05,9.2091619503432e-05,2426412.6277628,0.0043374748046266
18391759,0.32531647335897,0.0048883936257994,0.0015296290982974,0.0017427352611789,0.001616029266323,-0.00035243369857449,0.00035177246545999,-1.4964969247187e-06,-6.6780044430124e-07,-1.9657317178444e-07,-7.5184759065787e-08,-0.00026614596851468,0.00026313559074451,-0.00035995591168866,0.00035940385358922,-0.00035955773476178,0.00036169356408548,-0.00026758695595023,0.00026294685676849,-0.00026626299828128,0.00026301698305262,-0.00036007292584063,0.00035928390706509,-0.00035967478171015,0.00036157363572702,-0.00038640626042424,0.00038561629871534,-0.00038601106845924,0.00038659720715485,-0.00038636677295798,0.00038565726582873,-0.00038597156523293,0.00038663816250605,-0.00034757023442548,0.00034477869540842,-0.00034636549122016,0.00034408947675988,-0.00034761005317333,0.00034473827327628,-0.00034640534038939,0.00034404908564244,-0.00026746997752965,0.00026306552517064,3.1093114146478e-08,-8.7692809912198e-08,-3.2279160736613e-07,2.6797012346164e-07,-0.00044370353349085,0.00044364854058785,-0.00043124746217272,0.00043181124028692,-0.0004331521020471,0.00043301542557543,-0.00043289528442928,0.00043252547778482,-0.00045360840468325,0.00045339685167532,-0.00045351187186641,0.00045369421599694,-0.00045359444732371,0.00045330324811076,-0.00045367177880372,0.00045377447530284,-0.00043187182420554,0.00043119887409117,-0.00043247609108634,0.00043296006521149,-0.00043299534953696,0.00043325251365545,-0.00043178649844558,0.00043181053056838,-0.00043149916734331,0.00043090600459173,4.0855877087595e-07,1.7437888053119e-06,-0.00038714984328528,0.00038723210359309,3.6497812476429e-07,-2.2599963446446e-07,-0.00038993864392631,0.00039009406695926,-0.00039362699306617,0.00038894086574048,-0.00039407326867402,0.00039320831271457,-0.00039162602651586,0.00040149906482684,-0.00038936135577165,0.00039067390719252,-0.00039304807422775,0.00038951916187116,-0.00039349532193147,0.0003937875824264,-0.00040472914184426,0.00040495809476812,-0.00040492594165484,0.00040476088225024,-0.00040466548075736,0.00040419653327262,-0.00040486269414085,0.00040399973268201,-0.00039198834293224,0.00039521402317986,-0.00039087587606468,0.0003914916157781,-0.00039067944505998,0.00039168913292037,-0.0003917909870571,0.00039541061086378,-0.00039220542792793,0.00040092134367647,0.60484717275765,122718,2924,0.0014660731333123,0.0018469102846337,0.0016119921204826,17.505441539254,5.524353231403e-05,5.524353231403e-05,5.524353231403e-05,2830762.8584102,0.0049371477625441
19391759,0.3839898000888,0.0057938494991116,0.0017864003182253,0.0020971856018977,0.0019102635789886,-0.00040988389416692,0.00040895305451254,-2.062138465908e-06,-8.969904461524e-07,-2.808258878372e-07,-1.1013231988361e-07,-0.00029979057704017,0.00029591066076951,-0.00042371340944659,0.00042288721162423,-0.00042315185263317,0.00042596663287771,-0.00030181618111201,0.00029551067127084,-0.00029995523954959,0.00029574379018402,-0.000423877939228,0.00042271848258313,-0.00042331643299482,0.00042579793546338,-0.00045113642642424,0.00045002048299457,-0.00045058053473066,0.00045136382322953,-0.00045108090532021,0.00045007808529858,-0.00045052498723074,0.0004514214049868,-0.00040474155529281,0.00040086835354305,-0.00040305106784599,0.00039994185605118,-0.00040479753297801,0.00040081150260031,-0.00040310709901762,0.00039988506092237,-0.00030165160605348,0.00029567764855725,4.3376701615761e-08,-1.2368631549424e-07,-4.6362919176729e-07,3.8582930211803e-07,-0.00053098788015135,0.0005309098425909,-0.00051649810446519,0.00051730851067154,-0.000517013040423,0.00051681390403064,-0.00051666908962663,0.00051614205308959,-0.00054258763844938,0.00054228317481123,-0.00054244113912426,0.00054270309694508,-0.00054256377509902,0.00054214737744966,-0.00054268724384914,0.00054283726491368,-0.00051744840907358,0.00051648307142903,-0.000518499964616,0.00051919818662378,-0.00051678147242238,0.00051714863285508,-0.00051518623867118,0.0005152255065412,-0.00051690933135281,0.00051605614933635,5.7865266820921e-07,2.3476123818132e-06,-0.00045479083952721,0.00045487321539936,4.9917607765404e-07,-3.507083529521e-07,-0.00046264116533257,0.00046285691113703,-0.00046729963310608,0.00046070837643756,-0.00046795188059346,0.00046674621321708,-0.00046487194936571,0.00047827866737803,-0.00046181092610108,0.00046369065867734,-0.00046646715289396,0.00046154002636737,-0.00046712073065159,0.00046757919167862,-0.0004753518275501,0.00047568779675858,-0.00047563485349511,0.0004754041957795,-0.00047528049322377,0.00047465502352439,-0.00047556409026581,0.00047437198950172,-0.00046297439782439,0.00046736383756834,-0.00046144202942631,0.00046230774203673,-0.00046115951990533,0.00046259174803232,-0.00046269061912545,0.00046764656711878,-0.00046570507905895,0.00047744781887011,0.73021614767059,122718,2924,0.0017045442738596,0.0022097887233599,0.0018933374541983,17.480149051455,5.5041192411637e-05,5.5041192411637e-05,5.5041192411637e-05,3111813.6032023,0.0058245956460003
20391759,0.44842424832423,0.0068300138680988,0.0020700106855038,0.0025180702525521,0.002241932930043,-0.00047243934639093,0.00047104836897513,-3.0087806633266e-06,-1.2832474066005e-06,-4.0061446845271e-07,-1.4912462987321e-07,-0.00032105060534932,0.0003155647459706,-0.00049242237552182,0.00049120366597576,-0.00049156666182525,0.00049553131299372,-0.00032412146989489,0.00031502501048918,-0.00032129296039619,0.00031531931668991,-0.00049266465510586,0.00049095526596883,-0.00049180898081971,0.00049528292455285,-0.000526754203647,0.00052507935555041,-0.00052593035164663,0.00052695659874148,-0.00052667239478682,0.00052516417707192,-0.00052584852017325,0.0005270414081076,-0.00046554558854832,0.00045987360145376,-0.00046304833976596,0.00045854427356764,-0.00046562800952775,0.00045978994662764,-0.0004631308057691,0.0004584606667012,-0.00032387918062724,0.00031527053648342,6.624110285638e-08,-1.7959256961858e-07,-6.7430018074928e-07,5.6465263669237e-07,-0.00063886371796324,0.00063875370285887,-0.00062246684183094,0.00062365343483272,-0.00062206008782228,0.00062177559949768,-0.00062152951000967,0.0006207624999254,-0.00065037920579975,0.0006499397950615,-0.00065016554564744,0.00065055213811214,-0.00065035445524625,0.00064975021007067,-0.00065052226830568,0.00065074401722381,-0.00062386623787887,0.00062246130569488,-0.0006256758291473,0.000626697285328,-0.00062173578682768,0.00062227718392935,-0.00061938444185703,0.0006194433351505,-0.00062307028004449,0.00062183042801003,8.8364084816319e-07,3.3146557771548e-06,-0.00053072617941679,0.0005308386567869,7.249548193183e-07,-5.1473303564971e-07,-0.00054315474188862,0.00054356352568225,-0.00054787277912629,0.00053827846520001,-0.00054874048919681,0.0005470348056505,-0.00054659005773596,0.00056604966815624,-0.00054194364993288,0.00054477985823045,-0.00054665837455922,0.00053949151660698,-0.00054752811471163,0.00054824987124817,-0.00055729404476551,0.00055782571343366,-0.00055770684744569,0.0005574120493476,-0.00055727542552337,0.00055636802527135,-0.00055768910213446,0.00055595522648738,-0.00054620402492757,0.00055245001156283,-0.00054377195401845,0.00054509928751754,-0.00054335991056684,0.00054551360297406,-0.00054579002662993,0.0005528623551523,-0.00054780554724055,0.00056483775742988,0.76377140340812,122718,2924,0.001963834038071,0.0026580663306548,0.0022091539086667,18.603327087563,6.4026616700501e-05,6.4026616700501e-05,6.4026616700501e-05,3283089.215955,0.0068544798180406
21391759,0.49854164081693,0.0075568999217135,0.0022671476620662,0.0028204617198541,0.0024692905397932,-0.00050734382547519,0.00050557546554705,-3.7635500030233e-06,-1.5848144221899e-06,-5.0431733518156e-07,-1.9488755900145e-07,-0.00032841148406806,0.00032160496223674,-0.00053132331658529,0.00052976699322161,-0.0005302229842214,0.00053506603073883,-0.00033233956876554,0.00032113173216855,-0.00032870953819409,0.00032130322997703,-0.00053162139726819,0.000529461420505,-0.00053052109150943,0.00053476044704409,-0.00057187716904612,0.00056972395888732,-0.00057083633349986,0.00057204952928157,-0.00057177648757737,0.00056982831547637,-0.00057073563088116,0.00057215387894476,-0.00049764158814245,0.00049051765724007,-0.00049449198449201,0.00048890093793743,-0.00049774295191019,0.00049041478914019,-0.00049459339619543,0.00048879812034066,-0.000332041568822,0.00032143356166422,8.0347530055448e-08,-2.2175611651392e-07,-8.5266993274532e-07,7.1588085500146e-07,-0.00070857421752916,0.00070843697811737,-0.00068906769956596,0.00069056894778918,-0.00068747401088559,0.00068710696959079,-0.00068676172161984,0.00068580171551763,-0.00072261439662703,0.00072205705873912,-0.00072233783167043,0.00072282619959346,-0.00072257927386395,0.00072181944075082,-0.00072278063030848,0.00072306648901929,-0.00069081387241779,0.00068904023903328,-0.00069304360719821,0.00069434189119571,-0.00068706907978928,0.00068774757800213,-0.00068414808694927,0.00068423365593205,-0.00068984683846517,0.0006882760852808,1.1258986289681e-06,4.066125989074e-06,-0.00057415632129781,0.00057427801836304,9.0676628350429e-07,-6.6290827295989e-07,-0.00058762391435333,0.00058816567502477,-0.0005944075721696,0.00058257984961407,-0.00059543759251859,0.00059329533934714,-0.00059186297263763,0.00061580364982385,-0.00058609040246737,0.00058970581053906,-0.00059286987026326,0.0005841157489919,-0.0005939024695422,0.00059483378864703,-0.00060644389042653,0.00060712265278308,-0.00060696659590642,0.00060659891451194,-0.00060645609361306,0.00060531118713602,-0.00060697989335037,0.00060478852961655,-0.00059350350755128,0.00060125426794532,-0.0005903868172739,0.00059207284138215,-0.00058986508661515,0.00059259742795251,-0.00059297930591873,0.00060177636005676,-0.00059340206808364,0.00061426914167936,0.6908403174145,122718,2924,0.0021082548507403,0.0029476145691796,0.0023897232264338,15.312519376887,3.7700155015098e-05,3.7700155015098e-05,3.7700155015098e-05,3455678.8799095,0.0074734346878117
22391759,0.54583133837366,0.0082413769625727,0.0024517275005424,0.0031080043216673,0.002681645140363,-0.00054643546803586,0.0005443138693008,-4.4299993240653e-06,-1.8604115969644e-06,-5.991686896288e-07,-2.478013095685e-07,-0.00034639499045611,0.0003385472411205,-0.00057531168406626,0.00057341767362754,-0.00057399663991189,0.00057952208689587,-0.00035106183398181,0.00033805767446987,-0.00034673324606581,0.00033820480180439,-0.00057565009341168,0.00057307069638933,-0.00057433506225085,0.00057917507359404,-0.00061900125925654,0.00061639768544902,-0.00061777157131124,0.00061913812009983,-0.0006188868394941,0.00061651621355263,-0.00061765713236407,0.00061925664665127,-0.00053401700893082,0.00052558561724207,-0.00053030125802896,0.00052372303502778,-0.00053413207172461,0.00052546884766686,-0.00053041636930626,0.00052360631544681,-0.00035072362010877,0.00033840021112638,8.7653462169178e-08,-2.5499183610991e-07,-1.0217330243191e-06,8.5969751712877e-07,-0.00077883935882115,0.00077867682367647,-0.00075627310428769,0.00075806923726701,-0.00075262425732896,0.00075216676360637,-0.0007517324003768,0.00075060252151348,-0.00079623624557819,0.00079556315069099,-0.0007958966809599,0.00079647784211779,-0.00079618126868921,0.00079527862000364,-0.00079642288876502,0.00079677447652393,-0.00075834201865838,0.00075622321190171,-0.00076099791092319,0.00076256382989266,-0.00075213860311852,0.00075293515206046,-0.00074878065760411,0.00074890487519158,-0.00075724106425652,0.00075535235455898,1.3272825245487e-06,4.7333261549334e-06,-0.00062048395722493,0.00062059713290708,1.0677893779043e-06,-8.1517935147126e-07,-0.00063594541112559,0.00063655810854651,-0.00064456224918154,0.00063073608943266,-0.00064575976776279,0.00064319427988448,-0.00064073842721936,0.00066849969431725,-0.00063410570688309,0.00063840555841386,-0.00064271761381304,0.00063257849694305,-0.00064391814119095,0.00064503965761138,-0.00065731763863586,0.00065811837552017,-0.00065794472385975,0.00065749017513121,-0.00065733074090911,0.00065597856226158,-0.00065795908368105,0.00065535160079346,-0.00064291921381715,0.00065205948606996,-0.00063926262271262,0.00064123357954328,-0.00063863669954372,0.00064186278642307,-0.00064229043089934,0.00065268580243378,-0.00064258467604769,0.00066665885355007,0.69163756941875,122718,2924,0.0022701056825126,0.0032393872845957,0.0025822655332888,14.81100183063,3.3688014645042e-05,3.3688014645042e-05,3.3688014645042e-05,3649110.6728284,0.0081246513747975
23391759,0.59404633359604,0.0089080363346929,0.0026298746410733,0.003391457934944,0.0028867037586756,-0.0005850197188026,0.00058246844987538,-5.2435168873187e-06,-2.2184669139105e-06,-7.1808104148222e-07,-3.0262852709299e-07,-0.00035799919228998,0.00034870940238158,-0.00061828659572915,0.00061601067688916,-0.00061670850482622,0.00062314558850393,-0.00036358434656861,0.00034832240313612,-0.0003583991200305,0.00034830472531667,-0.00061868678963868,0.00061560051279082,-0.00061710869992833,0.00062273536301351,-0.00066751004102329,0.00066436875504844,-0.00066605217737464,0.00066759670665319,-0.00066737473080149,0.00066450888102334,-0.00066591684954167,0.00066773683712498,-0.00056966693821986,0.00055966276545946,-0.00056527103996787,0.00055748893536004,-0.00056980297840813,0.0005595247545264,-0.00056540713055381,0.00055735097597637,-0.00036318445098084,0.00034872717957081,1.0311720032637e-07,-3.0181334984384e-07,-1.2085843279711e-06,1.0161292600893e-06,-0.00085199366136351,0.000851800631962,-0.00082583885751599,0.00082796178745439,-0.00082114946529321,0.00082060745538312,-0.00082006154367139,0.00081872492746787,-0.00087246590949522,0.00087166910094824,-0.00087205917160816,0.00087274542901546,-0.00087239701440092,0.00087132895678268,-0.00087267290160022,0.0008730878804127,-0.00082828034070745,0.00082577414663301,-0.00083140150591952,0.00083325239164571,-0.0008205821591582,0.00082152293625311,-0.00081662110313546,0.00081676735324187,-0.0008270000511497,0.000824765740327,1.5808058526698e-06,5.5121404559675e-06,-0.00066622230512723,0.00066635794869044,1.257341671961e-06,-9.694494779537e-07,-0.00068296792783066,0.00068372375846609,-0.00069394322996632,0.00067779656761911,-0.00069531032803662,0.00069229254658583,-0.00068862895026206,0.00072112126961838,-0.00068079227141544,0.00068590854579524,-0.00069176175795267,0.0006799753371795,-0.00069313240927266,0.00069447481658025,-0.00070877872813548,0.00070973419061443,-0.0007095203249087,0.00070899130578248,-0.00070882371706168,0.00070723209881366,-0.00070956680304674,0.00070649067775954,-0.00069249412292648,0.00070322111346856,-0.00068810282782784,0.00069044710900708,-0.00068736261965051,0.0006911911929343,-0.00069175051911518,0.00070396175956351,-0.00069081236588531,0.0007189443292959,0.66282300645257,122718,2924,0.0024296849539883,0.0035430457057845,0.0027723906146656,15.635021878728,4.0280175029827e-05,4.0280175029827e-05,4.0280175029827e-05,3749175.1111027,0.0087835551025246
24391759,0.64671396778169,0.0096687446923497,0.0028328443148807,0.0037167438576185,0.0031191565198505,-0.00063171748218209,0.00062865826192723,-6.1947565353684e-06,-2.6400871313293e-06,-8.5654320573656e-07,-3.6132245545569e-07,-0.00037551293082747,0.00036460200527128,-0.00067097842891988,0.00066825593577264,-0.00066908994024141,0.00067657235266438,-0.0003821853879793,0.00036430325686784,-0.00037598959450704,0.00036411987940275,-0.00067145551360173,0.00066776712130263,-0.00066956701231057,0.00067608344531061,-0.00072467385819926,0.0007208958186764,-0.00072295024047337,0.00072469121657477,-0.00072451255959231,0.00072106283045374,-0.00072278892590401,0.00072485824041807,-0.00061336854845044,0.0006015191479592,-0.00060818063111059,0.00059896408324542,-0.00061353068922094,0.00060135470402847,-0.00060834282509556,0.00059879969383968,-0.00038170874610873,0.00036478548744348,1.2203078087634e-07,-3.6036076841612e-07,-1.4325176620098e-06,1.2016179751837e-06,-0.00093816716698794,0.00093793559592647,-0.00090834374977274,0.00091085536592807,-0.00090203519814882,0.00090139328566808,-0.00090071412100551,0.0008991256008951,-0.00096176650835685,0.00096082108420848,-0.00096127806332422,0.00096208858102439,-0.00096168018065954,0.00096041163409493,-0.00096199687980181,0.00096248423729204,-0.00091123279359518,0.00090826134172721,-0.00091493604081262,0.00091712359190479,-0.00090137039636603,0.00090248405927883,-0.00089671934747711,0.00089688651748499,-0.00090974389715665,0.00090709628633754,1.8758524438021e-06,6.4312815687921e-06,-0.00072034126309808,0.00072050185777357,1.4810997291788e-06,-1.1558567890398e-06,-0.00073950734569267,0.00074042148425012,-0.0007531308854578,0.0007342455977527,-0.00075470328083293,0.00075114667117674,-0.00074614479897887,0.00078415659812017,-0.0007369309731636,0.00074300875609276,-0.00075054757871006,0.00073682561604061,-0.00075212420969414,0.00075373085137478,-0.00076883863244699,0.00076997679519867,-0.00076971682369458,0.00076909709760978,-0.00076891557960736,0.00076704420993729,-0.00076979555178166,0.00076616625818929,-0.0007514739835967,0.00076410153958088,-0.00074623158309827,0.00074900608571705,-0.00074535507101172,0.00074988722573297,-0.00075059339894692,0.00076497854934891,-0.00074873046279851,0.0007815787366609,0.69344629843763,122718,2924,0.0026228139718187,0.003900615384826,0.0029973048670477,17.85840464196,5.8067237135683e-05,5.8067237135683e-05,5.8067237135683e-05,3856701.5797508,0.0095663037317109
25391759,0.70123665100011,0.010532977063329,0.0030625249414489,0.0040893728970628,0.0033810792248171,-0.00068178999761742,0.00067805368027247,-7.488223284415e-06,-3.224455886585e-06,-1.0399607507364e-06,-4.1218670243521e-07,-0.00038611508790487,0.00037284813148515,-0.00072806635446476,0.00072480043889043,-0.00072574767710608,0.0007347772538638,-0.00039432305587844,0.00037278929872358,-0.00038671948040715,0.00037223730621762,-0.00072867131429834,0.0007241810165622,-0.00072635260838542,0.00073415769887886,-0.00078799727836281,0.00078336857381345,-0.00078591061881927,0.00078787996598642,-0.00078779287885892,0.00078358018974707,-0.00078570620486536,0.00078809160989978,-0.00066069186287428,0.00064636196583875,-0.00065442538740369,0.00064324166485165,-0.00066089740911991,0.00064615360888639,-0.00065463099346055,0.0006430333686433,-0.00039371867977597,0.00037340024302977,1.5878393123629e-07,-4.5257407957029e-07,-1.7187729990371e-06,1.4343499323912e-06,-0.0010372857737937,0.0010370004965127,-0.0010040522893618,0.0010070621959477,-0.00099680552710086,0.00099606226334809,-0.00099519470647961,0.00099325149812344,-0.0010623026820905,0.001061174470595,-0.0010617138993744,0.0010626874774989,-0.0010622070297775,0.0010606692281755,-0.001062553999012,0.0010631179343589,-0.0010075361318277,0.0010039598144164,-0.001012027862275,0.0010146270958338,-0.00099602724856007,0.00099738527798841,-0.00099033704432566,0.00099049530624064,-0.0010057346101913,0.0010025686463895,2.2954742025565e-06,7.6521359955256e-06,-0.00077807800491095,0.00077830987356832,1.781366326034e-06,-1.3756897558049e-06,-0.00080018301227081,0.00080139211403391,-0.0008171011023446,0.00079456253892171,-0.00081890664345663,0.00081468998872917,-0.00080838989356123,0.00085405522357894,-0.00079709867451078,0.00080449000013416,-0.0008140082247433,0.00079765132557661,-0.00081581905417418,0.00081778395230659,-0.00083395960647868,0.00083536136255525,-0.00083501092618521,0.00083430812404612,-0.00083413090666822,0.00083188780587961,-0.00083518447378962,0.00083083676513677,-0.00081684779887667,0.00083198632058955,-0.00081032059746398,0.0008137244208966,-0.00080927136084553,0.00081477946377089,-0.00081579342306123,0.00083303614195245,-0.00081148584213637,0.00085096911023003,0.76207065498803,122718,2924,0.002829628149253,0.0043116952950922,0.0032373018514014,19.840271748909,7.3922173991269e-05,7.3922173991269e-05,7.3922173991269e-05,3897022.8767708,0.010432803860896
26391759,0.75119065823307,0.011388049091747,0.0032904636259189,0.0044608668159396,0.0036367186498884,-0.00072678468233531,0.00072228598666171,-8.9882813618699e-06,-3.8983124292991e-06,-1.2468172125466e-06,-4.4893592660692e-07,-0.00038795999697276,0.0003718170265972,-0.00077984635976874,0.0007760081124881,-0.00077701435490318,0.00078799251979115,-0.00039801647421509,0.00037220891062762,-0.00038872844703292,0.00037104112687799,-0.00078061551466674,0.00077522115652351,-0.00077778345953523,0.00078720537932993,-0.00084747391633853,0.0008418755565926,-0.00084496157246191,0.00084716630950009,-0.00084721430407561,0.00084214436998553,-0.00084470194674971,0.00084743516524755,-0.00070312558855409,0.00068593562487996,-0.00069559660659746,0.00068213045677425,-0.00070338686384718,0.00068567093881721,-0.00069585795583175,0.00068186584186089,-0.00039724803619949,0.00037298495804773,2.0860919679714e-07,-5.6824255598453e-07,-2.0380590013251e-06,1.6902655072502e-06,-0.0011348164563002,0.0011344675592902,-0.0010980963604263,0.0011016620947251,-0.0010908824138411,0.0010900447930624,-0.0010889246712062,0.001086561883125,-0.0011603088543348,0.0011589816286974,-0.0011596087223711,0.0011607665432641,-0.0011602159252327,0.0011583681272927,-0.0011605675269876,0.0011612046897284,-0.0011022411477,0.0010979828523286,-0.0011075468898973,0.0011105908312747,-0.0010899873295735,0.0010916340657174,-0.0010829760678335,0.0010830979131145,-0.0011000756705973,0.001096338724836,2.8006757253335e-06,9.0463144573341e-06,-0.00082888733150773,0.00082922724830312,2.1279800071523e-06,-1.6057743924571e-06,-0.00085299869868569,0.00085461759375145,-0.00087446660079073,0.00084781419585504,-0.00087650184134727,0.00087157174381121,-0.00086317065605594,0.0009176427997084,-0.00084935120610878,0.00085828183151655,-0.00087080868353376,0.00085146708395513,-0.00087285051613884,0.00087523105389026,-0.00089330268779409,0.00089501865240958,-0.0008945459341504,0.00089377296168282,-0.00089361454658992,0.00089093320924167,-0.00089486061823407,0.00088969027596756,-0.0008763007799137,0.00089433362167013,-0.0008681981370727,0.0008723731285205,-0.00086695743428457,0.00087362104569028,-0.00087505362990468,0.00089557497979617,-0.00086683257947086,0.0009139932281081,0.82335182229769,122718,2924,0.0030151670014035,0.0047159681145154,0.0034485672359069,20.413395188853,7.8507161510824e-05,7.8507161510824e-05,7.8507161510824e-05,3883693.9387009,0.011242604455473
27391759,0.79896744705504,0.012126899592028,0.0034898288283419,0.0047833212451846,0.0038537495185019,-0.00076624726736057,0.00076101090206793,-1.0481955702891e-05,-4.5570283959716e-06,-1.4627124322663e-06,-5.0036488951557e-07,-0.00038833872868221,0.00036919642480557,-0.00082433638210112,0.00081992279582856,-0.00082098087473698,0.00083400985594776,-0.00040026873386473,0.00037022807327133,-0.00038926590503449,0.00036826104279549,-0.00082526449393888,0.00081897390381913,-0.00082190890633552,0.00083306071307528,-0.00090141995282742,0.00089485130131671,-0.00089847993073081,0.00090096815794567,-0.00090110696810428,0.00089517543688045,-0.00089816693345117,0.00090129235120457,-0.00073891907709194,0.00071888142797324,-0.00073012663479821,0.000714468488899,-0.00073923426629721,0.00071856228834187,-0.00073044191851092,0.00071414943746337,-0.00039934156806012,0.00037116363552343,2.547994185424e-07,-6.8183949255021e-07,-2.354723613194e-06,1.9418910268783e-06,-0.0012237048783253,0.0012232907310063,-0.0011813679556805,0.0011854791576418,-0.0011755204512128,0.0011745836024219,-0.0011731908931352,0.0011704148835573,-0.001252006398729,0.0012504788777668,-0.0012511921529615,0.0012525283351274,-0.0012519207215126,0.0012497655406543,-0.0012522699061231,0.0012529783102567,-0.0011861192978446,0.0011811860403876,-0.0011919535716379,0.0011954357389766,-0.0011745140626535,0.001176439962265,-0.001166129396896,0.0011662165293511,-0.0011836362459773,0.0011793314415889,3.3079950815452e-06,1.0428702850136e-05,-0.00087098869590182,0.00087143872051623,2.4752151718564e-06,-1.8286026441787e-06,-0.00089437527543728,0.00089641137066985,-0.00092242680958248,0.00089187035257921,-0.00092467975827606,0.00091904038658036,-0.00090646623897397,0.00096933434648293,-0.00089017108897275,0.00090063529915463,-0.00091821039634292,0.00089608079021794,-0.00092047115628504,0.00092325839785404,-0.00094515472703177,0.00094718059518732,-0.00094658773724578,0.00094574469875672,-0.00094558128494119,0.00094244812785235,-0.00094701765815339,0.00094101550674417,-0.00092464325170495,0.00094552246590779,-0.00091504579535063,0.00091999644845141,-0.00091361581058611,0.0009214349753507,-0.00092320558250356,0.00094695316062156,-0.00091068752438901,0.00096512783543877,0.74366212196709,122718,2924,0.0031777517914763,0.0050842370961594,0.0036236552228249,22.218671596212,9.2949372769696e-05,9.2949372769696e-05,9.2949372769696e-05,3815308.1656804,0.011956778324753
28391759,0.84141560176046,0.012873989268102,0.0036939351477891,0.0051071687686885,0.0040728853516244,-0.00080775632372088,0.00080184306091403,-1.1787237441068e-05,-5.1408752471181e-06,-1.6513601858372e-06,-5.5512847863495e-07,-0.00040139829253943,0.00037997159953177,-0.00087332362425467,0.00086836868363763,-0.00086951258107686,0.00088415182618028,-0.00041493460213035,0.00038133686690725,-0.0004024544792124,0.00037890642221844,-0.00087438104058626,0.00086728790065459,-0.00087056988156282,0.00088307073003062,-0.00095340848042624,0.00094593749823584,-0.00095010105366769,0.00095280646410308,-0.00095305182181845,0.00094630673411955,-0.00094974438486834,0.00095317577197952,-0.00077748743397891,0.00075491473799688,-0.00076760883165129,0.00074994385082044,-0.00077784651454616,0.00075455127690201,-0.00076796802841886,0.00074958049224399,-0.00041387841960075,0.00038240225365748,2.8556960712773e-07,-7.8064556812234e-07,-2.6472472256222e-06,2.1684090928373e-06,-0.001309574929191,0.0013090946186958,-0.0012625165533291,0.0012671139413634,-0.0012565275417922,0.0012554772851263,-0.0012538146279379,0.0012506707957669,-0.0013408483185803,0.0013391258044229,-0.001339924099262,0.0013414110900402,-0.0013407472252957,0.0013383103599481,-0.0013411006095782,0.0013418731029491,-0.0012678186646562,0.0012622677607269,-0.0012741890462392,0.0012780704232583,-0.0012554102231128,0.0012575682721653,-0.0012459220645227,0.0012459870607644,-0.0012650837593308,0.0012602481450169,3.7312602467864e-06,1.1664233249534e-05,-0.00091468177155279,0.00091521953536181,2.7800332195418e-06,-2.0447007410735e-06,-0.00094182034534418,0.00094415683433923,-0.00097386934601739,0.00093990932518022,-0.00097635467972465,0.00097004692958854,-0.00095528003699517,0.0010251080837507,-0.00093710748917606,0.00094889217203169,-0.00096914257538048,0.00094462918975698,-0.00097163677571908,0.00097477535513263,-0.00099518023967455,0.00099745879978072,-0.00099678669345542,0.00099584920181939,-0.00099565360207092,0.00099212758078218,-0.00099726384745306,0.00099052166869267,-0.00097426669794539,0.00099787540543049,-0.0009634722730488,0.00096905600829059,-0.00096186928886669,0.00097066858584038,-0.00097265501599195,0.00099947911056354,-0.00096001238010381,0.001020392634175,0.84556057744222,122718,2924,0.0033489010918737,0.0054398698314612,0.0038052672887642,23.417035582701,0.00010253628466161,0.00010253628466161,0.00010253628466161,3857578.1097951,0.012673935066177
29391759,0.87811215777721,0.013364910819855,0.0038289672727007,0.0053217323505494,0.0042142111966048,-0.00082963119923229,0.00082300889592815,-1.332113229129e-05,-5.803649683482e-06,-1.8912575851733e-06,-6.2197904103865e-07,-0.00038462126848045,0.00035956540945803,-0.00089702572207668,0.00089148293146645,-0.00089265767561841,0.00090967759029977,-0.00040015323834097,0.00036206740269406,-0.00038584510307578,0.00035833252230914,-0.00089825091342741,0.0008902320495358,-0.00089388272452678,0.00090842633764833,-0.00098964559870372,0.00098122831945145,-0.00098588528142479,0.00098899958887007,-0.00098923272638237,0.00098165565391656,-0.00098547239793477,0.00098942700652217,-0.0007960944913756,0.00077064082154165,-0.00078489563238081,0.00076516311944894,-0.00079651043539447,0.00077022005344215,-0.00078531172296015,0.00076474248705676,-0.00039892943118568,0.00036330055932749,3.4034050284579e-07,-8.9448761314474e-07,-2.9329588305185e-06,2.3972046441723e-06,-0.0013735733242843,0.0013730359266245,-0.0013204297932922,0.0013255309243891,-0.0013186674203315,0.0013175532176774,-0.0013156432424566,0.0013121038373041,-0.0014071436344524,0.0014052497926839,-0.0014061160029659,0.0014077744491415,-0.0014070813481997,0.0014043600549808,-0.0014073974517626,0.0014082282545826,-0.0013262769509884,0.0013201089618574,-0.0013329916935903,0.0013372638237941,-0.0013174703369075,0.0013199068298089,-0.0013064381964071,0.0013064501604718,-0.0013232217732501,0.0013178819007049,4.2906428050082e-06,1.3007055418742e-05,-0.0009339228790415,0.00093461836156773,3.1263309322523e-06,-2.2149993287599e-06,-0.00095608430590144,0.00095899801729701,-0.00099705068376218,0.00095930282251511,-0.00099968994133437,0.0009927889061078,-0.00097188304722356,0.0010503838502206,-0.00095086664636006,0.00096424026657445,-0.0009918179247806,0.00096452796989542,-0.00099446699918265,0.00099802348338227,-0.001025611529246,0.0010282419706773,-0.0010273899602745,0.0010264599792404,-0.0010262308389457,0.0010222509392866,-0.0010280135340822,0.0010204730853978,-0.00099858597647139,0.001024711089313,-0.00098620885523098,0.00099267913251812,-0.00098443431671163,0.00099446443856072,-0.00099680165586604,0.0010264863819177,-0.0009771222110371,0.0010451636096996,0.64299206939106,122718,2924,0.0034384900710417,0.0057047509420053,0.0038855442405221,24.738669946701,0.00011310935957361,0.00011310935957361,0.00011310935957361,3642965.9843389,0.013114338870809
30391759,0.90878126575802,0.013720891384787,0.0039292291488969,0.0054751824329679,0.0043164798029219,-0.00084981393635921,0.00084291324548931,-1.380841635476e-05,-5.9915904903914e-06,-1.9798819547556e-06,-7.0818276035267e-07,-0.00040279700965281,0.00037743746039658,-0.00092195152813785,0.00091609255116527,-0.00091741245165012,0.00093472109894235,-0.000418838182407,0.00037975440730623,-0.00040402278024463,0.00037620227819415,-0.00092317912936519,0.00091483905818093,-0.00091863987281856,0.00093346719453598,-0.001013595399718,0.0010047297421048,-0.0010097075477118,0.001012929623611,-0.0010131814365213,0.0010051581166246,-0.0010092935766622,0.001013358089412,-0.00081211897058817,0.00078561502993829,-0.00080053868225343,0.00078009260699477,-0.00081253574216915,0.00078519344510151,-0.00080095561761151,0.00077967116150877,-0.00041761242262153,0.00038098987230005,3.2015142000023e-07,-9.1589461774324e-07,-3.0689934068515e-06,2.4917970786682e-06,-0.0014146392561372,0.0014140605098842,-0.0013549039860472,0.0013601901779372,-0.001352838668038,0.0013516065903747,-0.0013495854106063,0.0013459264609606,-0.0014560717429073,0.0014540602159473,-0.0014549804701644,0.0014566749775605,-0.001455970444278,0.0014531310655076,-0.0014563191063589,0.0014571855562824,-0.0013609009941294,0.0013544652632118,-0.0013673789584696,0.0013718353742635,-0.0013515786842034,0.001354050913173,-0.0013404300417279,0.0013404761421021,-0.0013578810363156,0.0013522741317401,4.4077374248483e-06,1.353556104771e-05,-0.00095454802213275,0.0009552443304629,3.2494344427145e-06,-2.3237491575781e-06,-0.00098131292713845,0.00098420107045424,-0.0010233820163972,0.00098469416941781,-0.0010261921056123,0.0010189342490523,-0.00099688163474529,0.0010767407559321,-0.00097586899329565,0.00098967047592234,-0.0010179222081587,0.00099014588172849,-0.0010207422935775,0.0010243955541355,-0.0010482043163504,0.0010508772849685,-0.0010500601059054,0.001049018176467,-0.001048679392283,0.0010445247900749,-0.0010505394490357,0.0010426698191037,-0.0010185679314887,0.0010460778381865,-0.0010061078661392,0.0010127312146473,-0.0010042561948719,0.0010145936833888,-0.0010167064042806,0.0010479302252476,-0.0010023477245733,0.001071294063373,0.55654009761524,122718,2924,0.0035217449539094,0.0058747368883702,0.0039711699232807,26.078675534381,0.00012382940427505,0.00012382940427505,0.00012382940427505,3726686.6853924,0.013457710287298
31391759,0.93460453246887,0.014093287347532,0.0040330710756552,0.0056353578538008,0.0044248584180761,-0.00087199328105486,0.00086460380261569,-1.4735769283224e-05,-6.4469817943552e-06,-2.1374446907824e-06,-7.749978448857e-07,-0.00040596258754646,0.00037857615884273,-0.00094789334819114,0.00094162126328791,-0.00094303570637964,0.00096156106218421,-0.00042311925306918,0.00038145944163967,-0.00040727625838583,0.00037725303270773,-0.0009492089633401,0.00094027860689132,-0.00094435113278905,0.00096021796626248,-0.0010422583359842,0.0010327607603503,-0.0010381104822974,0.0010415357240734,-0.0010418146063515,0.0010332196298925,-0.0010376667420624,0.0010419946925087,-0.00083284970932199,0.00080455643854198,-0.00082051676131622,0.00079867851946059,-0.00083329636534791,0.00080410479821707,-0.00082096359696235,0.00079822703440894,-0.00042180561307978,0.00038278288798621,3.4286557702933e-07,-9.8154263504729e-07,-3.2406855950665e-06,2.621567886905e-06,-0.0014624277179261,0.0014618069881161,-0.0013993873676745,0.0014049566574441,-0.0013990108074725,0.0013977224123396,-0.0013955368744568,0.0013916480680527,-0.0015052935029895,0.0015031694964584,-0.0015041357440854,0.0015059185922018,-0.0015051914402762,0.0015021804529701,-0.0015055227267091,0.0015064183622648,-0.0014057113931892,0.0013989089789864,-0.0014125497829914,0.0014172301502922,-0.0013976960156217,0.0014003125375365,-0.0013857134394065,0.0013857303940876,-0.0014025201126193,0.0013966055652463,4.7142210728282e-06,1.4339926729537e-05,-0.00097534817503336,0.00097615099909028,3.4484871037449e-06,-2.427523900187e-06,-0.0010036908691375,0.0010068742658163,-0.0010487749732169,0.0010079088547834,-0.0010517137197785,0.001044084995652,-0.0010204577681637,0.0011052317431941,-0.0009979509596889,0.0010126407064315,-0.0010430185733859,0.0010136567412551,-0.0010459677696738,0.0010498428811131,-0.0010732175731652,0.0010760718659569,-0.0010751742052407,0.0010741117879672,-0.0010737260202397,0.001069333464873,-0.0010756871325373,0.0010673777244461,-0.0010431045015834,0.0010723023388677,-0.0010297873520428,0.0010368897676432,-0.0010278350550295,0.0010388533522813,-0.0010411418495912,0.0010742553092773,-0.0010262208669315,0.0010994891066257,0.69215549466537,122718,2924,0.0036129363938379,0.0060724745533349,0.0040577586047802,28.365078060352,0.00014212062448281,0.00014212062448281,0.00014212062448281,3661416.7710011,0.013838384611096
32391759,0.954083369387,0.014415581361487,0.0041235284415664,0.0057734380567813,0.004518614863139,-0.00088469371804773,0.00087662698509945,-1.6308639248829e-05,-7.0924890407163e-06,-2.3730387424058e-06,-7.9866203348595e-07,-0.00037894940173906,0.00034738453511334,-0.0009613238844473,0.00095449652826801,-0.00095586832707405,0.00097715996786112,-0.00039830327283721,0.00035178055907248,-0.0003804688523021,0.00034585596250111,-0.00096284504694373,0.00095294579026067,-0.00095738929090221,0.00097560873963789,-0.0010671020439911,0.0010567267774792,-0.0010624646642015,0.0010663572519664,-0.0010665895284703,0.0010572566143199,-0.0010619521339299,0.0010668871965997,-0.00084574941826328,0.00081457585239661,-0.00083200586420286,0.00080812561955401,-0.00084626574411337,0.00081405402337569,-0.00083252240311577,0.00080760399448614,-0.00039678390301081,0.00035330953838007,4.2389693817234e-07,-1.1077228109656e-06,-3.4945866966129e-06,2.8328165602744e-06,-0.0015081808359249,0.0015075171930151,-0.0014439408410143,0.0014499926428762,-0.0014483759643812,0.0014470926972434,-0.0014446757182738,0.0014403839271664,-0.001546900356448,0.0015446487123216,-0.0015456580728987,0.0015476230184583,-0.0015468795172945,0.001543601588352,-0.0015471342328044,0.0015480726051401,-0.0014508338702494,0.0014434640990128,-0.0014582951219476,0.001463319210835,-0.0014470150914949,0.0014499459785419,-0.0014332084243755,0.0014331318062625,-0.0014472265561397,0.0014408832543272,5.357932015354e-06,1.5627830796779e-05,-0.00098097198495855,0.00098198255170569,3.7944070000831e-06,-2.548909641685e-06,-0.0010017200301247,0.0010057164100395,-0.0010568078481959,0.0010119011063303,-0.0010598165631453,0.0010517524938269,-0.0010215314866929,0.0011159762535534,-0.00099552306008731,0.001011941508899,-0.001050593765924,0.0010181062524039,-0.0010536138290269,0.001057968434253,-0.0010896344631089,0.0010929258035536,-0.0010917465544752,0.0010908096494284,-0.0010904140480946,0.0010855710099594,-0.0010925311497131,0.0010834596973369,-0.0010562805405486,0.0010876229752935,-0.0010410618524152,0.0010492181661193,-0.0010389544297087,0.0010513381718836,-0.0010541615974919,0.0010897311147105,-0.0010277533318263,0.0011097767587796,0.79325035118638,122718,2924,0.0036645074808501,0.006261638216839,0.0040816418624775,29.295717419299,0.00014956573935439,0.00014956573935439,0.00014956573935439,3356314.3744441,0.014106767246348
33391759,0.96785610049429,0.014650544991501,0.0041914654765009,0.0058721894294338,0.0045868900855661,-0.00089177560605331,0.00088325443462517,-1.7460431522341e-05,-7.4750085173677e-06,-2.5342292560445e-06,-8.207962032642e-07,-0.00036211806270896,0.00032779781789183,-0.00096984184922231,0.00096257081599086,-0.00096391966632389,0.00098722413716112,-0.00038315249872394,0.00033315967408011,-0.00036377238103699,0.00032613457277039,-0.0009714978827647,0.00096088350230436,-0.00096557546515341,0.00098553626942905,-0.0010824586014294,0.0010714265781088,-0.0010774513910032,0.001081737962564,-0.0010819010288872,0.0010720030183121,-0.0010768938040236,0.0010823145196232,-0.00085216948178214,0.00081885875362817,-0.00083735121314812,0.00081209603494435,-0.00085273147596518,0.0008182908889983,-0.00083791345631195,0.00081152841556767,-0.00038149828461843,0.00033482339986111,4.7511784709082e-07,-1.1918575103611e-06,-3.6962944895938e-06,3.0034231662217e-06,-0.0015399260232702,0.0015392311223482,-0.0014737799486822,0.0014802108763417,-0.0014813727042846,0.001480066616654,-0.0014774712333592,0.0014728900268248,-0.0015773148898937,0.001574954001435,-0.0015760012014694,0.0015781048087618,-0.0015773568265104,0.0015738785773779,-0.0015775695297733,0.0015785554416624,-0.0014810840098201,0.001473273300676,-0.0014887060781517,0.0014940185956308,-0.0014799732205701,0.0014831287461978,-0.0014649161783922,0.0014647977554453,-0.001477215622316,0.0014705219233835,5.8482668047092e-06,1.6634070130222e-05,-0.0009811593561853,0.00098229914946299,4.0675414440725e-06,-2.6501097570809e-06,-0.00099693153344687,0.0010015242312557,-0.0010599879976319,0.001012137780813,-0.0010630748498082,0.0010546599363634,-0.0010186863338964,0.00111980404339,-0.00099036850834031,0.001008116621582,-0.0010534073261284,0.0010187091630069,-0.0010565061466541,0.0010612426521754,-0.0010978462990763,0.0011014726026655,-0.0011000829743185,0.0010992315096083,-0.0010987821595394,0.0010935519551163,-0.0011010241960772,0.0010913160360115,-0.0010611861781595,0.0010942542500595,-0.0010446878479306,0.0010536441853579,-0.0010424561366594,0.0010558893842008,-0.0010589421527444,0.0010964867319256,-0.0010252754292624,0.0011132385644779,0.81381076464073,122718,2924,0.0036931268408122,0.0063928469732574,0.0040827895807387,29.275781191109,0.00014940624952887,0.00014940624952887,0.00014940624952887,3149048.8410925,0.014270072305989
34391759,0.97842087554483,0.014812645277998,0.0042392172053484,0.0059395067960029,0.0046339212766465,-0.00090082612151136,0.0008920182933444,-1.8162562156816e-05,-7.7096729197392e-06,-2.6431678253335e-06,-8.5977362285529e-07,-0.00036040430280308,0.000324588788298,-0.00098062322967433,0.00097304084884356,-0.00097441753804669,0.00099881843716231,-0.00038242682590318,0.00033044449157823,-0.00036212636997678,0.00032285784067257,-0.00098234718858438,0.00097128474921654,-0.00097614122821838,0.00099706173256341,-0.0010960741936182,0.0010846011594906,-0.0010908498277911,0.0010953904793433,-0.0010954939351834,0.0010852011241186,-0.0010902695561416,0.001095990567805,-0.00085979047297931,0.00082513951275164,-0.00084433850928163,0.00081824435141634,-0.00086037545089689,0.00082454848387863,-0.0008449237651539,0.0008176535947359,-0.00038070487562438,0.00033217597346144,4.9529890894726e-07,-1.2393912493e-06,-3.8314334497909e-06,3.1121834838128e-06,-0.0015649606197835,0.0015642392929798,-0.0014960774712174,0.0015027437893536,-0.0015057788884675,0.0015044311685211,-0.001501732894295,0.0014969768548974,-0.0016035790224837,0.0016011335777484,-0.0016022125342869,0.0016043940171879,-0.001603649239397,0.0016000408972444,-0.0016038475184197,0.0016048657398622,-0.0015036092923296,0.0014955106967993,-0.0015111299525824,0.001516632492802,-0.0015043484501176,0.0015076244857966,-0.0014886836531411,0.00148855263963,-0.0014996348525542,0.0014926985327348,6.1260878405526e-06,1.7282278013004e-05,-0.00098537043881231,0.00098657926052132,4.239858369911e-06,-2.7231785499152e-06,-0.0010002113453208,0.0010051005100462,-0.0010673347940815,0.0010178266008236,-0.0010705023475165,0.00106182385837,-0.0010228414687822,0.0011275545004769,-0.00099340849791487,0.0010119335583838,-0.0010605138463361,0.0010246379735465,-0.0010636937056789,0.0010686468554405,-0.0011063091865993,0.001110116540589,-0.0011086275705822,0.0011077936244978,-0.0011072723154182,0.0011017962607486,-0.0011095962367505,0.0010994786851723,-0.0010674822974048,0.0011017753171906,-0.0010503619298725,0.0010597626698666,-0.001048048734758,0.0010620898384717,-0.0010651563639903,0.0011040893167616,-0.0010296711291717,0.0011207491925106,0.7296115327816,122718,2924,0.0037301791818409,0.0064963387058715,0.0041004726677001,31.398393345196,0.00016638714676157,0.00016638714676157,0.00016638714676157,3029683.9536829,0.014430592805904
35391759,0.98681418643626,0.014928631355553,0.0042737010463918,0.0059873113200209,0.0046676189891402,-0.00091432020673383,0.00090537775114647,-1.8381968521695e-05,-7.8242535241073e-06,-2.696504044807e-06,-9.1596875223685e-07,-0.0003749860029842,0.00033895826425974,-0.0009963804082382,0.00098864082452974,-0.00099010243734035,0.0010145848284969,-0.00039721128683328,0.00034481242779968,-0.00037670510589629,0.00033723018561174,-0.00099810168856682,0.00098688743034933,-0.00099182343809495,0.0010128308167786,-0.0011103751568534,0.0010986940289098,-0.0011051044317009,0.0011097099180033,-0.0011097956838035,0.0010992931696225,-0.0011045249418969,0.0011103091811218,-0.00087151419949174,0.00083638397863913,-0.00085592331000832,0.00082947513320874,-0.00087209826550403,0.00083579388695473,-0.00085650767802796,0.00082888532983833,-0.00039549231333411,0.00034654107544607,4.8309224580388e-07,-1.2481988509722e-06,-3.8890027910447e-06,3.1487486829225e-06,-0.0015860809062991,0.0015853386370512,-0.001514155536047,0.0015208920443903,-0.0015245710105682,0.001523167229083,-0.0015204345756567,0.0015156295450186,-0.0016278560610232,0.0016253572451968,-0.0016264601584128,0.0016286510393605,-0.00162791159237,0.0016242522843825,-0.0016281224302839,0.0016291524486508,-0.0015217262221567,0.0015135155190304,-0.0015290322140173,0.0015346072417337,-0.001523117404831,0.0015264000608271,-0.0015074712115759,0.0015073539261536,-0.0015177934329805,0.0015107426743891,6.1641292674849e-06,1.7552415525542e-05,-0.00099748491090189,0.00099870952578685,4.2977837995549e-06,-2.7601405693167e-06,-0.0010159932124091,0.001020848217014,-0.0010826951746893,0.0010328690695836,-0.0010859457149037,0.0010771053693552,-0.001038446629206,0.0011436838987206,-0.0010090978695506,0.0010277741486911,-0.0010757813576991,0.0010397731033615,-0.0010790442504156,0.001084021067201,-0.0011183636782788,0.001122176893048,-0.0011207137205647,0.0011198224511371,-0.0011192258371619,0.0011136807781057,-0.0011215814033952,0.001111331663567,-0.0010795349154439,0.0011145363456153,-0.0010624573601866,0.0010719020909346,-0.0010601126284791,0.0010742607989615,-0.0010771774295843,0.0011168818715078,-0.0010453690530245,0.0011367860140814,0.65593630488581,122718,2924,0.0037859108767651,0.0065837046079602,0.0041507880672871,35.851114312918,0.00020200891450334,0.00020200891450334,0.00020200891450334,3014200.8277204,0.014626816490731
36391759,0.99225471844806,0.015007394813755,0.004297096478924,0.0060196817091771,0.0046906166256542,-0.00092135202133787,0.00091230148040454,-1.8533410825932e-05,-7.9285319576657e-06,-2.7385466066144e-06,-9.5795402298086e-07,-0.00038153350126651,0.00034522835767117,-0.0010047525107127,0.00099690334598953,-0.00099843505114321,0.0010229830214559,-0.00040386849213252,0.00035114992467755,-0.00038325272132894,0.00034350017157061,-0.0010064739914916,0.00099514990030837,-0.0010001562393111,0.0010212289452574,-0.0011178433014892,0.0011060211168483,-0.0011125414834406,0.0011171811599447,-0.0011172636189895,0.0011066203122781,-0.0011119617880359,0.0011177804825476,-0.00087780199294817,0.00084234794704622,-0.00086212283963034,0.00083540808076253,-0.00087838615425027,0.00084175781989649,-0.00086270730136931,0.00083481823765829,-0.00040214939499867,0.00035287868211275,4.7696452825439e-07,-1.2543325632345e-06,-3.9185202414268e-06,3.1658891492587e-06,-0.0015976902422018,0.0015969356354793,-0.0015241782756463,0.001530948131226,-0.0015350907742317,0.0015336589853249,-0.0015309099045715,0.0015260770922648,-0.001640946415778,0.001638419674389,-0.0016395338378874,0.0016417278583889,-0.0016409896466571,0.0016373026056742,-0.0016412019700646,0.0016422353163025,-0.0015317760054397,0.0015235072088693,-0.0015390648038877,0.0015446732491294,-0.0015336232589532,0.0015369089667095,-0.0015179477233629,0.0015178337347563,-0.0015278559906424,0.0015207470510152,6.1879661028598e-06,1.7693442807445e-05,-0.0010040350782126,0.0010052784203785,4.3273743862357e-06,-2.7775336585655e-06,-0.0010247053749181,0.0010295535563291,-0.0010910093915955,0.0010409761708716,-0.0010943050696311,0.001085380504345,-0.0010471607949223,0.0011528722922162,-0.0010177640597893,0.0010365254458796,-0.0010840495921847,0.0010479261304142,-0.001087357586313,0.0010923420876246,-0.0011246569023566,0.0011284709055451,-0.0011270226257056,0.0011261008772684,-0.0011254659802715,0.0011198945187582,-0.0011278371912498,0.001117529781688,-0.0010862820054467,0.0011216598012995,-0.0010691885899052,0.0010786640175205,-0.0010668281867458,0.0010810382966875,-0.001083908915023,0.0011240209639626,-0.0010541291745089,0.0011459284511957,0.68699515304475,122718,2924,0.0038148806913198,0.0066317215380947,0.0041780105760812,37.529917595317,0.00021543934076254,0.00021543934076254,0.00021543934076254,3016291.1677438,0.014732558976984
37391759,0.99546589180015,0.015053415347116,0.0043107624865208,0.0060386005272084,0.0047040523333872,-0.00092272390740563,0.00091350114930729,-1.8955686846527e-05,-8.0951020659952e-06,-2.8053355381692e-06,-9.6766976121619e-07,-0.00037269120798771,0.00033508752324253,-0.0010056022613581,0.00099758903105454,-0.00099912000349752,0.0010244978742846,-0.00039563458513315,0.0003415514505299,-0.00037446607563936,0.00033330397692228,-0.0010073792266095,0.00099577965667163,-0.0010008966730071,0.0010226878538623,-0.0011220802615366,0.0011100352678348,-0.0011166397164382,0.0011214304783247,-0.0011214820179167,0.0011106535189611,-0.0011160414579897,0.0011220488575966,-0.00087956384543156,0.00084334602026314,-0.00086349187428786,0.00083627241232799,-0.00088016681601183,0.00084273697384645,-0.00086409515802981,0.00083566366953886,-0.00039385985900061,0.00034333559928608,5.014861626582e-07,-1.2858745287386e-06,-3.9754874244827e-06,3.2163672556579e-06,-0.0016053930273795,0.0016046318661045,-0.0015319933872605,0.0015388807302788,-0.0015443461490696,0.0015429271798923,-0.0015401310576373,0.0015352005665623,-0.0016470809225837,0.0016445307452773,-0.0016456494077573,0.001647891514961,-0.0016471530443115,0.0016434049112786,-0.0016473379965772,0.0016483817538241,-0.001539735282655,0.0015313360884269,-0.0015472280140634,0.0015529164674689,-0.0015428738048381,0.0015462436649794,-0.0015266596749765,0.0015265193902564,-0.0015356924598573,0.0015284905473285,6.3747743099086e-06,1.7992158746365e-05,-0.0010022227346834,0.001003524100704,4.4136919550125e-06,-2.799236354399e-06,-0.0010190978764849,0.0010242134991805,-0.0010889900522372,0.0010378782717902,-0.0010922885454523,0.0010832875398374,-0.0010425126126252,0.001150903505405,-0.0010120506482569,0.0010312912758928,-0.001081924503417,0.0010449339984846,-0.0010852354333515,0.0010903549784671,-0.0011260910055777,0.001130034087326,-0.0011284926726922,0.0011276279618813,-0.0011269919606845,0.0011213028052749,-0.0011293992199759,0.0011189020677484,-0.0010862153759492,0.0011219940593503,-0.0010685685283356,0.0010783565260006,-0.0010661722100116,0.0010807669435935,-0.0010838061657425,0.0011243911264842,-0.0010495870090932,0.0011438539191439,0.68009907945379,122718,2924,0.0038202864736514,0.006663528648755,0.004170652523348,37.635794683195,0.00021628635746556,0.00021628635746556,0.00021628635746556,2925663.7912286,0.014762874493928
38391759,0.99732004499348,0.01508147025247,0.0043191486793443,0.0060500524083187,0.0047122691648068,-0.00092242791301948,0.00091314526651523,-1.9116588211884e-05,-8.1307851099262e-06,-2.8265443479544e-06,-9.7614112482349e-07,-0.00036989551968064,0.00033198178705607,-0.0010056463522118,0.00099755762595252,-0.00099909446475755,0.0010247215830999,-0.00039307807137762,0.00033853671215482,-0.00037168269945339,0.0003301859587239,-0.0010074356748811,0.0009957357517351,-0.0010008834793821,0.0010228990470688,-0.0011228098998748,0.0011106683146647,-0.001117315220576,0.0011221676431705,-0.0011222075221669,0.0011112908455559,-0.0011167128305621,0.0011227903057642,-0.00087906888814976,0.00084254562443839,-0.00086283871363366,0.00083545627886043,-0.00087967604017877,0.00084193236658245,-0.00086344618180223,0.00083484332701994,-0.0003912910328782,0.0003403331533757,5.0527798148586e-07,-1.2943653243061e-06,-4.0044980196507e-06,3.2408610977207e-06,-0.0016084165588883,0.0016076508717107,-0.0015345704874659,0.0015415098787315,-0.0015473804693733,0.001545951152912,-0.0015431314013814,0.0015381663884209,-0.0016501810355762,0.0016476127301135,-0.0016487382904214,0.0016509978753436,-0.0016502607442063,0.0016464861933302,-0.0016504420613723,0.0016514949990724,-0.0015423620568433,0.0015339018300687,-0.0015498265159799,0.0015555587838508,-0.001545902515499,0.0015492975751165,-0.0015295413731476,0.0015294021381792,-0.0015382945694711,0.0015310398338303,6.4473010002177e-06,1.81314148011e-05,-0.001000744590131,0.0010020624546517,4.4534160128698e-06,-2.813374399649e-06,-0.001017221786093,0.0010224255267352,-0.0010881550694517,0.0010366627934626,-0.0010914637959566,0.0010824148258588,-0.0010408627270579,0.001150053653126,-0.0010101218688229,0.0010295561304971,-0.0010810367754519,0.0010437712162555,-0.0010843579992076,0.0010895350098194,-0.001125625699895,0.0011296181099112,-0.0011280453008207,0.0011271940270076,-0.0011265413753325,0.0011207929650014,-0.0011289666016122,0.0011183743012976,-0.0010853058994951,0.0011213319313468,-0.0010674982180235,0.0010774059829896,-0.0010650840013574,0.0010798343884983,-0.0010828787129281,0.0011237469020058,-0.0010479899348743,0.0011429513812379,0.71704436579938,122718,2924,0.0038189519725166,0.0066760102288064,0.0041645700267976,37.194807562811,0.00021275846050249,0.00021275846050249,0.00021275846050249,2899534.4718453,0.014768019377575
38880000,0.99799694658896,0.015092096550896,0.004322329935653,0.006054380408379,0.004715386206864,-0.00092218961045467,0.00091283792559563,-1.9325346244591e-05,-8.1936001828321e-06,-2.8537853365345e-06,-9.7110860253489e-07,-0.0003646034716152,0.00032605773130088,-0.0010050010228488,0.00099684167445037,-0.00099835953081568,0.0010244443305277,-0.00038812185573367,0.00033288301981356,-0.00036642207785209,0.00032423061011809,-0.0010068216849119,0.00099498814533055,-0.0010001798820601,0.0010225901299921,-0.0011240425990209,0.0011118020109782,-0.0011184746639321,0.0011234110871848,-0.0011234297899605,0.0011124353195175,-0.0011178618409494,0.0011240445270811,-0.00087908684146933,0.00084219357154081,-0.00086264709616668,0.00083504515014472,-0.00087970460312931,0.0008415696208225,-0.00086326518388797,0.00083442151871576,-0.00038630340280105,0.00033471077505518,5.2013408555334e-07,-1.3111347386748e-06,-4.0342560289576e-06,3.2690723998786e-06,-0.0016110486984105,0.0016102814212821,-0.0015374588334006,0.0015444640468653,-0.0015509288002197,0.001549509689787,-0.001546664215889,0.0015416470270822,-0.0016518342701782,0.0016492557727657,-0.0016503827792552,0.0016526707587735,-0.0016519340399135,0.0016481280045559,-0.0016521019302144,0.0016531619591406,-0.001545329209529,0.0015368001224855,-0.0015528689167167,0.0015586458361589,-0.0015494498874784,0.0015528936231604,-0.0015328036540145,0.0015326507411382,-0.0015411939751285,0.0015338915193265,6.5504017983142e-06,1.8286576157146e-05,-0.00099862003067411,0.00099996425849347,4.5002653755797e-06,-2.8248260922777e-06,-0.0010127273362424,0.0010180809035876,-0.0010857749772033,0.0010337083184716,-0.0010890806431241,0.0010799973569526,-0.0010368664522209,0.0011474389091263,-0.0010055702893173,0.0010252686882145,-0.0010785996027435,0.0010408738261077,-0.0010819178529107,0.0010871746944553,-0.0011253942391513,0.0011294616089586,-0.0011278332343711,0.0011270180315727,-0.0011263670611555,0.00112054797123,-0.0011288117511686,0.0011181098783032,-0.001084065458609,0.0011202822832658,-0.0010659643561349,0.0010760452608382,-0.0010635307757499,0.0010784931957092,-0.0010816187669683,0.0011227166272958,-0.0010440508897076,0.0011402795798106,0.74364572121898,122718,2924,0.0038178531119748,0.006686868282049,0.0041558339487526,37.19361980028,0.00021274895840224,0.00021274895840224,0.00021274895840224,2846225.2901137,0.014769067694531
