time,ASR_ext,ASR_strain,ASR_strain_xx,ASR_strain_yy,ASR_strain_zz,disp_x_101,disp_x_102,disp_x_103,disp_x_104,disp_x_105,disp_x_106,disp_x_p10_neg,disp_x_p10_pos,disp_x_p11_neg,disp_x_p11_pos,disp_x_p12_neg,disp_x_p12_pos,disp_x_p13_neg,disp_x_p13_pos,disp_x_p14_neg,disp_x_p14_pos,disp_x_p15_neg,disp_x_p15_pos,disp_x_p16_neg,disp_x_p16_pos,disp_x_p1_neg,disp_x_p1_pos,disp_x_p2_neg,disp_x_p2_pos,disp_x_p3_neg,disp_x_p3_pos,disp_x_p4_neg,disp_x_p4_pos,disp_x_p5_neg,disp_x_p5_pos,disp_x_p6_neg,disp_x_p6_pos,disp_x_p7_neg,disp_x_p7_pos,disp_x_p8_neg,disp_x_p8_pos,disp_x_p9_neg,disp_x_p9_pos,disp_y_101,disp_y_102,disp_y_103,disp_y_104,disp_y_105,disp_y_106,disp_y_p10_neg,disp_y_p10_pos,disp_y_p11_neg,disp_y_p11_pos,disp_y_p12_neg,disp_y_p12_pos,disp_y_p1_neg,disp_y_p1_pos,disp_y_p2_neg,disp_y_p2_pos,disp_y_p3_neg,disp_y_p3_pos,disp_y_p4_neg,disp_y_p4_pos,disp_y_p5_neg,disp_y_p5_pos,disp_y_p6_neg,disp_y_p6_pos,disp_y_p7_neg,disp_y_p7_pos,disp_y_p8_neg,disp_y_p8_pos,disp_y_p9_neg,disp_y_p9_pos,disp_z_101,disp_z_102,disp_z_103,disp_z_104,disp_z_105,disp_z_106,disp_z_p10_neg,disp_z_p10_pos,disp_z_p11_neg,disp_z_p11_pos,disp_z_p12_neg,disp_z_p12_pos,disp_z_p13_neg,disp_z_p13_pos,disp_z_p14_neg,disp_z_p14_pos,disp_z_p15_neg,disp_z_p15_pos,disp_z_p16_neg,disp_z_p16_pos,disp_z_p1_neg,disp_z_p1_pos,disp_z_p2_neg,disp_z_p2_pos,disp_z_p3_neg,disp_z_p3_pos,disp_z_p4_neg,disp_z_p4_pos,disp_z_p5_neg,disp_z_p5_pos,disp_z_p6_neg,disp_z_p6_pos,disp_z_p7_neg,disp_z_p7_pos,disp_z_p8_neg,disp_z_p8_pos,disp_z_p9_neg,disp_z_p9_pos,humidity,ndof,nelem,strain_xx,strain_yy,strain_zz,temp,thermal_strain_xx,thermal_strain_yy,thermal_strain_zz,vonmises,vstrain
14391759,0,0,0,0,0,0,0,0,0,0,0,0,0,0,0,0,0,0,0,0,0,0,0,0,0,0,0,0,0,0,0,0,0,0,0,0,0,0,0,0,0,0,0,0,0,0,0,0,0,0,0,0,0,0,0,0,0,0,0,0,0,0,0,0,0,0,0,0,0,0,0,0,0,0,0,0,0,0,0,0,0,0,0,0,0,0,0,0,0,0,0,0,0,0,0,0,0,0,0,0,0,0,0,0,0,0,0,0,0,0,0,0,0,0,0,0,0,0,0,0,0,0,0
15391759,0.10000914695534,0.0016820599779387,0.0005606866593129,0.0005606866593129,0.0005606866593129,-0.00015798701733626,0.00015796175364536,1.0512933561324e-06,-1.0764594918172e-06,3.4065901732609e-08,-6.0729506001319e-08,-0.00014155086532638,0.00013934918635893,-0.00015827558911578,0.00015886432482723,-0.00015898323502795,0.00015815483157033,-0.00013937253784419,0.00014152673644347,-0.00014146192548356,0.00013944631405104,-0.00015818066849893,0.00015895761280097,-0.00015889258596718,0.00015824996661434,-0.00016411312544629,0.00016482866045352,-0.00016482353691941,0.00016412032645872,-0.00016414423096366,0.00016479759373455,-0.00016485318676216,0.00016408822427407,-0.00015318682831123,0.00015521300893938,-0.00015526983115097,0.00015312999069531,-0.00015315370208916,0.00015524428293026,-0.00015524074554208,0.00015316336091235,-0.00013947182580502,0.00014143289902193,-3.068170768161e-08,6.4218636845215e-08,3.7283648561458e-07,-3.4026451180211e-07,-0.00017095539768789,0.00017098783769508,-0.00017061599351954,0.00016991805907744,-0.00016739181686084,0.00016756725690136,-0.00016729886388054,0.00016766272935157,-0.00017059635504053,0.0001708316389341,-0.00017082552536872,0.00017059218972252,-0.00017056590211167,0.00017086344144068,-0.00017079529545841,0.00017062396884629,-0.00016989420979539,0.00017065758521329,-0.00017058453971977,0.00016994961024993,-0.00016762612601759,0.00016732929952748,-0.000167534243261,0.00016742368832811,-0.00016992521768395,0.00017062554598562,-9.4509026622255e-07,1.1826906048103e-06,-0.00015838430123188,0.00015862314362598,-2.2908743970021e-07,4.7744180591402e-07,-0.00015292145602411,0.00015178169895935,-0.00014929090204639,0.00015094125191462,-0.00015000012645195,0.00015023202221428,-0.00015153872931735,0.00015316435230518,-0.00015362410657666,0.00015108045152016,-0.00014998629573492,0.00015024656765389,-0.00015069628329145,0.00014953719975525,-0.00016471285198114,0.00016400501430634,-0.00016447807068673,0.00016423982369843,-0.00016400350105647,0.00016471423000357,-0.000163768786258,0.00016494882749423,-0.00016227248215956,0.00016482890333534,-0.00016435552105737,0.0001627459413702,-0.00016459249770957,0.00016250819314956,-0.00016250851484457,0.00016459189541417,-0.00015083933817546,0.00015386482759236,0.76481422721799,132672,2954,0.00065801111025729,0.00071212664176752,0.00066021407556087,27.13841691255,0.0001323073353004,0.0001323073353004,0.0001323073353004,1390864.5645347,0.0020324172910932
16391759,0.188329791531,0.003173882702198,0.0010361495939757,0.0011016715708887,0.0010360615373336,-0.00026145034338447,0.00026143273863485,9.6259637070541e-07,-9.8025942380231e-07,1.167963971995e-09,-1.9936649679273e-08,-0.00022664790529612,0.00022470931130526,-0.00026753849030966,0.00026814567787028,-0.00026818363367924,0.00026749816388876,-0.00022472380652499,0.0002266316441443,-0.00022663538202055,0.00022473533946877,-0.00026751365646447,0.00026816381666943,-0.00026816612844045,0.00026751987056206,-0.00027612573473848,0.00027676349848594,-0.000276774283001,0.00027611635161657,-0.00027613374488975,0.00027675724860838,-0.00027678041714207,0.00027610881391755,-0.00025329939006608,0.00025517626765011,-0.00025519880401935,0.00025327180247664,-0.00025329013879553,0.00025518267926278,-0.00025519489607602,0.00025328145762357,-0.00022475381107508,0.00022661337177083,5.3975879954203e-11,2.1650448807381e-08,4.2750605028829e-07,-4.0544364572777e-07,-0.00029860507341606,0.00029862667386755,-0.00029874841215353,0.00029794894048603,-0.00028932237872325,0.00028959814737187,-0.00028930123723834,0.00028962117472847,-0.00029918463689559,0.00029947358764715,-0.00029945305673803,0.00029919232121383,-0.00029917749752266,0.00029948119044954,-0.00029944644021444,0.00029919981055557,-0.00029793867591978,0.00029878396572628,-0.00029874209787901,0.00029795565998111,-0.00028959507646296,0.00028931955113567,-0.00028957540213643,0.00028934019366853,-0.00029794544649702,0.00029877566931604,-7.1887984469148e-07,1.2241019838557e-06,-0.00026159616448668,0.00026210202600567,-1.507675937336e-07,6.7121486825856e-07,-0.00025197427902963,0.0002514006417026,-0.0002433751469948,0.00024534751941555,-0.0002440232723242,0.00024469946968142,-0.00025088740746888,0.00025248686116689,-0.00025279164390512,0.00025058544131055,-0.00024418271314628,0.00024454147091014,-0.00024483130743726,0.00024389464029246,-0.00027696823277493,0.00027654799806961,-0.00027669491484899,0.00027682101601671,-0.00027632053446591,0.00027719560851694,-0.00027604708725744,0.00027746848040481,-0.00027584434232912,0.00027852677670704,-0.00027774620687987,0.00027662443157019,-0.0002780224909438,0.00027634688281174,-0.00027612002945453,0.00027824964216008,-0.00025007266964724,0.00025330392436809,0.78819745788922,132672,2954,0.0010887568403398,0.0012434518476296,0.0010904462144816,24.452698970156,0.00011082159176125,0.00011082159176125,0.00011082159176125,1995007.9386237,0.0034285271547466
17391759,0.26722631110349,0.0044500201794536,0.0014351782659215,0.0015824403047105,0.0014324016088216,-0.00034727534607092,0.00034734258503531,1.9965321171331e-06,-1.9295663592315e-06,-1.1411806104148e-07,1.8535840099756e-07,-0.00028350304299789,0.00028002863977285,-0.00036081257829087,0.00036248564592373,-0.00036211794174981,0.00036117442843753,-0.00027995428421179,0.00028356767484279,-0.00028380822564066,0.00027974076231363,-0.00036110045966814,0.00036218113571299,-0.0003624131333148,0.00036088117414402,-0.00037192243472913,0.0003731992630082,-0.00037323251350173,0.00037189145185451,-0.00037182764709484,0.00037330109375691,-0.00037313534832492,0.00037199078662347,-0.0003320370642821,0.00033604845736184,-0.00033587953464011,0.00033220140575264,-0.00033213254826071,0.00033594494871414,-0.0003359823229916,0.00033210373065631,-0.00027966993634717,0.00028388039000548,9.7136150924319e-08,-2.017159243424e-07,7.2058326305072e-07,-8.2155178606576e-07,-0.00041318524927777,0.00041308464034715,-0.00041320742598625,0.00041169435301432,-0.00039326041535872,0.000393964595647,-0.00039355351510501,0.00039366678885879,-0.00041586680742403,0.00041637398284779,-0.00041636414068564,0.0004158542490301,-0.00041596244971203,0.00041627374186465,-0.00041645997256674,0.00041575506940378,-0.00041181273213875,0.00041312237454599,-0.00041330533038329,0.00041159309697995,-0.00039377012788696,0.00039344857665505,-0.00039405891644669,0.00039315126765153,-0.00041171256753428,0.00041322223765064,-1.5826817731874e-06,2.3436412142275e-06,-0.00034661857779328,0.00034738120224185,-3.6996548221939e-07,1.1551982825451e-06,-0.00033207809556157,0.00033051706724582,-0.00031505702195114,0.00031864453937354,-0.00031636612647222,0.00031733466548786,-0.00032974296199637,0.00033284751732228,-0.00033359020549284,0.00032900230206688,-0.00031655376618825,0.00031714499471162,-0.00031786291573096,0.00031583519367763,-0.00037364674019065,0.00037258682140393,-0.00037313986884524,0.00037309352836975,-0.00037233877769734,0.0003738959486406,-0.00037183138516408,0.000374402087634,-0.00037012912868528,0.00037524378903969,-0.00037397291297108,0.00037139986996675,-0.00037448608985458,0.00037088706250582,-0.00037064140307146,0.00037473183627205,-0.00032823424138258,0.0003343624977368,0.75884216173952,132672,2954,0.001446106307678,0.0017198928575126,0.0014447998186904,22.118437637559,9.214750110047e-05,9.214750110047e-05,9.214750110047e-05,2518966.4354793,0.0046214668326302
18391759,0.32400895654543,0.005334236297815,0.0017072549269621,0.0019267009594026,0.0017002804114504,-0.00039998057831052,0.00040007555145208,2.5392062269238e-06,-2.4442576305442e-06,-1.461825699058e-07,2.4649009807914e-07,-0.00031485605471246,0.00031046433452892,-0.00041957178764234,0.00042171410298793,-0.00042122212015381,0.00042004716551884,-0.00031035324885227,0.00031494535809673,-0.00031526212922752,0.00031009622180782,-0.00041994279258213,0.00042130995059376,-0.00042161299439073,0.00041966580914527,-0.00043252805760955,0.00043415364183965,-0.00043419180304046,0.00043249563313531,-0.00043240438498011,0.00043428750259949,-0.00043406351618623,0.00043262558696351,-0.00037892363659377,0.00038402509791158,-0.00038379970060699,0.00037914392969975,-0.000379040627527,0.00038388825154284,-0.00038393282670641,0.00037901694401269,-0.00031000298428706,0.00031536738252956,1.0925587539282e-07,-2.8236234642536e-07,1.1898488462977e-06,-1.3576825072449e-06,-0.0004885148014925,0.00048834763241514,-0.00048608739690387,0.00048355509600104,-0.00045815994738671,0.0004592158870226,-0.00045854551852511,0.00045883087048819,-0.00049525657258688,0.00049605986709034,-0.00049607936659281,0.00049520190344126,-0.00049538253705864,0.00049592944075972,-0.00049620394007018,0.00049507221140814,-0.00048375181125453,0.00048594747695463,-0.00048621626255622,0.00048341578964556,-0.0004589999139176,0.00045836865589438,-0.00045937834999722,0.00045798200286203,-0.00048361597129998,0.00048607635908106,-1.922527910023e-06,3.0612377727141e-06,-0.0003980173959573,0.00039916013245644,-6.7073428349815e-07,1.8501963719446e-06,-0.00037796872505384,0.00037674055325838,-0.00035686963083737,0.00036218376441802,-0.00035853257007681,0.000360516625153,-0.00037558234259634,0.0003791267288793,-0.00038047582887048,0.00037424466308926,-0.0003593420120552,0.00035969910681872,-0.00036100760624539,0.00035803679015181,-0.0004348015652179,0.00043343434523944,-0.0004339631396035,0.0004342728779718,-0.00043314106717275,0.00043509514800807,-0.00043230278201122,0.00043593234533963,-0.00042711127450289,0.00043397146321787,-0.00043198641689027,0.00042909221790756,-0.00043284197798349,0.00042824696640167,-0.00042795792628842,0.00043312410732833,-0.00037308994724058,0.00038163222108771,0.73909361287944,132672,2954,0.0016654504396649,0.0020330190570507,0.0016594282118496,17.510852911773,5.5286823294184e-05,5.5286823294184e-05,5.5286823294184e-05,2881619.7932311,0.0053723164134278
19391759,0.38253277702767,0.0062902021817158,0.0020012017590478,0.0023002441184411,0.0019887563042269,-0.00046590685190432,0.00046596115029186,2.7371924326892e-06,-2.6830340335829e-06,-1.0598205307847e-07,1.6435907782248e-07,-0.00035834124666524,0.00035335978538847,-0.00049580777613433,0.00049793530258114,-0.00049760839174617,0.00049612479220695,-0.00035329264579581,0.00035839014523764,-0.00035862215613757,0.00035310676578943,-0.00049606095472826,0.00049765767652927,-0.00049787691843149,0.00049586435669383,-0.00050618314276119,0.00050795393873754,-0.00050799210553246,0.00050614966233443,-0.000506098395464,0.00050804692057783,-0.00050790331661915,0.000506238946124,-0.00044124417547825,0.00044669490446783,-0.00044654910768801,0.00044138519454851,-0.00044132685316364,0.0004465995715126,-0.00044664218289873,0.00044129717418375,-0.00035305293550719,0.00035868286006861,5.4745123729342e-08,-2.1393654631958e-07,1.0088490712621e-06,-1.1633767943629e-06,-0.00058067840129747,0.00058052394532552,-0.00057711269219426,0.00057492165600413,-0.00054050750472396,0.00054133318415026,-0.0005407697369033,0.00054106861174092,-0.00059120760173473,0.00059186143152108,-0.00059191274535032,0.00059113005769591,-0.00059129487439516,0.00059177193086532,-0.00059199914083025,0.0005910412011192,-0.00057509620351611,0.00057697797610914,-0.00057720204575842,0.00057482723382761,-0.00054122467590679,0.00054060832552055,-0.0005414838041491,0.0005403439875399,-0.00057500317349353,0.00057706718270135,-2.185605708985e-06,3.2348748073319e-06,-0.00046247438592882,0.00046352688130296,-5.3311512271707e-07,1.6152651799904e-06,-0.00044164587914983,0.00043952771903688,-0.00041379236961981,0.00041878626612064,-0.00041559920016759,0.00041697637770442,-0.00043846500554728,0.00044270911255035,-0.00044377994755864,0.00043740151221862,-0.0004158992962118,0.00041667264738581,-0.00041770836048729,0.00041486602755667,-0.00050875547222138,0.00050727878940164,-0.00050804124005064,0.00050799331211833,-0.00050694942151837,0.00050908530127476,-0.00050623511401455,0.00050979900429211,-0.00050092219515067,0.00050799661468539,-0.00050622712869842,0.00050269032327452,-0.000506952708863,0.00050196882903901,-0.00050164413421561,0.00050727490145749,-0.00043634081229856,0.00044484199639979,0.77930570630485,132672,2954,0.0019396011663353,0.0024161778237222,0.0019273443256609,17.480212719128,5.5041701753021e-05,5.5041701753021e-05,5.5041701753021e-05,3166061.5210938,0.0063029548575482
20391759,0.44689115239418,0.0073466991134773,0.0023196027143984,0.0027244951225149,0.0023026012765641,-0.0005379410724673,0.00053796801221858,2.8648752230023e-06,-2.8379119144002e-06,-8.4361070523051e-08,1.1429812995555e-07,-0.00039479961693654,0.00038944221973023,-0.00058099937662561,0.00058312240175946,-0.00058289421970755,0.00058121774253809,-0.00038940404976616,0.00039482158712614,-0.00039500903024736,0.00038926049794217,-0.00058118304370745,0.00058291684542857,-0.00058309204154454,0.00058102807904181,-0.00058940041586486,0.00059126184191205,-0.00059130341029014,0.00058936290848053,-0.00058933861069541,0.00059133102399046,-0.00059123730986187,0.00058942807622619,-0.00050715120053601,0.00051282820704728,-0.00051273279794282,0.00050724075274748,-0.00050721021549813,0.00051275656032101,-0.00051280273419739,0.00050717725030052,-0.00038923377510357,0.00039504145641792,3.0387853886014e-08,-1.6638952930771e-07,1.2227185411844e-06,-1.3550588821334e-06,-0.00068984885991259,0.00068971671658458,-0.00068855540248642,0.00068596494028474,-0.00063777817348904,0.00063869100506646,-0.00063797012094439,0.0006384981431574,-0.00070193467715074,0.00070272047687449,-0.00070277113332683,0.00070185342916635,-0.00070199872997402,0.000702655118533,-0.00070283444106469,0.00070178880812429,-0.00068611996327552,0.00068844540194187,-0.00068862121072316,0.00068589557574484,-0.00063863031416175,0.00063783024798211,-0.00063881976935859,0.00063763802820558,-0.00068605083724935,0.00068851060136709,-2.2670223770061e-06,3.436105792286e-06,-0.00053328467458563,0.000534457017217,-6.7255573466449e-07,1.878602161285e-06,-0.00050882758343748,0.00050695365550264,-0.00047025063825231,0.00047585636308927,-0.00047215112149315,0.00047395326639741,-0.00050577008082529,0.00051001096764584,-0.00051136057154712,0.00050442783870494,-0.00047275327307403,0.00047334724118022,-0.00047465638981826,0.00047144695429008,-0.00059265837841231,0.00059107232906578,-0.00059181026489389,0.00059192082075904,-0.00059075816927691,0.0005929729308551,-0.0005899100154104,0.00059382050197547,-0.00058729722445342,0.00059490261327193,-0.00059287894006061,0.00058931993030098,-0.00059373905918416,0.00058846296784781,-0.00058815413829314,0.0005940457683866,-0.00050324719833597,0.0005125424804362,0.78427550871223,132672,2954,0.0022391307782346,0.0028698526788091,0.0022220558638844,18.602016157866,6.4016129262926e-05,6.4016129262926e-05,6.4016129262926e-05,3403961.0835051,0.0073580475277959
21391759,0.49700478856246,0.0081388180919898,0.0025525428792193,0.0030536014934707,0.0025326737192999,-0.00058280321551045,0.00058277998668921,3.0052626768762e-06,-3.0281239587308e-06,-1.1914357656098e-08,-1.146402898285e-08,-0.00041213422656382,0.00040620635887333,-0.00063451164654891,0.00063649599190981,-0.00063651617804942,0.00063448326791902,-0.00040622174292916,0.00041210914848324,-0.00041214543726188,0.00040622075579305,-0.00063450397043738,0.00063649061496447,-0.00063652065869309,0.00063449005350019,-0.00064355742428093,0.00064554480379838,-0.00064556931837634,0.00064353386458971,-0.00064355827526054,0.00064554690262581,-0.00064556737753597,0.00064353377911463,-0.00054550109618006,0.00055138649264208,-0.00055140680133131,0.00054547433052725,-0.00054549540460966,0.00055138333226431,-0.00055140799436819,0.00054547499868342,-0.00040624413371333,0.00041212420910937,-3.347106758032e-08,-3.2123251245535e-08,8.9862201031968e-07,-9.6430946731278e-07,-0.00076561915864831,0.00076555421103781,-0.00076423752930129,0.00076234794135468,-0.0007031600522626,0.0007037094079873,-0.00070315948560691,0.00070371550336984,-0.00078057095505034,0.00078112418027179,-0.00078117915273799,0.00078049730141404,-0.00078057163075641,0.00078112515156725,-0.00078117943503241,0.00078049894726263,-0.00076242574729049,0.00076418384534038,-0.0007642383628063,0.00076234459304789,-0.00070377683343893,0.00070308935670238,-0.00070377351188037,0.00070309362793332,-0.00076242376882012,0.00076418147433037,-2.5478177058289e-06,3.4859188651571e-06,-0.00057730277622293,0.00057824261140276,-4.3963977429319e-07,1.402909325117e-06,-0.00054751912942285,0.00054438093427512,-0.00050191066257222,0.00050668910977769,-0.00050392206812932,0.00050467559143647,-0.00054343577223445,0.00054846486844071,-0.00054934733494047,0.00054255993501485,-0.00050371598068953,0.00050487575400396,-0.00050572783335252,0.00050286634734598,-0.00064785903935296,0.00064616897207969,-0.00064724668209083,0.00064678216128027,-0.00064584868938041,0.0006481792187942,-0.00064523620501677,0.00064879170441845,-0.00064280178164649,0.00065026376783432,-0.0006487076600847,0.00064435740581826,-0.00064933030757627,0.00064373905571566,-0.00064342107330942,0.00064964442133496,-0.00054161372665059,0.00055029387290916,0.75707132507541,132672,2954,0.0024255833351666,0.003184700112176,0.0024045887533983,15.316349016796,3.7730792134367e-05,3.7730792134367e-05,3.7730792134367e-05,3562493.0201543,0.0080471697194799
22391759,0.54430978546612,0.0088876382497303,0.0027716905445011,0.003367352986075,0.0027485947191541,-0.00062948574872777,0.0006295462814298,3.2247657695751e-06,-3.1640242059212e-06,-1.3993919871022e-07,2.0614636278145e-07,-0.00043386652748779,0.00042802265285999,-0.00069030603700288,0.00069283866632921,-0.00069242778506256,0.00069070609430145,-0.00042795160792603,0.00043392545202513,-0.00043422171006966,0.00042769344211236,-0.00069063773199494,0.00069248924904046,-0.00069277034031103,0.00069037147395614,-0.00069878283890292,0.00070085739519596,-0.00070091233671632,0.00069872723137539,-0.00069867284298559,0.00070097461803284,-0.00070080020157108,0.0006988420687139,-0.00058607503690293,0.00059250797037934,-0.00059232994592717,0.00058624694175337,-0.0005861818313469,0.00059238668196924,-0.00059244321888,0.00058613088951911,-0.00042762839713885,0.00043428918318177,8.7693993128447e-08,-2.5690518980556e-07,9.2932034447444e-07,-1.0954001289942e-06,-0.00084241289236142,0.0008422476174495,-0.00084058409720166,0.00083854874063657,-0.00076871202331504,0.00076955406989541,-0.00076904708497115,0.00076921204038221,-0.00086088359794156,0.00086150238662858,-0.00086154225373782,0.00086082083408406,-0.00086099380779705,0.00086138742409064,-0.00086165207370956,0.00086070724388838,-0.00083872768804027,0.00084042882329325,-0.00084069876355125,0.0008384284720773,-0.00076938276911204,0.00076888074899563,-0.0007697130418322,0.00076853728215695,-0.00083861170447732,0.00084054255692561,-2.7012667404899e-06,3.6880746220307e-06,-0.0006228720267917,0.00062386071749886,-4.9522091220558e-07,1.5086409627937e-06,-0.00058872562835016,0.00058544734445782,-0.00053633952858576,0.00054144546668627,-0.00053846985337157,0.00053931223411814,-0.00058445728316148,0.00058972050549261,-0.00059071507520204,0.00058346831600958,-0.00053830301589223,0.00053947065359893,-0.00054043217356472,0.00053734285139596,-0.00070415540707766,0.00070234229395041,-0.00070349021923327,0.00070300869345074,-0.00070202730795216,0.00070447145780706,-0.00070136132094538,0.0007051370372256,-0.00069884809058285,0.00070676094385867,-0.00070510264497263,0.00070050618538911,-0.0007057809541642,0.0006998363674735,-0.00069952356692379,0.00070608871987333,-0.00058247141936642,0.00059171051914364,0.76057157140874,132672,2954,0.0026198511837431,0.0035033421026739,0.002594122308437,14.811610956562,3.3692887652496e-05,3.3692887652496e-05,3.3692887652496e-05,3757911.5279145,0.0087555348896956
23391759,0.59256595861634,0.0096396961828253,0.0029902649969056,0.0036856942299436,0.0029637369559761,-0.00067722542185279,0.00067730014545488,3.3303812818576e-06,-3.2557267357691e-06,-1.7346372612819e-07,2.5538603823545e-07,-0.00045188083349242,0.00044594000681651,-0.00074762523610302,0.00075031995325497,-0.00074981381963993,0.00074812237613152,-0.00044585605509164,0.00045195619006629,-0.00045231449509411,0.00044552376996541,-0.0007480372595334,0.00074988876029674,-0.00075023503725962,0.00074770276943859,-0.00075676987874288,0.00075889714353209,-0.00075896436456279,0.00075670000256649,-0.00075663319502653,0.00075904195190041,-0.00075882580326802,0.00075684297886197,-0.00062672242267512,0.00063338975068799,-0.0006331675620788,0.00062693298190465,-0.0006268596254128,0.0006332425952603,-0.00063330981089944,0.00062678917178546,-0.00044544971497567,0.0004524008850482,1.0433143468258e-07,-3.2283055025027e-07,8.7170843477316e-07,-1.0845865571512e-06,-0.00092452820118432,0.00092431562521307,-0.00092265248956988,0.00092066663335341,-0.00083896274156557,0.00083981514191552,-0.00083937843752465,0.00083939156585378,-0.00094619015216199,0.00094676797890658,-0.00094682826273724,0.00094610926217086,-0.0009463272785216,0.00094662556730712,-0.00094696485479966,0.00094596782328832,-0.00092089067646425,0.00092245009788138,-0.00092279441819403,0.00092051964051353,-0.00083961078923742,0.00083916269948569,-0.0008400233761602,0.00083873879769187,-0.00092074645691258,0.00092259223236927,-2.7668367566623e-06,3.8202680222269e-06,-0.00066946745189065,0.00067052036721202,-4.3065821064266e-07,1.5067604008265e-06,-0.00062901360944193,0.00062554327802953,-0.00056929899629473,0.00057446640014544,-0.00057149391167765,0.00057226846367183,-0.00062448325124901,0.00063007688003713,-0.00063093455903039,0.00062363142574774,-0.00057119622532985,0.00057256068672921,-0.00057339223508376,0.00057036656369535,-0.00076319917211188,0.00076140452831129,-0.00076255520165775,0.00076204923122338,-0.00076100479522754,0.00076359974241126,-0.00076036058212942,0.00076424365902343,-0.00075808128536029,0.00076623125155417,-0.00076452801981685,0.00075978292228489,-0.00076518210542637,0.00075913379158237,-0.00075873256827788,0.00076558096004109,-0.00062256955693465,0.00063199668153312,0.75126456024225,132672,2954,0.0028183534062681,0.003844065509773,0.002787929306975,15.634064784952,4.0272518279615e-05,4.0272518279615e-05,4.0272518279615e-05,3910410.0065637,0.009495287546129
24391759,0.64530614959179,0.010470468934128,0.0032300454746157,0.00404099817332,0.0031994252861926,-0.00073129507000115,0.0007314480314027,3.7260282937563e-06,-3.5740650359862e-06,-3.0657697324613e-07,4.7503169484585e-07,-0.00047292761117129,0.00046672599520953,-0.00081357107030107,0.00081693697288117,-0.00081599530576555,0.00081450111699331,-0.00046655983542998,0.00047308531477878,-0.00047372234104822,0.00046597160516389,-0.0008143261572051,0.00081615399794906,-0.00081676096253273,0.00081373328225718,-0.00082212428132628,0.0008244499885681,-0.00082455730549865,0.00082201463649443,-0.00082187503056557,0.00082471285812977,-0.00082430664975103,0.00082227605125345,-0.00067291807963913,0.00068047919761454,-0.00068006789439505,0.00067332447548048,-0.00067316979593803,0.00068021228398878,-0.00068032393533885,0.00067306167953681,-0.00046580693990308,0.00047389009816744,2.1266880755801e-07,-5.6655166218795e-07,8.7292492140647e-07,-1.2171863889128e-06,-0.0010187365698112,0.0010183923802992,-0.0010172483813244,0.0010151173053863,-0.00091935317499547,0.00092046031177346,-0.00092010657953491,0.00091968318330548,-0.0010440062038741,0.0010446114093584,-0.0010446853158808,0.0010439077748854,-0.0010442561268684,0.0010443521090098,-0.0010449352506153,0.0010436492948871,-0.0010154735923477,0.0010169179459993,-0.0010175093400403,0.0010148481530947,-0.00092004522994961,0.00091976627846695,-0.00092079375400089,0.00091898619147583,-0.0010152149934892,0.0010171768744095,-3.1327300274282e-06,4.1680792465197e-06,-0.00072210199966813,0.00072313885340466,-5.0364529167683e-07,1.5666666414463e-06,-0.00067569748951311,0.00067164296970347,-0.00060685189029113,0.00061237872847121,-0.00060928542959016,0.00060993883612725,-0.00067060748633048,0.00067674134168431,-0.00067775150533726,0.00066960751162977,-0.00060888257918776,0.000610337098901,-0.0006113128836811,0.00060790755963097,-0.00083002285935994,0.0008279311098088,-0.00082933514576004,0.0008286191638719,-0.0008275921626616,0.00083036441617213,-0.00082690320385857,0.000831051859185,-0.00082545415450118,0.00083432962031079,-0.00083259814857902,0.00082717896463218,-0.00083329913798719,0.00082648818735153,-0.00082615232841848,0.00083363462200862,-0.0006685597251668,0.00067880822099104,0.76118278555028,132672,2954,0.0030432763878471,0.0042346496504272,0.0030066362937831,17.855805231596,5.804644185277e-05,5.804644185277e-05,5.804644185277e-05,4073794.8121546,0.010337808209542
25391759,0.6999438736261,0.011352003905891,0.0034820425676877,0.0044224834793123,0.0034474778588909,-0.00078601159986935,0.00078606952827481,4.008085927331e-06,-3.9502960504681e-06,-2.002472824013e-07,2.6723368882129e-07,-0.00048863770671765,0.00048137798234949,-0.00088257288700391,0.00088574684517552,-0.00088521774403917,0.00088309291245373,-0.00048130909268656,0.00048869686301981,-0.00048911344020137,0.00048092728441491,-0.00088302098734996,0.00088527668452111,-0.0008856747171832,0.00088263430390574,-0.00088977741301495,0.00089233238547266,-0.00089243028750088,0.00088967755308688,-0.00088962833692372,0.00089249058725202,-0.0008922794049962,0.00088983415528101,-0.00071923522084605,0.00072724404613336,-0.00072702852873289,0.00071944401499208,-0.00071938445054455,0.00072708323169173,-0.00072718342491135,0.00071928683356933,-0.00048086560677823,0.00048918159448786,9.1297741721629e-08,-3.7323343769351e-07,8.828304774158e-07,-1.1577560433439e-06,-0.0011206683277112,0.001120393308073,-0.0011223895389915,0.0011202723326363,-0.0010074190227753,0.0010082705964455,-0.0010078699215549,0.0010078114108432,-0.0011480110661483,0.0011485665720029,-0.0011486742755863,0.0011478798949286,-0.0011481623899205,0.0011484125484575,-0.0011488254097208,0.001147726736786,-0.0011205584273169,0.0011221266984991,-0.0011225454638825,0.0011201115434451,-0.0010080951357653,0.001007591048444,-0.001008543391512,0.0010071308975427,-0.0011204022687149,0.0011222807886126,-3.4737435456196e-06,4.4854966080667e-06,-0.00077512207585528,0.00077613512651271,-4.9201315065838e-07,1.5294597401373e-06,-0.00072184767525531,0.00071707948467802,-0.00064166964787916,0.000647338774406,-0.00064432084738179,0.00064468297596724,-0.00071606381425494,0.000722867863537,-0.00072385399771591,0.00071508626380234,-0.00064365057135061,0.00064534844644319,-0.00064630139255079,0.00064269925617404,-0.00089927583374762,0.00089695740692175,-0.00089860406969614,0.00089762973564711,-0.00089662516492827,0.00089960956202965,-0.00089595295208956,0.00090028135619642,-0.0008979338584102,0.0009074134655465,-0.00090572311083541,0.00089962157599817,-0.00090640624761409,0.00089894438101175,-0.0008986140081261,0.00090673428973853,-0.00071406590076385,0.00072487772252151,0.78099361348766,132672,2954,0.0032705244316246,0.0046575006613259,0.0032269097597881,19.837941081669,7.3903528653352e-05,7.3903528653352e-05,7.3903528653352e-05,4161338.6119703,0.011217602236437
26391759,0.75003895616566,0.01217849198185,0.0037157218132662,0.0047849452316363,0.0036778249369478,-0.0008325852798746,0.00083281693451078,4.0799215058621e-06,-3.8495832075921e-06,-5.503670927675e-07,8.0714329027606e-07,-0.00049435653957763,0.00048819573766844,-0.00094213752864916,0.00094636539092262,-0.00094477218505695,0.00094372208498564,-0.00048794448349163,0.00049459284862657,-0.00049571843257181,0.00048685477675719,-0.00094345577480941,0.00094501155345346,-0.00094609787527812,0.00094237938130771,-0.00094982920027467,0.00095225222705988,-0.00095247207192478,0.00094960609686952,-0.0009493945522862,0.00095270692509977,-0.00095203696427424,0.00095006023670645,-0.00075766921553707,0.00076611880570596,-0.00076543652451016,0.00075834723179345,-0.00075811459910371,0.00076565939089043,-0.00076588438016699,0.00075788844163368,-0.00048661447956632,0.00049597010870898,3.7932534126663e-07,-9.7522339670695e-07,5.1595292809856e-07,-1.0934005516952e-06,-0.0012162646187055,0.0012156861291759,-0.0012227781626341,0.0012210775536695,-0.0010900957786777,0.0010913717554182,-0.0010914102517354,0.0010900201277271,-0.0012438035235527,0.0012442076265589,-0.0012443281182916,0.0012436651526871,-0.0012442382624833,0.0012437557407988,-0.0012447627359153,0.0012432144018361,-0.0012216594563739,0.0012222068522197,-0.0012232279324985,0.0012206178575826,-0.0010906302914092,0.0010908371227028,-0.001091939753481,0.0010894839385316,-0.0012212088748171,0.0012226594239697,-3.5336622831526e-06,4.3965721335609e-06,-0.00082004522616203,0.00082090902921761,-3.5533572790287e-07,1.2385441043103e-06,-0.00075828189276118,0.00075296867520303,-0.00066736251124991,0.00067244865048861,-0.00067000317158802,0.00066980230172798,-0.00075210693135522,0.00075915508221545,-0.00075986549305478,0.00075140106808161,-0.00066892361619172,0.00067087957190279,-0.00067156338728964,0.0006682395796405,-0.0009605747627922,0.000958260416203,-0.0009600448234771,0.00095879033798766,-0.00095793536368177,0.00096090400010893,-0.00095740478838503,0.00096143336831411,-0.00096455209097079,0.00097371094552773,-0.00097231023012369,0.00096594521569013,-0.00097285121018828,0.00096541305436078,-0.00096508998510702,0.00097317688222105,-0.00075053075441916,0.00076073917975445,0.79883072437608,132672,2954,0.0034645001222579,0.0050531197336361,0.003413274504133,20.411674922667,7.8493399381333e-05,7.8493399381333e-05,7.8493399381333e-05,4170367.071003,0.012002617002093
27391759,0.79797224726511,0.012938832282193,0.0039298866485209,0.0051210752800986,0.0038878703535739,-0.00087520771732018,0.00087546357464039,3.8799298989861e-06,-3.6273154452635e-06,-6.6811265211127e-07,9.5715195294893e-07,-0.00049542107949052,0.00048997524961863,-0.00099585643705104,0.0010002401313681,-0.00099834503481273,0.00099773357690974,-0.0004896976875845,0.00049568004031731,-0.00049709000840751,0.00048839228232113,-0.00099744492908488,0.0009986243713497,-0.00099992691427287,0.00099613226647311,-0.0010068861012416,0.0010091016776009,-0.0010093875143,0.0010065955029328,-0.0010063658052161,0.0010096472187903,-0.0010088664233859,0.0010071405453571,-0.00079145022972681,0.00079959198118199,-0.00079880548441413,0.00079224325969254,-0.00079197193901144,0.00079904211080128,-0.00079934995916931,0.00079169240212932,-0.00048810475600632,0.00049733118306247,4.5413070033098e-07,-1.1661118330174e-06,4.1650051177288e-07,-1.1097461032507e-06,-0.0013088116779866,0.0013081176867325,-0.0013187223714809,0.0013170773332401,-0.001169556296323,0.0011709549344229,-0.0011711253553026,0.0011693327769518,-0.0013371479431797,0.001337495807533,-0.0013376462277469,0.0013369816924622,-0.0013376696205506,0.0013369572643899,-0.001338165539007,0.0013364430101968,-0.0013177882591123,0.0013180480462462,-0.0013192632490345,0.0013165255084452,-0.0011700809521413,0.0011704523316306,-0.0011716271221116,0.0011688282217437,-0.0013172455405892,0.0013185836590462,-3.3471732489564e-06,4.1607429144146e-06,-0.00086038975386541,0.00086120875136041,-3.3483393853249e-07,1.1765669709823e-06,-0.00078582065895716,0.00078080425331197,-0.00068662849053508,0.00069145991768834,-0.00068913208459175,0.00068895047870285,-0.0007799826039666,0.00078663813231967,-0.0007873300236435,0.00077929486308952,-0.00068810557824135,0.00068997048467199,-0.00069060891887085,0.00068747470328739,-0.0010185859906223,0.0010163955439473,-0.0010180826892266,0.0010168981065051,-0.0010160881763791,0.0010188993463143,-0.0010155851866722,0.0010194005640036,-0.0010260457792661,0.0010347066138965,-0.0010333794097688,0.0010273551197004,-0.0010339064290119,0.0010268422582444,-0.001026555594307,0.0010342023369651,-0.00077848378855125,0.00078816965956158,0.76756559104487,132672,2954,0.0036417578792452,0.0054363151755923,0.0035808330118539,22.213303685833,9.2906429486666e-05,9.2906429486666e-05,9.2906429486666e-05,4154569.7865192,0.012739699230433
28391759,0.84058723419488,0.013646579577761,0.004129569216696,0.0054334805773894,0.0040835297836761,-0.00091351863792157,0.00091396144090382,4.037958202216e-06,-3.6004710041895e-06,-1.1341495784307e-06,1.6325694741216e-06,-0.00050085665455929,0.00049663266821624,-0.0010461768013069,0.0010519296255068,-0.0010487036291293,0.0010493830648308,-0.00049615073588919,0.00050130141159968,-0.00050369129172394,0.00049390054868894,-0.0010488784048628,0.0010491780548466,-0.0010513922020199,0.0010466350873816,-0.001056765066188,0.0010588325880592,-0.0010593105055567,0.0010562844429384,-0.0010558813325518,0.0010597588254939,-0.0010584257984454,0.0010572072592635,-0.00082260298103811,0.0008314408818984,-0.00083008753843906,0.00082396094492713,-0.00082350612534426,0.00083050385053258,-0.00083101853784898,0.00082302726188748,-0.00049341442086696,0.00050410516555964,7.9432733580556e-07,-1.9662555198069e-06,3.8117702108955e-07,-1.5123841342664e-06,-0.0013928053173824,0.0013916694383606,-0.0014058547983284,0.0014038017769224,-0.0012409614895198,0.0012431570846397,-0.0012436439898606,0.0012403926772391,-0.0014224136359548,0.0014228161525224,-0.0014230320773705,0.0014221799480136,-0.0014233027019447,0.0014218981955074,-0.0014239138766511,0.0014212623613247,-0.0014049342994138,0.0014047541554958,-0.0014067749427829,0.0014028645039285,-0.0012416217062751,0.0012425361533321,-0.0012442755570789,0.0012397624662289,-0.0014040229825215,0.0014056634877891,-3.3665492769567e-06,4.2727878372668e-06,-0.00089610625484153,0.00089701948499042,-4.6829204890261e-07,1.4076966489597e-06,-0.00081379655421352,0.00080909336061189,-0.00070583723065979,0.00071117567321701,-0.00070839098184458,0.00070861789685088,-0.00080819962545582,0.00081469021924604,-0.00081564271204535,0.00080721512769562,-0.00070769515452268,0.00070933163302441,-0.00071022690710576,0.0007067951874503,-0.0010694676012021,0.0010672045743908,-0.00106884302241,0.0010678296033223,-0.0010669255455281,0.0010697543590077,-0.0010663010642491,0.0010703749116242,-0.0010805940032105,0.0010896007649886,-0.0010880571681583,0.0010821206000939,-0.0010887033389347,0.0010814754251969,-0.0010812295479327,0.001088976505434,-0.00080631406752917,0.00081658535830875,0.80347863637883,132672,2954,0.0038014174166168,0.0057832446584794,0.0037294328981385,23.413404763723,0.00010250723810978,0.00010250723810978,0.00010250723810978,4150071.468447,0.013403496708309
29391759,0.87744666121699,0.014201677917307,0.0042864398446436,0.0056790899980832,0.0042361480745797,-0.00093968289838427,0.00093979397519499,3.7341827769857e-06,-3.623887178905e-06,-4.6536416838739e-07,5.9993699789945e-07,-0.00048755946125398,0.00048154851207771,-0.0010807261342453,0.0010843520122382,-0.0010831675600598,0.0010818987676109,-0.00048141965879563,0.00048767284422606,-0.00048864536175673,0.00048050524681643,-0.0010817584414045,0.0010832888082097,-0.0010842026082238,0.0010808464476876,-0.0010971148747697,0.0010993219156207,-0.0010995679380714,0.0010968666204131,-0.0010967729876957,0.0010996812764674,-0.0010992246080917,0.001097224064641,-0.00084009396441187,0.00084776869522744,-0.00084730367030483,0.00084055767457495,-0.00084044025668509,0.00084740463237366,-0.00084765988435732,0.00084019661043976,-0.00048037866029047,0.00048875983763742,2.1317062167583e-07,-8.4599081546175e-07,7.3677087140196e-07,-1.3530371839709e-06,-0.0014645351751857,0.0014639173975557,-0.0014815507187085,0.0014792455900887,-0.0013028735436984,0.001303976865074,-0.0013039008827433,0.0013029248031661,-0.0014937568780813,0.0014941839377647,-0.0014944346378668,0.0014934807099724,-0.0014941041191111,0.0014938334291284,-0.0014947802752234,0.0014931311040482,-0.0014798762169867,0.001480954714673,-0.0014819062580991,0.001478884507526,-0.0013035718624595,0.0013032822540459,-0.001304590936059,0.0013022291403631,-0.0014795219401238,0.001481305211512,-3.1853730012451e-06,4.1735901778018e-06,-0.00091923202425814,0.00092022379465636,-5.2653565056073e-07,1.5451676127452e-06,-0.00081972389125043,0.00081557767897984,-0.00070640322715115,0.0007119057636423,-0.00070885451894531,0.00070944916275498,-0.00081458504378829,0.00082071828550226,-0.00082178045038663,0.00081352778116768,-0.00070843509608705,0.00070986559334559,-0.00071088373280886,0.00070741946064806,-0.0011103353815544,0.0011081787974029,-0.0011096468270873,0.0011088682126888,-0.0011078860504784,0.0011106316147371,-0.0011071975071631,0.0011113199979923,-0.0011237661508371,0.0011326484930658,-0.0011309639954619,0.0011254450780016,-0.0011316667247351,0.0011247478235588,-0.0011244644083879,0.0011319541972177,-0.0008125325126655,0.00082278736188519,0.727821733448,132672,2954,0.003909613235661,0.0060812531048486,0.0038257626716919,24.734689995295,0.00011307751996236,0.00011307751996236,0.00011307751996236,4009026.0747564,0.01391298722406
30391759,0.90826369488176,0.014657057987814,0.0044161400613529,0.0058792639364869,0.0043616539899743,-0.00096187086556796,0.00096199397074612,3.6791196927768e-06,-3.5854050958781e-06,-4.8215953683321e-07,6.5878001575571e-07,-0.00049402374425304,0.00048805575927935,-0.0011098945599313,0.0011136282992398,-0.0011123151968991,0.0011111762592171,-0.00048790430759169,0.00049390950945736,-0.00049509215083412,0.00048692483944806,-0.001110979841245,0.0011124564781179,-0.0011133875993435,0.0011101068969711,-0.0011272582645094,0.0011294045872506,-0.0011296491861672,0.0011269808706106,-0.001126874058064,0.001129784792599,-0.0011292857425987,0.0011273486868689,-0.00085718787561926,0.00086481839663658,-0.00086430474152133,0.00085762104511937,-0.00085763273832679,0.00086438722723383,-0.00086465373333443,0.00085725563590176,-0.00048673629858671,0.00049527699184036,2.5443371229825e-07,-8.7957922288919e-07,5.7340224679509e-07,-1.1902059579609e-06,-0.0015186556391059,0.0015180550764352,-0.0015298783005555,0.0015279301222906,-0.0013464017733202,0.0013474617227466,-0.0013474408966351,0.00134627044033,-0.0015541045921998,0.0015544892965829,-0.0015546890493268,0.0015538936364893,-0.0015544636669806,0.0015540982318459,-0.0015550428186201,0.0015535137959426,-0.0015284614173323,0.0015291332637007,-0.0015303154867806,0.0015275353216343,-0.0013469774777407,0.0013468538338679,-0.0013479884915476,0.0013457202247546,-0.0015280439230833,0.0015295524536914,-3.129036408725e-06,4.1375450230157e-06,-0.00093865679725478,0.00093965496708754,-3.9841476080203e-07,1.3440159151757e-06,-0.0008333309737463,0.00082869787298254,-0.00071776823661724,0.00072280535471116,-0.00072015904173441,0.00072036320627242,-0.0008279617818107,0.0008341483384159,-0.00083503899719663,0.00082702408069376,-0.00071939462908016,0.00072099376757158,-0.00072186127195997,0.00071867177399806,-0.0011408993771283,0.0011389315200624,-0.0011403165146527,0.0011395019144645,-0.0011385039985773,0.0011413541383959,-0.0011379144980884,0.0011419349996528,-0.001151077306516,0.0011598521970444,-0.0011581773593047,0.0011526649175131,-0.0011587128827936,0.0011521142871988,-0.0011517064466415,0.0011592618052326,-0.00082619713261484,0.00083589328439675,0.713356703692,132672,2954,0.0040018960281208,0.0063052352239406,0.003906483481721,26.074621020323,0.00012379696816259,0.00012379696816259,0.00012379696816259,4014030.7226352,0.014315608262832
31391759,0.93421812508379,0.015065261176623,0.0045327612134029,0.0060573513707456,0.0044751485924743,-0.000981011891454,0.00098115106284206,3.6635478213691e-06,-3.5460849506475e-06,-5.6587780614864e-07,7.4445428701874e-07,-0.00048767275895294,0.00048202256189985,-0.001137689136406,0.0011415890881426,-0.0011400925944104,0.0011391425761366,-0.00048184228304081,0.0004877029180632,-0.00048897364827662,0.00048070670569953,-0.001138964510692,0.0011402547214912,-0.0011413371300304,0.0011378718621198,-0.0011560582133318,0.0011581605623173,-0.0011584528595499,0.0011557592625679,-0.0011556302422066,0.0011586003542293,-0.0011580338920711,0.0011561947639951,-0.00087027711074557,0.00087787781895859,-0.00087734944308867,0.00087082775649559,-0.00087072578912412,0.00087742586874932,-0.00087778161538281,0.00087037163917583,-0.00048052427315246,0.00048911045701998,2.8249977008213e-07,-1.0213856512334e-06,3.7019319260875e-08,-7.5767144294906e-07,-0.0015732853302718,0.0015725698302795,-0.0015854466383283,0.0015843621712574,-0.0013922756711824,0.0013930986109383,-0.0013935230188546,0.0013917420239852,-0.0016098555998537,0.0016098523658984,-0.0016101250168594,0.001609581607487,-0.0016102831439144,0.001609406783543,-0.0016105390654348,0.0016091499480387,-0.0015851403300103,0.0015847477268487,-0.0015858982681271,0.001583951138166,-0.0013925604777953,0.0013928180808998,-0.0013937752262922,0.0013915332439293,-0.0015846429379589,0.0015851522980141,-3.3427189859469e-06,3.8700454999276e-06,-0.00095524131846167,0.00095577884488929,-1.2095256109717e-07,6.6138429902341e-07,-0.00084212913623068,0.00083630077830189,-0.00072104514524442,0.00072478842102868,-0.0007234815709349,0.00072240062349694,-0.0008358151883169,0.00084262748771944,-0.00084290901103466,0.00083549581716305,-0.00072179661068662,0.00072398904486668,-0.00072424176474552,0.00072162042366353,-0.0011699259978881,0.001167806525873,-0.001169662722782,0.0011680619096011,-0.0011675340068969,0.0011702117393618,-0.0011672740510234,0.001170467265862,-0.0011829413702519,0.0011907768920324,-0.0011899370446517,0.0011836833900668,-0.0011901971360061,0.0011834208080172,-0.0011832081219574,0.001190535779247,-0.00083503531770816,0.00084335097817031,0.75948214347806,132672,2954,0.0040815979033969,0.0065309981283953,0.0039744951772539,28.358129219362,0.0001420650337549,0.0001420650337549,0.0001420650337549,3904593.853922,0.01469456073115
32391759,0.95380589967603,0.015386112886016,0.0046247763288157,0.0061964851477212,0.0045648514094792,-0.00099191003060125,0.00099216101370737,3.6151325495837e-06,-3.3700435446986e-06,-9.6473137655603e-07,1.2455363623401e-06,-0.00046282185460166,0.00045834905810339,-0.0011536846864801,0.0011585211888715,-0.0011560276702436,0.0011561080981951,-0.00045813713254259,0.00046298124218119,-0.00046502236513003,0.00045621616623002,-0.0011558709446124,0.0011562635486923,-0.0011581660384522,0.00115396631623,-0.001178578732816,0.001180417690771,-0.0011808954732595,0.0011780933297788,-0.0011778588861362,0.0011811632507284,-0.0011801916013098,0.0011788316594107,-0.00087498757165889,0.00088280886540771,-0.00088183887094969,0.00087598414913017,-0.00087573653614012,0.00088205331288266,-0.00088255524202713,0.00087520487444615,-0.00045592030769684,0.00046528492204719,4.9165261647302e-07,-1.7103273226387e-06,-4.3131895537815e-07,-7.8618059589783e-07,-0.0016200479447909,0.0016188582670741,-0.0016399434741053,0.0016390400127157,-0.0014343627076495,0.0014354828288843,-0.0014365615399618,0.0014332689190845,-0.0016512678219779,0.0016509492647744,-0.0016514119119373,0.0016508320526631,-0.001651994346045,0.0016502311415611,-0.0016521077903623,0.0016501195496039,-0.0016403451620982,0.0016386960954183,-0.0016406441073485,0.0016383196434925,-0.0014345234632517,0.0014353395980675,-0.0014366505039818,0.0014332450956269,-0.0016395547619412,0.0016394424938135,-3.2543229678252e-06,3.733955659719e-06,-0.00096339348019157,0.00096387530163745,6.8363930755651e-08,4.1863283756879e-07,-0.0008353595568013,0.00082936235987601,-0.00070937718039089,0.00071257859803781,-0.00071168730030516,0.00071025976100602,-0.00082875648524774,0.00083583516716577,-0.00083572499386229,0.00082889191238926,-0.00070965580298096,0.00071216376804689,-0.00071201000448068,0.0007098259775278,-0.0011919837844603,0.001190010884313,-0.0011918597264996,0.0011901311890205,-0.0011896540691751,0.001192345631413,-0.0011895347860171,0.0011924490738714,-0.0012109131381684,0.0012183189890846,-0.0012177180942051,0.0012114949686309,-0.0012178440961842,0.0012113721929546,-0.0012110297040707,0.0012182471421063,-0.00082858751085684,0.00083614485956652,0.78952232979261,132672,2954,0.0041273429148429,0.0067234305046847,0.0040084068281752,29.292819570028,0.00014954255656022,0.00014954255656022,0.00014954255656022,3675232.1447787,0.014970786277239
33391759,0.96765994541319,0.015615329606839,0.0046912370058214,0.0062946816889844,0.0046294109120337,-0.00099807002003259,0.00099816880373123,3.5205118607183e-06,-3.4256764694241e-06,-4.9538259226653e-07,6.2137009214467e-07,-0.00044666727227278,0.00044108248174108,-0.0011646835838295,0.0011682197909412,-0.0011669903288747,0.0011658973011771,-0.0004409675938478,0.00044674231367061,-0.0004477951567598,0.00043998676674244,-0.0011657679201104,0.001167100623492,-0.0011680704752944,0.0011648019675823,-0.0011922916872251,0.001194330176593,-0.0011946038804232,0.0011920121291337,-0.0011919301508913,0.0011947059170974,-0.0011942445146454,0.0011923851022586,-0.00087725578859933,0.00088453209432443,-0.00088406470795631,0.00087771990266842,-0.00087762731566437,0.00088414769856073,-0.00088443473873674,0.00087734117841927,-0.00043986421808997,0.00044790047268596,2.2528119398067e-07,-8.842096784363e-07,5.0059000152591e-07,-1.144786353801e-06,-0.0016509011454677,0.0016502585114841,-0.0016772625396506,0.001675378323976,-0.0014618509001218,0.0014628321218174,-0.0014629243642112,0.0014617211745681,-0.0016789270528976,0.0016792028581807,-0.0016794632343122,0.0016786480000888,-0.0016792905677033,0.0016788343296265,-0.0016798222591376,0.0016782823157437,-0.0016760360790212,0.0016766254015702,-0.0016776399853306,0.0016750032381156,-0.0014624034772169,0.0014622812970244,-0.0014634621879751,0.0014611817389619,-0.001675655211222,0.0016769948041584,-3.0500109358068e-06,3.8977176183322e-06,-0.00096645092402767,0.0009673012362804,-3.8139663550281e-07,1.2478327091737e-06,-0.00082556108123962,0.00082121619011251,-0.00069762833526099,0.00070240772186773,-0.00069994117858592,0.00070008970273832,-0.00082037948601898,0.00082639659345295,-0.00082717817982512,0.00081959987741871,-0.00069921489633513,0.0007007905704137,-0.00070153422312592,0.00069849109304753,-0.0012054870388658,0.0012034769234037,-0.0012049440790751,0.0012040189386799,-0.0012031771678015,0.0012057930726605,-0.0012026341699762,0.0012063340406786,-0.0012273837882035,0.0012355780807866,-0.0012341735889373,0.0012287718590856,-0.0012347246714932,0.0012282246324894,-0.0012279369177359,0.0012350339381361,-0.00081877102968552,0.00082802052738529,0.79432064729685,132672,2954,0.0041528132850293,0.0068521289685649,0.004021997215332,29.275813108722,0.00014940650486978,0.00014940650486978,0.00014940650486978,3501448.8610837,0.015141141113833
34391759,0.97828552787764,0.015784383388637,0.0047407191247615,0.0063663848801206,0.0046772793837544,-0.0010052699665875,0.0010054050438842,3.5127153789203e-06,-3.3797908615704e-06,-6.2337154031664e-07,7.8830576953083e-07,-0.00043822221798664,0.00043303251950267,-0.0011753365889883,0.0011791910808301,-0.0011776251298056,0.0011768640980357,-0.00043287940110285,0.00043834283054835,-0.00043965406897254,0.00043164350102407,-0.0011767105812508,0.0011777666661537,-0.0011789877135912,0.0011754845906439,-0.0012053857692451,0.0012073441111368,-0.0012076796807803,0.0012050456625496,-0.0012049296628366,0.0012078187994187,-0.0012072260538097,0.0012055159089401,-0.00088143318278563,0.00088879209534764,-0.00088819217662912,0.00088204214893024,-0.00088190243918449,0.0008883101940433,-0.00088866118140645,0.00088155854785366,-0.0004314590602482,0.00043977781688526,3.2052194704147e-07,-1.0839572373959e-06,4.9602113228123e-07,-1.2424662508828e-06,-0.0016778155407236,0.0016770726054616,-0.0017062619590677,0.0017042778482635,-0.0014850737897343,0.0014862790528487,-0.0014864451703101,0.0014848671089564,-0.0017046998707693,0.0017050063075512,-0.0017052685597099,0.0017044204345393,-0.0017051598923424,0.0017045403515991,-0.0017057223484226,0.001703958104671,-0.0017050478345057,0.0017055339797872,-0.0017067328354627,0.0017037951995694,-0.0014856669750065,0.0014856956249494,-0.0014870158254545,0.0014843190194469,-0.0017045700770439,0.0017059930438113,-3.0115831717888e-06,3.8822312391623e-06,-0.00097107162174941,0.00097194784054348,-4.1271605638596e-07,1.3098171521436e-06,-0.00082193200399257,0.00081775158684431,-0.00069290424829926,0.00069780823285752,-0.00069520782275717,0.00069549728351262,-0.00081685723206192,0.00082278686263446,-0.0008236242102266,0.00081602598088781,-0.00069458683619496,0.00069608822067918,-0.00069688403599961,0.00069380420806245,-0.0012180172136105,0.0012160187352038,-0.0012174408266715,0.0012165909710195,-0.0012157241623626,0.0012183151599205,-0.0012151494199472,0.0012188857714377,-0.0012413747475771,0.0012495610179316,-0.0012481103401981,0.0012428175375217,-0.0012486954759673,0.0012422376503473,-0.0012419565357913,0.001248993202221,-0.00081519085930637,0.00082449387023898,0.76156673932101,132672,2954,0.0041829425175511,0.0069631827701169,0.0040413262218931,31.391922115905,0.00016633537692724,0.00016633537692724,0.00016633537692724,3396452.3180893,0.015304145901571
35391759,0.98672701411083,0.015915024059261,0.0047791987789538,0.006421394722381,0.0047144305579258,-0.0010150849496655,0.001015280338294,3.6165411254051e-06,-3.4324445958084e-06,-7.5278997730493e-07,1.0147352343163e-06,-0.00044104062169762,0.00043608031332243,-0.001188281388438,0.0011925866492243,-0.0011905857716764,0.0011902471105113,-0.00043581923539199,0.00044121618040913,-0.00044285073234867,0.00043437701477373,-0.001189977837803,0.0011908630656571,-0.001192327481237,0.0011885552568142,-0.0012189413658972,0.0012208740571247,-0.001221280081125,0.0012185263412802,-0.0012183623274184,0.0012214705867993,-0.0012207186132616,0.0012191225884929,-0.00088946193992926,0.0008971504247777,-0.00089640777863533,0.00089026450803997,-0.00089008412692849,0.00089654404821776,-0.00089697604332914,0.00088964329435525,-0.00043408925401733,0.00044301958893711,4.6727485471175e-07,-1.2918159836769e-06,4.8016830458167e-07,-1.3159116393534e-06,-0.001702821014067,0.0017020125650726,-0.0017292661598312,0.0017272858057924,-0.0015064864400554,0.001507946450556,-0.0015080818520289,0.0015061774735277,-0.0017313208053933,0.0017317159509087,-0.0017319078192756,0.0017310915609975,-0.0017318741276887,0.0017311114336034,-0.0017324654080422,0.0017304973599418,-0.0017281711954829,0.0017284474158876,-0.0017299168532854,0.0017266697863669,-0.0015070339202421,0.0015073715161558,-0.0015086644042059,0.0015055882001111,-0.0017275423915187,0.0017290772467305,-3.0639302815052e-06,3.9852197963873e-06,-0.00097899223515383,0.00097992874126455,-4.0311629336465e-07,1.3725860625009e-06,-0.0008270783231891,0.00082278416845144,-0.00069705487535723,0.00070211498364904,-0.00069939085936753,0.00069973243733149,-0.00082181310480625,0.00082785175314081,-0.0008287957687171,0.00082104798403004,-0.00069871786380471,0.00070028085372855,-0.00070108806692106,0.00069801468393642,-0.00123122324207,0.0012292175959698,-0.0012306275203634,0.0012298023999353,-0.0012289031161646,0.0012315689669896,-0.0012282881481855,0.0012321657131102,-0.0012539205138848,0.0012623326502635,-0.0012608121252822,0.0012554076532459,-0.001261377866982,0.0012548368927948,-0.0012545426094618,0.0012617520346061,-0.00082018621003883,0.00082975950010538,0.73947519877007,132672,2954,0.0042239041477842,0.0070664087468211,0.0040743740594097,35.837303193349,0.0002018984255468,0.0002018984255468,0.0002018984255468,3374562.4295599,0.015484131410583
36391759,0.99220239577701,0.016001282066037,0.004804642950618,0.0064575983112751,0.0047390408041439,-0.001019244230039,0.0010193729368314,3.591493345488e-06,-3.4669715735923e-06,-5.9779210177374e-07,7.5904916768919e-07,-0.00044073968728254,0.00043531610595529,-0.0011955918202031,0.0011994354368336,-0.0011979349034844,0.0011970754464653,-0.00043516924328443,0.00044084533940491,-0.00044210710165836,0.00043398116504592,-0.001196909777136,0.0011980781176566,-0.0011992492710902,0.0011957435313759,-0.0012253072769314,0.0012273324920592,-0.0012276567866205,0.0012249771362,-0.001224868366778,0.0012277884303175,-0.0012272205181787,0.0012254300570639,-0.00089189847922421,0.00089939562422922,-0.00089881943758514,0.00089247299924905,-0.00089235168502122,0.00089893015547036,-0.00089926851560318,0.00089201314049027,-0.00043382388202102,0.0004422436697364,3.0022170764524e-07,-1.0491285176476e-06,4.6242065511161e-07,-1.1939761499308e-06,-0.0017166753975868,0.0017159457023819,-0.0017423529857154,0.001740450979803,-0.0015175314156204,0.0015186623014287,-0.0015188354337724,0.0015173106861411,-0.0017463966464747,0.0017466684306232,-0.0017469364524396,0.0017461096481187,-0.0017468361230808,0.0017462194194714,-0.0017473714209113,0.0017456637867135,-0.0017411962442904,0.0017416288310989,-0.00174281102981,0.0017399953486994,-0.0015180866897539,0.0015181083516456,-0.001519376356955,0.0015167683159507,-0.0017407354071908,0.0017420794058673,-3.1060478196472e-06,3.9540759768238e-06,-0.00098211258518,0.00098296353651469,-3.8706543074772e-07,1.2546811192302e-06,-0.00082919712378554,0.00082475317711755,-0.00069746060401893,0.00070229096837172,-0.00069981027880467,0.00069993527862,-0.0008239152926811,0.0008300290678697,-0.00083082389316564,0.00082312592155925,-0.00069905898551408,0.00070065991972398,-0.00070141537604178,0.00069832510225648,-0.0012375543557512,0.0012355037349701,-0.0012370074727278,0.0012360493833372,-0.0012352081058186,0.0012378575019537,-0.0012346606291602,0.0012384023597929,-0.0012608199599803,0.0012691284503973,-0.0012677196496128,0.0012622111210792,-0.0012682731467397,0.0012616610790531,-0.0012613776281816,0.0012685807971395,-0.00082229736575197,0.00083166795933856,0.75249744098603,132672,2954,0.004241093258472,0.0071238295097633,0.0040871868062574,37.524565013007,0.00021539652010405,0.00021539652010405,0.00021539652010405,3341885.2907347,0.015572925533311
37391759,0.99543517066862,0.016051875375705,0.004819589397058,0.0064787761621639,0.0047535098164831,-0.0010193947056977,0.0010195233846779,3.5631013497542e-06,-3.4384521660919e-06,-6.0246995465895e-07,7.6381459264279e-07,-0.00043143230351469,0.00042607561774352,-0.0011963765744916,0.001200209912658,-0.0011987005912807,0.0011978697124925,-0.00042592740941235,0.00043153986554208,-0.00043280996282192,0.00042472976059104,-0.0011977040339508,0.0011988441512313,-0.0012000245870377,0.0011965279310641,-0.0012284460351009,0.0012304492123684,-0.00123077671998,0.0012281126101268,-0.0012280041539627,0.0012309080777519,-0.0012303373557328,0.0012285688181893,-0.00089048628958489,0.00089793059077927,-0.00089735105083134,0.00089106466307291,-0.00089094182982962,0.00089746247977868,-0.0008978038279585,0.00089060098570037,-0.00042457405360793,0.00043294625280953,3.0556920351603e-07,-1.0534967444752e-06,4.3259815926474e-07,-1.1632646701004e-06,-0.0017253255344868,0.0017245968035147,-0.0017533958860189,0.0017515579025123,-0.0015257015108694,0.0015268229505718,-0.0015270151747686,0.0015254622127098,-0.0017531832166543,0.0017534392928582,-0.0017537033865206,0.001752900764679,-0.0017536258156723,0.0017529871750305,-0.0017541417149091,0.0017524515707914,-0.0017523013181583,0.0017526718558969,-0.0017538568797013,0.0017510980266019,-0.0015262365835786,0.0015262892162529,-0.0015275364897606,0.0015249396662766,-0.0017518373862664,0.0017531254731078,-3.0883515023546e-06,3.9149139272596e-06,-0.00098137262040217,0.0009822020917744,-3.6806150573606e-07,1.2134392488242e-06,-0.00082321455735744,0.00081874646100686,-0.00069085741515726,0.00069558739082931,-0.00069318823943045,0.00069325003721881,-0.00081793009105304,0.00082402639412467,-0.00082478321738072,0.00081717750213728,-0.00069239605426802,0.00069401585862559,-0.00069473344025699,0.00069169928031332,-0.0012405263058209,0.0012384933294301,-0.0012399993542802,0.0012390190469847,-0.0012381989837044,0.0012408282138829,-0.0012376715667277,0.0012413530581872,-0.0012652388606114,0.0012734492963852,-0.0012720826002568,0.0012665889177852,-0.0012726168045434,0.0012660586259866,-0.0012657759870297,0.0012729221612483,-0.00081637081603471,0.00082560525119799,0.74709022172532,132672,2954,0.0042418034170221,0.0071595839266249,0.0040841361678081,37.635411588975,0.0002162832927118,0.0002162832927118,0.0002162832927118,3261854.8453323,0.015606896826061
38391759,0.99730195413178,0.016081570000274,0.004828394332133,0.0064911400277638,0.0047620356403774,-0.0010186845864299,0.0010187803487654,3.5247946625493e-06,-3.4329448940261e-06,-5.0778473182738e-07,6.316428134503e-07,-0.00042851772459826,0.00042294145952309,-0.0011965685303659,0.0012001275408787,-0.0011988779167299,0.0011978016864096,-0.00042282916202633,0.00042859049031014,-0.00042966886738166,0.00042182421219113,-0.0011976749856766,0.0011989866831538,-0.0011999808626197,0.0011966851902136,-0.0012286887924667,0.0012307201344634,-0.0012310048731762,0.001228398268268,-0.0012283194864444,0.0012311034487931,-0.0012306380955166,0.0012287788358707,-0.00088928581573744,0.00089657894393172,-0.00089610787370987,0.00088975571865962,-0.00088966594570646,0.000896187230021,-0.00089648511842336,0.0008893687367002,-0.00042170214587443,0.00042976984750303,2.326140652798e-07,-8.9981011693991e-07,4.8024222938101e-07,-1.1331653454671e-06,-0.0017284455931403,0.0017277948271058,-0.0017566530158404,0.0017547995774296,-0.0015281920872275,0.0015291759240038,-0.0015292863466521,0.0015280423142356,-0.001756383810414,0.0017566489275251,-0.0017569096215959,0.0017561046284234,-0.0017567545716738,0.001756272516095,-0.0017572760007322,0.0017557312207211,-0.001755466465468,0.0017560072795808,-0.001757039251598,0.0017544162023147,-0.001528733153599,0.0015286364774588,-0.0015298134110847,0.0015275142662316,-0.0017550773089998,0.0017563849351936,-3.0666430007771e-06,3.8927698775867e-06,-0.000980067864001,0.00098089702234264,-3.7675863475013e-07,1.2220417006793e-06,-0.00082058319176406,0.0008161748004206,-0.00068804276857547,0.00069277505241834,-0.00069035912409291,0.00069045292022865,-0.00081535803745721,0.00082139386323434,-0.00082216893939941,0.00081458855594511,-0.00068959853024361,0.00069118636373518,-0.00069192146135973,0.00068888471307768,-0.0012406687994434,0.0012386444190174,-0.0012401361002198,0.0012391759070836,-0.0012383557096827,0.0012409642846962,-0.0012378226111117,0.0012414948922944,-0.001265591870237,0.0012737649805439,-0.0012723929807514,0.0012669475235434,-0.0012729328799918,0.0012664113292962,-0.0012661346057646,0.0012732316835123,-0.00081378217668266,0.00082299051967839,0.75853624574928,132672,2954,0.0042388215520658,0.0071726292173006,0.0040787403486519,37.196172703413,0.00021276938162731,0.00021276938162731,0.00021276938162731,3225227.9454499,0.015611645810112
38880000,0.99798342010473,0.016092542269802,0.0048316532338406,0.0064956960827459,0.0047651929532156,-0.001018380734252,0.0010184789836078,3.5146379757489e-06,-3.4197761067246e-06,-5.2212358966881e-07,6.469208486187e-07,-0.00042388955946083,0.00041836274656801,-0.0011961932221553,0.0011997765932747,-0.0011984963159501,0.0011974538909211,-0.00041825403358884,0.00042395911673862,-0.00042507248199173,0.00041722488274434,-0.0011973290795129,0.0011986013507198,-0.0011996278288501,0.0011963118904664,-0.0012295952276237,0.0012316116803766,-0.0012319024226504,0.0012292973963866,-0.0012292158023861,0.0012320050837368,-0.0012315266511456,0.001229687862681,-0.00088840489165924,0.00089568916916079,-0.00089520359517734,0.00088888755008751,-0.00088879654005153,0.00089528717207602,-0.00089558851946777,0.0008884885904788,-0.00041709739993329,0.00042517384242536,2.4236089852351e-07,-9.1999733417344e-07,4.8525021008826e-07,-1.1493278553082e-06,-0.0017310021390987,0.0017303414278123,-0.0017607907974574,0.0017589122967133,-0.0015309095139432,0.001531920698684,-0.001532039095399,0.0015307577071945,-0.0017576777353972,0.0017579513538085,-0.0017582117743316,0.001757400179021,-0.0017580585871,0.0017575649438136,-0.0017585876841744,0.0017570171843142,-0.0017595908120753,0.0017601310622135,-0.0017611864585779,0.0017585174981637,-0.0015314569671089,0.0015313728986312,-0.0015325690129583,0.0015302278334726,-0.0017591899389988,0.001760517200153,-3.0479291397615e-06,3.8882218255858e-06,-0.00097940182354901,0.00098024408000212,-3.8080732327198e-07,1.2390842335425e-06,-0.00081722287494134,0.00081286968803771,-0.00068460251412186,0.00068936319591662,-0.00068691319690178,0.00068704710417486,-0.00081203205980902,0.00081804372344874,-0.00081882375811303,0.00081126098085343,-0.00068617809136594,0.00068774906740643,-0.00068849331174098,0.00068545495824605,-0.0012414646160153,0.0012394538062386,-0.0012409242480712,0.0012399917982666,-0.0012391591253204,0.00124176520158,-0.0012386183650438,0.0012423025106359,-0.0012671695740134,0.0012753404569876,-0.0012739483406207,0.0012685468937571,-0.0012744948372371,0.0012680049871132,-0.0012677196734836,0.0012748019879238,-0.00081044038110768,0.00081966426548349,0.76741574648269,132672,2954,0.0042376027755013,0.0071831766914889,0.004076031517047,37.193655329807,0.00021274924263845,0.00021274924263845,0.00021274924263845,3189804.6412382,0.015618386399305
