time,ASR_ext,ASR_strain,ASR_strain_xx,ASR_strain_yy,ASR_strain_zz,disp_x_101,disp_x_102,disp_x_103,disp_x_104,disp_x_105,disp_x_106,disp_x_p10_neg,disp_x_p10_pos,disp_x_p11_neg,disp_x_p11_pos,disp_x_p12_neg,disp_x_p12_pos,disp_x_p13_neg,disp_x_p13_pos,disp_x_p14_neg,disp_x_p14_pos,disp_x_p15_neg,disp_x_p15_pos,disp_x_p16_neg,disp_x_p16_pos,disp_x_p1_neg,disp_x_p1_pos,disp_x_p2_neg,disp_x_p2_pos,disp_x_p3_neg,disp_x_p3_pos,disp_x_p4_neg,disp_x_p4_pos,disp_x_p5_neg,disp_x_p5_pos,disp_x_p6_neg,disp_x_p6_pos,disp_x_p7_neg,disp_x_p7_pos,disp_x_p8_neg,disp_x_p8_pos,disp_x_p9_neg,disp_x_p9_pos,disp_y_101,disp_y_102,disp_y_103,disp_y_104,disp_y_105,disp_y_106,disp_y_p10_neg,disp_y_p10_pos,disp_y_p11_neg,disp_y_p11_pos,disp_y_p12_neg,disp_y_p12_pos,disp_y_p1_neg,disp_y_p1_pos,disp_y_p2_neg,disp_y_p2_pos,disp_y_p3_neg,disp_y_p3_pos,disp_y_p4_neg,disp_y_p4_pos,disp_y_p5_neg,disp_y_p5_pos,disp_y_p6_neg,disp_y_p6_pos,disp_y_p7_neg,disp_y_p7_pos,disp_y_p8_neg,disp_y_p8_pos,disp_y_p9_neg,disp_y_p9_pos,disp_z_101,disp_z_102,disp_z_103,disp_z_104,disp_z_105,disp_z_106,disp_z_p10_neg,disp_z_p10_pos,disp_z_p11_neg,disp_z_p11_pos,disp_z_p12_neg,disp_z_p12_pos,disp_z_p13_neg,disp_z_p13_pos,disp_z_p14_neg,disp_z_p14_pos,disp_z_p15_neg,disp_z_p15_pos,disp_z_p16_neg,disp_z_p16_pos,disp_z_p1_neg,disp_z_p1_pos,disp_z_p2_neg,disp_z_p2_pos,disp_z_p3_neg,disp_z_p3_pos,disp_z_p4_neg,disp_z_p4_pos,disp_z_p5_neg,disp_z_p5_pos,disp_z_p6_neg,disp_z_p6_pos,disp_z_p7_neg,disp_z_p7_pos,disp_z_p8_neg,disp_z_p8_pos,disp_z_p9_neg,disp_z_p9_pos,humidity,ndof,nelem,strain_xx,strain_yy,strain_zz,temp,thermal_strain_xx,thermal_strain_yy,thermal_strain_zz,vonmises,vstrain
14391759,0,0,0,0,0,0,0,0,0,0,0,0,0,0,0,0,0,0,0,0,0,0,0,0,0,0,0,0,0,0,0,0,0,0,0,0,0,0,0,0,0,0,0,0,0,0,0,0,0,0,0,0,0,0,0,0,0,0,0,0,0,0,0,0,0,0,0,0,0,0,0,0,0,0,0,0,0,0,0,0,0,0,0,0,0,0,0,0,0,0,0,0,0,0,0,0,0,0,0,0,0,0,0,0,0,0,0,0,0,0,0,0,0,0,0,0,0,0,0,0,0,0,0
15391759,0.1005734262508,0.001691892630958,0.00056396421031934,0.00056396421031934,0.00056396421031934,-0.00016063967032222,0.00016063966397701,-2.7224649886516e-12,-3.0406608856324e-12,-1.7811517616687e-12,-3.7889371200571e-12,-0.00014597841943092,0.00014597841075833,-0.00016074743791758,0.00016074743059211,-0.00016074743907188,0.0001607474315343,-0.00014597841637481,0.00014597841213524,-0.00014597841753191,0.0001459784126692,-0.00016074743600027,0.00016074743255811,-0.00016074743714775,0.00016074743349346,-0.00016614854129318,0.00016614853623686,-0.00016614854180352,0.00016614853653507,-0.00016614854194658,0.00016614853555448,-0.00016614854246001,0.00016614853585577,-0.0001571854693142,0.00015718546259977,-0.00015718546986729,0.00015718546252971,-0.00015718546866351,0.00015718546326613,-0.00015718546920999,0.00015718546318947,-0.0001459784182603,0.0001459784102109,-6.3000258457787e-13,1.3081053774331e-12,1.5191940676052e-13,4.9767080752786e-13,-0.000170860446249,0.00017086044690158,-0.00016946468636387,0.00016946468669508,-0.00016730743501271,0.00016730743367153,-0.00016730743327704,0.00016730743573452,-0.00017126461541085,0.00017126461528006,-0.00017126461563257,0.00017126461571508,-0.00017126461496335,0.00017126461617212,-0.00017126461518506,0.00017126461660714,-0.00016946468574908,0.00016946468671112,-0.00016946468607078,0.00016946468771624,-0.00016730743480495,0.00016730743368877,-0.00016730743306932,0.00016730743575175,-0.00016946468604215,0.00016946468568996,-7.0352048587325e-13,-3.8532524787965e-13,-0.00016114410383369,0.00016114410113281,-5.1404927776507e-13,-8.4382059134545e-13,-0.00015552533423922,0.00015552533114359,-0.00015436035196732,0.00015436034822289,-0.00015436035209079,0.00015436034813425,-0.00015552533381809,0.00015552533203517,-0.0001555253338607,0.00015552533145467,-0.00015436035164579,0.00015436034856527,-0.00015436035174113,0.00015436034844849,-0.00016619836001242,0.00016619835895668,-0.00016619836012718,0.00016619835885685,-0.00016619836005963,0.00016619835921601,-0.00016619836016135,0.00016619835910314,-0.00016440491102674,0.00016440491035303,-0.00016440491076503,0.00016440490946822,-0.00016440491063648,0.00016440490956415,-0.00016440491092703,0.00016440491047783,-0.00015552533413688,0.00015552533166434,0.76480136386589,132441,2954,0.00066910832807364,0.00071166386017754,0.00067120792195699,27.19049317276,0.00013272394538208,0.00013272394538208,0.00013272394538208,1181991.4699988,0.0020540897015801
16391759,0.18904699541414,0.0031905929533611,0.0010463269927228,0.0010976663593646,0.0010465996012737,-0.00026470812472394,0.00026470811878571,-2.5901419538236e-12,-2.9084865962604e-12,-1.2491775774531e-12,-4.2206654917135e-12,-0.00023294125165698,0.00023294124274043,-0.00026973083065764,0.00026973082244422,-0.00026973083177645,0.0002697308233508,-0.00023294124796656,0.00023294124532242,-0.00023294124884381,0.0002329412455763,-0.00026973082780211,0.00026973082537279,-0.00026973082891167,0.00026973082627013,-0.00027848328306075,0.00027848327830227,-0.0002784832836734,0.00027848327870268,-0.00027848328403177,0.0002784832772913,-0.0002784832846478,0.00027848327769508,-0.00025833317147463,0.00025833316500308,-0.00025833317227784,0.00025833316518284,-0.00025833317051386,0.00025833316598582,-0.00025833317131052,0.00025833316615901,-0.00023294125076211,0.00023294124246899,-7.8321445963815e-13,2.063224164771e-12,4.1106483195743e-13,8.2097389039942e-13,-0.00029712190294538,0.00029712190418279,-0.00029625727424873,0.00029625727491333,-0.0002886888629478,0.0002886888612888,-0.00028868886032205,0.000288688864252,-0.0002979563532199,0.00029795635334059,-0.00029795635402266,0.00029795635440685,-0.00029795635254991,0.00029795635461443,-0.00029795635335266,0.00029795635568071,-0.00029625727264604,0.00029625727443569,-0.00029625727370104,0.00029625727629322,-0.00028868886303575,0.00028868886164635,-0.00028868886040999,0.00028868886460956,-0.00029625727319373,0.0002962572730558,-7.3906972339786e-13,-4.2072466920898e-13,-0.00026537723953864,0.00026537723720718,-4.3614227909393e-13,-8.2567571735007e-13,-0.00025542467564488,0.00025542467344922,-0.00024999525301162,0.00024999525008779,-0.00024999525306933,0.00024999524993329,-0.00025542467505735,0.00025542467428459,-0.0002554246751846,0.00025542467378852,-0.0002499952526476,0.00024999525049106,-0.00024999525265722,0.00024999525028848,-0.0002791513033679,0.00027915130204794,-0.00027915130350604,0.00027915130193139,-0.00027915130363906,0.00027915130253131,-0.0002791513037572,0.00027915130239477,-0.0002784307778967,0.00027843077690221,-0.00027843077790484,0.00027843077628694,-0.00027843077774363,0.00027843077639185,-0.00027843077778273,0.00027843077705437,-0.00025542467541293,0.00025542467384058,0.78818719643062,132441,2954,0.0011023501736294,0.0012372360522679,0.0011051293033249,24.444618476156,0.00011075694780925,0.00011075694780925,0.00011075694780925,1859219.201966,0.0034506635064293
17391759,0.26800582001601,0.0044697935527148,0.0014477699792079,0.0015760086662349,0.0014460149072721,-0.00035055147310078,0.00035055147032419,-1.0923895400141e-12,-1.4108688768654e-12,-3.2116761502041e-13,-2.2543785567531e-12,-0.00028969948737839,0.00028969948272684,-0.00036273511710009,0.00036273511271847,-0.0003627351178943,0.00036273511330039,-0.00028969948523493,0.00028969948489678,-0.00028969948554225,0.00028969948458047,-0.0003627351152322,0.00036273511463971,-0.00036273511601933,0.00036273511521455,-0.00037457869038317,0.00037457868822986,-0.00037457869076725,0.00037457868840161,-0.0003745786910227,0.00037457868756895,-0.00037457869140927,0.00037457868774317,-0.00033856206768652,0.00033856206481043,-0.00033856206824837,0.00033856206474853,-0.0003385620670628,0.0003385620654503,-0.00033856206761979,0.00033856206538353,-0.0002896994870579,0.00028969948303003,-3.9600735792834e-13,1.4470845958677e-12,2.6270634214864e-13,7.5486428500249e-13,-0.00041135545139473,0.00041135545241483,-0.00041010227879142,0.00041010227966671,-0.000392859583504,0.00039285958257837,-0.00039285958169421,0.00039285958438808,-0.00041398161623316,0.00041398161645691,-0.0004139816166586,0.0004139816172005,-0.00041398161572281,0.00041398161719614,-0.00041398161614824,0.00041398161793973,-0.0004101022782398,0.00041010227939167,-0.0004101022783308,0.00041010228044636,-0.00039285958341829,0.00039285958281881,-0.00039285958160849,0.00039285958462852,-0.00041010227870041,0.00041010227861201,-5.284830610876e-13,-2.1000288602657e-13,-0.00035078290979003,0.00035078290845378,-1.1818563215712e-13,-5.9382599137652e-13,-0.00033518181547867,0.00033518181425195,-0.00032296216267374,0.00032296216116437,-0.00032296216273603,0.00032296216101438,-0.00033518181461366,0.00033518181496925,-0.00033518181496291,0.000335181814695,-0.00032296216221927,0.00032296216164177,-0.00032296216225646,0.00032296216146669,-0.00037590215836828,0.0003759021573277,-0.00037590215852877,0.00037590215717586,-0.00037590215849677,0.00037590215766849,-0.00037590215864667,0.00037590215750605,-0.00037414406334151,0.00037414406260689,-0.0003741440637195,0.00037414406236123,-0.00037414406353988,0.00037414406250407,-0.00037414406319149,0.00037414406277934,-0.00033518181506884,0.00033518181446563,0.75883379328512,132441,2954,0.001459592564207,0.0017124939676986,0.0014605366575511,22.111149741754,9.2089197934031e-05,9.2089197934031e-05,9.2089197934031e-05,2470990.4088434,0.0046433921439468
18391759,0.32478880647866,0.0053544001004228,0.0017198337755074,0.0019197745273626,0.0017147917975528,-0.0004023074322664,0.00040230743293134,4.903428806557e-13,1.7174855467014e-13,5.6668647855825e-13,-6.2942878608853e-14,-0.00031885722820286,0.00031885722820713,-0.00042079621848325,0.00042079621841051,-0.00042079621874958,0.00042079621846447,-0.00031885722772396,0.00031885722956284,-0.00031885722759858,0.00031885722881365,-0.00042079621786345,0.0004207962190487,-0.00042079621812515,0.00042079621909805,-0.00043486227229094,0.00043486227296573,-0.00043486227244346,0.00043486227290584,-0.0004348622725103,0.00043486227274724,-0.00043486227266429,0.0004348622726888,-0.0003851330849956,0.0003851330859952,-0.00038513308535363,0.00038513308572923,-0.00038513308479308,0.00038513308620417,-0.00038513308514836,0.00038513308593545,-0.00031885722831972,0.00031885722894787,-4.1654867207005e-14,5.4983480035074e-13,-1.0443105235009e-13,6.0230733521847e-13,-0.00048703698488886,0.00048703698538545,-0.00048310242030971,0.00048310242130169,-0.00045821279146192,0.00045821279115695,-0.00045821279080175,0.00045821279165509,-0.00049345557145622,0.00049345557151546,-0.00049345557152765,0.00049345557205233,-0.00049345557122313,0.00049345557167614,-0.00049345557129456,0.00049345557221301,-0.0004831024204951,0.00048310242049476,-0.00048310242005707,0.00048310242143988,-0.00045821279129787,0.00045821279146366,-0.0004582127906377,0.00045821279196179,-0.00048310242074773,0.00048310242035656,-3.2369347903347e-13,-5.0970814200143e-15,-0.00040173313381211,0.00040173313357507,2.131497384218e-13,-4.8192165997703e-13,-0.00038038584181755,0.00038038584123007,-0.00036458843695949,0.00036458843660484,-0.00036458843701996,0.00036458843645296,-0.00038038584063408,0.00038038584204773,-0.00038038584112042,0.00038038584191041,-0.00036458843628314,0.00036458843728643,-0.00036458843634312,0.00036458843713408,-0.00043677435415076,0.00043677435358078,-0.000436774354379,0.00043677435334894,-0.00043677435414753,0.00043677435378993,-0.0004367743543754,0.0004367743535577,-0.00043205236990535,0.00043205236944417,-0.00043205237050553,0.00043205236942047,-0.00043205237026653,0.00043205236964901,-0.00043205236967339,0.00043205236967973,-0.00038038584131964,0.00038038584135585,0.73908698525602,132441,2954,0.0016749277526625,0.0020272250473958,0.0016725044748603,17.501214278214,5.5209714225711e-05,5.5209714225711e-05,5.5209714225711e-05,2937961.2447011,0.0053891672752147
19391759,0.38331587330141,0.0063094183497522,0.0020117392210476,0.0022954881027808,0.0020021910259238,-0.0004675794555064,0.00046757945589241,3.8885194436943e-13,7.0341064364062e-14,4.2494863943429e-13,-6.8453136744837e-14,-0.0003608712577108,0.00036087125755346,-0.00049659949995766,0.00049659949987791,-0.00049659950013078,0.00049659949983875,-0.00036087125729121,0.00036087125869872,-0.0003608712572372,0.00036087125802107,-0.00049659949947414,0.0004965995003688,-0.00049659949964371,0.00049659950032609,-0.00050819560409697,0.00050819560460167,-0.00050819560423969,0.00050819560453201,-0.00050819560427475,0.00050819560442979,-0.00050819560441887,0.00050819560436152,-0.00044709623606885,0.00044709623679379,-0.00044709623639818,0.00044709623649926,-0.00044709623590796,0.00044709623695803,-0.00044709623623424,0.00044709623666044,-0.00036087125775672,0.0003608712582231,-8.9753822937558e-14,3.756954492325e-13,-2.1613661776292e-13,4.9979171700023e-13,-0.00057981599980017,0.00057981600008016,-0.00057509691103848,0.00057509691186767,-0.00054059493733827,0.00054059493693587,-0.00054059493681911,0.00054059493731941,-0.00058973062580063,0.00058973062567744,-0.00058973062567858,0.00058973062602436,-0.00058973062556158,0.00058973062576417,-0.00058973062543954,0.00058973062611108,-0.00057509691145323,0.00057509691118793,-0.00057509691080044,0.00057509691193794,-0.00054059493719821,0.00054059493727265,-0.00054059493667904,0.00054059493765618,-0.00057509691169126,0.00057509691111765,-3.8819047928262e-13,-6.9675373303408e-14,-0.00046579346241449,0.00046579346177804,9.8457712772694e-14,-6.0526829623373e-13,-0.00044332854549402,0.00044332854436833,-0.00042086962640666,0.00042086962548252,-0.00042086962647722,0.00042086962534083,-0.00044332854431998,0.00044332854521579,-0.00044332854479399,0.00044332854506635,-0.00042086962572025,0.0004208696261737,-0.0004208696257935,0.00042086962603471,-0.00051073892455648,0.00051073892388632,-0.00051073892478685,0.00051073892365124,-0.00051073892448393,0.00051073892402609,-0.00051073892471498,0.00051073892379167,-0.00050598493958026,0.00050598493902804,-0.00050598494001534,0.00050598493883943,-0.00050598493977659,0.00050598493907424,-0.00050598493934434,0.00050598493926569,-0.00044332854501861,0.00044332854451638,0.77929913274476,132441,2954,0.0019464401559417,0.0024129181071614,0.0019389547904571,17.480109281517,5.5040874252138e-05,5.5040874252138e-05,5.5040874252138e-05,3233301.0178059,0.006318242171985
20391759,0.44766678913067,0.0073644683499384,0.0023276776642422,0.0027219955825741,0.0023147951031221,-0.00053907925014991,0.00053907925011068,1.9271503915843e-13,-1.2593600568265e-13,3.2998883083244e-13,-3.6223092674089e-13,-0.0003962070172099,0.00039620701640082,-0.00058124532750297,0.00058124532684931,-0.00058124532774571,0.00058124532687969,-0.00039620701660465,0.00039620701773872,-0.00039620701654605,0.00039620701705624,-0.00058124532682454,0.00058124532753199,-0.00058124532706373,0.00058124532755883,-0.00059107030153388,0.00059107030170755,-0.00059107030170524,0.00059107030166644,-0.00059107030177669,0.00059107030146932,-0.00059107030194946,0.0005910703014296,-0.00051271958367471,0.00051271958392846,-0.00051271958396883,0.00051271958359839,-0.00051271958344805,0.00051271958415793,-0.00051271958373898,0.00051271958382467,-0.00039620701726054,0.00039620701707544,-1.9794952231497e-13,4.6351532889546e-13,-2.1866633459946e-13,4.8235424970289e-13,-0.0006895015046216,0.00068950150488075,-0.00068692714558362,0.00068692714631215,-0.00063806149912724,0.00063806149851427,-0.00063806149842912,0.00063806149910558,-0.00070089863736812,0.00070089863716019,-0.00070089863728179,0.00070089863753226,-0.0007008986370649,0.00070089863732176,-0.00070089863697857,0.00070089863769382,-0.00068692714578236,0.00068692714557761,-0.00068692714530843,0.00068692714647768,-0.00063806149899454,0.00063806149884834,-0.00063806149829641,0.00063806149943962,-0.00068692714605754,0.00068692714541207,-4.1684548624477e-13,-9.8188342325306e-14,-0.00053647753956793,0.00053647753870089,1.6714592321854e-14,-6.7191320145409e-13,-0.00051053412760411,0.00051053412627136,-0.00047741096141432,0.00047741096012036,-0.0004774109614896,0.00047741095998333,-0.00051053412645097,0.0005105341271114,-0.00051053412691625,0.00051053412695304,-0.00047741096074327,0.00047741096079773,-0.00047741096081925,0.00047741096066139,-0.00059467490671048,0.00059467490596561,-0.00059467490693649,0.00059467490573623,-0.00059467490663428,0.00059467490610181,-0.00059467490686002,0.00059467490587214,-0.00059261110412656,0.00059261110356035,-0.00059261110452709,0.00059261110333691,-0.00059261110429236,0.00059261110356588,-0.00059261110389672,0.0005926111037942,-0.00051053412713261,0.0005105341264235,0.78426873492701,132441,2954,0.0022438031720822,0.0028686886710959,0.0022328885549342,18.604356810224,6.4034854481794e-05,6.4034854481794e-05,6.4034854481794e-05,3455484.638978,0.0073724959393609
21391759,0.49773847922345,0.0081551478966472,0.0025588333848134,0.0030520945093613,0.0025442200024724,-0.00058267066101839,0.00058267066410923,1.6155695719291e-12,1.2968708373685e-12,1.2282721609521e-12,1.4859661415191e-12,-0.0004106726880463,0.00041067269129543,-0.00063367408933065,0.000633674092309,-0.00063367408907874,0.00063367409184472,-0.00041067268867444,0.0004106726920657,-0.0004106726882789,0.00041067269104618,-0.00063367408955897,0.00063367409206246,-0.00063367408930535,0.00063367409159646,-0.00064457805863493,0.00064457806137817,-0.00064457805861681,0.00064457806114753,-0.00064457805856818,0.00064457806146283,-0.00064457805855062,0.00064457806123273,-0.00054989501273653,0.00054989501645937,-0.00054989501292614,0.00054989501602468,-0.00054989501281853,0.00054989501637394,-0.0005498950130068,0.00054989501593791,-0.00041067268843764,0.00041067269231083,8.802656251484e-14,-1.6547928295679e-13,-4.9517188754462e-13,4.2962531641796e-13,-0.00076595692223579,0.00076595692216425,-0.00076377074677358,0.00076377074770234,-0.000703573029483,0.00070357302935104,-0.00070357302961454,0.00070357302897974,-0.00077979026015357,0.00077979025985825,-0.00077979025986333,0.00077979026018041,-0.00077979026006519,0.00077979025960125,-0.00077979025977496,0.00077979025992342,-0.00076377074757332,0.00076377074651277,-0.00076377074664388,0.00076377074739362,-0.00070357302931767,0.00070357302980304,-0.0007035730294492,0.00070357302943174,-0.00076377074770301,0.00076377074682148,-2.2172904985914e-13,9.6976243324687e-14,-0.0005794684003407,0.00057946840064605,3.8441666809937e-13,-5.3270529239545e-13,-0.00054751172604645,0.00054751172551549,-0.00050717364255917,0.00050717364259013,-0.00050717364262607,0.00050717364244471,-0.00054751172457496,0.00054751172647253,-0.00054751172515587,0.00054751172642981,-0.00050717364166206,0.00050717364348392,-0.00050717364174185,0.00050717364335139,-0.00064950796182079,0.000649507961548,-0.00064950796212055,0.00064950796123843,-0.00064950796167762,0.00064950796161725,-0.000649507961983,0.00064950796131329,-0.000647945289306,0.00064794528896218,-0.00064794528997211,0.00064794528900424,-0.00064794528966928,0.0006479452893163,-0.0006479452889948,0.00064794528926586,-0.0005475117254859,0.00054751172557858,0.75706590413485,132441,2954,0.0024250812997791,0.003186241419414,0.0024116338958034,15.309505125405,3.7676041003242e-05,3.7676041003242e-05,3.7676041003242e-05,3678728.8253198,0.0080553224439313
22391759,0.54500952755916,0.0089019922573914,0.0027752715314575,0.0033681490103882,0.0027585717155456,-0.00062851963103523,0.00062851963336836,1.2812620936167e-12,9.62481023336e-13,9.4431682088698e-13,1.1435226691086e-12,-0.00043087555399734,0.0004308755563897,-0.00068905878895152,0.00068905879125808,-0.0006890587888468,0.00068905879094102,-0.00043087555441019,0.00043087555703823,-0.00043087555418145,0.00043087555618529,-0.00068905878912607,0.00068905879106252,-0.00068905878901909,0.00068905879074311,-0.0006992974342208,0.00069929743634583,-0.0006992974342481,0.00069929743616055,-0.00069929743417506,0.00069929743640974,-0.00069929743420328,0.00069929743622537,-0.0005898665964004,0.00058986659935525,-0.00058986659660933,0.00058986659893958,-0.00058986659646332,0.00058986659928891,-0.00058986659666992,0.00058986659887094,-0.00043087555422044,0.0004308755572371,1.9345658831068e-14,-1.7924685869033e-13,-5.3864500064732e-13,3.9200693622189e-13,-0.00084337439551912,0.00084337439536596,-0.00084080426979578,0.00084080427062974,-0.00076947744979081,0.00076947744952119,-0.00076947744989193,0.00076947744922467,-0.00086073187392485,0.00086073187352205,-0.00086073187356881,0.00086073187377866,-0.00086073187380218,0.00086073187328389,-0.00086073187344612,0.00086073187354049,-0.00084080427060143,0.0008408042694738,-0.00084080426965732,0.00084080427035249,-0.00076947744957986,0.00076947744993052,-0.00076947744968101,0.00076947744963402,-0.00084080427073982,0.00084080426975098,-3.2165287960767e-13,-2.8859191900909e-15,-0.00062448707478994,0.00062448707459808,2.5005384632076e-13,-6.7128469124288e-13,-0.00058804421913818,0.00058804421806648,-0.00054085951400083,0.00054085951334133,-0.00054085951406985,0.00054085951319801,-0.00058804421769553,0.00058804421906704,-0.0005880442182379,0.00058804421898566,-0.00054085951309909,0.00054085951424145,-0.00054085951317835,0.00054085951410835,-0.00070562759737265,0.00070562759693801,-0.00070562759767441,0.00070562759662857,-0.00070562759721106,0.00070562759698887,-0.00070562759751681,0.00070562759668339,-0.00070412544363191,0.00070412544314383,-0.00070412544418977,0.00070412544307742,-0.00070412544388394,0.00070412544338972,-0.00070412544332078,0.00070412544345076,-0.00058804421861078,0.00058804421816286,0.76056647852628,132441,2954,0.0026157143375774,0.0035076799453632,0.0025987775104468,14.81053004411,3.3684240352878e-05,3.3684240352878e-05,3.3684240352878e-05,3882909.5696183,0.008760438008256
23391759,0.59323002617698,0.0096519407963333,0.0029910284066143,0.0036888954987576,0.0029720168909614,-0.00067564539989694,0.00067564540143576,9.1515038101934e-13,5.9632485621439e-13,7.4207758739203e-13,6.3455523242029e-13,-0.00044784298768201,0.00044784298895274,-0.0007458985159952,0.00074589851730096,-0.00074589851603546,0.00074589851712884,-0.00044784298769194,0.0004478429897841,-0.00044784298757428,0.00044784298904219,-0.0007458985158746,0.00074589851740529,-0.00074589851591207,0.00074589851723034,-0.00075685437566066,0.00075685437715467,-0.00075685437574313,0.00075685437702452,-0.00075685437571467,0.00075685437711506,-0.00075685437579825,0.00075685437698599,-0.00062999673162,0.000629996733686,-0.00062999673184858,0.00062999673328995,-0.00062999673158253,0.00062999673372121,-0.00062999673180835,0.00062999673332241,-0.00044784298779331,0.00044784298968839,-1.0509631701063e-13,-4.8844978407674e-15,-4.9181925467113e-13,3.9159139009301e-13,-0.00092601386233566,0.00092601386222916,-0.00092345737248002,0.00092345737321286,-0.00083986263436171,0.00083986263386244,-0.00083986263419075,0.00083986263388129,-0.00094655743574507,0.00094655743530126,-0.00094655743544615,0.00094655743558229,-0.00094655743553619,0.00094655743518411,-0.00094655743523729,0.00094655743546513,-0.00092345737306504,0.00092345737213066,-0.00092345737227797,0.00092345737307432,-0.00083986263415183,0.00083986263424091,-0.00083986263398086,0.00083986263425975,-0.00092345737326705,0.00092345737226917,-3.8180677724151e-13,-6.2982414165774e-14,-0.00067079293070103,0.00067079293015866,1.3627686624705e-13,-7.3679008715683e-13,-0.00062791607192345,0.00062791607056856,-0.00057335702339007,0.00057335702227473,-0.00057335702346081,0.00057335702213311,-0.00062791607055734,0.00062791607155409,-0.00062791607106448,0.00062791607143749,-0.00057335702253605,0.0005733570231292,-0.00057335702261293,0.00057335702299373,-0.00076467802019393,0.00076467801962651,-0.00076467802048068,0.00076467801933456,-0.0007646780200431,0.00076467801968815,-0.00076467802033198,0.00076467801939833,-0.00076340689831762,0.00076340689776424,-0.00076340689880738,0.00076340689762974,-0.00076340689851531,0.00076340689792396,-0.00076340689802416,0.00076340689805706,-0.00062791607142332,0.00062791607069216,0.75125944704441,132441,2954,0.0028116397460037,0.0038506750146666,0.0027912479343043,15.635775822875,4.0286206582997e-05,4.0286206582997e-05,4.0286206582997e-05,4017117.759633,0.0094985375512114
24391759,0.64592972461777,0.010480614890153,0.0032280970253271,0.0040463207631652,0.0032061971016602,-0.00072950580299173,0.0007295058031409,2.7000648678129e-13,-4.8834008154572e-14,3.8131710837703e-13,-2.6478938880711e-13,-0.00046891952649681,0.00046891952582278,-0.00081187003743873,0.00081187003697665,-0.00081187003773544,0.00081187003706098,-0.00046891952584083,0.00046891952701676,-0.00046891952587746,0.00046891952642911,-0.00081187003680103,0.00081187003760935,-0.00081187003709423,0.00081187003769015,-0.00082198679423914,0.0008219867946036,-0.00082198679442314,0.00082198679457496,-0.00082198679446806,0.00082198679438181,-0.00082198679465346,0.00082198679435455,-0.00067646733797296,0.00067646733847334,-0.00067646733823824,0.00067646733811392,-0.00067646733776003,0.00067646733868682,-0.00067646733802194,0.00067646733832405,-0.00046891952645268,0.00046891952640301,-2.81655817598e-13,3.3992696105291e-13,-3.6216606842815e-13,4.2249506365405e-13,-0.0010204306207734,0.0010204306208284,-0.0010182167730192,0.0010182167736393,-0.00092029079347478,0.00092029079266232,-0.00092029079282715,0.00092029079322902,-0.0010447372419563,0.0010447372415277,-0.0010447372418204,0.0010447372419045,-0.0010447372416179,0.0010447372416378,-0.001044737241482,0.0010447372420146,-0.0010182167732141,0.001018216772712,-0.0010182167727227,0.0010182167737586,-0.00092029079328587,0.00092029079299539,-0.00092029079263824,0.00092029079356207,-0.0010182167735105,0.0010182167725927,-4.6233005260484e-13,-1.434934766669e-13,-0.00072348712139983,0.00072348712033782,-3.4740453408878e-14,-8.0732788080506e-13,-0.00067443418109111,0.00067443417938593,-0.00061127512316181,0.00061127512140694,-0.00061127512323564,0.00061127512126845,-0.00067443417986752,0.00067443418032154,-0.00067443418032023,0.00067443418015058,-0.00061127512240747,0.00061127512216594,-0.00061127512248067,0.00061127512202681,-0.00083153529309176,0.00083153529231657,-0.00083153529334665,0.00083153529206026,-0.00083153529297975,0.00083153529241703,-0.00083153529323371,0.00083153529215978,-0.00083109267743517,0.00083109267680706,-0.00083109267782611,0.00083109267657375,-0.00083109267756336,0.00083109267683083,-0.00083109267717791,0.00083109267706962,-0.00067443418063127,0.00067443417954976,0.76117703545086,132441,2954,0.0030355328115716,0.0042423947794875,0.0030102352004992,17.860446804071,5.8083574432566e-05,5.8083574432566e-05,5.8083574432566e-05,4138813.5138775,0.010341450776065
25391759,0.70051214996906,0.011360297839876,0.003478028448285,0.0044288793668141,0.0034533900247768,-0.00078408545442272,0.00078408545417959,7.564529202943e-14,-2.4332156669316e-13,3.240115649044e-13,-5.998892105611e-13,-0.00048461986435606,0.00048461986298769,-0.00088045530732087,0.00088045530620168,-0.00088045530772737,0.00088045530639575,-0.00048461986336449,0.00048461986438773,-0.00048461986346842,0.00048461986386718,-0.00088045530641501,0.00088045530710987,-0.00088045530681796,0.00088045530730039,-0.00088948933727244,0.00088948933732925,-0.00088948933750185,0.00088948933734593,-0.00088948933759068,0.00088948933701428,-0.00088948933782147,0.00088948933703231,-0.00072300490250829,0.00072300490252454,-0.000723004902791,0.00072300490218225,-0.00072300490220462,0.00072300490283021,-0.00072300490248413,0.00072300490248474,-0.00048461986424494,0.00048461986350117,-3.5968657552836e-13,5.3339040381871e-13,-2.7677233891268e-13,4.4766817698566e-13,-0.0011224210541192,0.0011224210542856,-0.0011233244868114,0.0011233244873918,-0.0010081061095513,0.0010081061086056,-0.0010081061086464,0.0010081061094505,-0.0011487733230671,0.0011487733226801,-0.0011487733230682,0.0011487733231546,-0.0011487733226691,0.0011487733229076,-0.0011487733226701,0.0011487733233821,-0.0011233244867679,0.0011233244865259,-0.0011233244864642,0.0011233244876422,-0.001008106109383,0.0010081061089193,-0.0010081061084782,0.0010081061097641,-0.001123324487115,0.0011233244862754,-4.6371130452619e-13,-1.4474528033693e-13,-0.00077673164809012,0.00077673164694767,-7.6852402211866e-14,-7.8922405886439e-13,-0.00072046719459817,0.00072046719290142,-0.00064663251136071,0.00064663250951207,-0.00064663251143713,0.00064663250937612,-0.00072046719345252,0.00072046719379698,-0.00072046719388348,0.00072046719360411,-0.00064663251066575,0.00064663251021239,-0.0006466325107394,0.00064663251007364,-0.00090089355176064,0.00090089355095235,-0.00090089355199611,0.00090089355071661,-0.000900893551677,0.00090089355108126,-0.00090089355191077,0.0009008935508438,-0.00090383672715029,0.00090383672655707,-0.00090383672753533,0.00090383672631764,-0.00090383672729132,0.00090383672655341,-0.00090383672691375,0.00090383672680031,-0.00072046719415571,0.00072046719308278,0.78098694096943,132441,2954,0.0032624105060868,0.0046653439822438,0.0032314887118526,19.84209697706,7.3936775816481e-05,7.3936775816481e-05,7.3936775816481e-05,4190616.0187097,0.011221962816999
26391759,0.750539626132,0.01218527718636,0.0037103678124797,0.0047914503322384,0.0036834590416423,-0.00083052471338922,0.00083052471436205,6.2495311399371e-13,3.0590812530499e-13,7.029865977714e-13,7.7465898175868e-14,-0.00049111549551233,0.00049111549564222,-0.00094012820851779,0.0009401282087334,-0.00094012820876053,0.00094012820876369,-0.00049111549487136,0.00049111549683562,-0.00049111549490344,0.00049111549624309,-0.0009401282078967,0.0009401282093524,-0.00094012820813665,0.00094012820937989,-0.00094914937672832,0.00094914937779708,-0.00094914937689764,0.0009491493777536,-0.0009491493769486,0.00094914937758394,-0.00094914937711891,0.00094914937754142,-0.00076147570453612,0.00076147570587553,-0.00076147570480475,0.00076147570551896,-0.00076147570432939,0.00076147570608262,-0.00076147570459575,0.00076147570572379,-0.00049111549547484,0.00049111549622944,-2.5727570681001e-13,3.5031430549137e-13,-3.420951080528e-13,4.3546875555197e-13,-0.0012178211924604,0.0012178211925494,-0.001223857142461,0.0012238571431129,-0.0010908868544341,0.0010908868536702,-0.001090886853783,0.0010908868542107,-0.0012443894565232,0.0012443894561429,-0.001244389456501,0.0012443894566323,-0.0012443894562013,0.0012443894562418,-0.001244389456179,0.0012443894567312,-0.0012238571425845,0.0012238571421169,-0.0012238571421611,0.0012238571432165,-0.001090886854266,0.0010908868540199,-0.0010908868536149,0.0010908868545605,-0.0012238571428844,0.0012238571420133,-3.7699848295513e-13,-5.7950744350422e-14,-0.00082165896818509,0.0008216589675427,6.8893174772566e-14,-6.9889339193368e-13,-0.00075659586276205,0.00075659586144001,-0.00067220761708173,0.00067220761584202,-0.00067220761715635,0.00067220761570427,-0.00075659586153971,0.00075659586236175,-0.00075659586200098,0.00075659586219913,-0.00067220761633178,0.00067220761659361,-0.00067220761640784,0.00067220761645727,-0.00096228531944218,0.00096228531883909,-0.00096228531969537,0.00096228531858327,-0.00096228531934519,0.00096228531895469,-0.00096228531959894,0.0009622853186994,-0.00097022385439086,0.00097022385391845,-0.00097022385487998,0.00097022385378294,-0.00097022385462041,0.00097022385403964,-0.0009702238541338,0.00097022385417763,-0.00075659586229878,0.00075659586160062,0.79882389437255,132441,2954,0.0034554689332225,0.0050607770239503,0.0034181794467858,20.413474652057,7.8507797216459e-05,7.8507797216459e-05,7.8507797216459e-05,4188885.4521181,0.012006193286061
27391759,0.79840798547842,0.012944338329134,0.0039234698941031,0.0051274867495796,0.0038933816854516,-0.00087348550972561,0.00087348550986426,2.3996028702501e-13,-7.9068937439413e-14,4.1504439420807e-13,-3.7666640486459e-13,-0.0004942590001256,0.00049425899924127,-0.00099396341736577,0.00099396341669081,-0.00099396341779353,0.00099396341690616,-0.00049425899924435,0.00049425900049872,-0.00049425899936522,0.00049425899999504,-0.00099396341658809,0.00099396341747061,-0.00099396341701254,0.00099396341768264,-0.0010060132679875,0.001006013268336,-0.0010060132682271,0.0010060132683628,-0.0010060132682627,0.0010060132680655,-0.0010060132685036,0.0010060132680936,-0.00079553427356254,0.00079553427400074,-0.00079553427385845,0.00079553427367142,-0.00079553427330242,0.00079553427426262,-0.00079553427359548,0.00079553427393046,-0.0004942589999985,0.00049425899973882,-3.0889540760945e-13,4.5492716846375e-13,-2.9757273288668e-13,4.4140189782795e-13,-0.0013099636776111,0.001309963677751,-0.0013194091805858,0.001319409181197,-0.0011700487072513,0.0011700487064005,-0.0011700487064619,0.0011700487071074,-0.0013374441877384,0.001337444187366,-0.0013374441877934,0.0013374441879049,-0.0013374441873855,0.0013374441875465,-0.0013374441874405,0.0013374441880854,-0.0013194091805974,0.0013194091802711,-0.0013194091802781,0.0013194091813998,-0.0011700487070811,0.0011700487067218,-0.0011700487062917,0.0011700487074288,-0.0013194091809051,0.0013194091800683,-4.3633152331265e-13,-1.172974644371e-13,-0.00086257977666025,0.00086257977565666,-3.4397493297838e-14,-7.6212598963299e-13,-0.00078483527884481,0.00078483527723936,-0.00069234852982094,0.00069234852811005,-0.00069234852989796,0.00069234852797475,-0.00078483527769277,0.00078483527815735,-0.00078483527811671,0.00078483527795753,-0.00069234852911065,0.00069234852882459,-0.0006923485291858,0.00069234852868739,-0.0010206613786589,0.0010206613779201,-0.0010206613788994,0.0010206613776789,-0.0010206613785818,0.0010206613780556,-0.0010206613788212,0.0010206613778132,-0.0010314633647903,0.0010314633642501,-0.0010314633652083,0.0010314633640436,-0.0010314633649598,0.001031463364285,-0.0010314633645481,0.0010314633644978,-0.00078483527841151,0.00078483527742979,0.76755783492445,132441,2954,0.0036340775569524,0.0054425361307794,0.003588219448914,22.218906623306,9.2951252986451e-05,9.2951252986451e-05,9.2951252986451e-05,4142790.7070087,0.012745701658597
28391759,0.84095142419433,0.013651074464486,0.0041226422180269,0.0054391316754784,0.0040893005709809,-0.00091220675037196,0.000912206750944,4.3479646726638e-13,1.1570158304312e-13,5.5649371273436e-13,-1.4437705996816e-13,-0.00050183069371456,0.0005018306933427,-0.0010450375813142,0.0010450375810978,-0.001045037581699,0.0010450375812701,-0.00050183069293424,0.00050183069453323,-0.00050183069303842,0.00050183069401275,-0.0010450375806231,0.0010450375817902,-0.0010450375810048,0.0010450375819595,-0.0010557863910622,0.0010557863917798,-0.0010557863912871,0.0010557863917918,-0.0010557863913075,0.0010557863915405,-0.0010557863915334,0.0010557863915536,-0.00082753064478665,0.00082753064569343,-0.00082753064508264,0.00082753064536401,-0.00082753064455601,0.00082753064592535,-0.00082753064484952,0.00082753064559345,-0.00050183069360484,0.00050183069385774,-2.7777204096668e-13,3.9944505458071e-13,-3.1441224786283e-13,4.3454119565299e-13,-0.0013933031080362,0.0013933031081525,-0.0014059472296224,0.001405947230249,-0.0012415029278947,0.0012415029271009,-0.0012415029271852,0.0012415029277189,-0.0014223054052161,0.0014223054048482,-0.0014223054052789,0.0014223054054027,-0.0014223054048875,0.0014223054049894,-0.0014223054049503,0.0014223054055439,-0.001405947229682,0.0014059472292932,-0.0014059472293286,0.0014059472304068,-0.0012415029277289,0.0012415029274335,-0.0012415029270193,0.0012415029280515,-0.0014059472299758,0.0014059472291354,-4.0426326768173e-13,-8.5159549169523e-14,-0.00089885691391266,0.00089885691308165,1.3909178025335e-14,-7.2473347018408e-13,-0.00081344050618259,0.00081344050471832,-0.00071272447903359,0.00071272447754301,-0.00071272447910968,0.00071272447740676,-0.00081344050501431,0.00081344050563929,-0.00081344050544642,0.0008134405054476,-0.00071272447831241,0.00071272447826715,-0.00071272447838788,0.00071272447813025,-0.0010717523724914,0.0010717523718278,-0.0010717523727354,0.0010717523715824,-0.0010717523724116,0.0010717523719605,-0.0010717523726551,0.0010717523717147,-0.0010861924434832,0.0010861924429945,-0.0010861924439353,0.0010861924428219,-0.001086192443684,0.0010861924430678,-0.0010861924432366,0.001086192443245,-0.00081344050574402,0.00081344050490355,0.80347006213862,132441,2954,0.0037950475455364,0.0057876727521345,0.0037389456279328,23.417188584696,0.00010253750867757,0.00010253750867757,0.00010253750867757,4120352.4783172,0.013411167374137
29391759,0.87774216789627,0.014205339560471,0.0042792758380027,0.0056838077014213,0.0042422560210472,-0.00093887340633971,0.00093887340679908,3.8106540283116e-13,6.200775276454e-14,5.0704937763663e-13,-1.9783070640772e-13,-0.00048968420969388,0.00048968420920098,-0.0010786778540804,0.0010786778537605,-0.0010786778545099,0.0010786778539777,-0.00048968420889817,0.00048968421037947,-0.00048968420901615,0.00048968420987334,-0.0010786778533864,0.0010786778544565,-0.0010786778538127,0.0010786778546704,-0.0010963358369055,0.0010963358375165,-0.0010963358371483,0.0010963358375464,-0.0010963358371524,0.0010963358372755,-0.0010963358373963,0.0010963358373065,-0.0008452920580293,0.00084529205881641,-0.00084529205833309,0.00084529205849484,-0.00084529205779767,0.00084529205904944,-0.00084529205809898,0.00084529205872543,-0.00048968420957029,0.00048968420970176,-2.795147238847e-13,4.00034029235e-13,-3.1275662197047e-13,4.314833184808e-13,-0.001464610365249,0.001464610365364,-0.0014804795453882,0.0014804795460079,-0.0013025511027947,0.0013025511019994,-0.0013025511020842,0.0013025511026205,-0.0014930778170538,0.001493077816685,-0.001493077817146,0.0014930778172656,-0.0014930778167299,0.0014930778168333,-0.0014930778168222,0.001493077817414,-0.0014804795454391,0.0014804795450544,-0.0014804795451031,0.0014804795461762,-0.0013025511026311,0.0013025511023309,-0.0013025511019206,0.0013025511029519,-0.0014804795457241,0.0014804795448859,-4.1101014980441e-13,-9.1939860418021e-14,-0.00092291748574317,0.00092291748486084,4.8211762457868e-16,-7.3332061961727e-13,-0.00082072119933792,0.00082072119783487,-0.00071496783797055,0.00071496783640705,-0.00071496783804704,0.00071496783627113,-0.00082072119818407,0.00082072119876131,-0.00082072119860528,0.00082072119855903,-0.00071496783725416,0.00071496783712674,-0.00071496783732951,0.00071496783698978,-0.0011129834983102,0.0011129834976325,-0.0011129834985527,0.0011129834973889,-0.0011129834982363,0.0011129834977712,-0.0011129834984782,0.001112983497527,-0.001129265511663,0.0011292655111711,-0.001129265512104,0.0011292655109876,-0.0011292655118539,0.0011292655112315,-0.0011292655114184,0.0011292655114204,-0.00082072119890875,0.00082072119802933,0.72781303729948,132441,2954,0.0039060071693453,0.006082863340945,0.003838984961632,24.738843548156,0.00011311074838525,0.00011311074838525,0.00011311074838525,3959189.2327309,0.013924361948951
30391759,0.90849604403109,0.014660084331513,0.0044089778982609,0.0058829005865361,0.0043682058467158,-0.00096176913569787,0.00096176913618131,3.9003373179605e-13,7.0875996551663e-14,5.1429654594649e-13,-1.8958739941156e-13,-0.00049781486839347,0.00049781486791209,-0.0011092228857,0.0011092228853973,-0.0011092228861502,0.0011092228856352,-0.00049781486759784,0.00049781486908945,-0.00049781486771672,0.00049781486858361,-0.0011092228850071,0.0011092228860927,-0.0011092228854542,0.0011092228863273,-0.001126680438571,0.001126680439209,-0.0011266804388236,0.0011266804392487,-0.0011266804388175,0.0011266804389683,-0.0011266804390712,0.0011266804390091,-0.00086263457091842,0.00086263457173333,-0.00086263457122472,0.00086263457141402,-0.00086263457068717,0.00086263457196615,-0.00086263457099096,0.00086263457164433,-0.00049781486826917,0.00049781486841255,-2.780886041934e-13,4.0020314171579e-13,-3.0967480435318e-13,4.2969887299439e-13,-0.0015179627807998,0.0015179627809161,-0.0015288584293351,0.0015288584299516,-0.0013445383907106,0.0013445383899195,-0.0013445383900069,0.0013445383905453,-0.0015526828638509,0.0015526828634858,-0.0015526828639669,0.0015526828640871,-0.0015526828635296,0.0015526828636352,-0.0015526828636457,0.0015526828642365,-0.0015288584293777,0.0015288584289988,-0.0015288584290524,0.0015288584301216,-0.0013445383905517,0.0013445383902525,-0.0013445383898481,0.0013445383908782,-0.0015288584296604,0.0015288584288287,-4.0902423988436e-13,-8.9851957290264e-14,-0.0009432232707072,0.00094322326981406,-1.9978360263043e-15,-7.3101294011529e-13,-0.00083560092706239,0.00083560092556534,-0.00072705036708455,0.00072705036550948,-0.00072705036716056,0.00072705036537317,-0.00083560092591308,0.0008356009264871,-0.00083560092633454,0.00083560092628478,-0.00072705036637287,0.00072705036622447,-0.00072705036644767,0.00072705036608691,-0.0011440529322702,0.0011440529315937,-0.0011440529325111,0.0011440529313518,-0.0011440529321991,0.0011440529317352,-0.0011440529324393,0.0011440529314926,-0.0011574468095887,0.0011574468091069,-0.0011574468100293,0.0011574468089228,-0.0011574468097809,0.0011574468091651,-0.0011574468093455,0.0011574468093546,-0.00083560092663306,0.00083560092575977,0.71334768047678,132441,2954,0.004001193977369,0.0063036375694002,0.0039233435592105,26.078852282658,0.00012383081826126,0.00012383081826126,0.00012383081826126,3944689.3410244,0.01433036865327
31391759,0.93439594016978,0.015067854091836,0.0045258084581515,0.006059810783792,0.0044822348498921,-0.00098228137440196,0.00098228137388581,-7.085004146222e-14,-3.9035601606813e-13,2.3217240729233e-13,-8.0344780816215e-13,-0.00049515145083679,0.00049515144902782,-0.0011373732787273,0.0011373732772171,-0.0011373732793778,0.0011373732776549,-0.00049515144969731,0.00049515145049092,-0.00049515144984672,0.00049515145001496,-0.0011373732777164,0.0011373732782371,-0.0011373732783633,0.0011373732786714,-0.0011560971834652,0.0011560971832725,-0.0011560971837968,0.001156097183391,-0.0011560971838199,0.0011560971829192,-0.0011560971841529,0.001156097183039,-0.0008777822842016,0.00087778228389953,-0.00087778228451851,0.00087778228359011,-0.00087778228386247,0.00087778228424205,-0.00087778228417636,0.00087778228392962,-0.0004951514506812,0.00049515144949769,-3.7678217901619e-13,6.1965117302319e-13,-2.1185502797432e-13,4.479136988969e-13,-0.0015716130986475,0.0015716130988803,-0.0015838003498856,0.0015838003504328,-0.0013903014392916,0.0013903014383347,-0.0013903014382929,0.0013903014392896,-0.0016073447689608,0.0016073447686283,-0.0016073447691981,0.0016073447692964,-0.0016073447685625,0.0016073447689204,-0.0016073447687998,0.0016073447695884,-0.0015838003497113,0.0015838003496328,-0.0015838003495512,0.0015838003507657,-0.0013903014391559,0.0013903014386374,-0.0013903014381573,0.0013903014395923,-0.0015838003500457,0.0015838003492999,-4.6303864860478e-13,-1.4351385472084e-13,-0.0009610456205724,0.0009610456192781,-1.2830131577699e-13,-7.760418218668e-13,-0.00084503493620124,0.00084503493448218,-0.00073216778379256,0.00073216778173709,-0.00073216778387087,0.00073216778160286,-0.00084503493515174,0.00084503493534917,-0.00084503493554655,0.00084503493511959,-0.00073216778316104,0.00073216778237444,-0.00073216778323482,0.00073216778223565,-0.0011737447058623,0.0011737447050152,-0.0011737447060768,0.0011737447048016,-0.0011737447058173,0.0011737447051831,-0.0011737447060294,0.001173744704967,-0.0011887410156894,0.0011887410151598,-0.0011887410160623,0.0011887410149073,-0.0011887410158383,0.0011887410151202,-0.0011887410154751,0.0011887410153824,-0.00084503493579054,0.00084503493469589,0.75947116424918,132441,2954,0.0040865322105936,0.0065255962349772,0.0039974340983475,28.365380965403,0.00014212304772323,0.00014212304772323,0.00014212304772323,3807464.7713817,0.014717347627121
32391759,0.95393489725306,0.015388404094596,0.0046181691120811,0.0061977454114453,0.0045724895710697,-0.0009942408508865,0.00099424085173368,5.5454966182967e-13,2.3524094590352e-13,6.8841463852299e-13,-4.8646940339953e-14,-0.00047413005132771,0.00047413005117201,-0.0011542579407907,0.001154257940768,-0.0011542579412049,0.0011542579409699,-0.00047413005050782,0.00047413005240427,-0.00047413005061239,0.00047413005188392,-0.0011542579400635,0.0011542579414989,-0.0011542579404749,0.0011542579416979,-0.0011787701126538,0.0011787701136377,-0.0011787701128924,0.0011787701136632,-0.0011787701129101,0.0011787701133868,-0.0011787701131497,0.0011787701134133,-0.00088385812797088,0.00088385812914115,-0.00088385812828038,0.00088385812882464,-0.00088385812772782,0.00088385812938552,-0.0008838581280353,0.00088385812906704,-0.00047413005121859,0.00047413005168794,-2.9143710702162e-13,4.2411150691988e-13,-2.8814402092736e-13,4.1791035077271e-13,-0.0016172521094237,0.0016172521095499,-0.0016371727026822,0.0016371727032637,-0.0014321451110459,0.0014321451102386,-0.0014321451103006,0.0014321451108982,-0.0016479690858359,0.001647969085482,-0.0016479690859689,0.0016479690860797,-0.0016479690855014,0.0016479690856357,-0.0016479690856344,0.0016479690862335,-0.0016371727026877,0.0016371727023631,-0.0016371727023754,0.0016371727034331,-0.0014321451109035,0.0014321451105661,-0.0014321451101582,0.0014321451112257,-0.0016371727029944,0.0016371727021937,-3.7406621959258e-13,-5.4732272819576e-14,-0.00097033098736693,0.00097033098664536,2.7276666716555e-14,-6.69675019829e-13,-0.00083925293992857,0.00083925293861354,-0.00072211240560662,0.00072211240429081,-0.00072211240568285,0.00072211240415461,-0.00083925293881206,0.0008392529395023,-0.0008392529392349,0.00083925293930123,-0.00072211240492621,0.00072211240497307,-0.00072211240500228,0.00072211240483676,-0.0011962381869084,0.0011962381863054,-0.0011962381871386,0.0011962381860736,-0.0011962381868351,0.0011962381864448,-0.0011962381870653,0.0011962381862129,-0.0012164086291912,0.0012164086287836,-0.0012164086296582,0.0012164086286256,-0.0012164086294213,0.0012164086288578,-0.0012164086289581,0.0012164086290197,-0.00083925293950036,0.00083925293880928,0.78951084284083,132441,2954,0.0041364289267866,0.0067143702686794,0.0040361504819773,29.295838096902,0.00014956670477522,0.00014956670477522,0.00014956670477522,3570398.405335,0.014998945578723
33391759,0.96775105647365,0.015617381046197,0.0046848983500967,0.0062950182962962,0.0046374643998036,-0.0010008130540988,0.0010008130560575,1.0683123196743e-12,7.49104880066e-13,9.7836800858774e-13,6.6009017293362e-13,-0.00045882481838795,0.00045882481976722,-0.0011647824094463,0.0011647824108189,-0.0011647824096621,0.0011647824108223,-0.00045882481798612,0.00045882482061498,-0.00045882481807294,0.00045882482007705,-0.0011647824091224,0.0011647824111395,-0.0011647824093357,0.0011647824111404,-0.0011927390629444,0.0011927390648321,-0.0011927390631077,0.0011927390647824,-0.0011927390630646,0.0011927390647226,-0.0011927390632286,0.0011927390646735,-0.00088657619749331,0.00088657619992999,-0.00088657619780304,0.00088657619961389,-0.00088657619738719,0.00088657620003547,-0.00088657619769548,0.00088657619971795,-0.00045882481829739,0.00045882482030157,-1.5906266762888e-13,1.5075935028769e-13,-4.0365840380696e-13,3.9774646676552e-13,-0.0016479490514051,0.0016479490513953,-0.0016728157642363,0.0016728157649119,-0.0014595571637661,0.001459557163186,-0.0014595571633999,0.0014595571634277,-0.0016756448088605,0.0016756448084781,-0.0016756448088865,0.001675644809034,-0.0016756448086321,0.0016756448084603,-0.0016756448086582,0.0016756448090162,-0.0016728157645201,0.0016728157638312,-0.0016728157640092,0.0016728157648884,-0.001459557163604,0.0014595571635576,-0.0014595571632379,0.0014595571637993,-0.0016728157647471,0.0016728157638547,-3.1767455996614e-13,1.5581251944625e-15,-0.0009741034411017,0.00097410344081139,1.7129431119402e-13,-6.229767258416e-13,-0.00083146177007324,0.00083146176900933,-0.00071260571097529,0.00071260571019264,-0.00071260571104843,0.00071260571005341,-0.00083146176884237,0.00083146176996987,-0.00083146176928999,0.00083146176979381,-0.00071260571019942,0.00071260571096851,-0.00071260571027507,0.00071260571083182,-0.0012097517203247,0.0012097517199028,-0.0012097517205868,0.0012097517196373,-0.0012097517202301,0.0012097517200208,-0.0012097517204938,0.0012097517197569,-0.0012330024884823,0.0012330024881178,-0.0012330024890274,0.0012330024880381,-0.0012330024887604,0.0012330024883048,-0.0012330024882153,0.0012330024883846,-0.00083146176962652,0.0008314617691865,0.79430999939892,132441,2954,0.0041639134020999,0.0068412965241247,0.0040519355524535,29.275777798491,0.00014940622238793,0.00014940622238793,0.00014940622238793,3401346.1201187,0.015171772606727
34391759,0.97834993854689,0.015786271508383,0.0047345700783766,0.0063660743779663,0.0046856270520403,-0.0010095877476734,0.0010095877472209,-4.5458596565197e-14,-3.6455473075028e-13,1.8316025016832e-13,-7.0020731502952e-13,-0.00045460671880799,0.00045460671720018,-0.0011767420021065,0.0011767420008034,-0.0011767420027924,0.001176742001277,-0.00045460671785522,0.00045460671854783,-0.0004546067179682,0.00045460671803635,-0.001176742001244,0.0011767420016724,-0.0011767420019263,0.0011767420021424,-0.001206465348349,0.0012064653481651,-0.0012064653486895,0.0012064653482926,-0.0012064653486552,0.0012064653478626,-0.0012064653489971,0.0012064653479916,-0.00089264040238925,0.00089264040219258,-0.00089264040269781,0.0008926404018755,-0.00089264040210033,0.00089264040248428,-0.00089264040240589,0.00089264040216423,-0.00045460671868919,0.00045460671770596,-3.3642949207098e-13,5.0961173318195e-13,-2.6405855083959e-13,4.3260137256031e-13,-0.0016738112075526,0.0016738112077177,-0.0017005503250392,0.0017005503256054,-0.0014821651510692,0.0014821651501796,-0.0014821651502161,0.0014821651509831,-0.0017007514461698,0.0017007514458083,-0.0017007514464179,0.0017007514465115,-0.0017007514458229,0.0017007514460515,-0.001700751446071,0.0017007514467547,-0.0017005503249293,0.0017005503246974,-0.0017005503247577,0.0017005503258908,-0.0014821651509162,0.0014821651504893,-0.0014821651500631,0.0014821651512928,-0.0017005503252107,0.0017005503244119,-4.6115432381666e-13,-1.4202896993599e-13,-0.00098039972400333,0.00098039972270029,-1.1965106533032e-13,-8.0444140280851e-13,-0.00083012968745593,0.00083012968568632,-0.00071071351238961,0.00071071351024516,-0.0007107135124703,0.00071071351011362,-0.00083012968637985,0.00083012968659935,-0.00083012968676567,0.00083012968636174,-0.00071071351172121,0.00071071351091863,-0.0007107135117984,0.00071071351078359,-0.0012229939413365,0.0012229939405119,-0.0012229939415631,0.0012229939402858,-0.0012229939412924,0.0012229939406804,-0.001222993941517,0.0012229939404522,-0.0012472654274102,0.001247265426884,-0.0012472654277799,0.001247265426629,-0.0012472654275439,0.0012472654268549,-0.0012472654271833,0.0012472654271188,-0.00083012968705613,0.00083012968590996,0.76155469474154,132441,2954,0.0042004740333064,0.0069482187329701,0.0040781482363188,31.398678959669,0.00016638943167735,0.00016638943167735,0.00016638943167735,3274997.354519,0.01534409731151
35391759,0.98677080679157,0.015916828826909,0.0047732534808199,0.0064205139249543,0.0047230614211348,-0.0010221993837583,0.0010221993804258,-1.3749094386369e-12,-1.6940259692577e-12,-5.4546958627857e-13,-2.5590974683878e-12,-0.0004638548130415,0.00046385480743103,-0.0011923501674397,0.0011923501624765,-0.0011923501686746,0.0011923501634992,-0.00046385481100377,0.00046385480985901,-0.00046385481112192,0.00046385480935265,-0.0011923501654886,0.0011923501644537,-0.0011923501667188,0.0011923501654716,-0.0012213357086316,0.0012213357061121,-0.0012213357091845,0.001221335706452,-0.0012213357093053,0.001221335705428,-0.0012213357098602,0.0012213357057699,-0.00090376495527098,0.00090376495178876,-0.00090376495557414,0.00090376495146624,-0.00090376495461256,0.00090376495245528,-0.00090376495491134,0.0009037649521284,-0.00046385481291568,0.00046385480792982,-6.8662909277147e-13,1.2525253170937e-12,6.095887304239e-14,4.8549087446939e-13,-0.0016970382074864,0.0016970382080307,-0.0017217945727769,0.0017217945730869,-0.0015019496323169,0.0015019496308329,-0.0015019496304385,0.0015019496327588,-0.0017261158639814,0.0017261158637141,-0.0017261158645597,0.001726115864562,-0.0017261158633492,0.0017261158644198,-0.0017261158639275,0.0017261158652676,-0.0017217945719258,0.0017217945727028,-0.0017217945722803,0.0017217945738916,-0.0015019496322375,0.0015019496310342,-0.0015019496303592,0.00150194963296,-0.0017217945724224,0.001721794571898,-6.0313695693292e-13,-2.8398937211374e-13,-0.00099137772063474,0.00099137771818734,-5.0505032105937e-13,-9.127352856812e-13,-0.00083966399822792,0.00083966399586951,-0.00071970388669081,0.00071970388316564,-0.00071970388677875,0.00071970388304136,-0.00083966399746726,0.00083966399656588,-0.00083966399779351,0.00083966399626871,-0.00071970388629465,0.00071970388357228,-0.00071970388637179,0.00071970388343719,-0.0012376278437015,0.0012376278423842,-0.0012376278438372,0.0012376278422535,-0.0012376278437208,0.0012376278426161,-0.0012376278438503,0.0012376278424791,-0.0012610749787224,0.0012610749780989,-0.0012610749789007,0.0012610749776526,-0.0012610749787505,0.0012610749777805,-0.0012610749785917,0.0012610749782463,-0.00083966399786944,0.00083966399613451,0.73946007772799,132441,2954,0.0042528711669094,0.0070442477233007,0.0041237348609383,35.851722938737,0.0002020137835099,0.0002020137835099,0.0002020137835099,3205777.3620127,0.015541115125655
36391759,0.99222920524317,0.016003036398859,0.0047988995536519,0.0064562113291451,0.0047479255160622,-0.0010275298468653,0.0010275298468002,1.3000498431932e-13,-1.8915180977734e-13,6.0014751884643e-13,-7.9526630810136e-13,-0.00046625474817783,0.00046625474644193,-0.0011997818233903,0.0011997818218998,-0.0011997818240036,0.0011997818223008,-0.00046625474672711,0.00046625474833153,-0.00046625474682079,0.00046625474780062,-0.0011997818220249,0.0011997818232805,-0.0011997818226354,0.0011997818236786,-0.0012283546339778,0.001228354634322,-0.0012283546342929,0.0012283546344241,-0.0012283546344463,0.0012283546338507,-0.0012283546347624,0.0012283546339538,-0.00090803998187941,0.00090803998191149,-0.00090803998218601,0.00090803998159232,-0.00090803998141915,0.00090803998237543,-0.00090803998172379,0.00090803998205431,-0.00046625474807982,0.00046625474696859,-4.9866107081919e-13,8.6334875028831e-13,-6.6262269850787e-14,4.1901519937328e-13,-0.0017102243585268,0.0017102243588768,-0.0017337267046837,0.0017337267050554,-0.0015129490272447,0.0015129490261036,-0.0015129490258869,0.0015129490274243,-0.0017405702851008,0.0017405702848267,-0.0017405702854056,0.0017405702854495,-0.0017405702845845,0.0017405702852288,-0.0017405702848892,0.0017405702858515,-0.0017337267042227,0.001733726704552,-0.001733726704212,0.0017337267054916,-0.0015129490271714,0.0015129490263533,-0.0015129490258136,0.001512949027674,-0.0017337267046943,0.0017337267041158,-3.9263229947041e-13,-7.3443476940428e-14,-0.00099569028878955,0.00099569028774495,-1.3823696813198e-13,-6.1383595361532e-13,-0.00084310131678107,0.00084310131546924,-0.0007224327406521,0.00072243273906169,-0.0007224327407316,0.00072243273892892,-0.00084310131589849,0.00084310131615784,-0.00084310131630103,0.00084310131593687,-0.00072243274018884,0.00072243273952764,-0.00072243274026613,0.00072243273939267,-0.0012445228109871,0.0012445228102365,-0.0012445228111443,0.0012445228100791,-0.0012445228109357,0.0012445228103978,-0.0012445228110917,0.0012445228102392,-0.0012677142315625,0.0012677142312272,-0.0012677142319701,0.00126771423101,-0.001267714231805,0.0012677142311666,-0.0012677142314041,0.0012677142313904,-0.00084310131636793,0.00084310131567964,0.75248106560102,132441,2954,0.0042750369272497,0.0070987521113679,0.0041416574332197,37.530144659656,0.00021544115727725,0.00021544115727725,0.00021544115727725,3157745.074721,0.015637191218259
37391759,0.99545093298644,0.01605359448158,0.0048139748824536,0.0064770679612989,0.0047625516378273,-0.0010280267263388,0.0010280267282275,1.0319475923565e-12,7.1278166618584e-13,1.1337871282874e-12,4.2504117704851e-13,-0.00045809819813858,0.00045809819903788,-0.0012008036443954,0.001200803645308,-0.0012008036446428,0.0012008036453433,-0.00045809819734535,0.00045809820027653,-0.00045809819743413,0.0004580981997402,-0.0012008036436903,0.0012008036460168,-0.0012008036439356,0.0012008036460498,-0.0012315929794577,0.0012315929814132,-0.0012315929796317,0.0012315929813744,-0.0012315929797027,0.0012315929811743,-0.0012315929798772,0.0012315929811359,-0.00090700211717058,0.00090700211940586,-0.00090700211748199,0.0009070021190913,-0.00090700211693429,0.00090700211964228,-0.00090700211724487,0.00090700211932701,-0.00045809819804651,0.00045809819957088,-2.8943377380571e-13,4.1093724761975e-13,-2.5058290368783e-13,3.6921007382686e-13,-0.0017185813827681,0.0017185813828833,-0.0017443299764554,0.0017443299769473,-0.0015209197598538,0.0015209197590765,-0.0015209197591141,0.0015209197597166,-0.0017471632892541,0.0017471632889284,-0.0017471632893591,0.0017471632894447,-0.0017471632889072,0.0017471632890447,-0.0017471632890122,0.0017471632895609,-0.0017443299764184,0.0017443299761611,-0.001744329976105,0.0017443299770599,-0.001520919759749,0.0015209197593849,-0.0015209197590094,0.0015209197600248,-0.0017443299767685,0.0017443299760485,-2.8918422444398e-13,3.0014075737648e-14,-0.00099533975827349,0.00099533975801396,1.0475975554373e-13,-5.0905983092454e-13,-0.00083769412943074,0.00083769412858335,-0.00071650807101794,0.00071650807041995,-0.00071650807109263,0.00071650807028249,-0.00083769412838363,0.00083769412936986,-0.00083769412882678,0.00083769412918916,-0.00071650807041893,0.00071650807101807,-0.00071650807049636,0.00071650807088305,-0.0012476021088394,0.0012476021084207,-0.0012476021090418,0.0012476021082151,-0.0012476021087466,0.0012476021085406,-0.0012476021089506,0.0012476021083364,-0.0012720858908909,0.0012720858906535,-0.0012720858914279,0.0012720858905656,-0.0012720858912214,0.001272085890772,-0.0012720858906838,0.0012720858908592,-0.00083769412898973,0.00083769412876553,0.74707433989265,132441,2954,0.0042771752765726,0.0071332966031248,0.0041402615603561,37.635807819913,0.00021628646255931,0.00021628646255931,0.00021628646255931,3080733.3469507,0.015673061821422
38391759,0.99731119068218,0.016083266436479,0.0048228530897553,0.0064892462886279,0.0047711670580957,-0.0010272211360066,0.0010272211386488,1.3812830821618e-12,1.0621299644234e-12,1.1485637651066e-12,1.0998709879316e-12,-0.00045481246632718,0.0004548124686399,-0.0012007979800191,0.001200797982261,-0.001200797980135,0.0012007979821646,-0.00045481246617987,0.00045481246922623,-0.00045481246626976,0.00045481246869158,-0.0012007979799552,0.0012007979823172,-0.0012007979800691,0.0012007979822187,-0.0012318272958181,0.001231827298268,-0.0012318272959413,0.0012318272981783,-0.0012318272958508,0.0012318272982496,-0.0012318272959745,0.0012318272981603,-0.00090563135137999,0.00090563135459526,-0.00090563135169392,0.00090563135428341,-0.00090563135136182,0.00090563135461135,-0.00090563135167487,0.00090563135429864,-0.00045481246623439,0.00045481246917178,-8.0095093591047e-14,-3.0496134540494e-14,-4.5051929576829e-13,3.4571670329791e-13,-0.0017217555949188,0.00172175559481,-0.001747638775185,0.0017476387758442,-0.0015233831782515,0.0015233831778273,-0.0015233831781353,0.0015233831778079,-0.0017503397535446,0.0017503397531544,-0.0017503397535358,0.001750339753674,-0.0017503397533887,0.0017503397530299,-0.00175033975338,0.0017503397535495,-0.0017476387755591,0.0017476387746899,-0.001747638775014,0.0017476387757019,-0.0015233831780927,0.001523383178199,-0.0015233831779765,0.0015233831781796,-0.0017476387757301,0.0017476387748321,-2.7361978816212e-13,4.5570935045098e-14,-0.00099395253278194,0.00099395253276037,2.3307874725132e-13,-5.5778174691521e-13,-0.0008349669036721,0.00083496690281859,-0.00071352692883926,0.00071352692842627,-0.00071352692891192,0.00071352692828669,-0.00083496690244074,0.00083496690376756,-0.00083496690289676,0.00083496690360009,-0.00071352692806656,0.00071352692919741,-0.00071352692814358,0.00071352692906218,-0.0012477045605591,0.0012477045602604,-0.0012477045608199,0.0012477045599951,-0.0012477045604517,0.0012477045603656,-0.0012477045607152,0.0012477045601029,-0.0012724213973957,0.001272421397108,-0.0012724213979778,0.0012724213970653,-0.0012724213977136,0.0012724213973322,-0.001272421397129,0.0012724213973723,-0.00083496690322148,0.00083496690299147,0.75852142187974,132441,2954,0.0042738661373734,0.0071464051936114,0.0041345246525546,37.194747088598,0.00021275797670879,0.00021275797670879,0.00021275797670879,3050337.3695559,0.015677196904293
38880000,0.9979903257114,0.016094230482165,0.0048261380536018,0.0064937363009915,0.0047743561275714,-0.0010270237836694,0.0010270237857971,1.1456490747366e-12,8.265020891638e-13,8.7194227452675e-13,9.2576708609805e-13,-0.00045066789852207,0.00045066790043074,-0.0012005274950931,0.0012005274969922,-0.0012005274953111,0.001200527496998,-0.00045066789848539,0.00045066790090353,-0.00045066789857592,0.00045066790036975,-0.0012005274951326,0.0012005274969434,-0.001200527495348,0.0012005274969467,-0.0012327377067222,0.0012327377086541,-0.0012327377068851,0.001232737708604,-0.0012327377067235,0.0012327377086684,-0.0012327377068871,0.001232737708619,-0.0009048531436813,0.00090485314641021,-0.00090485314399434,0.00090485314609748,-0.00090485314369852,0.00090485314639118,-0.00090485314401013,0.00090485314607702,-0.00045066789842768,0.00045066790096105,-4.2237964829205e-14,-1.0203195652318e-13,-5.0167552709819e-13,3.646348606553e-13,-0.001724223435074,0.0017242234349327,-0.0017515905517572,0.0017515905524886,-0.0015260342050269,0.0015260342046557,-0.0015260342050223,0.0015260342045291,-0.0017516218059141,0.0017516218055013,-0.0017516218059284,0.0017516218060885,-0.0017516218058039,0.0017516218053591,-0.0017516218058184,0.0017516218059463,-0.0017515905522169,0.0017515905512112,-0.0017515905516499,0.0017515905523392,-0.0015260342048431,0.0015260342050486,-0.0015260342048385,0.0015260342049218,-0.0017515905523242,0.0017515905513606,-3.2115804178345e-13,-1.9758918437428e-15,-0.00099341803167454,0.00099341803139714,2.0011206318442e-13,-6.5924567667357e-13,-0.00083182267700391,0.00083182267588094,-0.00071033393346441,0.00071033393263593,-0.00071033393353842,0.00071033393249761,-0.00083182267571325,0.00083182267690979,-0.00083182267615694,0.00083182267673015,-0.00071033393262471,0.00071033393347595,-0.00071033393270147,0.00071033393334048,-0.0012485214314173,0.0012485214310228,-0.001248521431701,0.0012485214307354,-0.0012485214313229,0.0012485214311409,-0.0012485214316083,0.0012485214308553,-0.0012739719930851,0.001273971992696,-0.0012739719936312,0.0012739719926173,-0.0012739719933427,0.001273971992906,-0.0012739719927965,0.0012739719929845,-0.00083182267656162,0.00083182267606219,0.76740125722142,132441,2954,0.0042730804752073,0.0071566076209501,0.0041323323926513,37.193620210954,0.00021274896168763,0.00021274896168763,0.00021274896168763,3016606.1456301,0.015684549515617
