time,ASR_ext,ASR_strain,ASR_strain_xx,ASR_strain_yy,ASR_strain_zz,disp_x_101,disp_x_102,disp_x_103,disp_x_104,disp_x_105,disp_x_106,disp_x_p1_neg,disp_x_p1_pos,disp_x_p2_neg,disp_x_p2_pos,disp_x_p3_neg,disp_x_p3_pos,disp_x_p4_neg,disp_x_p4_pos,disp_x_p5_neg,disp_x_p5_pos,disp_x_p6_neg,disp_x_p6_pos,disp_y_101,disp_y_102,disp_y_103,disp_y_104,disp_y_105,disp_y_106,disp_y_p1_neg,disp_y_p1_pos,disp_y_p2_neg,disp_y_p2_pos,disp_y_p3_neg,disp_y_p3_pos,disp_y_p4_neg,disp_y_p4_pos,disp_y_p5_neg,disp_y_p5_pos,disp_y_p6_neg,disp_y_p6_pos,disp_y_p7_neg,disp_y_p7_pos,disp_y_p8_neg,disp_y_p8_pos,disp_z_101,disp_z_102,disp_z_103,disp_z_104,disp_z_105,disp_z_106,disp_z_p1_neg,disp_z_p1_pos,disp_z_p2_neg,disp_z_p2_pos,disp_z_p3_neg,disp_z_p3_pos,disp_z_p4_neg,disp_z_p4_pos,disp_z_p5_neg,disp_z_p5_pos,disp_z_p6_neg,disp_z_p6_pos,humidity,ndof,nelem,strain_xx,strain_yy,strain_zz,temp,thermal_strain_xx,thermal_strain_yy,thermal_strain_zz,vonmises,vstrain
2419200,0,0,0,0,0,0,0,0,0,0,0,0,0,0,0,0,0,0,0,0,0,0,0,0,0,0,0,0,0,0,0,0,0,0,0,0,0,0,0,0,0,0,0,0,0,0,0,0,0,0,0,0,0,0,0,0,0,0,0,0,0,0,0,0,0,0,0,0,0,0,0,0,0,0,0
3419200,0.15846859742815,0.0027326333187115,0.00091087777290383,0.00091087777290383,0.00091087777290383,-0.00023952192835687,0.0002395164087418,-3.0738980729179e-07,3.0192327815298e-07,7.9291992441339e-09,-1.3664077154813e-08,-0.00024608562944846,0.00024588385144011,-0.00024588212096316,0.00024608690533835,-0.00024609219765764,0.00024587658543205,-0.00024588901964782,0.00024607965961257,-0.00024405745638395,0.00024344801670578,-0.00024346216206002,0.00024404524930108,-7.2108525231699e-09,1.4402943686308e-08,-4.2515033570742e-08,4.8774364018461e-08,-0.0002537385309322,0.00025374516401982,-0.00025945359399676,0.00025942298337986,-0.00025942420452589,0.00025945378269352,-0.00025944655637513,0.00025943035865619,-0.00025941719487744,0.0002594608378692,-0.00025523820799218,0.00025516231566058,-0.00025514984576996,0.00025525153684622,-0.00025154260868222,0.00025155957947429,-0.00025152143618562,0.00025158073441187,2.9308183962157e-07,-3.1621391209362e-07,-0.0002537532549362,0.00025373041255422,3.3194584709778e-08,-5.7126976893656e-08,-0.00025933293403858,0.00025954405974243,-0.00025936361378049,0.0002595140894288,-0.00025953637069162,0.00025934088409625,-0.00025956641767667,0.00025931090980661,-0.00025187591070095,0.00025122600978826,-0.00025127953598746,0.00025182178332014,0.78396788080293,134640,3014,0.00099750142764545,0.001056696387245,0.0010566963308858,31.785376163639,0.00016948300930912,0.00016948300930912,0.00016948300930912,1758066.0655511,0.0031157405143078
4419200,0.34889855537727,0.0058594065360669,0.0018521897038646,0.0020036085105206,0.0020036083216817,-0.00044926895891149,0.00044957072374551,-8.0222588988398e-07,1.104638521807e-06,-4.6729277105945e-07,7.8831084789896e-07,-0.00047524150159614,0.00047448742105469,-0.00047459781130067,0.00047512002896315,-0.00047483581087715,0.00047490792206196,-0.00047420206360135,0.00047554098084396,-0.00046936276107915,0.00046822870702447,-0.00046749807530116,0.00047007199662183,4.5738632587341e-07,-7.9806796758634e-07,-1.2600420049182e-06,9.4488320888997e-07,-0.00051058790230104,0.00051026873797043,-0.00053849950105969,0.00053787349620275,-0.00053779395989256,0.00053861372365517,-0.000538902848566,0.00053745410372187,-0.00053819572856605,0.00053819730718255,-0.00051859006333815,0.00051569588933642,-0.00051646818201224,0.00051790275969421,-0.00049803173092782,0.00049965569621168,-0.00049924459540433,0.00049841231927903,6.691884081579e-07,-1.237149442229e-06,-0.00051071624630076,0.00051014038940379,7.8165173076736e-07,-1.3982182287134e-06,-0.0005377938045655,0.00053858998603677,-0.00053851762044911,0.00053786321464358,-0.00053843123631382,0.0005379535723597,-0.00053915270476476,0.00053722884790326,-0.0005004196880086,0.00049727298084307,-0.00049856376423285,0.00049913012431748,0.77882047341462,134640,3014,0.0018708954930641,0.0021245040042958,0.0021245039968632,33.598604763141,0.00018398883810513,0.00018398883810513,0.00018398883810513,2844885.7524685,0.0061386934822362
5419200,0.54874602765072,0.009019312123756,0.0027641275803085,0.0031275923892271,0.0031275921542204,-0.0006474703869257,0.00064795376698024,-4.1408693943078e-07,8.999200695117e-07,-4.9007550463389e-07,1.0138671966062e-06,-0.00070325166956862,0.00070278342950935,-0.00070279386534104,0.00070321324183055,-0.00070276403327208,0.00070328960685629,-0.00070232906075253,0.00070371936848709,-0.00068718566529966,0.00068691373518599,-0.00068589980619658,0.00068814988510896,4.1742623441093e-07,-1.0853737293292e-06,-2.0653352894663e-06,1.4545766247347e-06,-0.00077054171044085,0.00076992172554845,-0.00083591159294314,0.00083463904426848,-0.0008347825432199,0.00083582486057653,-0.00083639363904575,0.00083413628698939,-0.00083526053383044,0.00083533086482294,-0.00078729425144927,0.00078273380952524,-0.00078393793557307,0.00078628551338168,-0.00074427217418516,0.00074622997318681,-0.00074570514344602,0.00074474814588715,9.1949622907648e-08,-1.2211929837226e-06,-0.00077080718815559,0.0007696561814821,1.1000346909008e-06,-2.352315653767e-06,-0.00083505375867639,0.00083551806193905,-0.00083619449906849,0.00083436627073645,-0.00083549867894849,0.00083508172489041,-0.00083663447586721,0.00083393390826285,-0.0007470260778356,0.00074348174804113,-0.00074575299293036,0.00074474701851192,0.77319618806537,134640,3014,0.002695434969338,0.0032040889495244,0.0032040888019043,36.266592204076,0.00020533273763261,0.00020533273763261,0.00020533273763261,3619552.0474356,0.0091452708921591
6419200,0.70533020574322,0.011291149907582,0.0034036597678446,0.0039437445762616,0.0039437455634763,-0.00077366430036424,0.00077373944988048,-9.8802948645655e-07,1.0644789229723e-06,-2.3983992690992e-07,3.4477627422502e-07,-0.00086751300208008,0.0008667067128644,-0.0008668017871827,0.00086736627482831,-0.00086732972377914,0.00086689563343768,-0.00086664143188938,0.00086756734387783,-0.00082627746057989,0.00082454856489581,-0.00082428992617593,0.00082653713579097,4.9648017549225e-07,-8.0268629479189e-08,-3.1808641753038e-06,3.6640990454212e-06,-0.00094620401639007,0.00094665604219216,-0.0010561545149917,0.001054541850457,-0.0010539570462691,0.0010568382010385,-0.0010563430037044,0.001054357439352,-0.0010541472085815,0.0010566615995821,-0.00096749097027211,0.00096108094334843,-0.00096092384688792,0.00096792196834954,-0.00090594642522927,0.00090919370847445,-0.00090648681173613,0.00090861312782537,3.1570127628233e-07,-1.735357984537e-06,-0.00094714930925965,0.00094571525538735,2.5611260519649e-06,-4.1639857594243e-06,-0.001054620338705,0.0010561564770235,-0.0010568322862537,0.0010539125387721,-0.0010553004353916,0.0010554670627852,-0.001057517833843,0.0010532301427865,-0.00091042431389974,0.00090475316268766,-0.00090840732568505,0.00090672662091425,0.72914355969262,134640,3014,0.0032191590499715,0.0039355907902115,0.0039356001326576,36.738372753227,0.00020910698202582,0.00020910698202582,0.00020910698202582,3883164.4531917,0.011152292330256
7419200,0.83116682568896,0.013040473581727,0.0039115503345248,0.0045644568653602,0.0045644663818422,-0.00086549967737288,0.00086584052459894,-1.1392013968292e-06,1.472890965102e-06,-8.3531650083786e-07,1.2035718462902e-06,-0.00099832548368414,0.00099710429612753,-0.00099741484477527,0.00099796255733914,-0.00099765882838662,0.00099781196962297,-0.00099679056719375,0.00099866181960089,-0.00092648138037598,0.00092500135620108,-0.00092402109652188,0.00092758780839286,9.4630801816575e-07,-1.0827184512969e-06,-4.1460909019458e-06,4.096066788267e-06,-0.0010727932518861,0.0010726947886643,-0.0012261762426033,0.0012240219780065,-0.0012235262649699,0.0012267831932755,-0.0012268341426979,0.001223317181161,-0.0012241580597812,0.0012261049243724,-0.0010962827634361,0.0010874356005754,-0.0010883585019461,0.0010957269457241,-0.0010218526072478,0.0010263477160738,-0.0010237486645048,0.0010244539437489,2.8929640011373e-07,-2.3207005010881e-06,-0.0010737464920474,0.0010717430499198,2.9174308172867e-06,-5.151674686414e-06,-0.0012242485922595,0.0012259099468448,-0.0012269242855659,0.0012232237870556,-0.0012251325285095,0.0012250437303915,-0.0012278007518131,0.001222362041086,-0.0010277942804771,0.0010204910297687,-0.0010252278717739,0.0010230222996147,0.71234621127826,134640,3014,0.0036014230477689,0.0044596661313777,0.0044596691866568,40.760780634128,0.00024128624507302,0.00024128624507302,0.00024128624507302,3979585.1927624,0.012599840208984
8419200,0.90723488002617,0.014071524374321,0.0042199983020872,0.0049257677418017,0.0049257583304326,-0.00090610493819416,0.00090646637985082,-5.9240613690538e-07,9.6441613229457e-07,-8.285550005679e-07,1.231131840204e-06,-0.0010694260466764,0.001068558536247,-0.0010688596810734,0.0010690628055182,-0.0010687525013962,0.001069269091734,-0.0010682428353044,0.0010697584267439,-0.00097173108414136,0.00097133143627973,-0.00097024922358279,0.00097281926332743,9.597204637385e-07,-1.0887215787167e-06,-4.0193084995612e-06,3.9901436861542e-06,-0.0011286837390537,0.0011285988039299,-0.0013148234500144,0.0013127719746988,-0.0013122622436785,0.001315443084405,-0.0013154932606669,0.0013120688368533,-0.0013128984194607,0.0013147788666012,-0.0011539629528878,0.0011453720771247,-0.0011462975022886,0.0011534415822728,-0.0010743416281817,0.001078777956175,-0.0010762592622954,0.0010768943456727,-1.3455770055586e-07,-1.6898805931804e-06,-0.0011295507461893,0.0011277292929318,2.87311677565e-06,-4.9509342440146e-06,-0.0013130920916256,0.001314490245296,-0.0013156848059436,0.0013118905920456,-0.0013136153871956,0.0013139758406538,-0.0013161970260206,0.0013113808325075,-0.0010795737101735,0.0010736187484892,-0.0010780735235659,0.0010751558155505,0.69848786093728,134640,3014,0.0037703353660542,0.0046915129188312,0.0046915076380986,41.433084658585,0.00024666467726868,0.00024666467726868,0.00024666467726868,3830155.5569389,0.013240763399968
9419200,0.94937353951327,0.014629831692263,0.0043918063222323,0.0051190186478621,0.0051190067221683,-0.00092002968685194,0.00092037519788278,-5.241338068544e-07,8.7537720907396e-07,-8.5703157019842e-07,1.2499890980946e-06,-0.001104674371374,0.0011038363183347,-0.0011041657014111,0.0011042814471977,-0.0011039970528212,0.0011045514952851,-0.0011035241789836,0.001104996760552,-0.00098789665868246,0.0009876254581368,-0.00098654923764488,0.00098897450263052,1.0210625657919e-06,-1.0720025319608e-06,-3.8186417553465e-06,3.8694844288382e-06,-0.0011465316222681,0.0011465348288135,-0.0013545871051658,0.0013527464212684,-0.0013521156678824,0.0013553110857726,-0.0013552593491538,0.0013520318200718,-0.0013527720927916,0.0013546240617594,-0.0011732626352953,0.001165055692052,-0.0011659158189163,0.0011728039697893,-0.001092314719877,0.0010968155057981,-0.0010942983009118,0.0010948194672546,-1.2816123781903e-07,-1.5279933624077e-06,-0.0011473585851858,0.0011457012366313,2.7905869023534e-06,-4.7076403207432e-06,-0.0013529664129893,0.0013543605284483,-0.0013554407000975,0.0013518717231634,-0.0013534314560598,0.001353899658789,-0.001355910804318,0.0013514092172806,-0.0010973488432945,0.001091814534164,-0.0010959831604066,0.0010931928958893,0.67994984270694,134640,3014,0.0038283020090453,0.0047657356030732,0.00476572175259,41.145479031524,0.00024436383225219,0.00024436383225219,0.00024436383225219,3630017.6965163,0.013450040532213
10419200,0.9704591503775,0.014917335756577,0.0044823238778115,0.005217512174512,0.0052174997042536,-0.00091982371371908,0.00092000379028504,-6.3022598794397e-07,8.1473514140091e-07,-4.1211802769131e-07,6.2449176412987e-07,-0.0011158928998103,0.001115230840997,-0.0011153798544261,0.0011156977525092,-0.0011155577839823,0.0011155875048316,-0.0011150736540219,0.0011160500390882,-0.00098903140373553,0.00098818396055127,-0.00098765893318257,0.00098958595559704,4.9929194087694e-07,-5.2598213705926e-07,-2.3918519483906e-06,2.437103166585e-06,-0.0011452758918175,0.00114528653134,-0.0013647995161795,0.0013635553026588,-0.0013632438156125,0.0013651656510602,-0.0013651322971885,0.0013632053886401,-0.0013635628811417,0.0013648343954201,-0.0011718522043749,0.0011668099767886,-0.0011672418478542,0.0011716829726238,-0.0010936007286254,0.0010961364618424,-0.0010945522100594,0.0010951643529891,1.6554459335739e-07,-1.2783609249072e-06,-0.0011458315900562,0.0011447283098726,1.6868591455872e-06,-2.9898495104806e-06,-0.0013636683939028,0.001364682830743,-0.0013652099286845,0.0013631315048742,-0.001364154379186,0.0013642023255225,-0.0013656928608639,0.001362654326335,-0.0010969304730882,0.0010928396902503,-0.0010955201367576,0.0010942396520319,0.69329667459132,134640,3014,0.0038272002844332,0.0047605676263941,0.0047605623374076,38.100583853109,0.00022000467082487,0.00022000467082487,0.00022000467082487,3463030.2983977,0.013438522157981
11419200,0.98263683025635,0.01508085380321,0.0045344905729405,0.005273187767053,0.0052731754632162,-0.00092031698011778,0.00092049632215073,-6.2838363298694e-07,8.108025503174e-07,-4.5059953695526e-07,6.6316242172628e-07,-0.001126310404577,0.0011256254384592,-0.0011257992858532,0.0011260906834176,-0.0011259511407081,0.0011260093428747,-0.0011254692382232,0.0011264676110307,-0.00098991259511808,0.00098909392180112,-0.0009885439444276,0.00099048745922902,5.2860120413676e-07,-5.7439834356078e-07,-2.3969492207883e-06,2.424898863061e-06,-0.0011438711956388,0.0011438644889378,-0.0013727783682273,0.0013715453175255,-0.0013712248629418,0.0013731519576018,-0.0013731346887757,0.0013711683970648,-0.0013715674443158,0.0013727950876899,-0.0011716393407157,0.001166558617821,-0.001167032799819,0.0011714263153371,-0.0010941154053609,0.0010967074742847,-0.0010951426811845,0.0010956581963316,1.7914348943975e-07,-1.2590902629962e-06,-0.0011444025015033,0.0011433311509941,1.6986882725875e-06,-2.970662372923e-06,-0.0013716401889462,0.001372680373636,-0.001373178044223,0.0013711315277014,-0.001372122782993,0.0013722024347148,-0.0013736586942757,0.0013706559985696,-0.0010974536107777,0.0010934040011184,-0.0010960455490722,0.0010947965668458,0.67906583211933,134640,3014,0.0038293212663929,0.0047547345629509,0.0047547302911261,37.628197151852,0.00021622557721482,0.00021622557721482,0.00021622557721482,3321947.1721036,0.013428928619589
12419200,0.98962188047878,0.015177275102861,0.0045655566905115,0.0053058653060534,0.0053058531062963,-0.00091825837760707,0.00091845827185595,-5.4846382279127e-07,7.5338904175245e-07,-4.584512037022e-07,7.0185687241047e-07,-0.0011289035831776,0.0011282741656506,-0.0011284513126207,0.0011286944123093,-0.0011285274362743,0.0011286532405525,-0.0011280966880265,0.0011290871179863,-0.00098829873407732,0.00098764331867825,-0.00098704264785987,0.00098890512848623,5.4909228782313e-07,-5.9864196359575e-07,-2.333517111227e-06,2.3660255722632e-06,-0.0011400873107518,0.0011400823597849,-0.0013736970440681,0.001372520238338,-0.0013721856127659,0.001374093750478,-0.0013740782649707,0.0013721348158408,-0.00137254643225,0.0013737271671152,-0.0011686122492031,0.0011636474852038,-0.0011641548647516,0.0011684050832983,-0.0010915370918925,0.0010941173693646,-0.0010926007405408,0.0010930455419076,1.0880567867454e-07,-1.1910283314064e-06,-0.0011406183889292,0.001139545180964,1.6355873275091e-06,-2.9141277575072e-06,-0.0013726225311715,0.0013735812683166,-0.0013741344853295,0.0013720827074343,-0.0013730609333394,0.001373149417443,-0.0013745568088454,0.0013716472994198,-0.0010947873546419,0.0010909213009939,-0.0010935256174172,0.001092198917502,0.69355172955357,134640,3014,0.0038208508853559,0.0047390614514121,0.0047390486769663,36.804267166661,0.00020963413733329,0.00020963413733329,0.00020963413733329,3237912.0001702,0.013388596033784
13419200,0.99352326509185,0.015229836466874,0.0045825804465867,0.0053236341331569,0.0053236218871309,-0.00091453601626162,0.00091471188295767,-4.9497772842144e-07,6.7330355562543e-07,-4.5415709775942e-07,6.6287702683726e-07,-0.0011299489851921,0.0011293494734111,-0.001129528423972,0.0011297249200543,-0.0011295892670914,0.001129736014109,-0.0011291963101569,0.0011301023422637,-0.00098423507562182,0.0009836783119068,-0.0009831308266767,0.00098480543745239,5.2927538537689e-07,-5.7702041574313e-07,-2.317189802071e-06,2.3416879657986e-06,-0.0011340869765737,0.00113407756267,-0.0013720488022985,0.0013708682160005,-0.0013705474746665,0.0013724191591037,-0.0013724065911005,0.001370489953956,-0.0013708913338941,0.0013720598998301,-0.0011630423192312,0.0011581169020422,-0.0011585935411651,0.001162821540574,-0.0010869391654978,0.0010894776905866,-0.0010879681101495,0.0010884251200557,7.2624890271242e-08,-1.0952041932802e-06,-0.0011345883899792,0.0011335741033469,1.6479853440207e-06,-2.8601659065389e-06,-0.0013709795822217,0.0013719320813653,-0.0013724645567264,0.001370435876583,-0.0013713715257977,0.0013715448251984,-0.0013728557661182,0.0013700518765315,-0.0010900653383771,0.001086391408437,-0.001088919267978,0.0010875163696514,0.67550368063766,134640,3014,0.0038053746453255,0.0047141887672509,0.004714184460186,34.794598025569,0.00019355678420455,0.00019355678420455,0.00019355678420455,3144953.5530372,0.013322558803611
14419200,0.99577602794141,0.015259813050039,0.0045923403552508,0.0053337424553298,0.0053337302394583,-0.00090946344042742,0.00090963055515983,-4.6958513908206e-07,6.4011664621432e-07,-4.2073444383049e-07,6.200072676095e-07,-0.0011260522157893,0.0011254887513495,-0.0011256525374296,0.0011258454431859,-0.0011257157018742,0.0011258463317235,-0.0011253437686497,0.0011261975979552,-0.00097919873606772,0.00097866679229284,-0.00097815513232179,0.00097974055143883,4.9786472479461e-07,-5.3214574683385e-07,-2.2816819245034e-06,2.3188517196311e-06,-0.001127404712836,0.0011274076782803,-0.0013667022658058,0.0013655265049955,-0.0013652180467798,0.0013670591090297,-0.0013670367435073,0.0013651752963295,-0.0013655385787447,0.0013667267046516,-0.0011565499363642,0.0011517229023321,-0.0011521590366369,0.0011563663564839,-0.0010809143783469,0.0010833710556617,-0.0010818712643959,0.0010823962067774,4.6689608959025e-08,-1.0623934551403e-06,-0.0011279075711392,0.0011269030500808,1.6248799579992e-06,-2.8258509291191e-06,-0.0013656480336503,0.0013665744175951,-0.0013671159191229,0.0013650988671054,-0.0013660226026366,0.0013662055068086,-0.0013674864102989,0.001364732962081,-0.0010839564617043,0.0010803669398349,-0.0010828734253163,0.0010814375877939,0.66543915436001,134640,3014,0.0037843005104148,0.004686508108315,0.004686504371371,32.643906427216,0.00017635125141773,0.00017635125141773,0.00017635125141773,3094931.5588269,0.013245105900161
15419200,0.99694914698683,0.015276346394501,0.0045977385397287,0.0053393100268425,0.0053392978279294,-0.00089974783423545,0.00089990113941266,-4.3617052241799e-07,5.9259882392356e-07,-3.933015000722e-07,5.7682348800547e-07,-0.0011166663804182,0.0011161407746837,-0.0011162963341298,0.001116471176897,-0.0011163540118318,0.0011164744978169,-0.0011160076229405,0.0011167999093888,-0.000969040302101,0.0009685448543705,-0.00096807090442584,0.00096954363860366,4.6622788096889e-07,-4.9336041111056e-07,-2.2096638119413e-06,2.2519741704697e-06,-0.0011153720637605,0.0011153810190081,-0.0013550681145152,0.001353920226748,-0.0013536282411317,0.001355407598783,-0.0013553815047563,0.001353594380645,-0.0013539271604196,0.0013550975107105,-0.0011443871687371,0.0011397243443227,-0.0011401283780099,0.0011442274442797,-0.0010695134855005,0.0010718653279625,-0.00107040481584,0.0010709584993911,2.184351467202e-08,-1.0062417070938e-06,-0.0011158625900681,0.0011148893491655,1.5734779524682e-06,-2.739958269106e-06,-0.0013540502680052,0.0013549332879505,-0.0013554727379886,0.0013535037266164,-0.0013543977172731,0.0013545927416236,-0.0013558162710022,0.0013531656120105,-0.0010724296159342,0.0010689933971017,-0.0010714225746083,0.0010699865273986,0.70138893249642,134640,3014,0.0037439271039239,0.0046366245218927,0.0046366220823756,27.069722678285,0.00013175778142628,0.00013175778142628,0.00013175778142628,3027039.1848578,0.013103115857454
16419200,0.99770225529577,0.015286597026122,0.0046010972968953,0.0053427559578225,0.0053427437714045,-0.00089555387436267,0.00089572901820971,-3.6957174138065e-07,5.5480036214728e-07,-3.5744950429723e-07,5.7482999647568e-07,-0.0011158702524191,0.001115422330607,-0.0011155464165314,0.0011157104771293,-0.0011155727796174,0.0011157152615485,-0.0011152668147287,0.0011160284122016,-0.00096426824029388,0.00096387331005611,-0.00096339054939793,0.0009647946973564,4.6264826089248e-07,-4.5740911489166e-07,-2.1694803282178e-06,2.2541647383306e-06,-0.0011090307708241,0.0011090782906615,-0.0013517574735704,0.0013506422453568,-0.0013503307625098,0.001352121508005,-0.0013520590803528,0.0013503361502355,-0.0013506159391103,0.001351836054897,-0.0011381539880534,0.0011335992111329,-0.0011339384984738,0.0011380618768625,-0.0010640094635508,0.0010663375743245,-0.0010648592533093,0.0010654740474217,-4.8988864989805e-08,-9.7201931596e-07,-0.0011095530584576,0.001108548637151,1.5425778437585e-06,-2.7357647568548e-06,-0.0013507875648765,0.0013515985611486,-0.0013522133871731,0.0013501925584415,-0.0013511000401799,0.0013512913338184,-0.0013525175150578,0.0013498764673671,-0.0010668740435367,0.0010635053610688,-0.0010659814967889,0.0010644311812898,0.6769763808252,134640,3014,0.0037265730644286,0.0046104250354329,0.0046104096311677,24.418335321123,0.00011054668256898,0.00011054668256898,0.00011054668256898,2945405.3060767,0.013032493435082
17419200,0.99820801766355,0.015293680043952,0.0046034265671031,0.0053451328340345,0.0053451206428148,-0.00088993764810044,0.00089013469272304,-3.104798758185e-07,5.1580353519384e-07,-3.2569192062167e-07,5.5444200457704e-07,-0.0011097963295834,0.0011094185288835,-0.0011094970218509,0.0011096710645664,-0.0011095205866427,0.0011097151159365,-0.0011092382819497,0.0011099758211554,-0.00095857075691472,0.00095827313274926,-0.00095779167265437,0.00095910236682646,4.4124595436309e-07,-4.2906294311551e-07,-2.1397608180348e-06,2.2203170168724e-06,-0.0011022089736282,0.0011022570175173,-0.0013446031332167,0.001343500769286,-0.0013431928698043,0.0013449499687389,-0.0013448798920881,0.0013431935982947,-0.0013434628304624,0.0013446674189667,-0.0011313666315936,0.001126884667911,-0.0011272116874509,0.0011312805128154,-0.0010576679002711,0.0010599522036345,-0.0010584856571076,0.001059125101106,-7.1738845122114e-08,-8.990387097461e-07,-0.0011027086555723,0.0011017525212548,1.5352502668145e-06,-2.6779407489637e-06,-0.0013436519804434,0.0013444474448013,-0.0013450440204107,0.0013430525642884,-0.0013439224277755,0.0013441765025637,-0.0013453179033452,0.0013427766021619,-0.0010604444470224,0.0010572268274916,-0.0010596197347361,0.0010580447450118,0.69394003157932,134640,3014,0.0037032920478594,0.004582131305885,0.0045821212537363,21.980202011767,9.1041616094135e-05,9.1041616094135e-05,9.1041616094135e-05,2918033.7642243,0.012951570435073
18419200,0.99852222289968,0.015298010300458,0.0046048527761135,0.0053465848564082,0.0053465726679362,-0.00088261554590841,0.00088275758298982,-2.5871549403693e-07,4.0349552620051e-07,-3.3883414748275e-07,5.0840980612944e-07,-0.0011039330631627,0.0011035583596721,-0.0011036831853827,0.0011037665348933,-0.0011036592594089,0.0011038529879842,-0.0011034350626712,0.0011040544132104,-0.00095048931517355,0.00095030410023501,-0.00094988124849486,0.00095093889487515,4.1664877709718e-07,-4.2002089772107e-07,-2.1885203992382e-06,2.2523034946033e-06,-0.0010926971605412,0.0010927267901411,-0.001336342911929,0.0013351820241511,-0.0013349106490946,0.0013366606947214,-0.0013366159752644,0.0013348964891309,-0.0013351698333788,0.0013363919984868,-0.0011217643000705,0.0011171827498764,-0.0011175267109285,0.0011216682848093,-0.0010488610876472,0.0010511039663639,-0.0010496297563144,0.0010503226101085,-1.5476894386493e-07,-8.1658396314375e-07,-0.0010931910074727,0.0010922301820263,1.5687603821224e-06,-2.7240677686686e-06,-0.0013353751186435,0.0013361423297282,-0.0013367904936638,0.0013347196363717,-0.0013356006915986,0.0013359226840087,-0.001337011842719,0.0013345030578567,-0.0010515321472778,0.0010484779397199,-0.0010508845506756,0.0010491094791385,0.68267066684529,134640,3014,0.003672774534727,0.0045426538772527,0.0045426480754881,17.477991088827,5.5023928710613e-05,5.5023928710613e-05,5.5023928710613e-05,2848895.6626202,0.01284071284722
19419200,0.99878239169983,0.015301818368757,0.0046061103489324,0.0053478601030035,0.0053478479168212,-0.00088113236581536,0.00088127996589715,-2.4026727473029e-07,3.9163547702777e-07,-3.5789177820761e-07,5.3492805766157e-07,-0.0011028355018632,0.0011024610866566,-0.0011025958877122,0.0011026587923855,-0.0011025464694538,0.0011027689686675,-0.0011023334875085,0.0011029616371559,-0.00094916730166305,0.0009490336728138,-0.00094859096464843,0.00094964161380675,4.3568763413032e-07,-4.4666891327078e-07,-2.2014791882789e-06,2.2590413088536e-06,-0.0010905603472972,0.0010905838392653,-0.0013346484358959,0.0013334901456686,-0.0013332089774992,0.0013349754846764,-0.0013349361780821,0.0013331882780421,-0.0013334826407216,0.0013346922913934,-0.0011198822955785,0.0011152622366674,-0.0011156258309096,0.001119765705389,-0.0010470820402544,0.0010493696456809,-0.0010478956115862,0.0010485427051871,-1.7203870595585e-07,-8.0374388476584e-07,-0.0010910532789718,0.0010900893280429,1.577268378922e-06,-2.7351277257852e-06,-0.001333685589547,0.0013344467814203,-0.0013351081849834,0.0013330178601204,-0.0013339006352172,0.0013342368894697,-0.001335319381573,0.0013328104697547,-0.0010497649553809,0.0010467279021027,-0.0010491494133798,0.0010473327697881,0.72158242288141,134640,3014,0.0036666285768606,0.0045337795475348,0.0045337761993805,17.551568050537,5.5612544404292e-05,5.5612544404292e-05,5.5612544404292e-05,2832855.1330151,0.012816509900599
20419200,0.99900881106596,0.015305169096066,0.004607217689366,0.0053489817948517,0.0053489696118485,-0.0008825060197495,0.00088266075228438,-1.9348845910449e-07,3.5180643072743e-07,-3.7336433789074e-07,5.5833199083214e-07,-0.0011074580746921,0.0011071070511451,-0.0011072472008511,0.0011072756730454,-0.0011071568164094,0.0011074279908936,-0.0011069727935998,0.0011075914816875,-0.00095020634550428,0.00095017726265296,-0.00094971502571088,0.00095070056849184,4.5107279744851e-07,-4.7019265893945e-07,-2.2247737643678e-06,2.2751958615343e-06,-0.0010909868929581,0.0010910030664535,-0.0013379109523987,0.0013367457510059,-0.0013364596981887,0.0013382441047317,-0.0013382110860372,0.0013364307089507,-0.0013367454617494,0.0013379478869158,-0.001120510547342,0.0011158311784045,-0.0011162159132234,0.0011203750072967,-0.0010481594933351,0.0010504899807411,-0.0010490103375379,0.0010496245723995,-2.1669413192886e-07,-7.6184046754571e-07,-0.0010914777327291,0.0010905108324367,1.5945324425186e-06,-2.7565427474423e-06,-0.0013369543644109,0.0013376967065926,-0.0013383895128134,0.0013362549219536,-0.0013371405796699,0.0013375157274083,-0.0013385717749422,0.0013360765218226,-0.0010508296061527,0.0010478614312777,-0.0010502981122073,0.0010483810416755,0.72910479950299,134640,3014,0.0036723635973569,0.0045355510156685,0.0045355480497323,18.597312354036,6.3978498832291e-05,6.3978498832291e-05,6.3978498832291e-05,2792161.3303451,0.012825963685571
21419200,0.99916284855332,0.015307387575438,0.0046079523390285,0.0053497237086911,0.0053497115277181,-0.00087628721464977,0.00087643730599281,-1.6045642582958e-07,3.1170180922369e-07,-3.5077138503323e-07,5.335103278952e-07,-0.0011018280177524,0.0011015197438047,-0.0011016473914414,0.0011016579521145,-0.0011015482521955,0.0011018169366644,-0.0011013834487088,0.0011019625797134,-0.00094376751627863,0.00094376699741097,-0.00094333600619971,0.00094424050551319,4.2735867437354e-07,-4.4636160853797e-07,-2.2566711683377e-06,2.3093000627526e-06,-0.0010830129653101,0.0010830324969678,-0.0013306115038354,0.001329410271213,-0.0013291341478388,0.0013309353843276,-0.0013308913569598,0.0013291128039398,-0.0013294082933545,0.0013306514738866,-0.0011126331230163,0.001107927189181,-0.0011082894915298,0.0011125219608478,-0.0010407293440043,0.0010430580679243,-0.0010415522527973,0.0010422190693263,-2.5938518277658e-07,-7.3159941154176e-07,-0.0010835102998063,0.0010825327876422,1.6221745840274e-06,-2.7937392026413e-06,-0.0013296454587587,0.0013303742613236,-0.0013311057136048,0.0013289117591496,-0.0013298055391793,0.0013302196852749,-0.0013312624435515,0.0013287571426994,-0.0010433942100141,0.0010404513278854,-0.0010429206142205,0.0010409027633168,0.70951083981303,134640,3014,0.0036465306012158,0.0045024909662263,0.0045024859625463,15.225615260312,3.7004922082498e-05,3.7004922082498e-05,3.7004922082498e-05,2741816.9009613,0.012732835016423
22419200,0.99929036198674,0.015309244555241,0.0046085685172365,0.0053503441086513,0.0053503319293536,-0.00087411590219495,0.00087426775031316,-1.478371410379e-07,3.0347708260416e-07,-3.6602320409857e-07,5.479331040341e-07,-0.0010995059963093,0.0010991889382873,-0.0010993263198039,0.0010993262952798,-0.0010992103424868,0.0010995036828607,-0.0010990573875255,0.0010996361966038,-0.00094175451587797,0.00094180904168517,-0.0009413553166252,0.00094224062506647,4.4345475413171e-07,-4.600602912948e-07,-2.2658943214605e-06,2.318378650846e-06,-0.001080221920981,0.0010802402435854,-0.0013277618508625,0.0013265650279081,-0.0013262829542912,0.0013280913956643,-0.0013280562248867,0.0013262561131927,-0.0013265632646554,0.001327801244899,-0.001110067357576,0.0011053138266318,-0.0011056910213538,0.0011099402876203,-0.0010383000538537,0.0010406437971867,-0.0010391338807449,0.0010397956957677,-2.6814720060643e-07,-7.1942900210482e-07,-0.0010807181922582,0.0010797425860758,1.6311420424086e-06,-2.8031801085716e-06,-0.0013267952414599,0.0013275259518585,-0.0013282583004959,0.0013260567502787,-0.0013269502378662,0.0013273761712773,-0.0013284093899943,0.0013259094374099,-0.001040948688201,0.0010380358963949,-0.0010405099785538,0.0010384642271943,0.7160479761199,134640,3014,0.0036375162680438,0.0044909100035999,0.0044909070540849,14.858990533528,3.4071924268222e-05,3.4071924268222e-05,3.4071924268222e-05,2729892.7451381,0.012700235872434
23419200,0.99940359572055,0.015310865437308,0.0046091067289929,0.0053508854430806,0.0053508732652347,-0.00087444531828343,0.00087460026603482,-1.2497811227991e-07,2.8346823093108e-07,-3.7570153627681e-07,5.6095772997787e-07,-0.0011011077312081,0.0011008001346526,-0.0011009415398918,0.001100923011355,-0.0011008050300056,0.0011011237090453,-0.0011006657494271,0.0011012405106611,-0.00094211170020908,0.00094221855916829,-0.00094175328109712,0.00094260706089805,4.5152053326851e-07,-4.7476292472007e-07,-2.2800243347247e-06,2.326268495774e-06,-0.0010799909930217,0.0010800031367142,-0.0013287167224834,0.0013275144339127,-0.001327230727001,0.0013290473338655,-0.0013290175789055,0.0013271969065542,-0.0013275178352609,0.001328749174535,-0.0011100590815753,0.0011052692213336,-0.0011056618120617,0.0011099194042222,-0.0010384754795067,0.0010408427437664,-0.0010393306292352,0.001039971612067,-2.881791542449e-07,-6.9687909842424e-07,-0.0010804834115957,0.0010795094081492,1.6424374121729e-06,-2.8135529991207e-06,-0.001327750445236,0.0013284749117649,-0.0013292202893397,0.0013269981098551,-0.0013278901311718,0.0013283397785613,-0.0013293574269647,0.0013268651996773,-0.0010411186525945,0.0010382420996762,-0.0010407197554252,0.0010386284696477,0.70404421843263,134640,3014,0.0036388974859623,0.0044899457935535,0.004489943001029,15.70571950287,4.0845756022957e-05,4.0845756022957e-05,4.0845756022957e-05,2712267.5149786,0.012699698043199
24419200,0.99951048765427,0.015312422545895,0.0046096240543982,0.0053514053339611,0.0053513931575353,-0.00087630494920807,0.00087646434904222,-1.2157727797119e-07,2.8456749294269e-07,-3.9077339150908e-07,5.813509161545e-07,-0.0011034992799567,0.0011031850879926,-0.0011033339360541,0.0011033074600638,-0.0011031847468926,0.001103519927936,-0.0011030468870279,0.0011036365115783,-0.00094432982682474,0.00094445652637645,-0.00094397476574543,0.00094484191937288,4.6788536604119e-07,-4.9377011185818e-07,-2.2748338479903e-06,2.3183926028711e-06,-0.0010818563004842,0.0010818659972287,-0.0013311332162315,0.0013299443860281,-0.0013296512363367,0.0013314729863221,-0.0013314457255465,0.0013296152622908,-0.0013299498198865,0.0013311635713373,-0.0011122516923094,0.0011074595971921,-0.001107867253774,0.001112097380029,-0.001040630286179,0.0010430245067178,-0.0010415192015525,0.0010421199620493,-2.8847869621477e-07,-6.9492129036967e-07,-0.0010823464123722,0.0010813743999742,1.636983264376e-06,-2.8061549579303e-06,-0.0013301744124073,0.0013308964440839,-0.0013316403905214,0.001329424157207,-0.0013303138728168,0.0013307616953473,-0.001331776409509,0.0013292919196914,-0.0010432811650751,0.0010404143724256,-0.0010428858610046,0.0010407981452944,0.71549404214057,134640,3014,0.0036466340458797,0.004497677943862,0.0044976747845185,17.881578703144,5.8252629625149e-05,5.8252629625149e-05,5.8252629625149e-05,2715543.1986799,0.01272319179472
25419200,0.99960794183318,0.015313914531294,0.0046101194486608,0.0053519036288931,0.0053518914537402,-0.00087857987071727,0.00087874290625716,-1.0320267816912e-07,2.6984481302249e-07,-4.0289726875947e-07,5.9743237747916e-07,-0.0011074319484602,0.0011071235144578,-0.0011072779964442,0.0011072346114313,-0.0011071087578885,0.0011074677376107,-0.0011069817393641,0.0011075731205359,-0.00094670458558686,0.00094687548945341,-0.00094638194635775,0.00094723004264848,4.7855416960448e-07,-5.1130006202071e-07,-2.2789302291895e-06,2.316827294339e-06,-0.0010838636255883,0.001083867419369,-0.0013346593475712,0.0013334732735501,-0.0013331768006053,0.0013350029011193,-0.0013349807481999,0.0013331348066732,-0.0013334842124264,0.0013346837828332,-0.0011145259579681,0.0011097171067657,-0.0011101380218234,0.0011143562071315,-0.0010430377200144,0.0010454545841711,-0.0010439550262527,0.0010445203965082,-3.0367675698676e-07,-6.7688342064037e-07,-0.0010843493643997,0.0010833804332271,1.6398868896209e-06,-2.8056757441405e-06,-0.0013337061846325,0.0013344207336557,-0.0013351724915919,0.0013329475059754,-0.00133383456743,0.0013342973651138,-0.0013352977584141,0.001332826462442,-0.0010456831292348,0.0010428495648417,-0.0010453195812354,0.0010432008311407,0.75065156698701,134640,3014,0.0036560984989757,0.0045059994612603,0.0045059967989603,19.926560985446,7.4612487883571e-05,7.4612487883571e-05,7.4612487883571e-05,2704424.097789,0.012749656481889
26419200,0.99968784657677,0.015315165220299,0.0046105348966804,0.0053523212488407,0.0053523090747783,-0.00087885291527383,0.00087901959501657,-6.054939438377e-08,2.3160941650872e-07,-3.9655836016781e-07,5.9993660806257e-07,-0.0011099354774807,0.0011096612091615,-0.0011098135621462,0.0011097444561557,-0.0011096151285243,0.0011099948397342,-0.0011095158551374,0.0011100822170333,-0.00094683547930403,0.0009470817635356,-0.00094658345580946,0.00094736193155856,4.7914954588414e-07,-5.0677488605841e-07,-2.2985787652422e-06,2.3446571817773e-06,-0.0010832034913315,0.0010832132927847,-0.0013360968142549,0.0013348970715084,-0.0013345998104764,0.0013364456853039,-0.0013364207746468,0.0013345654504735,-0.0013349076058268,0.0013361307825638,-0.0011140695317953,0.0011092270765342,-0.0011096384570895,0.0011139094284836,-0.0010428899143944,0.0010453228737032,-0.0010438004321251,0.001044391646766,-3.5066991585539e-07,-6.4290047886584e-07,-0.0010836981958395,0.001082716931175,1.6572500536953e-06,-2.8353012276758e-06,-0.0013351473850813,0.0013358391761632,-0.0013366333722699,0.0013343541276077,-0.0013352491901743,0.0013357431028825,-0.001336730581722,0.0013342577711558,-0.0010455201652768,0.0010427382392226,-0.0010452387707848,0.0010430186837791,0.76692112057889,134640,3014,0.0036572522879808,0.0045032881549433,0.0045032846162693,20.393280622158,7.8346244977261e-05,7.8346244977261e-05,7.8346244977261e-05,2670535.0169055,0.012745371669769
27419200,0.99975752536192,0.015316213955932,0.0046108838855244,0.0053526711219159,0.0053526589484913,-0.00088038228785591,0.00088054984417822,-4.0321803899995e-08,2.1161887658007e-07,-4.1478132602316e-07,6.1470081687648e-07,-0.0011130642311919,0.0011127911265511,-0.0011129509982776,0.001112861934517,-0.0011127318014495,0.0011131440060931,-0.001112645198592,0.0011132101367506,-0.0009486122550402,0.00094891582606239,-0.00094840873991664,0.00094915315938212,4.91008308793e-07,-5.2803689621935e-07,-2.306794226618e-06,2.3409808477835e-06,-0.0010842475925777,0.0010842474708948,-0.0013386881136931,0.0013374904819583,-0.0013371891606713,0.0013390377356514,-0.0013390192838497,0.0013371431575207,-0.0013375061643299,0.0013387091694715,-0.0011155366012773,0.0011106639558656,-0.001111098696689,0.0011153536551879,-0.0010445553373885,0.0010470138709392,-0.0010455013784,0.0010460505967449,-3.6711850823045e-07,-6.1924381273179e-07,-0.0010847340056724,0.0010837599128387,1.6624828924329e-06,-2.8343409241181e-06,-0.0013377428731856,0.0013384297865415,-0.0013392264708077,0.0013369399986613,-0.0013378314944998,0.0013383466179521,-0.0013393113602772,0.0013368591481212,-0.0010471736278823,0.0010444358649421,-0.0010469296246953,0.0010446692093222,0.73788855372677,134640,3014,0.003663617421847,0.0045076062689585,0.0045076038152472,22.24948783746,9.3195902699681e-05,9.3195902699681e-05,9.3195902699681e-05,2654916.2550637,0.012760580616832
28419200,0.99981479916103,0.015317121758711,0.0046111860045561,0.0053529739634112,0.0053529617907434,-0.00088064088455156,0.00088080507300598,-4.7207902978645e-08,2.1309660217449e-07,-4.2209721424448e-07,6.1660088399142e-07,-0.0011129704319181,0.0011126881605492,-0.0011128533074025,0.0011127621564081,-0.0011126342154471,0.0011130477080451,-0.0011125447751132,0.001113114158612,-0.00094925247981955,0.00094954864381442,-0.00094904108216978,0.00094978976575926,4.9758012271115e-07,-5.3061550379261e-07,-2.3022558451609e-06,2.3342454359009e-06,-0.0010844668610626,0.00108446662854,-0.001338661452933,0.0013374716508358,-0.0013371658980014,0.0013390126697359,-0.0013389957799769,0.0013371174656692,-0.0013374859242649,0.0013386791034823,-0.0011160435949503,0.0011111723525921,-0.0011116212892839,0.0011158561451165,-0.001045016636865,0.0010474837650365,-0.0010459699173555,0.0010465154576426,-3.6161936820629e-07,-6.223077741504e-07,-0.0010849530628906,0.0010839805326808,1.6562379897848e-06,-2.8288955896467e-06,-0.0013377199108095,0.0013384064946048,-0.0013391978578796,0.0013369193424072,-0.0013378104482981,0.001338321899603,-0.0013392844483289,0.0013368376441252,-0.0010476447871626,0.0010449077581251,-0.0010473897788729,0.0010451441394184,0.77520834363964,134640,3014,0.0036646845164824,0.0045085108708925,0.0045085110263896,23.43957903166,0.00010271663225328,0.00010271663225328,0.00010271663225328,2661702.296653,0.012763475315742
29419200,0.99986133833414,0.015317774297673,0.0046114033868969,0.0053531915413462,0.0053531793694298,-0.00088230431043372,0.00088247368914708,-1.3376102236714e-08,1.8640928102757e-07,-4.2125468210767e-07,6.2340653042777e-07,-0.0011170139156903,0.0011167544410072,-0.0011169175557604,0.00111680804153,-0.0011166766660606,0.0011171132801959,-0.0011166071825518,0.0011171612111255,-0.00095082061320479,0.00095118287277016,-0.0009506671466018,0.00095136714911318,4.9705520536778e-07,-5.3722565264181e-07,-2.3105729168976e-06,2.3418669592904e-06,-0.0010854395476416,0.0010854365134371,-0.0013418666650524,0.0013406699745399,-0.0013403661903582,0.0013422181094958,-0.0013422025618772,0.0013403167539892,-0.0013406878452218,0.0013418843921184,-0.0011172146393544,0.0011123282731264,-0.0011127723231261,0.0011170245881691,-0.0010464641234409,0.0010489352786353,-0.0010474230576621,0.0010479575391255,-3.9065779024369e-07,-5.9083212884995e-07,-0.0010859225265266,0.001084952552431,1.6665226305627e-06,-2.8347072743341e-06,-0.0013409277743807,0.0013416023893137,-0.0013424127619653,0.0013401109558108,-0.0013409985849081,0.0013415369233413,-0.0013424802952746,0.0013400475701585,-0.0010490620617113,0.0010463789586512,-0.0010488685173427,0.0010465614627811,0.68889126162185,134640,3014,0.0036716167246885,0.0045125547672775,0.0045125526503893,24.778337395781,0.00011342669916625,0.00011342669916625,0.00011342669916625,2635263.2164244,0.012778728909062
30419200,0.99989836064807,0.015318284265187,0.0046115734713951,0.0053533614826373,0.0053533493111544,-0.0008822144408876,0.00088238557959849,-5.9555926128132e-08,2.3449092814986e-07,-4.3092454717894e-07,6.3509092460583e-07,-0.0011138443780324,0.0011135486203253,-0.0011137175535398,0.0011136338381383,-0.0011135001973954,0.0011139137181866,-0.0011133996492752,0.0011139939926778,-0.00095148493400983,0.00095176275507085,-0.00095123971285797,0.00095204099394015,5.0536674286722e-07,-5.5010835341599e-07,-2.2809288192157e-06,2.3076005496876e-06,-0.00108625607178,0.001086248847807,-0.0013399395198566,0.0013387661376773,-0.0013384586167742,0.0013402935221254,-0.0013402822239264,0.0013384067522539,-0.001338787287592,0.0013399527436949,-0.0011182241635161,0.0011133902523589,-0.0011138427936673,0.0011180200331664,-0.0010469943464054,0.0010494624210651,-0.0010479763598356,0.001048461849615,-3.4085080339417e-07,-6.3505573127358e-07,-0.0010867335266588,0.0010857701216117,1.6392131815754e-06,-2.7991763973619e-06,-0.0013390034321193,0.0013396953481619,-0.0013404676722374,0.0013382249608709,-0.0013391061219676,0.0013395982756075,-0.0013405666023584,0.001338130135391,-0.0010496225164693,0.0010468737530972,-0.0010493371882401,0.0010471481888994,0.67663456368228,134640,3014,0.0036712322629361,0.0045159095427689,0.0045159068286249,26.12900914429,0.00012423207315432,0.00012423207315432,0.00012423207315432,2682843.6986824,0.012785061109549
31419200,0.99992833074718,0.015318728180493,0.0046117211184189,0.0053535096165787,0.0053534974454956,-0.00088476222682025,0.00088493474076391,-6.4628990392354e-08,2.4088998009012e-07,-4.357649872642e-07,6.415724208018e-07,-0.0011167315312165,0.0011164297160767,-0.0011166010678715,0.0011165187902767,-0.0011163838506498,0.0011167984272805,-0.00111627947304,0.0011168825844666,-0.00095432790878061,0.000954599258665,-0.00095407140584736,0.00095488905829954,5.097632412745e-07,-5.5702589178188e-07,-2.2669462135309e-06,2.2913686922758e-06,-0.0010890679263635,0.0010890584923912,-0.0013430804093107,0.0013419183259177,-0.001341608955966,0.0013434356479181,-0.0013434265712105,0.001341555309128,-0.0013419411933043,0.0013430911436015,-0.0011212463265481,0.0011164362999983,-0.0011168940075927,0.0011210356011383,-0.001049940446519,0.0010524075255025,-0.0010509338304602,0.0010513951839871,-3.3208056436104e-07,-6.3774763470675e-07,-0.0010895411766947,0.001088583984721,1.627757556084e-06,-2.7808347343753e-06,-0.0013421499165089,0.001342841775565,-0.0013436042978203,0.0013413812631536,-0.0013422564048873,0.0013427409504283,-0.0013437070480894,0.001341282664505,-0.0010525656548367,0.0010498214855535,-0.0010522688537778,0.001050107056209,0.72615477344184,134640,3014,0.0036818186975082,0.0045275673987511,0.0045275647139448,28.436007460711,0.00014268805968568,0.00014268805968568,0.00014268805968568,2694287.4587856,0.012819399241825
32419200,0.9999502291173,0.015319068950813,0.0046118343643802,0.0053536233786067,0.0053536112078262,-0.00088641284756541,0.0008865847776786,-2.0618767623957e-08,1.9658091915553e-07,-4.281606103137e-07,6.3441689802147e-07,-0.0011217119649842,0.0011214422583364,-0.0011216100407498,0.0011215022530109,-0.0011213691029287,0.0011218065447481,-0.0011212934134685,0.0011218612650281,-0.00095550816577444,0.00095586217818855,-0.00095533531307206,0.00095606227660982,5.0358505069541e-07,-5.486791396213e-07,-2.2871848000929e-06,2.3150637344321e-06,-0.0010898088850216,0.0010898018429561,-0.0013468166793741,0.0013456378850342,-0.0013453314507447,0.0013471689786329,-0.0013471584685634,0.0013452789181294,-0.0013456590922255,0.0013468297148878,-0.0011220204878195,0.0011171745668044,-0.0011176275885617,0.0011218212251629,-0.0010511615144485,0.0010536276980815,-0.0010521358632999,0.001052631943421,-3.7601623065253e-07,-5.9388823097028e-07,-0.001090284328086,0.0010893254834426,1.6476671735844e-06,-2.8038692175648e-06,-0.0013458857468573,0.0013465602074157,-0.0013473550067937,0.0013450855749834,-0.0013459620304216,0.0013464893704935,-0.0013474283878796,0.0013450161684527,-0.0010537518980569,0.0010510801944896,-0.0010535417884813,0.0010512817738285,0.76213984607049,134640,3014,0.003688687069935,0.0045306664532681,0.00453066446843,29.29448690667,0.00014955589525336,0.00014955589525336,0.00014955589525336,2653717.789578,0.01283270178026
33419200,0.99996545083475,0.015319308650325,0.0046119141625797,0.0053537033291635,0.0053536911585814,-0.00088584749348975,0.00088601772021827,1.3204619262357e-11,1.7396393278061e-07,-4.26939420575e-07,6.3000260482664e-07,-0.0011230408538013,0.0011227872513711,-0.001122953800631,0.001122832340461,-0.0011226996578532,0.0011231493518763,-0.0011226390555649,0.0011231894648292,-0.00095484675337741,0.00095523855297585,-0.00095471973910389,0.00095539956953284,5.0217840195345e-07,-5.4433281492016e-07,-2.288464357289e-06,2.3177732287941e-06,-0.0010882690790991,0.0010882641805542,-0.0013470823893927,0.0013459027432057,-0.0013455965469344,0.0013474357483977,-0.001347422348289,0.0013455462461696,-0.0013459222820456,0.0013470980715963,-0.0011206768995082,0.0011158307991544,-0.0011162786585179,0.001120479054687,-0.0010501898734004,0.001052656597281,-0.0010511625118892,0.0010516660053399,-3.9892387964373e-07,-5.7313061510402e-07,-0.0010887459261008,0.0010877863681388,1.6494645445481e-06,-2.806205917828e-06,-0.0013461584990192,0.0013468201216705,-0.001347628423569,0.0013453440818386,-0.0013462211493005,0.0013467630022163,-0.0013476873541677,0.0013452892219575,-0.0010527601212104,0.0010501267690886,-0.0010525924398285,0.0010502838088761,0.77028159452467,134640,3014,0.0036863464455976,0.0045242972058199,0.0045242951228899,29.317262035562,0.00014973809628449,0.00014973809628449,0.00014973809628449,2619762.8671293,0.012817459009534
34419200,0.99997696913483,0.015319483233012,0.0046119723808369,0.005353761511308,0.0053537493408671,-0.00088785347780794,0.00088802472828045,1.0473487937993e-08,1.6298501769557e-07,-4.3426509605557e-07,6.4488576656375e-07,-0.001126128031155,0.0011258767251212,-0.0011260534316984,0.0011259171884184,-0.0011257769335609,0.0011262368029537,-0.0011257309910006,0.0011262773200501,-0.00095722316496569,0.00095764452001986,-0.00095712268160364,0.0009577806058724,5.1731555724909e-07,-5.4998926483207e-07,-2.2848262256333e-06,2.3212710829843e-06,-0.0010900819157532,0.001090083245253,-0.001349999679369,0.0013488308588538,-0.0013485208529094,0.0013503655996806,-0.0013503554341589,0.0013484770995643,-0.001348852657962,0.0013500276860094,-0.0011229157001963,0.0011180599232109,-0.0011185185962636,0.0011227161741669,-0.0010524663727897,0.0010549520001009,-0.0010534443157475,0.0010539463504959,-4.2445797862467e-07,-5.7631962646276e-07,-0.0010905752856622,0.0010895905114201,1.6355716705323e-06,-2.8205180959613e-06,-0.0013490936273136,0.0013497278858928,-0.0013505666237879,0.0013482559787209,-0.0013491533824173,0.0013496759080334,-0.0013506132557678,0.001348208813472,-0.0010550412894572,0.0010524179502586,-0.0010549096784227,0.0010525497828611,0.74169710424225,134640,3014,0.0036946881925191,0.0045318336959677,0.0045318349054438,31.480106692786,0.00016704085354229,0.00016704085354229,0.00016704085354229,2613319.1964423,0.012841183929781
35419200,0.99998600246655,0.01531961536249,0.0046120164636744,0.005353805534571,0.0053537933642443,-0.00089312200519072,0.00089329656780465,-1.7763180416149e-09,1.8113150844909e-07,-4.6420898314411e-07,6.7087277978497e-07,-0.0011315826459295,0.0011312939707936,-0.001131488927611,0.0011313545157509,-0.0011312044270077,0.0011316908669906,-0.0011311518605905,0.0011317291326194,-0.00096311116384102,0.00096355468484469,-0.00096298997593403,0.00096368659831759,5.3446058127e-07,-5.8998282042321e-07,-2.2707810813791e-06,2.2726470096648e-06,-0.0010962671754803,0.0010962376172342,-0.0013563423543268,0.0013551863675664,-0.0013548858794194,0.0013566926891514,-0.0013567223331199,0.0013548074081007,-0.0013552335022393,0.001356333374144,-0.0011295193034383,0.0011246455512989,-0.0011251729674772,0.0011292579202753,-0.001058850826151,0.0010613281261747,-0.0010598649820189,0.0010602901318375,-4.029207383624e-07,-5.8641111288659e-07,-0.0010967434651757,0.0010957651599862,1.6050221455956e-06,-2.7887209641695e-06,-0.0013554437024763,0.0013560727503276,-0.0013568899620112,0.0013546184785791,-0.0013555140859609,0.0013560098331804,-0.0013569478321578,0.0013545639221083,-0.0010614122530351,0.0010588050485085,-0.0010612619801068,0.0010589592579317,0.71641844054276,134640,3014,0.0037165788618895,0.0045574186950161,0.0045574265603526,35.925106813485,0.00020260085450788,0.00020260085450788,0.00020260085450788,2645751.0129365,0.012915180717931
36419200,0.99999178690467,0.01531970166153,0.0046120452123511,0.0053538343096806,0.0053538221394985,-0.00089449898816368,0.00089467876616437,-9.8183184887053e-09,1.9336356693348e-07,-4.5969607816638e-07,6.7405579783081e-07,-0.0011326002728913,0.0011323212061884,-0.0011325038936746,0.0011323763205521,-0.0011322346163553,0.0011327082341627,-0.0011321645513199,0.0011327583112353,-0.00096485517943619,0.00096525340486653,-0.00096469953064152,0.00096544274152433,5.3389443403978e-07,-5.8931426227969e-07,-2.2527069404372e-06,2.2700966109754e-06,-0.0010979184561777,0.0010979018237155,-0.0013577382262655,0.0013565992121046,-0.0013562785865137,0.0013581044006786,-0.0013581024503854,0.001356217703886,-0.0013566285377627,0.0013577417217807,-0.0011313410227895,0.0011265392717598,-0.0011270229411956,0.0011311042133455,-0.0010604699514643,0.0010629721282759,-0.0010615174497666,0.0010619044111125,-3.7742848772835e-07,-5.8087485822996e-07,-0.0010983823606172,0.0010974368792653,1.6161964535897e-06,-2.7571955213218e-06,-0.0013568360782813,0.0013574938567439,-0.0013582788300994,0.0013560451375875,-0.0013569085982445,0.0013574270400381,-0.0013583474806691,0.0013559806040547,-0.0010630500650702,0.0010604298731121,-0.0010628542597722,0.0010606154077767,0.73065038834318,134640,3014,0.0037223073938048,0.0045642900023619,0.0045642877649239,37.478875580644,0.00021503100464515,0.00021503100464515,0.00021503100464515,2660695.9482412,0.012934880903485
37419200,0.99999520339443,0.015319751825126,0.0046120619172703,0.0053538510389977,0.005353838868858,-0.00089450469514865,0.00089468274297008,9.301085979502e-09,1.7258929970883e-07,-4.4832194859333e-07,6.6289268763486e-07,-0.001133827993922,0.0011335677175696,-0.0011337464660405,0.0011336097997212,-0.0011334699466208,0.0011339449807027,-0.001133413000791,0.0011339849347441,-0.00096471816973424,0.00096514430153739,-0.00096459616136486,0.00096529369764865,5.272638817092e-07,-5.7341708103792e-07,-2.2609507221424e-06,2.2890924274425e-06,-0.0010973713730094,0.0010973641150532,-0.001358340624111,0.001357193547068,-0.0013568720554305,0.0013587089195615,-0.0013586992416992,0.0013568206597958,-0.0013572159610286,0.0013583540014757,-0.0011308420688779,0.0011260343200782,-0.0011265021722427,0.001130626422482,-0.0010601679207458,0.0010626653227207,-0.0010611908092284,0.0010616204040508,-3.9909211944345e-07,-5.6289985653318e-07,-0.0010978423318259,0.0010968921707423,1.6266563642086e-06,-2.7734137489037e-06,-0.0013574382059998,0.0013580871872561,-0.00135889162521,0.001356630570246,-0.0013574977636645,0.0013580340687625,-0.0013589463705278,0.0013565787425495,-0.0010627348203574,0.0010601421027246,-0.0010625785467751,0.0010602915141069,0.71959281111407,134640,3014,0.0037223328168641,0.0045620485913937,0.0045620464568878,37.680188805273,0.00021664151044218,0.00021664151044218,0.00021664151044218,2641765.3066399,0.012930389922425
38419200,0.99999716721053,0.015319781762785,0.0046120718903664,0.0053538610212673,0.0053538488511513,-0.00089311016318396,0.00089328322389242,1.1717294092995e-08,1.6508405549363e-07,-4.4039494440417e-07,6.4699978851786e-07,-0.0011323419460017,0.0011320879051661,-0.0011322623723309,0.0011321267797362,-0.0011319909063834,0.0011324599373709,-0.001131937449103,0.0011324934794731,-0.00096331172634102,0.00096373609207108,-0.00096320427083141,0.00096387632770091,5.1363749561603e-07,-5.6323118938988e-07,-2.2725727674779e-06,2.2943228326524e-06,-0.0010956137843965,0.0010956017462783,-0.0013565085624271,0.0013553444335362,-0.0013550350374829,0.0013568642873961,-0.0013568586329434,0.0013549788574549,-0.0013553705120958,0.0013565167676908,-0.0011291264068469,0.0011243006551001,-0.0011247653344359,0.0011289093529213,-0.0010585681934293,0.0010610448177333,-0.0010595703193111,0.001060023142335,-4.0498485174614e-07,-5.5863153952777e-07,-0.0010960827906263,0.0010951318323215,1.63462372698e-06,-2.7822218304358e-06,-0.0013555976576088,0.0013562481455933,-0.0013570548348018,0.0013547852653503,-0.0013556538312709,0.0013561976775536,-0.0013571066471046,0.0013547372963207,-0.0010611220483362,0.0010585309789102,-0.0010609746424961,0.0010586676508952,0.74583042549473,134640,3014,0.0037165297068074,0.0045547483074375,0.0045547463416501,37.196433269656,0.00021277146615725,0.00021277146615725,0.00021277146615725,2634472.9576012,0.012909716945481
38880000,0.99999785296723,0.015319792278564,0.0046120753944206,0.0053538645271253,0.005353852357018,-0.00089314593757598,0.00089331747168208,2.1601345458805e-08,1.5371586702969e-07,-4.3401669689673e-07,6.3878459771102e-07,-0.0011336920134909,0.001133448296379,-0.0011336192155834,0.0011334798848613,-0.0011333456280508,0.0011338156186142,-0.0011332992020068,0.0011338419308537,-0.00096317921189236,0.0009636188135218,-0.00096309332346359,0.0009637384328435,5.0856961643583e-07,-5.5376491360393e-07,-2.2593530340023e-06,2.285528012474e-06,-0.0010951257173325,0.0010951178376062,-0.0013572439744041,0.0013560866174307,-0.0013557776577547,0.0013575989194658,-0.0013575892674947,0.0013557251381774,-0.0013561084281728,0.0013572561565968,-0.0011286473527146,0.001123852617437,-0.0011243080301722,0.0011284397998513,-0.001058330754158,0.0010607894821653,-0.0010593183856039,0.0010597832840465,-4.133208199304e-07,-5.4572588819354e-07,-0.0010955945080187,0.0010946482160219,1.6262324133237e-06,-2.7687911306583e-06,-0.0013563413332076,0.0013569820177928,-0.0013577912421972,0.0013555262620092,-0.0013563902158483,0.0013569387940829,-0.0013578361160888,0.0013554853623259,-0.001060859537219,0.001058301033994,-0.0010607333295356,0.0010584169918488,0.74998938909349,134640,3014,0.0037166815190864,0.0045527420706317,0.0045527402651791,37.193663116545,0.00021274930493236,0.00021274930493236,0.00021274930493236,2613984.2576072,0.012905833252468
