time,ASR_ext,ASR_strain,ASR_strain_xx,ASR_strain_yy,ASR_strain_zz,disp_x_101,disp_x_102,disp_x_103,disp_x_104,disp_x_105,disp_x_106,disp_x_p1_neg,disp_x_p1_pos,disp_x_p2_neg,disp_x_p2_pos,disp_x_p3_neg,disp_x_p3_pos,disp_x_p4_neg,disp_x_p4_pos,disp_x_p5_neg,disp_x_p5_pos,disp_x_p6_neg,disp_x_p6_pos,disp_y_101,disp_y_102,disp_y_103,disp_y_104,disp_y_105,disp_y_106,disp_y_p1_neg,disp_y_p1_pos,disp_y_p2_neg,disp_y_p2_pos,disp_y_p3_neg,disp_y_p3_pos,disp_y_p4_neg,disp_y_p4_pos,disp_y_p5_neg,disp_y_p5_pos,disp_y_p6_neg,disp_y_p6_pos,disp_y_p7_neg,disp_y_p7_pos,disp_y_p8_neg,disp_y_p8_pos,disp_z_101,disp_z_102,disp_z_103,disp_z_104,disp_z_105,disp_z_106,disp_z_p1_neg,disp_z_p1_pos,disp_z_p2_neg,disp_z_p2_pos,disp_z_p3_neg,disp_z_p3_pos,disp_z_p4_neg,disp_z_p4_pos,disp_z_p5_neg,disp_z_p5_pos,disp_z_p6_neg,disp_z_p6_pos,humidity,ndof,nelem,strain_xx,strain_yy,strain_zz,temp,thermal_strain_xx,thermal_strain_yy,thermal_strain_zz,vonmises,vstrain
2419200,0,0,0,0,0,0,0,0,0,0,0,0,0,0,0,0,0,0,0,0,0,0,0,0,0,0,0,0,0,0,0,0,0,0,0,0,0,0,0,0,0,0,0,0,0,0,0,0,0,0,0,0,0,0,0,0,0,0,0,0,0,0,0,0,0,0,0,0,0,0,0,0,0,0,0
3419200,0.15985851953087,0.002663787240891,0.00088792908029702,0.00088792908029702,0.00088792908029702,-0.00024754755803782,0.00024754755414302,-8.4410591902595e-13,-1.7922053817088e-12,-6.3633331780688e-13,-1.9870112981688e-12,-0.00025257777699798,0.00025257777477619,-0.00025257777776552,0.00025257777490849,-0.00025257777785883,0.0002525777747633,-0.00025257777863171,0.00025257777489484,-0.00024793509445388,0.00024793509201606,-0.00024793509559055,0.00024793509130308,-1.6472571658348e-12,-3.4627288116e-13,-2.6375038541468e-12,5.6951042845005e-13,-0.00024754755774927,0.00024754755443165,-0.0002525777778339,0.00025257777390208,-0.00025257777722401,0.00025257777544088,-0.00025257777784207,0.00025257777478703,-0.00025257777722941,0.00025257777632896,-0.000247935095734,0.00024793509070519,-0.00024793509286233,0.00024793509407287,-0.00024793509448621,0.00024793509199831,-0.00024793509342367,0.00024793509350755,-1.9881231024392e-12,-1.0400314924577e-12,-0.00024754755823922,0.00024754755394207,7.0217512991413e-14,-3.125634984585e-12,-0.00025257777716827,0.00025257777454894,-0.00025257777871088,0.00025257777393879,-0.00025257777730723,0.00025257777532592,-0.00025257777883984,0.0002525777747059,-0.00024793509519499,0.00024793509174448,-0.00024793509589698,0.00024793509060126,0.75746877217741,125301,3014,0.0010309151036391,0.0010309151036393,0.0010309151036401,31.88266033072,0.00017026128264576,0.00017026128264576,0.00017026128264576,974207.02933516,0.0030975348557107
4419200,0.35106322943558,0.0056944364272043,0.0018981454757414,0.0018981454757384,0.0018981454757246,-0.00048350502970977,0.00048350502120454,-2.7133827403728e-12,-3.6625439353263e-12,-2.3112835830495e-12,-3.968773705217e-12,-0.00050293793039566,0.00050293792404616,-0.00050293793229831,0.00050293792531006,-0.00050293793245468,0.00050293792503381,-0.00050293793435941,0.00050293792628637,-0.00048695017764221,0.00048695017121959,-0.00048695017965054,0.00048695017136902,-3.4416675366653e-12,-1.9821745056721e-12,-4.7668419394402e-12,-8.6672566389981e-13,-0.00048350502933037,0.00048350502158285,-0.00050293793138622,0.00050293792304344,-0.0005029379316113,0.00050293792595322,-0.00050293793241875,0.00050293792509864,-0.0005029379326377,0.00050293792801539,-0.00048695017910833,0.00048695016975729,-0.00048695017640024,0.0004869501746305,-0.00048695017747356,0.00048695017146495,-0.00048695017705543,0.0004869501739587,-3.9254957552698e-12,-2.9764020582543e-12,-0.00048350502997936,0.00048350502092876,-1.4801008280533e-12,-5.4015699342757e-12,-0.0005029379305163,0.00050293792378975,-0.00050293793347962,0.00050293792407565,-0.00050293793179801,0.00050293792571641,-0.0005029379347246,0.00050293792596581,-0.00048695017940541,0.00048695017167755,-0.00048695017926019,0.00048695016968315,0.73992840791513,125301,3014,0.0020125762793531,0.0020125762793509,0.0020125762793403,33.607449931172,0.00018405959944937,0.00018405959944937,0.00018405959944937,1835524.2437469,0.0060560101126382
5419200,0.55102009207226,0.0087234502194522,0.0029078167398228,0.0029078167398202,0.0029078167398092,-0.00071634267704408,0.00071634267222589,-1.1958372326993e-12,-2.1459918825975e-12,-9.4122008460779e-13,-2.298159969261e-12,-0.00076014266663673,0.00076014266313837,-0.00076014266795499,0.00076014266381812,-0.00076014266807665,0.00076014266364901,-0.00076014266939104,0.00076014266431541,-0.00072534783429409,0.00072534783106166,-0.00072534783542547,0.00072534783032932,-2.0603602428121e-12,-9.1452226601665e-13,-3.1026843088741e-12,-5.3336075151914e-14,-0.00071634267695133,0.0007163426723177,-0.00076014266765043,0.00076014266211507,-0.0007601426676202,0.00076014266413362,-0.00076014266825664,0.00076014266347236,-0.0007601426682221,0.00076014266549582,-0.00072534783575619,0.00072534782963788,-0.00072534783294239,0.00072534783278469,-0.00072534783445729,0.00072534783097874,-0.00072534783345334,0.0007253478322587,-2.2038988194627e-12,-1.2538010207689e-12,-0.00071634267710298,0.00071634267216212,-1.5788400028158e-13,-3.2491257708498e-12,-0.0007601426666834,0.00076014266302065,-0.00076014266876028,0.00076014266299025,-0.00076014266737296,0.00076014266435305,-0.00076014266942057,0.00076014266429361,-0.00072534783486867,0.00072534783092276,-0.00072534783561891,0.00072534782981703,0.72499638738019,125301,3014,0.002980325267727,0.002980325267725,0.0029803252677169,36.27905408625,0.00020543243269,0.00020543243269,0.00020543243269,2565894.0840126,0.0089811298067162
6419200,0.70714583236058,0.010628938111183,0.0035429793703976,0.003542979370396,0.0035429793703893,-0.00085176757787056,0.00085176757432077,-8.0621622358896e-13,-1.7569459735653e-12,-5.8996406523807e-13,-1.9248883577467e-12,-0.00092564334586426,0.00092564334349704,-0.00092564334691026,0.00092564334390456,-0.00092564334705291,0.00092564334376791,-0.00092564334810721,0.00092564334417357,-0.0008614585550501,0.00086145855272351,-0.00086145855614339,0.00086145855195307,-1.5389863526704e-12,-3.5111414318923e-13,-2.3732629961467e-12,3.4370747033117e-13,-0.00085176757760183,0.00085176757458907,-0.00092564334662441,0.00092564334268953,-0.00092564334647768,0.00092564334435006,-0.00092564334698695,0.00092564334381764,-0.00092564334683549,0.00092564334548345,-0.00086145855614866,0.00086145855161558,-0.00086145855366996,0.00086145855444667,-0.00086145855510926,0.00086145855269548,-0.00086145855408026,0.00086145855402376,-1.8950564602671e-12,-9.443825615257e-13,-0.0008517675780124,0.00085176757417704,-5.8502536317085e-14,-2.7853017638842e-12,-0.00092564334606701,0.00092564334324773,-0.00092564334774557,0.00092564334307668,-0.00092564334648339,0.00092564334430733,-0.00092564334815046,0.00092564334412491,-0.0008614585556088,0.00086145855252684,-0.00086145855638229,0.00086145855144461,0.59839168540088,125301,3014,0.0035427914214365,0.0035427914214356,0.0035427914214326,36.740630764926,0.0002091250461194,0.0002091250461194,0.0002091250461194,2883608.4593621,0.010685199564911
7419200,0.83240993652146,0.011956248358133,0.0039854161193799,0.0039854161193788,0.0039854161193743,-0.00094439095150568,0.00094439094762044,-8.9173799331054e-13,-1.8428457905614e-12,-6.9761261488406e-13,-1.9952957803777e-12,-0.0010444635737956,0.0010444635712844,-0.0010444635748039,0.0010444635716543,-0.0010444635749371,0.0010444635715347,-0.0010444635759536,0.0010444635719029,-0.00095444333041384,0.0009544433278684,-0.00095444333148295,0.00095444332707325,-1.6800446351761e-12,-5.166442977537e-13,-2.4233595217985e-12,9.5981135167572e-14,-0.00094439095130121,0.00094439094782473,-0.0010444635745773,0.0010444635704578,-0.0010444635744588,0.0010444635720139,-0.0010444635749126,0.0010444635715422,-0.0010444635747895,0.0010444635731034,-0.00095444333148926,0.0009544433267843,-0.00095444332917954,0.0009544433293955,-0.00095444333056566,0.00095444332774148,-0.00095444332953882,0.00095444332902683,-1.9214395366352e-12,-9.7038544362609e-13,-0.000944390951588,0.00094439094753777,-1.8559147736659e-13,-2.7113033038981e-12,-0.0010444635739717,0.0010444635710724,-0.0010444635755404,0.001044463570929,-0.0010444635743481,0.0010444635720919,-0.0010444635759085,0.0010444635719403,-0.00095444333086011,0.0009544433277336,-0.00095444333165696,0.00095444332667405,0.52694121020036,125301,3014,0.0039273261977648,0.0039273261977644,0.003927326197764,40.779745460726,0.00024143796368581,0.00024143796368581,0.00024143796368581,3026046.0951451,0.011851887203762
8419200,0.90796492504248,0.012669959235406,0.0042233197451372,0.0042233197451362,0.0042233197451327,-0.00098144718491161,0.0009814471825511,-3.8829157913526e-13,-1.3395290194844e-12,-2.2493043735307e-13,-1.4804998599808e-12,-0.0011006425748068,0.0011006425735064,-0.001100642575615,0.0011006425736762,-0.0011006425757465,0.0011006425735759,-0.0011006425765642,0.0011006425737454,-0.00099301116014838,0.00099301115874887,-0.00099301116117526,0.00099301115791127,-1.1916138966458e-12,-4.2923841279642e-14,-1.7485446341727e-12,4.0413350556131e-13,-0.00098144718471945,0.00098144718274322,-0.0011006425755258,0.001100642572738,-0.0011006425753392,0.0011006425739734,-0.0011006425756781,0.0011006425736222,-0.0011006425754869,0.0011006425748626,-0.00099301116106225,0.00099301115781805,-0.00099301115907582,0.00099301116003708,-0.00099301116037145,0.00099301115853522,-0.00099301115933443,0.00099301115977335,-1.3879219528782e-12,-4.3673818735993e-13,-0.00098144718496387,0.00098144718249931,1.5455564607816e-13,-1.9960568747738e-12,-0.0011006425750186,0.0011006425732724,-0.0011006425762573,0.0011006425730528,-0.0011006425751924,0.0011006425740892,-0.0011006425764278,0.0011006425738665,-0.00099301116046452,0.00099301115865765,-0.00099301116130082,0.00099301115763727,0.47156008474719,125301,3014,0.0040811546182934,0.0040811546182933,0.0040811546182944,41.436352882143,0.00024669082305714,0.00024669082305714,0.00024669082305714,3002830.30722,0.012319025749977
9419200,0.94978148634635,0.013010619088315,0.0043368730294401,0.0043368730294392,0.004336873029436,-0.00099094039615238,0.00099094039457022,-1.2216900311493e-13,-1.073417678415e-12,2.4563529012814e-14,-1.2083946284912e-12,-0.0011228073120037,0.0011228073113452,-0.001122807312698,0.0011228073114011,-0.0011228073128284,0.0011228073113108,-0.0011228073135326,0.001122807311367,-0.0010038476900805,0.0010038476892795,-0.001003847691088,0.0010038476884226,-9.3391650976054e-13,2.0767637254114e-13,-1.3379633076651e-12,5.1347738709026e-13,-0.0009909403959666,0.00099094039475603,-0.0011228073126726,0.0011228073106259,-0.0011228073124758,0.0011228073116473,-0.0011228073127193,0.001122807311396,-0.0011228073125179,0.0011228073124224,-0.001003847690857,0.0010038476884835,-0.0010038476891481,0.0010038476903912,-0.0010038476903595,0.0010038476890016,-0.0010038476893193,0.0010038476902184,-1.100679286768e-12,-1.4948396277931e-13,-0.00099094039618363,0.00099094039453991,2.873219431001e-13,-1.5587096030798e-12,-0.0011228073122475,0.001122807311087,-0.0011228073132679,0.0011228073108538,-0.0011228073123057,0.0011228073117882,-0.0011228073133257,0.0011228073115545,-0.0010038476903082,0.0010038476892374,-0.001003847691162,0.0010038476882345,0.40621133923259,125301,3014,0.004120583714378,0.0041205837143781,0.00412058371438,41.144138656454,0.00024435310925163,0.00024435310925163,0.00024435310925163,2927326.6927933,0.012438834209295
10419200,0.97069078596458,0.013195017231714,0.0043983390772395,0.0043983390772387,0.0043983390772357,-0.00098932951563366,0.00098932951566019,4.2084437878723e-13,-5.3037797378756e-13,5.4488786875552e-13,-6.62809104578e-13,-0.001127637662829,0.0011276376634773,-0.0011276376633105,0.0011276376633205,-0.0011276376634453,0.0011276376632428,-0.001127637663938,0.0011276376630874,-0.0010036116906838,0.0010036116911077,-0.0010036116916698,0.0010036116902293,-4.0634634949538e-13,7.3824240859823e-13,-5.7343150687726e-13,8.2791766603609e-13,-0.00098932951545154,0.00098932951584239,-0.0011276376634183,0.0011276376628325,-0.0011276376631682,0.0011276376634927,-0.0011276376632642,0.0011276376633953,-0.0011276376630095,0.0011276376640606,-0.001003611691244,0.0010036116905203,-0.0010036116899604,0.0010036116919747,-0.0010036116910452,0.0010036116907322,-0.0010036116899989,0.0010036116919399,-5.2583696545342e-13,4.2533209463176e-13,-0.00098932951563312,0.00098932951566192,6.2765029630252e-13,-7.6056992687552e-13,-0.0011276376631234,0.0011276376631806,-0.0011276376637744,0.0011276376628861,-0.0011276376629665,0.0011276376636666,-0.0011276376636217,0.0011276376633763,-0.0010036116907844,0.0010036116911485,-0.0010036116916566,0.001003611690164,0.43665130715676,125301,3014,0.0041139196983819,0.0041139196983821,0.0041139196983844,38.086342966102,0.00021989074372881,0.00021989074372881,0.00021989074372881,2888995.0546697,0.012418625147813
11419200,0.98277314472554,0.013293809382533,0.0044312697941792,0.0044312697941783,0.0044312697941754,-0.00098664734573735,0.00098664734463844,4.6360819002921e-14,-9.0481388796858e-13,1.7976827290854e-13,-1.0319688711182e-12,-0.0011322316369528,0.0011322316366747,-0.0011322316375759,0.0011322316366596,-0.0011322316377019,0.0011322316365767,-0.0011322316383341,0.0011322316365609,-0.0010022187727227,0.0010022187723046,-0.0010022187737113,0.0010022187714288,-7.6776250910594e-13,3.604754344141e-13,-8.4849657579513e-13,3.4974590391034e-13,-0.0009866473455575,0.00098664734481841,-0.0011322316375168,0.0011322316360654,-0.0011322316374598,0.0011322316367962,-0.001132231637498,0.0011322316367594,-0.0011322316374364,0.0011322316374953,-0.001002218773193,0.0010022187718201,-0.0010022187721001,0.0010022187730626,-0.0010022187731119,0.001002218771911,-0.0010022187720709,0.0010022187730979,-8.9542982170418e-13,5.569156336685e-14,-0.00098664734573192,0.00098664734464526,1.7179661937826e-13,-1.0256037567445e-12,-0.0011322316372692,0.0011322316363495,-0.0011322316380004,0.0011322316362582,-0.0011322316372542,0.0011322316369773,-0.0011322316379864,0.0011322316368871,-0.0010022187727898,0.001002218772385,-0.0010022187736612,0.0010022187713998,0.40445605707229,125301,3014,0.0041028158516339,0.0041028158516341,0.0041028158516368,37.625922124859,0.00021620737699887,0.00021620737699887,0.00021620737699887,2807380.8529146,0.012384948300368
12419200,0.98970281927904,0.013357653787131,0.0044525512623784,0.0044525512623776,0.0044525512623747,-0.00098491419626583,0.00098491419543321,1.3381608848094e-13,-8.1734197194027e-13,2.6234869130992e-13,-9.4312573227391e-13,-0.0011332910474123,0.0011332910473494,-0.0011332910479972,0.0011332910472961,-0.0011332910481232,0.0011332910472158,-0.0011332910487173,0.0011332910471618,-0.0010012193950186,0.0010012193948023,-0.0010012193960033,0.0010012193939227,-6.8276399011586e-13,4.4446355429645e-13,-6.8326035802316e-13,3.5725252327853e-13,-0.00098491419608712,0.00098491419561204,-0.0011332910479499,0.0011332910467666,-0.0011332910479075,0.0011332910474065,-0.0011332910478952,0.0011332910474224,-0.0011332910478482,0.0011332910480675,-0.001001219395414,0.0010012193943928,-0.0010012193944715,0.0010012193954769,-0.0010012193954353,0.0010012193943785,-0.0010012193943944,0.0010012193955621,-7.9792897675866e-13,1.5317617351422e-13,-0.00098491419625039,0.00098491419545013,1.9028812800478e-13,-8.4919433710768e-13,-0.0011332910477462,0.0011332910470092,-0.0011332910483858,0.0011332910469316,-0.0011332910476923,0.0011332910475981,-0.0011332910483337,0.0011332910475224,-0.0010012193950462,0.0010012193949143,-0.0010012193959208,0.0010012193939323,0.45322610794666,125301,3014,0.0040956334539192,0.0040956334539194,0.0040956334539222,36.800418769779,0.00020960335015823,0.00020960335015823,0.00020960335015823,2780774.7481039,0.012363148671219
13419200,0.99357261566145,0.013390287190061,0.0044634290633552,0.0044634290633543,0.0044634290633515,-0.00097744907846591,0.00097744907836875,3.8025503052866e-13,-5.7082485581013e-13,5.0221921637121e-13,-6.9670370147427e-13,-0.0011305807993309,0.0011305807998236,-0.0011305807998278,0.0011305807996824,-0.0011305807999561,0.0011305807996052,-0.0011305808004625,0.0011305807994637,-0.00099460941420078,0.00099460941454685,-0.00099460941516852,0.00099460941365045,-4.4148298754971e-13,6.8771829398701e-13,-3.3858309126162e-13,5.0409690895154e-13,-0.00097744907828798,0.00097744907854682,-0.0011305807998344,0.0011305807992736,-0.0011305807997726,0.0011305807997601,-0.0011305807996954,0.0011305807998432,-0.001130580799629,0.0011305808003347,-0.00099460941449986,0.00099460941423142,-0.00099460941373593,0.00099460941510761,-0.00099460941465228,0.0009946094140835,-0.00099460941359879,0.00099460941525453,-5.4658489044208e-13,4.044422328027e-13,-0.00097744907844559,0.00097744907839066,3.3982079517856e-13,-4.9961182543697e-13,-0.0011305807996955,0.0011305807994566,-0.0011305808001792,0.0011305807993573,-0.0011305807995529,0.0011305807999568,-0.0011305808000399,0.0011305807998608,-0.00099460941417376,0.00099460941467933,-0.00099460941506423,0.0009946094137134,0.4150894025916,125301,3014,0.004064674086005,0.0040646740860053,0.0040646740860083,34.785275961958,0.00019348220769566,0.00019348220769566,0.00019348220769566,2723188.6501567,0.012269162358953
14419200,0.99580742186804,0.013407706321941,0.0044692354406484,0.0044692354406476,0.0044692354406448,-0.00097240081152085,0.00097240081152052,4.094398154241e-13,-5.4160304263411e-13,5.2839753428862e-13,-6.6673869041421e-13,-0.0011260181567216,0.0011260181573073,-0.0011260181572001,0.0011260181571476,-0.0011260181573283,0.001126018157072,-0.001126018157816,0.0011260181569118,-0.00098977844597944,0.00098977844639415,-0.00098977844695298,0.00098977844550362,-4.1390362241724e-13,7.1517304717491e-13,-2.1638395993106e-13,4.3925801835417e-13,-0.00097240081134346,0.00097240081169807,-0.0011260181571946,0.0011260181567888,-0.0011260181571751,0.0011260181571941,-0.0011260181570382,0.0011260181573401,-0.0011260181570142,0.0011260181577505,-0.00098977844618867,0.00098977844616999,-0.00098977844561257,0.00098977844686707,-0.00098977844646288,0.0009897784458968,-0.00098977844541719,0.00098977844707483,-5.0282925655843e-13,4.4816080899492e-13,-0.00097240081148599,0.00097240081155701,2.9160848861966e-13,-3.6195069265479e-13,-0.0011260181571037,0.0011260181569245,-0.0011260181575065,0.0011260181568678,-0.0011260181569421,0.0011260181574056,-0.0011260181573487,0.0011260181573527,-0.00098977844591333,0.00098977844657737,-0.00098977844679746,0.00098977844560519,0.38312450045663,125301,3014,0.0040437255963381,0.0040437255963384,0.0040437255963415,32.633969296473,0.00017627175437179,0.00017627175437179,0.00017627175437179,2722724.1280208,0.012205546015245
15419200,0.99697056247283,0.01341985157168,0.0044732838572282,0.0044732838572273,0.0044732838572245,-0.00096115538074454,0.00096115538256455,1.0163485688959e-12,6.5388825945664e-14,1.1170130818995e-12,-6.2378182624633e-14,-0.001115141397434,0.0011151413994719,-0.001115141397682,0.0011151413990818,-0.0011151413978187,0.0011151413990155,-0.0011151413980776,0.0011151413986266,-0.00097875046478756,0.00097875046657909,-0.00097875046574496,0.00097875046567254,1.7567094667739e-13,1.3177241414908e-12,5.5178106166585e-13,8.8420429652965e-13,-0.00096115538056754,0.0009611553827417,-0.0011151413978468,0.0011151413990062,-0.0011151413977172,0.0011151413990757,-0.0011151413974701,0.0011151413993363,-0.0011151413973359,0.0011151413994108,-0.00097875046483525,0.00097875046650623,-0.00097875046456768,0.00097875046688288,-0.00097875046533229,0.00097875046600541,-0.00097875046427698,0.00097875046718958,1.2636746309016e-13,1.0772740311943e-12,-0.00096115538068744,0.00096115538262329,7.4684734609094e-13,4.2637313635806e-13,-0.0011151413978566,0.0011151413990599,-0.0011151413979144,0.0011151413988835,-0.0011151413974627,0.0011151413993086,-0.0011151413975288,0.0011151413991407,-0.00097875046462855,0.00097875046682189,-0.00097875046552565,0.0009787504658628,0.51103778709309,125301,3014,0.0039970587718128,0.0039970587718132,0.0039970587718163,27.044461057015,0.00013155568845612,0.00013155568845612,0.00013155568845612,2735301.7071985,0.012063848964377
16419200,0.99771797943563,0.013426938029634,0.0044756460098796,0.0044756460098788,0.004475646009876,-0.00094984478480703,0.00094984478518836,5.3786133341135e-13,-4.129822660282e-13,6.5541385990942e-13,-5.3787168603626e-13,-0.0011099929683823,0.0011099929692203,-0.001109992968823,0.001109992969023,-0.001109992968951,0.0011099929689472,-0.0011099929694003,0.0011099929687488,-0.00096846960394298,0.00096846960465486,-0.0009684696049012,0.00096846960374942,-2.8601740939457e-13,8.4182595375085e-13,1.3484621831633e-13,3.441074230428e-13,-0.00094984478463021,0.00094984478536535,-0.0011099929687838,0.0011099929687768,-0.00110999296887,0.0011099929689946,-0.0011099929685898,0.0011099929692888,-0.0011099929686714,0.0011099929695117,-0.0009684696039362,0.0009684696046508,-0.00096846960377866,0.00096846960489072,-0.0009684696044995,0.00096846960408287,-0.00096846960344156,0.00096846960524423,-3.623844588153e-13,5.8840614224331e-13,-0.00094984478476013,0.000949844785237,2.1364735557288e-13,2.5129085264871e-15,-0.0011099929688271,0.0011099929687762,-0.0011099929690445,0.0011099929688276,-0.0011099929686269,0.0011099929692187,-0.0011099929688483,0.001109992969274,-0.00096846960377634,0.00096846960490847,-0.00096846960467518,0.0009684696039514,0.46538451425637,125301,3014,0.003950144677672,0.0039501446776724,0.0039501446776756,24.406322707108,0.00011045058165687,0.00011045058165687,0.00011045058165687,2653503.2288752,0.011921472529122
17419200,0.99822001977453,0.013432333844154,0.0044774446147194,0.0044774446147185,0.0044774446147158,-0.00094418041423162,0.00094418041450358,4.9654886018493e-13,-4.5426147556492e-13,6.1269779720875e-13,-5.7865676360955e-13,-0.001103555797817,0.0011035557985989,-0.0011035557982613,0.0011035557984053,-0.0011035557983891,0.0011035557983303,-0.0011035557988418,0.0011035557981353,-0.00096289289950807,0.00096289290012926,-0.0009628929004776,0.00096289289923518,-3.2814042888992e-13,7.9996405980886e-13,1.3708238253981e-13,2.5875941007649e-13,-0.00094418041405505,0.00094418041468032,-0.0011035557982046,0.0011035557981703,-0.001103555798322,0.0011035557983622,-0.0011035557980146,0.001103555798686,-0.0011035557981274,0.001103555798883,-0.00096289289945959,0.00096289290016858,-0.00096289289939785,0.000962892900332,-0.00096289290008001,0.00096289289954098,-0.00096289289903336,0.00096289290071482,-3.9068456485472e-13,5.6007268428159e-13,-0.00094418041417181,0.00094418041456516,1.433068132517e-13,1.8448862870491e-14,-0.0011035557982641,0.0011035557981536,-0.0011035557984561,0.0011035557982367,-0.0011035557980671,0.0011035557985992,-0.0011035557982633,0.0011035557986865,-0.00096289289932584,0.0009628929004212,-0.00096289290021294,0.00096289289945244,0.52521873377382,125301,3014,0.0039266309923305,0.0039266309923308,0.0039266309923341,21.969289883362,9.0954319066894e-05,9.0954319066894e-05,9.0954319066894e-05,2667303.4337287,0.011850078913244
18419200,0.998531926232,0.013435552436451,0.0044785174788184,0.0044785174788175,0.0044785174788147,-0.00093139333678624,0.00093139333821844,8.8163456666917e-13,-6.9098712611173e-14,9.8877996992123e-13,-1.9530429829363e-13,-0.0010939729221433,0.0010939729238089,-0.0010939729224481,0.0010939729234757,-0.0010939729225807,0.001093972923405,-0.0010939729228947,0.0010939729230714,-0.00095069634478377,0.00095069634628561,-0.00095069634573647,0.00095069634537485,4.7868686828759e-14,1.1828650959009e-12,6.1222331583986e-13,5.5344583370573e-13,-0.00093139333660991,0.00093139333839493,-0.0010939729224977,0.0010939729234096,-0.0010939729225426,0.001093972923403,-0.0010939729221734,0.0010939729237903,-0.0010939729222137,0.0010939729237888,-0.00095069634464489,0.00095069634640955,-0.00095069634474744,0.00095069634638632,-0.00095069634538919,0.00095069634565619,-0.0009506963443292,0.00095069634682419,-2.667889086055e-15,9.4801286238721e-13,-0.00093139333672351,0.00093139333828297,4.3415519273923e-13,4.9521991548916e-13,-0.0010939729226221,0.0010939729233375,-0.0010939729226108,0.0010939729233431,-0.0010939729222848,0.0010939729236427,-0.00109397292228,0.0010939729236548,-0.00095069634455103,0.00095069634659371,-0.0009506963454534,0.00095069634564036,0.50516361584657,125301,3014,0.0038735726694996,0.0038735726695,0.0038735726695034,17.466071138348,5.4928569106787e-05,5.4928569106787e-05,5.4928569106787e-05,2630570.3338113,0.011689058594607
19419200,0.99879039069567,0.013439015346714,0.0044796717822395,0.0044796717822386,0.0044796717822358,-0.00093045167539909,0.00093045167441265,7.8705183845953e-14,-8.7202141916775e-13,2.0632709390773e-13,-9.937484946068e-13,-0.0010929036547671,0.0010929036545591,-0.0010929036553685,0.0010929036545226,-0.0010929036554895,0.0010929036544416,-0.0010929036560974,0.0010929036544019,-0.00094987197807637,0.00094987197774782,-0.00094987197906133,0.00094987197686934,-7.3425129580431e-13,3.8348872769731e-13,-2.3038552943537e-13,-2.1034115510445e-13,-0.00093045167522305,0.00093045167458888,-0.001092903655145,0.0010929036541484,-0.0010929036554396,0.0010929036544611,-0.0010929036551048,0.0010929036548137,-0.0010929036553948,0.0010929036551314,-0.00094987197798321,0.00094987197784283,-0.00094987197802771,0.00094987197790889,-0.00094987197865988,0.00094987197715736,-0.00094987197762589,0.00094987197833031,-8.0697620037219e-13,1.4369758072578e-13,-0.00093045167533781,0.00093045167447578,-3.1049188233318e-13,-3.4435227439204e-13,-0.0010929036552237,0.0010929036540977,-0.0010929036555447,0.0010929036543668,-0.0010929036551844,0.0010929036547009,-0.0010929036555064,0.0010929036549711,-0.00094987197789287,0.00094987197807305,-0.00094987197876615,0.00094987197709062,0.65325215552177,125301,3014,0.0038696627532167,0.0038696627532171,0.0038696627532206,17.551719729885,5.5613757839082e-05,5.5613757839082e-05,5.5613757839082e-05,2626233.8520391,0.011677186530722
20419200,0.9990153561802,0.013442243229416,0.0044807477431401,0.0044807477431392,0.0044807477431365,-0.00092602954181431,0.00092602954037246,-6.8833073667437e-14,-1.0194919140454e-12,6.429584462961e-14,-1.1402865914979e-12,-0.00109420885185,0.0010942088512637,-0.0010942088525126,0.0010942088512884,-0.0010942088526311,0.0010942088512047,-0.0010942088533001,0.001094208851226,-0.00094636651970978,0.0009463665190452,-0.00094636652068744,0.00094636651815954,-8.7646716045015e-13,2.3661534693122e-13,-4.4024388403169e-13,-2.9571585794359e-13,-0.00092602954163845,0.00092602954054852,-0.0010942088522501,0.0010942088508322,-0.001094208852562,0.0010942088512475,-0.0010942088522683,0.0010942088515558,-0.0010942088525756,0.0010942088519761,-0.0009463665196783,0.00094636651908032,-0.00094636651959236,0.00094636651925865,-0.00094636652027032,0.00094636651848302,-0.0009463665192276,0.00094636651964047,-9.7625697013734e-13,-2.5649187023178e-14,-0.00092602954177483,0.00092602954041388,-4.1549118938231e-13,-5.7545817014791e-13,-0.0010942088523046,0.0010942088508007,-0.0010942088527299,0.0010942088510895,-0.0010942088523273,0.0010942088514659,-0.0010942088527524,0.0010942088517544,-0.00094636651956142,0.00094636651932091,-0.0009463665204429,0.00094636651834679,0.70012779305903,125301,3014,0.0038513339555182,0.0038513339555186,0.0038513339555222,18.600074111449,6.4000592891592e-05,6.4000592891592e-05,6.4000592891592e-05,2533949.4825239,0.011621610634526
21419200,0.99916830232749,0.013444282802089,0.004481427600698,0.0044814276006971,0.0044814276006943,-0.00091482516674275,0.00091482516776374,7.3952387864137e-13,-2.1102540625987e-13,8.5119880528431e-13,-3.3580280027849e-13,-0.001085184726328,0.0010851847276426,-0.0010851847266837,0.0010851847273605,-0.0010851847268136,0.0010851847272873,-0.0010851847271781,0.0010851847270043,-0.00093571555425095,0.00093571555544276,-0.00093571555520618,0.00093571555453497,-8.9539786191537e-14,1.0405084337698e-12,4.252120073077e-13,4.5519782382708e-13,-0.00091482516656717,0.00091482516793954,-0.0010851847266994,0.0010851847272286,-0.0010851847267622,0.0010851847273018,-0.0010851847264235,0.0010851847276569,-0.0010851847264817,0.0010851847277351,-0.00093571555415759,0.00093571555552421,-0.00093571555417342,0.00093571555558684,-0.00093571555484021,0.00093571555483482,-0.00093571555378168,0.00093571555599684,-1.611165191774e-13,7.8937717918667e-13,-0.00091482516669665,0.00091482516781185,3.2331909341187e-13,2.9304047428525e-13,-0.0010851847268058,0.0010851847271691,-0.0010851847268769,0.0010851847271953,-0.0010851847265202,0.0010851847275259,-0.0010851847265963,0.0010851847275571,-0.00093571555405255,0.00093571555572209,-0.00093571555495295,0.00093571555476717,0.64990944923706,125301,3014,0.0038048356883324,0.0038048356883329,0.0038048356883366,15.216724427038,3.6933795416305e-05,3.6933795416305e-05,3.6933795416305e-05,2503342.3869967,0.011480517371626
22419200,0.99929497859039,0.013446017231146,0.0044820057437167,0.0044820057437158,0.0044820057437131,-0.00091341950690634,0.00091341950627599,1.9313683509638e-13,-7.57411979231e-13,3.1742340587402e-13,-8.7920834667088e-13,-0.0010824734468682,0.0010824734469325,-0.0010824734474219,0.0010824734468484,-0.0010824734475443,0.0010824734467691,-0.001082473448105,0.0010824734466824,-0.00093427704902096,0.00093427704895931,-0.00093427705000509,0.00093427704808036,-6.2304681503774e-13,4.9607271480438e-13,-1.3724681731424e-13,-7.597512426716e-14,-0.00091341950673117,0.00091341950645137,-0.0010824734472519,0.0010824734465143,-0.0010824734474885,0.0010824734467936,-0.001082473447166,0.0010824734471331,-0.0010824734473981,0.0010824734474175,-0.00093427704894795,0.00093427704903141,-0.0009342770489535,0.00093427704914044,-0.00093427704959974,0.00093427704837178,-0.00093427704856643,0.00093427704954638,-7.0235260243364e-13,2.481436546758e-13,-0.0009134195068552,0.00091341950632916,-1.8874399870628e-13,-2.6110831743778e-13,-0.0010824734473294,0.0010824734464684,-0.0010824734476149,0.0010824734466774,-0.0010824734472425,0.0010824734470239,-0.0010824734475297,0.0010824734472346,-0.00093427704885345,0.00093427704926706,-0.00093427704972669,0.00093427704828493,0.66642562144511,125301,3014,0.0037989934095617,0.0037989934095621,0.0037989934095659,14.857990882398,3.4063927059187e-05,3.4063927059187e-05,3.4063927059187e-05,2513168.7518161,0.011462772627902
23419200,0.99940748980762,0.013447468791047,0.004482489597017,0.0044824895970162,0.0044824895970134,-0.00091321368343545,0.00091321368215887,-1.8573756113912e-14,-9.6912092343279e-13,1.1156641525201e-13,-1.0894362184713e-12,-0.001083298331955,0.0010832983315115,-0.0010832983325905,0.0010832983315092,-0.0010832983327096,0.0010832983314271,-0.0010832983333515,0.0010832983314216,-0.00093426706265146,0.00093426706210589,-0.00093426706363712,0.00093426706122844,-8.2872169550043e-13,2.849152592697e-13,-3.9964620790253e-13,-2.3767261225427e-13,-0.00091321368326063,0.00091321368233391,-0.0010832983323578,0.0010832983310767,-0.0010832983326384,0.0010832983314707,-0.0010832983323505,0.0010832983317738,-0.0010832983326265,0.0010832983321729,-0.0009342670626297,0.00093426706213037,-0.0009342670625353,0.00093426706233512,-0.00093426706321107,0.00093426706154291,-0.00093426706217782,0.00093426706271024,-9.2183051518112e-13,2.8664241974142e-14,-0.00091321368339213,0.00091321368220425,-3.5363144680204e-13,-5.3004723389143e-13,-0.001083298332404,0.0010832983310559,-0.0010832983328072,0.0010832983313119,-0.0010832983323995,0.0010832983316937,-0.0010832983328029,0.00108329833195,-0.00093426706251041,0.00093426706239052,-0.00093426706338314,0.00093426706140787,0.62875729639221,125301,3014,0.0037981434944592,0.0037981434944596,0.0037981434944635,15.707951103075,4.0863608824596e-05,4.0863608824596e-05,4.0863608824596e-05,2488322.6428421,0.011460203082731
24419200,0.99951371625299,0.013448915180507,0.0044829717268372,0.0044829717268364,0.0044829717268336,-0.00091748138134814,0.00091748137933334,-2.6379126488734e-13,-1.214360255069e-12,-1.2747487043609e-13,-1.3330995100192e-12,-0.0010867085347959,0.0010867085337769,-0.0010867085355221,0.0010867085338653,-0.0010867085356376,0.0010867085337804,-0.0010867085363696,0.0010867085338649,-0.00093848063387216,0.00093848063276746,-0.00093848063486468,0.00093848063189685,-1.0675243635643e-12,4.0466561568439e-14,-7.183431745944e-13,-4.099917552493e-13,-0.0009174813811736,0.0009174813795081,-0.0010867085352254,0.0010867085333181,-0.0010867085355434,0.0010867085338507,-0.0010867085353053,0.0010867085341023,-0.0010867085356188,0.00108670853464,-0.00093848063392406,0.00093848063272206,-0.0009384806336902,0.00093848063307255,-0.00093848063440498,0.00093848063223679,-0.00093848063337695,0.00093848063340221,-1.1722730996262e-12,-2.2175657842993e-13,-0.00091748138131013,0.00091748137937342,-5.2632702401188e-13,-8.5276450745319e-13,-0.0010867085352225,0.0010867085333398,-0.0010867085357676,0.0010867085336365,-0.0010867085353093,0.0010867085340689,-0.001086708535853,0.0010867085343643,-0.00093848063376814,0.00093848063302933,-0.00093848063463502,0.00093848063204082,0.66255127740754,125301,3014,0.0038158534967203,0.0038158534967208,0.0038158534967247,17.887330804721,5.8298646437769e-05,5.8298646437769e-05,5.8298646437769e-05,2488420.6521579,0.011513933693589
25419200,0.99961055446415,0.013450469324499,0.0044834897748346,0.0044834897748338,0.004483489774831,-0.00091952838980385,0.00091952838787561,-2.336716261981e-13,-1.1842282932268e-12,-9.7963874917925e-14,-1.3029719156906e-12,-0.0010904073017018,0.0010904073007473,-0.0010904073024179,0.0010904073008255,-0.0010904073025338,0.0010904073007411,-0.0010904073032561,0.0010904073008159,-0.00094077265451177,0.00094077265347515,-0.00094077265550006,0.00094077265260036,-1.0379658140646e-12,7.0132701244118e-14,-7.5033291286294e-13,-3.1807407995891e-13,-0.0009195283896295,0.00091952838805021,-0.0010904073021506,0.0010904073002674,-0.0010904073024201,0.0010904073008317,-0.0010904073022211,0.001090407301042,-0.001090407302486,0.0010904073016114,-0.00094077265462358,0.00094077265336741,-0.00094077265426612,0.00094077265383787,-0.00094077265502454,0.00094077265296464,-0.00094077265399266,0.00094077265412591,-1.1529374550227e-12,-2.0243263935124e-13,-0.00091952838977669,0.00091952838790489,-4.4796109450782e-13,-8.9597681969965e-13,-0.0010904073021186,0.0010904073003199,-0.001090407302694,0.0010904073005666,-0.0010904073021956,0.0010904073010392,-0.0010904073027697,0.0010904073012848,-0.00094077265443454,0.00094077265370166,-0.0009407726553056,0.00094077265271737,0.77991302017261,125301,3014,0.0038243577479479,0.0038243577479484,0.0038243577479523,19.931984403906,7.4655875231249e-05,7.4655875231249e-05,7.4655875231249e-05,2453888.4662065,0.011539755883419
26419200,0.99968993523606,0.013451824881745,0.00448394162725,0.0044839416272491,0.0044839416272463,-0.00091536783302421,0.00091536783201339,7.1588665956572e-14,-8.7891159103067e-13,1.9997108219718e-13,-9.9917876989209e-13,-0.0010904643901769,0.0010904643899251,-0.0010904643907818,0.0010904643898922,-0.0010904643909019,0.0010904643898114,-0.0010904643915141,0.0010904643897762,-0.00093728920139752,0.00093728920105939,-0.00093728920237225,0.00093728920017113,-7.4010038185336e-13,3.7383229842989e-13,-4.5277722954732e-13,-5.0422722890188e-15,-0.0009153678328499,0.00091536783218794,-0.0010904643906243,0.001090464389442,-0.0010904643907857,0.0010904643899017,-0.0010904643905882,0.0010904643901095,-0.001090464390745,0.0010904643905743,-0.00093728920151423,0.00093728920094009,-0.00093728920113322,0.00093728920142008,-0.00093728920191096,0.00093728920054259,-0.00093728920086782,0.00093728920169919,-8.5548013037513e-13,9.4967187052918e-14,-0.00091536783300489,0.00091536783203488,-1.5101913646904e-13,-6.0793182515887e-13,-0.0010904643906026,0.0010904643894931,-0.0010904643910683,0.0010904643896265,-0.0010904643905681,0.0010904643901009,-0.0010904643910345,0.0010904643902351,-0.00093728920131606,0.00093728920126224,-0.00093728920219955,0.00093728920029045,0.82922923068302,125301,3014,0.00380710758745,0.0038071075874505,0.0038071075874545,20.395380521171,7.8363044169366e-05,7.8363044169366e-05,7.8363044169366e-05,2385912.0340271,0.011487447184127
27419200,0.99975917560047,0.013452890718297,0.0044842969061004,0.0044842969060996,0.0044842969060968,-0.00091550549617382,0.00091550549438256,-1.8732248330907e-13,-1.1378193580467e-12,-5.2495940402702e-14,-1.2567076378561e-12,-0.00109232923683,0.0010923292359748,-0.0010923292375292,0.0010923292360363,-0.0010923292376457,0.0010923292359523,-0.0010923292383515,0.0010923292360107,-0.00093778981906437,0.00093778981813342,-0.00093778982004742,0.00093778981725346,-9.9256721615476e-13,1.1590671648231e-13,-7.4955874074131e-13,-2.2638113071346e-13,-0.00091550549599969,0.00091550549455694,-0.001092329237293,0.0010923292354795,-0.0010923292375178,0.0010923292360578,-0.0010923292373474,0.0010923292362377,-0.0010923292375676,0.001092329236821,-0.00093778981921995,0.00093778981797966,-0.00093778981876996,0.00093778981853645,-0.00093778981956263,0.00093778981763702,-0.00093778981852601,0.00093778981879348,-1.1191771334362e-12,-1.6873263945133e-13,-0.00091550549615934,0.00091550549439927,-3.7136336098659e-13,-9.0821797515252e-13,-0.0010923292372446,0.0010923292355501,-0.0010923292378325,0.0010923292357509,-0.001092329237305,0.0010923292362527,-0.0010923292378918,0.0010923292364526,-0.00093778981900925,0.00093778981832717,-0.0009377898198854,0.00093778981734804,0.74718867332314,125301,3014,0.0038076856536669,0.0038076856536674,0.0038076856536715,22.257776055599,9.3262208444795e-05,9.3262208444795e-05,9.3262208444795e-05,2346413.902793,0.011489211864362
28419200,0.99981607408436,0.013453889095377,0.0044846296984604,0.0044846296984596,0.0044846296984568,-0.00091847668171981,0.00091847668029817,-6.8562346643844e-14,-1.0190965731816e-12,6.1899461955103e-14,-1.1382407275271e-12,-0.0010929946811834,0.0010929946806278,-0.0010929946818323,0.0010929946806391,-0.0010929946819506,0.0010929946805575,-0.0010929946826066,0.0010929946805661,-0.00094055706104599,0.0009405570603895,-0.00094055706203275,0.00094055705951318,-8.778809504687e-13,2.3337180998963e-13,-6.4844027974897e-13,-9.0815517094753e-14,-0.00091847668154606,0.00091847668047217,-0.0010929946816502,0.0010929946801264,-0.0010929946818173,0.0010929946806664,-0.0010929946816569,0.0010929946808365,-0.0010929946818194,0.0010929946813815,-0.00094055706121804,0.00094055706021641,-0.00094055706074006,0.00094055706081414,-0.00094055706154099,0.00094055705989339,-0.00094055706050916,0.00094055706105836,-9.9602242513979e-13,-4.5541167572121e-14,-0.00091847668170101,0.00091847668031922,-2.346332585856e-13,-8.029700580512e-13,-0.00109299468159,0.0010929946802135,-0.0010929946821372,0.0010929946803539,-0.0010929946815998,0.0010929946808657,-0.001092994682147,0.0010929946810061,-0.00094055706099566,0.00094055706058543,-0.00094055706186756,0.00094055705960196,0.8493285419621,125301,3014,0.0038200059068461,0.0038200059068467,0.0038200059068508,23.444957875208,0.00010275966300166,0.00010275966300166,0.00010275966300166,2368195.963303,0.011526572323787
29419200,0.99986230569834,0.013454467666542,0.0044848225555156,0.0044848225555147,0.004484822555512,-0.00091717511621029,0.00091717511472898,-8.5334569558064e-14,-1.0358321207456e-12,4.6463301166278e-14,-1.154805147966e-12,-0.0010952120760452,0.0010952120754324,-0.0010952120767048,0.0010952120754542,-0.0010952120768225,0.0010952120753719,-0.0010952120774892,0.0010952120753912,-0.00093972635254018,0.00093972635184349,-0.00093972635352153,0.00093972635096185,-8.9341900747256e-13,2.1651905828551e-13,-6.8180422281959e-13,-9.1183210020993e-14,-0.0009171751160367,0.00091717511490283,-0.0010952120765179,0.0010952120749253,-0.0010952120766843,0.001095212075487,-0.0010952120765346,0.0010952120756453,-0.0010952120766964,0.001095212076212,-0.00093972635272846,0.00093972635165415,-0.00093972635221288,0.0009397263522788,-0.00093972635302904,0.00093972635135478,-0.00093972635199188,0.00093972635251207,-1.0209987797764e-12,-7.0553638752413e-14,-0.00091717511619972,0.00091717511474184,-2.4313226365271e-13,-8.4448624564252e-13,-0.0010952120764538,0.0010952120750153,-0.0010952120770229,0.0010952120751554,-0.0010952120764745,0.0010952120756783,-0.0010952120770433,0.0010952120758182,-0.00093972635249808,0.00093972635202052,-0.00093972635337554,0.0009397263510427,0.60881578646039,125301,3014,0.003814620281516,0.0038146202815165,0.0038146202815207,24.784377771065,0.00011347502216852,0.00011347502216852,0.00011347502216852,2306834.740768,0.011510263959474
30419200,0.9998990797471,0.013454857603295,0.0044849525344331,0.0044849525344322,0.0044849525344294,-0.00092581756433679,0.0009258175627921,-1.1337165422084e-13,-1.0639764080158e-12,1.6436189062177e-14,-1.1822183399236e-12,-0.0010964101295722,0.0010964101289382,-0.0010964101302308,0.0010964101289589,-0.0010964101303483,0.001096410128878,-0.0010964101310138,0.0010964101288961,-0.00094751856103958,0.00094751856028271,-0.00094751856203698,0.0009475185594169,-9.226355199431e-13,1.8765966786126e-13,-7.2665054443128e-13,-1.0339200547898e-13,-0.00092581756416358,0.00092581756296556,-0.0010964101300499,0.0010964101284258,-0.001096410130205,0.001096410128997,-0.0010964101300664,0.0010964101291453,-0.0010964101302169,0.0010964101297215,-0.00094751856124491,0.00094751856007656,-0.00094751856071314,0.00094751856074919,-0.00094751856152439,0.00094751855979688,-0.00094751856050364,0.00094751856097188,-1.0351470828495e-12,-8.4595474489853e-14,-0.00092581756431242,0.00092581756281872,-2.4085942132178e-13,-8.7485534729908e-13,-0.0010964101299623,0.0010964101285405,-0.0010964101305409,0.0010964101286686,-0.0010964101299817,0.0010964101292023,-0.0010964101305602,0.0010964101293303,-0.00094751856100553,0.00094751856048388,-0.00094751856186677,0.00094751855948962,0.51512748248588,125301,3014,0.003850456465713,0.0038504564657135,0.0038504564657177,26.135131493841,0.00012428105195073,0.00012428105195073,0.00012428105195073,2408185.7137491,0.0116189423975
31419200,0.99992885098978,0.013455265476076,0.0044850884920267,0.0044850884920259,0.0044850884920231,-0.00093417082583558,0.00093417082372865,-2.9910500960609e-13,-1.2497863787075e-12,-1.6373254220087e-13,-1.3667328060745e-12,-0.0011024677573072,0.0011024677562212,-0.001102467758039,0.0011024677563151,-0.0011024677581535,0.0011024677562314,-0.0011024677588917,0.0011024677563222,-0.00095534526792388,0.00095534526674359,-0.00095534526892314,0.00095534526587951,-1.1025602339594e-12,2.4979586155496e-15,-9.55652782026e-13,-2.4643813316273e-13,-0.00093417082566258,0.0009341708239019,-0.0011024677578013,0.0011024677556947,-0.0011024677579969,0.0011024677563671,-0.001102467757888,0.0011024677564841,-0.001102467758079,0.0011024677571615,-0.00095534526817296,0.00095534526649682,-0.00095534526755632,0.00095534526725157,-0.00095534526839175,0.00095534526627944,-0.00095534526737197,0.00095534526744814,-1.2251393963618e-12,-2.7451073153264e-13,-0.0009341708258154,0.00093417082375103,-3.8378490798744e-13,-1.1070424306137e-12,-0.0011024677576841,0.001102467755833,-0.0011024677583669,0.0011024677560046,-0.0011024677577773,0.0011024677565685,-0.0011024677584585,0.0011024677567385,-0.00095534526791051,0.00095534526692803,-0.00095534526877101,0.00095534526593291,0.66479676253864,125301,3014,0.0038851181603536,0.0038851181603541,0.0038851181603581,28.446526103021,0.00014277220882417,0.00014277220882417,0.00014277220882417,2437532.9088092,0.011724126499104
32419200,0.99995059396533,0.013455616487054,0.004485205495686,0.0044852054956851,0.0044852054956824,-0.00093119325620094,0.00093119325496714,-1.6559200010159e-15,-9.5227179110339e-13,1.2717032091634e-13,-1.071030413109e-12,-0.0011054125477459,0.0011054125473339,-0.0011054125483754,0.0011054125473256,-0.0011054125484939,0.0011054125472451,-0.001105412549131,0.0011054125472346,-0.0009530921861438,0.00095309218563591,-0.00095309218712545,0.00095309218475433,-8.119354502377e-13,2.9880766023403e-13,-6.5150140820051e-13,4.4944514039366e-14,-0.0009311932560277,0.00093119325514063,-0.001105412548234,0.0011054125468089,-0.0011054125483393,0.0011054125473763,-0.0011054125482225,0.0011054125475,-0.0011054125483232,0.0011054125480725,-0.00095309218638351,0.000953092185392,-0.000953092185767,0.00095309218612441,-0.00095309218661642,0.00095309218516178,-0.00095309218558122,0.00095309218632132,-9.3934612715002e-13,1.1216833804015e-14,-0.00093119325619233,0.00093119325497797,-1.1249407808902e-13,-8.1650371813659e-13,-0.0011054125481397,0.0011054125469326,-0.0011054125487124,0.0011054125470091,-0.0011054125481303,0.0011054125475656,-0.0011054125487033,0.0011054125476424,-0.00095309218612118,0.0009530921857937,-0.00095309218699827,0.00095309218481526,0.7835582016357,125301,3014,0.003872788480622,0.0038727884806225,0.0038727884806266,29.298459220336,0.00014958767376269,0.00014958767376269,0.00014958767376269,2349508.8333772,0.01168676291536
33419200,0.99996570417859,0.013455869084122,0.0044852896947088,0.004485289694708,0.0044852896947052,-0.00092621128840454,0.00092621128768494,1.6797548611126e-13,-7.8258050446748e-13,2.9299975494096e-13,-9.0233361079817e-13,-0.0011044780387345,0.0011044780387078,-0.0011044780393024,0.0011044780386379,-0.0011044780394233,0.0011044780385591,-0.0011044780399992,0.0011044780384876,-0.00094879141417036,0.00094879141405315,-0.00094879141514351,0.00094879141316321,-6.4620401973912e-13,4.6791817600915e-13,-4.5739373649414e-13,1.9061679607196e-13,-0.00092621128823112,0.00092621128785862,-0.0011044780392129,0.0011044780381907,-0.001104478039276,0.001104478038681,-0.001104478039142,0.0011044780388223,-0.0011044780392006,0.0011044780393176,-0.00094879141438491,0.00094879141383157,-0.00094879141380945,0.00094879141451143,-0.00094879141465252,0.00094879141356636,-0.00094879141360991,0.00094879141472239,-7.7165930869075e-13,1.7884491876344e-13,-0.0009262112883979,0.00092621128769386,2.7546879049989e-14,-6.2531373532991e-13,-0.0011044780391403,0.0011044780382969,-0.0011044780396336,0.0011044780383289,-0.0011044780390691,0.001104478038868,-0.0011044780395637,0.0011044780389014,-0.0009487914141327,0.00094879141420863,-0.00094879141501759,0.00094879141323813,0.80945760226261,125301,3014,0.0038521288765794,0.00385212887658,0.0038521288765841,29.317385110633,0.00014973908088506,0.00014973908088506,0.00014973908088506,2288184.4319877,0.01162409516186
34419200,0.99997714244504,0.013456042556758,0.0044853475189207,0.0044853475189199,0.0044853475189171,-0.00092797625813037,0.00092797625616095,-2.4713959711378e-13,-1.1976930877689e-12,-1.1169442604725e-13,-1.3153220678137e-12,-0.0011070933208636,0.0011070933198709,-0.0011070933215825,0.0011070933199521,-0.0011070933216977,0.0011070933198681,-0.0011070933224233,0.0011070933199463,-0.00095075516348105,0.00095075516241439,-0.00095075516446662,0.00095075516153692,-1.0508088940289e-12,5.4772771582367e-14,-8.9989320878827e-13,-1.9716134852434e-13,-0.00092797625795701,0.00092797625633458,-0.0011070933213561,0.0011070933193455,-0.0011070933215419,0.0011070933200033,-0.0011070933214301,0.0011070933201222,-0.0011070933216113,0.0011070933207851,-0.00095075516372556,0.00095075516217078,-0.00095075516310281,0.00095075516290704,-0.0009507551639496,0.00095075516194966,-0.00095075516291633,0.00095075516310485,-1.1894056056517e-12,-2.3890081939101e-13,-0.00092797625812639,0.00092797625616725,-3.5286185266556e-13,-1.0684113607663e-12,-0.0011070933212577,0.0011070933194656,-0.0011070933219249,0.0011070933196271,-0.0011070933213382,0.0011070933201884,-0.001107093322004,0.0011070933203486,-0.00095075516346876,0.0009507551625704,-0.00095075516434263,0.00095075516158901,0.73398852679868,125301,3014,0.0038594568813015,0.003859456881302,0.0038594568813063,31.490035645427,0.00016712028516341,0.00016712028516341,0.00016712028516341,2262209.6705565,0.011646336933386
35419200,0.99998611421667,0.013456162940147,0.0044853876467171,0.0044853876467162,0.0044853876467134,-0.0009378403259474,0.00093784032259673,-7.0584670157366e-13,-1.6565089830229e-12,-5.5816143384545e-13,-1.771628510318e-12,-0.0011146418365616,0.0011146418344848,-0.0011146418374517,0.001114641834737,-0.0011146418375604,0.0011146418346472,-0.0011146418384558,0.0011146418348952,-0.0009603200786525,0.0009603200765392,-0.00096032007964715,0.00096032007567087,-1.4975153073696e-12,-4.020519381775e-13,-1.4394815560766e-12,-5.7587182232041e-13,-0.00093784032577441,0.00093784032276998,-0.0011146418370863,0.0011146418339331,-0.0011146418373794,0.001114641834814,-0.0011146418373245,0.0011146418348742,-0.001114641837613,0.00111464183576,-0.00096032007897978,0.00096032007622173,-0.00096032007820187,0.00096032007711446,-0.00096032007908959,0.00096032007611653,-0.00096032007806173,0.00096032007726467,-1.6532864638216e-12,-7.0267450436446e-13,-0.0009378403259486,0.00093784032259787,-7.2585476681159e-13,-1.6106637365049e-12,-0.001114641836928,0.0011146418340999,-0.0011146418378253,0.0011146418343758,-0.0011146418371806,0.0011146418349949,-0.0011146418380732,0.0011146418352663,-0.00096032007868253,0.0009603200766724,-0.00096032007954955,0.00096032007568386,0.64952121200817,125301,3014,0.0039003855669951,0.0039003855669956,0.0039003855669999,35.945825109658,0.00020276660087726,0.00020276660087726,0.00020276660087726,2275594.6736779,0.011770535316065
36419200,0.99999185387027,0.013456243773485,0.0044854145911633,0.0044854145911624,0.0044854145911596,-0.00094297479644211,0.00094297479479399,-1.4393086771667e-13,-1.0946453828644e-12,-1.2382018796649e-14,-1.212394447476e-12,-0.00111749335941,0.0011174933586803,-0.0011174933600846,0.001117493358717,-0.0011174933602015,0.0011174933586355,-0.0011174933608835,0.0011174933586699,-0.00096512359098235,0.00096512359015548,-0.00096512359196963,0.00096512358927936,-9.5152791694175e-13,1.5675761925057e-13,-8.8091232678457e-13,-1.0984035682612e-14,-0.00094297479626926,0.00094297479496711,-0.0011174933599278,0.0011174933581263,-0.0011174933600194,0.0011174933587963,-0.00111749335996,0.001117493358861,-0.001117493360047,0.001117493359536,-0.00096512359130803,0.0009651235898268,-0.00096512359052613,0.00096512359073318,-0.00096512359142587,0.00096512358971358,-0.00096512359039456,0.00096512359087454,-1.0883331345227e-12,-1.3767132364733e-13,-0.00094297479644029,0.00094297479479814,-1.7352359603208e-13,-1.0518518372366e-12,-0.0011174933597803,0.0011174933583008,-0.0011174933604567,0.0011174933583645,-0.0011174933598164,0.0011174933589793,-0.0011174933604922,0.0011174933590426,-0.00096512359100094,0.00096512359028319,-0.00096512359187306,0.00096512358929962,0.6811981079479,125301,3014,0.0039216848469645,0.003921684846965,0.0039216848469693,37.486239723577,0.00021508991778861,0.00021508991778861,0.00021508991778861,2302005.6245939,0.011835167183566
37419200,0.99999524261246,0.013456289606114,0.0044854298687061,0.0044854298687053,0.0044854298687025,-0.00094218353197724,0.00094218353113723,1.2602550294857e-13,-8.2467307150963e-13,2.5054516954646e-13,-9.4385453353895e-13,-0.0011182899214082,0.0011182899213126,-0.001118289921984,0.0011182899212505,-0.0011182899221046,0.0011182899211724,-0.0011182899226885,0.0011182899211089,-0.00096450559809035,0.00096450559787608,-0.00096450559907349,0.00096450559699585,-6.8862026086039e-13,4.2517983825368e-13,-5.710079191515e-13,2.1898810449732e-13,-0.00094218353180443,0.00094218353131031,-0.0011182899219097,0.0011182899207714,-0.0011182899219352,0.001118289921317,-0.0011182899218471,0.0011182899214111,-0.001118289921868,0.0011182899219617,-0.00096450559837482,0.00096450559758334,-0.00096450559767121,0.00096450559841366,-0.00096450559855014,0.00096450559741193,-0.00096450559751727,0.00096450559857784,-8.1652667331768e-13,1.3411940274431e-13,-0.00094218353197355,0.00094218353114325,5.2110716876899e-14,-7.4137966018381e-13,-0.0011182899217934,0.0011182899209224,-0.0011182899223413,0.0011182899209159,-0.0011182899217301,0.0011182899215015,-0.0011182899222793,0.0011182899214964,-0.00096450559808904,0.00096450559801505,-0.00096450559896414,0.00096450559703449,0.65495763090949,125301,3014,0.0039184089346899,0.0039184089346904,0.0039184089346947,37.681166276907,0.00021664933021526,0.00021664933021526,0.00021664933021526,2277444.7496661,0.011825240571732
38419200,0.99999719022561,0.01345631897755,0.004485439659185,0.0044854396591841,0.0044854396591814,-0.00094127833872272,0.00094127833828188,2.5788773935364e-13,-6.928075704984e-13,3.7834341245669e-13,-8.1265589450849e-13,-0.0011170859519087,0.0011170859521323,-0.0011170859524337,0.0011170859520194,-0.0011170859525562,0.0011170859519433,-0.0011170859530896,0.0011170859518293,-0.00096360965668657,0.00096360965677301,-0.00096360965766951,0.00096360965589259,-5.6070596761215e-13,5.5623597244639e-13,-3.905272718658e-13,3.0216783854567e-13,-0.00094127833854993,0.00094127833845493,-0.0011170859523928,0.0011170859516071,-0.0011170859524023,0.0011170859520699,-0.0011170859522815,0.0011170859521981,-0.0011170859522864,0.0011170859526659,-0.00096360965692272,0.00096360965652667,-0.00096360965631568,0.00096360965726379,-0.00096360965716421,0.00096360965628747,-0.00096360965613238,0.00096360965745846,-6.778661151849e-13,2.7277678450353e-13,-0.00094127833871221,0.0009412783382947,1.3983574281993e-13,-5.545121482698e-13,-0.0011170859523054,0.0011170859517332,-0.0011170859527686,0.0011170859517088,-0.0011170859521909,0.0011170859522611,-0.0011170859526563,0.001117085952239,-0.00096360965666192,0.00096360965693465,-0.00096360965753654,0.00096360965595361,0.72891346290552,125301,3014,0.0039146504425851,0.0039146504425856,0.0039146504425899,37.194176560433,0.00021275341248346,0.00021275341248346,0.00021275341248346,2282970.4689085,0.011813828097013
38880000,0.99999787040937,0.01345632946506,0.0044854431550214,0.0044854431550205,0.0044854431550177,-0.00093890911023099,0.00093890910952986,1.7252470007707e-13,-7.7813919896984e-13,2.9632305047539e-13,-8.9754265421742e-13,-0.0011171766825938,0.0011171766825964,-0.0011171766831549,0.0011171766825197,-0.0011171766832758,0.0011171766824416,-0.0011171766838449,0.0011171766823633,-0.00096156495699439,0.00096156495688671,-0.00096156495797422,0.00096156495600324,-6.4278909666149e-13,4.7146727530719e-13,-4.4676675047951e-13,1.8788542745113e-13,-0.00093890911005815,0.00093890910970297,-0.0011171766830701,0.0011171766820812,-0.0011171766831312,0.0011171766825602,-0.001117176682993,0.0011171766827063,-0.0011171766830495,0.0011171766831903,-0.00096156495720315,0.00096156495667069,-0.00096156495664752,0.00096156495734432,-0.00096156495747981,0.0009615649563959,-0.00096156495644432,0.00096156495755931,-7.6426347580484e-13,1.863479836676e-13,-0.0009389091102215,0.0009389091095417,2.8110729471805e-14,-6.1120106352117e-13,-0.0011171766829995,0.0011171766821863,-0.0011171766834812,0.001117176682216,-0.0011171766829213,0.0011171766827505,-0.0011171766834045,0.0011171766827817,-0.00096156495695839,0.00096156495705383,-0.00096156495783655,0.00096156495607639,0.74537476942469,125301,3014,0.0039048291763701,0.0039048291763707,0.003904829176375,37.193611324069,0.00021274889059255,0.00021274889059255,0.00021274889059255,2246448.0371787,0.011784040472558
