time,ASR_ext,ASR_strain,ASR_strain_xx,ASR_strain_yy,ASR_strain_zz,disp_x_101,disp_x_102,disp_x_103,disp_x_104,disp_x_105,disp_x_106,disp_x_p1_neg,disp_x_p1_pos,disp_x_p2_neg,disp_x_p2_pos,disp_x_p3_neg,disp_x_p3_pos,disp_x_p4_neg,disp_x_p4_pos,disp_x_p5_neg,disp_x_p5_pos,disp_x_p6_neg,disp_x_p6_pos,disp_y_101,disp_y_102,disp_y_103,disp_y_104,disp_y_105,disp_y_106,disp_y_p1_neg,disp_y_p1_pos,disp_y_p2_neg,disp_y_p2_pos,disp_y_p3_neg,disp_y_p3_pos,disp_y_p4_neg,disp_y_p4_pos,disp_y_p5_neg,disp_y_p5_pos,disp_y_p6_neg,disp_y_p6_pos,disp_y_p7_neg,disp_y_p7_pos,disp_y_p8_neg,disp_y_p8_pos,disp_z_101,disp_z_102,disp_z_103,disp_z_104,disp_z_105,disp_z_106,disp_z_p1_neg,disp_z_p1_pos,disp_z_p2_neg,disp_z_p2_pos,disp_z_p3_neg,disp_z_p3_pos,disp_z_p4_neg,disp_z_p4_pos,disp_z_p5_neg,disp_z_p5_pos,disp_z_p6_neg,disp_z_p6_pos,humidity,ndof,nelem,strain_xx,strain_yy,strain_zz,temp,thermal_strain_xx,thermal_strain_yy,thermal_strain_zz,vonmises,vstrain
2419200,0,0,0,0,0,0,0,0,0,0,0,0,0,0,0,0,0,0,0,0,0,0,0,0,0,0,0,0,0,0,0,0,0,0,0,0,0,0,0,0,0,0,0,0,0,0,0,0,0,0,0,0,0,0,0,0,0,0,0,0,0,0,0,0,0,0,0,0,0,0,0,0,0,0,0
3419200,0.15985862431584,0.00275694355317,0.00091898118439001,0.00091898118439001,0.00091898118439001,-0.00024420113327656,0.00024420112658837,-2.2552987712883e-12,-2.255241942142e-12,-1.8451364117609e-12,-2.60360884389e-12,-0.00025041790566051,0.00025041790073527,-0.00025041790609912,0.00025041790117391,-0.00025041790631898,0.0002504179009091,-0.0002504179067549,0.00025041790134505,-0.00024777723494362,0.0002477772296779,-0.00024777723513449,0.00024777722986889,-1.4044551415621e-12,-7.1780931084843e-13,-1.5774333039466e-12,-6.1520863761138e-13,-0.00025696610304528,0.00025696609960511,-0.00026223513694905,0.00026223513383616,-0.0002622351370689,0.00026223513461231,-0.00026223513750902,0.00026223513488462,-0.00026223513762886,0.00026223513566078,-0.00025778757420138,0.00025778757102593,-0.00025778757348344,0.00025778757218669,-0.00025463777267085,0.00025463776989365,-0.00025463777225956,0.00025463777084972,-1.2641570499875e-12,-1.2642138791338e-12,-0.00025696610322423,0.00025696609942615,-7.7484807524671e-13,-1.7510225736388e-12,-0.00026223513664946,0.0002622351340864,-0.00026223513744442,0.00026223513422602,-0.00026223513749073,0.00026223513492763,-0.00026223513827173,0.00026223513505331,-0.00025463777314727,0.00025463777001017,-0.00025463777283387,0.00025463776969689,0.78394350386731,134343,3014,0.0010169891110147,0.001070116569427,0.001070116569427,31.882667633044,0.00017026134106435,0.00017026134106435,0.00017026134106435,1528553.983119,0.0031622139716864
4419200,0.35060093381111,0.0059051048429232,0.0018791046568593,0.0020130000930319,0.0020130000930319,-0.00045704996440964,0.00045704995185837,-4.7044683258396e-12,-4.7044680317309e-12,-4.0611219649234e-12,-5.1291857774836e-12,-0.00048088302786218,0.00048088301731934,-0.0004808830293575,0.00048088301881465,-0.00048088302962688,0.00048088301841941,-0.00048088303110948,0.00048088301990201,-0.00047515346340932,0.0004751534531299,-0.00047515346428399,0.00047515345400459,-3.2491282938081e-12,-2.4527771796349e-12,-4.1643296010635e-12,-2.0688726413694e-12,-0.00051400635403572,0.0005140063457093,-0.00053907134024135,0.00053907133231971,-0.00053907134142599,0.00053907133495619,-0.00053907134256356,0.00053907133523903,-0.00053907134374821,0.00053907133787551,-0.00051955516991797,0.00051955516148748,-0.0005195551695654,0.00051955516522425,-0.00050303657859502,0.00050303657232102,-0.00050303657893819,0.00050303657428035,-3.283114247231e-12,-3.2831152177896e-12,-0.00051400635438183,0.00051400634536319,-2.3188502489519e-12,-4.4903918069067e-12,-0.00053907133961453,0.00053907133278043,-0.00053907134233461,0.00053907133403435,-0.00053907134235041,0.00053907133551632,-0.00053907134501958,0.00053907133671932,-0.00050303658056261,0.00050303657282398,-0.00050303657928183,0.00050303657154324,0.77879287408888,134343,3014,0.0019026183386806,0.0021393819658524,0.0021393819658524,33.607450479268,0.00018405960383414,0.00018405960383414,0.00018405960383414,2733411.199002,0.0062005494692317
5419200,0.5503199520512,0.0090734535160174,0.0027936280422406,0.0031399127368884,0.0031399127368884,-0.00065574123850978,0.00065574123623735,-3.6989778811178e-13,-3.6994046327867e-13,-5.66434225235e-13,-4.7246733115323e-14,-0.00070797401077291,0.0007079740086607,-0.00070797401160093,0.0007079740094887,-0.00070797401140442,0.00070797400963904,-0.00070797401222339,0.00070797401045798,-0.00069408613481573,0.00069408613391044,-0.00069408613489399,0.00069408613398861,-8.5143504080071e-13,-1.6067463984563e-12,-1.6594240279317e-12,-8.2973650365315e-13,-0.00077477361876846,0.00077477361486116,-0.00083550856651608,0.00083550856294726,-0.00083550856717596,0.00083550856416079,-0.0008355085676861,0.00083550856358245,-0.00083550856834599,0.00083550856479597,-0.00078833006371088,0.00078833006001752,-0.00078833006274244,0.00078833006070171,-0.00075007966655864,0.00075007966468063,-0.00075007966703936,0.00075007966367907,-1.3488429408329e-12,-1.3488003538986e-12,-0.00077477361881042,0.0007747736148192,-7.742608468626e-13,-1.693658980469e-12,-0.00083550856635593,0.00083550856304895,-0.00083550856764717,0.00083550856371184,-0.00083550856729285,0.00083550856398589,-0.00083550856855164,0.00083550856461632,-0.00075007966711053,0.00075007966366464,-0.00075007966735369,0.00075007966390772,0.77316544217975,134343,3014,0.0027287824729223,0.0032229519153152,0.0032229519153152,36.279054987478,0.00020543243989983,0.00020543243989983,0.00020543243989983,3498084.4078886,0.0092169906612585
6419200,0.70649926284302,0.011344758101007,0.0034323562638208,0.0039562009185931,0.0039562009185931,-0.00078109909788185,0.00078109909680605,-1.3936827180673e-13,-1.3939130051498e-13,-4.737698060694e-13,2.0470468758878e-13,-0.00086977124986747,0.00086977124880164,-0.00086977125041907,0.00086977124935322,-0.00086977125020592,0.00086977124958253,-0.00086977125075815,0.00086977125013474,-0.00083203422127273,0.00083203422121364,-0.00083203422127167,0.00083203422121252,-3.1110429589689e-13,-1.0891384058781e-12,-9.4765570601868e-13,-5.646220443252e-13,-0.00095109290944596,0.0009510929071275,-0.0010542334546199,0.0010542334528158,-0.0010542334551246,0.0010542334535633,-0.0010542334554127,0.0010542334530514,-0.0010542334559174,0.0010542334537989,-0.00096771932936794,0.00096771932722633,-0.00096771932899965,0.00096771932764495,-0.0009119809856401,0.00091198098498628,-0.00091198098661117,0.00091198098440329,-7.2953686020852e-13,-7.2951386091113e-13,-0.00095109290943996,0.0009510929071335,-5.1790217844395e-13,-9.4535426713488e-13,-0.0010542334546272,0.0010542334528376,-0.0010542334553982,0.001054233453317,-0.0010542334551135,0.0010542334533239,-0.0010542334558839,0.0010542334538026,-0.00091198098636394,0.00091198098460088,-0.00091198098623212,0.00091198098446904,0.7291130398116,134343,3014,0.0032498525214742,0.0039549379312454,0.0039549379312454,36.74063111857,0.00020912504894856,0.00020912504894856,0.00020912504894856,3793236.7475842,0.011222436704154
7419200,0.83196334424266,0.013092018933425,0.0039381711845253,0.0045769238744499,0.0045769238744499,-0.00087445744290374,0.00087445744115,-3.4133283722201e-13,-3.4134863085717e-13,-6.8978722159152e-13,7.9660948765638e-15,-0.00099985536557903,0.00099985536412515,-0.0009998553660478,0.00099985536459391,-0.00099985536583317,0.00099985536483259,-0.00099985536630243,0.00099985536530187,-0.00093380949782168,0.00093380949728494,-0.00093380949781412,0.00093380949727733,-3.7515009841787e-13,-1.137640703578e-12,-8.429667378345e-13,-7.4754666290514e-13,-0.0010782767426887,0.0010782767401939,-0.0012236476150251,0.0012236476132364,-0.0012236476155269,0.0012236476137915,-0.0012236476157674,0.0012236476134388,-0.0012236476162692,0.0012236476139939,-0.0010960990841193,0.0010960990820939,-0.0010960990840117,0.0010960990822037,-0.0010286608037505,0.0010286608028032,-0.001028660804681,0.0010286608022181,-7.0275811945714e-13,-7.0274235523284e-13,-0.0010782767426098,0.0010782767402728,-6.329794864406e-13,-7.6689542481237e-13,-0.0012236476150567,0.0012236476132372,-0.0012236476156277,0.001223647613713,-0.0012236476154997,0.0012236476136803,-0.0012236476160747,0.00122364761416,-0.0010286608042647,0.0010286608025889,-0.0010286608041455,0.0010286608024697,0.71231368642024,134343,3014,0.0036378543212241,0.0044826072700983,0.0044826072700983,40.779748482136,0.00024143798785709,0.00024143798785709,0.00024143798785709,3850877.4388492,0.012683177847321
8419200,0.90769627975127,0.014121259998246,0.0042465382724223,0.0049373608629118,0.0049373608629118,-0.0009162662340136,0.00091626623439187,3.4350806488794e-13,3.4350230035816e-13,-6.7877588150981e-14,7.2955188916116e-13,-0.0010713089247668,0.001071308924987,-0.0010713089250502,0.0010713089252703,-0.0010713089248147,0.0010713089255458,-0.0010713089250996,0.0010713089258307,-0.00098000989816938,0.00098000989924826,-0.00098000989819883,0.0009800098992777,1.5355718709281e-13,-6.6674092564004e-13,-1.000962399227e-13,-4.4961444869797e-13,-0.0011346931633456,0.0011346931624491,-0.0013117518661192,0.0013117518657957,-0.0013117518665651,0.0013117518659911,-0.0013117518666282,0.0013117518657171,-0.0013117518670742,0.0013117518659126,-0.0011540904979625,0.0011540904975303,-0.0011540904982747,0.0011540904971902,-0.0010817468543326,0.0010817468544479,-0.0010817468553761,0.0010817468538583,-1.5859612558546e-13,-1.5859015517962e-13,-0.0011346931632353,0.0011346931625594,-3.1368112313936e-13,6.4249801918537e-15,-0.0013117518662954,0.0013117518656696,-0.0013117518664972,0.0013117518660816,-0.0013117518664695,0.0013117518658438,-0.0013117518666808,0.0013117518662652,-0.0010817468547303,0.0010817468544452,-0.0010817468545657,0.0010817468542806,0.69845438786875,134343,3014,0.0038116919944225,0.0047165961487095,0.0047165961487095,41.436353354051,0.0002466908268324,0.0002466908268324,0.0002466908268324,3703212.7692707,0.013333488532979
9419200,0.94962843921733,0.014678239384194,0.0044182966982296,0.0051299713429822,0.0051299713429822,-0.00093110483847626,0.00093110483983543,6.6173775495406e-13,6.6171554975006e-13,2.0990464638067e-13,1.0742465648578e-12,-0.0011069040760454,0.0011069040770755,-0.0011069040762121,0.0011069040772421,-0.0011069040759614,0.0011069040775412,-0.0011069040761298,0.0011069040777096,-0.00099659671877729,0.00099659672061067,-0.00099659671884012,0.00099659672067344,4.5223427003142e-13,-4.1033905817344e-13,4.3061634680443e-13,-3.9253458577351e-13,-0.0011530683071199,0.0011530683070995,-0.0013513939391081,0.0013513939397026,-0.0013513939395693,0.0013513939395963,-0.0013513939394838,0.0013513939394585,-0.001351393939945,0.0013513939393521,-0.001173794272355,0.0011737942730306,-0.0011737942731146,0.0011737942722104,-0.0011002771553436,0.0011002771559802,-0.0011002771564659,0.0011002771553833,1.567060950893e-13,1.567283002933e-13,-0.0011530683069799,0.0011530683072395,-2.2969215953278e-13,5.6701982499239e-13,-0.0013513939394279,0.0013513939394404,-0.0013513939393239,0.0013513939398651,-0.001351393939447,0.0013513939394596,-0.0013513939393553,0.0013513939398965,-0.0011002771556003,0.0011002771561846,-0.0011002771554032,0.0011002771559875,0.67991627713967,134343,3014,0.0038734670487359,0.0047928153673372,0.0047928153673372,41.144138447935,0.00024435310758348,0.00024435310758348,0.00024435310758348,3513113.0971884,0.013550696021424
10419200,0.97059951217306,0.014964881754097,0.004508721414988,0.0052280801695544,0.0052280801695544,-0.00092966874392448,0.00092966874748792,1.3834176493051e-12,1.3833802680942e-12,8.583369548658e-13,1.841259427259e-12,-0.001117287842967,0.0011172878457689,-0.001117287842915,0.0011172878457168,-0.0011172878426387,0.0011172878460589,-0.0011172878425893,0.0011172878460095,-0.00099644686861695,0.00099644687214124,-0.00099644686872599,0.00099644687225021,1.0458228988292e-12,1.0531360443285e-13,1.3442713805828e-12,-1.4664203489238e-13,-0.0011513287016265,0.0011513287033628,-0.0013616004276538,0.0013616004299469,-0.0013616004280924,0.0013616004293666,-0.0013616004277618,0.0013616004293716,-0.0013616004282004,0.0013616004287913,-0.0011735486825157,0.0011735486851327,-0.0011735486839132,0.0011735486836446,-0.0011000668096217,0.0011000668113955,-0.001100066810864,0.0011000668107575,7.7394388595731e-13,7.7398156127694e-13,-0.0011513287014372,0.0011513287035521,5.7276809056329e-14,1.5289644088339e-12,-0.0013616004281785,0.0013616004294984,-0.0013616004275924,0.0013616004298932,-0.0013616004278845,0.0013616004292045,-0.0013616004273162,0.001361600429617,-0.001100066809665,0.0011000668118758,-0.0011000668094412,0.0011000668116519,0.69326328333545,134343,3014,0.0038676065152921,0.0047856207092758,0.0047856207092758,38.086341309021,0.00021989073047216,0.00021989073047216,0.00021989073047216,3382181.4047444,0.013530239818806
11419200,0.98271888833096,0.01512785622321,0.0045607330176222,0.0052835616027941,0.0052835616027941,-0.00093045945364702,0.00093045945549203,8.1599754242344e-13,8.1591969186054e-13,3.2544517552034e-13,1.2611209736199e-12,-0.0011277302899283,0.0011277302913619,-0.0011277302900184,0.001127730291452,-0.0011277302897475,0.001127730291774,-0.0011277302898383,0.0011277302918648,-0.0009974004697405,0.00099740047196031,-0.00099740046984491,0.00099740047206457,6.5962520221743e-13,-2.5932940487057e-13,1.0496318875913e-12,-6.2619773980396e-13,-0.0011501530212349,0.0011501530217827,-0.0013696018069041,0.0013696018082922,-0.0013696018075399,0.0013696018077991,-0.0013696018072147,0.0013696018079454,-0.0013696018078505,0.0013696018074523,-0.0011733953843178,0.0011733953862435,-0.0011733953859006,0.0011733953845738,-0.0011006811338738,0.0011006811346981,-0.0011006811350921,0.001100681134084,3.882933731981e-13,3.8837175315659e-13,-0.001150153021048,0.0011501530219695,-4.0857510654625e-13,1.2350163005115e-12,-0.0013696018074701,0.0013696018077816,-0.0013696018069815,0.001369601808384,-0.0013696018074043,0.0013696018077159,-0.0013696018069291,0.0013696018083317,-0.0011006811338641,0.0011006811352487,-0.0011006811336265,0.001100681135011,0.67903392424908,134343,3014,0.0038709586266983,0.0047807707350132,0.0047807707350132,37.62592183815,0.0002162073747052,0.0002162073747052,0.0002162073747052,3246640.0510754,0.013523878510645
12419200,0.989670183886,0.015223954541267,0.0045917034671212,0.005316125537073,0.005316125537073,-0.00092827843598146,0.00092827843816395,9.22179886861e-13,9.2206736088682e-13,4.350763557748e-13,1.3583324009364e-12,-0.0011303533080904,0.0011303533098126,-0.0011303533081414,0.0011303533098635,-0.0011303533078765,0.0011303533101819,-0.0011303533079282,0.0011303533102335,-0.00099568964445508,0.00099568964691884,-0.00099568964457527,0.00099568964703882,7.4535459447381e-13,-1.5273945156166e-13,1.2568894209057e-12,-6.320075138359e-13,-0.0011463187264808,0.0011463187273382,-0.0013705814069047,0.0013705814086198,-0.001370581407564,0.0013705814080086,-0.0013705814071617,0.0013705814082311,-0.0013705814078211,0.0013705814076199,-0.0011703674790175,0.0011703674813889,-0.0011703674808106,0.0011703674795117,-0.0010981247145508,0.0010981247155087,-0.0010981247157649,0.0010981247149307,4.9961044312626e-13,4.9972276322437e-13,-0.0011463187262813,0.0011463187275377,-4.012659474831e-13,1.45528127745e-12,-0.0013705814075282,0.0013705814080539,-0.0013705814069209,0.0013705814086795,-0.0013705814074125,0.0013705814079383,-0.0013705814068194,0.0013705814085781,-0.0010981247144599,0.0010981247161701,-0.0010981247142083,0.0010981247159183,0.6935205081526,134343,3014,0.0038619378895363,0.0047648835295165,0.0047648835295165,36.800418348053,0.00020960334678442,0.00020960334678442,0.00020960334678442,3172314.1368257,0.013482560930491
13419200,0.99355217235097,0.015276314721671,0.004608663611005,0.0053338255553333,0.0053338255553333,-0.00092341338723843,0.00092341339035501,1.2300847158739e-12,1.2299563962646e-12,7.2725219470936e-13,1.6728200288493e-12,-0.0011304423804427,0.0011304423829022,-0.0011304423804058,0.0011304423828652,-0.0011304423801376,0.0011304423831919,-0.0011304423801017,0.001130442383156,-0.00099073604749339,0.00099073605067173,-0.00099073604763721,0.0009907360508153,1.0025186162192e-12,9.347914243813e-14,1.6376927986533e-12,-4.8869577076008e-13,-0.0011398015666487,0.001139801568285,-0.0013686303184814,0.0013686303209052,-0.0013686303191217,0.0013686303201137,-0.0013686303186258,0.0013686303203919,-0.0013686303192661,0.0013686303196003,-0.0011643949144489,0.0011643949176435,-0.001164394916468,0.0011643949155286,-0.0010928006590227,0.0010928006604927,-0.0010928006602672,0.0010928006599201,7.5936924296735e-13,7.5949718023543e-13,-0.0011398015664448,0.0011398015684889,-2.5711452768061e-13,1.839736503195e-12,-0.0013686303191881,0.0013686303202628,-0.0013686303183976,0.0013686303208664,-0.0013686303189492,0.001368630320024,-0.0013686303181746,0.0013686303206435,-0.0010928006588658,0.00109280066125,-0.0010928006586011,0.001092800660985,0.6754739984178,134343,3014,0.0038417757071097,0.004737875108492,0.004737875108492,34.785274794894,0.00019348219835915,0.00019348219835915,0.00019348219835915,3097933.0675252,0.01340743039843
14419200,0.9957940575844,0.015306162868317,0.0046183741697933,0.0053438943492618,0.0053438943492618,-0.00091702760222635,0.00091702760548264,1.2721403134572e-12,1.2720010824165e-12,7.6069055554333e-13,1.720374046695e-12,-0.0011257272102544,0.0011257272128382,-0.0011257272101986,0.0011257272127824,-0.0011257272099272,0.001125727213114,-0.0011257272098723,0.001125727213059,-0.00098471443558827,0.00098471443887041,-0.00098471443574156,0.00098471443902343,1.04276226143e-12,1.2561107075625e-13,1.7885346050617e-12,-5.6290908355755e-13,-0.0011324523381031,0.001132452339867,-0.0013630581492174,0.0013630581518348,-0.0013630581499081,0.0013630581509456,-0.0013630581493434,0.0013630581512968,-0.0013630581500341,0.0013630581504076,-0.0011574881557326,0.0011574881592348,-0.0011574881579761,0.0011574881569027,-0.0010861274128186,0.0010861274143098,-0.001086127414082,0.0010861274137396,8.1738417653331e-13,8.1752334875228e-13,-0.0011324523378794,0.0011324523400907,-3.0923111202532e-13,2.011076445348e-12,-0.0013630581499813,0.0013630581511356,-0.0013630581490937,0.0013630581517902,-0.0013630581497196,0.001363058150874,-0.0013630581488484,0.001363058151545,-0.0010861274125799,0.0010861274151693,-0.0010861274123053,0.0010861274148945,0.6654108507008,134343,3014,0.003815278794329,0.0047074017548033,0.0047074017548033,32.633968081301,0.00017627174465041,0.00017627174465041,0.00017627174465041,3068258.0971095,0.013318823017753
15419200,0.99696089329945,0.01532261275551,0.0046237366074869,0.0053494380740114,0.0053494380740114,-0.00090347111006914,0.0009034711158645,2.1048292283237e-12,2.104344390194e-12,1.5261926405683e-12,2.589579757763e-12,-0.0011137630062418,0.0011137630108558,-0.0011137630059466,0.0011137630105602,-0.0011137630056555,0.0011137630109309,-0.0011137630053626,0.0011137630106376,-0.00097158417478665,0.00097158418000912,-0.00097158417499118,0.00097158418021271,1.7056638239199e-12,7.2549254809771e-13,2.6827631532618e-12,-1.4444494001763e-13,-0.0011184588990941,0.0011184589028517,-0.0013506569949465,0.0013506569993724,-0.0013506569955387,0.001350656998057,-0.0013506569947692,0.0013506569984748,-0.0013506569953614,0.0013506569971595,-0.0011439869392976,0.0011439869447379,-0.001143986942004,0.0011439869419407,-0.0010727486211352,0.0010727486239931,-0.0010727486225059,0.0010727486233968,1.4981784669703e-12,1.4986627462936e-12,-0.001118458898834,0.0011184589031118,1.3266518246386e-13,2.9394892153281e-12,-0.0013506569958656,0.001350656998541,-0.0013506569945415,0.0013506569990871,-0.0013506569952566,0.0013506569979323,-0.0013506569939548,0.0013506569985007,-0.0010727486207518,0.0010727486250585,-0.0010727486204529,0.0010727486247586,0.70136005660114,134343,3014,0.0037590190442032,0.004649371550315,0.004649371550315,27.044459497314,0.00013155567597851,0.00013155567597851,0.00013155567597851,3053410.159413,0.013144232872715
16419200,0.99771068966936,0.015332804900797,0.0046270631919279,0.0053528708544347,0.0053528708544347,-0.00089749235156754,0.00089749235522207,1.4053297740224e-12,1.4048397889911e-12,8.6992964483473e-13,1.8769982325218e-12,-0.0011118854466684,0.0011118854495451,-0.0011118854465751,0.0011118854494514,-0.0011118854462887,0.001111885449798,-0.0011118854461955,0.0011118854497046,-0.00096508338099948,0.0009650833846063,-0.00096508338117629,0.00096508338478214,1.1927571144786e-12,2.2884869632942e-13,2.1924539406952e-12,-7.0181083526413e-13,-0.0011112383672448,0.0011112383693913,-0.0013469550033748,0.0013469550064865,-0.001346955004195,0.0013469550053697,-0.0013469550034694,0.0013469550058856,-0.0013469550042895,0.0013469550047688,-0.0011369481488386,0.0011369481531592,-0.0011369481516105,0.0011369481502905,-0.001066327013835,0.0010663270154842,-0.0010663270151637,0.0010663270148852,9.6205234525535e-13,9.6254171265845e-13,-0.0011112383670036,0.0011112383696325,-4.2497025274461e-13,2.4334126609136e-12,-0.0013469550043078,0.0013469550056158,-0.0013469550031949,0.0013469550064021,-0.0013469550039989,0.0013469550053072,-0.0013469550029026,0.0013469550061101,-0.0010663270134408,0.0010663270165367,-0.001066327013148,0.0010663270162429,0.67694980785132,134343,3014,0.0037342238467402,0.0046194441566604,0.0046194441566604,24.406321690586,0.00011045057352469,0.00011045057352469,0.00011045057352469,2995262.8578009,0.013058529352835
17419200,0.99821433025236,0.015339845458389,0.0046293676034831,0.0053552389274528,0.0053552389274528,-0.00089022073900332,0.00089022074252219,1.3554420333528e-12,1.3549133730324e-12,8.3107508181496e-13,1.8147249290462e-12,-0.0011046502703317,0.001104650273123,-0.0011046502702455,0.0011046502730365,-0.0011046502699669,0.0011046502733754,-0.0011046502698807,0.001104650273289,-0.00095832036678427,0.00095832037027249,-0.00095832036696056,0.00095832037044776,1.1423863048692e-12,2.0484793872726e-13,2.1665723696866e-12,-7.5268749700968e-13,-0.0011035279804789,0.0011035279825252,-0.001339486368092,0.0013394863711362,-0.001339486368927,0.0013394863700187,-0.0013394863681914,0.0013394863705576,-0.0013394863690264,0.0013394863694401,-0.0011296385191277,0.0011296385233974,-0.0011296385219286,0.0011296385205082,-0.0010590582805225,0.0010590582820562,-0.0010590582818273,0.0010590582814859,9.3597173023553e-13,9.3649991998205e-13,-0.0011035279802273,0.0011035279827768,-4.6405079415501e-13,2.4184195160027e-12,-0.0013394863690187,0.0013394863702716,-0.0013394863679055,0.0013394863710734,-0.001339486368723,0.0013394863699763,-0.0013394863676265,0.0013394863707947,-0.0010590582800983,0.0010590582831435,-0.0010590582798032,0.0010590582828474,0.69391424294098,134343,3014,0.0037040371091432,0.0045874626275926,0.0045874626275926,21.969289193891,9.0954313551126e-05,9.0954313551126e-05,9.0954313551126e-05,2989450.3993153,0.012963142014572
18419200,0.99852720535241,0.01534414656937,0.0046307762521404,0.005356685158615,0.005356685158615,-0.00087968797021265,0.00087968797640806,2.2402967369431e-12,2.2397936934872e-12,1.6586684170537e-12,2.7295844218931e-12,-0.0010966242249901,0.0010966242298969,-0.0010966242246592,0.0010966242295657,-0.0010966242243651,0.0010966242299377,-0.001096624224036,0.0010966242296082,-0.00094770366193744,0.00094770366747862,-0.00094770366217044,0.00094770366771065,1.8526407135873e-12,8.6210710255803e-13,3.0505610312596e-12,-2.182537614094e-13,-0.0010923501375597,0.0010923501417322,-0.0013305316874788,0.0013305316923697,-0.0013305316881695,0.0013305316908624,-0.0013305316872631,0.0013305316914267,-0.0013305316879539,0.0013305316899194,-0.0011187183306216,0.0011187183368255,-0.0011187183337607,0.0011187183335951,-0.001048456007785,0.0010484560108321,-0.0010484560091902,0.0010484560102482,1.6432445941233e-12,1.6437469317184e-12,-0.0010923501372957,0.0010923501419961,6.7746533331086e-14,3.3118667659201e-12,-0.0013305316885401,0.001330531691393,-0.0013305316870266,0.0013305316920397,-0.0013305316878902,0.0013305316907434,-0.0013305316863986,0.0013305316914121,-0.0010484560072825,0.0010484560120657,-0.0010484560069589,0.0010484560117412,0.68264644531579,134343,3014,0.003660327933438,0.0045411110591074,0.0045411110591074,17.464467703621,5.4915741628967e-05,5.4915741628967e-05,5.4915741628967e-05,2960526.3984265,0.012825002860729
19419200,0.9987865000828,0.01534792953985,0.0046320167440656,0.0053579563978925,0.0053579563978925,-0.00087830145960617,0.00087830146132563,7.6074834789547e-13,7.6079249360567e-13,2.7020634832271e-13,1.2081876054039e-12,-0.001095622545574,0.001095622546929,-0.0010956225456512,0.0010956225470062,-0.0010956225453777,0.001095622547326,-0.0010956225454533,0.0010956225474016,-0.00094650842883652,0.00094650843095403,-0.00094650842898877,0.00094650843110638,6.9660933375168e-13,-2.2188523074969e-13,1.7517996381353e-12,-1.2417446950614e-12,-0.0010902255596563,0.0010902255603369,-0.0013288627774978,0.001328862779452,-0.0013288627785242,0.001328862778489,-0.0013288627778187,0.0013288627791183,-0.0013288627788452,0.0013288627781553,-0.0011168452231625,0.0011168452264875,-0.0011168452260409,0.0011168452235254,-0.0010467700412084,0.0010467700416932,-0.0010467700424754,0.0010467700411286,4.891276163106e-13,4.8908335295694e-13,-0.0010902255594072,0.001090225560586,-9.405107974525e-13,2.003931487151e-12,-0.0013288627784301,0.0013288627785625,-0.0013288627774811,0.0013288627795654,-0.0013288627783794,0.0013288627785118,-0.001328862777443,0.0013288627795272,-0.0010467700407531,0.0010467700427953,-0.0010467700404612,0.0010467700425034,0.72155884054479,134343,3014,0.0036545706543788,0.0045323000345922,0.0045323000345922,17.55174595433,5.5613967634644e-05,5.5613967634644e-05,5.5613967634644e-05,2942353.3994549,0.01280132088352
20419200,0.99901219265629,0.01535125902122,0.0046331096024031,0.0053590747094082,0.0053590747094082,-0.0008803777336078,0.00088037773438363,4.4972967283191e-13,4.4978161242166e-13,1.9767822577178e-14,8.4704997614584e-13,-0.0011007244824644,0.0011007244830811,-0.0011007244826287,0.0011007244832455,-0.0011007244823851,0.0011007244835271,-0.001100724482548,0.00110072448369,-0.00094791600465856,0.0009479160060313,-0.00094791600479295,0.00094791600616582,4.3386448482328e-13,-3.909202322876e-13,1.31215824397e-12,-1.2500453855297e-12,-0.0010909806237112,0.0010909806236951,-0.0013321970631033,0.0013321970643135,-0.0013321970640828,0.0013321970635905,-0.0013321970635143,0.0013321970641362,-0.0013321970644937,0.0013321970634132,-0.0011175272506114,0.0011175272530326,-0.0011175272530641,0.0011175272504895,-0.0010480468052995,0.0010480468053305,-0.0010480468064554,0.0010480468048432,2.1706916280373e-13,2.1702087016139e-13,-0.0010909806235122,0.0010909806238941,-9.9987255752088e-13,1.5139231036296e-12,-0.0013321970639202,0.0013321970635336,-0.0013321970632125,0.001332197064491,-0.0013321970639983,0.0013321970636117,-0.0013321970633009,0.0013321970645793,-0.0010480468049818,0.001048046806267,-0.0010480468047017,0.001048046805987,0.72908277580507,134343,3014,0.0036632023794828,0.0045354499227878,0.0045354499227878,18.600447144896,6.4003577159172e-05,6.4003577159172e-05,6.4003577159172e-05,2888605.3492801,0.012816492321816
21419200,0.99916561952621,0.015353462106783,0.0046338346843237,0.0053598137112296,0.0053598137112296,-0.00087175735295369,0.00087175735809137,1.8933588650687e-12,1.8933529534846e-12,1.3020466057229e-12,2.4100356838877e-12,-0.0010935663183865,0.0010935663224024,-0.0010935663181565,0.0010935663221724,-0.0010935663178435,0.0010935663225531,-0.0010935663176136,0.0010935663223233,-0.00093952989531857,0.00093952990008378,-0.00093952989553919,0.0009395299003044,1.6341865197957e-12,5.8582789563933e-13,2.9679872353582e-12,-6.4669539245206e-13,-0.0010817194336223,0.0010817194370131,-0.0013243587119514,0.0013243587163172,-0.0013243587128544,0.0013243587148032,-0.0013243587118949,0.0013243587155034,-0.0013243587127979,0.0013243587139894,-0.0011086486169232,0.0011086486228703,-0.0011086486203962,0.0011086486192917,-0.0010394014053828,0.0010394014078033,-0.0010394014068327,0.001039401407153,1.3950599701108e-12,1.3950655875863e-12,-0.0010817194333536,0.0010817194372819,-3.4203212468278e-13,3.2365343025693e-12,-0.0013243587131174,0.0013243587152197,-0.0013243587116055,0.0013243587160871,-0.0013243587126211,0.0013243587147234,-0.001324358711128,0.0013243587156095,-0.0010394014047917,0.0010394014091167,-0.0010394014044684,0.0010394014087934,0.7094906721074,134343,3014,0.0036274255292418,0.0044970416005731,0.0044970416005731,15.215521525091,3.6924172200727e-05,3.6924172200727e-05,3.6924172200727e-05,2867691.0529907,0.012702473965864
22419200,0.99929270312161,0.015355305936359,0.0046344421065587,0.0053604319148999,0.0053604319148999,-0.00086937402246287,0.00086937402465571,9.1707542515174e-13,9.1706148440115e-13,3.9101117252414e-13,1.3976201124885e-12,-0.0010911005702833,0.0010911005719854,-0.0010911005703182,0.0010911005720203,-0.0010911005700241,0.0010911005723627,-0.0010911005700572,0.0010911005723958,-0.00093748672372207,0.00093748672622317,-0.00093748672388863,0.00093748672638972,8.5825701377624e-13,-1.2473246708228e-13,2.0882827802217e-12,-1.3068635865259e-12,-0.0010787742843449,0.0010787742854293,-0.0013214806455355,0.0013214806479585,-0.0013214806466438,0.0013214806468118,-0.0013214806458221,0.0013214806475466,-0.0013214806469304,0.0013214806463999,-0.0011060134022886,0.0011060134062965,-0.001106013405554,0.0011060134029337,-0.0010368661881966,0.0010368661889129,-0.0010368661895387,0.0010368661882939,6.3360646728676e-13,6.3361455527497e-13,-0.0010787742840827,0.0010787742856916,-9.9016404528574e-13,2.3539748818008e-12,-0.0013214806465996,0.0013214806469377,-0.0013214806454673,0.0013214806480228,-0.0013214806464915,0.0013214806468296,-0.0013214806453723,0.0013214806479278,-0.0010368661876357,0.0010368661901405,-0.0010368661873341,0.0010368661898389,0.71602859693995,134343,3014,0.0036175284800708,0.0044848234246216,0.0044848234246216,14.8578600561,3.4062880448803e-05,3.4062880448803e-05,3.4062880448803e-05,2858169.5754402,0.012667692588448
23419200,0.99940557906289,0.015356915461867,0.0046349726933926,0.0053609713842373,0.0053609713842373,-0.00087030323382521,0.00087030323482959,5.2260597592264e-13,5.2263947489927e-13,6.3906356528205e-14,9.4717285863698e-13,-0.0010931208880829,0.0010931208888686,-0.0010931208882247,0.0010931208890104,-0.0010931208879642,0.0010931208893103,-0.0010931208881039,0.00109312088945,-0.00093828790379523,0.0009382879053564,-0.00093828790394104,0.00093828790550229,5.1825099579793e-13,-3.5813639741419e-13,1.576971893525e-12,-1.3915391815288e-12,-0.0010788076492186,0.0010788076493985,-0.0013225227719167,0.0013225227734359,-0.001322522773,0.0013225227725502,-0.0013225227723168,0.0013225227732132,-0.0013225227734002,0.0013225227723275,-0.0011061421203724,0.0011061421233193,-0.0011061421232243,0.0011061421203779,-0.0010372996199721,0.0010372996200604,-0.0010372996211918,0.0010372996195339,3.0512438454185e-13,3.0509141496081e-13,-0.001078807648992,0.0010788076496251,-1.1086335143601e-12,1.8073806092924e-12,-0.001322522772849,0.0013225227725391,-0.0013225227719804,0.0013225227736022,-0.0013225227728985,0.0013225227725886,-0.0013225227720405,0.0013225227736622,-0.0010372996195293,0.0010372996211472,-0.0010372996192367,0.0010372996208547,0.70402580109855,134343,3014,0.0036213887019723,0.0044849686369606,0.0044849686369606,15.70825320664,4.0866025653123e-05,4.0866025653123e-05,4.0866025653123e-05,2830785.7046757,0.012671909056557
24419200,0.99951215220458,0.015358462529161,0.0046354832927767,0.0053614896181921,0.0053614896181921,-0.00087373433758627,0.00087373433725986,7.7668803741948e-14,7.7698008732109e-14,-2.3199744204916e-13,3.6199205903814e-13,-0.0010965669189772,0.001096566918789,-0.0010965669192341,0.001096566919046,-0.0010965669190609,0.0010965669192498,-0.0010965669193176,0.0010965669195066,-0.00094179427529121,0.00094179427574398,-0.00094179427541601,0.00094179427586885,7.0339398973762e-14,-5.3399005461744e-13,4.2342094943138e-13,-8.9086449023902e-13,-0.0010814378515366,0.0010814378507232,-0.0013252479742236,0.0013252479743192,-0.0013252479749013,0.0013252479741164,-0.0013252479746997,0.0013252479743561,-0.0013252479753774,0.0013252479741534,-0.0011089155549097,0.001108915555578,-0.0011089155561633,0.0011089155542841,-0.001040270097239,0.0010402700968809,-0.0010402700981758,0.0010402700966145,-1.2785200597368e-13,-1.2788126978558e-13,-0.0010814378514235,0.0010814378508364,-7.3767761151415e-13,5.3752006442512e-13,-0.0013252479746737,0.0013252479739057,-0.0013252479744833,0.0013252479745579,-0.0013252479748963,0.0013252479741282,-0.0013252479747137,0.0013252479747883,-0.0010402700973177,0.0010402700974264,-0.0010402700970327,0.0010402700971415,0.71547577169592,134343,3014,0.0036356282966487,0.0044958794614826,0.0044958794614826,17.888107067977,5.8304856543812e-05,5.8304856543812e-05,5.8304856543812e-05,2812859.1454354,0.012708421315272
25419200,0.99960930531113,0.015359945984358,0.0046359731551428,0.0053619864146076,0.0053619864146076,-0.00087746343386336,0.00087746343367277,1.2339378922797e-13,1.2342572942869e-13,-2.0892747035037e-13,4.3006937638165e-13,-0.0011014717864725,0.0011014717863768,-0.0011014717867179,0.0011014717866223,-0.001101471786531,0.0011014717868412,-0.0011014717867763,0.0011014717870866,-0.00094526459164357,0.0009452645922157,-0.00094526459176991,0.00094526459234212,1.2448893043323e-13,-5.2361816007464e-13,4.5526133013034e-13,-8.5380257313874e-13,-0.0010841573327724,0.0010841573320617,-0.0013290299218842,0.0013290299220729,-0.0013290299225479,0.0013290299218583,-0.0013290299223585,0.0013290299220788,-0.0013290299230221,0.0013290299218642,-0.0011116487151701,0.0011116487158972,-0.0011116487164149,0.0011116487146051,-0.0010433559667944,0.0010433559665559,-0.001043355967774,0.0010433559662453,-9.4986686457224e-14,-9.5018714890543e-14,-0.0010841573326595,0.0010841573321746,-7.0199415750153e-13,5.6888223868516e-13,-0.0013290299223413,0.0013290299216534,-0.0013290299221382,0.0013290299222909,-0.0013290299225471,0.0013290299218592,-0.0013290299223522,0.0013290299225048,-0.0010433559668949,0.001043355967078,-0.0010433559666105,0.0010433559667937,0.75063327654497,134343,3014,0.003651111221706,0.0045071680662993,0.0045071680662993,19.932713680535,7.4661709444278e-05,7.4661709444278e-05,7.4661709444278e-05,2781235.6669115,0.012746982662967
26419200,0.99968894060979,0.015361189959135,0.0046363845149666,0.0053624027220842,0.0053624027220842,-0.00087806230617279,0.00087806230765894,6.7977067464897e-13,6.7978588006681e-13,2.9993071967534e-13,1.0181897185324e-12,-0.0011042296093365,0.001104229610548,-0.0011042296094321,0.0011042296106435,-0.0011042296092273,0.0011042296108911,-0.0011042296093237,0.0011042296109875,-0.0009455109330919,0.00094551093496179,-0.00094551093324917,0.00094551093511909,5.8015546650397e-13,-1.2720060675584e-13,1.00541401645e-12,-5.1906619004642e-13,-0.0010836483512831,0.0010836483518951,-0.001330472403566,0.0013304724049011,-0.0013304724041413,0.0013304724044471,-0.0013304724038541,0.0013304724046734,-0.0013304724044294,0.0013304724042194,-0.0011111675415605,0.0011111675434826,-0.0011111675430072,0.0011111675419739,-0.0010433210712159,0.0010433210719465,-0.0010433210722779,0.0010433210715954,3.4754511802933e-13,3.4752826560298e-13,-0.0010836483511605,0.0010836483520177,-3.6630638312085e-13,1.1269284554622e-12,-0.0013304724041078,0.00133047240441,-0.0013304724036592,0.0013304724049527,-0.0013304724040953,0.0013304724043975,-0.001330472403658,0.0013304724049515,-0.0010433210712739,0.001043321072542,-0.0010433210709774,0.0010433210722455,0.76690380774526,134343,3014,0.0036536072315259,0.0045050714343501,0.0045050714343501,20.395382011845,7.8363056094762e-05,7.8363056094762e-05,7.8363056094762e-05,2741420.4120836,0.012745298006639
27419200,0.9997584030221,0.015362233297317,0.0046367302404887,0.0053627515284139,0.0053627515284139,-0.00088098685254859,0.00088098685302866,3.469595476828e-13,3.4694143058921e-13,-2.5113409273173e-14,6.8839410238565e-13,-0.00110826019693,0.0011082601973419,-0.0011082601971171,0.001108260197529,-0.001108260196909,0.0011082601977732,-0.0011082601970962,0.0011082601979603,-0.0009484204748442,0.00094842047595155,-0.00094842047498312,0.00094842047609044,3.2956534715882e-13,-3.8598270297867e-13,7.5653818377412e-13,-7.9641706218144e-13,-0.0010853787720741,0.0010853787718958,-0.0013333309294209,0.0013333309301329,-0.0013333309301002,0.0013333309297704,-0.0013333309298365,0.0013333309300329,-0.0013333309305157,0.0013333309296703,-0.0011131127036794,0.0011131127050304,-0.0011131127051539,0.0011131127034907,-0.0010456336057042,0.0010456336058468,-0.0010456336067599,0.0010456336054764,9.0118923399339e-14,9.0137128725531e-14,-0.0010853787719502,0.0010853787720196,-6.3489614847612e-13,8.8073893226548e-13,-0.001333330929963,0.0013333309296319,-0.0013333309296105,0.0013333309302835,-0.0013333309300839,0.0013333309297528,-0.0013333309297407,0.0013333309304136,-0.0010456336057506,0.0010456336064361,-0.0010456336054607,0.0010456336061461,0.73787115040632,134343,3014,0.0036657517475056,0.0045122573942008,0.0045122573942008,22.257776688776,9.326221351021e-05,9.326221351021e-05,9.326221351021e-05,2707352.8503478,0.012772161402106
28419200,0.99981548399848,0.015363136870775,0.0046370299649778,0.0053630534528988,0.0053630534528988,-0.00088215695140416,0.00088215695236652,5.0489286998704e-13,5.0458973218887e-13,1.1975125344611e-13,8.5346822124933e-13,-0.0011087835945491,0.001108783595343,-0.0011087835946914,0.0011087835954851,-0.0011087835944794,0.0011087835957369,-0.001108783594622,0.0011087835958793,-0.00094990096337385,0.00094990096484974,-0.00094990096352284,0.00094990096499816,4.5304877407236e-13,-2.7455482025929e-13,9.2062455294156e-13,-7.178918483373e-13,-0.0010860242444079,0.0010860242446039,-0.0013335128639092,0.0013335128649562,-0.001333512864569,0.0013335128645155,-0.0013335128642687,0.0013335128647896,-0.0013335128649286,0.0013335128643489,-0.0011140096508758,0.0011140096525838,-0.0011140096524371,0.0011140096509641,-0.0010465875955741,0.0010465875959743,-0.0010465875966521,0.0010465875956007,2.1986448917313e-13,2.2016692111051e-13,-0.0010860242442742,0.0010860242447376,-5.4867587068172e-13,1.0543345555089e-12,-0.0013335128644761,0.0013335128644344,-0.0013335128640437,0.0013335128650649,-0.0013335128645327,0.0013335128644912,-0.0013335128641106,0.001333512865132,-0.0010465875955937,0.0010465875966062,-0.0010465875952972,0.0010465875963091,0.77519038654392,134343,3014,0.0036706029079459,0.0045149303548394,0.0045149303548393,23.444957327465,0.00010275965861972,0.00010275965861972,0.00010275965861972,2702972.0467658,0.012782467964958
29419200,0.99986186391596,0.015363786202573,0.0046372456584885,0.0053632702720425,0.0053632702720425,-0.00088479247792082,0.00088479247877459,4.7080508781598e-13,4.6931028054014e-13,8.8564676762859e-14,8.1751637837698e-13,-0.0011134505424302,0.0011134505431325,-0.0011134505425844,0.0011134505432857,-0.0011134505423725,0.0011134505435358,-0.0011134505425268,0.0011134505436891,-0.00095211314917879,0.00095211315057539,-0.00095211314932708,0.00095211315072077,4.3168944160714e-13,-2.9474238920468e-13,9.2518292563493e-13,-7.6411029594279e-13,-0.0010875008112788,0.0010875008114024,-0.0013368453777083,0.0013368453787076,-0.0013368453783954,0.0013368453782616,-0.0013368453780825,0.0013368453785572,-0.0013368453787696,0.0013368453781112,-0.0011154358754186,0.0011154358771284,-0.001115435877024,0.0011154358754529,-0.0010484587282034,0.0010484587285356,-0.0010484587292768,0.0010484587281601,1.9376649233137e-13,1.9525971142044e-13,-0.0010875008111488,0.0010875008115324,-5.9697621866865e-13,1.0554545948219e-12,-0.0013368453782938,0.0013368453781653,-0.0013368453778571,0.001336845378824,-0.0013368453783666,0.0013368453782391,-0.0013368453779398,0.0013368453789077,-0.0010484587282072,0.0010484587291781,-0.001048458727914,0.001048458728882,0.68887395937317,134343,3014,0.0036815517884834,0.0045210703783902,0.0045210703783901,24.784378674568,0.00011347502939654,0.00011347502939654,0.00011347502939654,2663332.6648289,0.012806029183814
30419200,0.99989875594004,0.01536429375822,0.0046374145576102,0.0053634396003049,0.0053634396003049,-0.00088573383851307,0.00088573383934711,4.6023038145423e-13,4.5872836851617e-13,7.3299128409001e-14,8.0946578608176e-13,-0.0011110655479261,0.0011110655486281,-0.0011110655480777,0.0011110655487787,-0.0011110655478645,0.0011110655490316,-0.0011110655480161,0.0011110655491822,-0.00095382748555752,0.00095382748693293,-0.00095382748570944,0.00095382748708191,4.1410760142249e-13,-3.1433715456864e-13,9.1977087865307e-13,-7.9981648530176e-13,-0.0010887782438115,0.0010887782438987,-0.0013352170564013,0.001335217057397,-0.0013352170570962,0.0013352170569393,-0.0013352170567754,0.001335217057245,-0.0013352170574703,0.0013352170567872,-0.0011170078991921,0.0011170079008877,-0.0011170079008415,0.0011170078991965,-0.0010496863950244,0.0010496863953118,-0.0010496863961083,0.0010496863949432,1.9350588264576e-13,1.9500633680792e-13,-0.0010887782436647,0.0010887782440455,-6.1508897415994e-13,1.0672787630135e-12,-0.0013352170569814,0.0013352170568607,-0.001335217056533,0.0013352170575274,-0.0013352170570525,0.0013352170569328,-0.0013352170566144,0.0013352170576097,-0.0010496863950094,0.0010496863959901,-0.0010496863947078,0.0010496863956857,0.67661723253722,134343,3014,0.0036854375921179,0.0045263462646904,0.0045263462646904,26.135132272249,0.000124281058178,0.000124281058178,0.000124281058178,2698928.8477888,0.012820585569433
31419200,0.99992862269949,0.015364735940811,0.004637561385681,0.0053635872775649,0.0053635872775649,-0.00088996189446143,0.0008899618945761,2.2211077349186e-13,2.2115503798304e-13,-1.413191533851e-13,5.5616296548552e-13,-0.0011151023859218,0.0011151023860603,-0.0011151023861383,0.0011151023862762,-0.0011151023859341,0.0011151023865149,-0.0011151023861502,0.0011151023867304,-0.00095800871473471,0.00095800871555363,-0.00095800871487614,0.00095800871569321,2.2137028384884e-13,-4.7844802160901e-13,6.8017233976809e-13,-9.3123880683711e-13,-0.0010924322080804,0.001092432207609,-0.0013387097486117,0.0013387097491138,-0.0013387097493395,0.0013387097487643,-0.0013387097490661,0.0013387097490649,-0.0013387097497939,0.0013387097487154,-0.0011206715222694,0.0011206715234472,-0.0011206715238181,0.0011206715218659,-0.0010534922054324,0.0010534922053152,-0.0010534922064807,0.0010534922049702,4.7240909763811e-15,5.6790912135441e-15,-0.0010924322079409,0.0010924322077485,-7.4972846395712e-13,8.2123263249503e-13,-0.0013387097491521,0.0013387097486108,-0.001338709748815,0.0013387097493133,-0.0013387097493192,0.0013387097487786,-0.0013387097489907,0.0013387097494897,-0.0010534922054464,0.001053492205958,-0.001053492205146,0.0010534922056558,0.72613574125683,134343,3014,0.0037029837574317,0.0045415024983553,0.0045415024983553,28.446526290671,0.00014277221032537,0.00014277221032537,0.00014277221032537,2688550.3803237,0.012869055339618
32419200,0.9999504354368,0.015365075493965,0.0046376741464183,0.0053637006737736,0.0053637006737736,-0.00089221205998134,0.00089221206117697,5.8131509416408e-13,5.8035050598453e-13,1.9417830328024e-13,9.2899116407527e-13,-0.0011203728614335,0.0011203728624131,-0.0011203728615542,0.0011203728625331,-0.0011203728613426,0.0011203728627857,-0.0011203728614636,0.0011203728629061,-0.000959493572392,0.00095949357404478,-0.00095949357255033,0.00095949357420123,5.1541145191445e-13,-2.1039124364781e-13,1.0230267646978e-12,-6.8860993336684e-13,-0.0010935215710606,0.001093521571454,-0.0013424563440097,0.0013424563452403,-0.0013424563446687,0.0013424563447495,-0.0013424563443406,0.0013424563450451,-0.0013424563449996,0.0013424563445542,-0.0011215298539756,0.0011215298559053,-0.0011215298556086,0.0011215298542144,-0.0010548791663055,0.0010548791668257,-0.001054879167389,0.0010548791664604,2.852017578703e-13,2.8616364025016e-13,-0.0010935215709254,0.0010935215715892,-5.1845014699801e-13,1.158154472117e-12,-0.0013424563446007,0.0013424563446957,-0.0013424563441177,0.0013424563453248,-0.0013424563446275,0.0013424563447231,-0.0013424563441552,0.0013424563453629,-0.0010548791663036,0.0010548791674916,-0.0010548791660018,0.0010548791671879,0.762120375565,134343,3014,0.0037123364378501,0.0045460415621996,0.0045460415621996,29.29845879556,0.00014958767036448,0.00014958767036448,0.00014958767036448,2639667.4798906,0.012887779349575
33419200,0.99996559413245,0.015365314336318,0.004637753630486,0.0053637803529162,0.0053637803529162,-0.00089172417808405,0.00089172417990113,7.8802086767988e-13,7.8706110288239e-13,3.8039093814148e-13,1.1512760646006e-12,-0.0011217043920415,0.0011217043934959,-0.0011217043921081,0.0011217043935618,-0.0011217043918874,0.001121704393827,-0.0011217043919546,0.0011217043938935,-0.00095883675606848,0.00095883675820617,-0.00095883675623814,0.00095883675837395,6.911124964488e-13,-6.4587552629896e-14,1.2651057733025e-12,-5.964116855069e-13,-0.0010920336650405,0.0010920336659309,-0.001342705595824,0.001342705597503,-0.0013427055964738,0.0013427055969014,-0.0013427055960904,0.0013427055972208,-0.0013427055967403,0.0013427055966192,-0.0011201568541039,0.0011201568565502,-0.0011201568558777,0.0011201568547075,-0.001053870224595,0.0010538702254657,-0.0010538702257165,0.0010538702250772,4.530110725874e-13,4.539699550589e-13,-0.0010920336649005,0.0010920336660708,-4.2344819630121e-13,1.4045913701096e-12,-0.0013427055964688,0.0013427055969085,-0.0013427055958733,0.0013427055975266,-0.0013427055964172,0.0013427055968576,-0.0013427055958334,0.0013427055974874,-0.0010538702245573,0.0010538702261789,-0.0010538702242508,0.0010538702258706,0.7702630911077,134343,3014,0.0037103196586066,0.0045398828930932,0.0045398828930931,29.317385105063,0.0001497390808405,0.0001497390808405,0.0001497390808405,2605460.1417085,0.012873286216213
34419200,0.99997706910114,0.015365488332118,0.0046378116367625,0.0053638383476776,0.0053638383476776,-0.00089541192819709,0.0008954119284218,2.605598047827e-13,2.5956480576747e-13,-1.1573550847731e-13,6.0844273602148e-13,-0.0011259466920171,0.0011259466922247,-0.0011259466922268,0.0011259466924337,-0.0011259466920136,0.0011259466926809,-0.0011259466922228,0.0011259466928894,-0.00096256614731854,0.00096256614823486,-0.00096256614746025,0.00096256614837463,2.7543736191613e-13,-4.5345646890732e-13,7.9266218866645e-13,-9.5672692275264e-13,-0.0010947135824474,0.0010947135820869,-0.0013460250298943,0.0013460250305298,-0.0013460250306572,0.0013460250301241,-0.0013460250303473,0.0013460250304602,-0.0013460250311102,0.0013460250300544,-0.0011230306717665,0.0011230306731668,-0.0011230306734346,0.0011230306714343,-0.0010570129900513,0.0010570129900049,-0.001057012991125,0.0010570129896269,3.7382005064229e-14,3.8375945288273e-14,-0.0010947135823142,0.00109471358222,-7.8111213756038e-13,9.2713925006174e-13,-0.0013460250304911,0.0013460250299699,-0.0013460250300979,0.0013460250307076,-0.0013460250306476,0.001346025030127,-0.001346025030263,0.0013460250308734,-0.0010570129900374,0.0010570129906683,-0.0010570129897405,0.0010570129903695,0.74167726424974,134343,3014,0.0037256279306192,0.004551003710063,0.004551003710063,31.490036570083,0.00016712029256067,0.00016712029256067,0.00016712029256067,2579976.8661112,0.012911320194007
35419200,0.99998606966178,0.015365620095476,0.0046378556253954,0.0053638822350402,0.0053638822350402,-0.00090393890371081,0.00090393890218923,-3.1812431093244e-13,-3.1940038959617e-13,-6.4013556194505e-13,-7.4818155533176e-15,-0.0011335367791573,0.0011335367780105,-0.001133536779523,0.0011335367783753,-0.001133536779331,0.0011335367785898,-0.0011335367796954,0.0011335367789533,-0.00097115890421268,0.00097115890377594,-0.00097115890432794,0.00097115890388872,-1.9867353340005e-13,-8.5825695730967e-13,1.6509025899562e-13,-1.2418031746914e-12,-0.0011025447519067,0.0011025447501764,-0.001353056823077,0.001353056822487,-0.0013530568238929,0.0013530568223691,-0.0013530568237211,0.0013530568226631,-0.001353056824537,0.0013530568225451,-0.0011309270427601,0.001130927042811,-0.0011309270441056,0.001130927041424,-0.0010650302553185,0.0010650302543024,-0.0010650302563051,0.0010650302539806,-4.2878957724334e-13,-4.2751476324685e-13,-0.0011025447517926,0.0011025447502905,-1.077380939693e-12,2.8214633650545e-13,-0.0013530568235542,0.0013530568220331,-0.0013530568234548,0.0013530568228301,-0.0013530568239382,0.001353056822418,-0.0013530568238439,0.00135305682322,-0.0010650302553999,0.0010650302548517,-0.0010650302551091,0.0010650302545583,0.71639572357513,134343,3014,0.0037610122888849,0.0045834805322491,0.0045834805322491,35.945827962991,0.00020276662370392,0.00020276662370392,0.00020276662370392,2570858.2029048,0.013012937130373
36419200,0.9999918277321,0.015365706183396,0.0046378843706079,0.005363910906394,0.005363910906394,-0.00090643896681517,0.00090643896747065,4.0001560332731e-13,3.9870487866317e-13,3.8703714686907e-14,7.2602298226096e-13,-0.001135373066278,0.0011353730668449,-0.001135373066446,0.001135373067012,-0.0011353730662473,0.0011353730672484,-0.0011353730664156,0.0011353730674158,-0.00097375184855658,0.00097375184978137,-0.00097375184870773,0.00097375184992996,3.5950885212612e-13,-3.2432976474243e-13,7.7178693530655e-13,-7.1776072662492e-13,-0.0011047442664002,0.0011047442663785,-0.001354660191558,0.001354660192371,-0.0013546601921951,0.0013546601920066,-0.0013546601919424,0.0013546601922593,-0.0013546601925794,0.0013546601918949,-0.0011331840215003,0.001133184022909,-0.0011331840229223,0.0011331840214418,-0.0010673263478226,0.0010673263480659,-0.0010673263488622,0.0010673263477417,1.346959439549e-13,1.3600563923873e-13,-0.0011047442662784,0.0011047442665003,-5.6043002630621e-13,8.9383876736862e-13,-0.0013546601920786,0.0013546601918938,-0.001354660191723,0.0013546601925019,-0.0013546601921764,0.0013546601919925,-0.0013546601918304,0.0013546601926102,-0.0010673263478886,0.0010673263486646,-0.0010673263475856,0.001067326348359,0.73062628340541,134343,3014,0.0037713828284517,0.004592599229889,0.004592599229889,37.486240177507,0.00021508992142006,0.00021508992142006,0.00021508992142006,2570954.698623,0.013041903965783
37419200,0.99999522734759,0.015365756223246,0.0046379010839867,0.0053639275696299,0.0053639275696299,-0.00090662480894984,0.00090662481062697,7.3847979289042e-13,7.3717974437071e-13,3.4745078267591e-13,1.0842543326568e-12,-0.0011366710229313,0.0011366710242928,-0.0011366710230078,0.0011366710243684,-0.001136671022798,0.0011366710246226,-0.0011366710228754,0.0011366710246992,-0.00097371403626015,0.00097371403827512,-0.00097371403642925,0.00097371403844167,6.3667586116824e-13,-8.3932035198644e-14,1.1224492986393e-12,-5.3077964534029e-13,-0.0011043216909393,0.0011043216917234,-0.0013552540791536,0.001355254080675,-0.0013552540797472,0.0013552540801539,-0.0013552540794252,0.0013552540804211,-0.0013552540800187,0.0013552540798999,-0.0011327284274231,0.0011327284295904,-0.0011327284289993,0.0011327284279586,-0.0010671020736298,0.0010671020744522,-0.0010671020747191,0.0010671020741014,4.0613841627958e-13,4.074374060081e-13,-0.0011043216908091,0.0011043216918535,-3.7012554585982e-13,1.2518002436559e-12,-0.0013552540797343,0.0013552540801457,-0.0013552540792183,0.0013552540807066,-0.0013552540796993,0.0013552540801115,-0.0013552540791948,0.001355254080684,-0.0010671020736556,0.0010671020751072,-0.0010671020733466,0.0010671020747956,0.71956885674271,134343,3014,0.0037721575592536,0.0045908545178105,0.0045908545178104,37.681166354461,0.00021664933083569,0.00021664933083569,0.00021664933083569,2550821.0903151,0.013039173236094
38419200,0.99999718120997,0.015365786088802,0.0046379110621864,0.0053639375133077,0.0053639375133077,-0.00090493989636142,0.00090493989856605,9.1345327110018e-13,9.1218648627017e-13,4.6301773747889e-13,1.3147217626232e-12,-0.0011350147059692,0.0011350147077184,-0.0011350147059991,0.0011350147077474,-0.0011350147057548,0.0011350147080398,-0.0011350147057849,0.001135014708069,-0.00097211413538512,0.00097211413783721,-0.00097211413556386,0.00097211413801348,8.1258936968531e-13,-1.5008736346348e-14,1.5758515536697e-12,-7.2801546714674e-13,-0.0011024037898307,0.0011024037910101,-0.0013533758527039,0.0013533758547906,-0.0013533758534555,0.0013533758539992,-0.0013533758529451,0.001353375854434,-0.0013533758536967,0.0013533758536426,-0.0011309084799944,0.0011309084830581,-0.0011309084822015,0.0011309084807806,-0.0010653395276652,0.0010653395286642,-0.001065339528868,0.0010653395282134,5.7848820993522e-13,5.7975605355641e-13,-0.001102403789654,0.0011024037911868,-5.1438950634191e-13,1.7529514485365e-12,-0.0013533758534726,0.001353375854073,-0.0013533758526882,0.0013533758547939,-0.0013533758533689,0.0013533758539702,-0.0013533758525972,0.0013533758547037,-0.0010653395274859,0.0010653395295366,-0.0010653395271716,0.0010653395292198,0.74580747229694,134343,3014,0.0037651621949647,0.0045828992354362,0.0045828992354362,37.194176607333,0.00021275341285867,0.00021275341285867,0.00021275341285867,2547945.9715655,0.013015965865495
38880000,0.99999786357621,0.015365796579509,0.0046379145674806,0.0053639410060142,0.0053639410060142,-0.00090500743153077,0.00090500743337124,7.9430329340315e-13,7.9302992053911e-13,3.5867485155302e-13,1.1855367385488e-12,-0.0011363091236811,0.0011363091251405,-0.0011363091237455,0.001136309125204,-0.0011363091235068,0.0011363091254873,-0.0011363091235711,0.0011363091255507,-0.00097195760864265,0.00097195761081448,-0.00097195760881583,0.00097195761098517,7.1914672234092e-13,-9.0641164798164e-14,1.4796749329759e-12,-8.0698511881527e-13,-0.0011019727110395,0.001101972711946,-0.0013540894209519,0.0013540894228023,-0.0013540894217333,0.0013540894220545,-0.0013540894212339,0.0013540894225005,-0.0013540894220154,0.0013540894217526,-0.0011304353581206,0.0011304353609735,-0.0011304353603092,0.0011304353587104,-0.0010650688580926,0.0010650688588825,-0.0010650688592724,0.0010650688584451,4.8341596726815e-13,4.8468492850225e-13,-0.0011019727108709,0.0011019727121146,-5.991576226165e-13,1.6489719926846e-12,-0.0013540894217161,0.0013540894220854,-0.0013540894209771,0.0013540894228379,-0.0013540894216627,0.0013540894220328,-0.0013540894209354,0.0013540894227971,-0.0010650688579174,0.0010650688597443,-0.0010650688576055,0.0010650688594299,0.74996681888252,134343,3014,0.003765448080384,0.0045811204136032,0.0045811204136032,37.193611323701,0.00021274889058961,0.00021274889058961,0.00021274889058961,2528224.6257458,0.013012673300932
