time,ASR_ext,ASR_strain,ASR_strain_xx,ASR_strain_yy,ASR_strain_zz,disp_x_101,disp_x_102,disp_x_103,disp_x_104,disp_x_105,disp_x_106,disp_x_p1_neg,disp_x_p1_pos,disp_x_p2_neg,disp_x_p2_pos,disp_x_p3_neg,disp_x_p3_pos,disp_x_p4_neg,disp_x_p4_pos,disp_x_p5_neg,disp_x_p5_pos,disp_x_p6_neg,disp_x_p6_pos,disp_y_101,disp_y_102,disp_y_103,disp_y_104,disp_y_105,disp_y_106,disp_y_p1_neg,disp_y_p1_pos,disp_y_p2_neg,disp_y_p2_pos,disp_y_p3_neg,disp_y_p3_pos,disp_y_p4_neg,disp_y_p4_pos,disp_y_p5_neg,disp_y_p5_pos,disp_y_p6_neg,disp_y_p6_pos,disp_y_p7_neg,disp_y_p7_pos,disp_y_p8_neg,disp_y_p8_pos,disp_z_101,disp_z_102,disp_z_103,disp_z_104,disp_z_105,disp_z_106,disp_z_p1_neg,disp_z_p1_pos,disp_z_p2_neg,disp_z_p2_pos,disp_z_p3_neg,disp_z_p3_pos,disp_z_p4_neg,disp_z_p4_pos,disp_z_p5_neg,disp_z_p5_pos,disp_z_p6_neg,disp_z_p6_pos,humidity,ndof,nelem,strain_xx,strain_yy,strain_zz,temp,thermal_strain_xx,thermal_strain_yy,thermal_strain_zz,vonmises,vstrain
2419200,0,0,0,0,0,0,0,0,0,0,0,0,0,0,0,0,0,0,0,0,0,0,0,0,0,0,0,0,0,0,0,0,0,0,0,0,0,0,0,0,0,0,0,0,0,0,0,0,0,0,0,0,0,0,0,0,0,0,0,0,0,0,0,0,0,0,0,0,0,0,0,0,0,0,0
3419200,0.15873549880202,0.0030052832086038,0.0010017610695346,0.0010017610695346,0.0010017610695346,-0.00026228238221868,0.00026227119249999,-4.3836811062204e-09,-4.3836811882473e-09,-3.8163772095459e-09,-4.7991500924942e-09,-0.00026942395868402,0.00026941468883339,-0.00026942439544279,0.00026941512559979,-0.00026942467821755,0.00026941477268701,-0.0002694251085021,0.00026941520298854,-0.00026662055301718,0.00026661105704091,-0.00026662091640215,0.00026661142042517,-2.0198191366976e-09,-1.1826507615461e-09,-1.9381923737695e-09,-1.3658517003646e-09,-0.000276274332205,0.00027626959116572,-0.00028240301961876,0.00028239877928417,-0.00028240324551727,0.00028239942237593,-0.00028240349609703,0.00028239989953805,-0.00028240372198042,0.00028240054263216,-0.00027760350767225,0.00027759972710602,-0.00027760334301648,0.00027760066960829,-0.00027414297748798,0.00027413890591255,-0.00027414258387978,0.0002741401710367,-1.7967107986008e-09,-1.7967107063683e-09,-0.00027627449015955,0.0002762694332161,-1.4795855561548e-09,-2.0853251850044e-09,-0.00028240274774832,0.00028239893578293,-0.00028240343084926,0.000282399204137,-0.00028240363441187,0.00028239982244483,-0.00028240428922862,0.000282400062511,-0.0002741434459745,0.00027413943133204,-0.00027414290190381,0.000274138887255,0.75746877217741,125301,3014,0.0010922253883065,0.0011504678278467,0.001150467827857,31.804113467591,0.00016963290774073,0.00016963290774073,0.00016963290774073,1645719.8095454,0.0033989273194083
4419200,0.34936869317254,0.0063997207599812,0.0020258908884482,0.0021869149357476,0.0021869149357854,-0.00049034428418407,0.00049032098096827,-9.8168345413845e-09,-9.8168316061212e-09,-9.0116960102478e-09,-1.0101093243594e-08,-0.00051665932125169,0.00051663798594239,-0.00051666092046894,0.00051663958519312,-0.0005166611320117,0.0005166391298017,-0.0005166627011991,0.00051664069905225,-0.00051176226271255,0.0005117416998784,-0.00051176385108517,0.00051174328834074,-5.9003556825501e-09,-5.3835793338293e-09,-6.7642126006589e-09,-4.9973176009451e-09,-0.0005549533286081,0.00055493898111052,-0.00058362746279014,0.00058361374331754,-0.00058362876317469,0.00058361633811263,-0.00058363002680703,0.00058361680304982,-0.00058363132722368,0.00058361939789869,-0.00056293790832961,0.00056292442574409,-0.00056293795084555,0.00056292790573154,-0.00054317834531064,0.00054316670877237,-0.00054317924501192,0.00054316871114821,-6.182060136277e-09,-6.1820569350218e-09,-0.00055495370588581,0.0005549386038485,-5.1485614795986e-09,-7.0954269574446e-09,-0.00058362685784029,0.00058361397156228,-0.00058362964544799,0.00058361541457446,-0.00058362993624995,0.00058361704993972,-0.00058363260891733,0.00058361837800966,-0.00054318086752996,0.00054316749167099,-0.00054317908873548,0.00054316571296562,0.73992840791513,125301,3014,0.0020410351663498,0.0023095822497797,0.0023095822498123,33.600421112719,0.00018400336890175,0.00018400336890175,0.00018400336890175,2933787.0238025,0.0066824582772834
5419200,0.54915771018711,0.009768051287449,0.0029801730309367,0.0033939391282513,0.003393939128261,-0.00069896642531945,0.00069896350325372,-5.0603735746491e-10,-5.0602710507223e-10,-9.7878034484409e-10,2.4981357796961e-10,-0.00075782848237644,0.00075782550397869,-0.0007578292963956,0.0007578263179678,-0.00075782885415087,0.00075782666425175,-0.00075782964441927,0.00075782745451824,-0.00074340122013126,0.00074340014739268,-0.00074340171471989,0.00074340064208278,-2.3465518583059e-09,-4.0757683184837e-09,-3.3873175535979e-09,-2.8234163768043e-09,-0.00083439824438009,0.00083439021028159,-0.00090178270182708,0.00090177552981618,-0.00090178342661604,0.00090177664805172,-0.00090178440337432,0.00090177595828826,-0.00090178512815563,0.00090177707654701,-0.00085363516575501,0.00085362808603571,-0.00085363375833677,0.00085362782267263,-0.00080972545548704,0.00080972037437409,-0.00080972650733441,0.00080971809935083,-3.4969662356996e-09,-3.4969568027819e-09,-0.00083439834949177,0.00083439010517542,-2.6639502072527e-09,-3.4580899390937e-09,-0.0009017828001075,0.00090177530462247,-0.00090178412594741,0.00090177603734324,-0.00090178392502446,0.00090177642956062,-0.00090178516938722,0.00090177708079483,-0.00080972625879873,0.00080971850208793,-0.00080972679749455,0.00080971904085011,0.72499638738019,125301,3014,0.0029084165054995,0.0034705344473426,0.003470534447354,36.269007731773,0.00020535206185418,0.00020535206185418,0.00020535206185418,3677998.5412366,0.0098982686148136
6419200,0.70561394331048,0.011880287626365,0.0035658632717853,0.004157212177283,0.0041572121772964,-0.00081312881157704,0.00081312574932875,-9.6096866377284e-10,-9.6095441482578e-10,-1.5920091124644e-09,-2.4563152899304e-10,-0.00091012303767857,0.00091011980751133,-0.0009101235311366,0.00091012030093672,-0.00091012313244117,0.00091012074912137,-0.00091012362379387,0.00091012124047073,-0.0008696592368573,0.00086965774548184,-0.00086965954136556,0.00086965805005699,-8.7264643849066e-10,-2.4595117013632e-09,-1.5939491414837e-09,-1.7426034205678e-09,-0.00099874773513491,0.0009987433222817,-0.0011102969378444,0.0011102936542042,-0.0011102976996156,0.0011102943062486,-0.0011102981413265,0.0011102937167725,-0.001110298903097,0.00111029436886,-0.0010214241470175,0.0010214207667962,-0.0010214239371461,0.0010214203314956,-0.00096022327894449,0.00096022115693916,-0.00096022499755346,0.00096021978563826,-1.7639297896851e-09,-1.7639163741832e-09,-0.00099874773306676,0.0009987433243558,-1.59603513034e-09,-1.5804614674429e-09,-0.0011102972441205,0.0011102933764944,-0.0011102979832616,0.0011102940858753,-0.0011102978397346,0.0011102939720989,-0.0011102985619513,0.0011102946645506,-0.00096022428079786,0.00096022048592976,-0.00096022415334236,0.00096022035850607,0.59839168540088,125301,3014,0.0033829040374246,0.0041526962564955,0.0041526962565078,36.73882132132,0.00020911057057056,0.00020911057057056,0.00020911057057056,3893927.3599641,0.011757119036802
7419200,0.8313581981233,0.013352928940845,0.0039884068225499,0.0046822610591415,0.0046822610591538,-0.00089257419078644,0.00089257067783107,-1.0220505749389e-09,-1.0220340282385e-09,-1.6915351067636e-09,-2.9509672148302e-10,-0.0010211367716496,0.0010211333936309,-0.0010211371779503,0.0010211337998916,-0.0010211367723853,0.0010211342785728,-0.0010211371787904,0.0010211346849628,-0.00095679432538048,0.00095679264604085,-0.00095679464502811,0.00095679296576856,-8.689575303739e-10,-2.4405704661758e-09,-1.2708176382377e-09,-1.9040341677709e-09,-0.0011083831547512,0.0011083787301594,-0.0012567365781902,0.0012567336231535,-0.0012567373928471,0.0012567340087075,-0.0012567377517926,0.0012567336788191,-0.0012567385664533,0.0012567340644161,-0.0011331003391192,0.0011330976096503,-0.0011331004322514,0.0011330965228402,-0.001060827026796,0.001060824686993,-0.0010608287844304,0.0010608233900074,-1.6297178360329e-09,-1.6297021716879e-09,-0.0011083830518606,0.0011083788330542,-1.6788354627584e-09,-1.1582880219195e-09,-0.0012567369559681,0.0012567332905948,-0.0012567374038439,0.0012567340511515,-0.0012567375244636,0.0012567338590877,-0.0012567379660405,0.0012567346133397,-0.0010608277820625,0.0010608243628744,-0.0010608276014504,0.0010608241822986,0.52694121020036,125301,3014,0.0037130417954525,0.0046075032449056,0.004607503244914,40.764436492853,0.00024131549194283,0.00024131549194283,0.00024131549194283,3944012.1273131,0.013012360395672
8419200,0.90734714762287,0.014147342918876,0.004223197037095,0.0049620729408852,0.0049620729408963,-0.00092333850850039,0.00092333853018963,3.517337316877e-10,3.517503222397e-10,-4.5030039055864e-10,1.1526217472703e-09,-0.0010755809368783,0.0010755806016974,-0.0010755811666809,0.0010755808314583,-0.0010755807128828,0.001075581389918,-0.0010755809456956,0.0010755816227142,-0.00099186914058007,0.00099187044481628,-0.00099186943067768,0.00099187073499619,5.1799072741623e-11,-1.6468006772337e-09,-4.9984097348721e-11,-1.3347497419528e-09,-0.0011521340696818,0.0011521320122673,-0.0013257144956589,0.001325713874078,-0.0013257153372137,0.001325713838238,-0.0013257154732247,0.0013257136277666,-0.0013257163147826,0.001325713591968,-0.0011793949989553,0.0011793947560681,-0.001179395640771,0.0011793929473191,-0.0011025956713993,0.0011025950693694,-0.0011025975632522,0.0011025936478001,-6.869013001662e-10,-6.8688553561838e-10,-0.001152133905751,0.0011521321762016,-1.0739326055078e-09,1.1959345238447e-10,-0.0013257150896653,0.0013257133673357,-0.001325715092665,0.0013257141387591,-0.0013257153806377,0.0013257136583054,-0.0013257153897934,0.0013257144358773,-0.0011025961726007,0.0011025949705422,-0.0011025960164267,0.0011025948144068,0.47156008474719,125301,3014,0.0038409685575698,0.0047889578315828,0.0047889578315901,41.433736660368,0.00024666989328295,0.00024666989328295,0.00024666989328295,3812337.9734174,0.013509831655499
9419200,0.94943601463326,0.01452768327269,0.0043387690709572,0.0050944571008611,0.0050944571008718,-0.00093080184731553,0.00093080350631363,1.0015585768377e-09,1.0015751764188e-09,9.1276061123105e-11,1.883802813926e-09,-0.0010987119217264,0.0010987130183793,-0.0010987120521863,0.0010987131487964,-0.0010987115474633,0.0010987137744683,-0.0010987116816525,0.001098713908639,-0.0010011543428051,0.0010011570834095,-0.0010011546383662,0.0010011573790556,6.1406452858584e-10,-1.2320732590977e-09,8.4684339745025e-10,-1.2065306388018e-09,-0.0011630062846407,0.0011630055302915,-0.001352407644519,0.0013524085115217,-0.0013524086204307,0.0013524080938988,-0.0013524085443356,0.0013524080810167,-0.0013524095202506,0.0013524076634343,-0.0011920515261264,0.0011920530604449,-0.001192052875714,0.0011920504561327,-0.001114188309577,0.0011141886335214,-0.0011141903648884,0.0011141870779961,-1.2419260976573e-10,-1.2417706041722e-10,-0.0011630060609168,0.0011630057540187,-8.9392931466129e-10,1.0752887191383e-09,-0.0013524084764653,0.0013524077837609,-0.0013524080881426,0.0013524086835895,-0.001352408624284,0.0013524079315763,-0.0013524082481291,0.001352408843566,-0.0011141885623369,0.0011141887980426,-0.0011141884020193,0.0011141886377646,0.40621133923259,125301,3014,0.0038720844000859,0.0048340618356283,0.004834061835635,41.145224881365,0.00024436179905092,0.00024436179905092,0.00024436179905092,3649162.1087338,0.01363289585203
10419200,0.97049410800433,0.014734238902106,0.004403026423997,0.0051656062390493,0.0051656062390597,-0.00092867583558419,0.000928681008978,2.3888534528433e-09,2.3888699829559e-09,1.3091835387239e-09,3.3875731223194e-09,-0.0011046393137379,0.0011046434683886,-0.0011046392599974,0.0011046434146056,-0.0011046386829037,0.001104644143537,-0.0011046386349851,0.0011046440956005,-0.0010005110640153,0.0010005168263148,-0.0010005113478349,0.0010005171102195,1.6238476318238e-09,-4.3880144708979e-10,2.2324995383053e-09,-7.194369576193e-10,-0.0011618093518413,0.0011618110398954,-0.0013591344435347,0.0013591378448198,-0.0013591355182286,0.001359136913162,-0.001359135163023,0.001359137065639,-0.0013591362377186,0.0013591361340202,-0.0011925198558048,0.0011925241718964,-0.0011925220138962,0.0011925206218539,-0.0011144159306614,0.0011144180964567,-0.0011144182012232,0.0011144163169812,8.7531087450068e-10,8.7532635464542e-10,-0.0011618090520813,0.0011618113396583,-3.4922258896021e-10,2.5338132379213e-09,-0.0013591355715923,0.0013591368593541,-0.0013591346522054,0.0013591378426618,-0.0013591354273667,0.0013591367151252,-0.0013591345307497,0.0013591377211958,-0.0011144158741266,0.0011144185268024,-0.0011144157461838,0.0011144183988991,0.43665130715676,125301,3014,0.0038633371086711,0.0048291143946216,0.0048291143946276,38.097844705984,0.00021998275764787,0.00021998275764787,0.00021998275764787,3567939.2116673,0.013614054879068
11419200,0.98265727174556,0.014844970315335,0.0044377835862032,0.0052035933645606,0.0052035933645709,-0.00092672005583301,0.00092672253695938,1.3294077127716e-09,1.3294242820596e-09,2.8136152848079e-10,2.3426058697193e-09,-0.001111781398265,0.001111783146242,-0.0011117814713272,0.0011117832192611,-0.0011117808845131,0.0011117839331695,-0.0011117809597801,0.0011117840084184,-0.00099907529200395,0.00099907882213903,-0.00099907560061657,0.00099907913083749,1.0640063615458e-09,-1.0313017614097e-09,1.903125529457e-09,-1.5743319145984e-09,-0.0011582348769546,0.0011582349773348,-0.0013640015980069,0.0013640037795188,-0.001364002954707,0.001364002803547,-0.0013640025120132,0.0013640031983796,-0.0013640038687143,0.0013640022224464,-0.0011903370740942,0.0011903406481427,-0.0011903397742231,0.0011903366017911,-0.0011130689739922,0.001113069767559,-0.0011130712922994,0.0011130679768667,2.940372903332e-10,2.9405279627127e-10,-0.0011582345696097,0.0011582352846823,-1.1674058679344e-09,2.2172090993134e-09,-0.0013640028613841,0.0013640026172348,-0.001364001916932,0.0013640039017006,-0.0013640029398627,0.0013640026957107,-0.0013640020099272,0.0013640039946855,-0.0011130688020569,0.0011130703863848,-0.0011130686256857,0.001113070210053,0.40445605707229,125301,3014,0.0038552851759878,0.0048143097159928,0.0048143097159981,37.627743404105,0.00021622194723284,0.00021622194723284,0.00021622194723284,3429966.6825778,0.013575956005296
12419200,0.98963394824105,0.014916667872213,0.0044605775101176,0.0052280451810425,0.0052280451810528,-0.00092528388588515,0.00092528687529827,1.5260880827625e-09,1.5261046221984e-09,4.6100741331938e-10,2.5475302535818e-09,-0.0011137304186828,0.001113732614826,-0.0011137304613765,0.001113732657477,-0.0011137298697543,0.0011137333805704,-0.0011137299143967,0.0011137334251948,-0.00099825443144398,0.00099825839100063,-0.00099825474181449,0.00099825870145718,1.2184628294666e-09,-8.8910461528416e-10,2.2851601510625e-09,-1.6463064260189e-09,-0.0011561979343535,0.0011561984414646,-0.0013652707949292,0.00136527349332,-0.0013652722628814,0.0013652723277237,-0.0013652716752529,0.0013652728663727,-0.0013652731432061,0.0013652717008143,-0.0011891275061266,0.0011891318517753,-0.0011891306357267,0.0011891273447431,-0.001112055379043,0.0011120563550341,-0.0011120577131954,0.0011120545539625,4.7562646073223e-10,4.7564196578797e-10,-0.0011561975978036,0.001156198778017,-1.2084959238967e-09,2.6289661835053e-09,-0.0013652721864393,0.0013652722066866,-0.0013652710516779,0.0013652736021515,-0.0013652722210473,0.0013652722412916,-0.0013652711024235,0.0013652736528872,-0.0011120550308349,0.0011120571515885,-0.0011120548550746,0.0011120569758671,0.45322610794666,125301,3014,0.00384935087931,0.0048058709184747,0.0048058709184799,36.80352482116,0.00020962819856928,0.00020962819856928,0.00020962819856928,3383112.9898717,0.013552859406533
13419200,0.99353055158963,0.014953335825869,0.0044722771853889,0.0052405293202349,0.0052405293202451,-0.00091870706081782,0.00091871150251123,2.0915258161455e-09,2.0915423979037e-09,9.8280961182628e-10,3.1407311231583e-09,-0.0011129193728741,0.0011129227916285,-0.0011129193430604,0.0011129227617722,-0.001112918734364,0.0011129235098714,-0.0011129187069409,0.0011129234824304,-0.00099187406366744,0.00099187925193328,-0.00099187437015592,0.00099187955850847,1.6408397301922e-09,-5.2031742553297e-10,2.9241518820638e-09,-1.4676342918982e-09,-0.0011477655898733,0.0011477671755065,-0.001362218151428,0.0013622219245017,-0.0013622196894924,0.001362220518675,-0.0013622189511185,0.0013622211717074,-0.0013622204891837,0.0013622197659184,-0.0011815563283828,0.0011815619797909,-0.0011815598711074,0.0011815569859941,-0.0011052650985131,0.0011052668296146,-0.0011052674809399,0.0011052649656064,8.8305272487482e-10,8.8306827328218e-10,-0.001147765247073,0.0011477675183093,-1.0273916130973e-09,3.2730759385121e-09,-0.001362219708962,0.0013622204820657,-0.001362218330457,0.0013622219434638,-0.0013622196325605,0.0013622204056616,-0.0013622182729808,0.001362221885978,-0.0011052646013501,0.0011052677506823,-0.0011052644411463,0.0011052675905169,0.4150894025916,125301,3014,0.0038220982050121,0.004770924078221,0.004770924078226,34.792804666049,0.00019354243732839,0.00019354243732839,0.00019354243732839,3291199.2626962,0.013454454466123
14419200,0.99578061865804,0.014972925306982,0.0044785700824579,0.0052471776122567,0.0052471776122669,-0.00091350522597091,0.00091350989212774,2.1777464961924e-09,2.1777630506572e-09,1.0363230722327e-09,3.2540399789888e-09,-0.0011082246467542,0.001108228268883,-0.0011082246010118,0.001108228223098,-0.0011082239757185,0.00110822899168,-0.0011082239318643,0.0011082289478078,-0.00098698787096042,0.00098699326170524,-0.00098698818437108,0.00098699357520248,1.7217212834095e-09,-4.8898887747177e-10,3.2071115654643e-09,-1.6302495357103e-09,-0.0011425313665214,0.0011425331157635,-0.0013575685227395,0.0013575726233912,-0.0013575701858738,0.0013575710492322,-0.0013575693192773,0.0013575718327856,-0.0013575709824123,0.0013575702586641,-0.0011765815040304,0.0011765877037606,-0.0011765854820714,0.0011765822708689,-0.0011002317671016,0.0011002335207689,-0.0011002342082578,0.001100231616666,9.8299033670232e-10,9.8300585096366e-10,-0.0011425309833935,0.0011425334988938,-1.145921864256e-09,3.5973311323856e-09,-0.001357570198304,0.0013575710642492,-0.0013575686520168,0.0013575726518663,-0.0013575700986607,0.0013575709646033,-0.0013575685724701,0.0013575725723099,-0.0011002311116891,0.0011002346164713,-0.0011002309443192,0.00110023444914,0.38312450045663,125301,3014,0.0038005095190236,0.0047492184391151,0.0047492184391201,32.641991751188,0.0001763359340095,0.0001763359340095,0.0001763359340095,3287418.329891,0.013388581471064
15419200,0.99695221602214,0.014986595718239,0.0044829680984573,0.0052518138098858,0.005251813809896,-0.00090179243477591,0.00090180103000468,3.7178128594868e-09,3.7178294188339e-09,2.4208565708464e-09,4.8941453688949e-09,-0.0010969743366452,0.0010969813534243,-0.0010969740925722,0.0010969811093085,-0.0010969734058511,0.0010969819712631,-0.0010969731660827,0.0010969817314766,-0.00097563546000791,0.00097564419220231,-0.00097563576000439,0.00097564449228537,2.7842301084137e-09,3.8527971539563e-10,4.5709482646461e-09,-9.909922357811e-10,-0.0011313710008317,0.001131375405401,-0.0013468550972041,0.0013468618111308,-0.0013468567944583,0.0013468597709295,-0.0013468556803198,0.0013468606531764,-0.0013468573775745,0.0013468586130127,-0.0011656884449181,0.0011656974142894,-0.0011656930651284,0.001165691211392,-0.0010891693557777,0.0010891731353636,-0.0010891719765056,0.001089171026675,2.0335893185658e-09,2.033604789299e-09,-0.0011313705560624,0.0011313758501727,-4.657611547282e-10,5.0188458024411e-09,-0.001346857023357,0.0013468600430931,-0.0013468549939705,0.0013468616475753,-0.0013468566035291,0.0013468596232628,-0.0013468546047639,0.0013468612583589,-0.001089168440922,0.0010891744270739,-0.0010891683179766,0.0010891743041674,0.51103778709309,125301,3014,0.0037519050087706,0.0047029405806235,0.0047029405806285,27.064887057943,0.00013171909646354,0.00013171909646354,0.00013171909646354,3301575.9237615,0.013245546220712
16419200,0.99770448566508,0.014994564142832,0.0044855285568242,0.0052545177929987,0.0052545177930089,-0.00089201054631963,0.00089201583555254,2.4169776215222e-09,2.4169943073654e-09,1.1820142669226e-09,3.5899951913465e-09,-0.0010944942093582,0.0010944982569136,-0.0010944941357686,0.0010944981832814,-0.0010944934492557,0.0010944990124746,-0.0010944933762595,0.0010944989394604,-0.00096585369716729,0.00096585967023136,-0.00096585401465467,0.00096585998780601,2.014978434583e-09,-3.8785821190007e-10,3.9037569875544e-09,-1.9172936896921e-09,-0.0011185427391956,0.0011185450331848,-0.0013408754283144,0.0013408803293262,-0.001340877371214,0.0013408783884634,-0.001340876249516,0.0013408794364928,-0.0013408781924159,0.0013408774956674,-0.0011538342761272,0.0011538418236256,-0.0011538391883404,0.0011538353947304,-0.0010785450396459,0.0010785470919971,-0.0010785476684929,0.0010785449920746,1.2047792495268e-09,1.2047947817582e-09,-0.0011185423324447,0.001118545439938,-1.3983750783071e-09,4.3189812773955e-09,-0.0013408774333091,0.0013408784332292,-0.0013408755255879,0.0013408803055232,-0.0013408772974914,0.0013408782974093,-0.0013408754095188,0.0013408801894447,-0.0010785441294652,0.0010785484394429,-0.0010785439625604,0.0010785482725762,0.46538451425637,125301,3014,0.0037113454774459,0.00464976334093,0.0046497633409346,24.416019419759,0.00011052815535808,0.00011052815535808,0.00011052815535808,3177395.3501208,0.013096773670801
17419200,0.9982097057216,0.015000639371672,0.0044874973926217,0.0052565709895199,0.0052565709895301,-0.0008858354354346,0.00088584055708259,2.3521872973809e-09,2.3522039344609e-09,1.1168959813444e-09,3.5236341704389e-09,-0.0010872829396807,0.0010872868671049,-0.0010872828616804,0.0010872867890619,-0.0010872821776487,0.0010872876183914,-0.0010872821002331,0.0010872875409579,-0.00095995497347744,0.00095996080297623,-0.0009599552912136,0.00095996112079982,1.9720801725273e-09,-4.2613064799937e-10,3.8740677727395e-09,-1.9670433696137e-09,-0.00111257424138,0.0011125764276585,-0.0013338859349923,0.0013338907754668,-0.0013338878794223,0.0013338888227522,-0.0013338867508703,0.0013338898789812,-0.0013338886953002,0.0013338879263035,-0.0011480130351591,0.001148020515277,-0.0011480179676782,0.0011480140672079,-0.0010726995788705,0.0010727015295968,-0.0010727022033263,0.0010726994349631,1.1882059898579e-09,1.1882214716497e-09,-0.0011125738123321,0.0011125768567087,-1.4247194279759e-09,4.3114607291872e-09,-0.0013338879255148,0.001333888895555,-0.0013338860060658,0.0013338907685071,-0.0013338877836417,0.0013338887536794,-0.0013338858843978,0.0013338906468297,-0.0010726986362818,0.0010727029099249,-0.0010726984688232,0.0010727027425048,0.52521873377382,125301,3014,0.0036857034536431,0.0046250041673681,0.0046250041673728,21.978113717505,9.102490974004e-05,9.102490974004e-05,9.102490974004e-05,3194757.8286248,0.013020614499616
18419200,0.99852368509238,0.015004263037941,0.0044886709048761,0.0052577960665272,0.0052577960665374,-0.00087369485994543,0.00087370226442069,3.2353800052441e-09,3.2353966578236e-09,1.948852340487e-09,4.4295852820779e-09,-0.0010789105642267,0.0010789164460717,-0.0010789103776541,0.0010789162594565,-0.001078909679743,0.0010789171169417,-0.0010789094950542,0.0010789169322353,-0.00094802826815963,0.00094803600986316,-0.00094802858738944,0.00094803632918037,2.5829321997475e-09,1.4507799015632e-10,4.655599147304e-09,-1.5300099727891e-09,-0.0010991670164622,0.0010991708341644,-0.0013241782334349,0.0013241845856189,-0.0013241801771113,0.0013241823928696,-0.0013241789172523,0.001324183515706,-0.0013241808609286,0.0013241813229935,-0.001135167761439,0.0011351768706349,-0.0011351729969523,0.0011351700548423,-0.0010602021127137,0.0010602052709323,-0.0010602047805802,0.0010602031337731,1.789532299899e-09,1.7895478277187e-09,-0.0010991665867298,0.0010991712638989,-9.9955976906165e-10,5.0917965377874e-09,-0.0013241803643668,0.0013241825856498,-0.0013241781957482,0.001324184449428,-0.0013241800557298,0.0013241822770104,-0.0013241779122077,0.0013241841658782,-0.0010602010568973,0.0010602067463896,-0.001060200904768,0.0010602065942981,0.50516361584657,125301,3014,0.0036353313359695,0.0045694138511651,0.0045694138511695,17.482211905964,5.5057695247708e-05,5.5057695247708e-05,5.5057695247708e-05,3138156.1219497,0.012857011198107
19419200,0.99878359599471,0.015008161892197,0.0044899381550104,0.0052591118685884,0.0052591118685986,-0.00087271249875132,0.00087271547968896,1.5287558667341e-09,1.5287724763444e-09,3.046025431014e-10,2.7029891795066e-09,-0.0010776179453935,0.0010776199565389,-0.00107761775565,0.0010776197667529,-0.0010776170883917,0.0010776205950308,-0.0010776169005252,0.0010776204071465,-0.00094718823280419,0.00094719208865353,-0.0009471885513581,0.00094719240729485,1.6213470664018e-09,-8.6987447753476e-10,3.6711218240401e-09,-2.5454991027283e-09,-0.0010979538283141,0.0010979549077051,-0.0013226867290817,0.0013226907718347,-0.0013226886791942,0.0013226885648703,-0.0013226874279821,0.0013226896785463,-0.0013226893780945,0.0013226874716185,-0.0011340924541157,0.0011340992716628,-0.0011340977202657,0.0011340924256338,-0.0010591403732236,0.0010591412762925,-0.0010591430873606,0.0010591390962363,8.0090782172758e-10,8.0092330998972e-10,-0.0010979533874889,0.0010979553485324,-1.9656686593629e-09,4.1057025731194e-09,-0.0013226888608367,0.0013226887720017,-0.0013226866958664,0.0013226906238447,-0.001322688547214,0.0013226884583766,-0.0013226864076083,0.0013226903355773,-0.0010591393347805,0.0010591427375262,-0.0010591391809071,0.0010591425836908,0.65325215552174,125301,3014,0.0036312386630287,0.0045643749641322,0.0045643749641365,17.551538115984,5.5612304927869e-05,5.5612304927869e-05,5.5612304927869e-05,3130012.4651755,0.0128426526754
20419200,0.99900977983825,0.015011795315233,0.0044911194256826,0.0052603379447703,0.0052603379447805,-0.00087055228520806,0.00087055351513008,8.2342433583412e-10,8.2344105679389e-10,-2.9346752672439e-10,1.9339910173137e-09,-0.0010820391896032,0.0010820397517783,-0.0010820393109314,0.0010820398730641,-0.0010820386626649,0.0010820406327478,-0.001082038780958,0.0010820407510235,-0.00094489635424416,0.00094489889166492,-0.00094489671231833,0.00094489924982741,1.0028773141942e-09,-1.282827917109e-09,3.0260004394811e-09,-3.0030093011008e-09,-0.0010918195721631,0.0010918192447255,-0.0013230018541467,0.0013230045454074,-0.0013230040518671,0.0013230027483529,-0.001323002913411,0.0013230039982449,-0.0013230051111311,0.0013230022012268,-0.001128765705162,0.0011287714087745,-0.0011287708955193,0.0011287648389563,-0.0010551430048936,0.0010551428168556,-0.0010551455602063,0.0010551408864339,2.0550149880557e-10,2.0551705544797e-10,-0.0010918191929858,0.0010918196239047,-2.4791227947209e-09,3.4196777857792e-09,-0.0013230038923726,0.001323002569107,-0.0013230021495521,0.0013230047182941,-0.0013230040789777,0.0013230027557099,-0.0013230023455724,0.0013230049143054,-0.0010551420821024,0.0010551443148683,-0.001055141832556,0.0010551440653596,0.70012779305902,125301,3014,0.0036223032617726,0.0045389623329068,0.0045389623329108,18.596331012715,6.3970648101722e-05,6.3970648101722e-05,6.3970648101722e-05,2999540.8502408,0.012782197812328
21419200,0.99916369355824,0.015014095469725,0.0044918729241536,0.0052611112727804,0.0052611112727906,-0.00086003805968294,0.00086004430836178,2.7692578880724e-09,2.7692746126203e-09,1.5807096185238e-09,3.8828413011135e-09,-0.0010738962863557,0.0010739011773321,-0.0010738961484524,0.0010739010393866,-0.0010738955019186,0.0010739018335687,-0.0010738953649149,0.0010739016965475,-0.00093462129368369,0.00093462800827717,-0.00093462163246551,0.00093462834714783,2.2896528092032e-09,8.5348534131456e-12,4.4535535041271e-09,-1.7716664219197e-09,-0.0010796676892881,0.0010796709217263,-0.0013132155287184,0.0013132213145102,-0.0013132175271807,0.0013132191574577,-0.0013132162410711,0.0013132203843614,-0.0013132182395329,0.0013132182273448,-0.0011171446678224,0.0011171534096578,-0.001117149959198,0.0011171465687709,-0.0010440135067357,0.0010440160466175,-0.0010440160374521,0.0010440140845455,1.5264758686806e-09,1.5264914249407e-09,-0.0010796673009251,0.0010796713100912,-1.2732825704297e-09,4.849928628186e-09,-0.0013132176744603,0.0013132192845586,-0.0013132155483625,0.0013132212094848,-0.0013132174604952,0.0013132190705914,-0.0013132153556074,0.0013132210167206,-0.0010440124350908,0.0010440175908758,-0.0010440122509756,0.0010440174067977,0.64990944923705,125301,3014,0.0035786717124423,0.0044885751377857,0.0044885751377897,15.22877109404,3.7030168752319e-05,3.7030168752319e-05,3.7030168752319e-05,2953579.5908377,0.012635976045479
22419200,0.99929108093946,0.015016051155938,0.0044925153698833,0.0052617678930222,0.0052617678930323,-0.0008584333603419,0.00085843674381318,1.6685126159378e-09,1.6685292622822e-09,5.1810115748293e-10,2.7696005626628e-09,-0.0010709232532106,0.0010709256587113,-0.0010709231117622,0.0010709255172207,-0.0010709224849027,0.0010709262937578,-0.0010709223443605,0.0010709261531982,-0.00093309186447787,0.0009330960671613,-0.00093309220560335,0.00093309640837542,1.6679294004191e-09,-6.4509679052079e-10,3.8188221722078e-09,-2.4262690418564e-09,-0.0010782471323837,0.0010782485866973,-0.0013103620238799,0.0013103663311574,-0.0013103640249812,0.0013103641633322,-0.0013103627435935,0.0013103653848124,-0.0013103647446943,0.0013103632170232,-0.0011157187424909,0.001115726001166,-0.0011157240569575,0.0011157191445022,-0.0010425651225913,0.0010425661985679,-0.0010425676837553,0.0010425642144364,9.0132486705577e-10,9.0134035099451e-10,-0.00107824672514,0.0010782489939429,-1.8848315728216e-09,4.2261094600069e-09,-0.001310364159147,0.0013103643132544,-0.001310362033312,0.0013103662288703,-0.0013103639394613,0.0013103640935666,-0.0013103618352079,0.0013103660307573,-0.0010425640509913,0.0010425677504799,-0.0010425638630147,0.0010425675625408,0.6664256214451,125301,3014,0.0035719925409079,0.004482674330475,0.0044826743304787,14.859363829142,3.4074910633138e-05,3.4074910633138e-05,3.4074910633138e-05,2973085.4248831,0.012617244159015
23419200,0.99940419507157,0.015017687268754,0.0044930526422883,0.005262317313228,0.0052623173132382,-0.00085827660163366,0.0008582783568002,1.0374664614059e-09,1.0374831031034e-09,-9.5093744921956e-11,2.1389893995921e-09,-0.0010714178928757,0.0010714188788621,-0.0010714178648496,0.0010714188507939,-0.00107141723354,0.0010714196193972,-0.0010714172049386,0.0010714195907783,-0.00093309059428335,0.00093309338073508,-0.00093309103049814,0.00093309381703818,1.215008343652e-09,-1.0846173210107e-09,3.3581683822675e-09,-2.8746604234128e-09,-0.0010773603223647,0.001077360560657,-0.0013101891118291,0.0013101923573886,-0.0013101912213516,0.0013101903166287,-0.0013101899882516,0.0013101915925789,-0.0013101920977737,0.001310189551855,-0.0011151138133937,0.0011151200362381,-0.0011151192283844,0.0011151133024471,-0.0010420086640544,0.0010420087095388,-0.001042011336944,0.0010420068695545,4.4265095593479e-10,4.4266643902062e-10,-0.0010773599211633,0.0010773609618602,-2.3316744271821e-09,3.7646169892263e-09,-0.0013101912298378,0.001310190337504,-0.0013101892358872,0.001310192373593,-0.0013101911921353,0.0013101902997996,-0.0013101892156533,0.00131019235335,-0.0010420077339744,0.0010420103895323,-0.0010420074084168,0.0010420100640123,0.6287572963922,125301,3014,0.0035713319976917,0.0044789939520132,0.0044789939520169,15.704928101544,4.0839424812349e-05,4.0839424812349e-05,4.0839424812349e-05,2925084.4037755,0.01260912967149
24419200,0.99951096809012,0.015019317533056,0.0044935886234175,0.005262864454814,0.0052628644548241,-0.00086285808310931,0.00086285807621213,3.3712471780658e-10,3.3714131338783e-10,-6.7546893582885e-10,1.3548595998222e-09,-0.0010754321942611,0.0010754317527027,-0.0010754323692567,0.0010754319276558,-0.0010754317801289,0.0010754326199104,-0.0010754319510639,0.0010754327908278,-0.00093746652450446,0.00093746796694135,-0.00093746689747012,0.00093746833999521,6.3031441628003e-10,-1.471100894962e-09,2.7009023103969e-09,-3.2562678047905e-09,-0.0010816534583542,0.0010816523567333,-0.0013137929620859,0.0013137949302594,-0.0013137951865748,0.0013137932148187,-0.0013137940435934,0.0013137945340834,-0.0013137962680815,0.0013137928186786,-0.0011192321298481,0.001119237205732,-0.0011192372771297,0.0011192307308545,-0.0010463296218627,0.0010463286679568,-0.0010463320117181,0.0010463269407003,-7.011130603008e-11,-7.0095833796864e-11,-0.0010816530705719,0.0010816527445175,-2.7141418174188e-09,3.1054113081838e-09,-0.0013137949278451,0.0013137930156231,-0.0013137932723748,0.0013137951966781,-0.00131379520771,0.001313793295486,-0.0013137935591335,0.0013137954834279,-0.0010463286501916,0.0010463302623679,-0.0010463283735852,0.0010463299857992,0.66255127740754,125301,3014,0.0035903391726244,0.0044967969234468,0.0044967969234508,17.879529121102,5.8236232968817e-05,5.8236232968817e-05,5.8236232968817e-05,2934144.3648417,0.012664422711417
25419200,0.99960831710068,0.01502106979399,0.0044941646661095,0.005263452563935,0.0052634525639452,-0.00086585242163376,0.00086585255195898,3.8987436425285e-10,3.8989100165636e-10,-5.6237903088311e-10,1.3440697999726e-09,-0.0010802711127648,0.0010802708250753,-0.0010802712808861,0.0010802709931542,-0.0010802707315614,0.001080271644711,-0.001080270896218,0.0010802718093499,-0.0009403155483279,0.00094031706583362,-0.00094031591674666,0.0009403174343407,6.2478718475681e-10,-1.3521899883016e-09,2.6575744280454e-09,-3.0997909564098e-09,-0.0010831168391409,0.0010831158768157,-0.0013170689823722,0.001317070961049,-0.0013170711363281,0.0013170693042861,-0.001317070015719,0.0013170705963179,-0.0013170721696741,0.0013170689395909,-0.0011208852019381,0.0011208902440419,-0.0011208901475619,0.0011208839600922,-0.0010484729950114,0.0010484721069098,-0.0010484752578459,0.0010484704982392,-4.5460044256265e-11,-4.5444571817173e-11,-0.0010831164823023,0.001083116233656,-2.5932671307634e-09,3.030309952361e-09,-0.0013170708949845,0.001317069103312,-0.0013170692959798,0.0013170712114946,-0.0013170711649326,0.0013170693732579,-0.0013170695729865,0.0013170714884922,-0.0010484720543181,0.0010484736595668,-0.001048471783518,0.0010484733888042,0.77991302017261,125301,3014,0.0036027774391807,0.0045028789189197,0.0045028789189232,19.924626842148,7.4597014737188e-05,7.4597014737188e-05,7.4597014737188e-05,2887078.0295972,0.012689358267542
26419200,0.99968814691391,0.015022599228312,0.0044946686199447,0.0052639653041788,0.0052639653041889,-0.0008636535262276,0.00086365547525446,1.0953339407117e-09,1.0953507033467e-09,1.4303184394594e-10,2.0256612147345e-09,-0.0010826655228464,0.0010826668173976,-0.0010826655979433,0.0010826668924522,-0.0010826650646204,0.0010826675393449,-0.0010826651380722,0.0010826676127789,-0.00093802656553517,0.00093802957854764,-0.00093802693340746,0.00093802994650844,1.0899452964193e-09,-8.3809812143688e-10,3.1350992534346e-09,-2.5684661505973e-09,-0.0010776325327416,0.0010776329076594,-0.0013162419813067,0.0013162450614909,-0.0013162440241669,0.0013162433162655,-0.0013162428758547,0.001316244575814,-0.0013162449187135,0.0013162428306247,-0.0011159744424864,0.0011159805241515,-0.0011159793057587,0.0011159742686635,-0.0010445665353971,0.001044566674704,-0.0010445687518616,0.0010445651104402,4.2169837343357e-10,4.2171384269629e-10,-0.0010776322050328,0.0010776332353697,-2.1066175600296e-09,3.4755168985209e-09,-0.0013162439158848,0.0013162432016191,-0.0013162422189352,0.0013162451886703,-0.0013162440439715,0.0013162433297037,-0.001316242357914,0.00131624532764,-0.0010445656016167,0.0010445682019114,-0.0010445653450276,0.0010445679453599,0.82922923068302,125301,3014,0.003593673814974,0.0044801608617641,0.0044801608617673,20.393668119865,7.8349344958918e-05,7.8349344958918e-05,7.8349344958918e-05,2793128.9725043,0.012634179663183
27419200,0.99975776398886,0.01502380232542,0.0044950670629144,0.0052643676312475,0.0052643676312577,-0.00086499941596528,0.00086499976502147,4.7100760586448e-10,4.7102437161701e-10,-4.2556513774775e-10,1.3657296576906e-09,-0.0010858159802682,0.0010858159157933,-0.0010858161359534,0.0010858160714362,-0.0010858156242701,0.0010858166850042,-0.0010858157771863,0.0010858168379031,-0.00093932458699709,0.00093932624167307,-0.00093932496513542,0.0009393266199003,6.5351617021198e-10,-1.2066488693708e-09,2.6493869536032e-09,-2.9122267011304e-09,-0.0010768196127592,0.001076818880674,-0.0013172794357672,0.0013172815061999,-0.0013172815128312,0.0013172798985599,-0.0013172804192551,0.0013172811656885,-0.0013172824963179,0.0013172795580841,-0.0011154630724088,0.001115468151723,-0.0011154678271652,0.0011154620622407,-0.0010446652201304,0.0010446644673135,-0.0010446673822227,0.0010446629881699,-1.0547077499905e-12,-1.0392433106538e-12,-0.0010768192982181,0.0010768191952166,-2.4534219777456e-09,2.9786171519818e-09,-0.0013172813094292,0.0013172796908647,-0.0013172797570371,0.0013172817196548,-0.0013172815656044,0.0013172799470381,-0.0013172800202844,0.0013172819828934,-0.0010446643418548,0.0010446659840785,-0.0010446640582286,0.0010446657004893,0.74718867332313,125301,3014,0.0035992581194654,0.0044767982802264,0.0044767982802296,22.251072442015,9.3208579536116e-05,9.3208579536116e-05,9.3208579536116e-05,2739638.038639,0.01263303962507
28419200,0.99981498425043,0.015024930166034,0.0044954414032954,0.0052647443813642,0.0052647443813743,-0.00086729330825782,0.00086729442799171,7.6978988453567e-10,7.6980658440785e-10,-1.2129669748386e-10,1.6450654529973e-09,-0.0010856374876232,0.0010856381149636,-0.0010856376008531,0.0010856382281514,-0.0010856371022985,0.0010856388357146,-0.0010856372134698,0.0010856389468687,-0.00094165129503613,0.00094165357953977,-0.00094165167153908,0.00094165395613159,8.3071958933479e-10,-9.8716858390165e-10,2.8176171721481e-09,-2.6718519004724e-09,-0.0010799962478817,0.0010799960633502,-0.001317814150951,0.0013178166698189,-0.001317816162231,0.0013178150385114,-0.0013178150668279,0.0013178162827368,-0.0013178170781066,0.0013178146514646,-0.001118467645243,0.0011184731034222,-0.001118472320852,0.0011184670785999,-0.0010474318581796,0.0010474315171693,-0.0010474339772635,0.001047430076361,2.1509939812574e-10,2.1511478442041e-10,-0.0010799959204003,0.0010799963908331,-2.2068324742974e-09,3.1589247389588e-09,-0.0013178159913519,0.0013178148985045,-0.0013178144107026,0.0013178168566748,-0.0013178161832286,0.001317815090379,-0.0013178146119726,0.0013178170579358,-0.0010474309580927,0.0010474330417805,-0.0010474306842945,0.0010474327680196,0.8493285419621,125301,3014,0.0036087614803256,0.0044899597262579,0.0044899597262611,23.440626309657,0.00010272501047726,0.00010272501047726,0.00010272501047726,2769576.1142224,0.012669285647943
29419200,0.99986147938189,0.015025583415327,0.0044956582303143,0.0052649625925014,0.0052649625925115,-0.00086781804843904,0.00086781899501542,7.0167494010635e-10,7.0169171038814e-10,-1.694623645705e-10,1.5617606526223e-09,-0.0010899645751851,0.001089965050951,-0.0010899646987991,0.0010899651745227,-0.0010899642094224,0.0010899657694667,-0.0010899643310579,0.0010899658910847,-0.00094195780008208,0.00094195992929899,-0.00094195817962597,0.00094196030893223,7.9085246949601e-10,-9.9934837680998e-10,2.7567103677991e-09,-2.6657249683894e-09,-0.0010775984190942,0.001077598153151,-0.0013193016592564,0.0013193040652312,-0.0013193036590022,0.0013193024669097,-0.0013193025802485,0.0013193037032251,-0.0013193045799927,0.0013193021049386,-0.0011164270877483,0.0011164324310113,-0.0011164316990475,0.0011164264731719,-0.0010462626102634,0.0010462622066761,-0.0010462647055655,0.0010462607972338,1.6042157461337e-10,1.6043699290705e-10,-0.0010775981178243,0.0010775984544223,-2.2270783088599e-09,3.0715248933611e-09,-0.0013193034960284,0.0013193022947149,-0.0013193019489501,0.0013193042418086,-0.0013193037058171,0.0013193025045021,-0.0013193021671174,0.0013193044599673,-0.001046261752445,0.0010462636997676,-0.0010462614720561,0.0010462634194157,0.60881578646039,125301,3014,0.00361095424701,0.0044800395743219,0.0044800395743247,24.77949711667,0.00011343597693336,0.00011343597693336,0.00011343597693336,2687288.8451888,0.012651461876295
30419200,0.99989846597158,0.015026024002782,0.0044958050746662,0.0052651094640527,0.0052651094640629,-0.00087354002447573,0.00087354094557271,6.9187980584098e-10,6.918964110984e-10,-1.735389056232e-10,1.5391632187525e-09,-0.0010875682931695,0.0010875687842603,-0.0010875684130376,0.0010875689040861,-0.0010875679320267,0.0010875694945791,-0.0010875680497912,0.0010875696123258,-0.00094798123762333,0.0009479833373913,-0.00094798161790246,0.00094798371775858,7.4619635197991e-10,-1.0136074354298e-09,2.6956301271822e-09,-2.6646613307609e-09,-0.0010878633348809,0.0010878630008289,-0.0013212254589505,0.0013212278138407,-0.0013212274361351,0.0013212262340953,-0.0013212263679653,0.0013212274586812,-0.0013212283451481,0.0013212258789709,-0.0011260176566689,0.0011260228817686,-0.0011260222182764,0.0011260169963532,-0.001054478064329,0.0010544775859591,-0.0010544801311453,0.0010544762089838,1.8003487376407e-10,1.800501527679e-10,-0.0010878629881249,0.0010878633475865,-2.1805257743461e-09,3.0567425337168e-09,-0.0013212272290929,0.0013212261140396,-0.0013212256996249,0.0013212280378251,-0.001321227432458,0.0013212263174021,-0.001321225912628,0.0013212282508189,-0.0010544771622981,0.0010544791225154,-0.0010544768841882,0.0010544788444431,0.51512748248588,125301,3014,0.0036346605530833,0.0045225670794081,0.0045225670794117,26.130186267021,0.00012424149013616,0.00012424149013616,0.00012424149013616,2825636.5589954,0.01276150645131
31419200,0.99992840756759,0.015026484421545,0.0044959573142827,0.0052652635536262,0.0052652635536363,-0.00088107117807062,0.00088107092278646,2.3290519596496e-10,2.3292175972365e-10,-5.8822204973486e-10,1.0534734912109e-09,-0.0010925950868476,0.0010925945527668,-0.0010925952684473,0.001092594734324,-0.0010925948030037,0.001092595298601,-0.0010925949815842,0.0010925954771638,-0.00095531037897109,0.00095531148148899,-0.00095531075676713,0.00095531185937301,4.2170992972099e-10,-1.2895970378961e-09,2.3151743570089e-09,-2.9072218026174e-09,-0.0010970781010819,0.0010970769392526,-0.0013279275340354,0.0013279291007487,-0.0013279295297746,0.0013279276377134,-0.0013279285084925,0.0013279288524732,-0.0013279305042305,0.0013279273894734,-0.0011347251930224,0.0011347296366195,-0.0011347296353374,0.0011347238995214,-0.0010626821161219,0.0010626809876256,-0.0010626841281876,0.0010626796557523,-1.3444256657776e-10,-1.344272996618e-10,-0.0010970777617355,0.0010970772786007,-2.4225731891255e-09,2.6703203394437e-09,-0.0013279292447381,0.00132792744722,-0.0013279278379201,0.001327929395203,-0.001327929543232,0.0013279277457117,-0.0013279281428727,0.0013279297001464,-0.0010626812503808,0.0010626824894712,-0.0010626809682249,0.0010626822073534,0.66479676253864,125301,3014,0.0036659093250918,0.0045607750014642,0.0045607750014677,28.438034704935,0.00014270427763948,0.00014270427763948,0.00014270427763948,2868930.1028463,0.012870530234805
32419200,0.99995028317044,0.015026880621946,0.004496087927887,0.0052653963470242,0.0052653963470344,-0.00088051178360197,0.0008805132665396,9.1435075371211e-10,9.1436745537836e-10,6.8782686544964e-11,1.7393808804904e-09,-0.0010986021563896,0.0010986031258212,-0.0010986022532491,0.0010986032226379,-0.0010986017858828,0.001098603799267,-0.0010986018815731,0.0010986038949396,-0.00095447370394556,0.0009544762622513,-0.00095447407587094,0.00095447663426562,8.9784531760974e-10,-8.225391670574e-10,2.8037977758235e-09,-2.4241026243852e-09,-0.0010927841923164,0.0010927842984426,-0.0013302676080624,0.0013302702564947,-0.0013302695211272,0.0013302686946686,-0.0013302684689414,0.001330269875642,-0.0013302703820052,0.0013302683138514,-0.0011310194540059,0.0011310249325102,-0.0011310238668203,0.0011310191598798,-0.0010601633860865,0.0010601632799591,-0.0010601654036937,0.0010601619294241,3.0149396477221e-10,3.0150935497852e-10,-0.0010927838939514,0.0010927845968093,-1.9955081717569e-09,3.1145657502131e-09,-0.0013302693796491,0.0013302685602219,-0.0013302678648185,0.0013302704159676,-0.001330269544534,0.0013302687251047,-0.0013302680397295,0.0013302705908699,-0.0010601625453794,0.0010601647293367,-0.0010601622808229,0.0010601644648175,0.7835582016357,125301,3014,0.0036636314129981,0.0045430074092412,0.0045430074092446,29.295269129039,0.00014956215303231,0.00014956215303231,0.00014956215303231,2748182.9871653,0.01283231011732
33419200,0.99996548837452,0.015027166082186,0.0044961825977176,0.0052654917422291,0.0052654917422393,-0.0008774634896105,0.00087746597915325,1.3026623931757e-09,1.3026791825746e-09,4.2514865760329e-10,2.1482207521542e-09,-0.0010998236776885,0.0010998254942029,-0.0010998237230265,0.0010998255394988,-0.0010998232436446,0.0010998261348285,-0.0010998232885532,0.0010998261797197,-0.00095145052667251,0.00095145393188109,-0.00095145090243988,0.0009514543077377,1.1828503087466e-09,-5.7654221179221e-10,3.1183569725106e-09,-2.1886732552393e-09,-0.0010864925317098,0.0010864933772057,-0.0013284641333313,0.0013284674380777,-0.0013284660183471,0.0013284657899787,-0.0013284649398653,0.001328466969962,-0.0013284668248796,0.0013284653218983,-0.0011253229660802,0.0011253290996985,-0.0011253274402781,0.0011253232359115,-0.0010553738914824,0.0010553743751211,-0.0010553759532734,0.0010553729881089,5.6257308160205e-10,5.6258851389531e-10,-0.0010864922419756,0.0010864936669414,-1.7752466600655e-09,3.4189826777349e-09,-0.0013284659550488,0.0013284657003178,-0.0013284643498686,0.0013284675236577,-0.0013284660437647,0.0013284657890318,-0.0013284644504859,0.0013284676242664,-0.0010553730489022,0.0010553758269082,-0.0010553727861288,0.0010553755641718,0.80945760226261,125301,3014,0.0036509982510645,0.0045169395914724,0.0045169395914754,29.317290509026,0.0001497383240722,0.0001497383240722,0.0001497383240722,2663997.1869204,0.012766757606078
34419200,0.99997699501817,0.015027362195117,0.0044962479383824,0.0052655571283624,0.0052655571283725,-0.00088008402914359,0.00088008396841256,3.0851708480895e-10,3.0853384270877e-10,-5.1444859608087e-10,1.1328429050445e-09,-0.0011033045792589,0.0011033042054122,-0.0011033047537708,0.0011033043798819,-0.0011033042864965,0.0011033049451705,-0.0011033044585456,0.0011033051172024,-0.00095399207247979,0.00095399333875994,-0.00095399245777475,0.00095399372414432,5.0756562421503e-10,-1.213536613863e-09,2.3876813064443e-09,-2.8098959289e-09,-0.0010875533009555,0.0010875523478272,-0.0013303993686693,0.0013304010929965,-0.0013304013468831,0.0013303996267475,-0.0013304003380463,0.0013304008319793,-0.0013304023162586,0.0013303993657652,-0.001126534669511,0.0011265392675031,-0.0011265390798895,0.0011265335477106,-0.0010570266991007,0.0010570257629462,-0.0010570287334558,0.0010570244324965,-1.1006532375638e-10,-1.1004988875732e-10,-0.0010875530167794,0.0010875526320047,-2.3839489399963e-09,2.6863173195116e-09,-0.0013304011273128,0.0013303993912193,-0.0013303997158808,0.0013304013205862,-0.0013304014187156,0.0013303996826205,-0.0013304000132076,0.0013304016179044,-0.0010570259160743,0.0010570272080439,-0.0010570256193453,0.001057026911352,0.73398852679868,125301,3014,0.0036618665067509,0.0045213414615279,0.0045213414615309,31.482021074007,0.00016705616859205,0.00016705616859205,0.00016705616859205,2629505.8646248,0.012786684301429
35419200,0.99998601944804,0.015027498306586,0.0044962933849071,0.0052656024608345,0.0052656024608447,-0.00088955874626784,0.00088955583542572,-8.0225887524794e-10,-8.0224219181643e-10,-1.5259781191806e-09,-3.9621669644013e-11,-0.0011103157837733,0.0011103129591732,-0.0011103161053442,0.001110313280702,-0.0011103156751632,0.0011103137871144,-0.0011103159920778,0.0011103141040117,-0.00096330645713737,0.000963305311975,-0.00096330684236315,0.0009633056972896,-2.8420018029961e-10,-1.8886872488587e-09,1.4797993485827e-09,-3.4178468795684e-09,-0.0010975926995078,0.0010975897312695,-0.00133778288391,0.0013377827350431,-0.0013377849126104,0.0013377815353353,-0.0013377840139696,0.0013377827329104,-0.0013377860426685,0.0013377815332377,-0.0011362834703558,0.0011362861991192,-0.0011362876289893,0.0011362808085699,-0.0010666477105691,0.0010666451752043,-0.0010666496260733,0.0010666439661358,-8.6655608104185e-10,-8.6654069677653e-10,-0.0010975924249079,0.0010975900058709,-2.9821313988887e-09,1.7727873121233e-09,-0.0013377845042914,0.0013377811415533,-0.0013377833728105,0.0013377831352549,-0.0013377850252856,0.0013377816625458,-0.0013377838928051,0.0013377836552406,-0.0010666470056661,0.0010666465707675,-0.0010666466865683,0.0010666462517071,0.64952121200817,125301,3014,0.0037011703853728,0.0045629632133797,0.0045629632133827,35.929118317868,0.00020263294654295,0.00020263294654295,0.00020263294654295,2649415.6943064,0.012910772831107
36419200,0.99999179714542,0.01502758975699,0.0044963238784844,0.0052656329392475,0.0052656329392577,-0.00089390284940198,0.00089390344695,5.6357324228312e-10,5.6358986830462e-10,-2.1346213154017e-10,1.3275406990282e-09,-0.0011122408250624,0.0011122410682559,-0.0011122409627005,0.0011122412058517,-0.0011122405339555,0.0011122417385353,-0.0011122406701855,0.0011122418747478,-0.00096759357593036,0.0009675953528562,-0.00096759395415934,0.00096759573117383,6.1878391866002e-10,-9.7985851977791e-10,2.4063412504831e-09,-2.4767145850202e-09,-0.001103276198599,0.0011032757141168,-0.0013409006964288,0.0013409026973887,-0.0013409025382792,0.0013409012958407,-0.0013409015797798,0.0013409024241524,-0.0013409034216286,0.0013409010226396,-0.0011416657287851,0.0011416704326353,-0.0011416698238453,0.0011416650169824,-0.0010716682292861,0.0010716676489529,-0.0010716701346584,0.0010716664300861,6.4604495759354e-11,6.4619847584484e-11,-0.0011032759159043,0.001103275996813,-2.061922718191e-09,2.7022749345321e-09,-0.00134090234352,0.0013409011196706,-0.0013409009909639,0.0013409029065991,-0.0013409025781323,0.001340901354281,-0.0013409012337234,0.0013409031493497,-0.0010716674733141,0.0010716690392527,-0.001071667193506,0.001071668759482,0.6811981079479,125301,3014,0.0037191954717882,0.0045865267524065,0.0045865267524097,37.480325846932,0.00021504260677546,0.00021504260677546,0.00021504260677546,2686048.0186348,0.012976741319699
37419200,0.99999520939741,0.015027641608002,0.0044963411398436,0.0052656502340741,0.0052656502340843,-0.00089380604212797,0.00089380832088134,1.2208228556704e-09,1.2208395243964e-09,3.8912678848784e-10,2.0180660605112e-09,-0.0011138759760615,0.0011138776666169,-0.0011138760282392,0.0011138777187523,-0.0011138755794677,0.001113878283745,-0.0011138756316079,0.0011138783358678,-0.00096739645957917,0.00096739965795212,-0.00096739684016877,0.00096740003863055,1.0881769316804e-09,-5.738148113275e-10,2.9217926975558e-09,-2.0880300698817e-09,-0.001102151797198,0.0011021525074072,-0.0013415609343201,0.0013415640272551,-0.0013415627315846,0.0013415624864398,-0.0013415617223637,0.0013415636047714,-0.0013415635196266,0.0013415620639912,-0.0011406692749562,0.0011406750414428,-0.0011406734713655,0.001140669483222,-0.0010709840578558,0.0010709844391685,-0.0010709860307212,0.0010709831569373,5.1045119730161e-10,5.1046657550828e-10,-0.0011021515139805,0.0011021527906262,-1.6846604861021e-09,3.2157337517177e-09,-0.0013415626503125,0.0013415623980936,-0.001341561150454,0.0013415641319759,-0.0013415627514727,0.0013415624992519,-0.0013415612636903,0.0013415642452034,-0.0010709832778213,0.0010709858423882,-0.0010709830084027,0.0010709855730069,0.65495763090949,125301,3014,0.0037188065131707,0.0045818777204726,0.0045818777204757,37.68038671206,0.00021664309369648,0.00021664309369648,0.00021664309369648,2653220.0597699,0.012966952054802
38419200,0.99999717072719,0.015027674848241,0.0044963522149807,0.0052656613166252,0.0052656613166353,-0.00089275873068371,0.00089276186533946,1.5554294369043e-09,1.5554460987776e-09,6.7086859586608e-10,2.3937329973206e-09,-0.001112505813575,0.001112508233182,-0.0011125058213395,0.0011125082409042,-0.0011125053473477,0.0011125088388507,-0.0011125053555542,0.0011125088470398,-0.00096641169921814,0.00096641563670999,-0.00096641208178289,0.00096641601936349,1.3399044370453e-09,-4.0038776769508e-10,3.2322678554339e-09,-1.9574514310062e-09,-0.0011012921001287,0.001101293398676,-0.0013403585276085,0.0013403622200301,-0.0013403603380934,0.001340360568922,-0.0013403592812328,0.0013403617054121,-0.0013403610917161,0.0013403600543391,-0.0011398317628503,0.0011398381478433,-0.0011398361252895,0.0011398324048457,-0.001070095356986,0.0010700962137683,-0.0010700974108056,0.0010700948547862,7.4660892172758e-10,7.4662429205215e-10,-0.0011012917985304,0.0011012937002758,-1.5401130713381e-09,3.5437637584938e-09,-0.0013403603066894,0.0013403605365062,-0.0013403586928584,0.0013403622799463,-0.0013403603383599,0.0013403605681747,-0.0013403587389212,0.0013403623260001,-0.0010700945309849,0.0010700976591695,-0.0010700942660388,0.0010700973942606,0.72891346290552,125301,3014,0.0037144592136621,0.0045783106181385,0.0045783106181416,37.195995713914,0.00021276796571132,0.00021276796571132,0.00021276796571132,2660269.4798714,0.012955316801777
38880000,0.99999785563213,0.015027686715371,0.0044963561676854,0.0052656652738379,0.005265665273848,-0.00089119693816666,0.00089119951324102,1.33737282409e-09,1.3374211615251e-09,4.577986116696e-10,2.1790113085532e-09,-0.0011130789756247,0.0011130808847624,-0.001113078997168,0.0011130809060529,-0.00111307852306,0.0011130815033378,-0.0011130785443885,0.0011130815247817,-0.00096502659794337,0.00096503004320005,-0.00096502699254469,0.00096503043830745,1.2153301229793e-09,-5.3789494570621e-10,3.1084215240708e-09,-2.0996475573024e-09,-0.0010982119266162,0.0010982128683462,-0.0013396467204927,0.0013396500978279,-0.0013396485505691,0.0013396484550084,-0.0013396474987663,0.0013396496008776,-0.0013396493281479,0.0013396479577794,-0.0011371405175637,0.001137146612598,-0.0011371449097227,0.001137140862944,-0.001067588156386,0.0010675887169833,-0.0010675902402287,0.0010675873645524,6.0249505018979e-10,6.0251136754424e-10,-0.0010982116354729,0.0010982131592596,-1.6885843432162e-09,3.4087957329097e-09,-0.0013396485148193,0.0013396483951143,-0.0013396469116081,0.0013396501583882,-0.0013396485698769,0.0013396484504474,-0.0013396469808862,0.0013396502272433,-0.0010675873636559,0.0010675901700194,-0.0010675870772614,0.0010675898842825,0.74537476942469,125301,3014,0.0037079819622447,0.0045655464963462,0.0045655464958733,37.193647489021,0.00021274917991217,0.00021274917991217,0.00021274917991217,2600313.8494741,0.012922924285531
