time,ASR_ext,ASR_strain,ASR_strain_xx,ASR_strain_yy,ASR_strain_zz,disp_x_101,disp_x_102,disp_x_103,disp_x_104,disp_x_105,disp_x_106,disp_x_p1_neg,disp_x_p1_pos,disp_x_p2_neg,disp_x_p2_pos,disp_x_p3_neg,disp_x_p3_pos,disp_x_p4_neg,disp_x_p4_pos,disp_x_p5_neg,disp_x_p5_pos,disp_x_p6_neg,disp_x_p6_pos,disp_y_101,disp_y_102,disp_y_103,disp_y_104,disp_y_105,disp_y_106,disp_y_p1_neg,disp_y_p1_pos,disp_y_p2_neg,disp_y_p2_pos,disp_y_p3_neg,disp_y_p3_pos,disp_y_p4_neg,disp_y_p4_pos,disp_y_p5_neg,disp_y_p5_pos,disp_y_p6_neg,disp_y_p6_pos,disp_y_p7_neg,disp_y_p7_pos,disp_y_p8_neg,disp_y_p8_pos,disp_z_101,disp_z_102,disp_z_103,disp_z_104,disp_z_105,disp_z_106,disp_z_p1_neg,disp_z_p1_pos,disp_z_p2_neg,disp_z_p2_pos,disp_z_p3_neg,disp_z_p3_pos,disp_z_p4_neg,disp_z_p4_pos,disp_z_p5_neg,disp_z_p5_pos,disp_z_p6_neg,disp_z_p6_pos,humidity,ndof,nelem,strain_xx,strain_yy,strain_zz,temp,thermal_strain_xx,thermal_strain_yy,thermal_strain_zz,vonmises,vstrain
2419200,0,0,0,0,0,0,0,0,0,0,0,0,0,0,0,0,0,0,0,0,0,0,0,0,0,0,0,0,0,0,0,0,0,0,0,0,0,0,0,0,0,0,0,0,0,0,0,0,0,0,0,0,0,0,0,0,0,0,0,0,0,0,0,0,0,0,0,0,0,0,0,0,0,0,0
2919200,0.076491938090207,0.0015975326435673,0.00053251088118909,0.00053251088118909,0.00053251088118909,-0.00016145807124863,0.00016143731445255,-8.1091874169496e-09,-8.1091874891459e-09,-7.1554618695112e-09,-8.7780969793393e-09,-0.00016219744177941,0.00016218025661006,-0.00016219824179368,0.00016218105662449,-0.00016219870631633,0.00016218046885665,-0.00016219949438499,0.00016218125692889,-0.00016543572626054,0.00016541823022018,-0.00016543643489799,0.00016541893884886,-3.5375434391517e-09,-2.1806451516997e-09,-3.3696268786846e-09,-2.5223912641221e-09,-0.00016761772989293,0.00016760919275516,-0.00016776544838461,0.0001677579888054,-0.00016776592421275,0.00016775909428053,-0.00016776639397902,0.00016776000198844,-0.00016776686980914,0.00016776110746852,-0.00017021705580837,0.0001702104359319,-0.00017021698230389,0.00017021199700837,-0.00016878695631428,0.00016877976314305,-0.00016878648352031,0.00016878197599815,-3.1833399396279e-09,-3.1833398184331e-09,-0.00016761798887366,0.00016760893377582,-2.7011565586205e-09,-3.6091316254658e-09,-0.00016776501417014,0.00016775820762888,-0.00016776619273809,0.00016775876108732,-0.00016776665968327,0.00016775985313476,-0.00016776778607082,0.00016776035441509,-0.0001687878771038,0.00016878081287081,-0.0001687868022112,0.0001687797379773,0.83502648770561,125301,3014,0.0006724724588635,0.00069814461518792,0.00069814461519082,32.419256405447,0.00017455405124358,0.00017455405124358,0.00017455405124358,1044494.8304601,0.0020709050019656
3419200,0.15565126816936,0.0031136860287112,0.0010144881760676,0.0010495989263364,0.0010495989263072,-0.00026726072775967,0.00026724190638529,-7.6781996022286e-09,-7.6782637323136e-09,-7.0678638601401e-09,-7.9743172513097e-09,-0.00027458239697196,0.00027456631736522,-0.00027458333146587,0.00027456725170497,-0.00027458357257489,0.00027456691111873,-0.00027458449470376,0.00027456783309908,-0.0002757414117245,0.00027572515886858,-0.00027574288861169,0.00027572663551725,-3.2017585631109e-09,-2.5904796519823e-09,-3.2357839168745e-09,-2.7965076620516e-09,-0.00028778470710726,0.00028777641224908,-0.00029365509771143,0.00029364838312987,-0.0002936560286455,0.00029364963842255,-0.00029365711560436,0.00029365088647139,-0.00029365804642547,0.00029365214164252,-0.00029219304121476,0.0002921863699278,-0.0002921947632036,0.0002921889395819,-0.0002871471156647,0.00028714038694643,-0.00028714859426764,0.00028714310490698,-3.1060212167868e-09,-3.1060851499661e-09,-0.00028778484587714,0.00028777627346714,-2.8482460813976e-09,-3.3488065587436e-09,-0.00029365486954015,0.00029364846101384,-0.00029365618935949,0.00029364944437256,-0.00029365724628171,0.00029365083763306,-0.00029365851742004,0.000293651772304,-0.00028714938398717,0.00028714256267166,-0.00028714706915438,0.00028714024793712,0.77960726241633,125301,3014,0.0011129342868477,0.0011983637310493,0.0011983637310242,31.910896348114,0.00017048717078491,0.00017048717078491,0.00017048717078491,1565122.068516,0.0035158333278962
3919200,0.24244769538088,0.0046729834519653,0.0014901930157769,0.0015913952181058,0.0015913952180827,-0.00037361828170134,0.00037360851035419,-3.7662503914152e-09,-3.7663050483484e-09,-3.8473607535567e-09,-3.5327984778506e-09,-0.00039033474163745,0.00039032662583054,-0.00039033537314987,0.00039032725719242,-0.00039033522693552,0.00039032735144815,-0.00039033585170128,0.00039032797606422,-0.00038843811236755,0.00038843016018649,-0.00038843894130284,0.00038843098891398,-2.143522048038e-09,-2.6161706424389e-09,-2.5334132878757e-09,-2.2603980972248e-09,-0.00041528461480779,0.00041527809446798,-0.00043226259788466,0.0004322575395176,-0.00043226322217188,0.00043225837403651,-0.00043226403634555,0.00043225867505333,-0.0004322646605073,0.00043225950943588,-0.00042154756109462,0.0004215419458859,-0.0004215484451485,0.00042154334173778,-0.00040947773214805,0.00040947301216928,-0.00040947924772596,0.00040947363916276,-2.3782231883111e-09,-2.3782775785025e-09,-0.00041528456826101,0.00041527814100663,-2.15612225982e-09,-2.468852534985e-09,-0.00043226249739258,0.00043225759760456,-0.00043226335940492,0.00043225824884429,-0.00043226380657942,0.00043225890669253,-0.00043226465450449,0.00043225954384242,-0.00040947917150246,0.00040947382739442,-0.00040947800565423,0.0004094726616334,0.74640349119053,125301,3014,0.0015555415823991,0.0017288334273,0.001728833427283,32.496690399935,0.00017517352319948,0.00017517352319948,0.00017517352319948,2194494.2025976,0.0050258092310701
4419200,0.33745974340487,0.0063458106430296,0.0019862064112051,0.0021798021159197,0.0021798021159048,-0.00048496649586412,0.00048496092393467,-2.0688697873599e-09,-2.0689284592293e-09,-2.4554330726169e-09,-1.6536197490812e-09,-0.00051327950899754,0.00051327536021256,-0.00051327986701218,0.00051327571807305,-0.00051327958502304,0.00051327599802607,-0.00051327994177382,0.00051327635462509,-0.00050888212966694,0.00050887791520769,-0.00050888248824232,0.00050887827358922,-1.0289645098557e-09,-1.8461269817525e-09,-1.4078118901833e-09,-1.5922582288094e-09,-0.00055394748083097,0.00055394327688229,-0.00058556483094713,0.00058556229196498,-0.00058556537904833,0.00058556273126088,-0.00058556576768008,0.00058556268720381,-0.00058556631566529,0.00058556312637581,-0.0005637564106409,0.00056375290191756,-0.00056375769602257,0.00056375380052964,-0.00054209838298175,0.00054209583407254,-0.00054210008236991,0.00054209595022535,-1.2484693851173e-09,-1.2485277736571e-09,-0.00055394728158594,0.0005539434761221,-1.3721800415916e-09,-1.1983905599028e-09,-0.00058556484276075,0.00058556231462443,-0.00058556526945264,0.00058556286167184,-0.0005855654729014,0.00058556294463058,-0.00058556591597258,0.00058556350806098,-0.00054209944991542,0.00054209660988372,-0.00054209851844768,0.00054209567849578,0.74424082049435,125301,3014,0.0020187253871309,0.00230542149309,0.0023054214930791,33.598705541215,0.00018398964432972,0.00018398964432972,0.00018398964432972,2758281.6837207,0.0066516254939506
4919200,0.44064934175551,0.0081425892385412,0.0025045545559204,0.002819017341317,0.0028190173413038,-0.00060100791228038,0.00060100402439421,-1.4400171378767e-09,-1.4400662662288e-09,-1.9218961410539e-09,-9.9985034619943e-10,-0.00064538505728906,0.00064538255364113,-0.00064538523962136,0.00064538273581167,-0.0006453849285327,0.00064538307255822,-0.00064538511368388,0.00064538325755112,-0.00063644965152979,0.00063644683456711,-0.00063644980730399,0.00063644699016979,-4.4826887424912e-10,-1.2790878547496e-09,-6.8797730378561e-10,-1.169414382445e-09,-0.0007042349448525,0.00070423214173052,-0.00075510901822332,0.0007551078866836,-0.00075510950639572,0.00075510806231681,-0.00075510959979165,0.00075510791874673,-0.00075511008783754,0.00075510809424982,-0.0007196166648732,0.00071961455867648,-0.00071961809007605,0.00071961500896617,-0.00068617921442885,0.00068617772734895,-0.00068618087902832,0.00068617777520211,-5.3207164675289e-10,-5.3212047346715e-10,-0.00070423463848254,0.00070423244809568,-8.8141571276677e-10,-3.78161314902e-10,-0.00075510906091996,0.00075510792441115,-0.0007551091858522,0.00075510839699489,-0.00075510930119267,0.00075510816457293,-0.00075510946460232,0.00075510867564142,-0.00068617997145767,0.00068617866588769,-0.00068617912046129,0.00068617781496889,0.74696695512676,125301,3014,0.0025012442404452,0.0029299608482654,0.0029299608482554,35.343644511126,0.000197949156089,0.000197949156089,0.000197949156089,3219019.0400207,0.0083962912455211
5419200,0.54130362685529,0.0098349920940984,0.0029844008387998,0.0034252956276543,0.0034252956276443,-0.00070460844897922,0.00070460682974935,-5.8044080766705e-10,-5.8049365875837e-10,-1.1725660177807e-09,-9.5802614060608e-11,-0.00076917846850463,0.00076917806520254,-0.00076917850965998,0.00076917810619713,-0.00076917815533424,0.00076917850892567,-0.00076917820297448,0.00076917855640871,-0.00075148875054429,0.00075148783077251,-0.00075148878059834,0.00075148786065955,3.0342448976423e-10,-5.9273503129284e-10,2.4206685359594e-10,-6.7122919835497e-10,-0.00084313728355182,0.00084313627196188,-0.00091700994841851,0.00091701068434211,-0.00091701044078185,0.00091701056402964,-0.00091701031389959,0.00091701044669679,-0.00091701080613221,0.0009170103262509,-0.00086417720448819,0.00086417691908448,-0.00086417900502853,0.00086417690582921,-0.00081883771628572,0.00081883764504392,-0.00081883947017194,0.00081883764200472,2.8213923936932e-10,2.8208666682831e-10,-0.00084313691348085,0.00084313664203039,-3.5304752905209e-10,6.0989323687144e-10,-0.00091701012455541,0.00091701063739719,-0.00091700992161984,0.00091701109840407,-0.00091701008889898,0.0009170106016103,-0.00091700994068035,0.00091701111734302,-0.00081883825792075,0.00081883878262681,-0.00081883743136768,0.00081883795614028,0.73229095938568,125301,3014,0.0029318976968579,0.0035068354730096,0.0035068354730045,36.272950944469,0.00020538360755575,0.00020538360755575,0.00020538360755575,3559454.9227235,0.0099953273750206
5919200,0.63259681880885,0.011147464873186,0.0033537995172779,0.0038968326779573,0.0038968326779506,-0.00077999812899077,0.0007799985402189,2.1378185928742e-10,2.1373354711626e-10,-4.5708589972187e-10,7.1635283778018e-10,-0.00086648151997043,0.00086648303749306,-0.00086648141465805,0.00086648293202383,-0.00086648104466184,0.00086648337887389,-0.00086648094954691,0.00086648328360507,-0.00083355983697304,0.00083356063527396,-0.00083355979371147,0.00083356059185937,1.0084220707856e-09,1.0170324455224e-10,1.2554107536515e-09,-1.9766499184415e-10,-0.0009475774808622,0.00094757824128087,-0.0010469579549464,0.0010469605406892,-0.0010469584433342,0.0010469600405169,-0.0010469580830481,0.001046960045553,-0.0010469585713037,0.0010469595452466,-0.00097008834387784,0.00097009009187671,-0.00097009049226739,0.00097008937870874,-0.00091457301517694,0.00091457421880881,-0.00091457469974808,0.00091457411547618,1.0695344030758e-09,1.0694865473025e-09,-0.00094757705314731,0.0009475786689943,1.4467050222429e-10,1.6762300261321e-09,-0.0010469582983983,0.001046960374208,-0.0010469576849803,0.001046960814524,-0.001046957983785,0.0010469600594735,-0.0010469574399055,0.0010469605693352,-0.0009145731846227,0.00091457551338463,-0.00091457247703093,0.0009145748058569,0.6360792580923,125301,3014,0.0032452306412718,0.0039403710265121,0.003940371026509,36.779090840185,0.00020943272672148,0.00020943272672148,0.00020943272672148,3760661.478242,0.01118830060531
6419200,0.70995377195589,0.012176324367155,0.0036467505772873,0.0042647868949361,0.0042647868949311,-0.00083677204583453,0.00083677438752454,9.632231868693e-10,9.6317467873354e-10,2.1788805449303e-10,1.4846272394805e-09,-0.00094080109211049,0.000940804474804,-0.00094080084234305,0.0009408042248773,-0.00094080045819267,0.00094080471382847,-0.00094080022157807,0.00094080447705622,-0.00089549560702677,0.00089549801614089,-0.000895495544875,0.00089549795383635,1.6532502002107e-09,7.3677577009604e-10,2.2520674069284e-09,1.4411393016727e-10,-0.0010261483932879,0.0010261507984517,-0.0011471128064302,0.0011471172057824,-0.0011471133435243,0.0011471163049114,-0.0011471127211972,0.0011471164772635,-0.0011471132581562,0.0011471155762534,-0.00104944247424,0.0010494462193863,-0.0010494452076102,0.0010494448127671,-0.00098570393052577,0.00098570625163381,-0.00098570564109593,0.00098570614870961,1.8147052040311e-09,1.8146572877008e-09,-0.0010261478883796,0.0010261513033594,5.3473731446563e-10,2.7469534584574e-09,-0.001147113331819,0.001147116899515,-0.0011471122910542,0.0011471173755099,-0.0011471127650607,0.0011471163326337,-0.00114711180678,0.0011471168911197,-0.00098570377375474,0.00098570786174104,-0.00098570308001132,0.00098570716805738,0.59525943091212,125301,3014,0.003481153638743,0.0042664014521976,0.0042664014521962,36.741514588094,0.00020913211670475,0.00020913211670475,0.00020913211670475,3937895.3270335,0.012086680117354
6919200,0.77967466245973,0.013176772389353,0.0039358304537336,0.0046204709678117,0.0046204709678077,-0.0008942706432813,0.00089427073366755,6.1627419383464e-11,6.1579471495298e-11,-5.6236477753913e-10,4.7438759424051e-10,-0.0010158300762416,0.0010158316747224,-0.0010158298701882,0.0010158314685108,-0.0010158295528066,0.0010158318783803,-0.0010158293587951,0.0010158316842125,-0.0009602412211008,0.00096024167843384,-0.0009602412303922,0.00096024168757769,1.3973120476235e-09,7.1860628796823e-10,2.3141085136207e-09,-1.8688050271236e-10,-0.0011032998130713,0.0011033016910395,-0.0012441483424993,0.0012441524894364,-0.0012441490172961,0.0012441514732363,-0.0012441482518744,0.0012441519384746,-0.0012441489265333,0.0012441509221347,-0.0011307075406897,0.0011307114236852,-0.0011307107066728,0.0011307096759935,-0.0010600089387076,0.0010600105656332,-0.0010600104956487,0.0010600107795823,1.6941700936489e-09,1.6941227578597e-09,-0.0011032992984968,0.001103302205614,2.1228437191698e-10,2.820981116228e-09,-0.001244148937066,0.001244152097196,-0.0012441477784418,0.0012441527216462,-0.0012441484695841,0.0012441516295898,-0.0012441473924262,0.0012441523355146,-0.0010600086041171,0.0010600125333893,-0.0010600078107451,0.0010600117400754,0.64378173705164,125301,3014,0.0037200406818907,0.0045864304124448,0.0045864304124447,38.624427497997,0.00022419541998397,0.00022419541998397,0.00022419541998397,4027564.2411832,0.012976730028697
7419200,0.83978880067846,0.013917949982048,0.0041509070246425,0.0048835214787044,0.0048835214787013,-0.00093126417010632,0.00093126350458325,-2.7326947077584e-10,-2.7331711573208e-10,-7.818647433482e-10,3.1592223467494e-11,-0.0010738339155921,0.0010738348995219,-0.0010738337521457,0.0010738347359168,-0.0010738334997449,0.0010738350670957,-0.0010738333468793,0.0010738349140734,-0.0010010401183601,0.0010010398207017,-0.0010010401832487,0.0010010398854443,1.2652542696238e-09,8.1089636518921e-10,2.4132485212897e-09,-3.2551348902262e-10,-0.0011544853382542,0.0011544871242782,-0.0013174063622337,0.0013174104615433,-0.0013174071392133,0.0013174093931063,-0.0013174062511375,0.0013174100468078,-0.0013174070279782,0.0013174089782294,-0.0011838300966053,0.0011838342339555,-0.0011838335221728,0.0011838322802063,-0.0011085992021595,0.0011086004776769,-0.001108600581535,0.0011086009590157,1.6500954465991e-09,1.6500484977981e-09,-0.0011544848488185,0.0011544876137143,5.1821058225772e-11,2.897605938657e-09,-0.0013174070168639,0.0013174099975183,-0.0013174058087868,0.0013174107313513,-0.0013174066154374,0.0013174095959681,-0.0013174054859288,0.001317410408376,-0.0011085987506379,0.0011086026641237,-0.001108597901505,0.0011086018150461,0.55664260548471,125301,3014,0.0038737916019529,0.004798704907675,0.004798704907676,40.763144442783,0.00024130515554226,0.00024130515554226,0.00024130515554226,3948006.8758563,0.013562817005857
7919200,0.8849657030837,0.014425378859759,0.0043015713397917,0.005061903759985,0.0050619037599823,-0.00095241904210941,0.00095242206060518,1.1491570376001e-09,1.1491095497273e-09,5.8647859762848e-10,1.4488805287238e-09,-0.0011080437045865,0.0011080479174615,-0.0011080433764946,0.001108047589211,-0.0011080431244471,0.0011080479447838,-0.0011080428092182,0.0011080476293984,-0.0010246152619426,0.0010246179927823,-0.0010246152977707,0.0010246180284662,2.1223377920997e-09,1.6909042873674e-09,3.5614103399433e-09,3.1781246556227e-10,-0.0011839906362808,0.0011839948071306,-0.0013615896195673,0.0013615959545925,-0.0013615903927614,0.0013615945279496,-0.0013615892537371,0.0013615952692957,-0.0013615900267909,0.00136159384251,-0.0012141807615856,0.0012141872854145,-0.0012141846112175,0.001214184774092,-0.0011357533471731,0.0011357562862499,-0.0011357546831705,0.0011357567618584,2.5748960878685e-09,2.574849307827e-09,-0.0011839901112241,0.0011839953321883,7.0796616876657e-10,4.0782419980946e-09,-0.0013615904446297,0.0013615953626969,-0.001361588860383,0.0013615960771107,-0.0013615897499719,0.0013615946679146,-0.0013615882539362,0.0013615954705471,-0.0011357526154538,0.0011357586638832,-0.0011357518241455,0.001135757872631,0.5070717593097,125301,3014,0.0039617268288197,0.0049210567888454,0.0049210567888474,40.956098583733,0.00024284878866987,0.00024284878866987,0.00024284878866987,3923195.4920084,0.013900086172778
8419200,0.91861489915346,0.014784700157004,0.0044097682157607,0.005187465970623,0.0051874659706207,-0.00096565576911799,0.00096565858949488,1.0695278168652e-09,1.0694804602531e-09,5.2446943102478e-10,1.3503808141166e-09,-0.0011326983937358,0.0011327024908821,-0.0011326980627885,0.0011327021597764,-0.001132697821492,0.0011327025016223,-0.0011326975024743,0.0011327021824478,-0.0010395763506769,0.00103957890163,-0.0010395764156554,0.0010395789664653,2.1765713658404e-09,1.7911148278406e-09,3.8674186446874e-09,1.7699936859335e-10,-0.0012019534159892,0.0012019577428526,-0.0013915698071835,0.0013915764699837,-0.0013915707077326,0.0013915748759496,-0.0013915694226541,0.0013915757992182,-0.0013915703230624,0.0013915742050407,-0.001233303734966,0.0012333108713388,-0.0012333080252742,0.0012333079251618,-0.0011532016946273,0.0011532045909862,-0.0011532030061913,0.0011532051326362,2.6760714400897e-09,2.6760247542218e-09,-0.0012019528706597,0.001201958288183,5.9011883827456e-10,4.4062430063596e-09,-0.0013915707518236,0.0013915757541652,-0.0013915690014393,0.0013915765998663,-0.001391570057086,0.0013915750593032,-0.0013915683944092,0.0013915759927189,-0.0011532007900937,0.0011532071870033,-0.0011531999744202,0.0011532063713853,0.48138031764921,125301,3014,0.0040167656404773,0.004995540564592,0.0049955405645939,41.43237856094,0.00024665902848752,0.00024665902848752,0.00024665902848752,3847466.7574122,0.014107018070467
8919200,0.94315277111126,0.015019349273681,0.00448131220661,0.0052690185335363,0.0052690185335342,-0.00097193020175793,0.00097193326844087,1.1648463108624e-09,1.1647989995431e-09,6.3738972844602e-10,1.4230307351526e-09,-0.0011488847452431,0.0011488890889992,-0.0011488843988553,0.0011488887424531,-0.0011488841706826,0.0011488890698167,-0.0011488838355182,0.0011488887344955,-0.0010467143944126,0.0010467171343619,-0.0010467144741422,0.0010467172139489,2.2939793445782e-09,1.9589414072968e-09,4.2305247974445e-09,1.1149019326252e-10,-0.0012101644096301,0.0012101690878153,-0.0014097776717606,0.0014097847942032,-0.001409778684141,0.0014097830280626,-0.001409777245309,0.0014097841135208,-0.0014097782575481,0.0014097823472365,-0.0012423960976828,0.0012424039775161,-0.0012424007951892,0.001242400598949,-0.0011617006976897,0.0011617036992957,-0.0011617019610934,0.0011617042913227,2.8360440017437e-09,2.8359974211667e-09,-0.001210163849941,0.0012101696475055,5.412211076255e-10,4.7849962798835e-09,-0.0014097787375466,0.0014097839562093,-0.0014097768161322,0.0014097849159348,-0.0014097780162938,0.0014097832348322,-0.0014097761825683,0.0014097842822536,-0.0011616996099112,0.0011617064812301,-0.0011616987929528,0.0011617056643264,0.43063171924148,125301,3014,0.0040428912717798,0.0050295957227609,0.0050295957227634,41.891397928082,0.00025033118342466,0.00025033118342466,0.00025033118342466,3745639.3811106,0.014202652786245
9419200,0.95995205105847,0.015171888162825,0.0045284633960545,0.005321712383386,0.005321712383384,-0.00097325300529168,0.00097325894099415,2.2934181484734e-09,2.2933708386539e-09,1.6799631455879e-09,2.5918782726332e-09,-0.0011561212301737,0.0011561281065885,-0.0011561207398555,0.0011561276161119,-0.0011561204859952,0.0011561279919827,-0.0011561200086474,0.0011561275144782,-0.0010487545123526,0.0010487596727673,-0.0010487545809827,0.0010487597412553,3.0614114303368e-09,2.656975100479e-09,5.2868116474155e-09,5.7198380398003e-10,-0.0012123721178211,0.00121237877235,-0.0014180604667738,0.0014180695668015,-0.0014180615234014,0.0014180674345392,-0.0014180598576714,0.0014180686344182,-0.0014180609141574,0.0014180665020115,-0.0012453029562901,0.0012453129908697,-0.0012453081820029,0.0012453089789754,-0.0011642588819707,0.0011642633160639,-0.0011642602046846,0.0011642638219514,3.6313203008927e-09,3.6312737653732e-09,-0.0012123715123465,0.0012123793778259,1.0311665615988e-09,5.884593979605e-09,-0.0014180617285208,0.0014180685655389,-0.0014180594274701,0.001418069556982,-0.0014180607664008,0.0014180676032941,-0.0014180585610818,0.0014180686904763,-0.0011642575403422,0.0011642662947133,-0.0011642567619699,0.0011642655163956,0.40723906797413,125301,3014,0.0040484374519088,0.0050387609935454,0.0050387609935482,41.151138133676,0.00024440910506941,0.00024440910506941,0.00024440910506941,3686575.9253577,0.014226906711823
9919200,0.97125326997332,0.015274156058216,0.0045603489206811,0.0053569035687684,0.0053569035687665,-0.00097178882926268,0.00097179633890337,2.9181580339516e-09,2.918110728838e-09,2.2224383071235e-09,3.2772407213985e-09,-0.0011598546067428,0.0011598628478168,-0.0011598540369962,0.0011598622779118,-0.0011598537447899,0.0011598627035598,-0.0011598531882413,0.0011598621468544,-0.0010477898769725,0.0010477963992567,-0.0010477899472823,0.0010477964694247,3.5428340107088e-09,3.0249041247719e-09,6.0549866779429e-09,6.8560993137318e-10,-0.001210975178165,0.0012109829678455,-0.0014216970869819,0.0014217074488422,-0.0014216982684008,0.0014217050018683,-0.0014216964006725,0.0014217063537132,-0.0014216975819493,0.0014217039065948,-0.0012446563192869,0.0012446678846438,-0.0012446621512463,0.0012446631987441,-0.0011636687812487,0.0011636740148668,-0.0011636702112415,0.0011636743985853,4.1106887955143e-09,4.1106423101109e-09,-0.0012109745274164,0.0012109836185955,1.1863023647182e-09,6.69765019109e-09,-0.0014216985537203,0.0014217062554818,-0.0014216959334611,0.0014217073676554,-0.0014216974610928,0.0014217051627298,-0.0014216949403977,0.0014217063744744,-0.0011636672110913,0.0011636771944288,-0.0011636664510807,0.0011636764344728,0.40432824355073,125301,3014,0.0040424081663801,0.0050329813616367,0.0050329813616395,39.828051843564,0.00023382441474851,0.00023382441474851,0.00023382441474851,3625212.4104151,0.01420910912019
10419200,0.97884815803719,0.01534730531543,0.004583328932266,0.0053819881915829,0.005381988191581,-0.00096867472810971,0.00096868335253854,3.3608136193038e-09,3.3607663233957e-09,2.5932082134162e-09,3.7794015800378e-09,-0.0011614039923158,0.0011614131701308,-0.0011614033676621,0.0011614125453187,-0.001161403037817,0.0011614130152267,-0.0011614024260893,0.0011614124033423,-0.0010451329413387,0.0010451404417258,-0.0010451330131266,0.001045140513372,3.9053695769724e-09,3.273743877857e-09,6.6853911229583e-09,6.9051983915276e-10,-0.0012074684468829,0.0012074770574916,-0.0014225629210856,0.0014225742382638,-0.0014225642421251,0.001422571514267,-0.001422562192171,0.0014225730190995,-0.0014225635130684,0.001422570294958,-0.0012419664760004,0.0012419792889021,-0.0012419728896435,0.0012419739599066,-0.0011612473590645,0.0011612531525973,-0.0011612488921786,0.0011612534107259,4.4594825388107e-09,4.4594361004647e-09,-0.0012074677590091,0.0012074777453668,1.2289972701829e-09,7.3654310170206e-09,-0.0014225645843041,0.0014225728539753,-0.0014225616859773,0.0014225741047136,-0.0014225634028038,0.0014225716723504,-0.0014225606061432,0.001422573024762,-0.0011612455814574,0.0011612565109579,-0.0011612448382853,0.0011612557678399,0.42845224819223,125301,3014,0.0040295270816617,0.005018454477102,0.005018454477105,38.099889260383,0.00021999911408306,0.00021999911408306,0.00021999911408306,3566405.0577373,0.014166620585772
10919200,0.98441778136769,0.015396897621075,0.0045989816092306,0.005398958005923,0.0053989580059212,-0.00096745845333835,0.00096746356885095,1.9816339278555e-09,1.9815867912367e-09,1.3020420441858e-09,2.3671013344144e-09,-0.0011651765853472,0.0011651826766204,-0.0011651761338772,0.0011651822249917,-0.001165175823253,0.0011651826441088,-0.0011651753807122,0.0011651822014112,-0.0010440875499947,0.0010440921021792,-0.0010440876503771,0.0010440922024202,3.0522372627919e-09,2.4799254973993e-09,5.9449392121148e-09,-2.6697752592787e-10,-0.0012050747166223,0.001205081076905,-0.0014248003008478,0.0014248096966185,-0.0014248018554525,0.0014248070875449,-0.0014247997925406,0.0014248087665399,-0.0014248013470028,0.0014248061573216,-0.0012402682808566,0.0012402795367394,-0.001240274957115,0.0012402740349155,-0.0011601039219307,0.0011601078238237,-0.0011601054024038,0.0011601081562217,3.6076045516279e-09,3.607558229043e-09,-0.0012050740392525,0.0012050817542763,2.9272914594318e-10,6.6206714756487e-09,-0.0014248019929209,0.0014248082353016,-0.001424799231987,0.0014248097421547,-0.0014248010973025,0.0014248073395586,-0.0014247984272922,0.0014248089373425,-0.0011601021034042,0.0011601112869278,-0.0011601013153271,0.0011601104989046,0.39597081456719,125301,3014,0.0040245126771489,0.0050085393820568,0.0050085393820599,37.946235608527,0.00021876988486821,0.00021876988486821,0.00021876988486821,3489051.553504,0.014141469840081
11419200,0.98847615186585,0.015433029106836,0.0046104631946143,0.005411282956112,0.0054112829561102,-0.00096676531913108,0.00096677081761746,2.1272652185078e-09,2.1272180716834e-09,1.4673728306055e-09,2.4840412534948e-09,-0.0011656776692935,0.0011656841228125,-0.0011656771952779,0.0011656836486383,-0.0011656769027104,0.0011656840526798,-0.0011656764376413,0.0011656835874539,-0.0010437449694371,0.0010437498185223,-0.0010437450674367,0.0010437499163806,3.1378641854e-09,2.6252748235239e-09,6.1681966422172e-09,-2.5208946426127e-10,-0.0012041933940468,0.0012042000667792,-0.0014252055748179,0.0014252153035159,-0.0014252071720499,0.0014252125976901,-0.0014252050178427,0.0014252143596958,-0.0014252066149322,0.0014252116537252,-0.001239732801018,0.0012397445333824,-0.0012397396720432,0.0012397388182077,-0.0011595532145635,0.0011595572374032,-0.0011595546348151,0.0011595576263227,3.7415030734141e-09,3.7414567511233e-09,-0.0012041927012503,0.0012042007595772,3.2243716214838e-10,6.8595423005148e-09,-0.001425207316028,0.0014252137979431,-0.0014252044571225,0.0014252153464426,-0.0014252063847781,0.0014252128665687,-0.0014252036180881,0.0014252145072908,-0.0011595512749893,0.0011595608128687,-0.0011595504929715,0.0011595600309047,0.39457194111806,125301,3014,0.0040216462110209,0.0050048877375009,0.0050048877375041,37.628519721426,0.00021622815777141,0.00021622815777141,0.00021622815777141,3473785.7904981,0.014131161516476
11919200,0.99141749662533,0.015461322175757,0.0046194760283625,0.0054209230736983,0.0054209230736966,-0.00096541019203499,0.00096541621804716,2.3346217134974e-09,2.3345745686142e-09,1.6763270537121e-09,2.6827721877983e-09,-0.0011666297891114,0.001166636706581,-0.0011666292893101,0.0011666362066212,-0.0011666290018469,0.0011666366076936,-0.0011666285110131,0.0011666361167029,-0.0010425337658117,0.0010425390505212,-0.0010425338648893,0.0010425391494576,3.274198556113e-09,2.7794572798851e-09,6.427268533667e-09,-2.1125935661216e-10,-0.0012022782042922,0.0012022852669852,-0.0014254550232687,0.0014254651543855,-0.0014254566622794,0.0014254623441107,-0.0014254544232496,0.0014254641751853,-0.0014254560621178,0.0014254613647656,-0.0012381965307253,0.0012382088008926,-0.0012382036020167,0.0012382028589493,-0.001158254208561,0.0011582584526544,-0.0011582556072382,0.0011582588538562,3.8921769577245e-09,3.892130654139e-09,-0.0012022775079071,0.0012022859633718,3.6616104114918e-10,7.1221397261084e-09,-0.0014254568343101,0.0014254635825841,-0.0014254538701502,0.0014254651719666,-0.0014254558606626,0.001425462608812,-0.001425452989585,0.001425464291284,-0.0011582521759513,0.0011582621078452,-0.0011582514023483,0.0011582613342959,0.42516298576731,125301,3014,0.0040160409455235,0.0049969549173109,0.004996954917314,37.105073127841,0.00021204058502273,0.00021204058502273,0.00021204058502273,3439353.774885,0.014109410004947
12419200,0.99358300593621,0.015483244122486,0.0046264789669218,0.005428382577783,0.0054283825777813,-0.00096372559011428,0.00096373115137767,2.1530052703139e-09,2.1529581384303e-09,1.5141319129123e-09,2.4911296394201e-09,-0.0011683771224188,0.0011683836204663,-0.0011683766477471,0.0011683831456361,-0.0011683763659281,0.0011683835345808,-0.0011683758994713,0.001168383067967,-0.0010409339438596,0.001040938836185,-0.0010409340499451,0.0010409389421295,3.1630919266551e-09,2.6863085704168e-09,6.3690896410768e-09,-3.6335908708916e-10,-0.0011994195893961,0.0011994263708169,-0.0014257841254719,0.0014257940223958,-0.0014257858163174,0.0014257912058973,-0.0014257835519797,0.0014257930859971,-0.0014257852426826,0.0014257902693536,-0.0012358463821191,0.001235858530703,-0.0012358535473744,0.0012358524970715,-0.0011563943449715,0.0011563983225468,-0.0011563957214559,0.0011563987385055,3.7729101374204e-09,3.7728638611283e-09,-0.0011994189064161,0.0011994270537985,2.0635115026106e-10,7.0516545327062e-09,-0.0014257859700069,0.0014257924079867,-0.0014257830040084,0.0014257940535099,-0.0014257850369166,0.001425791474772,-0.0014257821617515,0.0014257932111356,-0.0011563922896039,0.0011564020007797,-0.0011563915138032,0.0011564012250327,0.44663644431852,125301,3014,0.0040090755020738,0.0049851145087743,0.0049851145087774,36.802458804243,0.00020961967043395,0.00020961967043395,0.00020961967043395,3382588.6137837,0.014078367252618
12919200,0.99515849039655,0.015498200241864,0.0046312734608881,0.0054334633904888,0.005433463390487,-0.00096100623264185,0.00096101266118882,2.4908581416994e-09,2.4908110158156e-09,1.8376571680702e-09,2.8321764430714e-09,-0.0011681962182108,0.0011682034589253,-0.0011681957006726,0.0011682029412285,-0.0011681954169701,0.0011682033370752,-0.001168194908015,0.0011682028279632,-0.0010383357145799,0.0010383413323782,-0.0010383358180703,0.0010383414357278,3.3899727961439e-09,2.9086375578012e-09,6.6930091926777e-09,-2.2309491188437e-10,-0.0011957048395023,0.0011957122385785,-0.0014244863285337,0.0014244968105459,-0.0014244880332593,0.0014244938823349,-0.0014244856965552,0.0014244958060517,-0.0014244874011381,0.0014244928776957,-0.0012325493715111,0.0012325621948818,-0.0012325566959325,0.0012325559620125,-0.0011534802931304,0.0011534847007768,-0.0011534816652528,0.0011534851006696,4.0030281344736e-09,4.0029818748868e-09,-0.0011957041544955,0.001195712923587,3.4500078587457e-10,7.3769839844972e-09,-0.001424488240199,0.0014244951362291,-0.0014244851598654,0.0014244967928778,-0.0014244872384761,0.0014244941343818,-0.0014244842505914,0.0014244958834863,-0.0011534781605037,0.0011534884291067,-0.001153477400654,0.0011534876693105,0.41875849256559,125301,3014,0.0039978111180847,0.0049697233238115,0.0049697233238148,36.136873385191,0.00020429498708153,0.00020429498708153,0.00020429498708153,3340371.3998155,0.014035753172043
13419200,0.99628099033076,0.015508621891829,0.0046346248873951,0.0054369985022178,0.0054369985022161,-0.00095775231645429,0.00095776033433332,3.1091318236864e-09,3.1090846836853e-09,2.3970010836152e-09,3.4843014036309e-09,-0.0011647610298355,0.0011647696562368,-0.0011647604287022,0.001164769054945,-0.0011647601245291,0.0011647694854287,-0.0011647595329753,0.001164768893718,-0.0010353338339544,0.0010353407930209,-0.0010353339333297,0.0010353408922553,3.8172003459144e-09,3.2742359648664e-09,7.2520351480483e-09,3.8464780824465e-11,-0.0011925704296458,0.001192578922412,-0.0014212805275154,0.0014212920899109,-0.0014212822438681,0.0014212889678093,-0.001421279802302,0.0014212909384232,-0.0014212815185121,0.0014212878161765,-0.0012295537186601,0.0012295676828606,-0.0012295613106598,0.0012295611378377,-0.0011503593962347,0.0011503646191332,-0.0011503608318484,0.0011503649555938,4.4409885534952e-09,4.4409422901438e-09,-0.0011925697127649,0.0011925796392945,6.2962285386577e-10,7.9662856231778e-09,-0.0014212825343509,0.0014212903387103,-0.001421279252814,0.0014212919997082,-0.00142128139921,0.0014212892034449,-0.0014212782147475,0.0014212909615243,-0.001150357146061,0.0011503684479765,-0.0011503564002792,0.0011503677022482,0.40900439415344,125301,3014,0.0039843083991286,0.0049567275768337,0.004956727576837,34.796081403763,0.0001935686512301,0.0001935686512301,0.0001935686512301,3346228.0242752,0.013995698672464
13919200,0.99710757794329,0.015516134993907,0.0046370409479859,0.0054395470229612,0.0054395470229595,-0.00095532702545209,0.00095533421405015,2.7856382009886e-09,2.7855910550171e-09,2.0768010432419e-09,3.1701458468969e-09,-0.0011629095436525,0.0011629174461154,-0.0011629089838075,0.0011629168861118,-0.0011629086733388,0.0011629173163302,-0.0011629081219506,0.0011629167647851,-0.0010329712949976,0.0010329775697857,-0.0010329714026322,0.0010329776772794,3.6259831760164e-09,3.0637960802155e-09,7.1383544556985e-09,-2.614310745456e-10,-0.0011900179771736,0.0011900259177975,-0.0014192813251512,0.0014192924840487,-0.0014192831407541,0.0014192893448969,-0.0014192806624226,0.001419291389463,-0.0014192824778828,0.0014192882501661,-0.0012271066918874,0.0012271203931388,-0.0012271144809861,0.0012271136773516,-0.0011479509721112,0.0011479557196465,-0.0011479524328278,0.001147956045644,4.248405887234e-09,4.2483596288825e-09,-0.0011900172485511,0.0011900266464216,3.507763584348e-10,7.8661730402544e-09,-0.0014192833747873,0.0014192906784438,-0.0014192800819322,0.0014192924446566,-0.0014192823062244,0.0014192896097565,-0.0014192791081851,0.0014192914707921,-0.0011479486738685,0.0011479596210053,-0.001147947912958,0.0011479588601483,0.40047476240274,125301,3014,0.0039742444746307,0.0049461453317459,0.0049461453317491,33.829172316451,0.00018583337853161,0.00018583337853161,0.00018583337853161,3338149.7769125,0.013964039490379
14419200,0.99771718966272,0.015521420189419,0.0046387414415444,0.0054413393739381,0.0054413393739364,-0.00095245395896813,0.0009524616591418,2.985873624728e-09,2.9858264813447e-09,2.2618972213572e-09,3.3785224638108e-09,-0.0011605477644709,0.0011605561102789,-0.0011605471789127,0.0011605555245622,-0.0011605468634991,0.0011605559634334,-0.0011605462866491,0.0011605553864267,-0.0010301773539394,0.001030184061719,-0.0010301774589053,0.001030184166544,3.7651691463799e-09,3.1884001432922e-09,7.3342618319508e-09,-1.8502781577339e-10,-0.0011870496751699,0.0011870579749907,-0.0014168031074997,0.0014168146226986,-0.0014168049351086,0.0014168114140205,-0.0014168024136663,0.0014168134835601,-0.0014168042411325,0.0014168102747369,-0.0012242538791807,0.0012242679823485,-0.0012242617743862,0.001224261139283,-0.0011451341909264,0.001145139197848,-0.0011451356625006,0.0011451395042339,4.3902206924185e-09,4.3901744350669e-09,-0.0011870489391725,0.0011870587109896,4.3231155938449e-10,8.0691092705154e-09,-0.0014168051968053,0.0014168127823943,-0.0014168018325155,0.0014168145586676,-0.0014168040867492,0.0014168116722139,-0.0014168008185175,0.0014168135445524,-0.0011451318441125,0.0011451431346096,-0.0011451310911784,0.0011451423817289,0.38210045494667,125301,3014,0.0039623254006203,0.004933840463112,0.0049338404631152,32.643063648519,0.00017634450918815,0.00017634450918815,0.00017634450918815,3332069.5448594,0.013927006378196
14919200,0.99815445481315,0.015525362783491,0.0046400109902737,0.0054426758966096,0.0054426758966079,-0.00094799779484637,0.00094800751728051,3.7770936120887e-09,3.7770464564411e-09,2.9735653491785e-09,4.2201404404152e-09,-0.0011560469697096,0.0011560570649662,-0.0011560462815586,0.0011560563766567,-0.001156045935211,0.0011560568631834,-0.0011560452570764,0.001156056184892,-0.0010258655706651,0.0010258739941553,-0.0010258656698331,0.0010258740931825,4.3108203080123e-09,3.6393457082202e-09,8.0198670254121e-09,1.6027293061769e-10,-0.0011828372186833,0.0011828468869254,-0.0014125644276074,0.001412577279515,-0.0014125662620042,0.0014125738414046,-0.0014125636225762,0.0014125759511376,-0.0014125654568302,0.0014125725128822,-0.0012201228766678,0.0012201383731548,-0.0012201310725324,0.0012201311681091,-0.0011409134880598,0.0011409195453717,-0.0011409150524658,0.0011409197511634,4.9306324250345e-09,4.9305861759768e-09,-0.001182836451428,0.0011828476541824,7.9761373680079e-10,8.7837918512472e-09,-0.0014125666357136,0.0014125753424159,-0.0014125630329356,0.0014125771162759,-0.0014125653598124,0.0014125740663904,-0.0014125618585918,0.0014125759418149,-0.0011409110197987,0.0011409235754301,-0.001140910287665,0.0011409228433499,0.39678962402156,125301,3014,0.003943836038718,0.0049163762636501,0.0049163762636534,30.579948564282,0.00015983958851426,0.00015983958851426,0.00015983958851426,3339775.789869,0.013872845207764
15419200,0.99845239836474,0.01552866660062,0.0046410751990431,0.0054437957007895,0.0054437957007877,-0.00093993267090341,0.00093994567633399,5.0644089529299e-09,5.0643618060173e-09,4.1227703320493e-09,5.6046444251806e-09,-0.001149659191894,0.0011496720777729,-0.0011496583429453,0.0011496712286659,-0.0011496579365455,0.0011496717991311,-0.0011496570995509,0.0011496709619796,-0.0010178960813042,0.0010179073084141,-0.0010178961677935,0.0010179073947625,5.2128159353199e-09,4.3548194753389e-09,9.1201132468332e-09,7.3171580857306e-10,-0.0011745271239423,0.0011745390129512,-0.0014057924331515,0.0014058074195632,-0.0014057942751628,0.0014058036223152,-0.0014057914632307,0.0014058057802002,-0.0014057933050991,0.0014058019828071,-0.0012120702016168,0.0012120879307984,-0.0012120788528588,0.0012120801514895,-0.0011330259189459,0.0011330337268492,-0.0011330276518857,0.0011330337223513,5.78647712439e-09,5.7864308924494e-09,-0.0011745263246073,0.0011745398122877,1.3842628479261e-09,9.9126847835195e-09,-0.0014057948459375,0.0014058053088229,-0.0014057908711449,0.0014058070767904,-0.0014057933104483,0.0014058037732092,-0.0014057894448205,0.0014058056503487,-0.0011330232869642,0.0011330378505736,-0.0011330225992645,0.0011330371629274,0.48651353790675,125301,3014,0.0039103852493005,0.0048819302901534,0.0048819302901566,27.071773268218,0.00013177418614574,0.00013177418614574,0.00013177418614574,3324145.3843829,0.013769108189043
15919200,0.99868134551704,0.015531782638894,0.0046420802803835,0.005444851179256,0.0054448511792543,-0.00093396441382281,0.00093397340078245,3.493469602784e-09,3.4934225103991e-09,2.6204911009574e-09,4.0316229015848e-09,-0.0011485671201675,0.0011485764359595,-0.0011485664795028,0.0011485757951361,-0.0011485660720153,0.0011485763302297,-0.0011485654391264,0.0011485756971838,-0.0010118827331742,0.0010118906169638,-0.0010118828440964,0.0010118907277457,4.2294543761871e-09,3.3658743651335e-09,8.161967280499e-09,-3.4517765471917e-10,-0.0011665580286963,0.0011665672237874,-0.0014024028334522,0.0014024154788163,-0.0014024049161126,0.0014024118722704,-0.0014024021488672,0.0014024141560111,-0.0014024042313848,0.0014024105493199,-0.0012047159961024,0.0012047316939369,-0.0012047248206035,0.0012047238434141,-0.0011265009080299,0.0011265065708815,-0.0011265026445358,0.0011265065706568,4.7448785121597e-09,4.7448322884541e-09,-0.0011665572624136,0.0011665679900717,3.0905309984582e-10,8.9280437628915e-09,-0.0014024052677714,0.001402413291046,-0.0014024015084354,0.0014024153250312,-0.0014024040699703,0.0014024120931204,-0.0014024004071875,0.0014024142236659,-0.0011264983233931,0.0011265107043633,-0.0011264975919598,0.0011265099729833,0.59571470761932,125301,3014,0.0038856441683604,0.0048489032383687,0.0048489032383721,25.354506712291,0.00011803605369832,0.00011803605369832,0.00011803605369832,3243733.0635348,0.013677124213156
16419200,0.99886711584448,0.015533909229112,0.0046427689456926,0.0054455701417104,0.0054455701417086,-0.00092863781608232,0.00092864503794735,2.7983527650674e-09,2.7983057285632e-09,1.9968039032614e-09,3.2924740995587e-09,-0.0011482836596256,0.0011482914282403,-0.001148283108605,0.0011482908770609,-0.0011482827276779,0.001148291368671,-0.0011482821829031,0.0011482908237393,-0.0010066319149961,0.001006638297806,-0.0010066320363817,0.001006638419051,3.7628322346585e-09,2.982577018426e-09,7.6872293106607e-09,-7.4777688842539e-10,-0.0011585716714115,0.0011585797119095,-0.0013993762353482,0.0013993878046501,-0.001399378381432,0.0013993843205279,-0.0013993756461479,0.0013993866461002,-0.0013993777920887,0.0013993831618327,-0.0011974632459398,0.001197477980463,-0.001197472021946,0.0011974702178624,-0.0011201541879521,0.0011201588875394,-0.0011201558350682,0.0011201589679425,4.2701169507995e-09,4.2700707295644e-09,-0.0011585709443172,0.0011585804390054,-1.1999766430078e-10,8.4167988592783e-09,-0.0013993786495059,0.0013993856140845,-0.0013993750224615,0.001399387722031,-0.0013993775971948,0.0013993845616491,-0.0013993740608708,0.0013993867603231,-0.0011201516417554,0.0011201629950216,-0.001120150897371,0.0011201622506904,0.50210013400473,125301,3014,0.0038635684584164,0.0048158101176891,0.0048158101176924,24.412377242294,0.00011049901793835,0.00011049901793835,0.00011049901793835,3152956.0736734,0.013587715014728
16919200,0.99902150526161,0.01553622152578,0.0046435226320072,0.0054463494468871,0.0054463494468854,-0.00092687028566,0.00092687679044578,2.5089762380864e-09,2.5089291616422e-09,1.7624126264452e-09,2.9461819247822e-09,-0.001142754155921,0.0011427613987834,-0.0011427536288858,0.0011427608715897,-0.0011427532849108,0.0011427613270122,-0.001142752763764,0.0011427608057086,-0.001005328985617,0.0010053347196364,-0.0010053291126634,0.0010053348465424,3.5386265750002e-09,2.8748530322224e-09,7.4614456860287e-09,-8.6358354243944e-10,-0.001158092806713,0.0011581003958105,-0.0013954076753868,0.0013954188459171,-0.0013954098105005,0.0013954154266392,-0.0013954070903371,0.0013954177694567,-0.001395409225308,0.0013954143500337,-0.0011968746547446,0.0011968889493592,-0.0011968833516233,0.0011968813222156,-0.0011189136422209,0.0011189179020753,-0.0011189152018787,0.0011189181268989,4.1411129744589e-09,4.1410667179014e-09,-0.0011580920446925,0.0011581011578328,-1.9779472662452e-10,8.2268282970132e-09,-0.0013954099994135,0.0013954167454694,-0.0013954064382003,0.0013954188437523,-0.0013954089888503,0.0013954157347819,-0.001395405518835,0.0013954179242696,-0.0011189110656983,0.001118922095764,-0.0011189102934022,0.001118921323521,0.65164127745866,125301,3014,0.0038561990087464,0.0048138007035128,0.0048138007035163,23.779995267001,0.00010543996213601,0.00010543996213601,0.00010543996213601,3210117.2870341,0.013576114169801
17419200,0.99914261969848,0.015537848090899,0.0046440509769499,0.0054468985569754,0.0054468985569736,-0.00091995329226824,0.00091996241740674,3.5304583135102e-09,3.5304113006523e-09,2.7487759076358e-09,3.9789578320254e-09,-0.0011425950971929,0.0011426045251166,-0.0011425944470722,0.0011426038748375,-0.001142594095815,0.0011426043478174,-0.0011425934534206,0.0011426037052662,-0.00099808228264899,0.0009980902094147,-0.00099808240475242,0.00099809033137809,4.2173034326305e-09,3.5304496120719e-09,8.1944191785735e-09,-2.2326544487674e-10,-0.0011480506144329,0.0011480600429077,-0.0013918585309508,0.0013918712375192,-0.0013918605690468,0.0013918676448547,-0.0013918577776367,0.0013918699612371,-0.0013918598155895,0.0013918663684275,-0.0011874298914284,0.0011874457452692,-0.0011874386195728,0.0011874379741044,-0.0011106511882689,0.0011106568891599,-0.0011106527379465,0.0011106570514776,4.763242839495e-09,4.7631966089661e-09,-0.0011480499026311,0.0011480607547111,3.7565052686956e-10,8.9062856669982e-09,-0.00139186095827,0.0013918690529586,-0.0013918572146224,0.0013918710440561,-0.0013918597525456,0.0013918678471096,-0.0013918561031885,0.0013918699325049,-0.0011106485934371,0.0011106610127851,-0.0011106478708623,0.0011106602902634,0.58772740813402,125301,3014,0.003827539280455,0.0047721993140249,0.0047721993140282,21.983519890131,9.106815912105e-05,9.106815912105e-05,9.106815912105e-05,3093416.3464061,0.013462827856162
17919200,0.99923515117789,0.015538887572348,0.004644390758397,0.0054472484069765,0.0054472484069748,-0.00091366247536986,0.00091367317329194,4.1337618790592e-09,4.133714848643e-09,3.2834908059627e-09,4.61979129615e-09,-0.001134042795321,0.0011340536253715,-0.0011340420531655,0.0011340528830574,-0.0011340416803677,0.0011340533962645,-0.0011340409471212,0.0011340526628612,-0.00099226262832408,0.00099227187181685,-0.00099226275339767,0.00099227199675026,4.6490271605424e-09,3.8963923795216e-09,8.7280318674058e-09,7.2080312867646e-11,-0.0011425832629432,0.0011425938073198,-0.0013842628258117,0.0013842766484026,-0.001384264848527,0.0013842728726733,-0.0013842619761872,0.0013842752171986,-0.0013842639987597,0.0013842714413241,-0.0011820725273807,0.0011820894699986,-0.0011820814785015,0.0011820814586799,-0.0011048958442305,0.0011049023904753,-0.0011048974804177,0.0011049025030816,5.226494319392e-09,5.2264480655109e-09,-0.0011425825000248,0.0011425945702398,7.1137363478847e-10,9.489098266738e-09,-0.0013842653146908,0.0013842744248969,-0.0013842613789519,0.0013842763915852,-0.0013842639668196,0.0013842730769014,-0.0013842601312577,0.0013842751437737,-0.0011048931470675,0.0011049066319485,-0.0011048924232267,0.0011049059081608,0.4915601615792,125301,3014,0.0038014124057271,0.0047495127527079,0.0047495127527112,19.50356618464,7.122852947712e-05,7.122852947712e-05,7.122852947712e-05,3130589.6361733,0.013390328396562
18419200,0.99930870534442,0.01553975290266,0.0046446732469983,0.0054475398278317,0.00544753982783,-0.00091017141454329,0.00091018115075918,3.7619616857705e-09,3.7619146138261e-09,2.9043694356839e-09,4.2603724362524e-09,-0.0011265454840378,0.0011265555579987,-0.0011265447829244,0.001126554856727,-0.0011265444026908,0.0011265553766867,-0.0011265437096488,0.001126554683488,-0.00098904563984948,0.0009890540879595,-0.00098904577612105,0.00098905422409075,4.4207455242615e-09,3.6472137785197e-09,8.5649097953932e-09,-2.5450023990612e-10,-0.0011411107853291,0.0011411206573138,-0.0013789117760924,0.0013789251641777,-0.0013789138939585,0.001378921381416,-0.0013789109923694,0.0013789237906246,-0.0013789131100926,0.0013789200077178,-0.0011802887337709,0.0011803052926359,-0.001180297879452,0.0011802971528546,-0.0011023537356449,0.0011023597198642,-0.0011023554235108,0.0011023598456155,5.0396006562769e-09,5.0395543760731e-09,-0.0011411099715576,0.001141121471087,4.4334285341545e-10,9.3786021233488e-09,-0.0013789142675336,0.0013789229331283,-0.0013789103276727,0.0013789249986166,-0.0013789129831803,0.0013789216486508,-0.0013789091434167,0.0013789238142436,-0.0011023509768801,0.0011023640913826,-0.0011023502174154,0.0011023633319709,0.51421839069127,125301,3014,0.0037868879006445,0.0047433830013334,0.0047433830013367,17.480146347611,5.5041170780887e-05,5.5041170780887e-05,5.5041170780887e-05,3201550.1123116,0.013363138735618
18919200,0.9993728964475,0.01554061603057,0.0046449539244869,0.0054478310530423,0.0054478310530406,-0.00090828040742122,0.00090828738238694,2.7014947104851e-09,2.7014476442465e-09,1.8894999164422e-09,3.1859379888255e-09,-0.0011258563888376,0.0011258640192538,-0.0011258556904914,0.0011258633207491,-0.0011258553297482,0.0011258638188313,-0.0011258546394243,0.0011258631283505,-0.00098724168657496,0.00098724770880157,-0.00098724182321393,0.00098724784530022,3.8296833578299e-09,3.0182054100509e-09,7.9518095246388e-09,-8.7950705837477e-10,-0.0011387612705505,0.0011387694371706,-0.0013777408413445,0.0013777527617401,-0.0013777429653413,0.0013777489774731,-0.0013777400708746,0.0013777513764212,-0.0013777421947285,0.0013777475920088,-0.0011781860994191,0.0011782012236033,-0.0011781952551433,0.0011781930705493,-0.0011003258192178,0.0011003304103733,-0.0011003275370371,0.0011003305017225,4.3988944966456e-09,4.3988482022363e-09,-0.0011387604773721,0.0011387702303507,-1.7735445191382e-10,8.7364759250692e-09,-0.0013777433558183,0.0013777505057252,-0.0013777394266322,0.001377752566023,-0.0013777420739676,0.0013777492237501,-0.0013777382443679,0.0013777513836415,-0.0011003231033612,0.0011003347354792,-0.0011003223457149,0.001100333977886,0.5877987766322,125301,3014,0.0037790378795478,0.0047336416200764,0.0047336416200799,16.875242324275,5.0201938594202e-05,5.0201938594202e-05,5.0201938594202e-05,3159140.5131994,0.013335463676036
19419200,0.99943343791963,0.015541527121031,0.0046452505624161,0.0054481382793084,0.0054481382793067,-0.00090821906004762,0.00090822273796445,1.4105927032141e-09,1.4105457005324e-09,7.5228948936661e-10,1.8030674241308e-09,-0.0011298219149669,0.0011298267211138,-0.0011298215339431,0.0011298263399314,-0.0011298212158759,0.0011298267432703,-0.0011298208380634,0.001129826365301,-0.00098671323864595,0.00098671659501665,-0.00098671339369131,0.00098671674992161,2.8293864879701e-09,2.2479732252147e-09,6.8227242965544e-09,-1.6050560192605e-09,-0.0011366051574619,0.0011366108852381,-0.0013793155448562,0.001379325123061,-0.0013793178551744,0.0013793218295004,-0.0013793151278929,0.0013793242923533,-0.001379317438068,0.0013793209986474,-0.0011762222177644,0.0011762351725615,-0.001176231064742,0.0011762274860458,-0.0010993158553981,0.0010993185556965,-0.0010993173430101,0.0010993188802437,3.4235314069949e-09,3.4234851322615e-09,-0.00113660442944,0.0011366116132617,-9.5055405228501e-10,7.5587856209937e-09,-0.0013793178892913,0.0013793229658146,-0.0013793144699157,0.0013793252559625,-0.0013793171100154,0.0013793221864146,-0.0013793137731016,0.0013793245590309,-0.001099313282914,0.001099322805651,-0.0010993124704054,0.0010993219931954,0.65664642788028,125301,3014,0.0037788046284501,0.0047247189464769,0.0047247189464803,17.545564601359,5.5564516810874e-05,5.5564516810874e-05,5.5564516810874e-05,3102312.3643092,0.01331719218082
19919200,0.99949181634965,0.015542383467037,0.0046455304521301,0.0054484265074543,0.0054484265074526,-0.000908465716055,0.00090846832046787,9.9151337662342e-10,9.9146638908827e-10,4.4423254548596e-10,1.2853379573665e-09,-0.0011330129814465,0.0011330169116667,-0.001133012655014,0.0011330165850756,-0.0011330123982633,0.0011330169168571,-0.0011330120748616,0.0011330165932984,-0.00098695054495498,0.00098695294480975,-0.00098695070303556,0.00098695310275061,2.4799782750249e-09,2.0906762697162e-09,6.352428649094e-09,-1.6609476015994e-09,-0.0011347830092852,0.0011347880284159,-0.0013804539973945,0.0013804627671856,-0.0013804562296067,0.0013804596732123,-0.0013804535925522,0.001380462081522,-0.0013804558246215,0.0013804589874034,-0.0011748311686738,0.0011748432217058,-0.001174839626448,0.0011748359567878,-0.0010985748010534,0.0010985769021362,-0.0010985760953044,0.0010985774169665,3.1151141844882e-09,3.1150679340188e-09,-0.0011347823292968,0.0011347887084059,-1.0526531041114e-09,7.0411006015334e-09,-0.0013804562113864,0.0013804607316204,-0.0013804529945966,0.0013804629470131,-0.0013804555178337,0.0013804600379435,-0.0013804523803997,0.001380462332699,-0.0010985723277947,0.001098581058672,-0.0010985715093962,0.0010985802403265,0.63949909152816,125301,3014,0.0037798433450021,0.0047171784278283,0.0047171784278317,18.6814703035,6.4651762427998e-05,6.4651762427998e-05,6.4651762427998e-05,3039552.597272,0.013302995656678
20419200,0.9995439453346,0.015543210999976,0.0046458018848778,0.0054487045575498,0.0054487045575481,-0.00090712805043842,0.00090713302082901,1.9025839865123e-09,1.9025369889186e-09,1.325542548335e-09,2.2014458274882e-09,-0.0011311990701909,0.0011312050856274,-0.0011311987438903,0.0011312047591682,-0.0011311984745608,0.0011312051037898,-0.0011311981512792,0.0011312047803514,-0.000985728111703,0.00098573258637343,-0.00098572827184782,0.00098573274637844,2.9976055727929e-09,2.6514584469961e-09,6.8828892933501e-09,-1.0990763575291e-09,-0.0011332527517029,0.0011332592639877,-0.00137847200473,0.001378482039229,-0.0013784742263206,0.0013784789556127,-0.0013784715868176,0.0013784813699088,-0.0013784738082654,0.0013784782861472,-0.0011733850226247,0.0011733983176712,-0.0011733934519413,0.0011733910861046,-0.0010971324441643,0.0010971357668864,-0.0010971337031199,0.0010971363228346,3.6695463328196e-09,3.6695000871735e-09,-0.0011332520640829,0.0011332599516093,-5.0352696259693e-10,7.5861316807374e-09,-0.0013784741985724,0.0013784800239082,-0.0013784709825772,0.0013784822385901,-0.0013784735063946,0.0013784793316062,-0.0013784703697405,0.0013784816256362,-0.0010971299482544,0.0010971399517271,-0.0010971291270006,0.0010971391305263,0.69004788769245,125301,3014,0.0037742902273209,0.0047108323933007,0.0047108323933041,18.601923404644,6.401538723715e-05,6.401538723715e-05,6.401538723715e-05,3040397.1485621,0.013284496410279
20919200,0.99958730287862,0.015543852764035,0.0046460124282917,0.0054489201678724,0.0054489201678706,-0.00090260798798237,0.00090261616482923,3.1541394996446e-09,3.1540924800516e-09,2.5121155921372e-09,3.4669353841068e-09,-0.0011290126366459,0.0011290213722552,-0.0011290120252177,0.0011290207606684,-0.0011290117596573,0.0011290211409996,-0.0011290111557932,0.0011290205369785,-0.00098121785650777,0.00098122489912722,-0.00098121800224006,0.00098122504471953,3.9198849866449e-09,3.5040083833278e-09,7.8611155143433e-09,-2.2738722683439e-10,-0.0011273940602825,0.0011274030142035,-0.0013749383736334,0.0013749505347679,-0.0013749403428334,0.0013749470925291,-0.0013749375934009,0.0013749494134169,-0.001374939562458,0.0013749459710329,-0.0011678201746631,0.0011678354318562,-0.001167828616762,0.0011678280192673,-0.0010919901469449,0.0010919953358911,-0.0010919914543327,0.0010919957939327,4.5705528786881e-09,4.5705066679233e-09,-0.0011273933767035,0.0011274036977841,3.4382251782574e-10,8.5457264773192e-09,-0.0013749406715768,0.0013749484749302,-0.0013749370801961,0.001374950399238,-0.0013749395336383,0.0013749473368674,-0.0013749360343475,0.0013749493532722,-0.0010919875860543,0.0010919994839787,-0.0010919868322176,0.0010919987301946,0.64466974006305,125301,3014,0.0037555444398912,0.0046865527357662,0.0046865527357697,17.277903590815,5.3423228726517e-05,5.3423228726517e-05,5.3423228726517e-05,2997456.7823425,0.01321632751039
21419200,0.99962209978481,0.01554436550299,0.0046461810281905,0.0054490922374004,0.0054490922373987,-0.0008976838728704,0.00089769374444666,3.8098420431172e-09,3.8097950086423e-09,3.0845531197254e-09,4.1781066529009e-09,-0.0011226114538997,0.0011226216678236,-0.0011226107489526,0.0011226209627179,-0.0011226104499544,0.001122621393449,-0.001122609753787,0.0011226206971247,-0.00097655388682581,0.0009765623640007,-0.00097655403961014,0.00097656251664514,4.4025076292818e-09,3.8834627476637e-09,8.4334975399617e-09,9.4381102786319e-11,-0.0011231448150612,0.0011231549646425,-0.0013692125369868,0.001369225880269,-0.0013692144932297,0.001369222248783,-0.0013692116673143,0.0013692245874633,-0.0013692136234144,0.001369220955832,-0.0011636156282386,0.0011636320424457,-0.0011636243033499,0.0011636243759823,-0.0010875315535855,0.0010875376870613,-0.0010875329821642,0.0010875380563355,5.0509287435058e-09,5.0508825232119e-09,-0.0011231440939387,0.0011231556857667,6.9204819832905e-10,9.1535426311294e-09,-0.0013692149184415,0.0013692237576887,-0.0013692111290846,0.0013692256602039,-0.0013692136354355,0.0013692224745586,-0.001369209943436,0.0013692244744382,-0.0010875289182877,0.0010875419225638,-0.0010875281641054,0.0010875411684342,0.64095610021346,125301,3014,0.0037350955889013,0.0046689213424017,0.0046689213424053,15.232194473315,3.7057555786519e-05,3.7057555786519e-05,3.7057555786519e-05,3023494.0713468,0.013159857999368
21919200,0.99965168972095,0.015544788839878,0.0046463200793174,0.0054492343802814,0.0054492343802797,-0.00089449849980557,0.00089450657378025,3.1139792588065e-09,3.113932229949e-09,2.4050630639155e-09,3.4925443641671e-09,-0.0011196573388918,0.0011196659920959,-0.0011196567275272,0.0011196653805727,-0.0011196564210024,0.0011196658051657,-0.0011196558166759,0.0011196652006823,-0.00097336307076787,0.00097337006344845,-0.00097336323320774,0.00097337022574833,3.9623813925436e-09,3.4199980326724e-09,8.0024234690866e-09,-4.0647586462808e-10,-0.0011198761867262,0.0011198850844623,-0.0013661146893062,0.0013661269953059,-0.0013661167607963,0.0013661234455163,-0.0013661139524158,0.0013661258349766,-0.0013661160237631,0.0013661222850419,-0.0011603792153936,0.0011603946953705,-0.001160387990566,0.001160386987091,-0.0010843434161648,0.0010843485709205,-0.0010843448755741,0.0010843489305165,4.5954907742937e-09,4.5954445469412e-09,-0.0011198754611578,0.0011198858100324,2.1087206628254e-10,8.7298491690856e-09,-0.0013661170727324,0.0013661248488911,-0.0013661133748974,0.0013661268769865,-0.0013661159364392,0.0013661237124737,-0.001366112331362,0.0013661258333339,-0.0010843407928358,0.001084352834664,-0.0010843400126381,0.0010843520545192,0.62311101531201,125301,3014,0.003721867852307,0.0046553635515138,0.0046553635515173,13.996533879779,2.7172271038236e-05,2.7172271038236e-05,2.7172271038236e-05,3018990.7540158,0.013118989289092
22419200,0.99968039699101,0.015545218328636,0.0046464611719773,0.0054493785783301,0.0054493785783283,-0.00089601994042331,0.00089602390907218,1.5300005870323e-09,1.5299535481752e-09,8.822456126786e-10,1.8882009206403e-09,-0.0011207480268319,0.0011207530767358,-0.0011207474149258,0.0011207524646711,-0.0011207471376821,0.001120752860286,-0.0011207465328202,0.001120752255267,-0.00097486518155321,0.00097486856514265,-0.00097486534054843,0.00097486872399759,3.0658796085118e-09,2.4758371496007e-09,7.0732431981814e-09,-1.3413426809904e-09,-0.0011213725824211,0.0011213789279241,-0.0013671725368709,0.001367182669872,-0.0013671746097201,0.001367179117636,-0.0013671718154273,0.00136718149104,-0.0013671738881336,0.0013671779386585,-0.0011618531526374,0.0011618664734483,-0.0011618619319124,0.0011618587580829,-0.0010858102678207,0.0010858133267804,-0.0010858117648785,0.0010858136449946,3.6674148192888e-09,3.6673685487906e-09,-0.00112137185307,0.001121379657277,-6.8447891159498e-10,7.792542637495e-09,-0.001367174918786,0.0013671805253087,-0.0013671712353153,0.0013671825377247,-0.0013671737806896,0.001367179387088,-0.0013671701900744,0.0013671814923663,-0.0010858076713511,0.0010858175598783,-0.0010858068929317,0.0010858167815119,0.65096373206224,125301,3014,0.0037281702832887,0.0046615633845971,0.0046615633846008,14.849665063487,3.3997320507894e-05,3.3997320507894e-05,3.3997320507894e-05,3022136.7809759,0.013137932406391
22919200,0.99970754728759,0.01554558418719,0.0046465813748291,0.0054495014061814,0.0054495014061796,-0.00089626787517901,0.00089627192799869,1.5490261440205e-09,1.5489791374859e-09,9.6935552801578e-10,1.8545739488477e-09,-0.0011223836089783,0.0011223887963727,-0.0011223832050926,0.0011223883923285,-0.0011223829421441,0.0011223887411641,-0.0011223825422132,0.0011223883410764,-0.00097501991024605,0.00097502351294676,-0.00097502007679452,0.00097502367935549,2.8861423058172e-09,2.4790798141057e-09,6.8138111025839e-09,-1.3020334364038e-09,-0.0011206723490015,0.0011206784612462,-0.0013678050101934,0.0013678147714907,-0.0013678071945863,0.0013678115530175,-0.0013678045081661,0.0013678139659272,-0.0013678066924161,0.0013678107473087,-0.0011612896343709,0.0011613026540823,-0.001161298179023,0.0011612952794306,-0.0010855875750482,0.0010855905165171,-0.0010855888964449,0.0010855910184858,3.5359575886581e-09,3.5359113450414e-09,-0.001120671654173,0.0011206791560764,-6.8784236802016e-10,7.5158358615353e-09,-0.0013678072619495,0.0013678127126607,-0.0013678039147769,0.0013678148735151,-0.0013678064500976,0.0013678119006847,-0.0013678031853974,0.0013678141440185,-0.0010855850538923,0.0010855947220881,-0.0010855842389681,0.0010855939072167,0.58748017292924,125301,3014,0.0037292047407777,0.0046586665954074,0.0046586665954109,15.357234334885,3.8057874679084e-05,3.8057874679084e-05,3.8057874679084e-05,2987910.9441342,0.013133128747943
23419200,0.99973290974039,0.015545936625908,0.0046466973469267,0.0054496196394914,0.0054496196394897,-0.00089765210668695,0.00089765646310223,1.6649176740844e-09,1.6648706516679e-09,1.084354694929e-09,1.9666997758336e-09,-0.0011219667595257,0.0011219722244794,-0.0011219663547933,0.0011219718195884,-0.0011219660931266,0.0011219721680185,-0.0011219656923542,0.0011219717670893,-0.00097629531621154,0.00097629918243377,-0.00097629548154329,0.00097629934762551,2.9512726035783e-09,2.5611928311976e-09,6.8776498214358e-09,-1.2164837660998e-09,-0.0011227822434263,0.0011227885574345,-0.0013680238680301,0.0013680338001387,-0.0013680260446481,0.0013680305883219,-0.0013680233614152,0.001368033000786,-0.0013680255378903,0.0013680297888238,-0.0011631272717062,0.0011631404471252,-0.0011631357964752,0.0011631330953045,-0.0010873363129362,0.0010873394156529,-0.0010873376205681,0.0010873399360647,3.6275210173406e-09,3.6274747595185e-09,-0.0011227815326534,0.0011227892682091,-5.8900565522272e-10,7.5966474530466e-09,-0.001368026095573,0.0013680317663942,-0.0013680227536223,0.0013680339206328,-0.0013680252836612,0.0013680309543582,-0.001368022024457,0.0013680331913502,-0.0010873337749955,0.0010873436420199,-0.0010873329580595,0.0010873428251368,0.60459639632209,125301,3014,0.0037349414934966,0.0046674095566363,0.0046674095566399,15.705605373845,4.084484299076e-05,4.084484299076e-05,4.084484299076e-05,3038805.5727532,0.013156630824703
23919200,0.99975790513697,0.015546346392215,0.0046468319503336,0.0054497572209416,0.0054497572209399,-0.00089973531127396,0.00089973754507805,8.3792778505781e-10,8.378807824643e-10,3.6523789404187e-10,1.0585025596057e-09,-0.001124618110563,0.0011246217676917,-0.0011246177981126,0.0011246214550827,-0.0011246175876252,0.0011246217370196,-0.0011246172781272,0.0011246214273648,-0.00097846011763352,0.00097846214942907,-0.00097846028643836,0.000978462318094,2.3595748255853e-09,2.116547331272e-09,6.1673501027448e-09,-1.5768609240212e-09,-0.0011244052546803,0.0011244101337256,-0.0013702743922161,0.0013702829214891,-0.0013702765494835,0.0013702799307744,-0.0013702739635084,0.0013702823097589,-0.0013702761206329,0.0013702793188989,-0.0011649127159366,0.0011649244437641,-0.0011649209279157,0.0011649174614164,-0.0010891188529075,0.0010891207946814,-0.0010891200166451,0.0010891214692199,3.0595217702983e-09,3.0594755066822e-09,-0.0011244045827564,0.0011244108056513,-9.7669910352753e-10,6.8483000423699e-09,-0.0013702764999121,0.001370280990072,-0.0013702733875706,0.0013702831309054,-0.0013702758333393,0.0013702803233751,-0.0013702727991822,0.0013702825423999,-0.0010891164195585,0.0010891249422272,-0.0010891155848978,0.0010891241076194,0.71228945632067,125301,3014,0.0037435815516232,0.0046741388721445,0.0046741388721481,17.004015181806,5.1232121454446e-05,5.1232121454446e-05,5.1232121454446e-05,2997604.641374,0.013179031640022
24419200,0.99978174076068,0.015546718518543,0.0046469543056006,0.0054498821064721,0.0054498821064704,-0.00089965010514647,0.00089965330822497,1.2185368901815e-09,1.218489905911e-09,7.7416062377729e-10,1.3983426374746e-09,-0.0011289303496395,0.0011289348669238,-0.0011289299903405,0.001128934507466,-0.0011289298056484,0.0011289347681822,-0.0011289294506477,0.0011289344130249,-0.00097818123794628,0.00097818405408191,-0.00097818140678273,0.00097818422277869,2.5697918894615e-09,2.4074372302613e-09,6.3101142014566e-09,-1.2037444851964e-09,-0.0011216408148814,0.0011216463741235,-0.0013719265244454,0.0013719355272231,-0.0013719285614055,0.0013719325598397,-0.0013719260027459,0.0013719348676832,-0.0013719280395629,0.0013719319001541,-0.0011625754157419,0.0011625874951227,-0.0011625833838312,0.001162580723773,-0.0010876530380747,0.0010876555168663,-0.0010876541109054,0.0010876562576143,3.2684853628981e-09,3.2684391420454e-09,-0.0011216401862032,0.0011216470028033,-6.58583212132e-10,6.9457533183715e-09,-0.0013719285958255,0.0013719336435395,-0.0013719255006098,0.0013719356578155,-0.0013719278529363,0.0013719329005258,-0.0013719248373567,0.0013719349944448,-0.001087650665455,0.0010876595703875,-0.0010876498500996,0.0010876587550837,0.6789410524186,125301,3014,0.0037432567688078,0.0046627042622826,0.0046627042622857,17.881467183151,5.8251737465207e-05,5.8251737465207e-05,5.8251737465207e-05,2913239.4964202,0.013155588975334
24919200,0.99980381705014,0.015547027324447,0.0046470562994161,0.0054499855125163,0.0054499855125146,-0.00089989667630883,0.0008999007954322,1.5713662661333e-09,1.5713192642457e-09,1.1256024354124e-09,1.7367983915307e-09,-0.0011281244003835,0.00112812972955,-0.0011281239908926,0.0011281293199006,-0.0011281238160585,0.0011281295787802,-0.0011281234118178,0.0011281291743825,-0.00097863094763148,0.0009786345119328,-0.00097863111569082,0.00097863467985236,2.8000799846329e-09,2.6690965679228e-09,6.5070110116538e-09,-8.9406732179738e-10,-0.0011219391011003,0.0011219453363925,-0.0013712111304868,0.0013712206770033,-0.0013712130811373,0.0013712176909549,-0.0013712105350862,0.0013712199562168,-0.0013712124855938,0.0013712169700232,-0.0011629712930775,0.0011629838096862,-0.0011629791427948,0.0011629771443747,-0.0010879692763724,0.0010879722917918,-0.0010879703248848,0.0010879730670362,3.5245207125469e-09,3.5244744851944e-09,-0.001121938467975,0.0011219459695196,-3.5305321671658e-10,7.1455025341701e-09,-0.0013712131669851,0.0013712188405739,-0.0013712100476171,0.0013712207627564,-0.0013712123485684,0.0013712180220331,-0.0013712093114703,0.0013712200264925,-0.0010879669151045,0.0010879763329714,-0.0010879661036639,0.0010879755215833,0.60789483588396,125301,3014,0.0037442723126075,0.0046639345767659,0.0046639345767694,18.351785607758,6.2014284862068e-05,6.2014284862068e-05,6.2014284862068e-05,2924034.519821,0.013159089267179
25419200,0.99982549945143,0.015547396399409,0.0046471781135865,0.0054501091429121,0.0054501091429104,-0.00090366158563148,0.00090366316081133,5.772981342618e-10,5.772511319624e-10,2.2353763554926e-10,6.8349823071587e-10,-0.0011292113385245,0.0011292144901907,-0.0011292110573359,0.0011292142088437,-0.0011292109184667,0.0011292144128182,-0.001129210640731,0.0011292141349258,-0.00098244347480757,0.0009824448807482,-0.00098244364576179,0.00098244505156248,2.1097645745624e-09,2.0910187611394e-09,5.6901630452879e-09,-1.3893616246683e-09,-0.0011267921665031,0.0011267966520589,-0.0013733650337869,0.0013733729371082,-0.0013733670098879,0.0013733702040395,-0.0013733645790319,0.0013733724496448,-0.0013733665549901,0.001373369716431,-0.001167572135821,0.0011675829759175,-0.0011675797146218,0.00116757666434,-0.0010921896834431,0.0010921913246049,-0.0010921906294451,0.001092192227274,2.8685178389549e-09,2.868471569192e-09,-0.0011267915438204,0.0011267972747434,-8.4290785096434e-10,6.3212606566937e-09,-0.0013733669306732,0.0013733712146763,-0.0013733640755638,0.0013733731738277,-0.0013733663164085,0.0013733706002874,-0.0013733635376659,0.0013733726358127,-0.0010921874178035,0.0010921953173727,-0.0010921865755911,0.0010921944752127,0.7372586897946,125301,3014,0.003759873247935,0.0046840413405712,0.0046840413405748,19.919551771439,7.4556414171516e-05,7.4556414171516e-05,7.4556414171516e-05,2961413.6628782,0.01321560482552
25919200,0.9998456795815,0.015547735308173,0.004647289773067,0.0054502227675541,0.0054502227675524,-0.00090351608144329,0.00090351940870865,1.2647911176172e-09,1.264744140817e-09,8.9699729496601e-10,1.3636471688092e-09,-0.0011342928784375,0.0011342975527446,-0.0011342925116285,0.0011342971857769,-0.0011342923780554,0.0011342973949783,-0.0011342920165296,0.0011342970332953,-0.00098190630647938,0.00098190917107768,-0.00098190647747212,0.00098190934193084,2.5403577685677e-09,2.5376670222331e-09,6.0875827467647e-09,-8.8064455610239e-10,-0.0011236604721781,0.0011236661593283,-0.0013754607370053,0.0013754696211246,-0.0013754625917404,0.0013754668271769,-0.0013754601549454,0.0013754690038014,-0.0013754620095377,0.0013754662097085,-0.0011647732507007,0.0011647849538255,-0.001164780687754,0.0011647787236945,-0.0010903824016221,0.0010903850104028,-0.0010903833168437,0.0010903859093956,3.2766101109573e-09,3.2765638864577e-09,-0.0011236598851661,0.0011236667463421,-3.8602758182824e-10,6.6800918218979e-09,-0.0013754626472799,0.0013754679039205,-0.0013754597219147,0.0013754697320177,-0.0013754618937492,0.0013754671502658,-0.0013754590479507,0.0013754690579368,-0.0010903801704514,0.0010903889196133,-0.0010903793572978,0.0010903881065124,0.72914636768882,125301,3014,0.0037593030290885,0.00467109135591,0.0046710913559137,20.734155976599,8.1073247812793e-05,8.1073247812793e-05,8.1073247812793e-05,2863101.9866282,0.013188857324837
26419200,0.99986319782036,0.015548056179,0.0046473959562851,0.0054503301113581,0.0054503301113564,-0.00090174447948947,0.0009017504531669,2.2917865103188e-09,2.2917395212543e-09,1.8494686970597e-09,2.427916843557e-09,-0.0011324468496126,0.001132453801673,-0.0011324463447613,0.0011324532966631,-0.0011324461895004,0.0011324535484337,-0.0011324456920413,0.0011324530508178,-0.00098033534379517,0.00098034043047773,-0.00098033551297329,0.00098034059951617,3.2571097434779e-09,3.1871970560549e-09,6.8480161433369e-09,-2.3052671323903e-10,-0.0011214846185334,0.0011214921903655,-0.0013732444803743,0.0013732550450361,-0.001373246232132,0.0013732520582081,-0.0013732437370987,0.0013732542017499,-0.0013732454887134,0.0013732512147766,-0.0011628161049068,0.0011628293961725,-0.0011628236140579,0.0011628230291513,-0.0010885089773857,0.0010885130922704,-0.0010885099621097,0.0010885139189179,3.9889065101736e-09,3.9888602940855e-09,-0.0011214840160601,0.0011214927928405,2.6045871978254e-10,7.4523392627834e-09,-0.0013732464516014,0.0013732532959947,-0.001373243320502,0.0013732550076208,-0.0013732454852654,0.0013732523295347,-0.0013732424402815,0.0013732541272833,-0.0010885067001736,0.0010885170189117,-0.0010885059093525,0.0010885162281431,0.7920419595447,125301,3014,0.0037519518848538,0.0046620693398011,0.0046620693398046,20.398997071138,7.8391976569107e-05,7.8391976569107e-05,7.8391976569107e-05,2859533.7511042,0.013163118978384
26919200,0.99987950770301,0.015548337485055,0.0046474891078211,0.005450424188618,0.0054504241886163,-0.00090206564604764,0.00090206884820415,1.215960309659e-09,1.2159133411527e-09,8.2226595876586e-10,1.3431272838246e-09,-0.0011350764402507,0.0011350809942458,-0.0011350760792618,0.0011350806330982,-0.0011350759277887,0.0011350808596609,-0.0011350755718909,0.0011350805036061,-0.00098052959927052,0.00098053237539082,-0.00098052978166468,0.00098053255764525,2.5380291720245e-09,2.4802684853735e-09,6.0640775983428e-09,-9.1621865127539e-10,-0.0011200254177817,0.001120031028348,-0.0013741587599538,0.0013741676062909,-0.0013741606234041,0.0013741648139207,-0.0013741582038316,0.0013741669800781,-0.0013741600671389,0.0013741641875628,-0.001161570717398,0.0011615823496958,-0.0011615781769095,0.0011615761183989,-0.0010877858209285,0.0010877884136959,-0.0010877868002357,0.0010877892681651,3.2477088580178e-09,3.2476626377534e-09,-0.0011200248301534,0.0011200316159782,-4.1989414977195e-10,6.657445989139e-09,-0.0013741606808756,0.001374165875632,-0.0013741577581146,0.0013741677136738,-0.0013741599379056,0.0013741651325379,-0.0013741570939973,0.0013741670494393,-0.001087783622767,0.001087792311725,-0.0010877827981131,0.0010877914871234,0.74688297492095,125301,3014,0.0037532881903092,0.0046560300166388,0.0046560300166427,21.286794795657,8.5494358365257e-05,8.5494358365257e-05,8.5494358365257e-05,2809508.834829,0.013152264898408
27419200,0.9998946479036,0.015548591566114,0.004647573452942,0.0054505090565867,0.005450509056585,-0.00090357864168249,0.00090358161499761,1.1232123882208e-09,1.1231654156852e-09,7.4969664435566e-10,1.2310736156049e-09,-0.001135067711612,0.0011350720804222,-0.0011350673602567,0.0011350717289084,-0.0011350672210803,0.001135071942369,-0.0011350668747847,0.0011350715959165,-0.00098214071970181,0.00098214329072244,-0.00098214089755341,0.00098214346843461,2.4712027827707e-09,2.4523626139173e-09,5.9577851583849e-09,-9.0940887820815e-10,-0.0011218709372534,0.0011218764157019,-0.0013744184968486,0.0013744271858849,-0.001374420333621,0.001374424442348,-0.0013744179439682,0.001374426589465,-0.0013744197805978,0.001374423845783,-0.001163391078075,0.0011634025064654,-0.0011633984306036,0.0011633963896434,-0.0010894893408395,0.0010894918320562,-0.0010894902821004,0.0010894927258112,3.2023450748797e-09,3.202298833557e-09,-0.0011218703476225,0.0011218770053345,-4.1081862750822e-10,6.553331236685e-09,-0.0013744203713659,0.0013744255010579,-0.001374417497702,0.0013744273126866,-0.0013744196453114,0.0013744247748792,-0.0013744168503203,0.001374426665188,-0.0010894871599726,0.0010894957147843,-0.0010894863336974,0.0010894948885618,0.72588280929977,125301,3014,0.0037595536636347,0.0046636721258934,0.004663672125897,22.250725959284,9.3205807674276e-05,9.3205807674276e-05,9.3205807674276e-05,2825878.0307063,0.013174072623028
27919200,0.99990837039706,0.015548834455686,0.0046476540187201,0.0054505902184839,0.0054505902184822,-0.00090474293099147,0.00090474658357341,1.3861975982325e-09,1.3861506163737e-09,1.006232968597e-09,1.4902725714165e-09,-0.0011356536824451,0.0011356586471418,-0.0011356532951154,0.0011356582596535,-0.0011356531587983,0.0011356584755763,-0.0011356527772135,0.0011356580938347,-0.00098323740589982,0.00098324053752513,-0.00098323758304689,0.00098324071453261,2.646131690307e-09,2.6363700799813e-09,6.1232985947574e-09,-7.0521373964126e-10,-0.0011231455039661,0.001123151473723,-0.0013750382024154,0.0013750473027337,-0.0013750399909369,0.0013750445314034,-0.0013750375989621,0.0013750466561901,-0.0013750393873407,0.0013750438847144,-0.0011645745117707,0.0011645862981419,-0.0011645818179244,0.0011645802129024,-0.0010906571756449,0.0010906600577007,-0.0010906581090763,0.0010906609593954,3.3846295876247e-09,3.3845833459197e-09,-0.0011231449149517,0.0011231520627391,-2.1341265900741e-10,6.7171041861367e-09,-0.0013750400713865,0.0013750456319388,-0.0013750371660113,0.001375047391166,-0.0013750392896503,0.0013750448500786,-0.0013750364647111,0.0013750466897489,-0.0010906549966769,0.0010906639313801,-0.0010906541761089,0.0010906631108645,0.76533978020323,125301,3014,0.0037643800983085,0.0046689552125008,0.0046689552125044,22.918381094461,9.8547048755687e-05,9.8547048755687e-05,9.8547048755687e-05,2829175.9820046,0.013189661469296
28419200,0.99992064340713,0.015549068915878,0.0046477317554373,0.0054506685802214,0.0054506685802197,-0.00090499472174012,0.00090499873069181,1.5266065088073e-09,1.5265595474184e-09,1.1385986228583e-09,1.635472962306e-09,-0.0011375365677796,0.0011375418356729,-0.0011375361636939,0.0011375414314287,-0.001137536024465,0.0011375416519277,-0.0011375356264204,0.0011375412537263,-0.00098335612108744,0.00098335955394333,-0.00098335630087295,0.00098335973358937,2.7414647437783e-09,2.7224509810685e-09,6.2137938976301e-09,-6.080849437059e-10,-0.0011222440243686,0.0011222502422698,-0.0013757776217371,0.0013757869315477,-0.001375779390933,0.0013757841428292,-0.0013757769967039,0.0013757862551451,-0.0013757787657568,0.0013757834662812,-0.0011637899566092,0.0011638019339041,-0.0011637972504623,0.0011637958504245,-0.0010902382783066,0.0010902413673164,-0.0010902392184638,0.0010902422565188,3.4685406330822e-09,3.4684943927889e-09,-0.0011222434429838,0.0011222508236564,-1.2670388547445e-10,6.7994639591757e-09,-0.00137577950039,0.001375785253817,-0.0013757765761788,0.0013757869921154,-0.0013757786915181,0.0013757844448211,-0.0013757758481345,0.0013757862639541,-0.0010902361088936,0.0010902452236217,-0.0010902352929335,0.0010902444077141,0.82558911402084,125301,3014,0.0037654326694352,0.0046652289816878,0.0046652289816914,23.441310114631,0.00010273048091705,0.00010273048091705,0.00010273048091705,2794240.7790613,0.013183200203813
28919200,0.99993158225438,0.015549262199722,0.0046477959622318,0.0054507331187461,0.0054507331187444,-0.00090478076450907,0.000904784742237,1.5155405412474e-09,1.5154935940051e-09,1.1258647720746e-09,1.628164924488e-09,-0.0011395000841756,0.0011395053167564,-0.001139499683208,0.0011395049156302,-0.0011394995415008,0.0011395051373839,-0.0011394991465091,0.0011395047422353,-0.00098308852791543,0.0009830919387974,-0.00098308871070938,0.00098309212145199,2.7367393205936e-09,2.7101218157896e-09,6.2011178348393e-09,-6.1233077121822e-10,-0.0011203203841269,0.0011203265800256,-0.0013761268628609,0.0013761361469877,-0.0013761286317956,0.0013761333638353,-0.0013761262427797,0.0013761354712786,-0.0013761280115715,0.0013761326879807,-0.001162130795994,0.0011621427462169,-0.001162138081259,0.0011621366706105,-0.00108906979977,0.0010890728816374,-0.0010890707446451,0.0010890737607616,3.4516223660707e-09,3.4515761352183e-09,-0.0011203198103019,0.0011203271538524,-1.3815120863423e-10,6.779355839715e-09,-0.0013761287459957,0.0013761344629303,-0.0013761258280045,0.0013761362016141,-0.0013761279414549,0.0013761336582656,-0.0013761251036639,0.0013761354771565,-0.0010890676435337,0.0010890767213921,-0.0010890668286821,0.0010890759065928,0.76400561131051,125301,3014,0.0037645539439934,0.0046572672159716,0.0046572672159753,23.983579753492,0.00010706863802794,0.00010706863802794,0.00010706863802794,2748271.7771679,0.013166204168885
29419200,0.99994141445598,0.015549403899482,0.0046478431787852,0.005450780360349,0.0054507803603473,-0.00090624033035488,0.00090624369105023,1.2720141448998e-09,1.2719671844815e-09,8.9636070376638e-10,1.3763010547122e-09,-0.001138949092847,0.0011389538036356,-0.0011389487206838,0.0011389534313139,-0.0011389485840673,0.0011389536449517,-0.0011389482174371,0.0011389532781645,-0.0009846776089911,0.00098468049668244,-0.00098467779202774,0.00098468067957961,2.5793820886609e-09,2.5694091500127e-09,6.0255501269488e-09,-7.4480522296029e-10,-0.0011224916383451,0.001122497423713,-0.0013761799459668,0.0013761888708772,-0.0013761817301601,0.0013761861350584,-0.0013761793624941,0.0013761882466575,-0.0013761811465445,0.0013761855106934,-0.0011642516348699,0.0011642632176763,-0.0011642588919261,0.0011642571969423,-0.0010909805411663,0.0010909832977826,-0.0010909814772495,0.00109098420258,3.3098702881759e-09,3.3098240401181e-09,-0.0011224910560777,0.0011224980059822,-2.583139116432e-10,6.6130103549995e-09,-0.001376181799135,0.0013761872119193,-0.0013761789307668,0.0013761889683899,-0.0013761810415591,0.0013761864542195,-0.0013761782524759,0.0013761882899821,-0.0010909783940157,0.001090987149172,-0.0010909775674228,0.0010909863226314,0.62417410960896,125301,3014,0.0037705953106289,0.0046662557118119,0.0046662557118157,24.778312167698,0.00011342649734158,0.00011342649734158,0.00011342649734158,2775445.6489993,0.013190507091536
29919200,0.99995013870124,0.015549542554857,0.0046478892986081,0.0054508266281253,0.0054508266281235,-0.00090928637435352,0.00090928993984187,1.3460183676216e-09,1.3459713715867e-09,9.710693030876e-10,1.442028273732e-09,-0.0011368374285636,0.0011368423383848,-0.0011368370404491,0.0011368419501118,-0.0011368369095396,0.001136842162406,-0.0011368365272937,0.0011368417800035,-0.00098791448666727,0.00098791753175452,-0.0009879146650966,0.00098791771004417,2.6371960379242e-09,2.6460252799039e-09,6.0867165902781e-09,-6.6914975707889e-10,-0.0011283912444732,0.0011283972104643,-0.0013767593165279,0.0013767684081415,-0.0013767610816292,0.0013767656606424,-0.0013767587112866,0.0013767677717633,-0.0013767604762452,0.001376765024119,-0.0011697218147232,0.0011697335306764,-0.0011697290609552,0.0011697275283899,-0.001095585201592,0.0010955880872612,-0.0010955861295578,0.0010955890198873,3.4013127735531e-09,3.4012664908199e-09,-0.0011283906416369,0.0011283978133024,-1.6484612428465e-10,6.6942702429039e-09,-0.0013767611472299,0.0013767667779162,-0.0013767582645594,0.0013767685126922,-0.0013767603681438,0.0013767659987064,-0.0013767575665431,0.0013767678145593,-0.0010955830326772,0.0010955919740904,-0.0010955822007731,0.0010955911422388,0.68688558505508,125301,3014,0.0037832063370205,0.0046906887535619,0.0046906887535656,25.464964439339,0.00011891971551472,0.00011891971551472,0.00011891971551472,2863095.6316493,0.01325273234854
30419200,0.99995782146618,0.015549642029915,0.0046479222852772,0.0054508598723196,0.0054508598723179,-0.00091034682637978,0.00091035048402061,1.3881883170057e-09,1.3881413444407e-09,1.0168162940778e-09,1.4837124288096e-09,-0.0011410173704082,0.0011410223492185,-0.0011410169829829,0.0011410219616348,-0.0011410168520406,0.0011410221718023,-0.0011410164705236,0.0011410217901285,-0.0009885398724908,0.00098854300107939,-0.0009885400534871,0.00098854318193615,2.6514952716096e-09,2.658850312722e-09,6.0934619878354e-09,-6.4745157308857e-10,-0.0011279618428349,0.0011279678407062,-0.0013794125333403,0.0013794216311321,-0.0013794142934901,0.0013794188881753,-0.0013794119230934,0.001379420989313,-0.0013794136831004,0.0013794182462108,-0.0011692732107154,0.0011692849436681,-0.0011692804345432,0.0011692789484352,-0.0010956681723963,0.0010956710932056,-0.0010956690916652,0.001095672014608,3.3912983592807e-09,3.3912521018408e-09,-0.0011279612611136,0.0011279684224292,-1.6462487057321e-10,6.6797609269771e-09,-0.0013794143783113,0.0013794199848426,-0.0013794115006845,0.0013794217148986,-0.001379413595823,0.0013794192022301,-0.0013794107984818,0.0013794210125789,-0.0010956660235938,0.0010956749422063,-0.001095665200127,0.001095674118792,0.56251928746541,125301,3014,0.0037876256767694,0.0046889298363977,0.0046889298364013,26.13028110339,0.00012424224882712,0.00012424224882712,0.00012424224882712,2805592.0389047,0.013253693485393
30919200,0.99996465397722,0.015549748910162,0.004647957767522,0.0054508955713209,0.0054508955713192,-0.00091408403605699,0.0009140868681455,1.0598595595474e-09,1.0598125468071e-09,7.1445914941047e-10,1.1369873335086e-09,-0.0011400845012085,0.001140088775126,-0.0011400841513388,0.0011400884250979,-0.0011400840318017,0.0011400886197821,-0.0011400836872701,0.0011400882750936,-0.00099261185542038,0.00099261427736722,-0.00099261203246411,0.00099261445427121,2.4361911172645e-09,2.4798421597393e-09,5.8548573940369e-09,-8.1782857121686e-10,-0.0011340767593896,0.0011340822164825,-0.0013808503977725,0.0013808590053831,-0.0013808521749549,0.0013808563293633,-0.001380849832703,0.0013808584380036,-0.0013808516097426,0.0013808557618388,-0.0011751528302477,0.001175164071066,-0.0011751600046967,0.0011751581583471,-0.0011007671132553,0.0011007695953461,-0.0011007680058802,0.0011007705637735,3.2085806590633e-09,3.2085343782419e-09,-0.0011340761616418,0.0011340828142322,-3.137222697353e-10,6.4581517179128e-09,-0.0013808521922913,0.001380857403498,-0.0013808493845463,0.0013808591536384,-0.0013808514731568,0.0013808566842397,-0.001380848744706,0.0013808585136812,-0.0011007649672206,0.0011007734665307,-0.0011007641296194,0.0011007726289822,0.67617106509292,125301,3014,0.0038031091699285,0.0047142586966827,0.0047142586966866,27.119347262476,0.00013215477809981,0.00013215477809981,0.00013215477809981,2885335.9469571,0.013320652016235
31419200,0.99997076663784,0.015549847583274,0.0046479904033476,0.005450928589964,0.0054509285899622,-0.0009157799419418,0.00091578203803046,7.7919308803896e-10,7.7914612215021e-10,4.6715773757826e-10,8.3717926265995e-10,-0.0011467852586309,0.0011467888913602,-0.0011467849520886,0.0011467885846592,-0.0011467848437605,0.0011467887593901,-0.0011467845420569,0.0011467884575296,-0.00099382049772357,0.00099382230144013,-0.00099382067920123,0.00099382248277835,2.2149950389133e-09,2.2922006812893e-09,5.5853602139347e-09,-9.6869376414733e-10,-0.0011331025804573,0.001133107476116,-0.0013849080442558,0.0013849160992426,-0.0013849098256454,0.0013849135101417,-0.0013849075190827,0.0013849156002329,-0.0013849093003291,0.0013849130109867,-0.0011743536056431,0.0011743642977297,-0.0011743606667342,0.0011743585022433,-0.0011008504733292,0.0011008525214634,-0.0011008513194301,0.0011008535129881,2.9615643107726e-09,2.961518058215e-09,-0.0011331020183422,0.0011331080382327,-4.9586487062446e-10,6.1538611967646e-09,-0.0013849098187537,0.0013849145068212,-0.0013849071020923,0.0013849162653488,-0.0013849091616512,0.0013849138495945,-0.0013849065212549,0.0013849156843948,-0.0011008483853314,0.0011008563214685,-0.0011008475513234,0.0011008554875133,0.69952705654839,125301,3014,0.0038101766426417,0.0047102520373567,0.0047102520373601,28.436465403076,0.00014269172322461,0.00014269172322461,0.00014269172322461,2792200.5993239,0.013319764021442
31919200,0.99997603162229,0.015549935233329,0.0046480195092325,0.0054509578620493,0.0054509578620475,-0.00091670269841316,0.00091670593062667,1.2228658205827e-09,1.2228188526646e-09,8.9369936825952e-10,1.2820876214856e-09,-0.0011487701222777,0.001148774744246,-0.0011487697577265,0.0011487743795363,-0.0011487696493555,0.0011487745627652,-0.0011487692906851,0.0011487742039379,-0.00099483100395861,0.0009948337566813,-0.00099483118378736,0.00099483393637057,2.5108729821386e-09,2.5883225694009e-09,5.8784187032095e-09,-6.5132506563608e-10,-0.001133000432276,0.0011330061371835,-0.0013859703603225,0.0013859791051525,-0.0013859720760329,0.0013859764586642,-0.0013859697574309,0.0013859785196656,-0.0013859714729984,0.001385975873032,-0.0011745091994947,0.0011745205173003,-0.0011745162200876,0.0011745147322785,-0.0011012814257224,0.0011012841204342,-0.0011012822698285,0.0011012851067384,3.2603105543388e-09,3.260264317016e-09,-0.001132999872663,0.0011330066967983,-1.9024960207878e-10,6.4427404172469e-09,-0.0013859721416279,0.0013859775187369,-0.0013859693616625,0.0013859792055145,-0.0013859713942778,0.0013859767712628,-0.0013859686932384,0.0013859785369735,-0.0011012793341456,0.0011012879059965,-0.0011012785124491,0.0011012870843525,0.71926751588325,125301,3014,0.0038140152644555,0.0047098376791304,0.0047098376791341,29.26889195973,0.00014935113567784,0.00014935113567784,0.00014935113567784,2768263.39205,0.013322822542677
32419200,0.99998035470944,0.015550014326232,0.0046480457988762,0.0054509842636789,0.0054509842636772,-0.00091571888177046,0.00091572374696441,1.8535664181418e-09,1.8535194515766e-09,1.4993718704097e-09,1.9213638870198e-09,-0.001148441909579,0.0011484479674036,-0.0011484415452912,0.0011484476029572,-0.0011484414249285,0.0011484477980562,-0.0011484410665069,0.0011484474394777,-0.00099395584701002,0.00099396003662825,-0.00099395602925761,0.0009939602187364,2.8709353213288e-09,2.9668786528772e-09,6.251789645126e-09,-2.7642549496254e-10,-0.0011314344081951,0.0011314411353313,-0.0013851504055358,0.0013851600242522,-0.001385152120686,0.0013851573782232,-0.001385149796452,0.0013851594456937,-0.0013851515114592,0.0013851567995194,-0.0011731238798665,0.0011731360642299,-0.001173130900144,0.0011731302819198,-0.0010999435467088,0.001099947082105,-0.0010999443768079,0.0010999480849054,3.6331447491571e-09,3.6330985265986e-09,-0.0011314338498481,0.0011314416936802,1.691191052186e-10,6.8196198334423e-09,-0.0013851521875737,0.0013851584368446,-0.0013851494014322,0.0013851601299471,-0.0013851514407826,0.0013851576899295,-0.0013851487334545,0.0013851594618525,-0.0010999414446309,0.0010999508808865,-0.0010999406215445,0.0010999500578524,0.78912843059547,125301,3014,0.0038099354408814,0.004703347772903,0.0047033477729066,29.299099226896,0.00014959279381517,0.00014959279381517,0.00014959279381517,2742254.811356,0.013305541912676
32919200,0.99998387677309,0.015550070641855,0.0046480645447352,0.0054510030485609,0.0054510030485591,-0.00091423892728897,0.00091424447461354,2.1264345299142e-09,2.1263875664665e-09,1.7274331671319e-09,2.2269661531244e-09,-0.0011497547076168,0.001149761306948,-0.0011497542269341,0.0011497608261066,-0.0011497540938443,0.0011497610499933,-0.001149753620669,0.0011497605766612,-0.00099232573163309,0.00099233044217502,-0.00099232591399608,0.00099233062439865,3.1408010500707e-09,3.1414943677627e-09,6.5689284525955e-09,-1.1983856219838e-10,-0.0011279946525049,0.001128001988246,-0.0013846033469995,0.0013846135590347,-0.0013846049960296,0.0013846107268623,-0.0013846026113745,0.0013846127737444,-0.0013846042602616,0.0013846099414267,-0.0011699049684582,0.0011699177219574,-0.0011699121098063,0.0011699117519049,-0.0010973722646707,0.0010973762628552,-0.0010973731802145,0.0010973771615807,3.8652023133696e-09,3.8651561016342e-09,-0.0011279940896408,0.001128002551112,3.2936970559923e-10,7.1337080107641e-09,-0.001384605212343,0.0013846119103599,-0.0013846022369872,0.0013846135202553,-0.0013846042845638,0.0013846109824568,-0.0013846013928058,0.001384612675957,-0.0010973701281461,0.0010973800584744,-0.0010973693299231,0.0010973792603035,0.69092321609739,125301,3014,0.0038038090903552,0.0046891057553836,0.0046891057553874,29.174655723794,0.00014859724579035,0.00014859724579035,0.00014859724579035,2701652.4372368,0.013270506766396
33419200,0.99998678725715,0.015550123074605,0.0046480820288069,0.0054510205229001,0.0054510205228984,-0.00091536018865892,0.00091536518734868,1.9126957848391e-09,1.9126487962157e-09,1.5147700894312e-09,2.0144264797126e-09,-0.0011483776670448,0.0011483838005562,-0.0011483771841033,0.0011483833174561,-0.0011483770524026,0.0011483835417675,-0.0011483765770128,0.0011483830662208,-0.0009932927559122,0.00099329698585288,-0.00099329293712588,0.0009932971669271,3.0266477835316e-09,3.0187255418782e-09,6.4567832298851e-09,-2.4619807621155e-10,-0.0011302711395116,0.0011302781453496,-0.0013841195500945,0.0013841295078773,-0.0013841212021015,0.0013841266690346,-0.0013841188174899,0.0013841287184298,-0.0013841204693539,0.0013841258794418,-0.00117180516353,0.0011718176519019,-0.0011718123212644,0.0011718116702895,-0.0010991666422438,0.0010991703680163,-0.0010991675697408,0.0010991712631798,3.7628579350083e-09,3.7628116960974e-09,-0.0011302705608347,0.0011302787240283,2.2243906352165e-10,7.0362355542455e-09,-0.0013841214069764,0.0013841278695194,-0.0013841184261859,0.001384129480139,-0.0013841204770399,0.001384126939459,-0.0013841175803315,0.0013841286341677,-0.0010991644929626,0.0010991741837549,-0.001099163691074,0.0010991733819186,0.77567308772676,125301,3014,0.0038084523876197,0.0046985320429948,0.0046985320429985,29.316053853615,0.00014972843082892,0.00014972843082892,0.00014972843082892,2777475.6032637,0.013294274768037
33919200,0.99998926029423,0.015550166802198,0.0046480965889123,0.0054510351066435,0.0054510351066417,-0.00091530142705397,0.00091530489508212,1.315808954822e-09,1.3157619945507e-09,9.4354938949324e-10,1.4175429208309e-09,-0.001150707869366,0.0011507126714714,-0.0011507074942598,0.0011507122962064,-0.0011507073591285,0.0011507125074309,-0.001150706989736,0.0011507121378816,-0.00099329173982694,0.00099329471635743,-0.00099329193010431,0.00099329490649549,2.6082671227621e-09,2.6032106007876e-09,6.0142272068594e-09,-6.683087863402e-10,-0.0011286901680894,0.0011286960354637,-0.0013851060183925,0.0013851149795063,-0.0013851077705557,0.0013851122682139,-0.0013851054259989,0.0013851143495829,-0.0013851071780191,0.0013851116381452,-0.001170559474407,0.0011705710425319,-0.0011705666454522,0.0011705651087321,-0.0010981593179939,0.0010981621652077,-0.0010981602475165,0.0010981630732257,3.3228052374632e-09,3.3227590104342e-09,-0.0011286896034807,0.0011286966000742,-2.0158870755924e-10,6.583775069838e-09,-0.0013851078591278,0.0013851133325891,-0.0013851050148931,0.0013851150565356,-0.0013851070953789,0.0013851125687161,-0.0013851043298219,0.0013851143713475,-0.0010981572143146,0.0010981659708827,-0.0010981563885218,0.0010981651451421,0.76303060755972,125301,3014,0.0038082077312004,0.0046919856248301,0.0046919856248337,30.069489808059,0.00015575591846447,0.00015575591846447,0.00015575591846447,2693962.7224083,0.013280796684498
34419200,0.99999140855435,0.015550203074406,0.0046481086939094,0.0054510471902492,0.0054510471902475,-0.00091773904165231,0.00091774090758106,6.9073920677373e-10,6.9069224923766e-10,3.706583370687e-10,7.610194796714e-10,-0.0011527538684401,0.0011527572963169,-0.0011527535751975,0.0011527570029158,-0.0011527534589614,0.0011527571833424,-0.0011527531702466,0.0011527568944707,-0.00099577511875943,0.00099577674214825,-0.00099577530722232,0.00099577693047179,2.1738866134077e-09,2.2283300149079e-09,5.5250291254993e-09,-1.0154119487786e-09,-0.0011308160348354,0.0011308207870162,-0.0013868286411227,0.0013868365792577,-0.0013868304295883,0.0013868340080117,-0.001386828140484,0.0013868360919713,-0.0013868299288066,0.00138683352058,-0.001172758709673,0.0011727692679385,-0.0011727657642839,0.0011727634921431,-0.0011004376767234,0.0011004396395897,-0.0011004385463421,0.0011004406103285,2.9037750464009e-09,2.9037288092546e-09,-0.0011308154774011,0.0011308213444523,-5.452645722769e-10,6.0895263667083e-09,-0.0013868304160931,0.0013868349816346,-0.0013868277191833,0.0013868367495618,-0.0013868297804235,0.0013868343458409,-0.0013868271584094,0.0013868361886712,-0.0011004356135342,0.0011004434222163,-0.0011004347742321,0.0011004425829664,0.72790058071018,125301,3014,0.0038183164273704,0.0047007968001406,0.0047007968001443,31.478845339058,0.00016703076271247,0.00016703076271247,0.00016703076271247,2691008.5633751,0.013308886614169
34919200,0.99999329944582,0.015550236352827,0.0046481197998457,0.0054510582764916,0.0054510582764899,-0.00092215772721212,0.00092215788349617,2.2643921979021e-11,2.2596969354568e-11,-2.2157276879518e-10,3.934795168238e-11,-0.0011560111993966,0.0011560131637766,-0.0011560109939819,0.0011560129582034,-0.0011560109103756,0.0011560130924123,-0.0011560107083472,0.0011560128902271,-0.0010001317382007,0.0010001319023435,-0.0010001319246717,0.0010001320886752,1.6939073480835e-09,1.8502427101843e-09,4.9543410426813e-09,-1.3330200602856e-09,-0.0011354841157324,0.0011354876837057,-0.0013902488188935,0.0013902556165773,-0.0013902506141741,0.00139025322934,-0.0013902484046432,0.0013902552952173,-0.0013902501997808,0.0013902529078348,-0.0011773016725473,0.0011773110705487,-0.001177308504041,0.0011773055638877,-0.0011049198647676,0.0011049208845963,-0.0011049206328177,0.0011049219608077,2.4503111226772e-09,2.4502648606787e-09,-0.0011354835742577,0.0011354882251823,-8.6862172040857e-10,5.50484376189e-09,-0.0013902504920481,0.0013902541035192,-0.0013902479866623,0.0013902558859547,-0.0013902499942632,0.0013902536056103,-0.0013902475596118,0.0013902554587873,-0.001104917868365,0.0011049246194751,-0.0011049170146993,0.0011049237658618,0.75808686568768,125301,3014,0.0038366423572365,0.0047201454392453,0.0047201454392491,33.571949136872,0.00018377559309498,0.00018377559309498,0.00018377559309498,2700646.3507628,0.013366653720533
35419200,0.99999493428742,0.01555026187462,0.0046481283198362,0.0054510667773926,0.0054510667773909,-0.00092663067661793,0.00092663015131215,-2.4265390970727e-10,-2.4270085724364e-10,-4.2978559935966e-10,-2.7510079269786e-10,-0.0011615653701074,0.0011615667731313,-0.0011615652000119,0.0011615666028772,-0.0011615651468277,0.0011615667007539,-0.0011615649800081,0.0011615665337774,-0.0010044005317802,0.001004400096736,-0.0010044007175917,0.0010044002824081,1.4731123329448e-09,1.7245159924316e-09,4.6439729408241e-09,-1.3813275384694e-09,-0.001138893761967,0.0011388968488165,-0.0013947845305438,0.0013947907983402,-0.0013947862776154,0.0013947885384429,-0.0013947841317368,0.0013947905592144,-0.0013947858786655,0.0013947882991718,-0.001180710599186,0.0011807193896321,-0.0011807171825618,0.0011807141475331,-0.0011086413240438,0.0011086419618883,-0.0011086419938083,0.0011086431303935,2.2479716645087e-09,2.2479254119217e-09,-0.001138893245265,0.0011388973655204,-9.4062036766402e-10,5.1700413157278e-09,-0.0013947861201268,0.0013947893636206,-0.0013947837438369,0.0013947910997032,-0.0013947856754961,0.0013947889188658,-0.001394783368164,0.0013947907239133,-0.0011086393954252,0.0011086456283039,-0.0011086385403033,0.0011086447732342,0.67379056419233,125301,3014,0.0038552079954022,0.0047342941341994,0.0047342941342032,35.927798167575,0.0002026223853406,0.0002026223853406,0.0002026223853406,2669437.287253,0.013414160211463
35919200,0.99999625665748,0.015550284042658,0.0046481357255128,0.0054510741585736,0.0054510741585719,-0.00093067457067291,0.00093067579038694,4.3177879283662e-10,4.3173182483028e-10,2.3229786166566e-10,3.8538868255205e-10,-0.0011627699481349,0.0011627728722537,-0.001162769685266,0.0011627726092263,-0.0011627696420539,0.0011627727106898,-0.0011627693841895,0.0011627724526686,-0.0010085328432031,0.0010085338468004,-0.0010085330235214,0.0010085340269791,1.9244501480081e-09,2.2071393803004e-09,5.0759394780934e-09,-8.5312400151027e-10,-0.0011442811405979,0.00114428550604,-0.00139717601746,0.0013971833442866,-0.001397177641899,0.0013971810127222,-0.0013971754889185,0.0013971829818096,-0.0013971771132146,0.0013971806500998,-0.0011859103452218,0.0011859200735602,-0.0011859168122787,0.0011859149092131,-0.001113464568294,0.0011134662161251,-0.0011134652106005,0.00111346741299,2.7239530657507e-09,2.7239067963701e-09,-0.0011442806236704,0.0011442860229694,-4.2759276589334e-10,5.5992993955999e-09,-0.0013971775904758,0.0013971819478441,-0.0013971751326039,0.001397183550877,-0.0013971770054348,0.0013971813626791,-0.0013971746211677,0.001397183039324,-0.0011134626383252,0.001113469865827,-0.001113461797914,0.001113469025468,0.72183945217264,125301,3014,0.0038719776171392,0.0047566175678559,0.0047566175678598,37.535207538572,0.00021548166030857,0.00021548166030857,0.00021548166030857,2712246.2979645,0.013476362377806
36419200,0.99999723194704,0.015550299971614,0.0046481410384006,0.0054510794666076,0.0054510794666059,-0.00092971650475336,0.00092972118581545,1.7708846482778e-09,1.7708376959769e-09,1.5201349365535e-09,1.7413346300841e-09,-0.0011633229217449,0.0011633288937248,-0.001163322658771,0.0011633286305924,-0.0011633225911515,0.0011633287562377,-0.0011633223332044,0.0011633284981338,-0.0010076554703703,0.0010076595203385,-0.0010076556545866,0.0010076597044153,2.679747884808e-09,3.002858493113e-09,5.8578656365043e-09,-6.3773854145283e-11,-0.0011425200087894,0.0011425265186426,-0.0013970721859736,0.0013970813442491,-0.0013970738075142,0.0013970790144194,-0.0013970716416823,0.0013970809948822,-0.0013970732630799,0.0013970786649071,-0.0011843830834922,0.0011843946264302,-0.0011843895435686,0.0011843894697003,-0.0011120133249209,0.0011120167365178,-0.0011120139332332,0.0011120179666575,3.5029785992319e-09,3.5029323622326e-09,-0.0011425194979702,0.0011425270294636,3.2519636920944e-10,6.3851012413929e-09,-0.0013970737623081,0.0013970799443008,-0.00139707129187,0.0013970815585722,-0.0013970731762701,0.0013970793581388,-0.0013970707793291,0.0013970810459144,-0.0011120113740793,0.0011120204065878,-0.0011120105339285,0.0011120195664892,0.70447270805608,125301,3014,0.0038680117150017,0.0047493269156442,0.0047493269156479,37.488419657716,0.00021510735726173,0.00021510735726173,0.00021510735726173,2660446.0566333,0.013457590118066
36919200,0.9999979345643,0.015550310515832,0.0046481445607272,0.0054510829775533,0.0054510829775515,-0.0009286251597968,0.00092863192609708,2.5978688534486e-09,2.5978218839423e-09,2.2330504962078e-09,2.6402665985942e-09,-0.001162461733526,0.0011624694625021,-0.0011624611851642,0.0011624689139818,-0.0011624610895256,0.0011624691113117,-0.0011624605506233,0.0011624685722526,-0.0010063963778685,0.001006402058705,-0.0010063965635155,0.0010064022442126,3.4244639130399e-09,3.5444726579165e-09,6.7277992436196e-09,4.2677806021118e-10,-0.0011412655278915,0.0011412737865306,-0.0013959451190487,0.0013959559984657,-0.0013959465779333,0.0013959532197541,-0.0013959442584382,0.0013959551547503,-0.0013959457171799,0.0013959523758933,-0.0011830208879184,0.0011830340427635,-0.0011830276459537,0.0011830284549153,-0.0011108724566989,0.0011108771988198,-0.0011108732679574,0.0011108782251229,4.1952190413792e-09,4.1951728034976e-09,-0.0011412649855397,0.0011412743288842,8.3779899863921e-10,7.2691035402883e-09,-0.0013959468759977,0.0013959544788299,-0.0013959439436247,0.0013959558882568,-0.0013959458443974,0.0013959534471057,-0.001395942999366,0.0013959549438813,-0.0011108704050271,0.0011108809155567,-0.0011108696086664,0.0011108801192482,0.64727478642576,125301,3014,0.0038634922995458,0.0047441326430466,0.0047441326430505,36.86207262757,0.00021009658102056,0.00021009658102056,0.00021009658102056,2681632.9923416,0.013442482194973
37419200,0.9999984768193,0.015550318750436,0.0046481473112711,0.0054510857195831,0.0054510857195813,-0.00093090614077218,0.00093090940015446,1.2295225217839e-09,1.2294755545422e-09,9.0185007024647e-10,1.2845218805912e-09,-0.0011629425243529,0.0011629471859242,-0.0011629421561507,0.0011629468175636,-0.0011629420505123,0.0011629469991721,-0.0011629416884777,0.0011629466369807,-0.0010087175487703,0.0010087203158305,-0.0010087177384803,0.001008720505401,2.5338410385349e-09,2.6223525395072e-09,5.819971805837e-09,-5.3436832275913e-10,-0.00114449334602,0.0011444991251477,-0.0013972782237126,0.0013972869910532,-0.001397279879059,0.0013972843981051,-0.0013972776157427,0.0013972864072282,-0.0013972792709463,0.0013972838141349,-0.0011860966554767,0.0011861078639947,-0.0011861035179241,0.0011861022659612,-0.0011136796806162,0.0011136824812646,-0.0011136805277653,0.0011136834920975,3.2855085106173e-09,3.2854622441484e-09,-0.0011444927917276,0.0011444996794419,-8.2312557437284e-11,6.3785901407144e-09,-0.0013972799528432,0.0013972854584743,-0.0013972772249116,0.0013972870837703,-0.0013972792034658,0.0013972847089729,-0.0013972765543989,0.0013972864131408,-0.0011136776574723,0.0011136862245488,-0.0011136768228768,0.0011136853900055,0.65462458225499,125301,3014,0.0038729410528986,0.0047575003008827,0.0047575003008864,37.673433661113,0.0002165874692889,0.0002165874692889,0.0002165874692889,2710598.0203235,0.013479129395895
37919200,0.99999887676269,0.015550324407897,0.0046481491992619,0.0054510876043184,0.0054510876043167,-0.00093084049614758,0.00093084541038637,1.8681889916087e-09,1.8681420293375e-09,1.5162802847075e-09,1.9315100810605e-09,-0.0011633771245172,0.0011633832370664,-0.0011633767566081,0.0011633828689988,-0.0011633766391911,0.0011633830621067,-0.0011633762774447,0.0011633827002035,-0.0010086484388973,0.0010086526612503,-0.0010086486288329,0.0010086528510465,2.8951114371711e-09,3.0017551845076e-09,6.1960137678418e-09,-1.6058011313036e-10,-0.0011442435338507,0.0011442503394906,-0.0013975654017373,0.0013975750429132,-0.0013975670578791,0.0013975724493182,-0.0013975647871206,0.00139757446559,-0.0013975664431195,0.0013975718718497,-0.0011858909166345,0.0011859029979912,-0.0011858977799815,0.0011858973963803,-0.0011134942846758,0.0011134979284964,-0.0011134951149761,0.0011134989522889,3.6571289193983e-09,3.6570826687524e-09,-0.001144242982656,0.0011442508906871,2.7423898706954e-10,6.7562728294733e-09,-0.0013975671344676,0.0013975735064618,-0.001397564399245,0.0013975751392986,-0.0013975663852702,0.0013975727571404,-0.0013975637288516,0.0013975744687883,-0.0011134922490362,0.0011135016806754,-0.0011134914161464,0.0011135008478379,0.61069305856337,125301,3014,0.0038726736588438,0.0047564695479804,0.0047564695479842,37.676464297208,0.00021661171437766,0.00021661171437766,0.00021661171437766,2694987.5801108,0.013476778653289
38419200,0.99999916590853,0.015550329087902,0.0046481507601003,0.0054510891639019,0.0054510891639002,-0.00093044353550196,0.00093044994556118,2.4609390432662e-09,2.4608920647308e-09,2.0323412764279e-09,2.5722077557011e-09,-0.0011619057499396,0.0011619131453357,-0.0011619052198388,0.0011619126150764,-0.001161905080774,0.0011619128558721,-0.0011619045593454,0.0011619123342867,-0.0010082551631673,0.0010082605933183,-0.0010082553473982,0.0010082607774097,3.3892850116042e-09,3.3746495130974e-09,6.7969792751698e-09,1.4919689516596e-10,-0.0011445904416015,0.0011445984209064,-0.0013967625218112,0.0013967733361465,-0.0013967641104407,0.0013967704627341,-0.0013967617285334,0.0013967724749585,-0.0013967633170199,0.0013967696014009,-0.001186104424206,0.0011861176492611,-0.0011861115273783,0.0011861117244374,-0.0011135378886262,0.0011135424256035,-0.0011135388376363,0.0011135433240222,4.1306624263924e-09,4.1306161686291e-09,-0.0011445898621704,0.0011445990003394,6.0451554470036e-10,7.3767250689951e-09,-0.0013967643745755,0.0013967717155756,-0.0013967613503132,0.0013967732581492,-0.0013967633699633,0.0013967707108395,-0.0013967604329528,0.001396772340672,-0.0011135357582143,0.0011135462346711,-0.0011135349538104,0.0011135454303194,0.69725492786575,125301,3014,0.003871025645168,0.0047579036225375,0.0047579036225413,37.198313764438,0.0002127865101155,0.0002127865101155,0.0002127865101155,2723985.4163674,0.01347800068084
38880000,0.99999936782429,0.015550332479704,0.0046481518900624,0.0054510902948216,0.0054510902948199,-0.000929277859721,0.00092928315370962,2.0296057622019e-09,2.0295551570125e-09,1.6120307261855e-09,2.1462758331877e-09,-0.0011636668455014,0.0011636732296183,-0.0011636663566094,0.0011636727407295,-0.0011636662145778,0.0011636729771731,-0.0011636657337101,0.0011636724960037,-0.0010071648305986,0.0010071692889797,-0.0010071650480513,0.0010071695062288,3.1090669441946e-09,3.0729987395549e-09,6.5163470548554e-09,-1.6180191862041e-10,-0.0011416399000916,0.001141647092603,-0.0013970095777366,0.0013970196969279,-0.0013970112153805,0.0013970168571314,-0.0013970088455829,0.0013970188892408,-0.0013970104829913,0.0013970160493798,-0.0011835059360148,0.0011835185154806,-0.0011835131020649,0.0011835125936083,-0.0011112088518946,0.001111212734669,-0.0011112098561189,0.0011112136507817,3.8208842986663e-09,3.8208390403724e-09,-0.0011416393335883,0.001141647659364,2.9061162766132e-10,7.0834032592456e-09,-0.0013970114463636,0.0013970180500874,-0.001397008461911,0.0013970196448134,-0.001397010506353,0.0013970171099554,-0.0013970076066663,0.0013970187892946,-0.0011112067797064,0.0011112165662227,-0.0011112059338451,0.0011112157204625,0.72416034322607,125301,3014,0.0038661995037426,0.0047456866337022,0.0047456866342363,37.193685392235,0.00021274948313788,0.00021274948313788,0.00021274948313788,2655990.441289,0.013448389749358
