time,ASR_ext,ASR_strain,ASR_strain_xx,ASR_strain_yy,ASR_strain_zz,disp_x_101,disp_x_102,disp_x_103,disp_x_104,disp_x_105,disp_x_106,disp_x_p1_neg,disp_x_p1_pos,disp_x_p2_neg,disp_x_p2_pos,disp_x_p3_neg,disp_x_p3_pos,disp_x_p4_neg,disp_x_p4_pos,disp_x_p5_neg,disp_x_p5_pos,disp_x_p6_neg,disp_x_p6_pos,disp_y_101,disp_y_102,disp_y_103,disp_y_104,disp_y_105,disp_y_106,disp_y_p1_neg,disp_y_p1_pos,disp_y_p2_neg,disp_y_p2_pos,disp_y_p3_neg,disp_y_p3_pos,disp_y_p4_neg,disp_y_p4_pos,disp_y_p5_neg,disp_y_p5_pos,disp_y_p6_neg,disp_y_p6_pos,disp_y_p7_neg,disp_y_p7_pos,disp_y_p8_neg,disp_y_p8_pos,disp_z_101,disp_z_102,disp_z_103,disp_z_104,disp_z_105,disp_z_106,disp_z_p1_neg,disp_z_p1_pos,disp_z_p2_neg,disp_z_p2_pos,disp_z_p3_neg,disp_z_p3_pos,disp_z_p4_neg,disp_z_p4_pos,disp_z_p5_neg,disp_z_p5_pos,disp_z_p6_neg,disp_z_p6_pos,humidity,ndof,nelem,strain_xx,strain_yy,strain_zz,temp,thermal_strain_xx,thermal_strain_yy,thermal_strain_zz,vonmises,vstrain
2419200,0,0,0,0,0,0,0,0,0,0,0,0,0,0,0,0,0,0,0,0,0,0,0,0,0,0,0,0,0,0,0,0,0,0,0,0,0,0,0,0,0,0,0,0,0,0,0,0,0,0,0,0,0,0,0,0,0,0,0,0,0,0,0,0,0,0,0,0,0,0,0,0,0,0,0
3419200,0.15846859714664,0.002732633383958,0.00091087779465268,0.00091087779465268,0.00091087779465268,-0.00024100391933977,0.00023813814100653,-2.8584445919755e-06,1.2359322818889e-07,-1.8616601325917e-06,-8.2899986784607e-07,-0.00024845484913018,0.00024429391807792,-0.00024748118298282,0.00024485337847998,-0.00024846830200344,0.00024459689308562,-0.00024724443016068,0.00024574404951221,-0.00024627972614282,0.00024050228426968,-0.0002425259769043,0.00024355529787878,2.3338735444787e-06,1.3285606770307e-06,1.4373112622161e-06,2.9267408513839e-06,-0.00025190927554326,0.00025569225487058,-0.00025773097712723,0.00026078730508284,-0.00025707158599091,0.000261538595161,-0.00025771960808883,0.00026047989201189,-0.00025752566672489,0.00026115138403283,-0.00025288292519855,0.00025615322118068,-0.00025245714176952,0.00025805330271452,-0.00025003656705981,0.00025536974359868,-0.00025136761030962,0.00025411257638573,9.3726031021365e-07,-2.0365448931004e-06,-0.00025440536049278,0.00025317731563328,-3.3664698774719e-08,-1.5207464955061e-06,-0.00025912924335346,0.0002595495057245,-0.00025940956340836,0.00025884282930593,-0.00026012372594491,0.00025864728987264,-0.00026056695776632,0.00025772567159699,-0.00025446436197952,0.00024976272018058,-0.00025139187456214,0.00025326355841637,0.78396790087846,134640,3014,0.00099771719807998,0.0010569415852258,0.0010569023745924,31.785376143692,0.00016948300914954,0.00016948300914954,0.00016948300914954,1744419.2716169,0.0031164096003254
4419200,0.34890811671806,0.0058602609035424,0.001853461083109,0.0020034362954401,0.0020033635249932,-0.00045212117390323,0.00044710146638763,-4.0480359549117e-06,-7.805805088807e-07,-2.8687906873826e-06,-1.8324443478654e-06,-0.00047873937659954,0.0004725046348237,-0.00047773073821325,0.00047251950114859,-0.00047923852724904,0.00047277915672164,-0.00047759936217176,0.00047422081072259,-0.00047302452252983,0.0004643001210007,-0.00046799087047475,0.00046797355076834,4.1251394465001e-06,3.156530987933e-06,3.8057185548111e-06,5.0690771969361e-06,-0.00050661262251825,0.00051424145854198,-0.00053455007311674,0.00054085402857683,-0.00053369313920887,0.00054186536880235,-0.00053407664682141,0.00054064366705365,-0.00053439168924989,0.00054146145371558,-0.00051152169029102,0.00052009554545387,-0.00051238272704885,0.0005222638621681,-0.00049595823717338,0.00050500291454362,-0.00049772996261256,0.00050343372976737,6.964948309927e-07,-2.4962667730705e-06,-0.00051147325445113,0.00050934850080822,-7.6250970222876e-07,-2.029908266124e-06,-0.00053802336573409,0.00053773930618676,-0.00053795828114501,0.00053686198229058,-0.00053916734510303,0.00053688164402883,-0.00053949371821691,0.00053548525079911,-0.00050227995989728,0.00049626653421564,-0.000498567059584,0.00050069124278854,0.77882048877936,134640,3014,0.0018716903173754,0.002124498465128,0.0021244314815831,33.598604737789,0.00018398883790231,0.00018398883790231,0.00018398883790231,2853529.57852,0.0061394145826986
5419200,0.54875276208381,0.0090199336331118,0.0027647012462525,0.00312765086561,0.0031275815212493,-0.00064782030992964,0.00064773658947352,-2.6089724701324e-06,2.6732221720587e-06,-2.4976516025683e-06,2.659468812777e-06,-0.00070527570351165,0.00070178796291673,-0.00070354945442554,0.00070286718468276,-0.00070408044771808,0.00070343637588181,-0.0007019795875084,0.00070551672365873,-0.00068888972175545,0.00068490580484278,-0.0006826445146125,0.0006903600702057,3.0074889258887e-06,-2.0679787639333e-06,1.4865130583819e-06,2.4529077325405e-07,-0.00076979918624993,0.0007707506966748,-0.00083397632522611,0.00083614261625572,-0.00083402986045277,0.00083607775149218,-0.00083514173497246,0.00083446311919945,-0.0008359449373944,0.00083428150476449,-0.00078368013676799,0.00078539266751317,-0.00078579151144759,0.00078465565843726,-0.0007433329596478,0.00074901943003638,-0.0007486691478561,0.00074366430861254,2.8130699875441e-06,-2.3918931836839e-06,-0.00077010279183971,0.00077041389462075,-6.3162603149595e-07,5.7574554235362e-07,-0.00083413982285196,0.00083602419213859,-0.00083352392902992,0.00083620886879984,-0.00083584454279821,0.00083441616278409,-0.00083555323287818,0.00083429345110787,-0.00074780363347272,0.00074323261860151,-0.0007424199253599,0.00074903258353262,0.77319620046515,134640,3014,0.0026957090288958,0.0032042678780286,0.0032041992602636,36.266592193237,0.00020533273754589,0.00020533273754589,0.00020533273754589,3620518.3922698,0.0091458393816375
6419200,0.70533489875463,0.011291659683367,0.0034036993601113,0.0039439919867723,0.0039439683364836,-0.00077416484083679,0.0007730935175402,-3.3538172703234e-06,2.4367053494817e-06,-2.9508404792849e-06,2.1611077405887e-06,-0.00086975695183354,0.00086518303807366,-0.00086791397107197,0.00086637848169617,-0.00086861578957964,0.00086676957482816,-0.00086632836168455,0.00086903195732135,-0.00082786829975926,0.00082228881276282,-0.00082095077880253,0.000828278892353,3.8361810253794e-06,-1.1804403686052e-06,1.8543499951811e-06,1.7696194612539e-06,-0.00094514112303247,0.00094790044339403,-0.0010534293722155,0.0010569669110517,-0.0010530707960476,0.0010572990669524,-0.0010545308163269,0.0010553505428344,-0.0010549619157436,0.0010555321389322,-0.00096242863964625,0.00096514138618389,-0.00096355768799236,0.00096555054416404,-0.00090479816940704,0.00091257414139055,-0.00091019488449096,0.00090719025451635,2.5090939463412e-06,-3.2093837515058e-06,-0.00094694024228946,0.00094608833181052,-6.6982184633469e-07,-6.1256755724614e-07,-0.0010545811419734,0.0010558641333545,-0.00105437209155,0.0010557008603847,-0.0010564780754284,0.0010540935167264,-0.0010565859376883,0.0010535893235309,-0.00091126773947551,0.00090468264836704,-0.00090533002659427,0.00091108278187468,0.72914356976016,134640,3014,0.0032188541803023,0.0039359665483628,0.0039359401829644,36.738372753057,0.00020910698202446,0.00020910698202446,0.00020910698202446,3884808.2282465,0.011152707643907
7419200,0.83116964481312,0.01304092090735,0.0039113653063261,0.0045647963951316,0.0045647592058925,-0.00086599158841245,0.00086509189156817,-3.0473593168177e-06,2.2702749974225e-06,-2.5189113714733e-06,1.8877871718309e-06,-0.00099996928309101,0.00099597836472359,-0.00099831726998702,0.00099705896508362,-0.00099903017099326,0.00099730935042919,-0.00099690432202368,0.00099943442963103,-0.0009281326847049,0.0009227889840147,-0.00092162887754179,0.0009284589858065,3.1715819619774e-06,-1.1373059342403e-06,2.0635431634198e-06,9.5775236808624e-07,-0.0010717872548197,0.0010739173366914,-0.0012234898041597,0.0012265068757111,-0.0012234425922106,0.0012264804102031,-0.0012243954930244,0.0012251424373482,-0.0012251158284731,0.0012249262497036,-0.0010897599890804,0.0010931428550461,-0.0010918819154271,0.0010924999806584,-0.0010220448160621,0.0010281564448227,-0.0010268382442537,0.001023464724963,2.4274625276462e-06,-2.8242695434078e-06,-0.0010731017352184,0.0010725842844149,-9.9763888695583e-07,6.6187203685772e-08,-0.0012244058105224,0.0012255297375328,-0.0012238994693811,0.0012257326383805,-0.0012261084548538,0.0012238971223598,-0.0012259227351445,0.0012237822412387,-0.0010272421847002,0.0010217096933226,-0.0010216347128379,0.0010276301615152,0.71234622013412,134640,3014,0.003600886609504,0.0044601142646126,0.0044600764365697,40.7607805985,0.000241286244788,0.000241286244788,0.000241286244788,3980667.5884733,0.012600162921299
8419200,0.9072364711808,0.014071936223131,0.0042197199126278,0.0049261345340158,0.0049260817764872,-0.00090652543743348,0.00090572449802867,-2.9172584125876e-06,2.2129380456451e-06,-2.5917876690035e-06,2.0737763415881e-06,-0.0010711543873599,0.001067253497173,-0.0010695819479779,0.001068282333085,-0.0010701178607113,0.001068665837357,-0.0010680713796688,0.0010707157086433,-0.00097368714904925,0.00096866573229647,-0.0009673885008893,0.00097415247442668,3.2643202088427e-06,-1.3010568566691e-06,2.1718223092817e-06,7.2607798724124e-07,-0.0011277371241563,0.0011297824185351,-0.001312133372642,0.0013152787547252,-0.0013121965550588,0.0013151265691056,-0.0013131314787809,0.0013138310523912,-0.0013139372113938,0.0013134912098942,-0.0011476452302623,0.0011510785055147,-0.0011499985474032,0.0011500492137362,-0.0010745005781062,0.0010806698578052,-0.0010794693405994,0.0010756909471402,2.4276406066433e-06,-2.633426115295e-06,-0.0011289152138822,0.0011285810286514,-1.0603997413507e-06,3.3527666922309e-07,-0.0013131197658755,0.0013142232273556,-0.0013125135945689,0.0013145557531216,-0.0013147455087092,0.0013126610886557,-0.0013144658088056,0.0013126762760862,-0.0010795413934326,0.0010744817069497,-0.001074060218797,0.0010801544429369,0.69848786902607,134640,3014,0.0037696644152689,0.0046920032680239,0.0046919556958743,41.43308465432,0.00024666467723456,0.00024666467723456,0.00024666467723456,3830759.9969949,0.013241034083208
9419200,0.94937442099425,0.014630225809779,0.0043914869067686,0.0051193968634158,0.0051193420395947,-0.00092040930290301,0.00091963860250506,-2.9173919177306e-06,2.2460022467243e-06,-2.6186930863468e-06,2.1173724596542e-06,-0.0011063672318148,0.0011024807508543,-0.0011047981623092,0.0011035220140874,-0.001105304210779,0.0011039105086987,-0.0011032573133564,0.0011059674059207,-0.00098987699509168,0.00098487192077322,-0.00098356440908156,0.00099039694180768,3.2844212350833e-06,-1.3498609199214e-06,2.217010643094e-06,6.2086447644342e-07,-0.0011456542485402,0.0011476609200862,-0.0013519646616438,0.0013551471509787,-0.0013520741924877,0.0013549511778237,-0.0013529900490149,0.0013536869441927,-0.0013538359336419,0.0013532881479517,-0.001167130755566,0.0011706244203363,-0.0011695971998475,0.0011694041427306,-0.0010924866680566,0.0010986445642405,-0.0010975571324947,0.0010936179368239,2.4618031982656e-06,-2.6332633706304e-06,-0.001146793871998,0.0011464993375403,-1.1072997996544e-06,4.3551304761189e-07,-0.0013529664578559,0.0013540721232304,-0.0013523257259641,0.0013544560943104,-0.0013545864449191,0.0013524844025462,-0.0013542790538243,0.0013525699050339,-0.001097543908584,0.0010925363271455,-0.001092028042982,0.0010982168572667,0.67994985018656,134640,3014,0.003827556993887,0.0047662502232448,0.0047662054720434,41.145479049685,0.00024436383239748,0.00024436383239748,0.00024436383239748,3630470.5708706,0.013450296923109
10419200,0.97045966888622,0.014917721683212,0.0044819865822287,0.0052178952215574,0.0052178398794263,-0.00092012767425367,0.00091933670416985,-2.9067212332272e-06,2.2444470988381e-06,-2.4561510316156e-06,1.9181036211026e-06,-0.0011176580246928,0.0011138335255005,-0.0011160669317398,0.0011148867047903,-0.0011166836440386,0.0011151426583148,-0.0011146385235834,0.0011171959606056,-0.00099073317102109,0.00098575356821988,-0.00098449992370327,0.00099119997713745,3.1325564938093e-06,-1.1404293120491e-06,1.9087036878618e-06,9.6431202303979e-07,-0.0011443734658522,0.0011464314939082,-0.0013626196867175,0.0013655474516067,-0.0013625326695828,0.0013655542741673,-0.001363557700133,0.0013642026442144,-0.0013641842874903,0.0013640240299608,-0.0011675202137331,0.0011705017751345,-0.0011693201209477,0.0011699521325002,-0.0010927970869987,0.0010988543041739,-0.0010974573056484,0.001094232008641,2.3799346537291e-06,-2.703387342258e-06,-0.0011456115320013,0.00114517028046,-8.6072391954217e-07,3.8191519894989e-08,-0.0013634765767106,0.0013646472381946,-0.0013630503140528,0.0013648296679866,-0.0013651139736033,0.0013630688215421,-0.0013650130239942,0.0013629431622189,-0.001097889920266,0.0010925873724651,-0.0010925288431951,0.0010982962623385,0.69329668188212,134640,3014,0.0038264425135931,0.0047610695691404,0.0047610223899968,38.100583821456,0.00022000467057165,0.00022000467057165,0.00022000467057165,3463479.6817814,0.01343872875811
11419200,0.98263713643977,0.015081234857603,0.0045341443156463,0.0052735728482303,0.0052735176937263,-0.00092059684350667,0.00091984420551163,-2.8603285558528e-06,2.2326991783106e-06,-2.5617965482501e-06,2.0643863081904e-06,-0.0011280586313135,0.0011242127734965,-0.0011264901346029,0.0011252467725262,-0.0011270030892687,0.0011256027471733,-0.001124977192666,0.0011276378227591,-0.00099155341699995,0.00098673878395101,-0.0009853709468865,0.00099213525176305,3.237338820063e-06,-1.2874391728548e-06,1.9604942079727e-06,8.6824894415748e-07,-0.0011429813627043,0.0011449978980789,-0.0013705710626812,0.0013735870893669,-0.0013705287317053,0.0013735450779997,-0.0013715901922726,0.0013721621599716,-0.0013722621020759,0.001371928173773,-0.001167288156742,0.001170291436448,-0.001169228156857,0.0011695799367861,-0.0010932308046806,0.0010994530365346,-0.001098147921063,0.0010945741281434,2.3693891430484e-06,-2.6556186684407e-06,-0.0011441804957219,0.0011437763011358,-9.1303007410307e-07,1.3195449550312e-07,-0.0013714841467885,0.0013726201205769,-0.0013710122398442,0.0013728537999219,-0.0013731007729144,0.0013710618933189,-0.0013729534954357,0.0013709891034155,-0.0010983500809363,0.0010931896317505,-0.0010930345815952,0.0010988339552939,0.67906583909156,134640,3014,0.0038285445717439,0.0047552387198387,0.0047551929543765,37.62819709895,0.0002162255767916,0.0002162255767916,0.0002162255767916,3322351.3164894,0.013429120917422
12419200,0.98962206399594,0.015177653400219,0.0045652055470544,0.0053062514636822,0.0053061963894821,-0.00091855402453761,0.00091778298707011,-2.8911762443089e-06,2.2394889332973e-06,-2.5538493026279e-06,2.0308350691544e-06,-0.0011306739782139,0.0011268313202864,-0.001129111643069,0.0011278790125746,-0.001129643458364,0.001128205744943,-0.0011276137654883,0.0011302563578862,-0.00099006046358694,0.00098513498068533,-0.00098381323414402,0.00099058703844678,3.2569229673455e-06,-1.2260377028909e-06,1.9827422763777e-06,9.4049002786304e-07,-0.0011391555584036,0.0011412618375111,-0.0013714907544496,0.0013745634074934,-0.0013714308736491,0.0013745418406158,-0.0013724973203504,0.0013731623094472,-0.0013731429928802,0.0013729507854257,-0.0011642994325477,0.0011673619137948,-0.0011661739122373,0.0011666917305252,-0.0010906300446894,0.0010969105919854,-0.001095540681395,0.0010920704961547,2.401112791984e-06,-2.6594453756317e-06,-0.0011403830033744,0.0011400059450664,-8.7390978661422e-07,1.222370606494e-07,-0.0013723957762617,0.0013735910425223,-0.0013719481733142,0.0013738090577646,-0.0013739982204686,0.0013720095157982,-0.0013738984520406,0.0013719266245414,-0.001095832733762,0.0010906356359419,-0.0010904482275838,0.0010963129185536,0.69355173638275,134640,3014,0.0038200588285493,0.0047395741945331,0.0047395159857533,36.804267200467,0.00020963413760373,0.00020963413760373,0.00020963413760373,3238296.3594937,0.013388786152119
13419200,0.99352337978438,0.01523021326652,0.0045822267383404,0.0053240208656291,0.0053239656625503,-0.00091480865181009,0.00091405910172947,-2.8958803680525e-06,2.2733365310387e-06,-2.5518980392721e-06,2.052789315975e-06,-0.0011317261956807,0.0011278671250495,-0.0011301352734832,0.0011289291667581,-0.0011306743436169,0.0011292463487034,-0.0011286252203853,0.0011313078773464,-0.00098606156796883,0.00098117083168259,-0.00097980390063143,0.00098664248274538,3.2264779624699e-06,-1.2767157887542e-06,1.9749202988823e-06,8.5494709568865e-07,-0.001133195119167,0.0011352144493859,-0.0013698699683108,0.0013728929782341,-0.0013698361573022,0.0013728418581299,-0.0013708857003436,0.0013714797301552,-0.0013715629924567,0.0013712320645383,-0.0011587652997048,0.001161805669154,-0.0011607166707604,0.0011610540554761,-0.001086012608458,0.0010922009487461,-0.0010909200593882,0.0010873461104828,2.4073465474084e-06,-2.6937002657868e-06,-0.0011343950108961,0.0011339924972946,-9.230492120906e-07,1.4914990875871e-07,-0.0013707776668757,0.0013719296353786,-0.0013703009379864,0.0013721753002132,-0.0013724174286503,0.0013703447542867,-0.0013722659628672,0.0013702860855714,-0.001091157424872,0.0010859345651929,-0.0010857711782393,0.0010916549641536,0.67550368717366,134640,3014,0.0038045815834082,0.0047146960293134,0.0047146511040701,34.794597944059,0.00019355678355247,0.00019355678355247,0.00019355678355247,3145289.9592004,0.013322741664594
14419200,0.99577610280019,0.015260188993885,0.0045919851616267,0.0053341295061849,0.0053340743260732,-0.00090973082499371,0.00090897496860094,-2.9037680963174e-06,2.2761459377527e-06,-2.5097531480484e-06,2.0054174525485e-06,-0.0011278591928835,0.0011240145574562,-0.0011262627611362,0.0011250830590752,-0.0011268337421439,0.0011253658683399,-0.0011247816806776,0.0011274298747945,-0.00098102404954382,0.00097609613476055,-0.00097476529661794,0.00098157490916092,3.1905804211231e-06,-1.2229037114988e-06,1.9866442378922e-06,8.5436920920003e-07,-0.0011265128474731,0.0011285459917678,-0.0013645177338394,0.0013675322295626,-0.0013644909467498,0.0013674741155544,-0.0013655096760042,0.0013661472662345,-0.001366187092906,0.0013658968970033,-0.0011522902326329,0.001155377555338,-0.0011542510269818,0.0011546215115377,-0.0010800309723561,0.0010861399856407,-0.001084831538489,0.0010813793796656,2.4146769479907e-06,-2.6976191246657e-06,-0.001127718090447,0.0011273187168714,-9.2818469158348e-07,1.5609006202738e-07,-0.0013654223986236,0.0013665774574578,-0.0013649415850155,0.001366829161096,-0.0013670650857844,0.0013649884735533,-0.0013669121829267,0.0013649355204799,-0.0010851282721775,0.0010799019904646,-0.0010797371642317,0.0010856347024803,0.66543916070223,134640,3014,0.0037834906066322,0.0046870182757779,0.0046869734176526,32.643906339661,0.00017635125071728,0.00017635125071728,0.00017635125071728,3095242.687532,0.013245277051151
15419200,0.99694920105816,0.015276721886422,0.0045973826248449,0.0053396972103962,0.0053396420511809,-0.00090001672460092,0.00089924332819108,-2.9165011617023e-06,2.2706077198263e-06,-2.4732680516374e-06,1.9465960211004e-06,-0.001118461276587,0.0011146290718547,-0.001116862487078,0.0011157006818007,-0.001117461091283,0.0011159468403964,-0.001115408705695,0.0011180087187704,-0.00097094991342984,0.00096597642300618,-0.00096468283093892,0.00097144190603364,3.1481907126566e-06,-1.1702779809523e-06,1.9784691480773e-06,8.7050267584282e-07,-0.0011144777209808,0.0011165246257851,-0.001352916027343,0.0013559126888079,-0.0013528818404765,0.0013558607563919,-0.0013538787230736,0.0013545609664172,-0.0013545527713911,0.0013543225341682,-0.0011402232396313,0.0011433223721188,-0.0011421394707061,0.0011425733459702,-0.0010685674256637,0.0010745996060729,-0.0010732783245337,0.0010699375500372,2.4373038583962e-06,-2.6822466738382e-06,-0.0011156701586733,0.0011153079459224,-8.9009876108584e-07,1.7036048737801e-07,-0.0013537899578304,0.0013549862907251,-0.0013533210606,0.0013552308272351,-0.001355436771375,0.0013533915432134,-0.0013552923657033,0.0013533340156745,-0.0010736167434069,0.0010684256424844,-0.0010682292243072,0.0010741595069793,0.70138893893245,134640,3014,0.0037431157680769,0.0046371406242851,0.0046370911625884,27.069722384384,0.00013175777907507,0.00013175777907507,0.00013175777907507,3027300.8890588,0.013103291572039
16419200,0.99770229603289,0.015286972234778,0.004600740903976,0.0053431432432728,0.0053430880875297,-0.00089584143609452,0.00089504092930721,-2.975101072146e-06,2.2959512662976e-06,-2.4989029130225e-06,1.9347998014671e-06,-0.0011177008864754,0.0011138308386981,-0.0011160897794687,0.0011149323137096,-0.0011167160402882,0.001115157109757,-0.0011146436553281,0.0011172481370406,-0.00096629261449173,0.0009611846849347,-0.00095991131646079,0.00096673752349311,3.1869694692769e-06,-1.1465013266399e-06,2.0453165770271e-06,8.8396136604657e-07,-0.0011081215488781,0.001110239828355,-0.0013495796705195,0.0013526590157311,-0.0013495535747818,0.0013525921528516,-0.0013505404413192,0.0013513063901934,-0.0013512170343639,0.0013510598437262,-0.0011339707193751,0.0011371956022781,-0.0011359135889883,0.0011363944757957,-0.0010630145770851,0.0010691101849703,-0.00106778560396,0.0010644412049292,2.4947224506529e-06,-2.7062016493968e-06,-0.0011093287058396,0.0011089993065952,-8.9664718665745e-07,2.1785459772713e-07,-0.0013504583236709,0.0013517039137311,-0.001349982566592,0.0013519622333551,-0.0013521100485044,0.0013500715788343,-0.0013519795147239,0.001350032049892,-0.0010681436563341,0.0010629183336857,-0.001062649319732,0.0010687349241529,0.67697638702225,134640,3014,0.0037257375814651,0.0046109473822701,0.0046108789450075,24.418335340955,0.00011054668272764,0.00011054668272764,0.00011054668272764,2945455.3276984,0.013032651171187
17419200,0.99820804944204,0.015294055059416,0.0046030698474049,0.0053455201947642,0.0053454650172467,-0.00089022655191858,0.00088944997569066,-2.9548038113143e-06,2.3044756579342e-06,-2.4781788358307e-06,1.9461087685975e-06,-0.0011116917806119,0.0011078314800826,-0.001110071185021,0.0011089251875395,-0.0011106867305436,0.001109149376553,-0.0011086084055028,0.0011112317710514,-0.00096059717409877,0.00095555188486683,-0.00095425056327342,0.00096107652404326,3.1548980092974e-06,-1.1692207676349e-06,1.9791191709648e-06,8.7587282207811e-07,-0.0011013319692241,0.0011033891089156,-0.0013424598342441,0.0013454705675315,-0.0013424201956003,0.0013454204828977,-0.0013434254121935,0.0013441188651025,-0.0013441055341813,0.0013438869390487,-0.0011272872644264,0.0011303899623813,-0.0011291933979868,0.0011296294319422,-0.0010566995218297,0.0010627507985211,-0.0010614288384858,0.0010580864573236,2.5226622430793e-06,-2.6687279396962e-06,-0.0011024777206139,0.0011022115527133,-8.337872983433e-07,2.2213653141024e-07,-0.0013432798514487,0.00134459031069,-0.0013428135744939,0.001344834721341,-0.0013449534823058,0.0013429707513923,-0.0013448078345917,0.0013429113240179,-0.0010617531785079,0.0010565922203601,-0.0010562980424937,0.0010623958456899,0.69394003775805,134640,3014,0.0037024663912764,0.0045826595228755,0.0045825943335434,21.980202071738,9.1041616573903e-05,9.1041616573903e-05,9.1041616573903e-05,2918306.0018302,0.012951747950604
18419200,0.99852224910834,0.015298385200025,0.0046044958670128,0.0053469722595791,0.0053469170734331,-0.00088286915693574,0.00088211619672273,-2.9552277217457e-06,2.3302380545122e-06,-2.5163477715529e-06,2.01175738481e-06,-0.0011058314908219,0.0011019531847202,-0.0011042021754293,0.0011030573020165,-0.0011048004540913,0.0011033054642495,-0.0011027142051832,0.0011054059714606,-0.0009525656567865,0.00094754282740695,-0.00094620050847979,0.0009531210358656,3.1951950771973e-06,-1.2316417693754e-06,1.9687720141443e-06,8.6375198659426e-07,-0.0010918189791865,0.0010938483031119,-0.001334180201944,0.0013371873987501,-0.0013341443083113,0.0013371408367692,-0.0013351767000005,0.0013358022336703,-0.001335846622923,0.0013355572437527,-0.0011176588270253,0.0011207098015521,-0.0011195824038494,0.0011199597509147,-0.0010478147277712,0.0010539473975022,-0.0010526394017401,0.001049168925524,2.4641710527837e-06,-2.7533916968856e-06,-0.0010930257592892,0.0010926205100863,-9.1434281679902e-07,1.4321584144123e-07,-0.0013350632215632,0.0013362529646232,-0.0013345946556502,0.0013364968839841,-0.0013367406812047,0.0013346272639928,-0.0013365985206576,0.0013345698586979,-0.0010529908837084,0.0010476532540139,-0.0010475004887543,0.0010534843706429,0.682670672866,134640,3014,0.0036719656024229,0.004543157733799,0.0045431149745813,17.477991042022,5.5023928336176e-05,5.5023928336176e-05,5.5023928336176e-05,2849182.8616481,0.012840876355267
19419200,0.99878241329813,0.0153021931699,0.0046057532949336,0.0053482475277736,0.0053481923471932,-0.00088138294351002,0.00088063308520176,-2.9598623281528e-06,2.3376862024631e-06,-2.5167716188323e-06,2.0171297291777e-06,-0.0011047493012952,0.0011008661757669,-0.0011031153600333,0.0011019753857788,-0.0011037163523793,0.00110222173372,-0.0011016259697401,0.0011043252274386,-0.00095124425033705,0.00094621196724172,-0.00094487016000656,0.00095180699914357,3.1993794563649e-06,-1.2330778066108e-06,1.9529162185921e-06,8.8286190258815e-07,-0.001089680165771,0.0010917115426631,-0.0013324816048262,0.0013354813642189,-0.0013324346361526,0.0013354436341981,-0.001333482433788,0.0013340930990512,-0.0013341369928959,0.0013338608671134,-0.0011157685310473,0.0011187834360079,-0.0011176597477777,0.0011180803307876,-0.0010460873220003,0.0010522351980621,-0.0010509083357033,0.001047455646853,2.4674805351358e-06,-2.7625331307762e-06,-0.0010908902792529,0.0010904796814174,-9.020587839722e-07,1.2088941405963e-07,-0.0013333544231517,0.0013345567194067,-0.0013328968505594,0.0013347909151054,-0.0013350345274578,0.0013329276644392,-0.0013349064518082,0.0013328584279065,-0.001051285115822,0.0010459119645508,-0.0010457773756017,0.0010517583517958,0.72158242892714,134640,3014,0.0036658018634288,0.0045342920592475,0.0045342477746824,17.551568034682,5.5612544277453e-05,5.5612544277453e-05,5.5612544277453e-05,2833106.257023,0.012816668885695
20419200,0.99900882865172,0.015305543811163,0.0046068605080101,0.0053493692397442,0.0053493140634085,-0.0008827551176648,0.00088201461903705,-2.9731734878047e-06,2.3604470599044e-06,-2.5467353669836e-06,2.0572285982625e-06,-0.001109396493232,0.0011054877342889,-0.0011077509743631,0.0011066086058156,-0.0011083422947066,0.0011068658796599,-0.0011062392064476,0.0011089822432061,-0.00095233765674165,0.00094730090086171,-0.00094592608515704,0.0009529325383985,3.2317392653172e-06,-1.271109700249e-06,1.9700562183194e-06,8.6056576473988e-07,-0.0010901053400474,0.0010921317061675,-0.0013357264381455,0.0013387557646348,-0.0013356916137213,0.001338705512606,-0.0013367490681089,0.001337345061102,-0.0013374164256088,0.0013370986760908,-0.0011163624272146,0.0011193905166214,-0.0011182916484419,0.0011186452655485,-0.0010471577931097,0.0010533580477373,-0.0010520500714071,0.0010485070305597,2.4851375217828e-06,-2.7805930817844e-06,-0.0010913132250465,0.0010909024653261,-9.2170213339168e-07,1.4074121397468e-07,-0.0013366141774692,0.0013378150578419,-0.0013361434861908,0.0013380627262968,-0.0013383061811335,0.0013361743610326,-0.001338165364564,0.0013361182833474,-0.001052394952298,0.0010469992207793,-0.0010468504068441,0.0010528815243067,0.72910480528752,134640,3014,0.0036715354141418,0.0045360626131947,0.0045360191414002,18.597312401887,6.3978499215098e-05,6.3978499215098e-05,6.3978499215098e-05,2792396.231867,0.012826119765449
21419200,0.99916286340603,0.015307762232381,0.0046075950725713,0.0053501111667381,0.0053500559930719,-0.00087653425549177,0.0008757919003133,-2.9988293525085e-06,2.3815970744518e-06,-2.5509288306095e-06,2.0593414709957e-06,-0.0011037850279659,0.001099858365459,-0.0011021269813907,0.0011009954568807,-0.0011027269772778,0.0011012373170177,-0.0011006097141591,0.0011033673431227,-0.00094595239057563,0.00094087084944025,-0.00093949237540056,0.00094653828594572,3.2354654512605e-06,-1.2744645285677e-06,1.9994884504078e-06,8.3029678936301e-07,-0.0010821326613886,0.0010841620844308,-0.0013283980058006,0.0013314563032967,-0.0013283797170493,0.0013313849618511,-0.0013294215312516,0.0013300442228356,-0.0013301133482709,0.0013297820081866,-0.0011084601176792,0.0011115307100664,-0.0011104236474136,0.0011107138542252,-0.0010397113412615,0.0010458983892905,-0.0010446117378768,0.0010410400349841,2.5280342066825e-06,-2.7841533033702e-06,-0.0010833190611933,0.0010829500825688,-9.213615277052e-07,2.0037818729189e-07,-0.0013292809277598,0.0013305134246245,-0.0013287929225897,0.0013307815244403,-0.001330988375432,0.0013288531539571,-0.0013308295101571,0.001328819898776,-0.0010449444481871,0.0010395707158246,-0.0010393577824041,0.0010454921968663,0.70951084545772,134640,3014,0.0036456996651057,0.0045030071581756,0.0045029548458751,15.225615175098,3.7004921400784e-05,3.7004921400784e-05,3.7004921400784e-05,2741990.7144988,0.012732990695578
22419200,0.99929037457861,0.015309619164379,0.0046082111798369,0.0053507315792476,0.0053506764052943,-0.00087436249836123,0.00087362183954134,-2.9975122575344e-06,2.3840319997698e-06,-2.5407418687695e-06,2.0513198969597e-06,-0.0011014657439726,0.0010975444430724,-0.0010998044288759,0.0010986823703527,-0.001100413951776,0.0010989184966988,-0.0010982957129286,0.0011010504908408,-0.00094395102468042,0.00093886426695188,-0.0009374955646409,0.00094454205225347,3.2247912736187e-06,-1.2661013744639e-06,1.9915048071299e-06,8.3501658283738e-07,-0.0010793428415387,0.0010813669181772,-0.001325555947946,0.0013285964834135,-0.001325537000429,0.0013285298581297,-0.0013265763969747,0.001327190129298,-0.0013272578520917,0.00132692763603,-0.0011058661404098,0.0011089362947201,-0.0011078344416546,0.0011081414628736,-0.0010373194714979,0.0010434890028182,-0.0010421954488616,0.0010386497413512,2.5144554780383e-06,-2.7993381821561e-06,-0.0010805439268843,0.0010801443657118,-9.3738575515879e-07,1.7120609098481e-07,-0.0013264440861604,0.0013276552332788,-0.0013259589422016,0.0013279191182491,-0.0013281516341126,0.0013259981107915,-0.0013279966942344,0.0013259589124699,-0.0010425538191774,0.0010371376996853,-0.001036962980243,0.00104306443343,0.71604798167598,134640,3014,0.0036366833143899,0.0044914226993913,0.0044913789927099,14.858990590166,3.4071924721328e-05,3.4071924721328e-05,3.4071924721328e-05,2730116.2221982,0.012700389069622
23419200,0.99940360630423,0.015311240004065,0.004608749330402,0.0053512729228293,0.0053512177508334,-0.00087469511621081,0.00087395459093601,-3.0056744170563e-06,2.3900882900052e-06,-2.5574450829715e-06,2.0672001952975e-06,-0.0011030616850661,0.001099130367793,-0.0011013995082284,0.0011002727135124,-0.001102002536322,0.0011005150635388,-0.0010998807906218,0.0011026530493703,-0.00094435954489635,0.00093925764545084,-0.000937883420073,0.00094495803163355,3.2406215914519e-06,-1.2830204742151e-06,2.0029121071459e-06,8.252606173438e-07,-0.0010791086980915,0.0010811324537854,-0.0013265047494884,0.0013295595689941,-0.0013264904840541,0.0013294868322015,-0.0013275339434607,0.0013281434635182,-0.0013282206201817,0.0013278726784963,-0.0011058355579872,0.0011089199716451,-0.0011078263557078,0.0011081041528972,-0.0010374688559565,0.0010436649675987,-0.0010423904112329,0.001038791893285,2.5214265574388e-06,-2.806469424187e-06,-0.0010803093750507,0.0010799103803856,-9.4787100675809e-07,1.8155519268805e-07,-0.001327397603885,0.0013286083762235,-0.0013269070318897,0.0013288792236136,-0.0013291063258447,0.0013269455074314,-0.0013289481308761,0.0013269143332635,-0.0010427306650287,0.0010373033130964,-0.0010371161845711,0.001043243166202,0.70404422381849,134640,3014,0.0036380717102367,0.0044904573316667,0.0044904137668297,15.705719495685,4.0845755965478e-05,4.0845755965478e-05,4.0845755965478e-05,2712481.4968883,0.012699856152357
24419200,0.99951049634214,0.015312797073047,0.004609266598826,0.0053517928222964,0.0053517376519251,-0.00087655202957444,0.0008758142087862,-2.9908993302728e-06,2.3792722659958e-06,-2.5576602706775e-06,2.0703703358816e-06,-0.0011054582317538,0.0011015351472828,-0.0011038036300191,0.0011026689433089,-0.001104397143916,0.0011029213841558,-0.0011022829217329,0.0011050508526232,-0.00094654786490012,0.0009414761601594,-0.00094009759404306,0.00094715274159479,3.239994312604e-06,-1.2869414668167e-06,1.9899739617554e-06,8.3439088401024e-07,-0.001080976357771,0.0010829954280686,-0.0013289264343802,0.001331970961503,-0.0013289059860642,0.0013319047682774,-0.0013299583983147,0.0013305539400023,-0.0013306368029123,0.0013302887819212,-0.0011080359277366,0.0011110969272891,-0.001110009146463,0.0011103031149995,-0.0010396642395149,0.001045866093316,-0.0010445855492858,0.0010409903413041,2.5142202512296e-06,-2.7881394829113e-06,-0.0010821698427218,0.0010817802864209,-9.3383856945619e-07,1.7378645862942e-07,-0.001329811087398,0.0013310296760676,-0.0013293265345145,0.0013312938806864,-0.0013315122289548,0.0013293768354368,-0.001331359892854,0.0013293379440786,-0.0010449114880853,0.0010395104394653,-0.0010393219648287,0.0010454276157908,0.71549404745798,134640,3014,0.0036457932994887,0.0044981945587594,0.0044981504604219,17.881578696144,5.8252629569152e-05,5.8252629569152e-05,5.8252629569152e-05,2715744.0114874,0.012723344851078
25419200,0.99960794879297,0.015314289022018,0.0046097619406521,0.0053522911250316,0.0053522359563347,-0.00087882854461592,0.00087809411540337,-2.9936531208837e-06,2.3855614950755e-06,-2.5677573693171e-06,2.0833689648184e-06,-0.0011093937179684,0.0011054636015931,-0.0011077357910162,0.001106600532091,-0.0011083250027087,0.0011068565468306,-0.0011062076759216,0.0011089888645724,-0.00094895484932526,0.00094388689481216,-0.00094249505569675,0.00094957013259611,3.2505740435926e-06,-1.2994827678892e-06,1.9878614793117e-06,8.339248429437e-07,-0.0010829804727999,0.0010849979329687,-0.0013324569668102,0.001335506400161,-0.0013324350230981,0.0013354413761737,-0.0013334960276371,0.0013340821320395,-0.001334174105759,0.0013338182162799,-0.0011103075927814,0.0011133561592172,-0.0011122772910245,0.0011125639593811,-0.0010420549791229,0.0010482789706744,-0.001047001527567,0.0010433809095771,2.510025179317e-06,-2.801418859133e-06,-0.0010841817127259,0.0010837755090453,-9.408740051837e-07,1.6515771120259e-07,-0.0013333502995325,0.0013345561053013,-0.0013328671187431,0.0013348198748391,-0.0013350548645754,0.0013329000102201,-0.0013349033845184,0.0013328607876516,-0.0010473273577231,0.0010419018565353,-0.0010417307553351,0.0010478281090669,0.75065157215323,134640,3014,0.003655263905136,0.0045065116837283,0.0045064685657413,19.926561128835,7.4612489030681e-05,7.4612489030681e-05,7.4612489030681e-05,2704639.7351426,0.012749807369629
26419200,0.99968785211843,0.015315539680923,0.0046101773467429,0.0053527087507106,0.0053526535834696,-0.00087910238995863,0.00087836632133323,-3.0180544276435e-06,2.4049003212271e-06,-2.5890034809711e-06,2.1025880095121e-06,-0.0011119185689128,0.0011079648352777,-0.0011102504318648,0.0011091170583586,-0.0011108420383398,0.0011093713118034,-0.001108712818029,0.0011115203534662,-0.00094914316135621,0.00094403230502033,-0.00094263388709987,0.00094976514661512,3.2705467174136e-06,-1.3202483244199e-06,2.0008159444503e-06,8.2260992896713e-07,-0.0010823227271497,0.0010843410946992,-0.001333878087133,0.0013369466415225,-0.0013338617199472,0.001336875435468,-0.0013349271119145,0.0013355100013025,-0.0013356100980448,0.0013352388295314,-0.0011098255265586,0.0011128859558247,-0.0011118119222166,0.0011120672000642,-0.0010418961822301,0.0010481534544575,-0.0010468945916801,0.0010432114963465,2.5307536323548e-06,-2.8236807943484e-06,-0.0010835241700365,0.001083117972338,-9.516046560533e-07,1.7863489913455e-07,-0.00133477310241,0.0013359881201325,-0.0013342863319777,0.0013362585873251,-0.0013364857346793,0.001334314181869,-0.0013363356596599,0.0013342846371228,-0.0010472169576069,0.0010417530099261,-0.0010415685598443,0.0010477188951407,0.76692112542838,134640,3014,0.0036564100369064,0.0045037996534529,0.0045037554979831,20.393280605255,7.8346244842043e-05,7.8346244842043e-05,7.8346244842043e-05,2670665.4122418,0.012745513137023
27419200,0.99975752966696,0.015316588390313,0.0046105262985701,0.0053530586291032,0.0053530034626399,-0.00088064123787565,0.00087988789601362,-3.0253200941881e-06,2.39924044292e-06,-2.4933351196379e-06,1.9875550256809e-06,-0.0011150407516961,0.0011111300869602,-0.0011133655347369,0.001112282656938,-0.0011140246026468,0.0011124662651986,-0.0011118923400424,0.0011146131015527,-0.00095097680154299,0.00094579703704733,-0.00094447861050568,0.00095151904172687,3.1806407244363e-06,-1.1995017871981e-06,1.8729893783929e-06,9.7090855114294e-07,-0.0010833496795982,0.0010853929270617,-0.0013365307647566,0.0013394693789865,-0.0013364296447353,0.001339487662688,-0.0013375171903074,0.0013381014672913,-0.0013381142185834,0.001337922190674,-0.0011113736728386,0.0011142499193927,-0.0011130927713581,0.001113705533631,-0.0010436309935717,0.001049797942435,-0.00104840123301,0.0010450716696434,2.513621385513e-06,-2.8428354365171e-06,-0.0010845825952366,0.0010841390538486,-8.3652247498703e-07,2.108551657009e-08,-0.0013373407376432,0.0013386074073753,-0.0013369403196167,0.0013387896673192,-0.0013390610378228,0.0013369358503486,-0.0013389923988723,0.0013368152473934,-0.0010489541864269,0.0010433676813394,-0.001043319431911,0.0010493369405742,0.73788855830183,134640,3014,0.0036627768436404,0.0045081188473776,0.0045080762064836,22.249487793028,9.3195902344224e-05,9.3195902344224e-05,9.3195902344224e-05,2655116.3296119,0.012760726430995
28419200,0.99981480244949,0.015317496171495,0.0046108283880379,0.0053533614744339,0.0053533063090234,-0.00088089862872141,0.0008801434385148,-3.0178901478697e-06,2.3896536855415e-06,-2.4914127273245e-06,1.9855431026685e-06,-0.0011149412293713,0.0011110332036433,-0.001113271484532,0.0011121807987313,-0.001113923774554,0.0011123688408586,-0.0011117970070324,0.0011145105506357,-0.00095160365314206,0.0009464363480626,-0.00094512883970442,0.00095214726495256,3.1749579645609e-06,-1.2010192927749e-06,1.8617999659608e-06,9.742457349848e-07,-0.0010835726626099,0.0010856077110727,-0.0013365114991033,0.0013394379400322,-0.0013364070938674,0.0013394593336196,-0.0013374986992772,0.0013380716725065,-0.0013380922127023,0.0013378941101528,-0.0011118969930196,0.0011147536199075,-0.0011136057724495,0.0011142190241858,-0.0010441063285997,0.0010502650467305,-0.0010488674303896,0.0010455402895107,2.5016077787172e-06,-2.8382322734105e-06,-0.001084805581624,0.001084356238609,-8.3296304548201e-07,9.9065724378504e-09,-0.0013373205403147,0.0013385806502756,-0.0013369226332044,0.0013387590839701,-0.0013390375765532,0.001336914995451,-0.0013389692186726,0.0013367910205173,-0.0010494234917039,0.0010438397955558,-0.0010438039988701,0.0010497888779723,0.77520834807742,134640,3014,0.003663842056893,0.004509022093283,0.0045089844538089,23.439579026494,0.00010271663221195,0.00010271663221195,0.00010271663221195,2661903.5700593,0.012763618897094
