time,ASR_ext,ASR_strain,ASR_strain_xx,ASR_strain_yy,ASR_strain_zz,disp_x_101,disp_x_102,disp_x_103,disp_x_104,disp_x_105,disp_x_106,disp_x_p1_neg,disp_x_p1_pos,disp_x_p2_neg,disp_x_p2_pos,disp_x_p3_neg,disp_x_p3_pos,disp_x_p4_neg,disp_x_p4_pos,disp_x_p5_neg,disp_x_p5_pos,disp_x_p6_neg,disp_x_p6_pos,disp_y_101,disp_y_102,disp_y_103,disp_y_104,disp_y_105,disp_y_106,disp_y_p1_neg,disp_y_p1_pos,disp_y_p2_neg,disp_y_p2_pos,disp_y_p3_neg,disp_y_p3_pos,disp_y_p4_neg,disp_y_p4_pos,disp_y_p5_neg,disp_y_p5_pos,disp_y_p6_neg,disp_y_p6_pos,disp_y_p7_neg,disp_y_p7_pos,disp_y_p8_neg,disp_y_p8_pos,disp_z_101,disp_z_102,disp_z_103,disp_z_104,disp_z_105,disp_z_106,disp_z_p1_neg,disp_z_p1_pos,disp_z_p2_neg,disp_z_p2_pos,disp_z_p3_neg,disp_z_p3_pos,disp_z_p4_neg,disp_z_p4_pos,disp_z_p5_neg,disp_z_p5_pos,disp_z_p6_neg,disp_z_p6_pos,humidity,ndof,nelem,strain_xx,strain_yy,strain_zz,temp,thermal_strain_xx,thermal_strain_yy,thermal_strain_zz,vonmises,vstrain
2419200,0,0,0,0,0,0,0,0,0,0,0,0,0,0,0,0,0,0,0,0,0,0,0,0,0,0,0,0,0,0,0,0,0,0,0,0,0,0,0,0,0,0,0,0,0,0,0,0,0,0,0,0,0,0,0,0,0,0,0,0,0,0,0,0,0,0,0,0,0,0,0,0,0,0,0
3419200,0.158735498802,0.0030052832086035,0.0010017610695345,0.0010017610695345,0.0010017610695345,-0.00026228237276592,0.00026227118439643,-4.3830147522903e-09,-4.3830151816595e-09,-3.8196126540068e-09,-4.794436016109e-09,-0.00026942398081553,0.00026941470971182,-0.00026942441759068,0.00026941514648016,-0.00026942469783844,0.00026941479621194,-0.00026942512812403,0.00026941522650976,-0.00026662056555136,0.00026661107361198,-0.00026662092892141,0.00026661143697073,-2.0167770033387e-09,-1.187562610407e-09,-1.9361033203835e-09,-1.3696658190973e-09,-0.00027627433728398,0.00027626959451047,-0.00028240301133973,0.00028239877382838,-0.00028240323912773,0.00028239941495244,-0.00028240349034032,0.00028239989144573,-0.00028240371810497,0.00028240053255203,-0.00027760349864035,0.00027759971957527,-0.00027760333970366,0.00027760065617399,-0.00027414296098614,0.00027413889352697,-0.00027414257510096,0.00027414015063448,-1.7960933202878e-09,-1.796092880463e-09,-0.00027627449374378,0.00027626943805156,-1.4818336760278e-09,-2.0817358164733e-09,-0.00028240274117804,0.00028239892851299,-0.00028240342233013,0.0002823991987874,-0.00028240362784689,0.00028239981519045,-0.00028240428072319,0.0002824000571767,-0.00027414342983438,0.00027413941839791,-0.00027414288578746,0.00027413887435972,0.75746877217741,125301,3014,0.0010922253517719,0.0011504678453736,0.0011504678453754,31.80411346759,0.00016963290774072,0.00016963290774072,0.00016963290774072,1645719.5297288,0.0033989273179138
4419200,0.34936869324169,0.0063997207667688,0.0020258908031852,0.0021869149817888,0.0021869149817948,-0.00049034442084132,0.00049032111934534,-9.8160087925076e-09,-9.8160070936919e-09,-9.015675982405e-09,-1.0095165948036e-08,-0.00051666030716932,0.00051663897031882,-0.00051666190643131,0.0005166405695861,-0.00051666211480987,0.00051664011749938,-0.0005166636840182,0.00051664168674809,-0.00051176154555753,0.00051174098774965,-0.00051176313398796,0.0005117425762437,-5.8971010411064e-09,-5.3902222414951e-09,-6.7631199604806e-09,-5.0014816583353e-09,-0.00055495322916635,0.00055493887860332,-0.00058362726510629,0.00058361354767589,-0.00058362856722641,0.00058361614072176,-0.0005836298322895,0.00058361660414278,-0.0005836311344324,0.00058361919721858,-0.00056293757532853,0.00056292409163917,-0.00056293762292601,0.00056292756639614,-0.00054317919498525,0.00054316756310175,-0.00054318010430953,0.0005431695555811,-6.1814166398177e-09,-6.1814139715757e-09,-0.00055495360423599,0.00055493850353721,-5.1503980459486e-09,-7.0921302487597e-09,-0.00058362666129097,0.0005836137746526,-0.0005836294471926,0.00058361521934338,-0.00058362973976969,0.0005836168531098,-0.00058363241072328,0.00058361818284658,-0.00054318171798246,0.00054316834515961,-0.00054317993908317,0.00054316656635786,0.73992840791513,125301,3014,0.0020410357374389,0.0023095818298099,0.0023095818298172,33.600421112717,0.00018400336890174,0.00018400336890174,0.00018400336890174,2933775.6833997,0.0066824580066167
5419200,0.54915770838133,0.0097680509225881,0.0029801750676002,0.0033939379274958,0.0033939379274921,-0.0006989673611016,0.00069896443563256,-5.0772748068575e-10,-5.0771893162339e-10,-9.7289909221821e-10,2.4021424222273e-10,-0.00075783001117764,0.00075782703443145,-0.00075783082519887,0.00075782784841078,-0.00075783038777518,0.0007578281895939,-0.00075783117808319,0.00075782897987369,-0.00074340382391076,0.00074340274234431,-0.00074340431859946,0.00074340323711852,-2.3520001269024e-09,-4.0656945641436e-09,-3.3901474219557e-09,-2.8160800063377e-09,-0.00083439778191503,0.0008343897523388,-0.00090178414796903,0.00090177697211964,-0.00090178486959973,0.0009017780937765,-0.00090178584470343,0.00090177740573482,-0.00090178656632445,0.00090177852741083,-0.0008536347003753,0.00085362762012529,-0.00085363328327458,0.00085362736711501,-0.00080972225531225,0.00080971716659484,-0.00080972329252412,0.00080971490768077,-3.4987307452656e-09,-3.4987223788741e-09,-0.00083439789106364,0.00083438964318876,-2.6607822476641e-09,-3.4649685645447e-09,-0.0009017842446442,0.00090177674888717,-0.00090178557381413,0.00090177747828351,-0.00090178536947948,0.00090177787373905,-0.00090178661716977,0.0009017785216504,-0.00080972305881323,0.00080971529516826,-0.00080972359720062,0.00080971583361363,0.72499638738019,125301,3014,0.0029084203905274,0.0034705325380492,0.0034705325380462,36.269007731771,0.00020535206185417,0.00020535206185417,0.00020535206185417,3678043.5944683,0.0098982686824793
6419200,0.70561394288215,0.011880287564205,0.0035658650987333,0.0041572112327374,0.0041572112327345,-0.00081312884119441,0.00081312577618817,-9.6224825903502e-10,-9.6223522375677e-10,-1.5874504007005e-09,-2.5319341660022e-10,-0.000910127928428,0.00091012469924196,-0.00091012842189505,0.00091012519266904,-0.00091012802692507,0.00091012563692636,-0.00091012851836137,0.00091012612833657,-0.00086965321051377,0.0008696517125377,-0.00086965351530698,0.00086965201737765,-8.7645994821075e-10,-2.4511687267666e-09,-1.6036438294523e-09,-1.7283982611291e-09,-0.0009987476832514,0.00099874327470803,-0.0011102960828929,0.0011102927916997,-0.0011102968371681,0.0011102934517901,-0.0011102972828102,0.0011102928583386,-0.0011102980370772,0.0011102935184522,-0.0010214223545941,0.001021418959626,-0.0010214221211013,0.0010214185476888,-0.00096023002104702,0.0009602278992804,-0.00096023172762351,0.00096022654003858,-1.766412589602e-09,-1.7663998920782e-09,-0.00099874768576777,0.00099874327219147,-1.5868402822951e-09,-1.5947770771844e-09,-0.0011102963841901,0.001110292519477,-0.0011102971311533,0.0011102932211349,-0.0011102969797424,0.0011102931150234,-0.0011102977098038,0.0011102937997676,-0.00096023102926805,0.00096022722144515,-0.00096023090223537,0.00096022709443802,0.59839168540088,125301,3014,0.0033829041395663,0.0041526960446241,0.0041526960446237,36.738821321319,0.00020911057057055,0.00020911057057055,0.00020911057057055,3893873.1232565,0.011757118711282
7419200,0.83135819785581,0.013352928861998,0.0039884113851763,0.0046822587384111,0.0046822587384107,-0.00089257437504459,0.00089257085975999,-1.0231799880537e-09,-1.0231648940148e-09,-1.6876866144206e-09,-3.0166846348551e-10,-0.0010211460453202,0.0010211426683164,-0.0010211464515796,0.0010211430745252,-0.0010211460492221,0.0010211435498993,-0.001021146455679,0.0010211439563217,-0.00095678198844464,0.00095678030319272,-0.00095678230817535,0.00095678062298543,-8.7219590550592e-10,-2.433355976421e-09,-1.2830750412631e-09,-1.8881167455618e-09,-0.0011083828688685,0.0011083784478718,-0.0012567319927816,0.0012567290286593,-0.0012567327986102,0.0012567294237112,-0.0012567331633501,0.0012567290877797,-0.0012567339691747,0.0012567294828579,-0.0011330977908309,0.001133095040671,-0.0011330978568616,0.0011330939821526,-0.0010608417062558,0.0010608393693367,-0.0010608434539972,0.0010608380831862,-1.6328240050828e-09,-1.6328093510598e-09,-0.0011083827708933,0.0011083785458486,-1.6684789937003e-09,-1.1755357906885e-09,-0.0012567323647768,0.0012567287024072,-0.0012567328218347,0.0012567294539417,-0.0012567329331852,0.0012567292708153,-0.0012567333839687,0.0012567300160644,-0.0010608424709118,0.0010608390362515,-0.0010608422903005,0.0010608388556701,0.52694121020036,125301,3014,0.0037130425207797,0.0046075020502134,0.0046075020502167,40.764436492839,0.00024131549194271,0.00024131549194271,0.00024131549194271,3943972.1673599,0.013012358708779
8419200,0.90734714737348,0.014147342681938,0.0042232024148174,0.0049620701335599,0.0049620701335604,-0.00092333912672277,0.00092333914632368,3.5062645436721e-10,3.5064157690522e-10,-4.47885469274e-10,1.147524088118e-09,-0.0010755827947991,0.001075582460212,-0.0010755830245207,0.0010755826898824,-0.0010755825730033,0.001075583246017,-0.0010755828058088,0.0010755834787869,-0.00099186978878482,0.00099187108781153,-0.00099187007965075,0.00099187137874218,4.9364344011023e-11,-1.6416962771733e-09,-5.8247072801467e-11,-1.3238670413922e-09,-0.0011521335108865,0.0011521314560742,-0.0013257140804825,0.0013257134529881,-0.001325714916021,0.0013257134235262,-0.0013257150558699,0.0013257132090783,-0.0013257158914036,0.0013257131796426,-0.0011793943735718,0.0011793941166843,-0.0011793949974142,0.0011793923276804,-0.0011025943194473,0.0011025937184562,-0.0011025962049696,0.0011025923055564,-6.893969119858e-10,-6.8938217352428e-10,-0.0011521333506431,0.0011521316163195,-1.0673300690637e-09,1.0755248305135e-10,-0.0013257146709006,0.001325712950261,-0.0013257146800078,0.0013257137155722,-0.0013257149617145,0.0013257132410746,-0.0013257149770013,0.0013257140125528,-0.0011025948278801,0.0011025936142144,-0.0011025946710651,0.001102593457431,0.47156008474719,125301,3014,0.0038409711150504,0.0047889555137641,0.004788955513768,41.433736660365,0.00024666989328292,0.00024666989328292,0.00024666989328292,3812323.6338026,0.013509829545686
9419200,0.94943601447834,0.014527682993563,0.0043387737816774,0.0050944546059424,0.0050944546059432,-0.00093080206853236,0.0009308037243519,1.0001207229102e-09,1.0001357164521e-09,1.0062828234564e-10,1.8709104995714e-09,-0.0010987164200702,0.0010987175204784,-0.0010987165504057,0.0010987176507628,-0.001098716052736,0.0010987182693195,-0.0010987161870249,0.0010987184035712,-0.0010011499338526,0.00100115266437,-0.0010011502290007,0.0010011529595844,6.0588747858117e-10,-1.2179797159289e-09,8.0236313188696e-10,-1.1567075230768e-09,-0.0011630060397243,0.0011630052904527,-0.0013524062829458,0.0013524071165815,-0.0013524072289836,0.0013524067306295,-0.0013524071760929,0.0013524066935329,-0.0013524081221249,0.0013524063076061,-0.00119205069458,0.0011920521491985,-0.0011920519524646,0.001192049638418,-0.0011141930614814,0.0011141934007503,-0.0011141950945434,0.0011141918670937,-1.3173477247548e-10,-1.3172012374652e-10,-0.0011630058261931,0.0011630055039858,-8.5605616077779e-10,1.0203475542297e-09,-0.0013524070908864,0.0013524064139126,-0.0013524067334291,0.001352407283238,-0.0013524072387018,0.001352406561727,-0.0013524068934391,0.0013524074432352,-0.0011141933442394,0.0011141935341498,-0.0011141931846515,0.0011141933745945,0.40621133923259,125301,3014,0.0038720853016567,0.0048340608228526,0.0048340608228566,41.145224881366,0.00024436179905092,0.00024436179905092,0.00024436179905092,3649166.7812375,0.013632894712674
10419200,0.97049410790992,0.014734238611543,0.0044030309693031,0.0051656038211195,0.0051656038211204,-0.00092867603530766,0.00092868120590905,2.3874989803391e-09,2.3875139224709e-09,1.3159559117884e-09,3.3774796263599e-09,-0.001104643376991,0.001104647534315,-0.0011046433230796,0.0011046474803517,-0.0011046427513143,0.0011046482039468,-0.0011046427034158,0.0011046481560109,-0.0010005075741469,0.0010005133280097,-0.0010005078581754,0.0010005136121049,1.6176448108756e-09,-4.2811594200809e-10,2.1950682390778e-09,-6.7787473115549e-10,-0.0011618091262394,0.001161810818289,-0.0013591334922155,0.0013591368661041,-0.0013591345418419,0.0013591359608851,-0.0013591342066435,0.001359136092493,-0.0013591352562631,0.0013591351872982,-0.0011925190779464,0.0011925233261372,-0.001192521159661,0.001192519854946,-0.0011144194866902,0.0011144216662449,-0.0011144217409888,0.0011144199039918,8.6876925175453e-10,8.6878382060358e-10,-0.0011618088350115,0.0011618111095189,-3.1777897939384e-10,2.4875937010729e-09,-0.0013591346004744,0.0013591359013526,-0.0013591337068173,0.0013591368591049,-0.001359134456161,0.0013591357570383,-0.0013591335852974,0.0013591367375722,-0.0011144194566912,0.0011144220703157,-0.0011144193288347,0.0011144219424924,0.43665130715676,125301,3014,0.0038633379247748,0.0048291134605107,0.0048291134605149,38.097844705986,0.00021998275764788,0.00021998275764788,0.00021998275764788,3567944.6220523,0.013614053812688
11419200,0.98265727168964,0.014844970020341,0.004437788047865,0.0052035909862378,0.0052035909862387,-0.00092642249142143,0.00092642508384707,1.3982617202995e-09,1.3982771195056e-09,3.3962716037338e-10,2.4211223264925e-09,-0.0011108664436383,0.001110868244165,-0.0011108664923725,0.0011108682928349,-0.0011108659017731,0.0011108690126665,-0.001110865949853,0.0011108690607155,-0.00099879267230311,0.00099879633201202,-0.00099879292143078,0.0009987965812076,1.1340213336351e-09,-9.746993088901e-10,2.958952759363e-09,-2.5022218616453e-09,-0.0011581919687005,0.0011581921875007,-0.0013632561351777,0.0013632590508766,-0.0013632580989764,0.0013632573821835,-0.0013632570161872,0.0013632584221234,-0.0013632589799752,0.0013632567534634,-0.001190381759663,0.0011903874009252,-0.0011903863191607,0.0011903813156963,-0.0011132183732568,0.0011132186564044,-0.0011132206272355,0.0011132167714306,4.8741990756817e-10,4.8743390261122e-10,-0.0011581915313097,0.0011581926248959,-1.9365617971017e-09,3.4094532711017e-09,-0.0013632579255247,0.0013632573573173,-0.0013632562987986,0.0013632592580085,-0.0013632579570357,0.001363257388823,-0.001363256347171,0.0013632593063656,-0.0011132173492015,0.0011132199729873,-0.0011132172484427,0.0011132198722482,0.40445605707229,125301,3014,0.003854042255518,0.0048141262829213,0.0048141262829305,37.627743405759,0.00021622194724607,0.00021622194724607,0.00021622194724607,3409877.2954284,0.013574319343799
12419200,0.98963394756622,0.014916661289282,0.0044605687799919,0.0052280462546448,0.0052280462546458,-0.00092527004764013,0.00092527303922573,1.5278402008836e-09,1.527855658029e-09,4.5811940561957e-10,2.5538853279975e-09,-0.0011137000783895,0.0011137022720421,-0.0011137001237985,0.0011137023173992,-0.0011136995273129,0.0011137030417552,-0.0011136995716502,0.0011137030860557,-0.0009982392684194,0.00099824323384511,-0.00099823957605867,0.00099824354155304,1.2247517307281e-09,-8.9178115620701e-10,3.1046589120284e-09,-2.4620908694361e-09,-0.0011561938241836,0.0011561943342582,-0.0013652416543634,0.0013652448917233,-0.0013652436439254,0.00136524317935,-0.0013652425367244,0.0013652442605156,-0.0013652445262787,0.0013652425481662,-0.0011891274308987,0.0011891333830617,-0.0011891321414452,0.0011891272450096,-0.0011120645191651,0.0011120649667414,-0.0011120668596843,0.0011120631542321,5.8349539302804e-10,5.835094555102e-10,-0.001156193381125,0.001156194777319,-1.8922367599659e-09,3.5597609566581e-09,-0.0013652434745272,0.0013652431650666,-0.0013652418044585,0.0013652450939176,-0.001365243507705,0.0013652431982431,-0.0013652418538784,0.0013652451433247,-0.001112063529442,0.0011120664033308,-0.0011120633560427,0.0011120662299646,0.45322610794666,125301,3014,0.0038492931624851,0.0048058536711744,0.004805853671179,36.803524821194,0.00020962819856955,0.00020962819856955,0.00020962819856955,3383220.4481272,0.013552765780538
13419200,0.99353055116117,0.014953329153308,0.004472268416593,0.0052405303683571,0.0052405303683581,-0.00091869332479972,0.00091869776794478,2.0929537718754e-09,2.0929692544612e-09,9.8284493923235e-10,3.14337098338e-09,-0.0011128871680517,0.0011128905857069,-0.0011128871403179,0.0011128905579212,-0.0011128865292256,0.0011128913054504,-0.0011128865014674,0.0011128912776551,-0.00099186144958313,0.0009918666411631,-0.00099186175322369,0.00099186694487304,1.6444009656347e-09,-5.190869329564e-10,3.6092775509077e-09,-2.1480248427466e-09,-0.0011477610962992,0.0011477626858638,-0.0013621889224699,0.0013621931451899,-0.0013621908964148,0.0013621912829277,-0.0013621897221431,0.0013621923903839,-0.0013621916960803,0.0013621905281453,-0.0011815565060076,0.0011815635025312,-0.0011815613688673,0.0011815571465836,-0.001105270937038,0.0011052722238416,-0.0011052733190044,0.0011052703546914,9.6667000007152e-10,9.6668411722848e-10,-0.0011477606718149,0.0011477631103502,-1.605248679843e-09,4.0438121516675e-09,-0.0013621908445513,0.0013621913291385,-0.0013621890187661,0.0013621932360166,-0.0013621907667617,0.001362191251348,-0.0013621889600045,0.0013621931772424,-0.0011052699081381,0.0011052736737958,-0.0011052697507105,0.0011052735164011,0.4150894025916,125301,3014,0.0038220409106759,0.0047709052357501,0.0047709052357545,34.792804666103,0.00019354243732882,0.00019354243732882,0.00019354243732882,3291296.8214476,0.0134543580377
14419200,0.99578061837566,0.014972918587149,0.004478561294436,0.0052471786463558,0.0052471786463568,-0.0009134912510456,0.00091349591823839,2.1789168727029e-09,2.1789323285836e-09,1.0374904887748e-09,3.2549569533435e-09,-0.0011081940873263,0.0011081977090181,-0.0011081940432009,0.0011081976648408,-0.0011081934166592,0.0011081984321527,-0.0011081933723887,0.0011081983878453,-0.00098697268625927,0.00098697807858983,-0.0009869729972895,0.00098697838968925,1.7239269478171e-09,-4.8626494322654e-10,3.7766517698707e-09,-2.1949090500092e-09,-0.0011425269567125,0.0011425287100888,-0.0013575392210755,0.0013575436950662,-0.0013575412458566,0.001357541741578,-0.0013575400166532,0.0013575429033449,-0.0013575420414262,0.0013575409498802,-0.001176581303272,0.0011765886217929,-0.0011765863774312,0.0011765820571391,-0.0011002402656478,0.0011002416485897,-0.0011002427040542,0.0011002397427108,1.0541469661808e-09,1.0541610494565e-09,-0.0011425265045166,0.001142529162287,-1.6237520358134e-09,4.2392695898122e-09,-0.0013575411978067,0.0013575418271943,-0.0013575392799974,0.0013575437844527,-0.0013575410967236,0.0013575417261101,-0.0013575391991141,0.0013575437035568,-0.0011002391662219,0.0011002431860043,-0.0011002390011849,0.0011002430210004,0.38312450045663,125301,3014,0.0038004512263446,0.0047491999438592,0.004749199943864,32.641991751244,0.00017633593400996,0.00017633593400996,0.00017633593400996,3287521.3212637,0.013388484743341
15419200,0.99695221581689,0.014986588967479,0.0044829592978911,0.0052518148347935,0.0052518148347945,-0.00090177843188026,0.00090178702713911,3.7186068684363e-09,3.7186222652306e-09,2.4280053837492e-09,4.8881163737825e-09,-0.0010969439292726,0.001096950948522,-0.0010969436864319,0.0010969507056295,-0.0010969430028194,0.0010969515622819,-0.001096942762653,0.0010969513220786,-0.00097562002349073,0.00097562875255204,-0.00097562032061228,0.00097562904974253,2.7811541767125e-09,3.9564571208736e-10,5.0316914059478e-09,-1.4448208187753e-09,-0.0011313665802467,0.0011313709908267,-0.0013468258116539,0.0013468328245086,-0.0013468278004444,0.0013468304783633,-0.0013468263898058,0.0013468316698044,-0.0013468283785884,0.0013468293236825,-0.0011656882890411,0.0011656981680514,-0.001165693792141,0.001165691051502,-0.0010891780607621,0.0010891815321867,-0.0010891806653156,0.0010891794338585,2.0915183168746e-09,2.0915324201497e-09,-0.001131366080762,0.0011313714903137,-8.5043123682124e-10,5.5370345979526e-09,-0.0013468279796171,0.0013468308087818,-0.0013468256506061,0.0013468327111593,-0.0013468275584052,0.0013468303875688,-0.0013468252601239,0.0013468323206643,-0.0010891767814318,0.0010891831842056,-0.0010891766615504,0.0010891830643572,0.51103778709309,125301,3014,0.0037518465940099,0.0047029220433094,0.0047029220433143,27.064887058086,0.00013171909646469,0.00013171909646469,0.00013171909646469,3301679.1066169,0.013245449297514
16419200,0.99770448550984,0.014994557373401,0.0044855197486876,0.0052545188123562,0.0052545188123572,-0.00089199599288558,0.00089200128234899,2.4178900885293e-09,2.4179055098817e-09,1.1889249047485e-09,3.5844760906424e-09,-0.0010944643427383,0.0010944683926641,-0.0010944642700127,0.0010944683198872,-0.0010944635865796,0.0010944691442303,-0.0010944635131414,0.0010944690707553,-0.00096583555739117,0.00096584152790336,-0.00096583587206863,0.0009658418426502,2.0121680924498e-09,-3.7797299831119e-10,4.3020692136021e-09,-2.3088758456289e-09,-0.001118538218459,0.0011185405182386,-0.0013408451980777,0.0013408503574308,-0.0013408473931017,0.0013408481524101,-0.001340846014543,0.001340849467591,-0.0013408482095592,0.0013408472625941,-0.0011538337347807,0.0011538420691689,-0.0011538394096823,0.0011538348511969,-0.0010785564050647,0.0010785581911281,-0.0010785590182548,0.0010785561006044,1.2493236984892e-09,1.2493379558477e-09,-0.0011185377702757,0.0011185409664242,-1.7366062988696e-09,4.7609968688432e-09,-0.0013408474177689,0.0013408482419457,-0.0013408452509128,0.0013408503716292,-0.0013408472805599,0.0013408481047368,-0.0013408451335623,0.0013408502542667,-0.0010785551847226,0.0010785598437922,-0.0010785550210444,0.0010785596801467,0.46538451425637,125301,3014,0.0037112847589423,0.0046497443741217,0.0046497443741265,24.416019419827,0.00011052815535862,0.00011052815535862,0.00011052815535862,3177490.128157,0.01309667354966
17419200,0.99820970559874,0.015000632588742,0.0044874885781081,0.0052565720053164,0.0052565720053174,-0.00088587000945612,0.00088587508527597,2.3311131370938e-09,2.3311285192121e-09,1.1115147479433e-09,3.485227021148e-09,-0.0010873291354562,0.0010873330455882,-0.0010873290665645,0.0010873329766447,-0.0010873283919374,0.0010873337944818,-0.001087328322041,0.0010873337245487,-0.00096007434635752,0.0009600801256109,-0.00096007466937419,0.00096008044869708,1.938838433081e-09,-4.2236680010367e-10,4.2803669081763e-09,-2.4045985938316e-09,-0.0011127763095063,0.0011127784606919,-0.0013342160158126,0.0013342211008539,-0.0013342182374449,0.001334218875052,-0.001334216832361,0.0013342202300057,-0.0013342190539848,0.0013342180042268,-0.0011482122692778,0.0011482205599375,-0.0011482180287142,0.0011482132806029,-0.0010726988070688,0.0010727004135406,-0.0010727014043903,0.0010726983650872,1.2213701293927e-09,1.2213843378116e-09,-0.0011127758325992,0.0011127789376013,-1.8014911374618e-09,4.7688988887213e-09,-0.0013342182278922,0.0013342189937196,-0.0013342160405553,0.0013342211507821,-0.0013342180986576,0.0013342188644844,-0.0013342159317556,0.0013342210419701,-0.0010726975296316,0.0010727021486423,-0.0010726973534627,0.0010727019725059,0.52521873377382,125301,3014,0.0036858441918349,0.0046258404265663,0.0046258404265711,21.978113658467,9.1024909267735e-05,9.1024909267735e-05,9.1024909267735e-05,3195083.2491709,0.013022450467387
18419200,0.99852368499729,0.01500425661497,0.0044886619509196,0.0052577973320247,0.0052577973320257,-0.00087368211674578,0.00087368951969028,3.2353679901699e-09,3.2353834221985e-09,1.9635177619684e-09,4.4140810248252e-09,-0.0010788799931989,0.001078885881801,-0.0010788798074947,0.0010788856960452,-0.0010788791183513,0.0010788865428831,-0.0010788789333362,0.0010788863578312,-0.00094801916386464,0.00094802689566331,-0.00094801948002771,0.000948027211896,2.5722444693362e-09,1.6489532159788e-10,5.0201039576869e-09,-1.88614063997e-09,-0.0010991648606672,0.0010991686858869,-0.0013241554317454,0.0013241620156703,-0.0013241576054137,0.0013241595820583,-0.0013241561053948,0.0013241609548997,-0.0013241582790543,0.0013241585213102,-0.0011351706843782,0.0011351805202354,-0.0011351766153626,0.0011351729841538,-0.001060205102359,0.0010602080018384,-0.0010602077371252,0.0010602058918959,1.8301270658744e-09,1.8301412817342e-09,-0.0010991643943836,0.0010991691521726,-1.3080564036718e-09,5.4949827890624e-09,-0.0013241577567219,0.0013241598174863,-0.0013241553518993,0.001324161916111,-0.0013241574469203,0.0013241595076843,-0.0013241550672993,0.0013241616314989,-0.0010602037553397,0.0010602097634954,-0.0010602036065896,0.0010602096147771,0.50516361584657,125301,3014,0.0036352780916028,0.0045694046721118,0.0045694046721162,17.482211905657,5.5057695245259e-05,5.5057695245259e-05,5.5057695245259e-05,3138262.5626985,0.012856938485438
19419200,0.99878359591624,0.01500815545961,0.0044899292007849,0.0052591131294123,0.0052591131294133,-0.00087269955313391,0.0008727025324265,1.528648204082e-09,1.5286635904355e-09,3.1878231568378e-10,2.687771918104e-09,-0.0010775880960954,0.0010775901137504,-0.0010775879071809,0.0010775899247844,-0.0010775872484506,0.0010775907426837,-0.0010775870602274,0.0010775905544237,-0.00094717768710334,0.00094718153284391,-0.00094717800296068,0.00094718184877096,1.610933962808e-09,-8.5055647689046e-10,4.0311565557399e-09,-2.8973276484244e-09,-0.0010979517285364,0.0010979528153159,-0.0013226638246725,0.0013226680964966,-0.0013226660018795,0.0013226656515439,-0.0013226645136219,0.0013226670120522,-0.0013226666908201,0.0013226645671222,-0.0011340951215694,0.0011341026565152,-0.0011341010749837,0.0011340950992605,-0.0010591448324834,0.0010591454799934,-0.0010591475147309,0.0010591433268437,8.4168800992082e-10,8.4170219022292e-10,-0.0010979512508885,0.001097953292966,-2.2695904858921e-09,4.5046541441286e-09,-0.0013226661474487,0.0013226659014986,-0.0013226637491585,0.0013226679852297,-0.0013226658326195,0.0013226655866688,-0.0013226634598006,0.0013226676958595,-0.001059143506255,0.0010591472248728,-0.0010591433553355,0.0010591470739854,0.65325215552176,125301,3014,0.0036311845753574,0.0045643660181683,0.004564366018173,17.551538115979,5.5612304927836e-05,5.5612304927836e-05,5.5612304927836e-05,3130120.8699479,0.012842579584112
20419200,0.99900977977428,0.015011788873571,0.004491110470677,0.0052603392014463,0.0052603392014473,-0.00087053741152074,0.00087053864059481,8.2395683274317e-10,8.2397230959389e-10,-2.7812270535109e-10,1.9189909817751e-09,-0.0010820113934588,0.0010820119625659,-0.0010820115154402,0.0010820120844956,-0.001082010876154,0.0010820128335984,-0.0010820109941134,0.0010820129515211,-0.00094487668729822,0.00094487921659143,-0.00094487704120831,0.00094487957057218,9.9234069761875e-10,-1.2626788000515e-09,3.3442663361314e-09,-3.3124934341944e-09,-0.0010918176245805,0.0010918173047879,-0.001322976920872,0.0013229798132084,-0.0013229793190587,0.0013229778064054,-0.001322977969924,0.0013229792752751,-0.0013229803681017,0.0013229772684946,-0.0011287672305969,0.0011287735707425,-0.0011287730255735,0.0011287663721164,-0.0010551563999101,0.0010551559848925,-0.0010551589202611,0.0010551540801377,2.3876924473406e-10,2.3878351244525e-10,-0.0010918172164307,0.0010918177129399,-2.7501134177023e-09,3.7687685310319e-09,-0.0013229791304317,0.0013229776621736,-0.0013229771817396,0.0013229800159102,-0.0013229793158989,0.0013229778476403,-0.001322977376731,0.0013229802108895,-0.0010551552223326,0.0010551577292012,-0.0010551549776604,0.0010551574845608,0.70012779305903,125301,3014,0.0036222411266805,0.0045389539959293,0.0045389539959339,18.596331012683,6.3970648101466e-05,6.3970648101466e-05,6.3970648101466e-05,2999628.2457172,0.012782117794321
21419200,0.99916369350525,0.015014089022056,0.0044918639669407,0.0052611125275569,0.0052611125275579,-0.00085989280484251,0.0008598984035477,2.5100998419081e-09,2.5101153091121e-09,1.3485018150776e-09,3.6201030504838e-09,-0.0010726646870855,0.001072669103708,-0.0010726648087167,0.0010726692252884,-0.001072664142873,0.0010726700012194,-0.0010726642605275,0.0010726701188376,-0.00093484102323928,0.00093484739348869,-0.00093484138027374,0.00093484775059405,1.9550444024285e-09,-2.3351466825776e-10,4.3424934071331e-09,-2.2928973693884e-09,-0.0010799574820543,0.0010799599168288,-0.0013125098433551,0.0013125150824522,-0.0013125122329727,0.00131251308132,-0.0013125108714418,0.0013125145695821,-0.0013125132610511,0.0013125125684726,-0.0011176641966185,0.0011176728632553,-0.0011176699708201,0.001117665685715,-0.001044198404601,0.0010442002475885,-0.0010442008703689,0.0010441984032397,1.2455947557882e-09,1.2456090238817e-09,-0.0010799570762538,0.0010799603226312,-1.770908090694e-09,4.7774091403566e-09,-0.0013125120459033,0.0013125129384845,-0.0013125100848456,0.0013125153015775,-0.0013125122334484,0.0013125131260299,-0.001312510281856,0.0013125154985765,-0.0010441971946078,0.0010442020305914,-0.0010441969463346,0.0010442017823497,0.64990944923705,125301,3014,0.0035780592208195,0.004489766507295,0.004489766507299,15.228771222324,3.7030169778592e-05,3.7030169778592e-05,3.7030169778592e-05,2929673.4999935,0.012637759535327
22419200,0.99929108089533,0.015016044873184,0.0044925061316585,0.0052617693707624,0.0052617693707634,-0.00085826451386848,0.00085826787708317,1.6504465334619e-09,1.6504619324621e-09,5.3637855642976e-10,2.7303247680849e-09,-0.0010703070189994,0.0010703094765867,-0.0010703069651631,0.0010703094226991,-0.0010703063443823,0.0010703101743867,-0.0010703062888593,0.0010703101188273,-0.00093311434485949,0.00093311871785725,-0.00093311456617374,0.00093311893924212,1.6245390738204e-09,-6.2627848352296e-10,3.9951773107084e-09,-2.6683384853314e-09,-0.0010782074227317,0.0010782088215067,-0.0013099584661832,0.0013099628786128,-0.001309960689913,0.0013099606765561,-0.0013099592712086,0.0013099620742971,-0.0013099614949293,0.0013099598722626,-0.0011157759797032,0.0011157837847256,-0.0011157816200648,0.0011157764209997,-0.0010424040334527,0.0010424050571822,-0.0010424063772037,0.0010424029764326,9.029985493671e-10,9.0301275334495e-10,-0.0010782069958264,0.0010782092484142,-2.0956643054528e-09,4.4297659842781e-09,-0.00130996068605,0.0013099607482889,-0.0013099585355103,0.0013099629067595,-0.0013099605955999,0.0013099606578386,-0.0013099584613766,0.001309962832614,-0.0010424026394887,0.0010424066434915,-0.0010424025858651,0.0010424065898996,0.6664256214451,125301,3014,0.0035712880207913,0.0044825059776061,0.0044825059776108,14.85936383052,3.4074910644157e-05,3.4074910644157e-05,3.4074910644157e-05,2966227.0875469,0.012616186790074
23419200,0.99940419503399,0.015017680907228,0.0044930432987927,0.0052623188042173,0.0052623188042183,-0.00085857699750853,0.00085857852124891,9.3420616152538e-10,9.3422156905469e-10,-9.989987412742e-11,1.9529396906359e-09,-0.0010720886263223,0.0010720895159175,-0.0010720887300336,0.0010720896195774,-0.0010720881399306,0.0010720903218443,-0.0010720882401433,0.0010720904220205,-0.00093321534594876,0.00093321807607744,-0.00093321570622398,0.00093321843642294,1.024343244341e-09,-1.0745206299099e-09,3.3537271107192e-09,-3.0967004496749e-09,-0.0010774434195856,0.0010774433948074,-0.0013105355328822,0.0013105385854216,-0.0013105378439325,0.001310536624799,-0.0013105365161161,0.0013105380812165,-0.0013105388271569,0.001310536120616,-0.0011150829218999,0.0011150893569649,-0.0011150885170159,0.0011150823643433,-0.0010421804380436,0.0010421801806551,-0.0010421828125626,0.0010421784378045,3.4520527968625e-10,3.4521947572316e-10,-0.0010774430176543,0.001077443796741,-2.5453687464085e-09,3.7719346303833e-09,-0.0013105376605098,0.0013105365220931,-0.0013105357550443,0.0013105387857919,-0.0013105378266811,0.0013105366882642,-0.0013105359315482,0.0013105389622839,-0.0010421792611775,0.0010421819366027,-0.0010421790108356,0.0010421816862925,0.62875729639221,125301,3014,0.0035725798245765,0.0044793397908568,0.0044793397908617,15.704928095868,4.0839424766945e-05,4.0839424766945e-05,4.0839424766945e-05,2933110.7893135,0.012611095625225
24419200,0.99951096805994,0.015019311316727,0.0044935794836486,0.0052628659165388,0.0052628659165398,-0.00086283962569357,0.00086283960962279,3.3318485393142e-10,3.332002213149e-10,-6.1188862886946e-10,1.2813155297783e-09,-0.0010753814801364,0.0010753810751702,-0.0010753816616742,0.0010753812566566,-0.0010753811150617,0.0010753819032546,-0.0010753812921304,0.0010753820802867,-0.0009374539147147,0.00093745531688124,-0.00093745427807774,0.00093745568031458,5.7252519441114e-10,-1.3895859906809e-09,2.822897072548e-09,-3.3595831092118e-09,-0.0010816523506087,0.00108165126627,-0.0013137532701586,0.0013137552840317,-0.0013137555731683,0.0013137535009053,-0.0013137543162157,0.001313754943432,-0.001313756619216,0.0013137531603276,-0.0011192394102741,0.001119244782171,-0.0011192447692411,0.0011192380754526,-0.0010463374340696,0.0010463363013978,-0.001046339676273,0.0010463347019079,-5.8964304357447e-11,-5.8950128466982e-11,-0.0010816519619365,0.0010816516549444,-2.8129846355591e-09,3.2296975972495e-09,-0.001313755285238,0.0013137533187133,-0.0013137535636306,0.0013137555808646,-0.0013137555745611,0.0013137536080362,-0.0013137538596323,0.0013137558768544,-0.0010463363101047,0.0010463380282211,-0.0010463360439568,0.0010463377621049,0.66255127740754,125301,3014,0.0035902620122083,0.0044967919112881,0.004496791911293,17.879529120918,5.823623296734e-05,5.823623296734e-05,5.823623296734e-05,2934355.3455005,0.012664334070923
25419200,0.99960831707647,0.015021063568597,0.0044941555236868,0.0052634540224544,0.0052634540224554,-0.00086583359648071,0.00086583371872984,3.8604026802892e-10,3.8605566532325e-10,-5.0901769055013e-10,1.2811908331466e-09,-0.0010802212228436,0.0010802209673008,-0.0010802213971393,0.0010802211415449,-0.00108022088375,0.0010802217543988,-0.0010802210542174,0.0010802219248295,-0.00094030081339506,0.00094030229594579,-0.00094030117528555,0.00094030265790659,5.7481667166201e-10,-1.2837476278268e-09,2.7644097501213e-09,-3.1923205489976e-09,-0.0010831156483557,0.0010831146995034,-0.0013170289081217,0.0013170309281939,-0.0013170311319972,0.0013170292120225,-0.0013170299121995,0.0013170306117002,-0.0013170321360655,0.0013170288955507,-0.0011208921641741,0.0011208974641533,-0.0011208972989581,0.001120890976986,-0.0010484829775117,0.0010484819327749,-0.0010484851168953,0.0010484804348189,-3.6738209467037e-11,-3.6724024194505e-11,-0.0010831152907049,0.0010831150571566,-2.6818813324692e-09,3.1392012018375e-09,-0.0013170308650609,0.001317029024777,-0.001317029207993,0.0013170312052373,-0.0013170311440929,0.0013170293038086,-0.0013170294938627,0.0013170314910951,-0.0010484819065855,0.0010484836027956,-0.0010484816428346,0.0010484833390763,0.77991302017261,125301,3014,0.0036026987463052,0.0045028735484116,0.0045028735484165,19.924626842015,7.4597014736121e-05,7.4597014736121e-05,7.4597014736121e-05,2887286.1839957,0.012689267343983
26419200,0.99968814689462,0.015022592995096,0.0044946594750707,0.0052639667600124,0.0052639667600134,-0.00086363436551735,0.00086363630930466,1.0927570630806e-09,1.0927725471959e-09,1.8420892161742e-10,1.9780120544424e-09,-0.0010826159793162,0.0010826173001046,-0.0010826160604789,0.0010826173812156,-0.0010826155544127,0.0010826179984739,-0.0010826156335683,0.0010826180775924,-0.00093801051690227,0.00093801350600624,-0.0009380108791542,0.00093801386832867,1.0512659180402e-09,-7.8578179515186e-10,3.2390888684192e-09,-2.6622930904014e-09,-0.0010776309742646,0.0010776313587602,-0.0013162015157383,0.0013162046421916,-0.0013162036279024,0.001316202837937,-0.0013162023895264,0.0013162041955311,-0.0013162045016809,0.0013162023912981,-0.0011159809246585,0.0011159872490731,-0.0011159859763172,0.0011159807926946,-0.0010445774594569,0.0010445774644365,-0.0010445795802647,0.0010445759844404,4.3017743278648e-10,4.3019162702933e-10,-0.0010776306438587,0.0010776316891683,-2.1946834818673e-09,3.5834129394003e-09,-0.0013162034966657,0.0013162027343843,-0.0013162017419939,0.0013162047930533,-0.0013162036337562,0.0013162028714749,-0.0013162018897513,0.0013162049407991,-0.0010445764081659,0.0010445790979483,-0.0010445761576189,0.001044578847434,0.82922923068302,125301,3014,0.0035935937253929,0.0044801539481772,0.0044801539481818,20.393668119835,7.8349344958678e-05,7.8349344958678e-05,7.8349344958678e-05,2793332.3980999,0.012634084200143
27419200,0.99975776397386,0.015023796086192,0.0044950579164449,0.0052643690848732,0.0052643690848742,-0.00086498056362236,0.00086498090974829,4.6972622759795e-10,4.697417207717e-10,-3.9263311600429e-10,1.3293226434734e-09,-0.0010857643385042,0.0010857642956551,-0.0010857645002901,0.0010857644573897,-0.0010857640096802,0.001085765047757,-0.0010857641683319,0.0010857652063722,-0.00093931316115348,0.00093931480146563,-0.00093931353270381,0.00093931517308716,6.2374500476424e-10,-1.1648876676395e-09,2.7550441408459e-09,-3.0091016435763e-09,-0.0010768174169104,0.0010768166928378,-0.0013172395722656,0.0013172416949467,-0.0013172417201585,0.0013172400267314,-0.0013172405412087,0.0013172413870459,-0.0013172426890917,0.0013172397188522,-0.0011154697678833,0.001115475087176,-0.0011154747147353,0.0011154687911887,-0.0010446704013478,0.0010446695309303,-0.0010446724855705,0.0010446681152607,8.0472473679991e-12,8.0614521693463e-12,-0.0010768170983814,0.0010768170113691,-2.5431714752248e-09,3.0894937852915e-09,-0.001317241495673,0.0013172398281378,-0.0013172398840065,0.0013172419300606,-0.0013172417609051,0.0013172400933699,-0.0013172401560905,0.0013172422021331,-0.0010446694109622,0.0010446711459633,-0.0010446691344551,0.0010446708694878,0.74718867332313,125301,3014,0.0035991793256236,0.0044767887153788,0.0044767887153836,22.251072441901,9.3208579535208e-05,9.3208579535208e-05,9.3208579535208e-05,2739832.4122141,0.012632940102
28419200,0.99981498423897,0.01502492392136,0.0044954322555504,0.0052647458329041,0.0052647458329051,-0.00086727455385088,0.00086727567186226,7.6912822310191e-10,7.6914363033711e-10,-9.504624693181e-11,1.6168648706528e-09,-0.0010855869237743,0.001085587569055,-0.0010855870431552,0.0010855876883846,-0.0010855865609239,0.0010855882776585,-0.0010855866778737,0.0010855883945718,-0.00094163883067147,0.00094164110729567,-0.00094163920022298,0.00094164147691807,8.0775197062342e-10,-9.534564656532e-10,2.9250072413505e-09,-2.7715239178303e-09,-0.0010799942633894,0.0010799940857565,-0.001317774699853,0.0013177772762533,-0.0013177767834632,0.0013177755829282,-0.0013177756059708,0.0013177769169364,-0.0013177776895711,0.0013177752236331,-0.0011184741996961,0.0011184798966018,-0.0011184790714944,0.0011184736604432,-0.0010474383696202,0.0010474379233394,-0.0010474404249185,0.0010474365306484,2.2450330425463e-10,2.2451745873399e-10,-0.0010799939311028,0.0010799944180454,-2.298501134221e-09,3.2723709700925e-09,-0.0013177765930438,0.0013177754502853,-0.0013177749516886,0.0013177774831172,-0.0013177767940646,0.0013177756513061,-0.0013177751618814,0.0013177776932985,-0.0010474373619033,0.0010474395407264,-0.0010474370955856,0.0010474392744405,0.8493285419621,125301,3014,0.0036086831015266,0.0044899510462009,0.0044899510462059,23.440626309583,0.00010272501047666,0.00010272501047666,0.00010272501047666,2769782.3517622,0.012669188342709
29419200,0.9998614793733,0.015025577167333,0.0044956490818515,0.00526496404274,0.005264964042741,-0.0008677991963457,0.00086780014238152,7.015626808005e-10,7.0157813835769e-10,-1.4754913894568e-10,1.5391928443328e-09,-0.0010899122392292,0.0010899127308253,-0.0010899123689412,0.001089912860486,-0.0010899118927414,0.0010899134404362,-0.001089912020098,0.0010899135677561,-0.00094194771570067,0.00094194984112855,-0.00094194808864175,0.00094195021414063,7.7205941152501e-10,-9.7144478284305e-10,2.8652291241012e-09,-2.7678801694529e-09,-0.0010775958182026,0.0010775955578881,-0.0013192617991997,0.0013192642658892,-0.0013192638723538,0.0013192626042561,-0.0013192627134958,0.0013192639282567,-0.0013192647866399,0.0013192622666454,-0.0011164336650165,0.0011164392456476,-0.0011164384762937,0.0011164330731896,-0.0010462658577302,0.0010462653556861,-0.0010462678993812,0.0010462639847461,1.7002584882703e-10,1.7004004598155e-10,-0.0010775955112234,0.0010775958648696,-2.3202740258683e-09,3.1869994567513e-09,-0.0013192636906562,0.0013192624387283,-0.0013192620815845,0.0013192644615595,-0.0013192639095179,0.0013192626575902,-0.0013192623086059,0.0013192646885694,-0.0010462648953284,0.0010462669391393,-0.001046264622035,0.0010462666658772,0.60881578646039,125301,3014,0.0036108754623976,0.0044800283213553,0.0044800283213602,24.779497116588,0.00011343597693271,0.00011343597693271,0.00011343597693271,2687477.9182838,0.012651358940201
30419200,0.99989846596529,0.015026017752579,0.0044957959257215,0.0052651109134284,0.0052651109134294,-0.00087352156818336,0.00087352248894109,6.9181321090482e-10,6.9182853184854e-10,-1.5555992876566e-10,1.5207238332102e-09,-0.0010875160290129,0.001087516533835,-0.0010875161549548,0.0010875166597257,-0.0010875156845435,0.0010875172378914,-0.0010875158080048,0.0010875173613163,-0.00094797169001286,0.00094797378877623,-0.00094797206380766,0.0009479741626417,7.3102294730912e-10,-9.9009130403367e-10,2.8037526426508e-09,-2.7671136462481e-09,-0.001087861453517,0.0010878611244283,-0.0013211863628995,0.0013211887808089,-0.0013211884134675,0.0013211871377864,-0.0013211872677722,0.0013211884473641,-0.0013211893183301,0.0013211868043631,-0.0011260248468763,0.0011260303058983,-0.001126029608561,0.0011260242061598,-0.0010544815073583,0.0010544809377563,-0.001054483528599,0.0010544795914892,1.8947876981835e-10,1.8949281362462e-10,-0.0010878611008866,0.0010878614770612,-2.2738733439802e-09,3.171993656227e-09,-0.0013211881888386,0.0013211870232184,-0.0013211865973939,0.0013211890227163,-0.0013211884012643,0.0013211872356439,-0.0013211868192412,0.0013211892445516,-0.0010544805047215,0.001054482561074,-0.0010544802334756,0.0010544822898606,0.51512748248588,125301,3014,0.0036345834287446,0.0045225588332377,0.004522558833243,26.130186266933,0.00012424149013546,0.00012424149013546,0.00012424149013546,2825843.3385198,0.012761411293122
31419200,0.99992840756314,0.015026478169036,0.0044959481648369,0.0052652650020993,0.0052652650021003,-0.00088105287483437,0.00088105261957506,2.3315939590521e-10,2.3317466729162e-10,-5.7056217680538e-10,1.0360838721724e-09,-0.0010925424663044,0.0010925419455781,-0.0010925426540708,0.0010925421332932,-0.0010925421988111,0.0010925426856984,-0.0010925423831982,0.0010925428700489,-0.00095530136775368,0.00095530247069875,-0.00095530173846767,0.0009553028414828,4.0734497757905e-10,-1.2666395588085e-09,2.4185928373494e-09,-3.0047901526723e-09,-0.0010970765144059,0.0010970753574889,-0.0013278884860742,0.0013278901128537,-0.0013278905522587,0.0013278885898888,-0.0013278894569557,0.0013278898859925,-0.0013278915231302,0.0013278883630491,-0.0011347327709896,0.0011347374390864,-0.0011347374035836,0.0011347314966625,-0.0010626854420389,0.0010626842274499,-0.0010626874090923,0.0010626829241185,-1.2545594287765e-10,-1.2544190333596e-10,-0.0010970761697645,0.0010970757021329,-2.5117566620581e-09,2.7802773623174e-09,-0.001327890250221,0.0013278884039289,-0.0013278887847091,0.001327890424629,-0.0013278905579291,0.0013278887116365,-0.0013278890986592,0.0013278907385669,-0.001062684479402,0.0010626858108463,-0.0010626842047688,0.001062685536245,0.66479676253864,125301,3014,0.0036658328428243,0.0045607679837694,0.0045607679837748,28.438034704782,0.00014270427763826,0.00014270427763826,0.00014270427763826,2869139.3863731,0.012870438206257
32419200,0.99995028316735,0.015026874367416,0.0044960787779935,0.0052653977947109,0.0052653977947119,-0.00088049247511475,0.00088049395845718,9.1462549055438e-10,9.1464090240709e-10,8.3842979463353e-11,1.7247010232147e-09,-0.0010985525030196,0.0010985534847044,-0.0010985526059517,0.0010985535875849,-0.0010985521470844,0.001098554154102,-0.0010985522484786,0.0010985542554596,-0.00095445788699719,0.0009544604467508,-0.00095445825298626,0.0009544608128103,8.8532383581262e-10,-8.030934742993e-10,2.908385343218e-09,-2.5241940080854e-09,-0.0010927824050553,0.0010927825149873,-0.0013302272812183,0.0013302299917367,-0.0013302292657771,0.001330228368585,-0.0013302281400502,0.0013302296303599,-0.0013302301245993,0.0013302280072297,-0.0011310256923451,0.0011310313952576,-0.0011310302999306,0.0011310254146249,-0.0010601734740075,0.0010601732834366,-0.001060175453203,0.0010601719574926,3.1053269802747e-10,3.1054684709522e-10,-0.0010927821005879,0.0010927828194569,-2.0863530522434e-09,3.2264721761074e-09,-0.0013302291075188,0.0013302282387182,-0.001330227532629,0.0013302301682403,-0.001330229281473,0.0013302284126725,-0.0013302277163901,0.0013302303519898,-0.001060172538204,0.001060174815177,-0.0010601722799057,0.0010601745569102,0.7835582016357,125301,3014,0.0036635507308309,0.0045429995373243,0.0045429995373289,29.295269128983,0.00014956215303187,0.00014956215303187,0.00014956215303187,2748384.8545523,0.012832212095769
33419200,0.99996548837238,0.015027159826257,0.0044961734474016,0.0052654931894274,0.0052654931894284,-0.00087744420905529,0.00087744669969839,1.3033129208025e-09,1.3033283894182e-09,4.3822330327007e-10,2.13638473031e-09,-0.0010997734175702,0.0010997752452185,-0.0010997734689859,0.0010997752965828,-0.0010997729965647,0.0010997758833865,-0.001099773047174,0.0010997759339594,-0.00095143588474101,0.00095143929391814,-0.00095143625429626,0.00095143966354444,1.1725308208968e-09,-5.5972818892517e-10,3.225709345563e-09,-2.2918674422264e-09,-0.0010864902231004,0.0010864910720788,-0.001328423793544,0.0013284271633592,-0.0013284257519082,0.0013284254519641,-0.0013284245995547,0.0013284267131161,-0.0013284265579088,0.0013284250017423,-0.0011253290251307,0.0011253353871352,-0.0011253336995,0.0011253293091989,-0.0010553822659755,0.0010553826677686,-0.0010553842936586,0.0010553813000699,5.7208216592958e-10,5.7209639117148e-10,-0.0010864899266219,0.0010864913685596,-1.8684601131496e-09,3.5343114784751e-09,-0.0013284256720231,0.0013284253667313,-0.0013284240048439,0.0013284272657286,-0.0013284257698151,0.0013284254645234,-0.0013284241143172,0.0013284273751903,-0.0010553813276477,0.0010553842016898,-0.0010553810715193,0.0010553839455927,0.80945760226261,125301,3014,0.0036509176832747,0.0045169295473612,0.004516929547366,29.317290509024,0.00014973832407219,0.00014973832407219,0.00014973832407219,2664192.814392,0.012766655303029
34419200,0.99997699501674,0.015027355938251,0.0044962387878482,0.005265558575201,0.005265558575202,-0.00088006515726681,0.00088006509783972,3.0918071791777e-10,3.0919617544555e-10,-5.031758081921e-10,1.1228547181326e-09,-0.0011032525174278,0.001103252153893,-0.0011032526979153,0.0011032523343293,-0.0011032522364457,0.0011032528923037,-0.0011032524140871,0.0011032530699088,-0.00095398179215779,0.00095398306314178,-0.00095398217184933,0.00095398344290462,4.9872695667631e-10,-1.1988830783273e-09,2.4977845080044e-09,-2.916362811576e-09,-0.0010875504868477,0.0010875495368112,-0.0013303594298142,0.0013303612221268,-0.0013303614831896,0.0013303596904285,-0.001330360399691,0.001330360977622,-0.001330362453056,0.0013303594459448,-0.0011265409671361,0.0011265457972958,-0.0011265455840599,0.0011265398579374,-0.0010570299372703,0.0010570289197756,-0.0010570319418633,0.0010570276057939,-1.0035098422867e-10,-1.0033678051552e-10,-0.0010875501954279,0.0010875498282333,-2.4798632347775e-09,2.8048976151562e-09,-0.00133036124731,0.0013303594593608,-0.0013303597717455,0.0013303614662127,-0.0013303615476305,0.0013303597596818,-0.0013303600777759,0.0013303617722317,-0.0010570290584868,0.0010570304484977,-0.0010570287676844,0.0010570301577266,0.73398852679868,125301,3014,0.0036617876489541,0.0045213293184075,0.0045213293184125,31.482021073877,0.00016705616859102,0.00016705616859102,0.00016705616859102,2629695.3599435,0.01278657947662
35419200,0.99998601944717,0.01502749204907,0.0044962842342451,0.0052656039074117,0.0052656039074127,-0.00088953971509068,0.0008895368060968,-8.0176096542933e-10,-8.017455884285e-10,-1.5230613799615e-09,-4.1418926474345e-11,-0.0011102655330767,0.0011102627150815,-0.0011102658603992,0.001110263042353,-0.0011102654307316,0.0011102635469066,-0.0011102657529457,0.0011102638690841,-0.00096329335488607,0.00096329221803884,-0.00096329373701365,0.00096329260023727,-2.8668897783226e-10,-1.8842187702004e-09,1.6079606002691e-09,-3.5455848431041e-09,-0.0010975902223063,0.0010975872545189,-0.0013377433610086,0.0013377432968002,-0.0013377454771478,0.001337742018147,-0.0013377444964341,0.001337743305292,-0.0013377466125631,0.0013377420266601,-0.0011362894248669,0.0011362924144951,-0.0011362938303854,0.0011362867676305,-0.001066654140504,0.0010666515218078,-0.0010666560455968,0.0010666503159021,-8.5533626777003e-10,-8.5532210352627e-10,-0.0010975899372321,0.0010975875395955,-3.0955239270601e-09,1.9127112307348e-09,-0.0013377450525796,0.0013377416296276,-0.0013377438437064,0.0013377437133356,-0.0013377455820944,0.0013377421591425,-0.0013377443720129,0.0013377442416304,-0.0010666533345858,0.0010666530123415,-0.0010666530184721,0.0010666526962592,0.64952121200817,125301,3014,0.0037010908711003,0.0045629524733022,0.0045629524733074,35.929118317596,0.00020263294654077,0.00020263294654077,0.00020263294654077,2649618.8707728,0.012910670179906
36419200,0.99999179714491,0.015027583499041,0.0044963147277275,0.0052656343856562,0.0052656343856572,-0.0008938839856766,0.00089388458575092,5.6477963651684e-10,5.6479497637175e-10,-2.08055249452e-10,1.324743008334e-09,-0.0011121887388242,0.001112188989556,-0.0011121888824411,0.0011121891331216,-0.0011121884553321,0.0011121896627694,-0.0011121885970958,0.0011121898044967,-0.00096758283470007,0.00096758462173238,-0.00096758320745606,0.00096758499455892,6.1546286213538e-10,-9.7271047071392e-10,2.532551585991e-09,-2.6010253840681e-09,-0.0011032737368797,0.0011032732538282,-0.0013408606726702,0.0013408627556478,-0.0013408626004613,0.0013408612772613,-0.0013408615605665,0.0013408624945384,-0.0013408634883475,0.0013408610161732,-0.0011416722583787,0.0011416772216799,-0.0011416765930477,0.00114167155284,-0.0010716722522431,0.0010716715902556,-0.0010716741408016,0.0010716703750208,7.6325316902196e-11,7.6339431235719e-11,-0.0011032734440676,0.0011032735466426,-2.1722692432687e-09,2.8399365294914e-09,-0.0013408623889251,0.0013408611062996,-0.0013408609610655,0.0013408629817215,-0.0013408626323899,0.0013408613497643,-0.0013408612124661,0.0013408632331104,-0.0010716713929633,0.0010716730720893,-0.0010716711188417,0.0010716727979992,0.6811981079479,125301,3014,0.0037191166603846,0.0045865160792542,0.0045865160792592,37.480325846831,0.00021504260677465,0.00021504260677465,0.00021504260677465,2686241.891404,0.012976639508547
37419200,0.99999520939711,0.0150276353498,0.0044963319890324,0.0052656516803833,0.0052656516803843,-0.0008937871111411,0.00089378939252162,1.222425890287e-09,1.2224412677584e-09,3.9871391882817e-10,2.0118913339684e-09,-0.0011138227314281,0.001113824431197,-0.0011138227899064,0.0011138244896239,-0.0011138223451608,0.0011138250490641,-0.0011138224031778,0.0011138251070445,-0.00096738707664381,0.00096739028510462,-0.00096738744939336,0.00096739065792491,1.0823237800584e-09,-5.6164450628005e-10,3.0423336492563e-09,-2.2046480737042e-09,-0.0011021490774285,0.0011021497906454,-0.0013415207010162,0.0013415238699142,-0.0013415225802976,0.001341522257164,-0.0013415214916396,0.001341523462549,-0.0013415233709108,0.0013415218498201,-0.0011406759894586,0.0011406820081857,-0.0011406804104617,0.0011406762078478,-0.0010709864085583,0.0010709867092504,-0.0010709883542107,0.0010709854351311,5.2193043017774e-10,5.2194457206925e-10,-0.0011021487854615,0.0011021500826148,-1.7888519032876e-09,3.3463731055398e-09,-0.0013415224818627,0.0013415221735062,-0.0013415209115371,0.0013415239919173,-0.0013415225923754,0.0013415222840189,-0.0013415210339008,0.0013415241142693,-0.0010709855245745,0.0010709881988611,-0.0010709852636002,0.0010709879379184,0.65495763090949,125301,3014,0.0037187274193802,0.0045818659726709,0.0045818659726759,37.680386712046,0.00021664309369637,0.00021664309369637,0.00021664309369637,2653402.3594877,0.012966847774201
38419200,0.99999717072701,0.01502766858988,0.0044963430641374,0.0052656627628706,0.0052656627628716,-0.00089273978312788,0.00089274291972273,1.5565805790906e-09,1.556595950974e-09,6.8223430073983e-10,2.3847330583361e-09,-0.0011124545338714,0.0011124569637929,-0.001112454547783,0.0011124569776532,-0.0011124540792996,0.0011124575685525,-0.001112454093251,0.0011124575824674,-0.00096639986574618,0.00096640381027371,-0.00096640024129657,0.00096640418589486,1.3318734285349e-09,-3.8579428639092e-10,3.3473911849295e-09,-2.0683777551898e-09,-0.0011012895863555,0.0011012908883247,-0.0013403185872495,0.0013403223511223,-0.0013403204760757,0.0013403206316185,-0.0013403193418393,0.0013403218529591,-0.0013403212306552,0.0013403201334765,-0.0011398380013312,0.0011398446289396,-0.0011398425782984,0.0011398386556402,-0.001070100456678,0.0010701012316083,-0.0010701024798233,0.0010700998864127,7.5725896231733e-10,7.5727309682671e-10,-0.0011012892769337,0.0011012911977489,-1.6397283757178e-09,3.6680096949393e-09,-0.0013403204277847,0.0013403206038988,-0.0013403187469462,0.001340322428097,-0.0013403204686058,0.0013403206447199,-0.0013403188019405,0.0013403224830796,-0.0010700995300413,0.0010701027621233,-0.0010700992726067,0.0010701025047203,0.72891346290552,125301,3014,0.0037143800500663,0.0045782997315878,0.0045782997315929,37.195995713944,0.00021276796571155,0.00021276796571155,0.00021276796571155,2660466.6698433,0.012955214202518
38880000,0.999997855632,0.015027680456953,0.0044963470168297,0.0052656667200613,0.0052656667200623,-0.00089117787945999,0.00089118045629527,1.3386700618426e-09,1.3387143736066e-09,4.6904000679681e-10,2.170161686609e-09,-0.0011130276263626,0.0011130295450948,-0.0011130276541971,0.0011130295732273,-0.0011130271847182,0.0011130301626648,-0.0011130272128604,0.0011130301904698,-0.00096501476734057,0.00096501821935027,-0.00096501515617079,0.00096501860850611,1.2065251583884e-09,-5.2429711938253e-10,3.2228066946984e-09,-2.2113245726368e-09,-0.0010982091650227,0.0010982101091045,-0.0013396066672852,0.0013396101145583,-0.0013396085750417,0.0013396084032102,-0.0013396074466573,0.0013396096343672,-0.0013396093543987,0.0013396079231627,-0.0011371465708229,0.0011371529069487,-0.0011371511778334,0.001137146927581,-0.0010675929772485,0.0010675934554297,-0.0010675950318145,0.0010675921171588,6.1175640570291e-10,6.1183115427233e-10,-0.0010982088670131,0.0010982104081993,-1.7889692778489e-09,3.5321538820205e-09,-0.0013396085236879,0.0013396083489446,-0.0013396068532039,0.0013396101922116,-0.0013396085883401,0.0013396084135611,-0.0013396069323102,0.0013396102708787,-0.0010675920854738,0.0010675949936549,-0.0010675918058977,0.0010675947144812,0.74537476942469,125301,3014,0.0037079023332313,0.0045655345741272,0.0045655345763739,37.193647489022,0.00021274917991218,0.00021274917991218,0.00021274917991218,2600506.1346837,0.012922819119929
