time,ASR_ext,ASR_strain,ASR_strain_xx,ASR_strain_yy,ASR_strain_zz,disp_x_101,disp_x_102,disp_x_103,disp_x_104,disp_x_105,disp_x_106,disp_x_p1_neg,disp_x_p1_pos,disp_x_p2_neg,disp_x_p2_pos,disp_x_p3_neg,disp_x_p3_pos,disp_x_p4_neg,disp_x_p4_pos,disp_x_p5_neg,disp_x_p5_pos,disp_x_p6_neg,disp_x_p6_pos,disp_y_101,disp_y_102,disp_y_103,disp_y_104,disp_y_105,disp_y_106,disp_y_p1_neg,disp_y_p1_pos,disp_y_p2_neg,disp_y_p2_pos,disp_y_p3_neg,disp_y_p3_pos,disp_y_p4_neg,disp_y_p4_pos,disp_y_p5_neg,disp_y_p5_pos,disp_y_p6_neg,disp_y_p6_pos,disp_y_p7_neg,disp_y_p7_pos,disp_y_p8_neg,disp_y_p8_pos,disp_z_101,disp_z_102,disp_z_103,disp_z_104,disp_z_105,disp_z_106,disp_z_p1_neg,disp_z_p1_pos,disp_z_p2_neg,disp_z_p2_pos,disp_z_p3_neg,disp_z_p3_pos,disp_z_p4_neg,disp_z_p4_pos,disp_z_p5_neg,disp_z_p5_pos,disp_z_p6_neg,disp_z_p6_pos,humidity,ndof,nelem,strain_xx,strain_yy,strain_zz,temp,thermal_strain_xx,thermal_strain_yy,thermal_strain_zz,vonmises,vstrain
2419200,0,0,0,0,0,0,0,0,0,0,0,0,0,0,0,0,0,0,0,0,0,0,0,0,0,0,0,0,0,0,0,0,0,0,0,0,0,0,0,0,0,0,0,0,0,0,0,0,0,0,0,0,0,0,0,0,0,0,0,0,0,0,0,0,0,0,0,0,0,0,0,0,0,0,0
3419200,0.15846859807173,0.0027326333992719,0.00091087779975731,0.00091087779975731,0.00091087779975731,-0.00026746398055598,0.00026523923536036,-5.7808521317377e-07,-1.5620401867441e-06,1.2334302471625e-06,-3.5701807086968e-06,-0.00026892081587093,0.00026873487867899,-0.0002693193047495,0.00026841207326118,-0.0002706634352477,0.00026712930566076,-0.0002710693900228,0.00026683546876201,-0.00025953360523787,0.00025651484755015,-0.00026052153155737,0.00025563814557259,2.6598632671814e-06,7.5649948020695e-06,6.4989481176426e-06,4.2800264801246e-06,-0.00026112739510035,0.00027156685534817,-0.00026421540767352,0.00027355998154769,-0.00026483516998444,0.00027283837075601,-0.00026250193666759,0.00027526388924205,-0.0002632002782078,0.00027448520782365,-0.00025089423939861,0.00026572511639506,-0.00025305703210141,0.00026345191307835,-0.00026407323870061,0.00026862022024614,-0.00025970519072717,0.00027340990208174,-5.3600084424176e-07,4.4251347874956e-07,-0.00022787935539491,0.00022781999559681,-1.0826087719431e-06,1.1277338155824e-06,-0.00023448148199371,0.00023333012467468,-0.0002336306212918,0.0002339037133549,-0.00023413728017651,0.00023363820607813,-0.00023327705208315,0.00023428875601972,-0.00023488116074838,0.00023650880335993,-0.00023573854356584,0.00023541903915744,0.78396790056514,128736,2834,0.0011091785846238,0.0011091599291325,0.00094893081194365,31.78537620887,0.00016948300967096,0.00016948300967096,0.00016948300967096,2495680.9265982,0.0031722924857447
4419200,0.3495942560757,0.0059213224501218,0.00209840632674,0.0020981275632627,0.0017247885601191,-0.00056359443935056,0.00055913779684051,-1.7217404635691e-06,-2.5761810739458e-06,1.6413664126045e-06,-6.3570969376574e-06,-0.00057679192790704,0.00057542493322506,-0.00057722940509256,0.00057515491387978,-0.00057964744912291,0.0005728215771817,-0.00058007640336696,0.00057264454355053,-0.00052398768390785,0.00051755241907259,-0.00052492049443342,0.00051689473587156,4.2350678992281e-06,1.2587211941775e-05,1.1398955251372e-05,6.633564603926e-06,-0.00055265700310948,0.00056993953372273,-0.00056826858908644,0.00058392463352492,-0.00056966877955027,0.00058234806598483,-0.00056533715919662,0.00058686807595805,-0.00056690303873785,0.00058518200185106,-0.00050828722231551,0.00053415151056201,-0.00051294614725417,0.00052924349736399,-0.00056147652394616,0.00056841091631757,-0.0005540336556161,0.00057659601094304,-4.2787575149654e-07,4.2192190553687e-07,-0.00039899522438669,0.00039906486300568,-2.2314465007157e-06,2.5229864008169e-06,-0.00041627219692487,0.00041442658789625,-0.00041446746866585,0.0004156900542002,-0.00041593457953614,0.00041464160201133,-0.0004141298134836,0.00041608130016853,-0.00043438506780785,0.00043687999939336,-0.00043516041903913,0.00043589021908604,0.77882048871034,128736,2834,0.0023362570128363,0.0023359748638513,0.00166137402594,33.598604763139,0.00018398883810511,0.00018398883810511,0.00018398883810511,3786591.414187,0.006353721706303
5419200,0.54996098153809,0.0092024538368155,0.0033739318178799,0.0033735959562513,0.0024549260626843,-0.00088348159701687,0.00087878681320476,-3.5243153775962e-06,-1.0587180019019e-06,1.06858088927e-06,-5.9800449706374e-06,-0.00091777481085073,0.00091467901459919,-0.00091706913696738,0.00091551719475567,-0.00092027706569065,0.00091244802892924,-0.00091952575874488,0.00091334094512685,-0.00079798941473245,0.00078848994873298,-0.00079555877576043,0.00079100695923641,2.4582921779469e-06,9.893537126004e-06,9.516427549393e-06,3.7891999334172e-06,-0.00087470163424534,0.00088740395388274,-0.00091029059194502,0.00092206951494731,-0.00091205715194614,0.0009201985904925,-0.00090770409276613,0.00092467925960486,-0.0009095856322475,0.00092273312270023,-0.00078266849467229,0.00080423645485952,-0.0007882715114874,0.00079845161189031,-0.00088889902284355,0.00089194730829029,-0.00088198288881453,0.00089931835157461,1.3799034432015e-06,-1.0894130587516e-06,-0.00054473370547861,0.00054506722684051,-2.5913561941798e-06,3.1202483712661e-06,-0.00057134227838828,0.0005705386731129,-0.00056927137688995,0.00057221156259348,-0.00057211874357762,0.00056967024842997,-0.00057005453110226,0.00057146173555042,-0.00062071801036003,0.00062054708977441,-0.00061832777064796,0.00062296704605558,0.77319620053306,128736,2834,0.0036645468160294,0.003664208624969,0.0022683697027258,36.266592204038,0.0002053327376323,0.0002053327376323,0.0002053327376323,4338639.5354721,0.0096433728626968
6419200,0.70657968895919,0.011603807298977,0.0043352593608041,0.0043349308776927,0.0029336170604805,-0.0011236812059285,0.001119015323519,-3.6110280925448e-06,-9.222255864386e-07,1.4733405812194e-06,-6.3782989582071e-06,-0.001179517702529,0.001176621224919,-0.0011787481314075,0.0011775345915884,-0.0011822261344696,0.0011741202880724,-0.0011814235876148,0.0011751073728865,-0.00098963845109234,0.00097967861436049,-0.00098702399997115,0.00098242477736128,1.6213244033234e-06,9.8321383726512e-06,9.5905899661228e-06,2.7500797057066e-06,-0.0011154031656852,0.0011271324481744,-0.0011725631537822,0.0011834522798717,-0.0011746947217775,0.0011811846385658,-0.0011697122012916,0.001186329604565,-0.0011719753135506,0.0011839778091212,-0.00097392859491241,0.00099594111610439,-0.00098060818583513,0.00098906127253493,-0.0011312981180199,0.0011322447426631,-0.0011237046930093,0.0011404227160975,1.5338261443616e-06,-1.1641665264077e-06,-0.00062454175712474,0.0006249605394882,-3.0839254062242e-06,3.7217828469785e-06,-0.00066413741340045,0.00066313154524373,-0.00066173676537246,0.00066519417657896,-0.00066500952856212,0.00066219361444702,-0.00066259747747371,0.0006643776541345,-0.00073202663785494,0.00073210024223141,-0.0007294132738495,0.0007347093388319,0.72914356992428,128736,2834,0.0046611615820863,0.0046608275025365,0.0026008585628183,36.738372753804,0.00020910698203043,0.00020910698203043,0.00020910698203043,4390669.5772208,0.011994322526346
7419200,0.83206065272842,0.013468318569457,0.0050793728697626,0.005079037526221,0.0033099081734737,-0.0013185325333747,0.0013131954048212,-3.8204632529689e-06,-1.3875179470126e-06,1.574109671647e-06,-7.1636578105516e-06,-0.0013969343990053,0.0013937486523448,-0.0013962629260124,0.0013945824070109,-0.0013999157168043,0.0013909298645207,-0.0013991772513287,0.0013917998333573,-0.0011384621859893,0.0011277634633651,-0.001136060842279,0.0011301844784244,1.8957709868488e-06,1.0998741992532e-05,1.1174564631323e-05,2.5688596602665e-06,-0.0013092167962354,0.0013223618005609,-0.0013889694474916,0.0014015735999195,-0.0013916796360249,0.0013987283690088,-0.0013858333086739,0.0014047321309841,-0.0013887054282775,0.0014018242400742,-0.0011205993992295,0.0011461196793502,-0.0011290373500006,0.0011374681634479,-0.0013242595812054,0.0013251792506165,-0.001315834793643,0.0013342040911114,1.5379776711743e-06,-9.0920685346578e-07,-0.00067777235816427,0.00067842427303928,-3.8307639147355e-06,4.721484942196e-06,-0.00072878459379029,0.00072731952482695,-0.00072580897436683,0.00072999795779782,-0.00072960432402846,0.00072646197454463,-0.00072659057812712,0.00072928183382618,-0.00081443851364557,0.00081565928191216,-0.00081205191017261,0.00081792195142509,0.71234622029365,128736,2834,0.0054674050590051,0.0054670952153128,0.0028232634366589,40.760780625227,0.00024128624500182,0.00024128624500182,0.00024128624500182,4175711.0071461,0.013853049168601
8419200,0.90778371970979,0.014572576688675,0.0055147062044013,0.0055143742776829,0.0035434962065912,-0.0014320747139829,0.0014268318291569,-4.3172320137154e-06,-7.9656801719299e-07,1.5256411968567e-06,-7.012726139639e-06,-0.0015256603991801,0.0015221303382727,-0.0015246322370324,0.0015233411022981,-0.001528576813251,0.0015193785102025,-0.0015274700172716,0.0015206276189702,-0.0012219463580162,0.0012103578600913,-0.0012184429285738,0.0012138780996545,1.8974594823458e-06,1.0807871366355e-05,1.1418788744379e-05,2.095676102272e-06,-0.0014229132897115,0.0014358536597085,-0.0015174921714046,0.0015301918421298,-0.0015204290694836,0.0015271038743091,-0.0015144120199387,0.0015332825365932,-0.0015175004942876,0.0015301299055366,-0.0012034562732874,0.0012292969292218,-0.0012125398947716,0.0012199723797924,-0.0014368736197607,0.0014375726106191,-0.001428616582366,0.0014464307002189,2.121430559611e-06,-1.4170048483657e-06,-0.00069541464076448,0.00069615106710904,-4.1310325126848e-06,5.1277285529945e-06,-0.00075536031713864,0.00075411584932757,-0.00075216438090814,0.00075703314224835,-0.00075655522840179,0.00075291521315733,-0.00075332918452134,0.00075594389900669,-0.000852078474842,0.00085250802248247,-0.00084863204871219,0.00085593555665048,0.69848786923754,128736,2834,0.0059378751197371,0.0059375855358105,0.0028973520016096,41.433084657518,0.00024666467726014,0.00024666467726014,0.00024666467726014,3724397.2007373,0.01488276863072
9419200,0.94969048882603,0.015170866744319,0.0057469172568894,0.0057465887232769,0.0036773607641522,-0.0014926931528047,0.0014876871010937,-4.3596142190656e-06,-5.18942335133e-07,1.2720526296391e-06,-6.5146356955382e-06,-0.0015954066834806,0.0015917654585095,-0.0015942739193837,0.0015930839925125,-0.0015980897331615,0.0015892738881466,-0.001596890119568,0.0015906287607891,-0.0012639772436665,0.0012525663940084,-0.0012602021183547,0.0012563932554413,2.0823699191431e-06,1.0239178339208e-05,1.1340290743044e-05,1.810533009809e-06,-0.0014838352047512,0.0014964010989992,-0.0015872242299946,0.0015998590285671,-0.0015902287491632,0.0015967037552764,-0.0015843939590466,0.001602701493811,-0.0015875403332368,0.0015994813020808,-0.0012457839571209,0.0012712115938215,-0.0012550665142393,0.0012616678254434,-0.0014969446002799,0.0014979373288108,-0.0014894145836351,0.0015060396308368,2.2685528065335e-06,-1.5919939629317e-06,-0.00069729214746354,0.00069800137691057,-4.2373741110495e-06,5.2262090688307e-06,-0.00076332368371889,0.00076207681829715,-0.00076006564115524,0.00076506386884533,-0.00076461757781742,0.00076076943366996,-0.00076133076320143,0.00076386760404034,-0.00086565182033227,0.00086580659976911,-0.0008618921076083,0.00086952215510905,0.67994985049221,128736,2834,0.0061893246369241,0.0061890260851943,0.0029055192368742,41.145479032256,0.00024436383225805,0.00024436383225805,0.00024436383225805,3329981.0196698,0.01540162559329
10419200,0.97064978807462,0.015477859398221,0.0058639248086783,0.0058635970475679,0.0037503375419745,-0.0015172429115085,0.0015123573386847,-4.284372598285e-06,-4.786252393296e-07,1.1469266384013e-06,-6.2596786095033e-06,-0.001624788793946,0.0016211603766216,-0.0016236597407189,0.0016224530249716,-0.0016273488203546,0.0016187879711895,-0.0016261578873477,0.0016201341539443,-0.0012787702749019,0.0012676254758516,-0.0012750224199302,0.0012714413754832,2.189857552995e-06,9.9656455807486e-06,1.0042835244555e-05,2.9522016624883e-06,-0.001508515479001,0.0015209265152248,-0.0016170110564539,0.0016288219379363,-0.0016192310566466,0.0016264826571158,-0.0016142987932591,0.0016315414000878,-0.0016166601942263,0.0016291274852084,-0.0012620474458686,0.0012848188321747,-0.0012689902297778,0.0012776887184429,-0.0015210634498951,0.001523071403346,-0.0015138939879155,0.0015307850668653,2.0655274504248e-06,-1.7609762011432e-06,-0.00069203836582034,0.00069237573769766,-3.2394308595277e-06,3.8075393492412e-06,-0.00075995020537721,0.00075914290346988,-0.00075750558888846,0.00076133358120002,-0.00076122367389552,0.00075784417356326,-0.00075874725400387,0.00076014103215701,-0.00086733507483613,0.00086633564501619,-0.00086360891182489,0.00087003011445416,0.69329668219016,128736,2834,0.006291184464286,0.0062908561424194,0.0028831480444955,38.100583853113,0.00022000467082491,0.00022000467082491,0.00022000467082491,3055060.0329236,0.015585778758541
11419200,0.98275080763006,0.015652063262533,0.0059296689183006,0.0059293408175317,0.0037930535267006,-0.0015363086921016,0.0015314380540294,-4.3201193231911e-06,-4.2681207853487e-07,1.1447580530514e-06,-6.2440872722618e-06,-0.0016455736935209,0.0016419248022053,-0.0016444164025693,0.0016432478376573,-0.0016481270595342,0.0016395578059027,-0.0016469067635687,0.0016409332133328,-0.0012927520227663,0.0012815434594664,-0.0012889173529002,0.0012854466322423,2.1873527295956e-06,9.9451882872155e-06,1.012487610659e-05,2.8425251054318e-06,-0.0015276015171601,0.0015399872043595,-0.0016377636602287,0.0016496181642549,-0.0016400456585683,0.0016472144845589,-0.0016350577484459,0.0016523314491206,-0.0016374814593031,0.0016498541098604,-0.0012759142233754,0.0012988389180291,-0.0012830409049212,0.001291519505816,-0.0015409051862668,0.0015428448296327,-0.0015337578374708,0.0015505443499953,2.1190665907389e-06,-1.7955613889321e-06,-0.00068912845971013,0.00068948504277862,-3.3222118111413e-06,3.9133417085225e-06,-0.00076074882578062,0.00075992562589213,-0.00075824300582249,0.00076218143940028,-0.0007620542194918,0.00075859921571244,-0.00075951540187855,0.00076095992771279,-0.00086769297418527,0.00086668758908392,-0.00086388144723944,0.00087047256103788,0.67906583939175,128736,2834,0.0063701080632342,0.0063697802575263,0.0028712697390907,37.628197150553,0.00021622557720442,0.00021622557720442,0.00021622557720442,2821867.6419157,0.015734055503017
12419200,0.9896906775802,0.015754501548919,0.0059679574650189,0.0059676291999502,0.0038189148839498,-0.0015446240570042,0.0015397771754433,-4.3543469559865e-06,-3.6824587092527e-07,1.1405799335757e-06,-6.2144633631835e-06,-0.0016557474657986,0.0016520815324751,-0.0016545579049033,0.0016534365230491,-0.0016582933579892,0.0016497219028754,-0.0016570369260877,0.0016511356421296,-0.0012976450093846,0.0012863839293225,-0.0012937342851521,0.001290380899253,2.2172369078752e-06,9.9417989856217e-06,1.0089522230752e-05,2.9017583672765e-06,-0.0015359151022623,0.0015483233535788,-0.0016479325760085,0.0016597756479945,-0.001650172040431,0.0016574065889096,-0.0016452272568658,0.0016624871305207,-0.001647615928055,0.0016600251669274,-0.0012807952172886,0.0013036549105426,-0.0012878384139011,0.0012964126201073,-0.0015492181153724,0.0015512544256826,-0.0015421133382224,0.0015589116057073,2.150066842159e-06,-1.857467409349e-06,-0.00068557190237523,0.00068590732907851,-3.2825334077253e-06,3.8584828195006e-06,-0.00075795055040989,0.00075717714931099,-0.00075548713161353,0.00075940404218195,-0.00075928682951714,0.00075581704455209,-0.00075678153908532,0.00075814681770819,-0.00086670422787804,0.00086556023047997,-0.00086282342257492,0.0008694251479878,0.69355173668868,128736,2834,0.006404566377239,0.0064042287788135,0.0028565398710804,36.804267166646,0.00020963413733317,0.00020963413733317,0.00020963413733317,2700817.4730119,0.015789093099041
13419200,0.99356644915661,0.015810292991547,0.005988738666028,0.0059884102313368,0.0038331440941825,-0.0015481368188409,0.0015432881491543,-4.3537625404709e-06,-3.7009175782423e-07,1.1338562536499e-06,-6.2106169810525e-06,-0.0016593966444329,0.0016557246945849,-0.0016582093220049,0.0016570775839131,-0.0016619355549749,0.0016533709682215,-0.0016606849756459,0.0016547783558587,-0.0012995240070963,0.0012882715000052,-0.0012956095514478,0.0012922663159182,2.1955055117618e-06,9.9090976206194e-06,1.0046321507626e-05,2.8908306437075e-06,-0.0015394549989429,0.0015518116807308,-0.0016516041222102,0.0016634013618428,-0.0016538430498542,0.0016610402503098,-0.0016489124039424,0.0016661022130365,-0.0016512934644658,0.0016636641751154,-0.0012827374272726,0.0013054983026591,-0.001289745591606,0.0012982988908076,-0.0015534052009527,0.0015554035129697,-0.0015463023348445,0.001563059181451,2.147941534365e-06,-1.8581294659675e-06,-0.00068103294447588,0.00068135996152473,-3.2741435837308e-06,3.8360817416506e-06,-0.00075520477861123,0.00075442717493193,-0.00075274462642246,0.00075664344680389,-0.00075653894798651,0.00075306910917065,-0.00075404446819637,0.00075538952754044,-0.00086305470159738,0.0008618883779968,-0.00085916521059832,0.00086576413807924,0.67550368746862,128736,2834,0.0064190856249985,0.0064187572981325,0.0028377289998832,34.794598025461,0.00019355678420369,0.00019355678420369,0.00019355678420369,2560252.2910757,0.015799500401354
14419200,0.99580429187099,0.015842084174001,0.0060005378383714,0.0060002093666119,0.0038413369690179,-0.0015460305647127,0.0015411585830722,-4.3345113478039e-06,-4.1455609548317e-07,1.1510374962652e-06,-6.2507899862023e-06,-0.0016584968795638,0.0016548420476118,-0.0016573300427986,0.0016561735559101,-0.0016610534568675,0.0016524702522834,-0.001659824067756,0.0016538544181168,-0.0012955773196415,0.0012843397383821,-0.0012917138772626,0.0012882599759082,2.1728469060065e-06,9.9435872402169e-06,1.0093266809963e-05,2.8573799007909e-06,-0.0015373306904334,0.0015496997457577,-0.0016507021312433,0.0016625198307957,-0.0016529684693117,0.0016601317604592,-0.0016479908019124,0.001665238279688,-0.001650399051365,0.0016627745141442,-0.0012787486550267,0.0013016185109947,-0.0012858332371093,0.0012943432673821,-0.0015510678465325,0.0015529924598493,-0.0015439046728975,0.0015607030049173,2.1354004300089e-06,-1.8065245290289e-06,-0.00067600913433583,0.00067636797502654,-3.2983431837282e-06,3.8920385777255e-06,-0.00074948719285598,0.00074868929498765,-0.00074700079401206,0.00075093306921333,-0.00075080132058377,0.00074735329298681,-0.00074827968830069,0.00074970159757152,-0.00085926744373065,0.00085823260077627,-0.00085543466634543,0.00086204021234243,0.66543916098246,128736,2834,0.0064103200253653,0.0064099907890722,0.0028169434474688,32.643906427211,0.00017635125141769,0.00017635125141769,0.00017635125141769,2499476.8243716,0.015760578277596
15419200,0.99696960424406,0.015859562767451,0.0060069748564953,0.0060066463634262,0.0038459415475295,-0.0015359257595668,0.0015310382233048,-4.3470037933187e-06,-4.1308865758955e-07,1.1849456762907e-06,-6.3039369326353e-06,-0.0016488201363516,0.0016451722033115,-0.0016476455012176,0.0016465042348848,-0.0016514040620973,0.0016427707364021,-0.0016501678874602,0.0016441578221173,-0.0012851915784429,0.001273903593162,-0.001281310611691,0.0012778341837811,2.1422581325005e-06,1.0000274595216e-05,1.0097279862084e-05,2.8834976053101e-06,-0.0015272052784696,0.0015396026042069,-0.0016410304993557,0.0016528415823849,-0.0016432947036478,0.0016504656305378,-0.0016382938822174,0.001655589608402,-0.001640698985667,0.0016531384496715,-0.0012683150572295,0.0012912271298575,-0.0012753942094967,0.0012839879745631,-0.0015407690983618,0.0015426416537388,-0.0015335236333723,0.0015504354310831,2.1325074799457e-06,-1.8236779821813e-06,-0.00066724139015818,0.00066757726017006,-3.3043095275426e-06,3.863228101117e-06,-0.00074000430992104,0.00073919998062134,-0.00073752601025334,0.00074143635713974,-0.00074132440235023,0.00073786038108936,-0.00073881074703644,0.00074019939057323,-0.00085047273703584,0.00084939575140773,-0.00084663331674695,0.00085322713931285,0.70138893923662,128736,2834,0.0063684598134379,0.0063681359612176,0.0027804513400554,27.069722678282,0.00013175778142626,0.00013175778142626,0.00013175778142626,2415895.3005842,0.015638482052612
16419200,0.99771768464761,0.015870395710042,0.0060109579828766,0.0060106294876301,0.003848808239535,-0.0015350273556761,0.0015301510046387,-4.3244517499468e-06,-4.2527019594161e-07,1.1836405783603e-06,-6.288607459802e-06,-0.0016464864382506,0.0016428558144603,-0.0016453267966387,0.0016441761225078,-0.0016490653375269,0.0016404601869198,-0.0016478418905158,0.0016418349440304,-0.0012850256620414,0.001273793927771,-0.0012811905757474,0.0012777095662962,2.1442343228314e-06,9.985219782374e-06,1.0067721412928e-05,2.8905718038692e-06,-0.0015263195997457,0.0015387010343264,-0.0016387168958095,0.0016505133187739,-0.0016409646314476,0.0016481426322339,-0.0016359912191517,0.0016532502355027,-0.0016383792476378,0.0016508133976539,-0.0012682167633837,0.0012910636263111,-0.0012752527934039,0.0012838472430977,-0.0015408960070053,0.001542780249708,-0.0015336611281573,0.0015505658023954,2.1000164720288e-06,-1.8198040945304e-06,-0.00066300840760013,0.00066332801637774,-3.2933674458293e-06,3.8387533307133e-06,-0.00073808277509149,0.00073726966048527,-0.00073562123845913,0.00073949580298506,-0.00073938396899146,0.00073593627507448,-0.00073689060313479,0.0007382655794029,-0.0008452320957426,0.00084414638092094,-0.00084143522255064,0.00084795824069857,0.6769763872918,128736,2834,0.0063647450484454,0.0063644178571481,0.0027628531460417,24.418335321149,0.00011054668256919,0.00011054668256919,0.00011054668256919,2290606.3970703,0.015613066517537
17419200,0.99822006257897,0.015877869197873,0.0060136930777897,0.0060133645806585,0.0038508115394248,-0.0015292177622494,0.0015242759620974,-4.3280608810572e-06,-4.8549698663005e-07,1.1749490704456e-06,-6.3504837678346e-06,-0.0016415247259057,0.0016378644503111,-0.001640378943799,0.0016391645585475,-0.0016441183514271,0.0016354503499782,-0.001642914321144,0.0016368060937672,-0.0012787499594966,0.0012674875151722,-0.0012749646089176,0.0012713309899481,2.1264859664661e-06,1.0021382434292e-05,1.0068311918835e-05,2.9165386005771e-06,-0.0015204693835186,0.0015328713336018,-0.0016337411999094,0.0016455211798394,-0.0016359897164507,0.0016431713227436,-0.0016309921709464,0.0016482857361824,-0.0016333810856801,0.0016458564042421,-0.0012619061446139,0.0012847799740003,-0.0012689343023233,0.0012776030392957,-0.0015345088171093,0.0015363749123298,-0.0015272292496189,0.0015442024202186,2.073209291302e-06,-1.7918865517493e-06,-0.00065801674104139,0.00065832636373774,-3.2897033603975e-06,3.8160014951092e-06,-0.00073207533205924,0.00073123810560317,-0.00072961997058006,0.00073345318798298,-0.00073336892754063,0.00072993116513523,-0.00073087169765319,0.0007322493580683,-0.00084059777155079,0.00083956183798801,-0.00083685206402812,0.0008433023520372,0.69394003803875,128736,2834,0.006340564300705,0.0063402468500037,0.0027420788265227,21.980202011765,9.104161609412e-05,9.104161609412e-05,9.104161609412e-05,2265304.982004,0.015542859731418
18419200,0.99853216174311,0.015882436268392,0.0060153623858637,0.0060150338909408,0.003852039991587,-0.0015219490469807,0.0015170216219321,-4.2775385614714e-06,-5.2689667867721e-07,1.2068020966023e-06,-6.3646027216367e-06,-0.0016334901426438,0.0016298934715079,-0.0016323799986692,0.0016311684141221,-0.0016361011230781,0.0016274641769929,-0.0016349281975964,0.0016287924046871,-0.0012722442665709,0.0012610615823189,-0.0012685507264243,0.0012648236979081,2.1192878665025e-06,1.0059386462963e-05,1.0064105554852e-05,2.9446874426072e-06,-0.0015131900178574,0.001525618670099,-0.0016257401776722,0.0016375230899563,-0.0016279664918875,0.0016351730783901,-0.0016229750158619,0.001640298514541,-0.0016253428869828,0.0016378729934992,-0.0012554456076109,0.0012783173606066,-0.0012624196064199,0.001271159922645,-0.0015275718948359,0.0015294281976316,-0.0015202442947109,0.0015373093646053,2.0277329537081e-06,-1.7438828176785e-06,-0.00065134616871222,0.00065166290206752,-3.2634704961405e-06,3.811169419514e-06,-0.0007262272470785,0.00072537218416805,-0.00072378027985025,0.00072757928071937,-0.00072748366913293,0.00072409392187781,-0.00072500305773769,0.00072640398837614,-0.00083292804231269,0.00083197229816377,-0.00082926188293749,0.00083561810372825,0.68267067313907,128736,2834,0.006310494696038,0.0063101586593358,0.0027143672021158,17.47799108876,5.5023928710082e-05,5.5023928710082e-05,5.5023928710082e-05,2170217.5380419,0.015453630307865
19419200,0.99879058495745,0.01588644126141,0.0060168161539161,0.0060164876523092,0.0038531374551845,-0.0015219555611977,0.0015170249591156,-4.2717526007655e-06,-5.3576851960091e-07,1.2009936645094e-06,-6.3617451310225e-06,-0.0016340752655392,0.0016304766496205,-0.00163296943468,0.0016317461024759,-0.0016366827408075,0.0016280502100615,-0.0016355148532028,0.001629373118689,-0.0012714283187184,0.0012602587812073,-0.0012677483652847,0.0012640035803997,2.1216675493216e-06,1.0053296519032e-05,1.0048306765638e-05,2.956903971968e-06,-0.001513198638129,0.0015256236179352,-0.0016263287946529,0.0016381019865393,-0.0016285491685246,0.0016357627415661,-0.0016235666183934,0.0016408743856379,-0.0016259284183308,0.001638459932296,-0.0012546522519981,0.0012774897401491,-0.0012615990466865,0.001270359722248,-0.001527468166044,0.0015293398640721,-0.0015201477340842,0.0015372112472801,2.0192878462091e-06,-1.7378612448929e-06,-0.00064990107793287,0.00065021495856717,-3.2512443810112e-06,3.7953791355488e-06,-0.00072436234352094,0.00072350895674745,-0.00072192596649601,0.00072570685950942,-0.00072561520613127,0.0007222353556069,-0.00072314300080867,0.00072453613093251,-0.00083222931072886,0.0008312774911311,-0.00082857725055599,0.00083490693955926,0.72158242920695,128736,2834,0.006310516440546,0.0063101880983383,0.002708367607198,17.551568050536,5.5612544404289e-05,5.5612544404289e-05,5.5612544404289e-05,2152916.9582065,0.015447588726764
20419200,0.9990154837729,0.015889963477692,0.0060180931008837,0.006017764595916,0.0038541057808918,-0.0015274851986272,0.0015225892993004,-4.2686305830187e-06,-5.0452526278012e-07,1.1760823159821e-06,-6.3013751966288e-06,-0.0016383202764631,0.0016347191488416,-0.0016372049894077,0.0016359979091016,-0.0016409005566967,0.0016323210277996,-0.0016397234610167,0.001633653217051,-0.0012775882893844,0.0012664531883809,-0.0012738815608324,0.0012702278328018,2.1454334822097e-06,9.991743623101e-06,1.0021793481658e-05,2.9458082676663e-06,-0.00151876415697,0.0015311524741158,-0.0016305795660561,0.0016423397171137,-0.0016327949226255,0.0016400055675156,-0.0016278454351512,0.0016450836506338,-0.0016302019053626,0.0016426746329088,-0.0012608714519762,0.0012836280632555,-0.0012678009747428,0.001276512421409,-0.0015339078070386,0.0015358303830305,-0.0015266699876785,0.0015436181011757,2.0302893649959e-06,-1.755040709357e-06,-0.00065064888348049,0.00065095741677544,-3.2464391092029e-06,3.785390365018e-06,-0.00072756290599533,0.00072671843771874,-0.00072513156914271,0.00072891196368309,-0.00072882513697376,0.00072543586047921,-0.00072635794418363,0.00072773161436115,-0.00083233949782169,0.00083134712114102,-0.00082865866485583,0.00083500517341587,0.72910480554755,128736,2834,0.0063334621024831,0.0063331345994848,0.0027114991898773,18.597312354036,6.3978498832292e-05,6.3978498832292e-05,6.3978498832292e-05,2081602.8447814,0.015497377627018
21419200,0.99916848581186,0.015892297068442,0.006018939976928,0.0060186114700292,0.003854745621485,-0.0015209051258776,0.0015159883166823,-4.2391064889058e-06,-5.5193506784376e-07,1.1911184996885e-06,-6.3394814011535e-06,-0.0016316103712997,0.0016280298354233,-0.0016305195122666,0.0016292821174102,-0.0016342066031444,0.0016256146434852,-0.0016330561425695,0.0016269193520665,-0.0012714086538686,0.001260321208939,-0.0012677815742098,0.0012640183057864,2.1237420565828e-06,1.002322206234e-05,1.0024571953552e-05,2.9544189250821e-06,-0.0015121689870947,0.0015245681457222,-0.0016238844313444,0.0016356373877888,-0.0016260996806697,0.0016333059696552,-0.0016211348622118,0.0016383988429723,-0.0016234910501336,0.0016359944994,-0.0012547049995872,0.001277487787225,-0.0012616333320544,0.001270380123258,-0.0015271972763113,0.0015290788850649,-0.0015199097497661,0.0015369202000388,1.9903948370565e-06,-1.7176359484123e-06,-0.0006450563088276,0.00064536201504453,-3.2469165541082e-06,3.7790902659584e-06,-0.00072220221651916,0.0007213328794584,-0.00071977357525633,0.00072352401520873,-0.00072343949350517,0.00072007577507563,-0.00072097382830057,0.00072237044790855,-0.00082628138916088,0.00082536224056166,-0.00082268610429498,0.00082894984197994,0.70951084561932,128736,2834,0.0063061736936017,0.0063058494086212,0.0026882447735986,15.225615260312,3.7004922082495e-05,3.7004922082495e-05,3.7004922082495e-05,2022096.4437827,0.015418346589417
22419200,0.99929514172023,0.015894248071856,0.0060196458187163,0.0060193173114401,0.0038552849416995,-0.0015192634338498,0.0015143408497145,-4.2336855877113e-06,-5.6574346488221e-07,1.1973840314289e-06,-6.3502126600886e-06,-0.0016307070665551,0.0016271341846378,-0.0016296237390565,0.0016283809698397,-0.0016333095503305,0.0016247126136619,-0.0016321643623424,0.0016260126825355,-0.0012690247052132,0.0012579360019004,-0.0012654117105562,0.0012616133293018,2.1246364346638e-06,1.0041128189944e-05,1.002488223128e-05,2.9705809506315e-06,-0.0015105151795003,0.0015229311481759,-0.0016229814123645,0.0016347386607723,-0.0016251897630537,0.0016324118194162,-0.0016202243041908,0.0016375060558947,-0.001622574070994,0.0016351040528765,-0.0012523139664358,0.0012751011585821,-0.0012592247965317,0.0012680084158604,-0.001525242449596,0.0015271318927582,-0.001517937343383,0.0015349887843365,1.9811749544464e-06,-1.7076405401947e-06,-0.00064310994456381,0.00064341595563194,-3.2372892349061e-06,3.7727830192311e-06,-0.00071949933414735,0.00071862773315592,-0.00071707590179145,0.00072081433201649,-0.0007207298035442,0.00071737712074604,-0.00071826999313638,0.00071966632909181,-0.00082505386834468,0.00082414955435742,-0.00082146985445449,0.00082771230404102,0.71604798183639,128736,2834,0.0062993686563042,0.0062990409553856,0.002680160281365,14.858990533529,3.4071924268234e-05,3.4071924268234e-05,3.4071924268234e-05,2014644.1271616,0.015396311860038
23419200,0.99940761365592,0.015895951156991,0.0060202619367276,0.0060199334280541,0.0038557557922094,-0.0015218285132305,0.0015169187775922,-4.231931680994e-06,-5.5570099376858e-07,1.1894994429321e-06,-6.3285608519131e-06,-0.0016331819873333,0.0016296099023506,-0.0016320965216752,0.0016308598467558,-0.0016357751241622,0.0016271976733684,-0.0016346268483411,0.001628501543914,-0.0012713343976651,0.001260257946969,-0.0012677136673923,0.0012639471818944,2.1351267828344e-06,1.0022061742464e-05,1.0016206090297e-05,2.9682052724912e-06,-0.0015130914295849,0.0015254977395543,-0.0016254578132925,0.0016372132148169,-0.0016276630200005,0.0016348876733868,-0.0016227104955077,0.0016399707918157,-0.0016250569407614,0.001637569716399,-0.0012546421727823,0.0012774016104003,-0.0012615445935049,0.001270312123711,-0.001528026010743,0.0015299380526743,-0.001520748886029,0.0015377668598496,1.9842884841783e-06,-1.7129418411264e-06,-0.00064318949002768,0.00064349513426285,-3.2331664300264e-06,3.7707502650537e-06,-0.00072019645479852,0.00071932921891158,-0.0007177755625779,0.0007215144382706,-0.0007214285397408,0.00071807551173606,-0.00071897183551098,0.0007203624212385,-0.00082537668066147,0.00082445824291682,-0.00082178285599332,0.00082803017391542,0.7040442239782,128736,2834,0.0063100089123788,0.0063096808780564,0.0026805102358975,15.705719502799,4.0845756022389e-05,4.0845756022389e-05,4.0845756022389e-05,1988420.2770385,0.015418276876532
24419200,0.99951378619583,0.015897585983871,0.0060208523551405,0.0060205238450305,0.0038562097836998,-0.0015259974326449,0.001521095107715,-4.2431455842805e-06,-5.3625758047288e-07,1.1767934455261e-06,-6.3087318015374e-06,-0.0016379480520734,0.0016343614371524,-0.0016368518369946,0.0016356213085703,-0.0016405300013593,0.0016319602396663,-0.0016393722546642,0.001633273575478,-0.0012744938779251,0.0012634062526033,-0.0012708428199937,0.0012671216791446,2.1420417634652e-06,9.9965732592811e-06,1.0002955496028e-05,2.9657642065128e-06,-0.0015172750330718,0.0015296644658755,-0.0016302223220738,0.0016419682986249,-0.0016324274134048,0.0016396481387341,-0.0016274856390354,0.0016447147022971,-0.0016298320436607,0.0016423198045961,-0.0012578154152181,0.0012805381250524,-0.0012647105383769,0.0012734626044721,-0.0015321563450608,0.0015340874793049,-0.0015249113022059,0.0015418819978866,2.000046111533e-06,-1.7283777212711e-06,-0.00064468641490092,0.00064499045223727,-3.229811904403e-06,3.7633685711503e-06,-0.00072149990626835,0.0007206444780079,-0.00071908217192534,0.00072282537017843,-0.00072274447018318,0.00071938093187428,-0.00072028922200019,0.0007216642897268,-0.00082789912352243,0.00082694841374416,-0.00082427504359448,0.00083054834592919,0.71549404761851,128736,2834,0.0063272832836167,0.0063269657643646,0.0026867508965611,17.881578703153,5.8252629625227e-05,5.8252629625227e-05,5.8252629625227e-05,1994428.7410539,0.015459706257476
25419200,0.99961058422626,0.015899150370056,0.0060214158977469,0.0060210873878842,0.0038566470844249,-0.0015313462269647,0.0015264631926318,-4.2520294870813e-06,-5.0936111440206e-07,1.164417585942e-06,-6.2755458781773e-06,-0.0016430905332178,0.0016394969643394,-0.0016419828612707,0.001640768903601,-0.0016456583651405,0.0016371109742505,-0.0016444881982622,0.0016384368038402,-0.0012795396497297,0.0012684488842739,-0.0012758532412657,0.0012722033699313,2.1579084328068e-06,9.9667702027604e-06,9.9918069788606e-06,2.9611509594442e-06,-0.0015226385587557,0.0015350133630237,-0.0016353614483066,0.0016471056622043,-0.0016375620030562,0.0016447862892381,-0.0016326392690542,0.0016498369082103,-0.0016349807965412,0.0016474424430103,-0.0012628778671741,0.0012855620753752,-0.0012697629674867,0.0012784903034799,-0.0015378609001786,0.0015398236232018,-0.0015306586067028,0.0015475742343187,2.0161050780934e-06,-1.747896181723e-06,-0.00064643367302086,0.00064673578934071,-3.2267076528986e-06,3.7601992799234e-06,-0.00072420762245832,0.00072336433518447,-0.00072179223159142,0.00072554408196779,-0.00072546249233018,0.00072208888824169,-0.00072301115914396,0.00072437005125183,-0.00082998467385526,0.00082899120117138,-0.0008263232756337,0.00083262769189755,0.75065157224782,128736,2834,0.006349458354465,0.0063491316189826,0.0026940375479918,19.926560985447,7.4612487883573e-05,7.4612487883573e-05,7.4612487883573e-05,1973737.6188731,0.015512136119286
26419200,0.999689950764,0.015900461293847,0.006021887855948,0.0060215593450851,0.0038570140928135,-0.0015342368300498,0.0015293693377989,-4.2486017415424e-06,-4.9784995605975e-07,1.1570591078711e-06,-6.2516250085118e-06,-0.0016451904661274,0.0016415998503509,-0.0016440809951475,0.0016428744890755,-0.0016477486169695,0.0016392242975549,-0.0016465757202841,0.0016405528084915,-0.0012828770023271,0.0012718059065908,-0.0012791849111308,0.0012755738142367,2.1674306164464e-06,9.9448537166189e-06,9.9837431886622e-06,2.9543689731504e-06,-0.0015255424705595,0.0015379044166847,-0.0016374643505203,0.0016492080792253,-0.0016396625773318,0.001646886780383,-0.0016347540492829,0.0016519270879822,-0.0016370927030138,0.0016495335465911,-0.0012662413405386,0.001288898237259,-0.0012731214244296,0.0012818242663921,-0.0015412346740784,0.0015432141104297,-0.0015340612572936,0.0015509366621518,2.0183471916521e-06,-1.7532055422182e-06,-0.00064636348977816,0.00064666541709148,-3.225602870188e-06,3.7604608424322e-06,-0.00072584121217295,0.00072500155325169,-0.00072342685326857,0.00072718189109093,-0.00072709610383882,0.000723722351344,-0.00072464791670027,0.00072600357296245,-0.00082950801272774,0.00082850181926908,-0.0008258406553674,0.00083215134703347,0.7669211255418,128736,2834,0.0063614431242316,0.006361112709963,0.0026937706136479,20.393280622158,7.8346244977262e-05,7.8346244977262e-05,7.8346244977262e-05,1922707.2917692,0.015536208032558
27419200,0.99975916010719,0.015901561506574,0.0060222845306648,0.0060219560187051,0.003857320957204,-0.0015385280729066,0.0015336611534079,-4.2581977031506e-06,-4.8623674620973e-07,1.1495702660406e-06,-6.2449254512206e-06,-0.0016493937510758,0.0016457914018121,-0.0016482756723186,0.0016470727388864,-0.001651946774186,0.001643420668503,-0.0016507670900871,0.0016447553672986,-0.0012871509308447,0.0012760656121989,-0.0012834367528853,0.001279847033143,2.1695726474487e-06,9.9329644966625e-06,9.9762144955279e-06,2.9561063796261e-06,-0.0015298387057482,0.0015421928849266,-0.0016416650008226,0.0016534004056532,-0.001643862331759,0.0016510850073967,-0.0016389576511848,0.0016561166277573,-0.0016412961707189,0.0016537263376571,-0.0012705160775387,0.0012931561260073,-0.0012773918695802,0.0012860959802639,-0.0015455594635072,0.0015475480405898,-0.0015384027712395,0.0015552532072128,2.0291450734218e-06,-1.764275842935e-06,-0.00064741962746795,0.00064771776504536,-3.224590219953e-06,3.7522013894111e-06,-0.00072801614598157,0.00072718258797175,-0.00072560459512227,0.00072935924715113,-0.00072928174773179,0.00072589771112261,-0.00072683338618912,0.00072817612176629,-0.00083081381276489,0.00082978589098875,-0.0008271263764058,0.00083345165458372,0.73788855841978,128736,2834,0.0063791978577479,0.0063788708502454,0.0026981804929187,22.249487837461,9.3195902699687e-05,9.3195902699687e-05,9.3195902699687e-05,1903273.095073,0.015576754472375
28419200,0.99981604792387,0.015902512314476,0.0060226262627993,0.0060222977502378,0.0038575883014384,-0.0015397584609654,0.0015348888204908,-4.262889419762e-06,-4.8345379083983e-07,1.1525422235037e-06,-6.2511652477356e-06,-0.0016514733636302,0.0016478689581703,-0.0016503517571999,0.001649153825634,-0.0016540291435907,0.0016454943043349,-0.0016528465828763,0.0016468331058168,-0.0012875390075253,0.0012764398823654,-0.0012838174061309,0.0012802219139912,2.1744094474977e-06,9.9473538257126e-06,9.98477855202e-06,2.9679396569306e-06,-0.001531057848362,0.0015434305341368,-0.0016437371397901,0.0016554806102395,-0.0016459311422081,0.001653167962835,-0.0016410221754351,0.001658204608296,-0.0016433590316354,0.0016558097281495,-0.0012708794106096,0.0012935414859745,-0.0012777528266889,0.0012864858795829,-0.0015464213505657,0.0015484227807084,-0.0015392606445281,0.0015561362031235,2.0350020063584e-06,-1.766916628247e-06,-0.0006476310863545,0.00064793041246617,-3.220763799891e-06,3.7520202252905e-06,-0.00072747738073185,0.00072664763092063,-0.00072506808238811,0.00072882310407554,-0.00072874821191985,0.00072536193099434,-0.00072629830245191,0.00072763813042515,-0.00083194325632419,0.00083091255337281,-0.00082824934020274,0.00083457810451602,0.77520834822372,128736,2834,0.00638428905932,0.0063839594350851,0.00269907178561,23.439579031667,0.00010271663225334,0.00010271663225334,0.00010271663225334,1918561.0575485,0.015587994929174
29419200,0.99986227339171,0.015903197961864,0.0060228742034978,0.0060225456901106,0.003857778068256,-0.0015444611307687,0.0015396048976997,-4.2722544687171e-06,-4.6176828625518e-07,1.1396702245981e-06,-6.2239078512085e-06,-0.0016554394994084,0.0016518247554514,-0.0016543086762036,0.0016531188976938,-0.0016579824421395,0.0016494642707675,-0.001656790013632,0.0016508119597632,-0.0012924048919446,0.0012813020212313,-0.0012886534267507,0.0012851232447879,2.1787155832822e-06,9.9112053971014e-06,9.9616382294992e-06,2.957671066771e-06,-0.0015357834780798,0.0015481250796388,-0.0016477083230255,0.0016594362527643,-0.0016499007438696,0.0016571263148906,-0.001645011212201,0.0016621421526927,-0.0016473445167852,0.0016597574872387,-0.0012757812340605,0.0012983816066576,-0.0012826402897098,0.001291336620495,-0.0015516974967427,0.0015537094975363,-0.0015445703825705,0.0015613845013607,2.0470307267809e-06,-1.7851894165734e-06,-0.00064878359052594,0.00064907921276158,-3.2177298706162e-06,3.7431964122629e-06,-0.00073034454621115,0.00072952639386677,-0.00072793826815306,0.00073169808105793,-0.00073162297674553,0.00072822892400501,-0.00072918000118941,0.0007305018514313,-0.00083295037962515,0.00083187457254473,-0.00082922415907931,0.00083557929592024,0.68889126591386,128736,2834,0.0064037702713331,0.0064034436127852,0.0027038864031139,24.778337395782,0.00011342669916626,0.00011342669916626,0.00011342669916626,1876161.1185152,0.015632464111649
30419200,0.99989904610615,0.015903734030543,0.0060230681284655,0.0060227396147642,0.0038579262873133,-0.0015433746939687,0.0015384978606329,-4.2906029280526e-06,-4.636572598165e-07,1.157464863174e-06,-6.2622822223923e-06,-0.0016568798113848,0.0016532569157682,-0.0016557432472659,0.0016545563338668,-0.0016594403521497,0.0016508779132554,-0.0016582420826724,0.0016522309771848,-0.0012885085483501,0.0012773514765171,-0.0012847389450043,0.0012811842919537,2.1615130467979e-06,9.9501120167335e-06,9.9675531845019e-06,2.9744506293861e-06,-0.001534675713228,0.0015470384375608,-0.0016491447772387,0.0016608710328893,-0.0016513338004245,0.00165856487167,-0.0016464282890718,0.0016635955531911,-0.0016487588092922,0.0016612140381529,-0.0012718390453258,0.0012944704301678,-0.0012786921664857,0.0012874385257553,-0.0015496933764672,0.0015516758271413,-0.0015425117586981,0.0015594042907783,2.0565700745004e-06,-1.7922780758775e-06,-0.00064905542908378,0.00064935178100195,-3.2125337821537e-06,3.7370442360884e-06,-0.00072686377588705,0.00072605621476552,-0.00072446188438136,0.00072822392398707,-0.00072814804633175,0.00072475276848468,-0.00072570899763651,0.00072702247222482,-0.00083584918276519,0.00083475916419674,-0.00083210851668584,0.00083847813832202,0.67663456783661,128736,2834,0.006399256881749,0.0063989282670451,0.002705012140809,26.12900914429,0.00012423207315432,0.00012423207315432,0.00012423207315432,1953723.8144835,0.015624426734009
31419200,0.99992881412835,0.015904199585847,0.0060232358542842,0.0060229073402159,0.0038580563913471,-0.0015479614502685,0.0015430866131376,-4.3055160820923e-06,-4.4683208504971e-07,1.156365716316e-06,-6.2589946794974e-06,-0.0016619495694114,0.0016583166502258,-0.0016608024900046,0.0016596265213368,-0.0016645086544351,0.0016559390138017,-0.0016632997618725,0.0016573027830428,-0.0012920781062943,0.0012808924421625,-0.0012882777139491,0.0012847581976074,2.1621125812118e-06,9.9463106647156e-06,9.9580765728225e-06,2.98053521977e-06,-0.0015392651258286,0.0015516245084583,-0.0016542129090621,0.001665932272893,-0.0016563971446464,0.0016636312455622,-0.0016514978603402,0.0016686551891962,-0.0016538233973691,0.0016662790222104,-0.0012754055046282,0.0012980159232375,-0.0012822425604371,0.0012909992054089,-0.0015543378241063,0.0015563265641461,-0.0015471597528812,0.001564050690352,2.0709624327174e-06,-1.8098130378725e-06,-0.00065121733987259,0.0006515109290521,-3.2062420564772e-06,3.7279080666823e-06,-0.00072873878689952,0.00072794424397308,-0.00072634198847227,0.0007301070941228,-0.00073003355772521,0.00072663037947132,-0.00072759990209492,0.0007288947586609,-0.00083900792943877,0.00083787685319496,-0.00083523499304647,0.00084162787958972,0.72615477767731,128736,2834,0.0064182495319635,0.0064179208651514,0.0027140132697388,28.436007460712,0.00014268805968569,0.00014268805968569,0.00014268805968569,1966318.3996903,0.015672147736628
32419200,0.99995056481933,0.015904556672293,0.0060233643017833,0.0060230357874345,0.0038581565830751,-0.0015531018985239,0.0015482427612472,-4.3119667929354e-06,-4.2574252934486e-07,1.1401490656749e-06,-6.226784451776e-06,-0.0016654448401198,0.0016618028916782,-0.0016642890964931,0.0016631220058756,-0.0016679883798907,0.0016594413607232,-0.0016667710148505,0.0016608147332749,-0.0012984088050492,0.0012872247380421,-0.0012945836236363,0.0012911249341455,2.1755844149775e-06,9.9114573123836e-06,9.9435877382639e-06,2.9724854164047e-06,-0.0015444244242873,0.0015567628284882,-0.0016577071123561,0.0016694203639283,-0.001659889955167,0.0016671214976407,-0.0016550093151448,0.0016721270919301,-0.0016573321496311,0.0016697540486074,-0.0012817651523596,0.0013043296098906,-0.0012885910546455,0.0012973167341595,-0.0015604798495476,0.0015624959727787,-0.001553346527273,0.0015701748521785,2.0823107949924e-06,-1.8261298711508e-06,-0.00065227818359954,0.00065256868699165,-3.203978114491e-06,3.7242670862952e-06,-0.00073270684695619,0.00073191918427183,-0.00073031092318571,0.00073408034335347,-0.00073401010615429,0.00073059712006461,-0.00073157824083292,0.000732858429281,-0.00083888168773069,0.00083771057670338,-0.00083507744228716,0.00084149141031745,0.76213985014909,128736,2834,0.0064395394525331,0.0064392129184105,0.0027184448031979,29.29448690667,0.00014955589525336,0.00014955589525336,0.00014955589525336,1897413.7595957,0.015719907894789
33419200,0.99996568387297,0.015904807764712,0.0060234545711487,0.0060231260566603,0.003858227136903,-0.0015544251639088,0.0015495417116723,-4.3235791303477e-06,-4.3733619787208e-07,1.1691729969084e-06,-6.2818058087137e-06,-0.0016660713051234,0.0016624329673095,-0.0016649149016134,0.0016637522060231,-0.0016686420199623,0.0016600431391975,-0.0016674242195979,0.0016614158154326,-0.0013004654216904,0.0012892333255047,-0.0012966387501041,0.0012931255054749,2.1483150423032e-06,9.9681820250125e-06,9.9525809467275e-06,2.9923022122811e-06,-0.0015457210547951,0.0015580881710203,-0.0016583364349507,0.0016700463326989,-0.0016605146271717,0.0016677511044092,-0.0016556108008613,0.0016727815563065,-0.0016579302523424,0.0016704112701504,-0.0012837692839334,0.0013063826399252,-0.0012905884311915,0.001299382664644,-0.0015620474526197,0.0015640138138186,-0.001554835864129,0.001571775367849,2.0824542587548e-06,-1.8259843865854e-06,-0.0006515044823373,0.00065179379828964,-3.2001076808745e-06,3.7175384715887e-06,-0.0007335529385471,0.00073276886011312,-0.00073116196089764,0.00073492667478729,-0.00073485723421446,0.00073144589860894,-0.0007324288324507,0.00073370518018984,-0.00083752955865483,0.00083636193281287,-0.00083373048740948,0.00084013998177391,0.7702815983877,128736,2834,0.0064449529711023,0.0064446259451922,0.0027152442687465,29.317262035562,0.00014973809628449,0.00014973809628449,0.00014973809628449,1852351.5430573,0.015727658332005
34419200,0.99997712448947,0.0159049907728,0.0060235204319832,0.0060231919173888,0.0038582784234276,-0.0015588605053054,0.0015540018763695,-4.3257705681344e-06,-4.1289891771003e-07,1.1663006715874e-06,-6.251506755368e-06,-0.001670660065623,0.0016670294881704,-0.0016694976356859,0.0016683609629967,-0.001673221318226,0.0016646494534173,-0.0016719948245718,0.0016660344343359,-0.0013046311622854,0.0012934049899321,-0.0013007847669489,0.0012973293110754,2.1685851011373e-06,9.9547973481038e-06,9.9532558768019e-06,2.9918091156805e-06,-0.0015501644228302,0.0015625340904445,-0.0016629247220673,0.0016746465837837,-0.0016650938716845,0.0016723441613499,-0.0016602068307286,0.0016773706416396,-0.0016625183091077,0.0016749915401352,-0.0012879439459888,0.0013105429456113,-0.0012947483362316,0.001303530185489,-0.0015664397745473,0.0015684421027853,-0.0015592635410975,0.0015761774010434,2.0985142470866e-06,-1.8362163286193e-06,-0.00065305721113288,0.00065335786564142,-3.1888606516211e-06,3.7303148961019e-06,-0.00073578924618379,0.00073502333215961,-0.00073339964358608,0.00073718383379493,-0.00073709861018278,0.00073368985270466,-0.00073467370916438,0.00073595032528027,-0.0008395697256093,0.00083838293505659,-0.00083574305416527,0.00084218267986738,0.7416971077296,128736,2834,0.0064633561358703,0.0064630162555114,0.0027217477371611,31.480106691922,0.00016704085353537,0.00016704085353537,0.00016704085353537,1847438.4410758,0.015771638610813
35419200,0.99998609689669,0.015905129389709,0.0060235703916767,0.006023241876808,0.0038583171212241,-0.0015670592724661,0.0015621697791904,-4.3720834455018e-06,-4.0269750574603e-07,1.1340256480075e-06,-6.248897459342e-06,-0.0016797351469623,0.0016760502914835,-0.0016785574329255,0.0016774020729664,-0.0016822868393722,0.0016736759201884,-0.0016810407970219,0.0016750876950959,-0.0013115489084083,0.0013002278883294,-0.0013076479283611,0.0013042158934173,2.2225083423547e-06,9.9736518812792e-06,9.9824760550795e-06,3.0306779354076e-06,-0.0015583117656795,0.0015707487844801,-0.0016719377844889,0.001683724614899,-0.001674095865732,0.0016814257239201,-0.0016692231683117,0.0016864438924165,-0.00167152654616,0.0016840536232888,-0.0012947871748527,0.0013174324508613,-0.0013015744868042,0.0013104199887743,-0.0015744064337329,0.0015765236235949,-0.0015672729343942,0.0015842179723321,2.1222214557736e-06,-1.8703759866429e-06,-0.00065759597158632,0.0006578884201302,-3.1830925095612e-06,3.7262372073094e-06,-0.00073995273063015,0.00073919792480268,-0.000737565069783,0.00074135574348726,-0.00074128238291619,0.00073784789771499,-0.00073885942625448,0.00074010388885897,-0.00084557092391173,0.00084431312334485,-0.00084167230639054,0.00084815172867373,0.71641844391425,128736,2834,0.0064972302219011,0.0064968807643617,0.0027406243745969,35.925106813333,0.00020260085450666,0.00020260085450666,0.00020260085450666,1889264.3579539,0.015859621883867
36419200,0.99999184231413,0.015905219896063,0.0060236030062324,0.006023274491059,0.0038583423987715,-0.0015694766927788,0.0015646134993514,-4.3619439752009e-06,-3.7872556832855e-07,1.1499293101881e-06,-6.2410199549268e-06,-0.0016830256516944,0.0016793549512683,-0.0016818368587849,0.0016807063994686,-0.0016855767238779,0.0016769852718099,-0.001684326503167,0.0016783903571886,-0.0013123571207191,0.0013010702848697,-0.0013084353123759,0.0013050565243419,2.1666396885417e-06,9.926395507e-06,9.9339879677385e-06,2.9883750139814e-06,-0.0015607938936443,0.0015731378854255,-0.0016752787208324,0.0016869802882305,-0.0016774523549501,0.0016846899903893,-0.0016725716447461,0.0016896953150129,-0.0016748867969118,0.0016873296266756,-0.0012956596322063,0.0013182156048088,-0.0013024651414126,0.0013112299830188,-0.0015768725508721,0.0015788804363511,-0.0015697195064296,0.0015865807513732,2.1308368970882e-06,-1.8751859185351e-06,-0.00065883797235745,0.00065912612936808,-3.1935095902675e-06,3.7095514672582e-06,-0.00074008038763261,0.0007393326028157,-0.00073769472785694,0.00074148579229794,-0.0007414174518454,0.00073797709126784,-0.0007389941159355,0.00074023184878726,-0.00084823104746282,0.00084696328527137,-0.00084433703506662,0.00085083572963474,0.73065039166037,128736,2834,0.0065072985816626,0.006506969981415,0.0027457932860043,37.478875580644,0.00021503100464515,0.00021503100464515,0.00021503100464515,1910028.1463753,0.015885348023128
37419200,0.99999523575489,0.015905272526208,0.0060236219888512,0.0060232934736414,0.0038583570637152,-0.0015709314858927,0.0015660727369006,-4.3584486270381e-06,-3.7851303641263e-07,1.1473609552606e-06,-6.2334169307952e-06,-0.0016840669215674,0.0016803992214339,-0.0016828807517393,0.0016817500105216,-0.0016866152134931,0.001678032171176,-0.0016853660673432,0.0016794373179219,-0.0013139660538764,0.0013026890827698,-0.0013100488280045,0.0013066795044425,2.1735518185445e-06,9.9231399845995e-06,9.9355100505845e-06,2.9878019490304e-06,-0.0015622494483637,0.0015745959004556,-0.0016763192142006,0.0016880285304953,-0.0016784922240224,0.0016857355107001,-0.0016736165236149,0.0016907392355994,-0.0016759303642255,0.00168837250424,-0.0012972766995182,0.0013198303260439,-0.0013040807263517,0.0013128397070047,-0.0015786522221448,0.0015806717032609,-0.0015715075977946,0.001588364833102,2.1278449840208e-06,-1.8746974257765e-06,-0.00065869258347876,0.00065898137866659,-3.1930229103702e-06,3.7123306173378e-06,-0.00074078605897607,0.00074003707898681,-0.00073839952986917,0.00074219190835386,-0.00074211959345499,0.00073868226067915,-0.00073969763992514,0.00074093745908054,-0.00084786860730757,0.00084659896443426,-0.00084397646406123,0.00085047286949942,0.71959281433673,128736,2834,0.0065133226504828,0.0065129931055771,0.0027452035619924,37.680188805729,0.00021664151044583,0.00021664151044583,0.00021664151044583,1881466.2144985,0.015896990459957
38419200,0.99999718632188,0.015905303901189,0.0060236332787851,0.0060233047635543,0.00385836585885,-0.0015696596230841,0.0015647920041334,-4.3561633398182e-06,-3.8905311709457e-07,1.1543556187868e-06,-6.2501234344307e-06,-0.0016830331267707,0.001679368148015,-0.0016818499531546,0.0016807143649586,-0.001685588587701,0.0016769936635102,-0.0016843436594563,0.0016783936427034,-0.0013124310122689,0.0013011504787034,-0.0013085248733665,0.0013051222018849,2.162409538496e-06,9.9356785807434e-06,9.9385011345741e-06,2.9883460093867e-06,-0.0015609722355075,0.0015733210324848,-0.001675288403085,0.0016869917945486,-0.0016774630114215,0.0016846996631744,-0.001672577036636,0.0016897113382625,-0.0016748930688708,0.0016873438202508,-0.0012957316355345,0.0013183009510349,-0.001302541313605,0.0013113111607228,-0.0015772993517313,0.0015792969041931,-0.0015701329979124,0.0015870113865113,2.1223823077643e-06,-1.8675033263134e-06,-0.00065746124957641,0.00065774890825602,-3.1959238820296e-06,3.711713834601e-06,-0.00073920552295475,0.00073845034963358,-0.00073681842065761,0.00074060541934036,-0.00074053700076852,0.00073710040430089,-0.0007381125375694,0.00073935661055025,-0.00084684833529844,0.00084559614670728,-0.00084296951649883,0.00084945372837517,0.74583042865043,128736,2834,0.0065080419979464,0.0065077135078902,0.0027400832350378,37.196433269661,0.00021277146615728,0.00021277146615728,0.00021277146615728,1874032.9158343,0.015881059341673
38880000,0.99999786745216,0.015905314918857,0.0060236372406522,0.0060233087254144,0.0038583689527907,-0.0015708176218506,0.0015659324584362,-4.3638145250959e-06,-3.9903920677415e-07,1.1719040176193e-06,-6.2861151029395e-06,-0.0016835304730723,0.0016798666465517,-0.001682348078579,0.0016812120745896,-0.0016861031612812,0.00167747421523,-0.0016848591392308,0.0016788733500595,-0.0013142217139641,0.0013029078199461,-0.0013103182013552,0.0013068780277841,2.1447819575566e-06,9.971660302304e-06,9.9463609029042e-06,2.9975455166991e-06,-0.0015621128136578,0.0015744792088252,-0.0016757861651513,0.0016874890761935,-0.0016779604062277,0.0016851974596767,-0.0016730579682032,0.0016902266418718,-0.0016753734883881,0.0016878598053218,-0.0012974898398416,0.0013200929062044,-0.0013042973690262,0.0013131037948974,-0.0015787569933363,0.0015807201870952,-0.0015715382928274,0.0015884886869508,2.1208309907914e-06,-1.8666916085698e-06,-0.00065733265495956,0.00065761987906507,-3.1954041486137e-06,3.7110556596085e-06,-0.00074030443247943,0.00073954827059808,-0.00073791774957565,0.00074170306773954,-0.00074163506620519,0.0007381991896653,-0.0007392109181609,0.00074045494524719,-0.00084613385341677,0.00084488221433837,-0.00084225695846267,0.00084873778850663,0.74998939220245,128736,2834,0.0065127893123207,0.00651246145335,0.0027395576533472,37.193663116545,0.00021274930493236,0.00021274930493236,0.00021274930493236,1844097.6469744,0.015890175314855
