time,ASR_ext,ASR_strain,ASR_strain_xx,ASR_strain_yy,ASR_strain_zz,disp_x_101,disp_x_102,disp_x_103,disp_x_104,disp_x_105,disp_x_106,disp_x_p1_neg,disp_x_p1_pos,disp_x_p2_neg,disp_x_p2_pos,disp_x_p3_neg,disp_x_p3_pos,disp_x_p4_neg,disp_x_p4_pos,disp_x_p5_neg,disp_x_p5_pos,disp_x_p6_neg,disp_x_p6_pos,disp_y_101,disp_y_102,disp_y_103,disp_y_104,disp_y_105,disp_y_106,disp_y_p1_neg,disp_y_p1_pos,disp_y_p2_neg,disp_y_p2_pos,disp_y_p3_neg,disp_y_p3_pos,disp_y_p4_neg,disp_y_p4_pos,disp_y_p5_neg,disp_y_p5_pos,disp_y_p6_neg,disp_y_p6_pos,disp_y_p7_neg,disp_y_p7_pos,disp_y_p8_neg,disp_y_p8_pos,disp_z_101,disp_z_102,disp_z_103,disp_z_104,disp_z_105,disp_z_106,disp_z_p1_neg,disp_z_p1_pos,disp_z_p2_neg,disp_z_p2_pos,disp_z_p3_neg,disp_z_p3_pos,disp_z_p4_neg,disp_z_p4_pos,disp_z_p5_neg,disp_z_p5_pos,disp_z_p6_neg,disp_z_p6_pos,humidity,ndof,nelem,strain_xx,strain_yy,strain_zz,temp,thermal_strain_xx,thermal_strain_yy,thermal_strain_zz,vonmises,vstrain
2419200,0,0,0,0,0,0,0,0,0,0,0,0,0,0,0,0,0,0,0,0,0,0,0,0,0,0,0,0,0,0,0,0,0,0,0,0,0,0,0,0,0,0,0,0,0,0,0,0,0,0,0,0,0,0,0,0,0,0,0,0,0,0,0,0,0,0,0,0,0,0,0,0,0,0,0
3419200,0.15948182781104,0.0026573617070639,0.00088578723568796,0.00088578723568796,0.00088578723568796,-0.0002560239307361,0.00025602393072733,-4.4703781388988e-15,-4.2560170404244e-15,8.6471990692982e-15,-1.7790651360754e-14,-0.00025825460564148,0.00025825460564137,-0.00025825460665138,0.00025825460665141,-0.00025825460565505,0.00025825460563767,-0.00025825460665469,0.00025825460663745,-0.00025196759785489,0.00025196759783721,-0.00025196759844493,0.00025196759842766,-8.6456770569711e-15,1.779249189506e-14,-7.7775408648155e-13,7.8648258654832e-13,-0.00025602393072733,0.00025602393073611,-0.00025825460593765,0.00025825460539021,-0.00025825460635474,0.00025825460690226,-0.0002582546059292,0.00025825460539904,-0.0002582546063463,0.00025825460691109,-0.00025196759863157,0.00025196759712707,-0.00025196759763343,0.0002519675991729,-0.00025515542351935,0.00025515542403292,-0.00025515542349359,0.00025515542405936,-3.1599096747209e-12,-3.1601240559675e-12,-0.0002422315580635,0.0002422315490675,-2.3134400723173e-12,-3.9265153417692e-12,-0.00024588277399003,0.00024588276752219,-0.00024588277453565,0.0002458827669766,-0.00024588277399008,0.0002458827675221,-0.00024588277453571,0.00024588276697651,-0.00024486160929432,0.00024486160187594,-0.00024486160929419,0.00024486160187623,0.75746877217741,120135,2834,0.0010661956001539,0.0010661956001539,0.0010087889560292,31.856358289233,0.00017005086631386,0.00017005086631386,0.00017005086631386,967158.33329207,0.0031461201679856
4419200,0.35135832825178,0.0057464519381161,0.0019556335209197,0.0019556335209197,0.0018351848962767,-0.00052013739043242,0.00052013739040962,-1.1473634782451e-14,-1.1265405849584e-14,2.9472996679006e-15,-2.6233147124774e-14,-0.00052894763603248,0.0005289476360193,-0.00052894763909756,0.00052894763908452,-0.00052894763606193,0.00052894763602976,-0.00052894763908657,0.00052894763905454,-0.0005031473194632,0.00050314731943052,-0.00050314732170301,0.00050314732167074,-2.9442777013961e-15,2.6237780887168e-14,-2.279088983421e-12,2.3018345297999e-12,-0.00052013739040962,0.00052013739043242,-0.00052894763688638,0.00052894763530468,-0.00052894763821691,0.00052894763982483,-0.00052894763687714,0.00052894763531444,-0.00052894763820767,0.00052894763983459,-0.00050314732175473,0.00050314731732276,-0.00050314731934668,0.00050314732384361,-0.00051882107521305,0.00051882107676308,-0.00051882107518496,0.00051882107679206,-6.7622656165598e-12,-6.7624734110792e-12,-0.00045728925393629,0.00045728923626333,-4.2568348757342e-12,-9.0149157990398e-12,-0.00046715838540214,0.00046715837180347,-0.00046715838701307,0.00046715837019248,-0.00046715838540224,0.00046715837180343,-0.00046715838701317,0.00046715837019244,-0.00047213347847882,0.00047213346262092,-0.0004721334784786,0.00047213346262111,0.73992840791513,120135,2834,0.002164883275574,0.002164883275574,0.0019035799028514,33.605180698122,0.00018404144558498,0.00018404144558498,0.00018404144558498,1862399.7672206,0.0062528234843003
5419200,0.55185150343495,0.0088858582381871,0.0030833382262597,0.0030833382262597,0.0027191817856677,-0.00080174402484386,0.0008017440248243,-9.9167558734446e-15,-9.7043505975741e-15,3.0502891687009e-15,-2.2914167634967e-14,-0.00082005136331534,0.00082005136330443,-0.00082005136553248,0.00082005136552171,-0.00082005136335175,0.00082005136332376,-0.00082005136551288,0.00082005136548504,-0.00076261310835929,0.00076261310833074,-0.00076261310900148,0.00076261310897334,-3.0523773402028e-15,2.2913467518487e-14,-1.1778631504762e-12,1.197484345984e-12,-0.00080174402482431,0.00080174402484386,-0.00082005136376994,0.00082005136295526,-0.00082005136505592,0.0008200513658923,-0.00082005136376154,0.00082005136296392,-0.00082005136504753,0.00082005136590096,-0.00076261310951806,0.00076261310724617,-0.00076261310778605,0.00076261311011464,-0.00080246630963519,0.00080246631047076,-0.00080246630960996,0.00080246631049628,-3.9687470562724e-12,-3.968958662802e-12,-0.00065195727231847,0.00065195726126556,-2.5893377504503e-12,-5.1503222788368e-12,-0.00066905911107738,0.00066905910178449,-0.00066905911194786,0.00066905910091389,-0.00066905911107752,0.00066905910178448,-0.00066905911194799,0.00066905910091387,-0.00068793709566582,0.00068793708648462,-0.00068793709566547,0.00068793708648467,0.72499638738019,120135,2834,0.0033349934093906,0.0033349934093906,0.0027129284932297,36.275695585136,0.00020540556468109,0.00020540556468109,0.00020540556468109,2451892.1255188,0.0094270984845631
6419200,0.70809115419084,0.01089257213852,0.0038276278947456,0.0038276278947456,0.0032373163490288,-0.00098764008139089,0.00098764008136944,-1.0845168687541e-14,-1.0636851522076e-14,2.2274760697821e-15,-2.4054662205405e-14,-0.0010208407478781,0.0010208407478654,-0.0010208407497352,0.0010208407497227,-0.001020840747912,0.001020840747882,-0.0010208407497185,0.0010208407496886,-0.000920932764794,0.0009209327647635,-0.00092093276524388,0.00092093276521379,-2.2239026495359e-15,2.4059868503158e-14,-7.3593105296775e-13,7.574256552838e-13,-0.00098764008136943,0.0009876400813909,-0.0010208407481555,0.0010208407476567,-0.0010208407494324,0.0010208407499564,-0.001020840748147,0.0010208407476655,-0.0010208407494238,0.0010208407499652,-0.0009209327654915,0.00092093276408722,-0.00092093276448588,0.00092093276595075,-0.00098746675981476,0.0009874667603587,-0.0009874667597893,0.0009874667603846,-3.0444359368973e-12,-3.0446436058748e-12,-0.0007511425203372,0.00075114251207802,-2.1457660512612e-12,-3.7948096888159e-12,-0.00077755657091915,0.00077755656359455,-0.00077755657147921,0.00077755656303436,-0.00077755657091928,0.00077755656359454,-0.00077755657147934,0.00077755656303434,-0.00080428478251893,0.00080428477564522,-0.00080428478251861,0.00080428477564532,0.59839168540088,120135,2834,0.0041066410165518,0.0041066410165518,0.0031251656373689,36.740035359886,0.00020912028287909,0.00020912028287909,0.00020912028287909,2802795.9852803,0.01140304445194
7419200,0.83308250135231,0.012296277939727,0.0043516256523459,0.0043516256523459,0.0035930266350356,-0.0011272209414206,0.0011272209413996,-1.0600882032684e-14,-1.0419975794539e-14,2.5027176613404e-15,-2.3864094497706e-14,-0.0011750990220885,0.0011750990220764,-0.0011750990240184,0.0011750990240064,-0.0011750990221227,0.0011750990220931,-0.0011750990240014,0.001175099023972,-0.0010344476466609,0.0010344476466309,-0.0010344476471717,0.001034447647142,-2.5035705764609e-15,2.3864831262882e-14,-6.9523224303707e-13,7.1626955595673e-13,-0.0011272209413996,0.0011272209414206,-0.001175099022358,0.0011750990218827,-0.0011750990237245,0.001175099024224,-0.0011750990223494,0.0011750990218915,-0.0011750990237159,0.0011750990242328,-0.0010344476473284,0.0010344476460052,-0.0010344476464445,0.0010344476478274,-0.0011264826589592,0.0011264826594764,-0.0011264826589336,0.0011264826595024,-3.6035979516761e-12,-3.6037782599891e-12,-0.00081475590994674,0.00081475590012105,-2.7320742723005e-12,-4.30699657127e-12,-0.00084629662881723,0.00084629662032937,-0.00084629662935392,0.00084629661979256,-0.00084629662881734,0.00084629662032937,-0.00084629662935404,0.00084629661979255,-0.00088481640448458,0.00088481639639196,-0.00088481640448431,0.00088481639639205,0.52694121020036,120135,2834,0.0046856324002516,0.0046856324002516,0.003389566801277,40.774611640428,0.00024139689312342,0.00024139689312342,0.00024139689312342,2876664.3034054,0.01284272797013
8419200,0.90838054299373,0.013052594864841,0.0046342120898847,0.0046342120898847,0.0037841706850714,-0.0012026815462339,0.001202681546213,-1.0587088336424e-14,-1.0419916972807e-14,2.6149495268516e-15,-2.394444498423e-14,-0.0012595104237378,0.0012595104237258,-0.0012595104252383,0.0012595104252263,-0.0012595104237699,0.0012595104237403,-0.0012595104252236,0.001259510425194,-0.0010923606180304,0.0010923606180003,-0.0010923606184114,0.0010923606183816,-2.6074497559645e-15,2.3953367218555e-14,-4.6023192828198e-13,4.8124574680219e-13,-0.0012026815462129,0.0012026815462339,-0.0012595104239137,0.0012595104236065,-0.0012595104250382,0.0012595104253694,-0.001259510423905,0.0012595104236154,-0.0012595104250295,0.0012595104253782,-0.001092360618457,0.0010923606175898,-0.0010923606179252,0.0010923606188522,-0.0012026356202752,0.0012026356206317,-0.0012026356202494,0.0012026356206578,-2.4327684323177e-12,-2.4329345872831e-12,-0.00083315180735251,0.00083315180094059,-1.8233640327745e-12,-2.9066729972528e-12,-0.00086910216996004,0.00086910216403627,-0.00086910217032939,0.0008691021636668,-0.00086910216996015,0.00086910216403627,-0.0008691021703295,0.0008691021636668,-0.00091565884561942,0.00091565884027395,-0.00091565884561916,0.000915658840274,0.47156008474719,120135,2834,0.0049984906398437,0.0049984906398437,0.0034661504154028,41.435491958203,0.00024668393566562,0.00024668393566562,0.00024668393566562,2744064.8542818,0.013554337586106
9419200,0.95002318842054,0.013413595677513,0.00476891631956,0.00476891631956,0.003875763038393,-0.0012394400584307,0.0012394400584099,-1.0499385133344e-14,-1.0312802598018e-14,2.5102468430938e-15,-2.3660277194773e-14,-0.0013014600493747,0.0013014600493627,-0.0013014600506435,0.0013014600506317,-0.0013014600494059,0.0013014600493766,-0.0013014600506294,0.0013014600506003,-0.0011181573975097,0.00111815739748,-0.0011181573978261,0.0011181573977967,-2.5106880060872e-15,2.3661668811267e-14,-1.5063345506431e-13,1.7146059839347e-13,-0.0012394400584099,0.0012394400584307,-0.001301460049443,0.0013014600493454,-0.0013014600505511,0.0013014600506726,-0.0013014600494345,0.0013014600493541,-0.0013014600505425,0.0013014600506814,-0.0011181573976305,0.0011181573973684,-0.0011181573976462,0.0011181573979675,-0.0012402313020076,0.0012402313021566,-0.0012402313019822,0.0012402313021824,-1.8279606850315e-12,-1.8281476513441e-12,-0.00083202502679161,0.00083202502208857,-1.5364001963816e-12,-1.9930093796374e-12,-0.00087134877084674,0.0008713487661186,-0.00087134877100624,0.00087134876595899,-0.00087134877084685,0.00087134876611859,-0.00087134877100635,0.00087134876595898,-0.00092244507152647,0.00092244506771391,-0.0009224450715262,0.000922445067714,0.40621133923259,120135,2834,0.0051508428780723,0.0051508428780723,0.0034616209396977,41.144506076205,0.00024435604860964,0.00024435604860964,0.00024435604860964,2597084.2889573,0.013858652031088
10419200,0.97083925790964,0.013608330292123,0.0048408976394144,0.0048408976394144,0.0039265350132945,-0.0012536715136989,0.0012536715136782,-1.0446327930676e-14,-1.0255098478487e-14,2.4662187763563e-15,-2.3491400000914e-14,-0.0013179342705858,0.0013179342705739,-0.0013179342713733,0.0013179342713615,-0.001317934270615,0.0013179342705858,-0.0013179342713612,0.0013179342713322,-0.0011266809043921,0.0011266809043625,-0.0011266809045715,0.0011266809045423,-2.4556308645156e-15,2.3506096989891e-14,3.6054903309631e-13,-3.3981531740472e-13,-0.0012536715136782,0.0012536715136989,-0.0013179342704701,0.0013179342707231,-0.001317934271465,0.0013179342712359,-0.0013179342704616,0.0013179342707318,-0.0013179342714565,0.0013179342712445,-0.0011266809040016,0.0011266809047374,-0.0011266809049032,0.0011266809042263,-0.001255478763516,0.0012554787633209,-0.0012554787634908,0.0012554787633465,-4.5643554075488e-13,-4.5662628567453e-13,-0.00082476059126417,0.00082476059038412,-7.0188523435847e-13,-1.147926108116e-13,-0.00086527250536654,0.00086527250343937,-0.00086527250517489,0.0008652725036309,-0.00086527250536665,0.00086527250343936,-0.00086527250517501,0.00086527250363089,-0.000920206234925,0.00092020623445258,-0.00092020623492469,0.00092020623445265,0.43665130715676,120135,2834,0.0052098165235039,0.0052098165235039,0.003431546973675,38.090197738059,0.00021992158190447,0.00021992158190447,0.00021992158190447,2516373.6572976,0.013947752500126
11419200,0.98286228691674,0.013712610544333,0.0048794235672252,0.0048794235672252,0.0039537634098828,-0.0012657383372082,0.0012657383371876,-1.0421093407456e-14,-1.0235099089454e-14,2.4481605044947e-15,-2.3445695514802e-14,-0.0013307757742649,0.001330775774253,-0.0013307757753978,0.0013307757753859,-0.001330775774297,0.0013307757742679,-0.0013307757753826,0.0013307757753537,-0.0011356223454322,0.0011356223454027,-0.0011356223456976,0.0011356223456684,-2.4423371529823e-15,2.3453469174381e-14,5.3751473629055e-13,-5.1684300124226e-13,-0.0012657383371875,0.0012657383372082,-0.0013307757741118,0.0013307757744671,-0.0013307757755269,0.0013307757751954,-0.0013307757741034,0.0013307757744758,-0.0013307757755184,0.001330775775204,-0.0011356223448858,0.0011356223459739,-0.0011356223461853,0.0011356223451559,-0.0012683922209913,0.0012683922206832,-0.0012683922209662,0.0012683922207088,-1.4297255571257e-12,-1.4299102289887e-12,-0.00081787895618461,0.0008178789525692,-1.8135152748238e-12,-9.0119991013783e-13,-0.00086258559584495,0.00086258559152683,-0.00086258559555027,0.00086258559182139,-0.00086258559584506,0.00086258559152682,-0.00086258559555039,0.00086258559182138,-0.00091610692263176,0.00091610692014722,-0.0009161069226315,0.00091610692014733,0.40445605707229,120135,2834,0.0052598026385898,0.0052598026385898,0.003403065640863,37.626520097802,0.00021621216078242,0.00021621216078242,0.00021621216078242,2392614.1167259,0.014020253779911
12419200,0.98975691645754,0.013779800679529,0.0049040781281561,0.0049040781281561,0.003971644423217,-0.0012713216162083,0.0012713216161878,-1.0394858914784e-14,-1.0207394053471e-14,2.4099852001358e-15,-2.3352168960209e-14,-0.0013371821816531,0.0013371821816412,-0.0013371821827015,0.0013371821826896,-0.001337182181685,0.0013371821816561,-0.0013371821826864,0.0013371821826575,-0.0011388042815364,0.0011388042815069,-0.0011388042817793,0.0011388042817503,-2.4063970744565e-15,2.3355727215477e-14,6.8687105280853e-13,-6.6625630257729e-13,-0.0012713216161878,0.0012713216162083,-0.0013371821814495,0.0013371821819049,-0.0013371821828811,0.0013371821824495,-0.0013371821814411,0.0013371821819135,-0.0013371821828727,0.0013371821824581,-0.0011388042808432,0.0011388042822237,-0.0011388042824141,0.0011388042810921,-0.0012744756874176,0.0012744756870099,-0.0012744756873926,0.0012744756870352,-1.2124151324484e-12,-1.2126020146643e-12,-0.00081399273806482,0.00081399273506996,-1.747163845932e-12,-5.3444386428327e-13,-0.00085922755273808,0.0008592275488275,-0.00085922755234312,0.00085922754922235,-0.00085922755273819,0.00085922754882749,-0.00085922755234324,0.00085922754922233,-0.00091450261373945,0.0009145026118357,-0.00091450261373918,0.00091450261183579,0.45322610794666,120135,2834,0.005282935382944,0.005282935382944,0.0033869719111595,36.801457725383,0.00020961166180307,0.00020961166180307,0.00020961166180307,2351043.4635669,0.014050849156184
13419200,0.99360694433292,0.013814160510559,0.004916701901789,0.004916701901789,0.0039807567069814,-0.0012729554463381,0.0012729554463175,-1.037627124733e-14,-1.0198806080534e-14,2.4018972119242e-15,-2.3319258200904e-14,-0.0013388564065294,0.0013388564065174,-0.0013388564073717,0.0013388564073599,-0.0013388564065606,0.0013388564065316,-0.0013388564073573,0.0013388564073285,-0.0011392281717851,0.0011392281717557,-0.0011392281719463,0.0011392281719172,-2.3989267144356e-15,2.332665893989e-14,9.2807610540285e-13,-9.0748301782555e-13,-0.0012729554463175,0.0012729554463381,-0.0013388564062407,0.0013388564068603,-0.0013388564076364,0.0013388564070406,-0.0013388564062323,0.0013388564068689,-0.0013388564076281,0.0013388564070492,-0.001139228170852,0.0011392281727038,-0.0011392281728209,0.0011392281710276,-0.001276619403517,0.0012766194029472,-0.0012766194034921,0.0012766194029726,-6.0395434240583e-13,-6.0413039717224e-13,-0.00080433258158738,0.00080433258031017,-1.388531434259e-12,3.136009785289e-13,-0.00085296334691826,0.00085296334416747,-0.0008529633463592,0.00085296334472642,-0.00085296334691837,0.00085296334416746,-0.00085296334635931,0.00085296334472641,-0.00090605916120083,0.0009060591608034,-0.00090605916120058,0.0009060591608035,0.4150894025916,120135,2834,0.0052896842138036,0.0052896842138036,0.0033469199699547,34.787794546772,0.00019350235637418,0.00019350235637418,0.00019350235637418,2271828.1434914,0.014023929269791
14419200,0.99583012683379,0.013832486424862,0.0049234260800366,0.0049234260800366,0.003985634264789,-0.001270567165931,0.0012705671659105,-1.0363448109656e-14,-1.0188453455623e-14,2.4033971661016e-15,-2.3296435368714e-14,-0.0013371919544133,0.0013371919544014,-0.0013371919552134,0.0013371919552016,-0.0013371919544447,0.0013371919544158,-0.0013371919551987,0.0013371919551699,-0.0011352638213349,0.0011352638213056,-0.0011352638214974,0.0011352638214684,-2.3919857500067e-15,2.3309628554826e-14,1.1132423000354e-12,-1.0926624213836e-12,-0.0012705671659105,0.001270567165931,-0.0013371919540645,0.0013371919548063,-0.0013371919555382,0.0013371919548201,-0.0013371919540562,0.0013371919548149,-0.0013371919555298,0.0013371919548287,-0.0011352638202218,0.0011352638224369,-0.0011352638225522,0.0011352638203956,-0.0012743911048324,0.0012743911041397,-0.0012743911048075,0.001274391104165,-5.0205010182247e-13,-5.0222445150539e-13,-0.00079855799630182,0.00079855799530733,-1.4695366360763e-12,6.0206825428693e-13,-0.00084638392666878,0.00084638392406267,-0.00084638392598696,0.00084638392474439,-0.00084638392666889,0.00084638392406267,-0.00084638392598706,0.00084638392474437,-0.00090163913628514,0.00090163913623208,-0.0009016391362849,0.00090163913623218,0.38312450045663,120135,2834,0.0052797869507705,0.0052797869507705,0.0033229520136776,32.63664700959,0.00017629317607672,0.00017629317607672,0.00017629317607672,2269309.5035773,0.013979552187067
15419200,0.99698735045772,0.013845232016027,0.0049280722769047,0.0049280722769047,0.003989087462218,-0.0012611736935801,0.0012611736935596,-1.0368389135182e-14,-1.0186100586325e-14,2.3918681065418e-15,-2.3282553439857e-14,-0.0013281198363076,0.0013281198362957,-0.0013281198365625,0.0013281198365508,-0.0013281198363367,0.0013281198363078,-0.0013281198365502,0.0013281198365214,-0.0011250006789732,0.0011250006789439,-0.0011250006789754,0.0011250006789464,-2.389397593779e-15,2.3287145613448e-14,1.6195564647233e-12,-1.5989914129393e-12,-0.0012611736935596,0.0012611736935801,-0.0013281198357735,0.001328119836865,-0.0013281198370727,0.001328119836005,-0.0013281198357651,0.0013281198368736,-0.0013281198370644,0.0013281198360135,-0.001125000677351,0.0011250006805535,-0.0011250006805394,0.0011250006773952,-0.0012651959903929,0.0012651959893584,-0.001265195990368,0.0012651959893837,1.0757008436153e-12,1.0755193200936e-12,-0.00078666420482765,0.00078666420824549,-4.291949472125e-13,2.6800347885416e-12,-0.00083412319613603,0.00083412319677087,-0.00083412319510444,0.00083412319780235,-0.00083412319613614,0.00083412319677086,-0.00083412319510455,0.00083412319780233,-0.00089061639304542,0.00089061639678953,-0.00089061639304515,0.00089061639678962,0.51103778709309,120135,2834,0.0052408527794746,0.0052408527794746,0.0032735676333244,27.051280566046,0.00013161024452837,0.00013161024452837,0.00013161024452837,2278604.3004184,0.013850527842915
16419200,0.9977307559297,0.013852680980781,0.0049307996563999,0.0049307996563999,0.0039910816679815,-0.0012600022979948,0.0012600022979743,-1.0350624971983e-14,-1.0190688681456e-14,2.383368366203e-15,-2.325020148701e-14,-0.0013262059158207,0.0013262059158088,-0.0013262059165315,0.0013262059165197,-0.001326205915853,0.0013262059158242,-0.0013262059165158,0.0013262059164871,-0.0011238674670957,0.0011238674670664,-0.0011238674671983,0.0011238674671693,-2.3767509213026e-15,2.3255188811673e-14,1.6934875497571e-12,-1.6729317533774e-12,-0.0012600022979743,0.0012600022979948,-0.0013262059152856,0.001326205916409,-0.0013262059170426,0.0013262059159429,-0.0013262059152773,0.0013262059164176,-0.0013262059170342,0.0013262059159515,-0.0011238674654199,0.0011238674687738,-0.001123867468816,0.0011238674655204,-0.0012645161714829,0.001264516170405,-0.0012645161714581,0.0012645161704302,-1.6194299266542e-13,-1.6210369490222e-13,-0.00077322277269182,0.00077322277263343,-1.6987033116622e-12,1.5274478081062e-12,-0.00082636223573968,0.00082636223340246,-0.00082636223467484,0.0008263622344672,-0.00082636223573979,0.00082636223340246,-0.00082636223467495,0.00082636223446719,-0.00087746525932597,0.0008774652604121,-0.00087746525932571,0.00087746526041217,0.46538451425637,120135,2834,0.005235962085976,0.005235962085976,0.0032178233464982,24.409540504951,0.00011047632403961,0.00011047632403961,0.00011047632403961,2173792.0279128,0.013784108386872
17419200,0.99823006727235,0.013858337174863,0.0049328596527905,0.0049328596527905,0.0039926178692816,-0.0012553282762539,0.0012553282762334,-1.0319920027645e-14,-1.0181100739067e-14,2.3713393219174e-15,-2.3217320138572e-14,-0.001322446356399,0.0013224463563872,-0.001322446357119,0.0013224463571072,-0.0013224463564316,0.0013224463564028,-0.0013224463571031,0.0013224463570744,-0.0011174387471915,0.0011174387471622,-0.0011174387473226,0.0011174387472936,-2.3662806529268e-15,2.322406993237e-14,1.72793271715e-12,-1.7074079023606e-12,-0.0012553282762334,0.0012553282762539,-0.0013224463558541,0.0013224463569993,-0.00132244635764,0.0013224463565185,-0.0013224463558458,0.0013224463570079,-0.0013224463576316,0.001322446356527,-0.0011174387454831,0.0011174387489049,-0.0011174387489728,0.0011174387456092,-0.0012599386776632,0.0012599386765628,-0.0012599386776384,0.001259938676588,-2.4307750084957e-13,-2.4321542287696e-13,-0.0007673305920874,0.00076733059181013,-1.8112519910244e-12,1.4812898652585e-12,-0.00081840267446756,0.0008184026720016,-0.00081840267338093,0.00081840267308813,-0.00081840267446765,0.0008184026720016,-0.00081840267338102,0.00081840267308812,-0.00087308657477216,0.00087308657570088,-0.00087308657477194,0.00087308657570093,0.52521873377382,120135,2834,0.0052165974961402,0.0052165974961402,0.0031933495883174,21.972225382147,9.0977803057174e-05,9.0977803057174e-05,9.0977803057174e-05,2189464.7297316,0.013720031017262
18419200,0.99854030683129,0.013861715287594,0.0049340927025999,0.0049340927025999,0.0039935298823944,-0.0012486936884226,0.0012486936884021,-1.0322390540408e-14,-1.0211099822615e-14,2.3970444189972e-15,-2.3269200906591e-14,-0.0013156925942738,0.0013156925942619,-0.0013156925946601,0.0013156925946483,-0.0013156925943049,0.001315692594276,-0.0013156925946458,0.001315692594617,-0.0011102336647374,0.0011102336647081,-0.0011102336647462,0.0011102336647171,-2.3907504936253e-15,2.3278510709499e-14,1.9510269270507e-12,-1.9304847639862e-12,-0.0012486936884021,0.0012486936884226,-0.0013156925936437,0.0013156925949455,-0.0013156925952663,0.0013156925939881,-0.0013156925936353,0.0013156925949541,-0.0013156925952579,0.0013156925939967,-0.0011102336628019,0.0011102336666578,-0.0011102336666234,0.0011102336628257,-0.0012536792489762,0.0012536792477242,-0.0012536792489513,0.0012536792477495,7.1833868966708e-13,7.1822894095181e-13,-0.00075322408478653,0.00075322408723527,-1.0927654108844e-12,2.6615851021668e-12,-0.00080675326846813,0.00080675326796132,-0.00080675326722513,0.00080675326920422,-0.00080675326846821,0.00080675326796133,-0.00080675326722521,0.00080675326920422,-0.00085963487367672,0.0008596348768828,-0.00085963487367655,0.00085963487688283,0.50516361584657,120135,2834,0.0051890796597763,0.0051890796597763,0.0031348034103869,17.471447651829,5.4971581214632e-05,5.4971581214632e-05,5.4971581214632e-05,2141538.8108209,0.013604902583732
19419200,0.99879729854946,0.013865339645096,0.0049354085317248,0.0049354085317248,0.0039945225816464,-0.0012491116922735,0.001249111692253,-1.0315567219444e-14,-1.0207511696936e-14,2.3855447703036e-15,-2.3248436835037e-14,-0.0013166353654865,0.0013166353654747,-0.001316635366581,0.0013166353665692,-0.0013166353655216,0.0013166353654928,-0.0013166353665627,0.001316635366534,-0.0011095283060352,0.0011095283060059,-0.0011095283062891,0.0011095283062601,-2.3781626428813e-15,2.3257550182549e-14,1.7291745725945e-12,-1.7086335083015e-12,-0.001249111692253,0.0012491116922735,-0.0013166353649591,0.0013166353660919,-0.0013166353670845,0.0013166353659754,-0.0013166353649508,0.0013166353661005,-0.0013166353670761,0.001316635365984,-0.0011095283043398,0.001109528307769,-0.0011095283079263,0.0011095283045553,-0.0012542376625039,0.0012542376614071,-0.0012542376624791,0.0012542376614324,-1.3051641576001e-12,-1.30527136015e-12,-0.00075205255497983,0.00075205255170229,-2.8423588590644e-12,4.2829820990133e-13,-0.00080453366089263,0.00080453365603248,-0.0008045336598175,0.0008045336571075,-0.00080453366089271,0.0008045336560325,-0.00080453365981758,0.00080453365710751,-0.00085943792461429,0.00085943792320383,-0.0008594379246141,0.00085943792320384,0.65325215552177,120135,2834,0.0051908161412823,0.0051908161412822,0.0031299406620667,17.551642354017,5.5613138832137e-05,5.5613138832137e-05,5.5613138832137e-05,2136658.5062866,0.013603490996824
20419200,0.9990209675206,0.013868719631716,0.0049366369074341,0.0049366369074341,0.003995445816848,-0.0012543211507343,0.0012543211507138,-1.0307685107295e-14,-1.0196982606828e-14,2.3769567973662e-15,-2.3222731737957e-14,-0.0013212251947117,0.0013212251946999,-0.0013212251959533,0.0013212251959415,-0.0013212251947466,0.0013212251947178,-0.0013212251959351,0.0013212251959064,-0.0011147004297989,0.0011147004297697,-0.0011147004300844,0.0011147004300554,-2.371692252312e-15,2.3229273013309e-14,1.379671923661e-12,-1.3591531148347e-12,-0.0012543211507138,0.0012543211507343,-0.0013212251943007,0.0013212251952004,-0.0013212251963404,0.0013212251954645,-0.0013212251942923,0.0013212251952089,-0.0013212251963321,0.001321225195473,-0.0011147004284458,0.0011147004311906,-0.0011147004313794,0.0011147004286928,-0.0012599129136698,0.0012599129128062,-0.001259912913645,0.0012599129128315,-1.7668874809804e-12,-1.766997460617e-12,-0.00074588338642474,0.00074588338189058,-2.9542066186627e-12,-3.8323786587567e-13,-0.0008034203025613,0.00080342029686633,-0.00080342030171935,0.00080342029770817,-0.00080342030256138,0.00080342029686634,-0.00080342030171944,0.00080342029770817,-0.0008535295870695,0.00085352958442754,-0.00085352958706931,0.00085352958442757,0.70012779305903,120135,2834,0.0052123761712156,0.0052123761712156,0.0031043925925501,18.598825232071,6.399060185657e-05,6.399060185657e-05,6.399060185657e-05,2029997.4361325,0.013621312271709
21419200,0.99917307715742,0.013870854191,0.0049374120606266,0.0049374120606266,0.0039960300697466,-0.0012490768461085,0.0012490768460881,-1.0307214533436e-14,-1.0186041764593e-14,2.3771332625635e-15,-2.321632016912e-14,-0.0013165656315511,0.0013165656315392,-0.0013165656320548,0.001316565632043,-0.0013165656315822,0.0013165656315534,-0.0013165656320403,0.0013165656320116,-0.001107694724587,0.0011076947245578,-0.0011076947246249,0.0011076947245959,-2.3731627956232e-15,2.322301992998e-14,1.5964115147314e-12,-1.5758974438119e-12,-0.0012490768460881,0.0012490768461085,-0.0013165656310399,0.0013165656321048,-0.0013165656325421,0.0013165656315008,-0.0013165656310315,0.0013165656321134,-0.0013165656325337,0.0013165656315094,-0.0011076947229995,0.0011076947261609,-0.0011076947261543,0.0011076947230511,-0.0012550129902545,0.0012550129892391,-0.0012550129902297,0.0012550129892643,2.7827780061947e-13,2.7816291407862e-13,-0.00073362576542693,0.00073362576672366,-1.1760667043224e-12,1.8663894389661e-12,-0.00079174343261358,0.00079174343133621,-0.00079174343160808,0.0007917434323416,-0.00079174343261366,0.00079174343133622,-0.00079174343160816,0.0007917434323416,-0.00084289182093608,0.00084289182297381,-0.0008428918209359,0.00084289182297385,0.64990944923706,120135,2834,0.0051906297673257,0.0051906297673257,0.0030535147777462,15.220748075664,3.6965984605311e-05,3.6965984605311e-05,3.6965984605311e-05,1994420.9593884,0.013525661050301
22419200,0.99929903028111,0.013872667480444,0.0049380693577624,0.0049380693577624,0.0039965287649196,-0.0012480013669586,0.0012480013669381,-1.0314684893457e-14,-1.0192335689965e-14,2.3948386040304e-15,-2.3250025021813e-14,-0.0013164252988566,0.0013164252988447,-0.0013164252998371,0.0013164252998253,-0.0013164252988904,0.0013164252988616,-0.00131642529982,0.0013164252997913,-0.0011048697841528,0.0011048697841236,-0.0011048697843741,0.0011048697843452,-2.3882799808624e-15,2.3258100257657e-14,1.4822682124961e-12,-1.4617474034437e-12,-0.0012480013669381,0.0012480013669586,-0.001316425298403,0.0013164252993774,-0.0013164253002668,0.0013164252993161,-0.0013164252983947,0.001316425299386,-0.0013164253002584,0.0013164252993247,-0.0011048697826926,0.0011048697856358,-0.0011048697857762,0.0011048697828913,-0.0012541166470672,0.0012541166461329,-0.0012541166470424,0.0012541166461582,-1.0819950144416e-12,-1.0821164714964e-12,-0.00073224582314667,0.00073224582057225,-2.3871322953352e-12,4.004572663054e-13,-0.00078774955723883,0.00078774955305846,-0.00078774955632275,0.00078774955397443,-0.00078774955723891,0.00078774955305846,-0.00078774955632283,0.00078774955397443,-0.00084292691056762,0.00084292690951125,-0.00084292691056743,0.00084292690951131,0.66642562144511,120135,2834,0.0051861846290431,0.0051861846290431,0.0030477715633083,14.858436540754,3.4067492326035e-05,3.4067492326035e-05,3.4067492326035e-05,2005505.7084739,0.013510823828887
23419200,0.99941088951671,0.013874186190847,0.0049386207342012,0.0049386207342012,0.003996944722445,-0.0012503829821982,0.0012503829821778,-1.0293156139381e-14,-1.0176571465668e-14,2.3793684883965e-15,-2.3191350343696e-14,-0.0013189126364832,0.0013189126364713,-0.0013189126376607,0.0013189126376489,-0.0013189126365176,0.0013189126364888,-0.0013189126376429,0.0013189126376143,-0.0011067439063592,0.00110674390633,-0.0011067439066415,0.0011067439066125,-2.3661041877295e-15,2.3207390179976e-14,1.2575802087984e-12,-1.2370789488961e-12,-0.0012503829821777,0.0012503829821982,-0.0013189126361093,0.0013189126369303,-0.0013189126380106,0.0013189126372133,-0.001318912636101,0.0013189126369389,-0.0013189126380023,0.0013189126372219,-0.001106743905123,0.0011067439076273,-0.0011067439078197,0.0011067439053735,-0.0012567291653238,0.0012567291645406,-0.001256729165299,0.0012567291645658,-1.6535350867985e-12,-1.6536506879889e-12,-0.00073164963000438,0.00073164962582627,-2.7248638749261e-12,-3.9401455136121e-13,-0.00078757174447289,0.00078757173915728,-0.0007875717437102,0.00078757173991987,-0.00078757174447297,0.00078757173915728,-0.00078757174371028,0.00078757173991987,-0.0008427596356638,0.00084275963320049,-0.00084275963566361,0.00084275963320053,0.62875729639221,120135,2834,0.0051960522073314,0.0051960522073314,0.0030453099256141,15.706940894259,4.0855527154072e-05,4.0855527154072e-05,4.0855527154072e-05,1978110.5254711,0.013528331785772
24419200,0.99951649266236,0.013875697876037,0.0049391683790657,0.0049391683790657,0.0039973611179061,-0.0012543504548793,0.0012543504548588,-1.0296391334665e-14,-1.0181159560799e-14,2.3751627345265e-15,-2.3192909119605e-14,-0.0013232966473102,0.0013232966472983,-0.0013232966487054,0.0013232966486936,-0.0013232966473453,0.0013232966473165,-0.001323296648687,0.0013232966486583,-0.0011099924920132,0.001109992491984,-0.0011099924923663,0.0011099924923373,-2.3688099874221e-15,2.3201066154421e-14,9.4596562575609e-13,-9.2546818530279e-13,-0.0012543504548588,0.0012543504548793,-0.0013232966470449,0.0013232966476548,-0.0013232966489468,0.0013232966483606,-0.0013232966470365,0.0013232966476634,-0.0013232966489385,0.0013232966483691,-0.0011099924910859,0.0011099924929809,-0.0011099924932355,0.0011099924913987,-0.0012607566495714,0.001260756648997,-0.0012607566495466,0.0012607566490222,-2.2991248896915e-12,-2.2992394362841e-12,-0.00073607636478905,0.00073607635880705,-3.0496256889697e-12,-1.3501139902385e-12,-0.00079059155954827,0.00079059155300356,-0.00079059155899706,0.00079059155355465,-0.00079059155954835,0.00079059155300356,-0.00079059155899716,0.00079059155355466,-0.0008477467605121,0.00084774675642232,-0.00084774676051192,0.00084774675642235,0.66255127740754,120135,2834,0.0052125047961893,0.0052125047961893,0.0030636892603482,17.884730666162,5.8277845329298e-05,5.8277845329298e-05,5.8277845329298e-05,1979249.1667089,0.013580308192159
25419200,0.99961276653716,0.013877320939403,0.0049397551313061,0.0049397551313061,0.0039978106767906,-0.0012592664601913,0.0012592664601709,-1.0293156139381e-14,-1.0190688681456e-14,2.3763979909079e-15,-2.3203967605306e-14,-0.001328039931853,0.0013280399318411,-0.0013280399332242,0.0013280399332124,-0.0013280399318873,0.0013280399318586,-0.0013280399332065,0.0013280399331778,-0.0011148839591051,0.0011148839590759,-0.0011148839594481,0.0011148839594192,-2.3704569959306e-15,2.3211341001377e-14,7.3346461022075e-13,-7.130241551015e-13,-0.0012592664601709,0.0012592664601913,-0.0013280399316533,0.0013280399321253,-0.0013280399334,0.0013280399329516,-0.0013280399316449,0.0013280399321339,-0.0013280399333917,0.0013280399329601,-0.0011148839583819,0.0011148839598592,-0.0011148839601134,0.0011148839586942,-0.0012658465681058,0.0012658465676719,-0.001265846568081,0.0012658465676971,-2.2634388976705e-12,-2.2635399974657e-12,-0.0007377254002822,0.00073772539442557,-2.810113623546e-12,-1.5298039273048e-12,-0.00079361850756151,0.00079361850123872,-0.00079361850714881,0.00079361850165132,-0.00079361850756158,0.00079361850123874,-0.00079361850714889,0.00079361850165134,-0.00084944175705694,0.00084944175291261,-0.00084944175705678,0.00084944175291269,0.77991302017261,120135,2834,0.0052328719582842,0.0052328719582842,0.0030705606548523,19.929537433299,7.4636299466394e-05,7.4636299466394e-05,7.4636299466394e-05,1941986.155032,0.013628564290418
26419200,0.99969169448257,0.013878736041758,0.0049402663294994,0.0049402663294994,0.0039982033827592,-0.0012622918132188,0.0012622918131984,-1.0295567830411e-14,-1.018598294286e-14,2.3848977312467e-15,-2.3207938072246e-14,-0.0013306829268619,0.00133068292685,-0.0013306829279659,0.0013306829279541,-0.0013306829268946,0.0013306829268658,-0.0013306829279498,0.0013306829279212,-0.0011177825227785,0.0011177825227493,-0.0011177825230269,0.001117782522998,-2.3802802252495e-15,2.3213219505571e-14,7.3889063793359e-13,-7.1839489176448e-13,-0.0012622918131984,0.0012622918132189,-0.0013306829266483,0.0013306829271328,-0.0013306829281555,0.0013306829276947,-0.00133068292664,0.0013306829271414,-0.0013306829281472,0.0013306829277032,-0.0011177825220404,0.001117782523525,-0.0011177825237069,0.0011177825222805,-0.0012691781752816,0.001269178174841,-0.0012691781752568,0.0012691781748662,-1.519955365752e-12,-1.5200620043257e-12,-0.00073241592950502,0.00073241592576805,-2.0932489791511e-12,-7.8643550434694e-13,-0.00079191459011367,0.00079191458542895,-0.00079191458968938,0.00079191458585313,-0.00079191459011375,0.00079191458542895,-0.00079191458968946,0.00079191458585314,-0.00084439540779223,0.00084439540530221,-0.00084439540779205,0.00084439540530225,0.82922923068302,120135,2834,0.0052453866553894,0.0052453866553894,0.003048564229292,20.394816730014,7.8358533840116e-05,7.8358533840116e-05,7.8358533840116e-05,1868416.9933382,0.013631645661176
27419200,0.99976053476179,0.013879848300652,0.0049406681639758,0.0049406681639758,0.0039985119727005,-0.0012667811056525,0.001266781105632,-1.0294156108832e-14,-1.0174100952906e-14,2.3621337207892e-15,-2.3167498131188e-14,-0.0013355228279903,0.0013355228279784,-0.001335522829323,0.0013355228293113,-0.0013355228280241,0.0013355228279954,-0.0013355228293059,0.0013355228292772,-0.0011211494035652,0.001121149403536,-0.0011211494038911,0.0011211494038621,-2.3634572097693e-15,2.3165888977681e-14,6.19492601753e-13,-5.9902195580514e-13,-0.001266781105632,0.0012667811056525,-0.0013355228278248,0.0013355228282236,-0.0013355228294646,0.0013355228290895,-0.0013355228278165,0.0013355228282321,-0.0013355228294562,0.001335522829098,-0.0011211494029507,0.0011211494042038,-0.0011211494044476,0.0011211494032527,-0.0012739160680868,0.0012739160677279,-0.001273916068062,0.0012739160677531,-2.18292487415e-12,-2.1830451329991e-12,-0.00073202927441815,0.00073202926881448,-2.6218326254012e-12,-1.5652506238443e-12,-0.00079210764012441,0.00079210763404891,-0.00079210763978544,0.00079210763438778,-0.00079210764012449,0.00079210763404891,-0.00079210763978552,0.00079210763438778,-0.00084498347038937,0.00084498346635741,-0.00084498347038918,0.00084498346635744,0.74718867332313,120135,2834,0.0052639869313308,0.0052639869313308,0.0030469863210605,22.255539554092,9.3244316432732e-05,9.3244316432732e-05,9.3244316432732e-05,1827465.3176855,0.013667754880717
28419200,0.99981710840995,0.013880888275017,0.0049410423771503,0.0049410423771503,0.0039988035207167,-0.0012681799467729,0.0012681799467525,-1.028568577936e-14,-1.0157101472228e-14,2.353045763126e-15,-2.3133881511094e-14,-0.0013378702282112,0.0013378702281993,-0.0013378702294229,0.0013378702294111,-0.0013378702282443,0.0013378702282156,-0.0013378702294064,0.0013378702293778,-0.0011209978712453,0.0011209978712162,-0.001120997871544,0.0011209978715152,-2.3561044932133e-15,2.3132813701343e-14,5.8565353079142e-13,-5.6519136798285e-13,-0.0012681799467524,0.0012681799467729,-0.0013378702280515,0.0013378702284319,-0.0013378702295587,0.001337870229202,-0.0013378702280432,0.0013378702284404,-0.0013378702295504,0.0013378702292105,-0.0011209978706596,0.0011209978718447,-0.0011209978720719,0.0011209978709449,-0.0012753871740615,0.0012753871737237,-0.0012753871740368,0.0012753871737489,-1.87853471511e-12,-1.8786622258056e-12,-0.00073539053471807,0.00073539052999312,-2.2934849061987e-12,-1.297345278757e-12,-0.00079215457191677,0.00079215456657924,-0.00079215457159662,0.00079215456689928,-0.00079215457191686,0.00079215456657924,-0.00079215457159671,0.00079215456689928,-0.00084954791874298,0.00084954791536399,-0.00084954791874278,0.00084954791536405,0.8493285419621,120135,2834,0.0052698034245223,0.0052698034245223,0.0030609228194043,23.443518155284,0.00010274814524227,0.00010274814524227,0.00010274814524227,1850864.7983293,0.013693666918322
29419200,0.99986307669188,0.013881492980878,0.0049412615580889,0.0049412615580888,0.0039989698647,-0.001272516912438,0.0012725169124176,-1.0300391212472e-14,-1.0173924487708e-14,2.3878388178691e-15,-2.3194114965121e-14,-0.0013417285430834,0.0013417285430716,-0.0013417285443217,0.0013417285443099,-0.0013417285431165,0.0013417285430878,-0.0013417285443053,0.0013417285442766,-0.0011255745478803,0.0011255745478512,-0.0011255745481789,0.0011255745481499,-2.3897505241736e-15,2.3193986120252e-14,5.4786238272302e-13,-5.2739981844463e-13,-0.0012725169124176,0.001272516912438,-0.0013417285429366,0.0013417285432915,-0.0013417285444445,0.0013417285441133,-0.0013417285429283,0.0013417285433,-0.0013417285444362,0.0013417285441219,-0.0011255745473319,0.0011255745484432,-0.0011255745486695,0.0011255745476164,-0.001280020906566,0.0012800209062534,-0.0012800209065412,0.0012800209062786,-1.9447243112273e-12,-1.9448501155757e-12,-0.00073327468731609,0.0007332746824055,-2.3210826954581e-12,-1.4012982942402e-12,-0.00079321309369217,0.00079321308820586,-0.0007932130933976,0.00079321308850034,-0.00079321309369227,0.00079321308820587,-0.0007932130933977,0.00079321308850033,-0.00084728022783197,0.00084728022428439,-0.00084728022783179,0.00084728022428437,0.60881578646039,120135,2834,0.0052877574356646,0.0052877574356646,0.0030521793919127,24.782751597504,0.00011346201278003,0.00011346201278003,0.00011346201278003,1786682.1670583,0.013721210624313
30419200,0.99989964220074,0.013881900177744,0.0049414088890572,0.0049414088890572,0.0039990823996296,-0.0012717716116048,0.0012717716115844,-1.0302567616572e-14,-1.0153278059619e-14,2.3789861471356e-15,-2.3183497642414e-14,-0.0013426546458767,0.0013426546458649,-0.0013426546471115,0.0013426546470997,-0.0013426546459099,0.0013426546458811,-0.001342654647095,0.0013426546470663,-0.0011228818417174,0.0011228818416883,-0.001122881842039,0.0011228818420101,-2.3746333389345e-15,2.3189577764575e-14,5.1556495457799e-13,-4.9509018048189e-13,-0.0012717716115844,0.0012717716116048,-0.0013426546457407,0.0013426546460742,-0.0013426546472236,0.0013426546469138,-0.0013426546457324,0.0013426546460827,-0.0013426546472153,0.0013426546469223,-0.0011228818412005,0.0011228818422482,-0.0011228818424979,0.0011228818415083,-0.0012789345179395,0.0012789345176485,-0.0012789345179147,0.0012789345176737,-1.977755713733e-12,-1.9779042822642e-12,-0.00074342975451656,0.00074342974952252,-2.3221342662745e-12,-1.4667818819968e-12,-0.00079525712998781,0.00079525712451897,-0.00079525712971458,0.00079525712479209,-0.00079525712998791,0.00079525712451896,-0.00079525712971467,0.00079525712479209,-0.00085891423335363,0.00085891422970827,-0.00085891423335342,0.00085891422970835,0.51512748248588,120135,2834,0.0052847181440616,0.0052847181440616,0.0030942709864935,26.133483771751,0.00012426787017401,0.00012426787017401,0.00012426787017401,1893864.14613,0.013757701290232
31419200,0.9999292440213,0.013882325777365,0.0049415623887794,0.0049415623887794,0.0039992009998061,-0.0012752289415255,0.0012752289415051,-1.0296273691201e-14,-1.015739558089e-14,2.3758685953159e-15,-2.3168939263633e-14,-0.0013459113086315,0.0013459113086197,-0.0013459113100409,0.0013459113100292,-0.0013459113086655,0.0013459113086367,-0.0013459113100237,0.001345911309995,-0.0011272732831799,0.0011272732831508,-0.0011272732835478,0.0011272732835189,-2.3709275697902e-15,2.3175559925347e-14,3.7352988361055e-13,-3.5306010396206e-13,-0.0012752289415051,0.0012752289415255,-0.0013459113085484,0.0013459113087832,-0.0013459113101002,0.001345911309889,-0.0013459113085401,0.0013459113087917,-0.0013459113100919,0.0013459113098976,-0.0011272732828066,0.0011272732835775,-0.0011272732838632,0.0011272732831504,-0.0012822576898679,0.0012822576896729,-0.0012822576898432,0.0012822576896981,-2.4585211385244e-12,-2.458659242589e-12,-0.0007525821912745,0.00075258218492442,-2.6504702799523e-12,-2.0875678438824e-12,-0.00080296359461535,0.00080296358813706,-0.00080296359444095,0.00080296358831135,-0.00080296359461545,0.00080296358813706,-0.00080296359444105,0.00080296358831135,-0.00086709553231908,0.00086709552751988,-0.00086709553231886,0.00086709552751993,0.66479676253864,120135,2834,0.0052990593502894,0.0052990593502894,0.0031322494306669,28.443691450269,0.00014274953160216,0.00014274953160216,0.00014274953160216,1927123.9363259,0.013825279496321
32419200,0.99995086595759,0.013882692157168,0.0049416945423927,0.0049416945423927,0.0039993030723831,-0.0012796310884084,0.0012796310883879,-1.0310390906988e-14,-1.0169865788169e-14,2.401603103262e-15,-2.3222849381422e-14,-0.0013488880136608,0.001348888013649,-0.0013488880148262,0.0013488880148144,-0.0013488880136932,0.0013488880136644,-0.0013488880148105,0.0013488880147818,-0.0011333901246587,0.0011333901246295,-0.0011333901249385,0.0011333901249096,-2.3939856889099e-15,2.3231694010121e-14,4.3117096652248e-13,-4.1067946321548e-13,-0.0012796310883879,0.0012796310884084,-0.0013488880135473,0.0013488880138286,-0.0013488880149158,0.0013488880146582,-0.001348888013539,0.0013488880138372,-0.0013488880149075,0.0013488880146668,-0.0011333901242201,0.001133390125101,-0.001133390125319,0.0011333901244963,-0.001286893436564,0.0012868934363278,-0.0012868934365392,0.0012868934363531,-1.7438066255953e-12,-1.7439474883072e-12,-0.000748478629041,0.00074847862469681,-2.013116883014e-12,-1.3200733344305e-12,-0.00080548867195454,0.00080548866700712,-0.00080548867173418,0.00080548866722737,-0.00080548867195463,0.00080548866700712,-0.00080548867173428,0.00080548866722736,-0.00086171927450595,0.00086171927132097,-0.00086171927450573,0.00086171927132102,0.7835582016357,120135,2834,0.0053172645855143,0.0053172645855142,0.0031152760159691,29.297401121003,0.00014957920896803,0.00014957920896803,0.00014957920896803,1832787.2558478,0.013844999255683
33419200,0.99996589297297,0.013882955394784,0.0049417892943304,0.0049417892943304,0.0039993768061228,-0.0012814697029104,0.0012814697028899,-1.0309508581001e-14,-1.0175042100625e-14,2.3975149928568e-15,-2.3221584714174e-14,-0.0013504335149279,0.001350433514916,-0.0013504335159446,0.0013504335159328,-0.0013504335149596,0.0013504335149308,-0.0013504335159295,0.0013504335159008,-0.0011350025646446,0.0011350025646154,-0.0011350025648659,0.0011350025648369,-2.3941621541073e-15,2.3226345827916e-14,5.5049513197034e-13,-5.3000827736094e-13,-0.0012814697028899,0.0012814697029104,-0.0013504335147703,0.0013504335151343,-0.0013504335160783,0.001350433515738,-0.0013504335147619,0.0013504335151428,-0.0013504335160699,0.0013504335157465,-0.0011350025640857,0.0011350025651992,-0.0011350025653667,0.0011350025643114,-0.0012889277735601,0.0012889277732433,-0.0012889277735353,0.0012889277732686,-1.3145794496454e-12,-1.3147124246732e-12,-0.00074245899701796,0.00074245899389279,-1.7110601253465e-12,-7.7318887961047e-13,-0.00080290947083868,0.00080290946674256,-0.00080290947053579,0.00080290946704535,-0.00080290947083877,0.00080290946674256,-0.00080290947053589,0.00080290946704535,-0.0008560759556684,0.00085607595351724,-0.00085607595566819,0.00085607595351729,0.80945760226261,120135,2834,0.0053248605630679,0.0053248605630679,0.0030903307830077,29.31735690803,0.00014973885526424,0.00014973885526424,0.00014973885526424,1768130.187338,0.013835117210558
34419200,0.99997726708904,0.013883136097602,0.0049418543271569,0.0049418543271568,0.0039994274432883,-0.0012860373988264,0.0012860373988059,-1.0308214502887e-14,-1.0168748175253e-14,2.390456384963e-15,-2.3205791079012e-14,-0.001355448058386,0.0013554480583741,-0.0013554480597683,0.0013554480597565,-0.0013554480584198,0.001355448058391,-0.0013554480597512,0.0013554480597225,-0.0011384541381761,0.0011384541381469,-0.0011384541385216,0.0011384541384927,-2.3916916413444e-15,2.3206043369098e-14,4.4580154989908e-13,-4.2532218316985e-13,-0.0012860373988059,0.0012860373988264,-0.001355448058278,0.0013554480585612,-0.0013554480598523,0.0013554480595927,-0.0013554480582696,0.0013554480585698,-0.0013554480598439,0.0013554480596012,-0.0011384541377314,0.001138454138644,-0.0011384541389083,0.0011384541380538,-0.0012936757155194,0.0012936757152762,-0.0012936757154946,0.0012936757153014,-2.3633935339802e-12,-2.3635334721454e-12,-0.00074398889601997,0.00074398888993364,-2.6288446317775e-12,-1.9201356058812e-12,-0.00080426029001522,0.00080426028366454,-0.00080426028979212,0.00080426028388754,-0.00080426029001532,0.00080426028366454,-0.00080426028979222,0.00080426028388753,-0.00085851908438107,0.00085851907984331,-0.00085851908438088,0.00085851907984338,0.73398852679868,120135,2834,0.0053437897917093,0.0053437897917093,0.0030967013834018,31.487353024859,0.00016709882419887,0.00016709882419887,0.00016709882419887,1742069.2738266,0.013879957954879
35419200,0.99998618822065,0.013883261511448,0.0049418994770736,0.0049418994770736,0.0039994625573011,-0.0012936145318249,0.0012936145318045,-1.0276450767365e-14,-1.0136749152801e-14,2.3566927105377e-15,-2.3123352420985e-14,-0.0013637618073064,0.0013637618072945,-0.001363761809102,0.0013637618090902,-0.0013637618073419,0.0013637618073132,-0.001363761809083,0.0013637618090544,-0.001144970648164,0.0011449706481349,-0.0011449706486361,0.0011449706486073,-2.3619278447256e-15,2.3120109470883e-14,1.0939829404407e-13,-8.8986373439139e-14,-0.0012936145318045,0.0012936145318249,-0.001363761807324,0.0013637618073732,-0.0013637618090606,0.0013637618090349,-0.0013637618073157,0.0013637618073818,-0.0013637618090523,0.0013637618090435,-0.0011449706480596,0.0011449706483166,-0.0011449706486829,0.0011449706484838,-0.0013012670208999,0.0013012670208843,-0.0013012670208753,0.0013012670209094,-3.5440311454821e-12,-3.5441699927454e-12,-0.0007544548243465,0.00075445481494092,-3.4483468024311e-12,-3.4320974753074e-12,-0.00081175579615415,0.00081175578737828,-0.00081175579616494,0.00081175578736737,-0.00081175579615424,0.00081175578737828,-0.00081175579616504,0.00081175578736738,-0.00086971488981689,0.00086971488245391,-0.0008697148898167,0.00086971488245398,0.64952121200817,120135,2834,0.0053752102188333,0.0053752102188333,0.0031401438061173,35.940234885126,0.00020272187908101,0.00020272187908101,0.00020272187908101,1757439.399856,0.013987715589371
36419200,0.99999189691597,0.013883345698833,0.004941929738214,0.004941929738214,0.0039994862224047,-0.0012956275661423,0.0012956275661219,-1.0291097378745e-14,-1.0147454708107e-14,2.3621925425217e-15,-2.3135910860863e-14,-0.0013661581287602,0.0013661581287483,-0.0013661581300347,0.0013661581300229,-0.0013661581287926,0.0013661581287639,-0.0013661581300189,0.0013661581299903,-0.0011466558166031,0.0011466558165739,-0.0011466558169269,0.0011466558168981,-2.3543398412398e-15,2.3144248554222e-14,1.4680325296819e-13,-1.2635445613457e-13,-0.0012956275661219,0.0012956275661423,-0.001366158128742,0.0013661581288333,-0.001366158130029,0.0013661581299613,-0.0013661581287337,0.0013661581288418,-0.0013661581300207,0.0013661581299698,-0.0011466558164435,0.0011466558167674,-0.0011466558170286,0.0011466558167627,-0.001303220945275,0.0013032209452287,-0.0013032209452503,0.0013032209452538,-2.1337488948822e-12,-2.1338918404808e-12,-0.0007601180069863,0.00076011800159348,-2.1171839832473e-12,-1.9947706493612e-12,-0.00081508065392005,0.00081508064832882,-0.00081508065388995,0.0008150806483588,-0.00081508065392015,0.00081508064832882,-0.00081508065389006,0.0008150806483588,-0.00087554338137167,0.00087554337715217,-0.00087554338137145,0.00087554337715222,0.6811981079479,120135,2834,0.005383567804374,0.005383567804374,0.003163635075501,37.484275354001,0.00021507420283201,0.00021507420283201,0.00021507420283201,1785418.9562143,0.014028480732569
37419200,0.99999526772339,0.013883393475902,0.0049419469372008,0.0049419469372008,0.0039994996015004,-0.0012967658990904,0.00129676589907,-1.0293156139381e-14,-1.0144984195344e-14,2.3605161231469e-15,-2.3139587219141e-14,-0.0013668633984548,0.001366863398443,-0.0013668633994924,0.0013668633994807,-0.0013668633984862,0.0013668633984575,-0.0013668633994777,0.0013668633994491,-0.0011483573569659,0.0011483573569368,-0.0011483573572152,0.0011483573571864,-2.3566927105377e-15,2.3145968113364e-14,3.3079896905432e-13,-3.1034808893186e-13,-0.00129676589907,0.0012967658990904,-0.0013668633983676,0.0013668633985872,-0.0013668633995558,0.0013668633993598,-0.0013668633983593,0.0013668633985958,-0.0013668633995475,0.0013668633993683,-0.00114835735662,0.0011483573573022,-0.0011483573575032,0.001148357356879,-0.0013044490103956,0.0013044490102246,-0.0013044490103709,0.0013044490102497,-1.4401245371807e-12,-1.4402721771442e-12,-0.00075903842159207,0.00075903841813954,-1.6219206867305e-12,-1.1200589006165e-12,-0.00081580641359414,0.00081580640942582,-0.00081580641343579,0.00081580640958406,-0.00081580641359424,0.00081580640942582,-0.00081580641343589,0.00081580640958406,-0.0008740172807905,0.00087401727821873,-0.00087401728079028,0.0008740172782188,0.65495763090949,120135,2834,0.0053882744208868,0.0053882744208868,0.0031591692319695,37.680911463207,0.00021664729170566,0.00021664729170566,0.00021664729170566,1759757.9957384,0.014033501540951
38419200,0.99999720509578,0.013883424054637,0.0049419579161414,0.0049419579161414,0.0039995082223547,-0.0012956938564966,0.0012956938564761,-1.0289920944096e-14,-1.0137513835323e-14,2.3682511809638e-15,-2.315049865051e-14,-0.001365927318306,0.0013659273182941,-0.0013659273192217,0.0013659273192099,-0.001365927318337,0.0013659273183083,-0.0013659273192072,0.0013659273191786,-0.0011470513243931,0.001147051324364,-0.0011470513246089,0.0011470513245801,-2.3773979603595e-15,2.3143316942057e-14,5.3750727397257e-13,-5.1710011471115e-13,-0.0012956938564761,0.0012956938564965,-0.0013659273181479,0.0013659273185067,-0.0013659273193559,0.0013659273190207,-0.0013659273181396,0.0013659273185153,-0.0013659273193476,0.0013659273190292,-0.0011470513238431,0.0011470513249298,-0.001147051325101,0.0011470513240722,-0.0013033612117504,0.0013033612114412,-0.0013033612117257,0.0013033612114663,-1.0815280634033e-12,-1.081679926009e-12,-0.00075815021633913,0.00075815021388412,-1.4740660418237e-12,-5.551121446462e-13,-0.00081449444412239,0.00081449444062976,-0.00081449444382458,0.00081449444092751,-0.00081449444412248,0.00081449444062975,-0.00081449444382467,0.0008144944409275,-0.00087334974408733,0.00087334974243869,-0.00087334974408714,0.00087334974243879,0.72891346290552,120135,2834,0.0053838337506256,0.0053838337506256,0.0031554779670819,37.194787269471,0.00021275829815576,0.00021275829815576,0.00021275829815576,1765298.0585284,0.014020751531938
38880000,0.99999788168004,0.013883434974265,0.0049419618374696,0.0049419618374696,0.0039995112993257,-0.0012968016043339,0.0012968016043135,-1.0298920669161e-14,-1.0147689995036e-14,2.3711040349876e-15,-2.316202771007e-14,-0.0013665961604196,0.0013665961604077,-0.0013665961614224,0.0013665961614107,-0.0013665961604515,0.0013665961604228,-0.0013665961614071,0.0013665961613785,-0.0011485655269011,0.001148565526872,-0.0011485655271313,0.0011485655271025,-2.3685747004923e-15,2.3168058948155e-14,6.4576803337416e-13,-6.2531007735343e-13,-0.0012968016043135,0.0012968016043339,-0.0013665961602316,0.0013665961606581,-0.0013665961615866,0.0013665961611837,-0.0013665961602233,0.0013665961606666,-0.0013665961615782,0.0013665961611922,-0.00114856552625,0.0011485655275505,-0.0011485655277246,0.0011485655264821,-0.0013045888015525,0.0013045888011726,-0.0013045888015278,0.0013045888011977,-1.2919560322619e-12,-1.2921056741174e-12,-0.00075524945239786,0.00075524944933744,-1.7813447134947e-12,-6.5485111239508e-13,-0.00081406788716344,0.0008140678830865,-0.00081406788679797,0.00081406788345187,-0.00081406788716354,0.0008140678830865,-0.00081406788679807,0.00081406788345187,-0.00087017798855807,0.00087017798651704,-0.00087017798855785,0.00087017798651711,0.74537476942469,120135,2834,0.0053884086396645,0.0053884086396645,0.0031434612726835,37.193619224009,0.00021274895379207,0.00021274895379207,0.00021274895379207,1727191.2712156,0.014017849536358
