time,ASR_ext,ASR_strain,ASR_strain_xx,ASR_strain_yy,ASR_strain_zz,disp_x_101,disp_x_102,disp_x_103,disp_x_104,disp_x_105,disp_x_106,disp_x_p1_neg,disp_x_p1_pos,disp_x_p2_neg,disp_x_p2_pos,disp_x_p3_neg,disp_x_p3_pos,disp_x_p4_neg,disp_x_p4_pos,disp_x_p5_neg,disp_x_p5_pos,disp_x_p6_neg,disp_x_p6_pos,disp_y_101,disp_y_102,disp_y_103,disp_y_104,disp_y_105,disp_y_106,disp_y_p1_neg,disp_y_p1_pos,disp_y_p2_neg,disp_y_p2_pos,disp_y_p3_neg,disp_y_p3_pos,disp_y_p4_neg,disp_y_p4_pos,disp_y_p5_neg,disp_y_p5_pos,disp_y_p6_neg,disp_y_p6_pos,disp_y_p7_neg,disp_y_p7_pos,disp_y_p8_neg,disp_y_p8_pos,disp_z_101,disp_z_102,disp_z_103,disp_z_104,disp_z_105,disp_z_106,disp_z_p1_neg,disp_z_p1_pos,disp_z_p2_neg,disp_z_p2_pos,disp_z_p3_neg,disp_z_p3_pos,disp_z_p4_neg,disp_z_p4_pos,disp_z_p5_neg,disp_z_p5_pos,disp_z_p6_neg,disp_z_p6_pos,humidity,ndof,nelem,strain_xx,strain_yy,strain_zz,temp,thermal_strain_xx,thermal_strain_yy,thermal_strain_zz,vonmises,vstrain
2419200,0,0,0,0,0,0,0,0,0,0,0,0,0,0,0,0,0,0,0,0,0,0,0,0,0,0,0,0,0,0,0,0,0,0,0,0,0,0,0,0,0,0,0,0,0,0,0,0,0,0,0,0,0,0,0,0,0,0,0,0,0,0,0,0,0,0,0,0,0,0,0,0,0,0,0
3419200,0.15865407263835,0.0030037075439432,0.0010012358479811,0.0010012358479811,0.0010012358479811,-0.00028779550281716,0.00028779550280768,-5.6609888253831e-15,-5.5548891254797e-15,-7.8293196431886e-16,-7.7849901150723e-15,-0.00029112934095467,0.00029112934095098,-0.0002911305536854,0.00029113055368178,-0.0002911293528289,0.00029112935281896,-0.00029113054181176,0.0002911305418079,-0.00027919284933316,0.00027919284929893,-0.00027919353356633,0.00027919353353317,1.2517999936636e-15,8.0513793374734e-15,-7.05198381305e-10,7.0520464585806e-10,-0.00028779550280699,0.00028779550281707,-0.00029112966035051,0.00029112912844773,-0.00029113023425869,0.00029113076618619,-0.00029112966035301,0.00029112912844654,-0.0002911302342596,0.0002911307661872,-0.00027919360492074,0.00027919224691435,-0.00027919277794051,0.00027919413595784,-0.00028783274992972,0.00028783324128836,-0.00028783274991704,0.0002878332412904,-5.4918769129557e-09,-5.4918770172725e-09,-0.00025104846022983,0.0002510344584012,-4.6363606002412e-09,-6.1605939858215e-09,-0.00025765334192188,0.00025764184799143,-0.00025765386928154,0.00025764132061944,-0.00025765334191851,0.00025764184799797,-0.00025765386929373,0.00025764132062031,-0.0002594206869659,0.00025940866004799,-0.00025942068693279,0.00025940866002719,0.75746877217741,120135,2834,0.0011984247533201,0.0011984247533185,0.0010454667688478,31.79840064022,0.00016958720512176,0.00016958720512176,0.00016958720512176,2383809.1516581,0.0034482502636646
4419200,0.34992767421639,0.0064597999651433,0.0022803687206457,0.0022803687206382,0.0018990625238594,-0.000605477461716,0.00060547746169126,-1.3983984563576e-14,-1.4662169727838e-14,-9.6187061551295e-15,-1.4634641157052e-14,-0.00062246508205754,0.00062246508204302,-0.00062246838666469,0.00062246838664885,-0.00062246512665069,0.00062246512662868,-0.00062246834206475,0.00062246834204065,-0.00056330216839384,0.00056330216834519,-0.00056330376374397,0.00056330376369646,8.0144022243369e-15,1.6385641692072e-14,-8.2756441640049e-10,8.2758050742199e-10,-0.0006054774616892,0.00060547746171432,-0.00062246553543666,0.00062246487571649,-0.00062246793321749,0.00062246859298906,-0.00062246553543668,0.00062246487571984,-0.00062246793322055,0.00062246859298585,-0.00056330308051973,0.00056330150371904,-0.00056330285155347,0.00056330442840693,-0.00060969429956589,0.00060969492502182,-0.00060969429953132,0.00060969492501643,-1.0268673394882e-08,-1.026867418467e-08,-0.00043977131314996,0.00043974682632399,-9.0776813238094e-09,-1.1036967524718e-08,-0.00045595743227535,0.00045593521055271,-0.00045595811957682,0.00045593452324598,-0.00045595743227427,0.00045593521056023,-0.00045595811958986,0.00045593452324806,-0.00047908971494157,0.00047906798329127,-0.00047908971490144,0.00047906798326904,0.73992840791513,120135,2834,0.002519608183738,0.0025196081837302,0.0018307935813052,33.599874854573,0.00018399899883659,0.00018399899883659,0.00018399899883659,3950546.3228668,0.006893680418831
5419200,0.55027465771355,0.0099612032285454,0.0036527953824819,0.0036527953824962,0.0026556124635672,-0.00094853606008004,0.00094853606006387,-9.0925751692465e-15,-9.4389175299015e-15,-6.8736135452362e-15,-5.6243134752017e-15,-0.00098504846989125,0.00098504846987474,-0.00098504996707482,0.00098504996706539,-0.00098504849883859,0.00098504849882784,-0.00098504993812217,0.00098504993809436,-0.00085757626293207,0.00085757626288577,-0.00085757555465465,0.00085757555462015,-8.7469974911132e-15,-4.159306185132e-15,8.4643834971331e-10,-8.4645529413099e-10,-0.00094853606007881,0.00094853606007358,-0.00098504815430427,0.00098504875430381,-0.00098505028265249,0.00098504968264951,-0.00098504815428858,0.00098504875430221,-0.00098505028265311,0.00098504968263896,-0.00085757531799505,0.00085757700980249,-0.00085757649959068,0.00085757480779031,-0.00096158236988255,0.00096158188229702,-0.00096158236985848,0.00096158188230063,-2.1685643231278e-09,-2.1685656448375e-09,-0.00059278644516644,0.00059277951846169,-2.9328857257661e-09,-1.367056823676e-09,-0.00062003824492254,0.00062003109482303,-0.000620037708283,0.00062003163144471,-0.00062003824491784,0.00062003109482782,-0.00062003770828625,0.00062003163144995,-0.00067406512853318,0.00067406117054223,-0.0006740651284964,0.00067406117052627,0.72499638738019,120135,2834,0.0039443140045791,0.0039443140045967,0.0024674591455792,36.268271498234,0.00020534617198587,0.00020534617198587,0.00020534617198587,4433076.7103068,0.01040994927657
6419200,0.70681913054005,0.012203734228534,0.0045579602138904,0.004557960213923,0.0030878138007201,-0.001174986160922,0.0011749861608978,-1.3962044057373e-14,-1.3902839983664e-14,-1.3567497286977e-14,-7.8488190474952e-15,-0.0012347863167921,0.0012347863167603,-0.0012347873597742,0.0012347873597533,-0.0012347863355378,0.0012347863355145,-0.0012347873410425,0.0012347873410165,-0.0010361547132953,0.0010361547132552,-0.0010361545342839,0.0010361545342444,-5.8979962908501e-15,-7.343921615607e-15,9.0782014939349e-10,-9.0780565497472e-10,-0.0011749861609089,0.0011749861609294,-0.0012347860032247,0.0012347866310184,-0.0012347876732976,0.0012347870455898,-0.0012347860032179,0.0012347866310087,-0.0012347876733039,0.0012347870455772,-0.0010361537584991,0.001036155568651,-0.0010361554890255,0.0010361536789487,-0.0011907643094964,0.0011907637612546,-0.0011907643094751,0.0011907637612487,-3.1141896918883e-09,-3.1141909783092e-09,-0.00066377545010803,0.00066376760439467,-3.9456459868264e-09,-2.2173760751536e-09,-0.00070243783242321,0.00070242972872316,-0.00070243724876046,0.00070243031235488,-0.00070243783241685,0.00070242972872462,-0.00070243724876444,0.00070243031235729,-0.00077557048123824,0.00077556508795204,-0.00077557048120539,0.00077556508794796,0.59839168540088,120135,2834,0.0048835985064048,0.0048835985064431,0.0027630356526135,36.738684856663,0.00020910947885331,0.00020910947885331,0.00020910947885331,4438693.5201535,0.01260917929133
7419200,0.83223030825787,0.013779389136062,0.0051887749453884,0.0051887749454091,0.0034018392452645,-0.0013413838092221,0.0013413838092067,-9.2685403818653e-15,-9.0680759176818e-15,-1.0296273691201e-14,-3.1867555879807e-15,-0.0014219839509509,0.0014219839509291,-0.0014219851192391,0.0014219851192291,-0.0014219839688442,0.0014219839688311,-0.0014219851013572,0.0014219851013387,-0.0011632356571322,0.001163235657095,-0.0011632356996512,0.0011632356996174,-5.6100050887836e-15,-8.7370987241203e-15,8.2175085210076e-10,-8.2174025234053e-10,-0.0013413838092113,0.0013413838092277,-0.0014219836790109,0.0014219842362062,-0.0014219853911419,0.0014219848340182,-0.0014219836790054,0.0014219842361972,-0.0014219853911472,0.0014219848340099,-0.0011632348109903,0.0011632364504571,-0.0011632365457504,0.0011632349063443,-0.0013586036812291,0.0013586031884919,-0.0013586036812113,0.0013586031884863,-3.9867621245543e-09,-3.9867633469105e-09,-0.00071215106046276,0.00071214100452545,-4.7037802565361e-09,-3.1643602015856e-09,-0.00075663756952937,0.00075662779052709,-0.000756637055129,0.00075662830488394,-0.00075663756952348,0.00075662779052947,-0.00075663705513367,0.00075662830488708,-0.00084926349810917,0.00084925617180064,-0.00084926349807315,0.00084925617179139,0.52694121020036,120135,2834,0.0055732181910955,0.0055732181911165,0.00296458068812,40.763314069894,0.00024130651255915,0.00024130651255915,0.00024130651255915,4185316.7227416,0.014211233646388
8419200,0.90788581470174,0.014632397229247,0.005525649812609,0.0055256498126284,0.0035810976040094,-0.0014302344996375,0.001430234499615,-1.8117917098305e-14,-1.8087565084361e-14,-8.9480795834874e-15,-4.4905686985617e-15,-0.0015218433211541,0.0015218433211296,-0.0015218441426433,0.0015218441426331,-0.0015218433332823,0.0015218433332545,-0.0015218441305249,0.0015218441304967,-0.0012307601652276,0.0012307601651724,-0.0012307601331508,0.0012307601330753,8.9229038819996e-15,9.0612695424317e-15,2.4751703556548e-11,-2.471180472574e-11,-0.0014302344996128,0.0014302344996523,-0.0015218432763715,0.0015218433304019,-0.0015218441873892,0.0015218441334587,-0.0015218432763556,0.0015218433303877,-0.0015218441873935,0.0015218441334536,-0.0012307600757819,0.0012307601415423,-0.0012307602225136,0.001230760156824,-0.0014487434361907,0.001448743464973,-0.0014487434361711,0.0014487434649654,-2.6328174204989e-09,-2.6328184425568e-09,-0.00072586754435642,0.0007258610790431,-2.6231338055334e-09,-2.6239269112458e-09,-0.00077685544020753,0.00077684929669263,-0.00077685542963511,0.00077684930721751,-0.00077685544020229,0.0007768492966905,-0.00077685542965741,0.00077684930722207,-0.00087689432036978,0.0008768893830712,-0.00087689432031743,0.00087688938301785,0.47156008474719,120135,2834,0.0059412196037785,0.0059412196038047,0.0030219856841004,41.433537875795,0.00024666830300636,0.00024666830300636,0.00024666830300636,3748693.9650368,0.01501628946431
9419200,0.94974815946977,0.015040923408563,0.0056846581984519,0.0056846581984742,0.0036716070116368,-0.001472900887855,0.0014729008878393,-9.7802894541648e-15,-9.7212324347868e-15,-1.0027487784778e-14,-3.8737640121097e-15,-0.0015710505430958,0.0015710505430762,-0.0015710511847075,0.0015710511846981,-0.0015710505542601,0.0015710505542464,-0.0015710511735584,0.0015710511735377,-0.0012592948128906,0.0012592948128522,-0.0012592947621039,0.0012592947620692,-2.257636913095e-15,-4.0558692025976e-15,4.8108652486536e-10,-4.8106486687942e-10,-0.0014729008878399,0.0014729008878655,-0.0015710503423317,0.0015710507029162,-0.0015710513854288,0.0015710510249346,-0.001571050342325,0.0015710507029077,-0.001571051385434,0.0015710510249266,-0.001259294271829,0.0012592952297562,-0.0012592953031131,0.0012592943452665,-0.0014927416013953,0.0014927413235818,-0.0014927416013778,0.0014927413235765,-1.9728223695315e-09,-1.9728233754824e-09,-0.00072483341923109,0.00072482862011672,-2.4280134004455e-09,-1.5088790594422e-09,-0.00077934080560292,0.00077933584661238,-0.00077934048743958,0.00077933616472831,-0.00077934080559794,0.00077933584661343,-0.00077934048744555,0.00077933616473111,-0.00088521870527782,0.0008852154406728,-0.00088521870524079,0.00088521544065959,0.40621133923259,120135,2834,0.0061178759562256,0.0061178759562486,0.0030179771357523,41.145303276284,0.00024436242621027,0.00024436242621027,0.00024436242621027,3402108.3391056,0.015370935723216
10419200,0.97068278409058,0.015261865386133,0.0057690404758693,0.0057690404758915,0.0037237844343723,-0.0014899927147249,0.0014899927147101,-9.2860692581349e-15,-9.2061893454702e-15,-1.0358301208067e-14,-2.6260374234181e-15,-0.0015906403854614,0.0015906403854423,-0.00159064065927,0.0015906406592611,-0.0015906403943782,0.0015906403943661,-0.0015906406503671,0.0015906406503481,-0.0012701573980229,0.0012701573979861,-0.0012701572420817,0.0012701572420481,-1.6591257854344e-15,-5.0443952423166e-15,1.1741038461244e-09,-1.1740825553614e-09,-0.0014899927147104,0.0014899927147356,-0.0015906399387634,0.001590640771955,-0.0015906411059247,0.0015906402728237,-0.0015906399387575,0.0015906407719459,-0.0015906411059303,0.0015906402728154,-0.001270156166825,0.0012701584786207,-0.0012701584732301,0.0012701561615127,-0.0015109830681387,0.0015109823243407,-0.0015109830681229,0.001510982324334,-4.0903799630286e-10,-4.0903901381537e-10,-0.0007183878978142,0.00071838703295238,-1.5873220538861e-09,7.444964274246e-10,-0.0007745135543644,0.00077451161497752,-0.00077451276171573,0.00077451240757854,-0.00077451355435923,0.00077451161497842,-0.00077451276172147,0.00077451240758129,-0.00088380083414964,0.00088380132761182,-0.00088380083411291,0.0008838013275984,0.43665130715676,120135,2834,0.0061886248242961,0.0061886248243187,0.0029913628503152,38.098685486088,0.0002199894838887,0.0002199894838887,0.0002199894838887,3224051.1832028,0.015487601809891
11419200,0.98277026551766,0.015380246910978,0.0058140468688055,0.0058140468688276,0.0037521531733448,-0.0015032998235488,0.0015032998235341,-9.3894190420464e-15,-9.3210093672091e-15,-1.0800170062218e-14,-2.0072033871967e-15,-0.0016044913475259,0.0016044913475065,-0.0016044919209553,0.0016044919209461,-0.0016044913603856,0.0016044913603739,-0.0016044919081093,0.0016044919080907,-0.001281000447177,0.0012810004471403,-0.0012810003777387,0.0012810003777052,-1.3974278977723e-15,-5.83890641402e-15,1.4198665227217e-09,-1.4198453670001e-09,-0.0015032998235346,0.0015032998235593,-0.0016044908481973,0.0016044918238025,-0.0016044924202408,0.0016044914447262,-0.0016044908481917,0.0016044918237927,-0.0016044924202466,0.0016044914447173,-0.0012809989980064,0.0012810017990768,-0.00128100182686,0.0012809990258667,-0.0015250776842411,0.0015250767831425,-0.0015250776842261,0.0015250767831345,-1.6302295358681e-09,-1.6302305393408e-09,-0.00071390170622653,0.00071389773186467,-3.0028136348547e-09,-2.1744300330963e-10,-0.00077487239969333,0.00077486754564937,-0.00077487146310607,0.00077486848218796,-0.00077487239968819,0.0007748675456504,-0.0007748714631121,0.00077486848219066,-0.00088111190856358,0.0008811099785791,-0.00088111190852641,0.00088110997856523,0.40445605707229,120135,2834,0.0062436779233894,0.0062436779234123,0.0029728586609694,37.62788155135,0.0002162230524108,0.0002162230524108,0.0002162230524108,2980324.251845,0.015580642417815
12419200,0.98970225011294,0.015456607800049,0.0058427283293981,0.0058427283294202,0.0037711511412311,-0.0015096388693896,0.0015096388693751,-9.26889331226e-15,-9.200130707028e-15,-1.1030927718612e-14,-1.6074803043448e-15,-0.0016116561134931,0.0016116561134738,-0.0016116566343749,0.0016116566343657,-0.0016116561263576,0.0016116561263462,-0.0016116566215239,0.0016116566215056,-0.0012849873950565,0.0012849873950203,-0.001284987311942,0.0012849873119091,-1.1037309876583e-15,-6.1818027632204e-15,1.622945773144e-09,-1.6229245118621e-09,-0.0015096388693754,0.0015096388694002,-0.0016116555466761,0.0016116566574984,-0.0016116572011484,0.0016116560904173,-0.0016116555466706,0.0016116566574885,-0.0016116572011545,0.0016116560904083,-0.0012849857475058,0.0012849889465813,-0.001284988959444,0.0012849857604452,-0.0015319080473223,0.0015319070108068,-0.0015319080473079,0.0015319070107983,-1.4148181074393e-09,-1.4148191088356e-09,-0.00071109065533972,0.00071108723101466,-2.9910588941745e-09,2.0224099283826e-10,-0.00077264492822923,0.00077264042494068,-0.0007726438558071,0.00077264149731372,-0.00077264492822412,0.0007726404249416,-0.0007726438558131,0.00077264149731653,-0.00088041246705262,0.00088041113000132,-0.00088041246701553,0.00088041112998751,0.45322610794666,120135,2834,0.0062699129025622,0.0062699129025849,0.0029612471140628,36.803752297462,0.0002096300183797,0.0002096300183797,0.0002096300183797,2895058.9446111,0.015622139792671
13419200,0.9935735214383,0.015495677912609,0.0058573975464387,0.0058573975464607,0.0037808828197092,-0.0015115024451124,0.0015115024450979,-9.2161890399864e-15,-9.1504263431093e-15,-1.1287302239488e-14,-1.2635202238539e-15,-0.0016133150760394,0.0016133150760199,-0.0016133154480884,0.0016133154480791,-0.0016133150882265,0.0016133150882154,-0.0016133154359146,0.0016133154358966,-0.0012863170086504,0.0012863170086145,-0.001286316863941,0.0012863168639082,-1.0681438395271e-15,-6.7494906712041e-15,1.9157189245809e-09,-1.91569806298e-09,-0.0015115024450985,0.0015115024451229,-0.001613314406477,0.0016133157162776,-0.0016133161176077,0.0016133148078979,-0.0016133144064717,0.0016133157162675,-0.001613316117614,0.0016133148078886,-0.0012863150698764,0.0012863188412383,-0.0012863188026666,0.0012863150313803,-0.0015341896164218,0.0015341883833527,-0.001534189616408,0.0015341883833435,-7.6520129279827e-10,-7.6520229156584e-10,-0.00070339831361264,0.00070339652920039,-2.6444311943687e-09,1.1432377092698e-09,-0.00076862949649805,0.00076862619199829,-0.00076862822470256,0.00076862746374437,-0.00076862949649294,0.00076862619199913,-0.00076862822470857,0.00076862746374714,-0.00087315004694633,0.00087315027937641,-0.0008731500469092,0.00087315027936257,0.4150894025916,120135,2834,0.0062775933486607,0.0062775933486836,0.0029293779888054,34.79335407975,0.000193546832638,0.000193546832638,0.000193546832638,2745988.4493563,0.015605383915933
14419200,0.9958088005372,0.015516527853556,0.0058651932554335,0.0058651932554555,0.0037861413426668,-0.0015092737615381,0.0015092737615239,-9.0835460333157e-15,-9.0191362362849e-15,-1.1350417958405e-14,-9.3050098559832e-16,-0.0016118863342308,0.0016118863342115,-0.0016118866808062,0.001611886680797,-0.0016118863467956,0.0016118863467849,-0.0016118866682543,0.0016118866682366,-0.0012823699180916,0.0012823699180561,-0.0012823697746146,0.0012823697745822,-8.139751336184e-16,-6.8937005349932e-15,2.1674702863686e-09,-2.1674493031726e-09,-0.0015092737615243,0.0015092737615487,-0.0016118855836402,0.0016118870591209,-0.0016118874313537,0.0016118859559638,-0.0016118855836351,0.0016118870591107,-0.0016118874313601,0.0016118859559544,-0.0012823677351591,0.0012823720007596,-0.0012823719574994,0.0012823676919741,-0.0015321165333408,0.0015321151331185,-0.0015321165333274,0.0015321151331088,-6.5856172061334e-10,-6.5856271609637e-10,-0.00069775650102796,0.00069775498529687,-2.7856371769023e-09,1.5041958853482e-09,-0.00076209426288926,0.00076209105127886,-0.00076209282453355,0.00076209248958512,-0.00076209426288414,0.00076209105127977,-0.00076209282453959,0.000762092489588,-0.00086896278645377,0.00086896341136657,-0.00086896278641672,0.00086896341135263,0.38312450045663,120135,2834,0.0062683687029803,0.0062683687030029,0.0029059595099541,32.642577467282,0.00017634061973826,0.00017634061973826,0.00017634061973826,2736144.9536017,0.015562861787052
15419200,0.99697269465704,0.015531031949369,0.005870577275241,0.005870577275263,0.0037898773988646,-0.0015001579367903,0.0015001579367762,-9.1193684683766e-15,-9.0651348310594e-15,-1.1384622795824e-14,-8.065341844637e-16,-0.0016031535959564,0.0016031535959372,-0.0016031535235681,0.0016031535235589,-0.0016031536055562,0.0016031536055458,-0.001603153513981,0.0016031535139632,-0.0012721832794758,0.0012721832794404,-0.0012721830021633,0.0012721830021311,-5.9686411915204e-16,-6.8321513468044e-15,2.6911784055244e-09,-2.6911572243342e-09,-0.0015001579367764,0.001500157936801,-0.0016031526489348,0.001603154489549,-0.0016031544705459,0.0016031526300234,-0.0016031526489297,0.0016031544895386,-0.0016031544705522,0.0016031526300136,-0.0012721805662261,0.0012721858522414,-0.0012721857153656,0.0012721804294252,-0.0015232500590432,0.00152324830433,-0.0015232500590298,0.00152324830432,1.1116207310182e-09,1.1116197453681e-09,-0.00068538911887699,0.00068539207802852,-1.5803676103249e-09,3.7905804813977e-09,-0.00074942676443992,0.00074942711828548,-0.00074942496052187,0.00074942892215366,-0.00074942676443461,0.00074942711828636,-0.00074942496052809,0.00074942892215709,-0.00085763263596965,0.00085763735156338,-0.00085763263593193,0.00085763735154875,0.51103778709309,120135,2834,0.0062306220106398,0.0062306220106624,0.002854606115832,27.066362998677,0.00013173090398941,0.00013173090398941,0.00013173090398941,2750385.7685717,0.015434048793428
16419200,0.99771995833864,0.015539504443321,0.0058737377126837,0.0058737377127058,0.0037920290179313,-0.0014987076305949,0.0014987076305805,-9.1804842483903e-15,-9.1218978028719e-15,-1.158623428379e-14,-8.2309250214788e-16,-0.0016005347407544,0.0016005347407347,-0.0016005350347176,0.0016005350347082,-0.0016005347544563,0.0016005347544455,-0.0016005350210289,0.0016005350210111,-0.0012719189765305,0.0012719189764948,-0.0012719187940348,0.0012719187940025,-1.0216158491606e-15,-7.445546498169e-15,2.7968768946736e-09,-2.7968565424984e-09,-0.0014987076305814,0.0014987076306051,-0.0016005337886768,0.0016005356775352,-0.0016005359867524,0.0016005340979841,-0.0016005337886717,0.0016005356775248,-0.001600535986759,0.0016005340979745,-0.0012719161825083,0.0012719216839994,-0.0012719215880094,0.0012719160865925,-0.0015221283196536,0.0015221265017585,-0.0015221283196403,0.0015221265017484,-3.570579309401e-10,-3.5705892088918e-10,-0.00067475371534099,0.00067475294025319,-3.1013265779401e-09,2.4409604874356e-09,-0.00074472571806194,0.00074472267525475,-0.00074472386421706,0.00074472452905031,-0.00074472571805682,0.00074472267525559,-0.00074472386422314,0.00074472452905302,-0.00084609244784946,0.00084609412545421,-0.00084609244781233,0.00084609412544052,0.46538451425637,120135,2834,0.0062245626749946,0.0062245626750176,0.0028105072639001,24.416724872507,0.00011053379898006,0.00011053379898006,0.00011053379898006,2561102.5748888,0.015376980400632
17419200,0.99822180138088,0.015545941505952,0.0058761176530641,0.0058761176530862,0.003793706199802,-0.0014940332735101,0.0014940332734959,-9.0596644099417e-15,-9.0029014381291e-15,-1.1587469540171e-14,-6.6739137635745e-16,-0.0015969049504962,0.0015969049504768,-0.0015969052601921,0.0015969052601828,-0.0015969049645827,0.0015969049645722,-0.0015969052461183,0.001596905246101,-0.0012652013075157,0.0012652013074804,-0.0012652011459322,0.0012652011459001,-7.2244851792898e-16,-7.3118030540681e-15,2.8700322880805e-09,-2.8700115105191e-09,-0.0014940332734964,0.0014940332735206,-0.0015969039769626,0.001596905912485,-0.0015969062336827,0.001596904298251,-0.0015969039769576,0.0015969059124746,-0.0015969062336892,0.0015969042982414,-0.0012651984449283,0.0012652040905791,-0.0012652040084724,0.0012651983628967,-0.001517558136496,0.0015175562705164,-0.0015175581364831,0.0015175562705062,-4.5346257126541e-10,-4.5346355988187e-10,-0.00066853664730074,0.00066853563733304,-3.2659855498686e-09,2.4197863068364e-09,-0.00073629254906987,0.00073628929545099,-0.00073629064825508,0.00073629119621635,-0.00073629254906477,0.00073628929545179,-0.00073629064826111,0.00073629119621928,-0.00084167593617891,0.00084167746028132,-0.00084167593614191,0.00084167746026731,0.52521873377382,120135,2834,0.0062052219200578,0.0062052219200806,0.002784676488414,21.978749782136,9.1029998257091e-05,9.1029998257091e-05,9.1029998257091e-05,2583432.7192003,0.015311471992195
18419200,0.99853368502341,0.015549786802465,0.0058775429650489,0.0058775429650709,0.0037947008723452,-0.0014872700100726,0.0014872700100584,-9.0560762842623e-15,-9.002489686002e-15,-1.1634232817468e-14,-6.7515584504062e-16,-0.0015898384193638,0.0015898384193443,-0.0015898384854486,0.0015898384854393,-0.0015898384316648,0.0015898384316541,-0.0015898384731608,0.0015898384731432,-0.0012583661971916,0.0012583661971565,-0.0012583659402555,0.0012583659402235,-7.9438749671315e-16,-7.4178110173439e-15,3.0934711098916e-09,-3.0934502521668e-09,-0.0014872700100589,0.0014872700100831,-0.0015898373578903,0.0015898394523037,-0.0015898395468793,0.0015898374525565,-0.0015898373578852,0.0015898394522933,-0.001589839546886,0.001589837452547,-0.001258363104833,0.0012583691846287,-0.0012583690325666,0.0012583629528458,-0.0015111011763997,0.0015110991581325,-0.0015111011763868,0.0015110991581224,5.7497591627796e-10,5.7497493158699e-10,-0.00065570442258001,0.00065570602626767,-2.4857796553584e-09,3.666377817792e-09,-0.00072602199387954,0.00072602081586809,-0.00072601993436079,0.00072602287533711,-0.00072602199387433,0.00072602081586881,-0.00072601993436671,0.00072602287533993,-0.00082895856582086,0.00082896242081488,-0.000828958565784,0.00082896242080097,0.50516361584657,120135,2834,0.0061771903643222,0.0061771903643452,0.0027314172626775,17.483368764488,5.5066950115906e-05,5.5066950115906e-05,5.5066950115906e-05,2497173.525617,0.015200489051595
19419200,0.99879183985453,0.015553910373321,0.0058790606173576,0.0058790606173797,0.0037957891385837,-0.0014875014092796,0.0014875014092654,-9.0164304365922e-15,-8.9633144121915e-15,-1.1598116273744e-14,-6.3045132837997e-16,-0.0015902595945387,0.0015902595945192,-0.0015902596541031,0.0015902596540939,-0.0015902596068521,0.0015902596068416,-0.0015902596418026,0.0015902596417851,-0.0012582890939269,0.0012582890938918,-0.0012582888452644,0.0012582888452324,-6.8056744442585e-16,-7.3122264671441e-15,3.1100770260966e-09,-3.1100558485004e-09,-0.0014875014092659,0.0014875014092901,-0.001590258527584,0.0015902606330343,-0.0015902607210146,0.0015902586156553,-0.001590258527579,0.0015902606330239,-0.0015902607210212,0.0015902586156458,-0.0012582859854687,0.0012582920978963,-0.0012582919536753,0.0012582858413229,-0.0015113196580069,0.0015113176287913,-0.0015113196579941,0.0015113176287812,-1.3426951312517e-09,-1.3426961155553e-09,-0.00065489188048344,0.00065488848075725,-4.3466119474151e-09,1.7409946952777e-09,-0.00072464772596258,0.00072464216847447,-0.00072464569027751,0.00072464420410985,-0.00072464772595736,0.00072464216847524,-0.00072464569028349,0.00072464420411264,-0.00082848681977401,0.00082848628633106,-0.00082848681973706,0.00082848628631725,0.65325215552177,120135,2834,0.0061781516946852,0.006178151694708,0.0027280288050095,17.551531866274,5.5612254930195e-05,5.5612254930195e-05,5.5612254930195e-05,2484675.9728262,0.015198997850493
20419200,0.99901649095298,0.015557755629023,0.0058804770010044,0.0058804770010265,0.0037968016269919,-0.0014922484396901,0.0014922484396757,-9.1381326010276e-15,-9.0937810147616e-15,-1.1748376389283e-14,-6.8409674837274e-16,-0.0015943241345144,0.0015943241344946,-0.0015943248486241,0.0015943248486146,-0.0015943241523419,0.0015943241523313,-0.0015943248308096,0.001594324830792,-0.0012633917230558,0.0012633917230203,-0.0012633916941595,0.0012633916941273,-8.4950346001713e-16,-7.5881565142331e-15,2.8360543018083e-09,-2.8360334266072e-09,-0.0014922484396765,0.0014922484397004,-0.0015943232006022,0.0015943250922255,-0.0015943257824935,0.0015943238909604,-0.0015943232005971,0.001594325092215,-0.0015943257825002,0.0015943238909506,-0.0012633889150683,0.0012633945026407,-0.0012633945020992,0.0012633889146017,-0.0015164453707395,0.001516443534827,-0.0015164453707268,0.0015164435348167,-2.1677131844768e-09,-2.1677141598792e-09,-0.00065219537302052,0.00065219000227425,-4.8946654188754e-09,6.8379248399134e-10,-0.00072631331593178,0.00072630628468216,-0.00072631145740028,0.00072630814316344,-0.0007263133159265,0.00072630628468302,-0.00072631145740624,0.00072630814316623,-0.00082546782687128,0.00082546568604382,-0.00082546782683424,0.00082546568603008,0.70012779305903,120135,2834,0.0061977677289327,0.0061977677289559,0.0027169030526508,18.59606351858,6.3968508148643e-05,6.3968508148643e-05,6.3968508148643e-05,2301802.7887178,0.015227543929347
21419200,0.99916937044562,0.015560187416611,0.0058813693213126,0.0058813693213346,0.0037974487739635,-0.0014866219430027,0.0014866219429886,-9.0569586102491e-15,-9.0137834586321e-15,-1.1684554809577e-14,-6.1277539777928e-16,-0.001588788074489,0.0015887880744693,-0.0015887887889266,0.0015887887889172,-0.0015887880922903,0.0015887880922801,-0.0015887887711371,0.0015887887711198,-0.0012575296116928,0.0012575296116576,-0.0012575295752515,0.0012575295752194,-1.020615879709e-15,-7.7616392659247e-15,2.8175470844363e-09,-2.8175267625025e-09,-0.0014866219429896,0.0014866219430128,-0.0015887871466022,0.0015887890259902,-0.0015887897167711,0.0015887878374719,-0.0015887871465972,0.0015887890259799,-0.0015887897167777,0.0015887878374623,-0.0012575268217912,0.0012575323729809,-0.0012575323651063,0.0012575268139902,-0.0015108984311324,0.0015108966074766,-0.0015108984311198,0.0015108966074666,-2.8477951806896e-10,-2.8478048935741e-10,-0.00064228390955726,0.00064228345269462,-3.0652381274028e-09,2.5720827972537e-09,-0.00071699425977788,0.00071699155006403,-0.00071699237940211,0.00071699343038827,-0.00071699425977261,0.00071699155006492,-0.00071699237940835,0.0007169934303913,-0.00081618148941392,0.00081618365969985,-0.00081618148937649,0.0008161836596857,0.64990944923706,120135,2834,0.0061744551457768,0.0061744551457999,0.0026757604668522,15.22963057482,3.703704459856e-05,3.703704459856e-05,3.703704459856e-05,2228611.276215,0.01513844321771
22419200,0.99929589504796,0.015562252887224,0.0058821245767512,0.0058821245767732,0.0037980037337001,-0.0014854502609072,0.001485450260893,-9.0579585797007e-15,-9.01613632793e-15,-1.1683525429259e-14,-6.0892257430393e-16,-0.0015881368131894,0.0015881368131698,-0.0015881371635893,0.0015881371635799,-0.0015881368285758,0.0015881368285653,-0.0015881371482158,0.0015881371481983,-0.0012554266747966,0.0012554266747613,-0.0012554263589969,0.0012554263589648,-5.916878066966e-16,-7.3401333007308e-15,2.8412024030163e-09,-2.8411809502178e-09,-0.0014854502608934,0.0014854502609178,-0.0015881358589902,0.0015881377686311,-0.0015881381177453,0.0015881362081955,-0.0015881358589853,0.0015881377686206,-0.0015881381177519,0.0015881362081858,-0.0012554238507549,0.0012554294459293,-0.0012554291829905,0.0012554235878917,-0.0015097475236519,0.0015097456813098,-0.0015097475236392,0.0015097456812995,-1.2872063145263e-09,-1.2872072880539e-09,-0.00063996531139078,0.00063996220863015,-4.0264627392537e-09,1.5511502531157e-09,-0.00071332077552651,0.00071331571862052,-0.00071331891544947,0.00071331757864761,-0.00071332077552123,0.00071331571862128,-0.00071331891545543,0.00071331757865035,-0.00081443816352623,0.00081443798790334,-0.00081443816348926,0.00081443798788964,0.66642562144511,120135,2834,0.0061696164796257,0.0061696164796485,0.0026661063038937,14.85946693061,3.4075735444879e-05,3.4075735444879e-05,3.4075735444879e-05,2251110.9560206,0.015118814403894
23419200,0.99940824066565,0.015563982255791,0.0058827581848635,0.0058827581848856,0.0037984658860414,-0.0014875389505944,0.0014875389505802,-9.0157245758029e-15,-8.9714906330018e-15,-1.1662496659909e-14,-5.7907054508646e-16,-0.0015905416273709,0.0015905416273514,-0.0015905421211909,0.0015905421211815,-0.0015905416433284,0.001590541643318,-0.0015905421052465,0.001590542105229,-0.0012567906061686,0.0012567906061333,-0.0012567904678573,0.0012567904678252,-5.7857056036065e-16,-7.3307447433353e-15,2.8250397264595e-09,-2.8250183571063e-09,-0.0014875389505806,0.001487538950605,-0.0015905406830512,0.0015905425777889,-0.0015905430654673,0.001590541170821,-0.0015905406830463,0.0015905425777784,-0.0015905430654739,0.0015905411708114,-0.0012567877998876,0.0012567933628179,-0.0012567932740902,0.0012567877112355,-0.0015119956844094,0.0015119938526413,-0.0015119956843967,0.0015119938526309,-1.9352775907627e-09,-1.9352785650977e-09,-0.00064012579046722,0.00064012095918057,-4.6525481452155e-09,8.9248414970715e-10,-0.00071335849896397,0.00071335190295184,-0.0007133566495955,0.00071335375227064,-0.00071335849895871,0.00071335190295259,-0.00071335664960149,0.00071335375227342,-0.00081512791600079,0.00081512616251384,-0.00081512791596376,0.00081512616250008,0.62875729639221,120135,2834,0.006178266206311,0.0061782662063338,0.0026667784995552,15.704712668586,4.0837701348688e-05,4.0837701348688e-05,4.0837701348688e-05,2205648.9954761,0.015137058226248
24419200,0.99951428633595,0.015565703445015,0.005883387080942,0.005883387080964,0.0037989292831085,-0.0014916507874511,0.0014916507874373,-8.7947313269949e-15,-8.7523796796322e-15,-1.1570940633353e-14,-4.3951598485307e-16,-0.0015955923192367,0.0015955923192175,-0.0015955931684329,0.0015955931684239,-0.001595592337874,0.001595592337864,-0.0015955931498083,0.0015955931497912,-0.0012586683490619,0.0012586683490271,-0.0012586683715419,0.0012586683715102,-6.6456793319994e-16,-7.4656946648255e-15,2.4946358103997e-09,-2.4946149958474e-09,-0.0014916507874377,0.0014916507874618,-0.0015955915048364,0.0015955931650584,-0.0015955939827903,0.001595592322659,-0.0015955915048316,0.001595593165048,-0.001595593982797,0.0015955923226494,-0.0012586658812011,0.0012586708007036,-0.0012586708393565,0.0012586659199283,-0.0015164663325415,0.0015164647252454,-0.001516466332529,0.0015164647252352,-2.751683520387e-09,-2.7516844937805e-09,-0.00064465912357886,0.00064465229270679,-5.1259575502507e-09,-2.401423041998e-10,-0.00071560754999454,0.00071559949166253,-0.00071560592399415,0.00071560111761328,-0.0007156075499891,0.00071559949166314,-0.00071560592399995,0.00071560111761589,-0.00082135797402153,0.00082135438378903,-0.00082135797398492,0.00082135438377557,0.66255127740754,120135,2834,0.0061953111203604,0.0061953111203833,0.0026856085172992,17.878970344223,5.8231762753781e-05,5.8231762753781e-05,5.8231762753781e-05,2210768.2540507,0.015190776900875
25419200,0.99961097278189,0.015567551617834,0.0058840609904327,0.0058840609904547,0.0037994296369469,-0.0014960919903514,0.0014960919903374,-8.8802581259746e-15,-8.8397887740502e-15,-1.163740919102e-14,-4.9730833698344e-16,-0.0015999533823204,0.0015999533823009,-0.0015999542305829,0.0015999542305736,-0.0015999534008616,0.0015999534008514,-0.0015999542120538,0.0015999542120366,-0.0012631074318006,0.0012631074317656,-0.0012631074526424,0.0012631074526106,-7.7485868154034e-16,-7.5805819524322e-15,2.4731438487232e-09,-2.473123180915e-09,-0.0014960919903381,0.0014960919903618,-0.0015999525743501,0.0015999542207936,-0.0015999550385104,0.0015999533921564,-0.001599952574345,0.0015999542207832,-0.001599955038517,0.0015999533921469,-0.0012631049845752,0.0012631098618727,-0.0012631098998214,0.001263105022598,-0.0015209861241821,0.00152098453111,-0.0015209861241694,0.0015209845310999,-2.7027053872982e-09,-2.7027063586465e-09,-0.00064750712056678,0.0006475004206367,-5.0585653893438e-09,-2.1245012250047e-10,-0.00071932443501803,0.00071931650335351,-0.00071932282195572,0.00071931811636491,-0.00071932443501258,0.000719316503354,-0.00071932282196172,0.00071931811636773,-0.00082411301602886,0.00082410952502603,-0.00082411301599182,0.00082410952501214,0.7799130201726,120135,2834,0.0062136936251106,0.0062136936251334,0.0026974589942746,19.924097809767,7.4592782478133e-05,7.4592782478133e-05,7.4592782478133e-05,2148307.025996,0.015240134630891
26419200,0.99969026118777,0.015569163596414,0.0058846478395643,0.0058846478395863,0.0037998679172635,-0.0014988764456897,0.0014988764456756,-9.0026073294669e-15,-8.9653731728272e-15,-1.1719200809989e-14,-5.5895351258917e-16,-0.0016018560471872,0.0016018560471676,-0.0016018566838141,0.0016018566838046,-0.0016018560632954,0.001601856063285,-0.0016018566677188,0.0016018566677013,-0.0012670196551678,0.0012670196551326,-0.0012670195967584,0.0012670195967264,-8.1679857677592e-16,-7.6551668177577e-15,2.3787678220418e-09,-2.3787470210216e-09,-0.0014988764456763,0.0014988764457002,-0.0016018552526899,0.0016018568492865,-0.0016018574782682,0.0016018558817623,-0.0016018552526851,0.0016018568492762,-0.001601857478275,0.0016018558817526,-0.0012670172859884,0.0012670219736023,-0.0012670219658906,0.0012670172783513,-0.0015239025888645,0.0015239010546161,-0.0015239025888519,0.0015239010546058,-1.9064528444699e-09,-1.9064538138505e-09,-0.00064530502203038,0.00064530035016,-4.1974101437513e-09,4.803887503799e-10,-0.00072085781174453,0.00072085167020637,-0.00072085625033134,0.00072085323156941,-0.00072085781173919,0.00072085167020709,-0.00072085625033744,0.00072085323157223,-0.00082104538731732,0.00082104351475835,-0.00082104538728032,0.00082104351474452,0.82922923068302,120135,2834,0.006225188731644,0.0062251887316671,0.0026883704504201,20.393542576069,7.8348340608556e-05,7.8348340608556e-05,7.8348340608556e-05,2027154.5108789,0.01525425717073
27419200,0.99975940491969,0.015570431223895,0.0058851083578146,0.0058851083578366,0.0038002145082434,-0.001502937345944,0.0015029373459297,-9.1071335480274e-15,-9.0639583964104e-15,-1.1775581440541e-14,-5.4339516435661e-16,-0.0016061298018865,0.0016061298018668,-0.0016061306077135,0.0016061306077039,-0.0016061298192238,0.0016061298192132,-0.0016061305903891,0.0016061305903715,-0.0012704599967648,0.0012704599967294,-0.0012704600014071,0.0012704600013749,-7.0980184545261e-16,-7.6171112822583e-15,2.2070968433119e-09,-2.2070757134696e-09,-0.0015029373459304,0.0015029373459545,-0.0016061290738708,0.0016061305491771,-0.0016061313356861,0.0016061298604706,-0.0016061290738659,0.0016061305491666,-0.0016061313356928,0.0016061298604609,-0.0012704578028097,0.0012704621564974,-0.001270462195314,0.0012704578417014,-0.0015280749440065,0.0015280735264673,-0.0015280749439938,0.0015280735264567,-2.6211335003355e-09,-2.6211344754645e-09,-0.00064683584325317,0.00064682935945853,-4.7235389742002e-09,-4.0254003306066e-10,-0.00072273198628385,0.00072272440372546,-0.00072273054593978,0.00072272584401914,-0.0007227319862787,0.00072272440372626,-0.00072273054594597,0.00072272584402192,-0.00082307271275861,0.00082306921185986,-0.0008230727127213,0.00082306921184596,0.74718867332313,120135,2834,0.0062419984289112,0.0062419984289343,0.0026947500843666,22.250591102632,9.320472882106e-05,9.320472882106e-05,9.320472882106e-05,1959283.6328457,0.015294867367883
28419200,0.99981623687511,0.015571616798304,0.0058855368734895,0.0058855368735115,0.0038005430513028,-0.0015043658350875,0.0015043658350734,-8.9984309864631e-15,-8.9513736005045e-15,-1.1683025444533e-14,-4.5586842647367e-16,-0.0016085751902322,0.0016085751902129,-0.001608575912883,0.0016085759128737,-0.0016085752066003,0.00160857520659,-0.0016085758965276,0.0016085758965104,-0.0012701200826181,0.001270120082583,-0.0012701200639216,0.0012701200638896,-4.5286851811881e-16,-7.3513383237743e-15,2.0887024628568e-09,-2.0886811263136e-09,-0.0015043658350737,0.0015043658350981,-0.0016085744942499,0.0016085758963328,-0.0016085766088219,0.0016085752068305,-0.001608574494245,0.0016085758963223,-0.0016085766088287,0.0016085752068208,-0.0012701179994568,0.0012701221186919,-0.0012701221470355,0.0012701180278759,-0.0015295963194687,0.0015295949787953,-0.0015295963194561,0.0015295949787849,-2.3006390452012e-09,-2.3006400238206e-09,-0.00064948594424077,0.00064948029085895,-4.2972307930196e-09,-2.0420908771431e-10,-0.00072222160727101,0.00072221482421395,-0.00072222024128965,0.00072221619014526,-0.00072222160726572,0.0007222148242147,-0.00072222024129564,0.00072221619014803,-0.00082714614594673,0.00082714325224484,-0.0008271461459097,0.0008271432522311,0.8493285419621,120135,2834,0.0062479399839671,0.0062479399839898,0.0027057343826651,23.44031248483,0.00010272249987864,0.00010272249987864,0.00010272249987864,1995859.4893529,0.015318076548205
29419200,0.99986241656424,0.01557230635292,0.0058857879785406,0.0058857879785626,0.0038007303958172,-0.0015082806937171,0.0015082806937029,-9.0450766202945e-15,-8.9947840390513e-15,-1.1769611034697e-14,-5.0227877337531e-16,-0.0016117746507282,0.0016117746507085,-0.0016117753909237,0.0016117753909143,-0.0016117746669655,0.0016117746669551,-0.0016117753746994,0.001611775374682,-0.001275000924577,0.0012750009245418,-0.0012750009073266,0.0012750009072945,-5.9904052325263e-16,-7.5413082211516e-15,2.0069328366684e-09,-2.0069113663236e-09,-0.0015082806937034,0.0015082806937277,-0.00161177398112,0.0016117753292075,-0.0016117760604885,0.0016117747124924,-0.0016117739811151,0.0016117753291969,-0.0016117760604953,0.0016117747124826,-0.0012749989203859,0.0012750028794073,-0.00127500291147,0.0012749989525241,-0.0015336613485116,0.001533660062331,-0.0015336613484991,0.0015336600623205,-2.3801382670726e-09,-2.380139248468e-09,-0.00064991791910515,0.00064991206118384,-4.296131299976e-09,-3.6635039757036e-10,-0.00072554865439187,0.00072554173796222,-0.0007255473424645,0.00072554304983919,-0.00072554865438657,0.00072554173796287,-0.00072554734247051,0.00072554304984199,-0.00082670568035673,0.00082670256149284,-0.00082670568031969,0.00082670256147904,0.60881578646039,120135,2834,0.0062641241930668,0.0062641241930897,0.0027075674735663,24.779144175546,0.00011343315340436,0.00011343315340436,0.00011343315340436,1894316.2208832,0.015352810289413
30419200,0.99989915238474,0.015572770896604,0.0058859565566672,0.0058859565566892,0.003800857783248,-0.0015080521919394,0.0015080521919259,-8.6894404259126e-15,-8.6296187240128e-15,-1.1511354218383e-14,-3.0993170826965e-16,-0.001613589679784,0.0016135896797652,-0.0016135904234308,0.001613590423422,-0.001613589696032,0.0016135896960222,-0.0016135904071951,0.0016135904071783,-0.0012716756642174,0.0012716756641829,-0.00127167566146,0.0012716756614287,-2.587568010397e-16,-7.1230923094011e-15,1.9070996749069e-09,-1.9070782910912e-09,-0.0015080521919258,0.0015080521919504,-0.0016135890432956,0.001613590325304,-0.0016135910598753,0.0016135897779589,-0.001613589043291,0.0016135903252937,-0.0016135910598822,0.0016135897779493,-0.0012716737586894,0.0012716775213529,-0.0012716775669417,0.0012716738043542,-0.0015332873496047,0.0015332861294833,-0.0015332873495925,0.0015332861294733,-2.4104066879027e-09,-2.4104076774059e-09,-0.00065620548117051,0.00065619956527013,-4.2265381083385e-09,-4.9676153120268e-10,-0.00072417751716085,0.00072417063951258,-0.00072417627219329,0.00072417188443008,-0.00072417751715544,0.00072417063951323,-0.00072417627219917,0.00072417188443289,-0.00083562141802282,0.00083561817742125,-0.00083562141798585,0.00083561817740751,0.51512748248588,120135,2834,0.0062632445261592,0.0062632445261818,0.0027336019838756,26.129827924875,0.000124238623399,0.000124238623399,0.000124238623399,2065676.3820161,0.015377438600933
31419200,0.99992889082796,0.015573255948856,0.0058861325390081,0.0058861325390301,0.0038009908708174,-0.0015118328662581,0.0015118328662446,-8.7139690883435e-15,-8.6469123133525e-15,-1.1457238224531e-14,-2.7207992343922e-16,-0.0016172713827275,0.0016172713827086,-0.0016172722532657,0.001617272253257,-0.001617271399847,0.0016172713998372,-0.0016172722361586,0.0016172722361418,-0.001275997185195,0.0012759971851604,-0.001275997219438,0.0012759972194067,-3.673417191391e-16,-7.2095288347253e-15,1.7377654908948e-09,-1.7377443073781e-09,-0.0015118328662445,0.0015118328662691,-0.0016172708090484,0.0016172719735441,-0.0016172728269014,0.0016172716624975,-0.0016172708090436,0.0016172719735337,-0.0016172728269082,0.0016172716624879,-0.0012759954503597,0.0012759988829301,-0.0012759989542268,0.0012759955217317,-0.0015370482671528,0.0015370471613921,-0.0015370482671405,0.001537047161382,-2.9354344180538e-09,-2.9354354119043e-09,-0.00066389617933516,0.00066388893365011,-4.5700829445443e-09,-1.1892386149296e-09,-0.00073057260931348,0.00073056467463487,-0.00073057148226643,0.0007305658016319,-0.00073057260930822,0.00073056467463545,-0.0007305714822723,0.00073056580163466,-0.00084271536359935,0.00084271089901637,-0.00084271536356256,0.00084271089900278,0.66479676253864,120135,2834,0.0062789137898613,0.0062789137898838,0.0027655113419885,28.437419091453,0.00014269935273162,0.00014269935273162,0.00014269935273162,2125634.9490651,0.015441658664653
32419200,0.99995061857249,0.015573673486118,0.0058862842344079,0.0058862842344299,0.00380110501728,-0.0015154545282011,0.0015154545281871,-8.8953164894814e-15,-8.8262597755872e-15,-1.1624762518543e-14,-4.4410407998403e-16,-0.0016203368020364,0.001620336802017,-0.0016203376689995,0.0016203376689904,-0.0016203368189984,0.0016203368189881,-0.0016203376520508,0.0016203376520335,-0.0012801825543702,0.0012801825543352,-0.00128018258041,0.0012801825803782,-4.2981039899911e-16,-7.2706846525783e-15,1.7269010748253e-09,-1.72687980057e-09,-0.0015154545281872,0.001515454528212,-0.0016203362308549,0.0016203373888881,-0.0016203382401375,0.0016203370821968,-0.00162033623085,0.0016203373888775,-0.0016203382401442,0.0016203370821871,-0.0012801808295346,0.0012801842409126,-0.0012801843051982,0.0012801808938957,-0.0015409404179498,0.0015409393194284,-0.0015409404179372,0.0015409393194181,-2.2911124214568e-09,-2.2911134192636e-09,-0.00066305167852838,0.00066304610603336,-3.9418294455956e-09,-5.4760899230353e-10,-0.00073367460739306,0.00073366814612834,-0.00073367347463983,0.00073366927883232,-0.0007336746073877,0.0007336681461289,-0.00073367347464563,0.00073366927883492,-0.00084139904115888,0.00084139604272565,-0.00084139904112222,0.00084139604271224,0.78355820163571,120135,2834,0.0062938710725645,0.0062938710725873,0.0027620758942867,29.29503466645,0.0001495602773316,0.0001495602773316,0.0001495602773316,1967390.4014844,0.015468559797192
33419200,0.99996572119946,0.015573973664848,0.0058863928095954,0.0058863928096174,0.0038011880456349,-0.0015167006956234,0.0015167006956093,-8.9668437161384e-15,-8.9032574233619e-15,-1.1696583853863e-14,-5.1524896538014e-16,-0.0016210682768689,0.0016210682768494,-0.0016210690239575,0.0016210690239482,-0.0016210682929188,0.0016210682929084,-0.0016210690079203,0.001621069007903,-0.0012819865411261,0.001281986541091,-0.0012819864675509,0.0012819864675189,-7.0586078937858e-16,-7.5563256277294e-15,1.7311457895848e-09,-1.7311249889375e-09,-0.0015167006956099,0.001516700695634,-0.0016210676975345,0.0016210688635297,-0.0016210696032487,0.0016210684373446,-0.0016210676975296,0.0016210688635192,-0.0016210696032554,0.0016210684373349,-0.001281984807855,0.0012819882268977,-0.0012819882007751,0.0012819847818069,-0.0015422857770179,0.0015422846747813,-0.0015422857770054,0.001542284674771,-1.8234851915305e-09,-1.8234861875134e-09,-0.00066009567080951,0.00066009130239161,-3.4876808784932e-09,-8.0156298794799e-11,-0.00073364594805925,0.00073364052794211,-0.00073364480978788,0.0007336416661632,-0.00073364594805391,0.00073364052794275,-0.00073364480979384,0.00073364166616593,-0.00083801985688667,0.00083801791256373,-0.00083801985684976,0.00083801791255007,0.80945760226274,120135,2834,0.0062990002543449,0.0062990002543679,0.0027498533029934,29.317282254534,0.00014973825803627,0.00014973825803627,0.00014973825803627,1860212.8249957,0.015466572228018
34419200,0.99997714996296,0.01557417979281,0.0058864672137224,0.0058864672137444,0.0038012453653435,-0.001520744168238,0.0015207441682244,-8.8115543424751e-15,-8.7487327322204e-15,-1.1533441778918e-14,-3.5519503138855e-16,-0.0016248881115323,0.0016248881115137,-0.0016248887546349,0.0016248887546263,-0.0016248881267219,0.0016248881267119,-0.0016248887394587,0.0016248887394417,-0.0012862364421777,0.001286236442143,-0.0012862363076531,0.0012862363076214,-4.9886711289331e-16,-7.3515635007189e-15,1.7395397193813e-09,-1.7395183425116e-09,-0.0015207441682245,0.001520744168249,-0.001624887522973,0.0016248886992921,-0.001624889343151,0.0016248881669243,-0.0016248875229687,0.0016248886992817,-0.0016248893431583,0.0016248881669147,-0.0012862346963516,0.0012862381307357,-0.0012862380534322,0.0012862346191235,-0.0015463229492169,0.0015463218402042,-0.001546322949205,0.001546321840194,-2.6916664596936e-09,-2.691667455201e-09,-0.00066246730610211,0.00066246064900529,-4.326367724671e-09,-9.5894583364244e-10,-0.00073689171544667,0.00073688426105723,-0.00073689059080843,0.00073688538564622,-0.0007368917154421,0.00073688426105854,-0.00073689059081456,0.00073688538564897,-0.00084006858997028,0.00084006461134312,-0.00084006858993312,0.00084006461132932,0.73398852679876,120135,2834,0.0063157357065834,0.0063157357066063,0.0027597157229869,31.481439538514,0.00016705151630811,0.00016705151630811,0.00016705151630811,1820516.3235636,0.015510577215537
35419200,0.99998611323814,0.015574322857383,0.005886518832467,0.005886518832489,0.0038012851924274,-0.0015288695158439,0.00152886951583,-8.9086690227471e-15,-8.8439651170541e-15,-1.1610439426692e-14,-4.0878162964887e-16,-0.0016331960852973,0.001633196085278,-0.0016331972415399,0.0016331972415308,-0.0016331961045003,0.0016331961044901,-0.0016331972223495,0.0016331972223324,-0.0012943145966508,0.0012943145966159,-0.0012943147247464,0.0012943147247145,-4.9939650848535e-16,-7.3747127245922e-15,1.4966232242924e-09,-1.4966020341991e-09,-0.0015288695158303,0.0015288695158546,-0.0016331956077505,0.00163319659969,-0.0016331977190435,0.0016331967271951,-0.0016331956077456,0.0016331965996795,-0.0016331977190503,0.0016331967271854,-0.0012943131096192,0.0012943160740136,-0.0012943162117312,0.0012943132474112,-0.0015542503029643,0.0015542493620147,-0.0015542503029519,0.0015542493620042,-4.1130355371744e-09,-4.1130365332631e-09,-0.00067282455006593,0.00067281430766681,-5.4778842921009e-09,-2.6020883540016e-09,-0.00074563069953339,0.00074562032594187,-0.00074562974415557,0.0007456212812693,-0.0007456306995281,0.00074562032594255,-0.00074562974416167,0.00074562128127226,-0.00085047523874187,0.00085046811437329,-0.00085047523870459,0.00085046811435912,0.64952121200822,120135,2834,0.0063493962865132,0.0063493962865358,0.0028027043481833,35.927895972695,0.00020262316778156,0.00020262316778156,0.00020262316778156,1845463.211004,0.015622597327839
36419200,0.99999185209322,0.015574418947184,0.0058865534549,0.005886553454922,0.0038013120373621,-0.0015310685264599,0.0015310685264462,-8.7735555033136e-15,-8.7097339236072e-15,-1.1535353485222e-14,-3.2934287997756e-16,-0.001635853979767,0.0016358539797479,-0.0016358547552278,0.0016358547552189,-0.0016358539951185,0.0016358539951085,-0.0016358547398889,0.0016358547398719,-0.0012959032673158,0.0012959032672812,-0.0012959032659256,0.0012959032658941,-4.0275240207293e-16,-7.2753795344287e-15,1.4690784354509e-09,-1.4690570529368e-09,-0.0015310685264462,0.0015310685264708,-0.0016358534827544,0.0016358544774582,-0.0016358552521971,0.0016358542575849,-0.0016358534827497,0.0016358544774477,-0.0016358552522038,0.0016358542575753,-0.0012959017859998,0.0012959046888135,-0.0012959047471948,0.0012959018444565,-0.0015564505905033,0.0015564496611829,-0.0015564505904908,0.0015564496611727,-2.5877770098261e-09,-2.5877780035995e-09,-0.00067739442363089,0.00067738807454646,-3.9755075337237e-09,-1.1167148718625e-09,-0.00074807209900423,0.00074806511303446,-0.00074807114257023,0.0007480660694182,-0.00074807209899883,0.00074806511303512,-0.00074807114257616,0.00074806606942092,-0.00085548164150703,0.00085547774082416,-0.00085548164147014,0.00085547774081053,0.68119810794794,120135,2834,0.0063585204390276,0.0063585204390502,0.0028216659145914,37.479886121535,0.00021503908897228,0.00021503908897228,0.00021503908897228,1890936.9837161,0.015660384140479
37419200,0.9999952414814,0.015574473485307,0.0058865731484555,0.0058865731484775,0.0038013271883736,-0.0015320117016045,0.0015320117015908,-8.8171424070577e-15,-8.7536737577461e-15,-1.1571558261544e-14,-3.6298891093794e-16,-0.0016366140411433,0.0016366140411242,-0.0016366148166819,0.0016366148166729,-0.0016366140564799,0.0016366140564699,-0.001636614801358,0.001636614801341,-0.0012970287543104,0.0012970287542756,-0.0012970287494155,0.0012970287493839,-4.7104443344531e-16,-7.3447703373814e-15,1.4681658171068e-09,-1.4681445173509e-09,-0.0015320117015909,0.0015320117016154,-0.0016366135443556,0.0016366145384949,-0.0016366153134263,0.0016366143193786,-0.0016366135443509,0.0016366145384845,-0.0016366153134331,0.001636614319369,-0.0012970272736652,0.0012970301746909,-0.0012970302300138,0.0012970273290634,-0.0015574996722578,0.001557498743521,-0.0015574996722453,0.0015574987435107,-1.9694880719329e-09,-1.9694890657551e-09,-0.00067719861526233,0.00067719387363975,-3.3801380586761e-09,-4.9158099158226e-10,-0.00074889623928633,0.00074889066308208,-0.00074889527212977,0.00074889163018843,-0.00074889623928106,0.00074889066308281,-0.00074889527213583,0.00074889163019123,-0.00085513643274211,0.00085513394714,-0.00085513643270503,0.00085513394712622,0.65495763090952,120135,2834,0.0063624158072301,0.0063624158072529,0.0028208724872297,37.680327004634,0.00021664261603708,0.00021664261603708,0.00021664261603708,1850013.5038364,0.01566749479099
38419200,0.99999718968416,0.015574508391667,0.0058865857149644,0.0058865857149865,0.0038013369617158,-0.0015310514831311,0.0015310514831172,-8.8799051955799e-15,-8.8168482983954e-15,-1.1617321569389e-14,-3.8781168203108e-16,-0.0016354717611894,0.0016354717611702,-0.0016354722680457,0.0016354722680366,-0.0016354717742412,0.0016354717742311,-0.0016354722550066,0.0016354722549895,-0.0012964215995259,0.001296421599491,-0.001296421510264,0.0012964215102322,-4.8533811443022e-16,-7.3805429118332e-15,1.631788992432e-09,-1.6317676402455e-09,-0.0015310514831175,0.0015310514831419,-0.0016354711928094,0.0016354723085287,-0.0016354728363823,0.0016354717207546,-0.0016354711928046,0.0016354723085182,-0.0016354728363891,0.001635471720745,-0.0012964199448325,0.0012964231618468,-0.0012964231649103,0.0012964199479713,-0.0015564696396636,0.0015564685977338,-0.0015564696396511,0.0015564685977235,-1.465941456358e-09,-1.465942449435e-09,-0.0006761450400727,0.00067614153338378,-3.0481166316586e-09,1.607867236789e-10,-0.00074812172991132,0.00074811710607466,-0.00074812065255227,0.00074811818338333,-0.00074812172990601,0.00074811710607533,-0.00074812065255828,0.00074811818338613,-0.00085379371872734,0.00085379230300427,-0.0008537937186903,0.00085379230299047,0.72891346290554,120135,2834,0.0063584384416741,0.0063584384416968,0.0028164961467995,37.196128271463,0.0002127690261717,0.0002127690261717,0.0002127690261717,1859443.3259072,0.015654970288703
38880000,0.99999787000017,0.015574520855714,0.005886590203437,0.005886590203459,0.0038013404488184,-0.001531898020147,0.0015318980201861,3.1836498005075e-14,3.1795852187953e-14,7.6320903742897e-15,1.8785808459388e-14,-0.0016360096251761,0.0016360096252156,-0.0016360101738857,0.0016360101738998,-0.0016360096386085,0.0016360096386627,-0.0016360101604479,0.0016360101604856,-0.0012975687421953,0.0012975687422065,-0.001297568683019,0.0012975686830891,6.0575208292497e-15,7.0526010690182e-16,1.6502365743905e-09,-1.6501952397013e-09,-0.0015318980201522,0.0015318980201924,-0.0016360090534392,0.001636010179307,-0.0016360107455844,0.0016360096198227,-0.0016360090534608,0.0016360101793171,-0.0016360107456027,0.001636009619838,-0.0012975670709338,0.0012975703244454,-0.0012975703542682,0.0012975671008474,-0.0015574435739162,0.0015574425200832,-0.0015574435739301,0.0015574425201462,-1.7098413340901e-09,-1.7098425898355e-09,-0.00067474881540052,0.00067474467709612,-3.3028560511325e-09,-6.4231345879415e-11,-0.00074845626746698,0.00074845106440808,-0.00074845518074552,0.00074845215110339,-0.00074845626742656,0.00074845106439951,-0.00074845518072403,0.00074845215107134,-0.00085213854675361,0.00085213659008174,-0.00085213854678374,0.00085213659011213,0.74537476942471,120135,2834,0.0063619263901175,0.0063619263901411,0.0028107252264431,37.193651848146,0.00021274921478517,0.00021274921478517,0.00021274921478517,1798938.4858443,0.015656199453495
