time,ASR_ext,ASR_strain,ASR_strain_xx,ASR_strain_yy,ASR_strain_zz,disp_x_101,disp_x_102,disp_x_103,disp_x_104,disp_x_105,disp_x_106,disp_x_p1_neg,disp_x_p1_pos,disp_x_p2_neg,disp_x_p2_pos,disp_x_p3_neg,disp_x_p3_pos,disp_x_p4_neg,disp_x_p4_pos,disp_x_p5_neg,disp_x_p5_pos,disp_x_p6_neg,disp_x_p6_pos,disp_y_101,disp_y_102,disp_y_103,disp_y_104,disp_y_105,disp_y_106,disp_y_p1_neg,disp_y_p1_pos,disp_y_p2_neg,disp_y_p2_pos,disp_y_p3_neg,disp_y_p3_pos,disp_y_p4_neg,disp_y_p4_pos,disp_y_p5_neg,disp_y_p5_pos,disp_y_p6_neg,disp_y_p6_pos,disp_y_p7_neg,disp_y_p7_pos,disp_y_p8_neg,disp_y_p8_pos,disp_z_101,disp_z_102,disp_z_103,disp_z_104,disp_z_105,disp_z_106,disp_z_p1_neg,disp_z_p1_pos,disp_z_p2_neg,disp_z_p2_pos,disp_z_p3_neg,disp_z_p3_pos,disp_z_p4_neg,disp_z_p4_pos,disp_z_p5_neg,disp_z_p5_pos,disp_z_p6_neg,disp_z_p6_pos,humidity,ndof,nelem,strain_xx,strain_yy,strain_zz,temp,thermal_strain_xx,thermal_strain_yy,thermal_strain_zz,vonmises,vstrain
2419200,0,0,0,0,0,0,0,0,0,0,0,0,0,0,0,0,0,0,0,0,0,0,0,0,0,0,0,0,0,0,0,0,0,0,0,0,0,0,0,0,0,0,0,0,0,0,0,0,0,0,0,0,0,0,0,0,0,0,0,0,0,0,0,0,0,0,0,0,0,0,0,0,0,0,0
3419200,0.15948214622632,0.0027503555301589,0.00091678517671962,0.00091678517671962,0.00091678517671962,-0.00026701609120277,0.00026701609111453,-3.8810042321024e-14,-4.8919527600835e-14,8.7060222722898e-14,-1.7896893703359e-13,-0.00026966775682391,0.00026966775682693,-0.00026966775906831,0.00026966775906459,-0.00026966775691737,0.00026966775674659,-0.0002696677591448,0.00026966775896729,-0.00025869182774335,0.00025869182757744,-0.00025869182869813,0.00025869182851242,-8.7061663855343e-14,1.7896758716386e-13,-2.6923722618384e-12,2.7800993336605e-12,-0.00026701609111454,0.00026701609120277,-0.00026966775779578,0.00026966775592774,-0.0002696677580919,0.00026966775996063,-0.00026966775771081,0.00026966775601656,-0.00026966775800692,0.00026966776004945,-0.0002586918303003,0.00025869182513401,-0.00025869182579094,0.00025869183130886,-0.00026677887770445,0.00026677887937235,-0.00026677887744525,0.00026677887963827,-6.9848427737963e-12,-6.9747318532001e-12,-0.00023356642797886,0.00023356640849116,-4.1346704165981e-12,-9.6898834733584e-12,-0.0002390923576193,0.00023909234390168,-0.00023909235948496,0.00023909234203635,-0.00023909235761577,0.00023909234390489,-0.00023909235948143,0.00023909234203955,-0.00024096207275777,0.0002409620557017,-0.00024096207276842,0.00024096205569255,0.78394949833005,128637,2834,0.0011119447343392,0.0011119447343392,0.00097272614572632,31.856380518697,0.00017005104414958,0.00017005104414958,0.00017005104414958,2184222.0151049,0.0032017322484094
4419200,0.35076966676791,0.0059489215827517,0.0020908732413144,0.0020908732413144,0.0017671751001228,-0.00055914497712021,0.00055914497691545,-9.6701692888485e-14,-1.0688260245692e-13,5.5831353214013e-14,-2.6753784160847e-13,-0.00057332463115578,0.00057332463106367,-0.00057332463671709,0.0005733246366182,-0.00057332463128998,0.00057332463098344,-0.0005733246367942,0.00057332463648086,-0.00052113330319352,0.00052113330289241,-0.00052113330628741,0.00052113330596635,-5.5837617728519e-14,2.6753352079607e-13,-3.470659660167e-12,3.674234043275e-12,-0.00055914497691546,0.0005591449771202,-0.00057332463236646,0.0005733246300177,-0.00057332463531228,0.00057332463785204,-0.00057332463226081,0.00057332463012649,-0.00057332463520662,0.00057332463796082,-0.00052113330650412,0.00052113329983748,-0.00052113330235715,0.00052113330964593,-0.00056127408670469,0.00056127408902873,-0.00056127408639415,0.00056127408935257,-1.1056404747321e-11,-1.1046215854512e-11,-0.00041112747908988,0.00041112745015252,-7.1875482488641e-12,-1.4571689264013e-11,-0.0004268596979298,0.00042685967499956,-0.00042685970041618,0.00042685967251331,-0.00042685969792635,0.00042685967500289,-0.00042685970041272,0.00042685967251664,-0.00044575537974753,0.00044575535363915,-0.0004457553797589,0.00044575535363057,0.77879974056271,128637,2834,0.0023270280800246,0.0023270280800246,0.0017116812064011,33.605182787765,0.00018404146230212,0.00018404146230212,0.00018404146230212,3697466.9933439,0.0063860573738884
5419200,0.55101948375519,0.0092302445436817,0.0033613118055514,0.0033613118055514,0.002507620932579,-0.00087765608876516,0.00087765608859653,-7.9164669808972e-14,-8.9410209755936e-14,2.4873901884077e-14,-1.9901662606104e-13,-0.00091119492194509,0.0009111949218568,-0.00091119492446165,0.00091119492436653,-0.00091119492203752,0.00091119492180047,-0.00091119492451461,0.00091119492427071,-0.00079375253120451,0.00079375253097048,-0.00079375253107205,0.00079375253081797,-2.4884004516625e-14,1.9900580987033e-13,-7.6324798597487e-13,9.3179497180322e-13,-0.00087765608859654,0.00087765608876515,-0.00091119492209992,0.00091119492168397,-0.00091119492412004,0.00091119492471937,-0.00091119492202724,0.00091119492176004,-0.00091119492404735,0.00091119492479543,-0.00079375253176386,0.00079375253035294,-0.00079375253002566,0.00079375253192457,-0.00088517046229984,0.00088517046287098,-0.00088517046208661,0.00088517046309315,-1.8274035344854e-12,-1.8171433404595e-12,-0.00055960151487929,0.00055960150726997,-8.81765415613e-13,-2.6916552276628e-12,-0.0005857977327853,0.0005857977263837,-0.00058579773337588,0.0005857977257934,-0.00058579773278172,0.00058579772638696,-0.0005857977333723,0.00058579772579668,-0.00063246080034391,0.00063246079550339,-0.00063246080035406,0.00063246079549346,0.77317316850255,128637,2834,0.0036501144812036,0.0036501144812036,0.0023294540989955,36.275699209642,0.00020540559367714,0.00020540559367714,0.00020540559367714,4269615.7758162,0.0096762423840215
6419200,0.70735532384483,0.011627948134803,0.0043183650835901,0.0043183650835901,0.0029912179676228,-0.0011167532500971,0.001116753249892,-9.7158178943149e-14,-1.0746121713358e-13,3.4404948952426e-14,-2.4531668221434e-13,-0.001171764729423,0.0011717647293174,-0.0011717647309155,0.0011717647308031,-0.00117176472952,0.0011717647292272,-0.0011717647310039,0.0011717647307041,-0.00098454591196359,0.00098454591167532,-0.000984545912483,0.00098454591217455,-3.4414242786153e-14,2.4530552756889e-13,-1.7967086785341e-13,3.8426027214187e-13,-0.001116753249892,0.0011167532500971,-0.0011717647293398,0.0011717647293192,-0.0011717647307788,0.0011717647310174,-0.0011717647292471,0.0011717647294138,-0.0011717647306861,0.001171764731112,-0.00098454591186648,0.00098454591162834,-0.00098454591198484,0.00098454591281958,-0.001125070354158,0.0011250703543234,-0.0011250703538904,0.0011250703545995,-1.366217691928e-12,-1.3558927254668e-12,-0.00064090783957725,0.00064090783460122,-1.0718199625182e-12,-1.6749382876674e-12,-0.00067988707617127,0.00067988707184922,-0.00067988707635997,0.00067988707166002,-0.00067988707616807,0.0006798870718529,-0.00067988707635676,0.00067988707166371,-0.00074478212310853,0.00074478211997088,-0.00074478212311872,0.00074478211996086,0.72912082706367,128637,2834,0.0046421143211635,0.0046421143211635,0.0026679523929857,36.740036523339,0.00020912029218671,0.00020912029218671,0.00020912029218671,4334345.2914822,0.01202400382206
7419200,0.83259153802192,0.013489574795565,0.005059329409687,0.005059329409687,0.0033709159761905,-0.0013097333296209,0.0013097333294339,-8.823371628524e-14,-9.8555753895252e-14,3.9408531390535e-14,-2.3227890403892e-13,-0.0013870174736797,0.0013870174735894,-0.0013870174753982,0.0013870174753011,-0.001387017473775,0.0013870174735033,-0.001387017475482,0.0013870174752034,-0.0011328871858698,0.0011328871856019,-0.0011328871864902,0.0011328871862021,-3.9416031161422e-14,2.3226958510256e-13,-1.7904717981796e-13,3.6579995373898e-13,-0.0013097333294339,0.0013097333296209,-0.0013870174736376,0.0013870174735859,-0.0013870174752506,0.0013870174754897,-0.001387017473548,0.0013870174736778,-0.0013870174751611,0.0013870174755815,-0.0011328871858138,0.0011328871855759,-0.0011328871859912,0.001132887186785,-0.0013162422572797,0.0013162422574289,-0.0013162422570191,0.0013162422576973,-2.5941953515944e-12,-2.5838458888111e-12,-0.00069871654166955,0.00069871653337549,-2.278964938009e-12,-2.8747835302777e-12,-0.00074819265122731,0.00074819264443013,-0.00074819265142032,0.00074819264423682,-0.00074819265122399,0.00074819264443372,-0.00074819265141701,0.00074819264424042,-0.00083070110967176,0.00083070110388811,-0.00083070110968183,0.00083070110387795,0.71232201740279,128637,2834,0.0054420172814432,0.0054420172814432,0.002908831183379,40.774622702413,0.00024139698161931,0.00024139698161931,0.00024139698161931,4048401.7600529,0.013888631886704
8419200,0.90809089914051,0.014591624873286,0.0054911618380173,0.0054911618380173,0.0036093011972518,-0.0014219980855884,0.0014219980854028,-8.7487621430866e-14,-9.7846069693265e-14,3.7797786480039e-14,-2.2917502827196e-13,-0.0015138276810974,0.0015138276810071,-0.0015138276821569,0.0015138276820597,-0.0015138276811886,0.0015138276809198,-0.0015138276822421,0.0015138276819664,-0.0012158091104233,0.0012158091101584,-0.0012158091109759,0.0012158091106908,-3.7806786205104e-14,2.2916419019543e-13,3.5642773436681e-13,-1.7112691005801e-13,-0.0014219980854028,0.0014219980855884,-0.0015138276808581,0.0015138276811785,-0.0015138276822066,0.0015138276820737,-0.00151382768077,0.0015138276812688,-0.0015138276821185,0.001513827682164,-0.0012158091098363,0.0012158091106386,-0.001215809111014,0.0012158091107615,-0.0014272873149119,0.0014272873147008,-0.0014272873146558,0.0014272873149644,-8.02214787581e-13,-7.9182495734991e-13,-0.00071967823242081,0.0007196782294188,-1.0592598903375e-12,-5.5026885142902e-13,-0.00077786056299157,0.00077786056009782,-0.00077786056281207,0.000777860560277,-0.00077786056298826,0.00077786056010144,-0.00077786056280876,0.00077786056028062,-0.00086992692655312,0.00086992692516084,-0.00086992692656325,0.00086992692515065,0.69846302650629,128637,2834,0.0059070195878844,0.0059070195878844,0.0029964819165782,41.435493850606,0.00024668395080485,0.00024668395080485,0.00024668395080485,3596377.0278568,0.014921029918877
9419200,0.94985982887362,0.015188458892674,0.0057213863353466,0.0057213863353466,0.0037456862219808,-0.0014819341072708,0.0014819341070864,-8.6891110242109e-14,-9.7244970409376e-14,3.7346270861767e-14,-2.2757510656024e-13,-0.0015824818299816,0.0015824818298917,-0.0015824818307082,0.0015824818306115,-0.001582481830071,0.001582481829804,-0.0015824818307938,0.00158248183052,-0.0012578711426483,0.0012578711423855,-0.00125787114316,0.0012578711428768,-3.7354917656437e-14,2.2756463703862e-13,7.5460431787537e-13,-5.7043105166411e-13,-0.0014819341070864,0.0014819341072708,-0.0015824818296042,0.0015824818301938,-0.0015824818308969,0.0015824818304939,-0.0015824818295167,0.0015824818302834,-0.0015824818308094,0.0015824818305835,-0.0012578711416697,0.0012578711432499,-0.0012578711435934,0.0012578711425595,-0.0014866273779159,0.001486627377438,-0.0014866273776619,0.0014866273776996,-5.1990505303416e-14,-4.1603140817312e-14,-0.00072359217229615,0.00072359217148916,-7.2055598750919e-13,5.9924919334849e-13,-0.00078767015388854,0.00078767015255084,-0.00078767015343765,0.00078767015300138,-0.00078767015388525,0.00078767015255446,-0.00078767015343434,0.000787670153005,-0.00088457881907482,0.00088457881962165,-0.00088457881908512,0.00088457881961156,0.67992500444056,128637,2834,0.0061551653150432,0.0061551653150433,0.0030131317050481,41.144505265963,0.0002443560421277,0.0002443560421277,0.0002443560421277,3211734.609027,0.015441817568498
10419200,0.97074234134587,0.015494564513804,0.0058373916423509,0.0058373916423509,0.0038197812291023,-0.0015066361867204,0.0015066361865368,-8.6493475330759e-14,-9.6838982812019e-14,3.6918548634269e-14,-2.2624502954612e-13,-0.0016119816253694,0.0016119816252799,-0.0016119816253356,0.0016119816252391,-0.001611981625456,0.0016119816251905,-0.0016119816254229,0.0016119816251505,-0.0012726970963362,0.0012726970960747,-0.0012726970967052,0.0012726970964234,-3.6926636622481e-14,2.2623518896898e-13,1.6847387920945e-12,-1.5014309926079e-12,-0.0015066361865368,0.0015066361867204,-0.0016119816246664,0.0016119816258874,-0.0016119816258506,0.0016119816248156,-0.0016119816245794,0.0016119816259764,-0.0016119816257636,0.0016119816249045,-0.0012726970944356,0.001272697097834,-0.0012726970980635,0.0012726970952084,-0.0015114594646409,0.0015114594635393,-0.0015114594643885,0.001511459463799,1.8613221987186e-12,1.8717024678332e-12,-0.00071679388314106,0.00071679388779944,2.2934578776126e-13,3.4406615372106e-12,-0.00078344111976649,0.00078344112230673,-0.00078344111868168,0.00078344112339121,-0.00078344111976319,0.00078344112231034,-0.00078344111867837,0.00078344112339484,-0.00088459342840428,0.00088459343381619,-0.0008845934284144,0.00088459343380601,0.69327203779446,128637,2834,0.006257406984109,0.006257406984109,0.0029851244644189,38.090190293023,0.00021992152234419,0.00021992152234419,0.00021992152234419,2976821.3951786,0.015621060292268
11419200,0.98280482399002,0.015668281543428,0.0059027009465954,0.0059027009465954,0.0038628796502371,-0.0015255291273211,0.0015255291271381,-8.6180661357599e-14,-9.6532580407696e-14,3.6670232690739e-14,-2.2537490906888e-13,-0.0016325751609559,0.0016325751608666,-0.0016325751615201,0.0016325751614239,-0.0016325751610464,0.0016325751607819,-0.0016325751616027,0.0016325751613313,-0.0012865538267058,0.0012865538264453,-0.0012865538272066,0.0012865538269257,-3.6680938246045e-14,2.2536210482998e-13,1.8189487896126e-12,-1.6362671069131e-12,-0.0015255291271382,0.0015255291273211,-0.0016325751602405,0.0016325751615273,-0.001632575162048,0.0016325751609466,-0.0016325751601539,0.0016325751616159,-0.0016325751619614,0.0016325751610352,-0.0012865538246999,0.0012865538283688,-0.0012865538286722,0.0012865538255446,-0.0015310975248187,0.0015310975236353,-0.0015310975245674,0.0015310975238939,3.4149664868137e-13,3.518845148755e-13,-0.00071444444708227,0.00071444444736482,-1.3681547479292e-12,2.0702841365937e-12,-0.0007845596691108,0.00078455966801646,-0.00078455966795804,0.00078455966916891,-0.00078455966910749,0.00078455966802007,-0.00078455966795473,0.00078455966917253,-0.00088527089179978,0.00088527089391176,-0.00088527089180993,0.00088527089390159,0.67904234049614,128637,2834,0.0063355893250805,0.0063355893250805,0.0029755250132658,37.626518898432,0.00021621215118746,0.00021621215118746,0.00021621215118746,2749442.2325461,0.015770148369024
12419200,0.989722404293,0.015770432750035,0.0059407461210462,0.0059407461210462,0.0038889405079427,-0.0015338599799776,0.001533859979795,-8.5991020092186e-14,-9.6366879587389e-14,3.6486150079043e-14,-2.2481783785173e-13,-0.0016428670554269,0.0016428670553377,-0.0016428670558739,0.0016428670557778,-0.001642867055517,0.0016428670552531,-0.0016428670559565,0.0016428670556857,-0.0012909714291242,0.0012909714288643,-0.0012909714296086,0.0012909714293283,-3.6496179184425e-14,2.2480549821261e-13,1.9855298524448e-12,-1.8032008858772e-12,-0.001533859979795,0.0015338599799776,-0.0016428670546547,0.0016428670560536,-0.0016428670564589,0.0016428670552452,-0.0016428670545683,0.001642867056142,-0.0016428670563725,0.0016428670553335,-0.001290971426955,0.0012909714309497,-0.0012909714312387,0.0012909714277841,-0.0015395546695141,0.0015395546682193,-0.0015395546692634,0.0015395546684772,6.1230737238274e-13,6.2271941752572e-13,-0.00071070327403633,0.00071070327511292,-1.267228772325e-12,2.5084414423652e-12,-0.00078142477005102,0.00078142476950947,-0.00078142476878562,0.00078142477077453,-0.0007814247700477,0.00078142476951309,-0.00078142476878231,0.00078142477077816,-0.00088443215408225,0.00088443215691323,-0.00088443215409241,0.00088443215690302,0.69352878350963,128637,2834,0.006370065261187,0.006370065261187,0.0029600759941364,36.801455848327,0.00020961164678662,0.00020961164678662,0.00020961164678662,2637414.6766243,0.015824503794035
13419200,0.99358534334052,0.015826053428174,0.0059613984360066,0.0059613984360066,0.0039032565561605,-0.0015376641543394,0.001537664154157,-8.586231814159e-14,-9.6232295463548e-14,3.6382035612609e-14,-2.2445229019543e-13,-0.0016468209302431,0.0016468209301541,-0.0016468209303751,0.0016468209302792,-0.001646820930332,0.0016468209300685,-0.0016468209304586,0.0016468209301882,-0.0012931180643747,0.0012931180641152,-0.0012931180647999,0.00129311806452,-3.6393241152641e-14,2.2443959641961e-13,2.3128233021542e-12,-2.1307600832127e-12,-0.001537664154157,0.0015376641543393,-0.0016468209293543,0.0016468209309768,-0.0016468209310769,0.0016468209296394,-0.0016468209292681,0.001646820931065,-0.0016468209309907,0.0016468209297277,-0.0012931180618785,0.0012931180665126,-0.0012931180667578,0.0012931180626629,-0.0015440593339174,0.0015440593324029,-0.0015440593336672,0.0015440593326603,1.4351987030568e-12,1.4456055142144e-12,-0.00070462903464537,0.0007046290380469,-7.8685087401062e-13,3.6565331483634e-12,-0.00077746556298884,0.00077746556410546,-0.00077746556149905,0.00077746556559493,-0.00077746556298552,0.00077746556410908,-0.00077746556149573,0.00077746556559856,-0.00087930932140387,0.00087930932627504,-0.00087930932141403,0.00087930932626484,0.67548193159291,128637,2834,0.0063857909051511,0.0063857909051511,0.0029349164365153,34.787789979046,0.00019350231983237,0.00019350231983237,0.00019350231983237,2518361.1688483,0.015830902897138
14419200,0.99581601353911,0.015857743536171,0.0059731351799943,0.0059731351799943,0.0039114731761825,-0.0015359530901535,0.0015359530899713,-8.5793496714625e-14,-9.6160885880356e-14,3.6306567329878e-14,-2.2423020874457e-13,-0.0016464440309338,0.0016464440308447,-0.0016464440310129,0.0016464440309169,-0.0016464440310229,0.0016464440307597,-0.0016464440310959,0.0016464440308258,-0.0012891678882691,0.0012891678880098,-0.0012891678886893,0.0012891678884097,-3.6315772931006e-14,2.2421947866106e-13,2.5407778832775e-12,-2.358848527032e-12,-0.0015359530899713,0.0015359530901535,-0.0016464440299715,0.0016464440317442,-0.0016464440317881,0.0016464440302004,-0.0016464440298854,0.0016464440318323,-0.001646444031702,0.0016464440302885,-0.0012891678855522,0.0012891678906336,-0.0012891678908683,0.0012891678863258,-0.0015422025183116,0.0015422025166456,-0.0015422025180617,0.0015422025169028,1.5588756149545e-12,1.5692799419279e-12,-0.00069774826572081,0.00069774826948249,-8.8787422899294e-13,4.0108252661589e-12,-0.00077018439192316,0.00077018439321306,-0.00077018439028237,0.00077018439485354,-0.00077018439191984,0.00077018439321668,-0.00077018439027905,0.00077018439485716,-0.00087422349943398,0.00087422350473309,-0.00087422349944414,0.0008742235047229,0.66541847184243,128637,2834,0.0063787045210788,0.0063787045210788,0.0029063703188834,32.636642392486,0.00017629313913989,0.00017629313913989,0.00017629313913989,2479451.6313033,0.015787510708234
15419200,0.99697714296817,0.015875159215662,0.0059795422905024,0.0059795422905024,0.0039160746346574,-0.0015270110921122,0.0015270110919298,-8.5677206149575e-14,-9.6432465819069e-14,3.6476944477914e-14,-2.2455746345305e-13,-0.0016383347160443,0.0016383347159554,-0.0016383347152463,0.0016383347151502,-0.0016383347161314,0.0016383347158679,-0.0016383347153317,0.0016383347150611,-0.001278494269701,0.0012784942694418,-0.0012784942699541,0.0012784942696738,-3.6486591242036e-14,2.2454633557608e-13,3.7135612526439e-12,-3.5314808362728e-12,-0.0015270110919298,0.0015270110921122,-0.0016383347146748,0.0016383347172411,-0.0016383347164288,0.0016383347140474,-0.0016383347145885,0.0016383347173294,-0.0016383347163425,0.0016383347141357,-0.0012784942658219,0.001278494273198,-0.0012784942732947,0.0012784942664581,-0.0015333807035055,0.0015333807010533,-0.0015333807032551,0.0015333807013109,3.840464411283e-12,3.8512583467011e-12,-0.00068355950069145,0.0006835595109215,1.8696924410029e-13,7.4628920725935e-12,-0.00075596975017867,0.0007559697559933,-0.00075596974774187,0.00075596975842977,-0.00075596975017522,0.00075596975599704,-0.00075596974773843,0.00075596975843353,-0.00086158902322,0.00086158903435483,-0.00086158902323054,0.00086158903434425,0.70136789652888,128637,2834,0.0063416773827796,0.0063416773827796,0.0028474620185382,27.051272749258,0.00013161018199407,0.00013161018199407,0.00013161018199407,2455166.2453441,0.015652458919625
16419200,0.99772306182409,0.015885954525291,0.0059835189472979,0.0059835189472979,0.0039189166306952,-0.0015266596084969,0.0015266596083147,-8.5569797666125e-14,-9.6316292897484e-14,3.6391182392005e-14,-2.2425932550213e-13,-0.001636632076669,0.0016366320765802,-0.0016366320766254,0.0016366320765295,-0.0016366320767602,0.0016366320764971,-0.0016366320767064,0.0016366320764362,-0.0012785694656966,0.0012785694654377,-0.0012785694661074,0.0012785694658274,-3.6400358582267e-14,2.2424818619399e-13,3.5941293476106e-12,-3.4122730331364e-12,-0.0015266596083147,0.0015266596084969,-0.0016366320753714,0.0016366320778344,-0.0016366320777362,0.0016366320754579,-0.0016366320752853,0.0016366320779226,-0.0016366320776501,0.0016366320755461,-0.0012785694619588,0.001278569469109,-0.0012785694693073,0.0012785694626959,-0.0015341776486498,0.0015341776462851,-0.0015341776483998,0.0015341776465424,1.9903043308984e-12,2.0010900445433e-12,-0.00067686032757997,0.00067686033247116,-1.4869972497253e-12,5.5069043266764e-12,-0.00075208502837946,0.00075208502989379,-0.00075208502604428,0.00075208503222866,-0.00075208502837601,0.00075208502989754,-0.00075208502604083,0.00075208503223241,-0.00085416906369879,0.00085416907062702,-0.00085416906370932,0.00085416907061646,0.67695707168844,128637,2834,0.0063401968097906,0.0063401968097906,0.002819674414475,24.409536480177,0.00011047629184142,0.00011047629184142,0.00011047629184142,2355541.7613969,0.015621235066292
17419200,0.99822406318166,0.015893402210947,0.0059862528188172,0.0059862528188172,0.0039208965733122,-0.0015213605229747,0.0015213605227926,-8.5538151574068e-14,-9.6228472050939e-14,3.6285685614859e-14,-2.2402047985753e-13,-0.0016325586952606,0.0016325586951718,-0.0016325586952549,0.0016325586951589,-0.0016325586953517,0.0016325586950888,-0.0016325586953358,0.0016325586950658,-0.0012716807059014,0.0012716807056427,-0.0012716807063173,0.0012716807060377,-3.6295067681185e-14,2.2400958537187e-13,3.4577731806496e-12,-3.2760316584522e-12,-0.0015213605227926,0.0015213605229747,-0.0016325586940082,0.0016325586963807,-0.0016325586963205,0.0016325586941327,-0.0016325586939222,0.0016325586964688,-0.0016325586962345,0.0016325586942207,-0.0012716807022982,0.0012716807091806,-0.0012716807093832,0.001271680703039,-0.0015285389499009,0.001528538947627,-0.0015285389496513,0.0015285389478839,1.8467018732432e-12,1.8574312273392e-12,-0.00066948838570087,0.00066948839022064,-1.4938854216493e-12,5.2267957367428e-12,-0.00074365482178034,0.00074365482310806,-0.00074365481953624,0.00074365482535184,-0.00074365482177692,0.00074365482311178,-0.00074365481953282,0.00074365482535557,-0.00084834385485861,0.00084834386138905,-0.00084834385486909,0.00084834386137854,0.69392132862642,128637,2834,0.006318261621604,0.006318261621604,0.0027890604460115,21.97222238085,9.0977779046798e-05,9.0977779046798e-05,9.0977779046798e-05,2354551.1941547,0.015545588509747
18419200,0.99853529867052,0.015897952216529,0.0059879229617052,0.0059879229617052,0.0039221062931184,-0.0015150674098368,0.0015150674096548,-8.5493505879139e-14,-9.6174650165749e-14,3.6258421741869e-14,-2.239006011668e-13,-0.0016257992406754,0.0016257992405867,-0.0016257992397624,0.0016257992396666,-0.0016257992407628,0.0016257992405,-0.0016257992398471,0.0016257992395772,-0.0012651430297863,0.0012651430295277,-0.0012651430300347,0.0012651430297552,-3.6270303731824e-14,2.2388677340678e-13,4.1184512728355e-12,-3.9368172292595e-12,-0.0015150674096549,0.0015150674098368,-0.0016257992391752,0.0016257992420082,-0.0016257992410761,0.0016257992384276,-0.0016257992390892,0.0016257992420962,-0.0016257992409901,0.0016257992385156,-0.0012651430255132,0.0012651430336834,-0.0012651430337707,0.0012651430261385,-0.0015228528518252,0.0015228528491044,-0.0015228528515757,0.0015228528493611,4.2084548277464e-12,4.2191751953292e-12,-0.00065837725623863,0.00065837726745185,1.5498854461812e-13,8.2393551168863e-12,-0.00073402003570315,0.00073402004200113,-0.00073402003299782,0.00073402004470615,-0.00073402003569973,0.00073402004200485,-0.0007340200329944,0.00073402004470988,-0.00083733784740798,0.00083733785961541,-0.00083733784741844,0.00083733785960491,0.68265313945004,128637,2834,0.0062921900942802,0.0062921900942802,0.0027429291532197,17.468112570139,5.4944900561112e-05,5.4944900561112e-05,5.4944900561112e-05,2304700.2493038,0.015445794608573
19419200,0.99879317166961,0.015901944155972,0.0059893810324887,0.0059893810324887,0.0039231820909945,-0.0015150755673022,0.0015150755671203,-8.5390332560425e-14,-9.6233589541662e-14,3.6244980976005e-14,-2.2384816159232e-13,-0.001626384958879,0.0016263849587903,-0.0016263849594939,0.001626384959398,-0.001626384958974,0.0016263849587114,-0.0016263849595709,0.001626384959301,-0.0012643539954593,0.001264353995201,-0.0012643539960012,0.0012643539957216,-3.6241186974262e-14,2.2385027894491e-13,3.4950859177242e-12,-3.3134219720861e-12,-0.0015150755671203,0.0015150755673022,-0.0016263849576432,0.0016263849600195,-0.0016263849605432,0.0016263849583515,-0.0016263849575572,0.0016263849601074,-0.0016263849604572,0.0016263849584395,-0.0012643539918424,0.0012643539988055,-0.0012643539990811,0.001264353992656,-0.0015227413118418,0.0015227413095498,-0.0015227413115923,0.0015227413098066,2.925246832868e-13,3.0340755463689e-13,-0.00065704200811164,0.00065704200817552,-3.0341373680097e-12,3.7229700599379e-12,-0.00073224698944387,0.00073224698714065,-0.00073224698719466,0.00073224698938952,-0.00073224698944039,0.00073224698714442,-0.00073224698719118,0.0007322469893933,-0.00083676290344129,0.00083676290653578,-0.00083676290345193,0.00083676290652514,0.72156537812287,128637,2834,0.0062922254550331,0.0062922254550331,0.0027373908430287,17.551686816808,5.5613494534463e-05,5.5613494534463e-05,5.5613494534463e-05,2283564.0445278,0.015440241697729
20419200,0.99901761640531,0.015905455454686,0.0059906617413779,0.0059906617413779,0.0039241319719298,-0.0015203665877289,0.0015203665875471,-8.5383744526391e-14,-9.6213296043967e-14,3.6251627831772e-14,-2.2383533845465e-13,-0.0016303217864253,0.0016303217863366,-0.0016303217873478,0.0016303217872519,-0.001630321786517,0.0016303217862544,-0.0016303217874279,0.0016303217871581,-0.0012705214512006,0.0012705214509422,-0.0012705214517958,0.0012705214515162,-3.6260656967702e-14,2.2382110721431e-13,1.6644739515552e-12,-1.4829083562559e-12,-0.0015203665875471,0.0015203665877289,-0.001630321785776,0.0016303217869488,-0.0016303217878105,0.0016303217868222,-0.00163032178569,0.0016303217870367,-0.0016303217877246,0.0016303217869102,-0.0012705214493574,0.0012705214527272,-0.0012705214531021,0.00127052145027,-0.0015289248767604,0.0015289248756844,-0.0015289248765111,0.0015289248759411,-6.8499340606778e-13,-6.7412881759207e-13,-0.00065889236489608,0.00065889236229275,-2.2169479796434e-12,8.9708602110843e-13,-0.00073637254244007,0.00073637253912257,-0.0007363725413988,0.00073637254016353,-0.00073637254243659,0.00073637253912633,-0.00073637254139533,0.0007363725401673,-0.00083749951516622,0.00083749951490967,-0.00083749951517684,0.00083749951489904,0.72908888616586,128637,2834,0.0063141145179251,0.0063141145179251,0.0027451028624594,18.599600403253,6.3996803226023e-05,6.3996803226023e-05,6.3996803226023e-05,2197378.5720785,0.015492532783268
21419200,0.99917022529332,0.015907780567013,0.0059915100859202,0.0059915100859202,0.0039247603951724,-0.0015144948051405,0.0015144948049586,-8.5376627096765e-14,-9.6174944274411e-14,3.6259068780926e-14,-2.2379804547627e-13,-0.0016245611230995,0.0016245611230109,-0.0016245611225552,0.0016245611224593,-0.0016245611231839,0.0016245611229213,-0.0016245611226427,0.0016245611223729,-0.0012642863403427,0.0012642863400843,-0.0012642863406602,0.0012642863403807,-3.6244304526082e-14,2.2380532460822e-13,2.0975377960857e-12,-1.9159413663652e-12,-0.0015144948049586,0.0015144948051405,-0.0016245611222511,0.0016245611237531,-0.001624561123217,0.0016245611218995,-0.0016245611221652,0.0016245611238411,-0.001624561123131,0.0016245611219875,-0.0012642863380333,0.0012642863422362,-0.0012642863424328,0.0012642863387676,-0.0015231171578569,0.0015231171564788,-0.0015231171576076,0.0015231171567355,3.0956665073509e-12,3.1065056277972e-12,-0.00064992792364971,0.00064992793181158,1.0337022152245e-12,5.0873076597725e-12,-0.00072813247753459,0.00072813248259059,-0.00072813247616663,0.00072813248395817,-0.00072813247753111,0.00072813248259434,-0.00072813247616318,0.00072813248396193,-0.00082898409347807,0.00082898410191131,-0.00082898409348864,0.00082898410190071,0.7094962980351,128637,2834,0.0062897930171149,0.0062897930171149,0.0027078786743744,15.218251048342,3.6946008386739e-05,3.6946008386739e-05,3.6946008386739e-05,2170439.2738864,0.015405340939759
22419200,0.99929661053989,0.015909724879323,0.0059922183844099,0.0059922183844099,0.0039252881105028,-0.0015129523920495,0.0015129523918676,-8.5381274013628e-14,-9.6179708834739e-14,3.623777531378e-14,-2.2377354622471e-13,-0.0016238001020861,0.0016238001019974,-0.0016238001025345,0.0016238001024387,-0.0016238001021763,0.0016238001019137,-0.0016238001026162,0.0016238001023464,-0.0012618709691013,0.001261870968843,-0.0012618709696079,0.0012618709693284,-3.6248422047353e-14,2.2376131141925e-13,2.1295925940625e-12,-1.9480655136711e-12,-0.0015129523918676,0.0015129523920494,-0.0016238001012705,0.0016238001027619,-0.0016238001031636,0.0016238001018566,-0.0016238001011845,0.0016238001028499,-0.0016238001030777,0.0016238001019446,-0.0012618709667944,0.0012618709710723,-0.001261870971378,0.0012618709676377,-0.0015212829698075,0.0015212829684181,-0.0015212829695581,0.0015212829686747,5.5626540801314e-13,5.6710355772853e-13,-0.00064762634776801,0.00064762634869101,-1.4612245811803e-12,2.5994943225269e-12,-0.00072509281324639,0.00072509281247743,-0.00072509281188689,0.00072509281383662,-0.00072509281324293,0.0007250928124812,-0.00072509281188343,0.00072509281384039,-0.00082760631106441,0.00082760631387299,-0.000827606311075,0.00082760631386239,0.71603401204475,128637,2834,0.0062834101519387,0.0062834101519387,0.0026983216511761,14.858157225938,3.4065257807502e-05,3.4065257807502e-05,3.4065257807502e-05,2164353.0459973,0.015382672923922
23419200,0.99940885952409,0.015911422298472,0.0059928368104418,0.0059928368104418,0.0039257486775883,-0.0015153342100317,0.0015153342098499,-8.5389097304044e-14,-9.618382635601e-14,3.6238775283232e-14,-2.2376969340123e-13,-0.0016260303675953,0.0016260303675066,-0.0016260303684435,0.0016260303683476,-0.0016260303676872,0.0016260303674247,-0.0016260303685234,0.0016260303682537,-0.0012642134667536,0.0012642134664953,-0.0012642134673377,0.0012642134670582,-3.6246716217112e-14,2.237650633152e-13,1.8862310096925e-12,-1.7046928529506e-12,-0.0015153342098499,0.0015153342100317,-0.0016260303668736,0.0016260303681934,-0.0016260303689787,0.0016260303678434,-0.0016260303667876,0.0016260303682814,-0.0016260303688928,0.0016260303679313,-0.0012642134646951,0.0012642134684997,-0.0012642134688595,0.0012642134655926,-0.001523842139331,0.001523842138107,-0.0015238421390816,0.0015238421383637,-4.8731745377894e-13,-4.7648264966448e-13,-0.00064857456740215,0.00064857456536196,-2.2376858902321e-12,1.3171812757221e-12,-0.00072653612071527,0.00072653611771152,-0.00072653611952743,0.00072653611889904,-0.00072653612071182,0.00072653611771531,-0.00072653611952399,0.00072653611890281,-0.00082851846866742,0.00082851846899762,-0.00082851846867796,0.00082851846898697,0.70403094493613,128637,2834,0.0062932672030225,0.0062932672030225,0.0027022726929837,15.707567741214,4.0860541929709e-05,4.0860541929709e-05,4.0860541929709e-05,2126103.5920963,0.015406703343312
24419200,0.99951483537263,0.015913052156964,0.0059934292288597,0.0059934292288597,0.0039261936992451,-0.0015190343159602,0.0015190343157784,-8.5372097823366e-14,-9.6159885910904e-14,3.6214393675132e-14,-2.2371948905259e-13,-0.0016301686896849,0.0016301686895963,-0.0016301686909655,0.0016301686908696,-0.0016301686897752,0.0016301686895127,-0.001630168691047,0.0016301686907773,-0.0012674588162518,0.0012674588159935,-0.0012674588169244,0.001267458816645,-3.6222658128541e-14,2.2370927928866e-13,2.5887605331344e-13,-7.7372110599837e-14,-0.0015190343157784,0.0015190343159601,-0.0016301686894934,0.0016301686897375,-0.0016301686909704,0.0016301686909109,-0.0016301686894075,0.0016301686898254,-0.0016301686908846,0.0016301686909988,-0.0012674588157788,0.0012674588163904,-0.0012674588168607,0.0012674588167866,-0.001527366543597,0.0015273665434556,-0.0015273665433477,0.0015273665437122,-1.7700608061998e-12,-1.7592341389576e-12,-0.00065226275183305,0.00065226274626141,-1.9087080726315e-12,-1.6040505708855e-12,-0.00072971441871309,0.00072971441389737,-0.00072971441860525,0.00072971441400489,-0.00072971441870963,0.00072971441390112,-0.00072971441860179,0.00072971441400865,-0.0008326387783656,0.00083263877480265,-0.00083263877837617,0.00083263877479205,0.71548085886935,128637,2834,0.0063085907578494,0.0063085907578494,0.0027175985916309,17.886345435049,5.8290763480392e-05,5.8290763480392e-05,5.8290763480392e-05,2106621.568706,0.015453384428126
25419200,0.99961144653484,0.015914612187827,0.0059939940732559,0.0059939940732559,0.0039266240413148,-0.0015239322789574,0.0015239322787756,-8.5377979996611e-14,-9.6134592565951e-14,3.6202894026438e-14,-2.2369334279252e-13,-0.0016347049753768,0.0016347049752881,-0.0016347049766122,0.0016347049765163,-0.0016347049754668,0.0016347049752044,-0.0016347049766939,0.0016347049764243,-0.0012725874741412,0.001272587473883,-0.001272587474801,0.0012725874745217,-3.6212717255757e-14,2.2368159665549e-13,2.9328940038937e-13,-1.1180520207488e-13,-0.0015239322787756,0.0015239322789573,-0.0016347049751722,0.0016347049754405,-0.0016347049766303,0.0016347049765465,-0.0016347049750863,0.0016347049755284,-0.0016347049765444,0.0016347049766344,-0.0012725874736331,0.0012725874743118,-0.0012725874747726,0.0012725874746313,-0.0015325113670969,0.0015325113669319,-0.0015325113668477,0.0015325113671885,-1.6499903825294e-12,-1.639193453177e-12,-0.00065608428343572,0.00065608427819942,-1.8245859954444e-12,-1.4515294214784e-12,-0.00073420966594517,0.00073420966137774,-0.00073420966581405,0.00073420966150855,-0.00073420966594172,0.00073420966138149,-0.0007342096658106,0.0007342096615123,-0.00083613652129027,0.00083613651801389,-0.00083613652130082,0.00083613651800332,0.75063832770913,128637,2834,0.0063288647489807,0.0063288647489807,0.0027334855413547,19.93105726467,7.4648458117359e-05,7.4648458117359e-05,7.4648458117359e-05,2061890.0660858,0.015510694294028
26419200,0.99969064347818,0.015915919495598,0.005994466581226,0.0059944665812261,0.0039269863331455,-0.001526703045651,0.0015267030454692,-8.5393920686105e-14,-9.6129710362158e-14,3.6242863393637e-14,-2.2375407623127e-13,-0.0016366129307135,0.0016366129306248,-0.0016366129313877,0.0016366129312919,-0.0016366129308013,0.0016366129305388,-0.0016366129314717,0.001636612931202,-0.0012760503633786,0.0012760503631202,-0.0012760503639237,0.0012760503636444,-3.6251069025313e-14,2.2374399829925e-13,6.9613802350029e-13,-5.1464014758205e-13,-0.0015267030454692,0.001526703045651,-0.0016366129303582,0.001636612930907,-0.0016366129315565,0.0016366129311921,-0.0016366129302724,0.001636612930995,-0.0016366129314706,0.0016366129312801,-0.0012760503624622,0.0012760503639259,-0.0012760503643035,0.0012760503633774,-0.001535734666957,0.0015357346665195,-0.0015357346667077,0.0015357346667761,-1.5672616139955e-13,-1.4594965898516e-13,-0.00065652418542245,0.00065652418439853,-7.6493220537561e-13,4.3846997269037e-13,-0.00073633466509515,0.00073633466364757,-0.00073633466468325,0.00073633466405917,-0.00073633466509171,0.0007363346636513,-0.0007363346646798,0.00073633466406291,-0.00083583544895254,0.00083583544924963,-0.00083583544896307,0.00083583544923908,0.76690856828019,128637,2834,0.0063403223228947,0.0063403223228947,0.002735331346528,20.394822419925,7.8358579359403e-05,7.8358579359403e-05,7.8358579359403e-05,2003621.873289,0.015535843324578
27419200,0.99975971839192,0.015917016838393,0.0059948636695381,0.0059948636695381,0.0039272894993167,-0.0015305751653369,0.0015305751651552,-8.5440742785133e-14,-9.6084182341243e-14,3.6241569315523e-14,-2.2375584088324e-13,-0.0016403119751037,0.001640311975015,-0.0016403119761156,0.0016403119760198,-0.0016403119751935,0.001640311974931,-0.0016403119761976,0.0016403119759279,-0.0012802675812616,0.0012802675810031,-0.0012802675818718,0.0012802675815925,-3.6251539599173e-14,2.237436221044e-13,7.5147039345147e-13,-5.6997678245349e-13,-0.0015305751651552,0.0015305751653369,-0.0016403119747452,0.0016403119753195,-0.0016403119762876,0.0016403119758977,-0.0016403119746593,0.0016403119754075,-0.0016403119762017,0.0016403119759857,-0.0012802675803027,0.0012802675818793,-0.0012802675822941,0.001280267581255,-0.0015395571262987,0.001539557125828,-0.0015395571260494,0.0015395571260847,-1.0206385036732e-12,-1.00995570537e-12,-0.00065952528625355,0.00065952528276013,-1.6577854146171e-12,-3.6300961618776e-13,-0.00074007117999062,0.000740071176531,-0.00074007117955203,0.0007400711769693,-0.00074007117998721,0.00074007117653471,-0.00074007117954861,0.00074007117697301,-0.00083861218892649,0.00083861218733607,-0.00083861218893694,0.00083861218732561,0.73787588813286,128637,2834,0.0063563464726245,0.0063563464726245,0.0027478103439327,22.255541101455,9.3244328811636e-05,9.3244328811636e-05,9.3244328811636e-05,1962449.6660335,0.01558106474029
28419200,0.99981648487499,0.015917965269036,0.005995205410069,0.005995205410069,0.0039275544488982,-0.0015315341306361,0.0015315341304543,-8.5420390465706e-14,-9.6118887163388e-14,3.6232569590458e-14,-2.2374934108181e-13,-0.001642128273368,0.0016421282732793,-0.0016421282742214,0.0016421282741256,-0.0016421282734574,0.0016421282731949,-0.0016421282743038,0.0016421282740341,-0.0012804015143782,0.0012804015141199,-0.0012804015149578,0.0012804015146785,-3.6241186974262e-14,2.2373859905013e-13,9.3126299598211e-13,-7.4975396317814e-13,-0.0015315341304543,0.0015315341306361,-0.0016421282729463,0.001642128273643,-0.0016421282744566,0.0016421282739443,-0.0016421282728604,0.001642128273731,-0.0016421282743707,0.0016421282740323,-0.0012804015132413,0.0012804015151692,-0.0012804015155581,0.0012804015141678,-0.0015401268949488,0.0015401268943573,-0.0015401268946995,0.0015401268946139,-6.0499096779186e-13,-5.9425266951827e-13,-0.00066097765617695,0.00066097765387497,-1.428265455706e-12,2.3210805631703e-13,-0.0007404254223931,0.00074042541977305,-0.00074042542183198,0.00074042542033387,-0.00074042542238967,0.00074042541977677,-0.00074042542182854,0.0007404254203376,-0.00084094127697951,0.00084094127643643,-0.00084094127699,0.00084094127642592,0.77519523914263,128637,2834,0.0063603239046656,0.0063603239046656,0.0027538446457838,23.443516433064,0.00010274813146451,0.00010274813146451,0.00010274813146451,1964027.4657247,0.01559526924429
29419200,0.99986260986596,0.015918649063956,0.0059954531970927,0.0059954531970927,0.0039277426697707,-0.0015359276755006,0.0015359276753194,-8.5094988641803e-14,-9.5796720534769e-14,3.5582736501237e-14,-2.2243476359419e-13,-0.001645596331305,0.0016455963312164,-0.0016455963321951,0.0016455963320993,-0.0016455963313942,0.001645596331133,-0.0016455963322765,0.0016455963320081,-0.0012855991408034,0.0012855991405463,-0.0012855991413871,0.001285599141109,-3.5593677343472e-14,2.224220566639e-13,1.0071436534086e-12,-8.2628298556315e-13,-0.0015359276753195,0.0015359276755006,-0.0016455963308608,0.0016455963316061,-0.0016455963324528,0.001645596331892,-0.0016455963307756,0.0016455963316934,-0.0016455963323675,0.0016455963319793,-0.0012855991395946,0.0012855991416716,-0.0012855991420618,0.0012855991405198,-0.0015449659834755,0.0015449659828353,-0.0015449659832281,0.00154496598309,-6.7928337743768e-13,-6.6854190003327e-13,-0.0006635320086785,0.00066353200614084,-1.5742111442242e-12,2.3527395960086e-13,-0.00074462577177625,0.00074462576891336,-0.00074462577116606,0.00074462576952325,-0.00074462577177281,0.00074462576891709,-0.00074462577116262,0.00074462576952698,-0.00084262049559477,0.00084262049492858,-0.00084262049560528,0.00084262049491807,0.68887861521212,128637,2834,0.0063785006864598,0.0063785006864598,0.0027644726901136,24.782753688626,0.00011346202950901,0.00011346202950901,0.00011346202950901,1906145.8786383,0.015642988225964
30419200,0.99989930003618,0.01591918369398,0.0059956468588395,0.0059956468588395,0.0039278899763014,-0.001534554114843,0.0015345541146616,-8.5254042606343e-14,-9.5949245287007e-14,3.5911373520425e-14,-2.2306377379012e-13,-0.0016466075181138,0.0016466075180251,-0.0016466075190114,0.0016466075189156,-0.0016466075182036,0.0016466075179417,-0.0016466075190928,0.0016466075188238,-0.001281846691442,0.0012818466911843,-0.0012818466920384,0.0012818466917598,-3.592278493652e-14,2.2305056630068e-13,1.0393276348815e-12,-8.5815469205145e-13,-0.0015345541146616,0.001534554114843,-0.0016466075176606,0.0016466075184263,-0.0016466075192782,0.0016466075186968,-0.001646607517575,0.0016466075185139,-0.0016466075191926,0.0016466075187844,-0.0012818466902043,0.0012818466923446,-0.0012818466927408,0.0012818466911368,-0.0015425461059965,0.0015425461053343,-0.0015425461057481,0.0015425461055899,-7.2403479179247e-13,-7.1329947389658e-13,-0.00066513406743193,0.00066513406480932,-1.6479681409986e-12,2.244453051147e-13,-0.00074245298557955,0.00074245298264315,-0.000742452984949,0.00074245298327339,-0.00074245298557612,0.00074245298264688,-0.00074245298494556,0.00074245298327712,-0.00084659440587627,0.00084659440514671,-0.00084659440588675,0.0008465944051362,0.67662188291634,128637,2834,0.0063728429640746,0.0063728429640746,0.002771110580916,26.133485824151,0.00012426788659321,0.00012426788659321,0.00012426788659321,1968094.8770544,0.015638229132288
31419200,0.99992900278099,0.015919648172929,0.0059958142921079,0.0059958142921079,0.0039280195887134,-0.0015386298538329,0.0015386298536508,-8.5087165351387e-14,-9.687962862914e-14,3.6508502337373e-14,-2.2434258766441e-13,-0.0016509862661775,0.0016509862660891,-0.0016509862673208,0.0016509862672245,-0.0016509862662692,0.0016509862660064,-0.0016509862674014,0.0016509862671308,-0.0012855252313225,0.0012855252310644,-0.001285525231975,0.0012855252316937,-3.6467062426863e-14,2.2434301228379e-13,9.4584808511434e-13,-7.6411260541382e-13,-0.0015386298536508,0.0015386298538329,-0.0016509862657654,0.0016509862664618,-0.0016509862675465,0.0016509862670346,-0.0016509862656792,0.00165098626655,-0.0016509862674603,0.0016509862671229,-0.0012855252301846,0.0012855252321444,-0.0012855252325762,0.0012855252311547,-0.0015465350800337,0.0015465350794352,-0.0015465350797833,0.0015465350796925,-1.3532952095181e-12,-1.3414386376175e-12,-0.00066965263329566,0.00066965262888315,-2.1650214336107e-12,-4.9401964333312e-13,-0.00074640287580957,0.00074640287149154,-0.00074640287524842,0.00074640287205237,-0.00074640287580577,0.00074640287149565,-0.00074640287524472,0.00074640287205638,-0.00085142028206349,0.00085142027987601,-0.00085142028207495,0.00085142027986426,0.72614080415819,128637,2834,0.0063897218277522,0.0063897218277522,0.0027898832290634,28.443692829802,0.00014274954263842,0.00014274954263842,0.00014274954263842,1954989.7355,0.01569158094793
32419200,0.99995069843361,0.015920004421975,0.0059959423550699,0.0059959423550699,0.0039281197118348,-0.0015435493874317,0.0015435493872497,-8.4944228541538e-14,-9.6753985408631e-14,3.6384712001436e-14,-2.2406983129105e-13,-0.0016542343496103,0.001654234349522,-0.0016542343503866,0.0016542343502904,-0.0016542343496998,0.0016542343494374,-0.0016542343504692,0.0016542343501989,-0.0012917871334176,0.00129178713316,-0.0012917871339861,0.0012917871337053,-3.639441758729e-14,2.2405787140825e-13,1.0730375321697e-12,-8.9137194383133e-13,-0.0015435493872497,0.0015435493874317,-0.0016542343491411,0.0016542343499326,-0.0016542343506694,0.0016542343500623,-0.001654234349055,0.0016542343500207,-0.0016542343505833,0.0016542343501504,-0.0012917871321415,0.0012917871343473,-0.0012917871347249,0.0012917871330574,-0.001552431862147,0.0015524318614606,-0.0015524318618973,0.0015524318617177,-3.9308258465752e-13,-3.8122823609201e-13,-0.00067165861782129,0.00067165861611643,-1.3591655519548e-12,5.8663760803552e-13,-0.00075101757571283,0.00075101757348199,-0.00075101757505646,0.00075101757413806,-0.00075101757570902,0.00075101757348609,-0.00075101757505265,0.00075101757414215,-0.00085188106422977,0.00085188106425112,-0.00085188106424136,0.00085188106423952,0.7621255417149,128637,2834,0.0064100690791729,0.0064100690791729,0.002798236286084,29.297399999548,0.00014957919999638,0.00014957919999638,0.00014957919999638,1877476.7591268,0.015741404765478
33419200,0.99996577668284,0.015920254905658,0.00599603230498,0.00599603230498,0.0039281902956977,-0.001544822774695,0.0015448227745132,-8.4889583152094e-14,-9.6711045543944e-14,3.6312537735722e-14,-2.2390280698176e-13,-0.0016548416180508,0.0016548416179625,-0.0016548416186234,0.0016548416185272,-0.0016548416181396,0.0016548416178773,-0.0016548416187065,0.0016548416184363,-0.0012937490970766,0.0012937490968192,-0.0012937490975994,0.0012937490973188,-3.6322890360633e-14,2.2389018667567e-13,1.304830348749e-12,-1.1232653063395e-12,-0.0015448227745132,0.001544822774695,-0.0016548416174999,0.0016548416184491,-0.0016548416189878,0.001654841618223,-0.001654841617414,0.0016548416185372,-0.0016548416189018,0.001654841618311,-0.0012937490955696,0.0012937490982284,-0.0012937490985694,0.0012937490964485,-0.0015539532728667,0.0015539532720249,-0.0015539532726172,0.0015539532722817,1.7009731513275e-13,1.8196364701784e-13,-0.00067100940409687,0.00067100940396753,-1.0365682012e-12,1.3804003738338e-12,-0.00075188171816397,0.00075188171703401,-0.00075188171734949,0.0007518817178482,-0.00075188171816016,0.00075188171703811,-0.00075188171734567,0.00075188171785229,-0.00085061074645871,0.00085061074787732,-0.0008506107464703,0.00085061074786571,0.77026801566026,128637,2834,0.0064153277867183,0.0064153277867183,0.0027955534426961,29.317356885043,0.00014973885508034,0.00014973885508034,0.00014973885508034,1832164.1348563,0.015749366070284
34419200,0.99997718958072,0.015920437504697,0.005996097943527,0.005996097943527,0.0039282416176427,-0.0015487846658073,0.0015487846656254,-8.4888818469572e-14,-9.6729103815805e-14,3.6322360965041e-14,-2.2393054142861e-13,-0.0016588119116099,0.0016588119115216,-0.0016588119127101,0.0016588119126139,-0.0016588119117011,0.0016588119114388,-0.0016588119127908,0.0016588119125206,-0.0012979289551013,0.0012979289548439,-0.0012979289557332,0.0012979289554525,-3.6329654859864e-14,2.2392123099383e-13,1.0468175870199e-12,-8.6522586206148e-13,-0.0015487846656254,0.0015487846658072,-0.0016588119111625,0.0016588119119268,-0.0016588119129709,0.0016588119123911,-0.0016588119110766,0.0016588119120148,-0.0016588119128849,0.0016588119124791,-0.001297928953861,0.0012979289560193,-0.0012979289564365,0.0012979289548162,-0.0015577643525264,0.001557764351861,-0.0015577643522769,0.0015577643521179,-1.2267958285829e-12,-1.2149102970891e-12,-0.00067486367601375,0.00067486367192242,-2.1434120496449e-12,-2.6745719701328e-13,-0.0007560444474843,0.00075604444335901,-0.0007560444468544,0.00075604444398861,-0.00075604444748048,0.00075604444336311,-0.00075604444685058,0.00075604444399271,-0.0008543673201396,0.00085436731828534,-0.00085436732015122,0.00085436731827372,0.74168251550537,128637,2834,0.0064317263412495,0.0064317263412495,0.0028115706438232,31.487355101971,0.00016709884081577,0.00016709884081577,0.00016709884081577,1803966.2999639,0.015798950682384
35419200,0.99998614113212,0.015920575843773,0.0059961476900062,0.0059961476900063,0.0039282804637604,-0.0015559904109133,0.0015559904107315,-8.4874524788587e-14,-9.6700398810371e-14,3.6237157685589e-14,-2.2379010454239e-13,-0.0016666743658518,0.0016666743657634,-0.001666674367532,0.0016666743674358,-0.0016666743659447,0.0016666743656825,-0.0016666743676109,0.0016666743673408,-0.0013046459362417,0.0013046459359844,-0.0013046459370058,0.0013046459367253,-3.6243363378363e-14,2.23781360554e-13,3.8380049362115e-13,-2.0225062652925e-13,-0.0015559904107315,0.0015559904109133,-0.0016666743656386,0.0016666743659514,-0.0016666743675586,0.0016666743674303,-0.0016666743655527,0.0016666743660394,-0.0016666743674726,0.0016666743675183,-0.0013046459356625,0.0013046459365246,-0.0013046459370482,0.0013046459367239,-0.0015646049434618,0.0015646049432418,-0.0015646049432124,0.0015646049434984,-2.798382333836e-12,-2.7865114916337e-12,-0.00068395153120906,0.00068395152269236,-3.0252663448957e-12,-2.4984597178883e-12,-0.00076393956098407,0.00076393955374578,-0.00076393956080698,0.00076393955392256,-0.00076393956098026,0.00076393955374988,-0.00076393956080316,0.00076393955392666,-0.00086392052982202,0.00086392052404842,-0.00086392052983362,0.0008639205240368,0.71640168569595,128637,2834,0.0064615672593762,0.0064615672593762,0.0028493165742914,35.940242350378,0.00020272193880302,0.00020272193880302,0.00020272193880302,1798100.3275652,0.015897919388708
36419200,0.99999186929054,0.015920666146571,0.0059961800837537,0.0059961800837537,0.0039283059790637,-0.0015580454091639,0.0015580454089821,-8.4888230252247e-14,-9.670639862708e-14,3.6224187493584e-14,-2.2378639877325e-13,-0.0016693318767616,0.0016693318766732,-0.0016693318777173,0.001669331877621,-0.0016693318768511,0.0016693318765888,-0.0016693318777997,0.0016693318775295,-0.001306022782665,0.0013060227824076,-0.0013060227832702,0.0013060227829897,-3.6233951901171e-14,2.2377386112777e-13,6.8951782345656e-13,-5.0795956674274e-13,-0.0015580454089821,0.0015580454091639,-0.0016693318764207,0.0016693318769564,-0.0016693318778716,0.0016693318775205,-0.0016693318763348,0.0016693318770443,-0.0016693318777857,0.0016693318776084,-0.001306022781766,0.00130602278322,-0.0013060227836324,0.0013060227827161,-0.0015664394188998,0.0015664394184694,-0.0015664394186504,0.0015664394187261,-9.0741935995867e-13,-8.9555652371588e-13,-0.00068675654913384,0.00068675654600783,-1.4870928938623e-12,-3.1231356197624e-13,-0.00076575448031858,0.00076575447718944,-0.0007657544799193,0.00076575447758841,-0.00076575448031477,0.00076575447719354,-0.00076575447991549,0.00076575447759251,-0.00086733298092559,0.00086733297956323,-0.00086733298093717,0.00086733297955161,0.73063259847638,128637,2834,0.0064700823431296,0.0064700823431296,0.0028609667407742,37.4842770029,0.0002150742160232,0.0002150742160232,0.0002150742160232,1801000.4954721,0.015927053805953
37419200,0.9999952515899,0.015920718648741,0.0059961989186104,0.0059961989186104,0.0039283208115207,-0.0015594295948055,0.0015594295946236,-8.4875642401503e-14,-9.6693340202477e-14,3.6227863851862e-14,-2.2377428149636e-13,-0.0016702768963506,0.0016702768962622,-0.0016702768969651,0.0016702768968689,-0.0016702768964388,0.0016702768961766,-0.0016702768970487,0.0016702768967786,-0.0013076699297531,0.0013076699294958,-0.0013076699302845,0.001307669930004,-3.6235304801017e-14,2.2376496813198e-13,9.9491270484751e-13,-8.1337262996565e-13,-0.0015594295946237,0.0015594295948055,-0.0016702768958987,0.0016702768966446,-0.0016702768972304,0.001670276896669,-0.0016702768958128,0.0016702768967326,-0.0016702768971445,0.001670276896757,-0.0013076699285472,0.0013076699305974,-0.0013076699309536,0.0013076699294412,-0.0015681255193628,0.0015681255187267,-0.0015681255191135,0.0015681255189833,9.6243660235847e-15,2.1487167111206e-14,-0.00068688764041948,0.00068688763987847,-8.9333604743226e-13,9.0716953659336e-13,-0.00076666230229401,0.00076666230103848,-0.00076666230168397,0.00076666230164821,-0.0007666623022902,0.00076666230104257,-0.00076666230168016,0.00076666230165231,-0.00086712155938883,0.0008671215602593,-0.00086712155940043,0.00086712156024769,0.71957515716125,128637,2834,0.0064758062991266,0.0064758062991266,0.0028615199398708,37.68091173466,0.00021664729387728,0.00021664729387728,0.00021664729387728,1771333.383031,0.01593924775347
38419200,0.99999719556724,0.015920749947758,0.0059962101208684,0.0059962101208684,0.0039283297060207,-0.0015582414390126,0.0015582414388308,-8.4841525796683e-14,-9.6722456960039e-14,3.6224158082718e-14,-2.2376237009554e-13,-0.0016693731705991,0.0016693731705108,-0.0016693731710452,0.0016693731709489,-0.0016693731706889,0.0016693731704267,-0.0016693731711272,0.0016693731708571,-0.0013060677155687,0.0013060677153115,-0.0013060677160656,0.001306067715785,-3.6231187279746e-14,2.2375354465284e-13,1.9790200900314e-12,-1.7974848491011e-12,-0.0015582414388308,0.0015582414390126,-0.0016693731698308,0.0016693731712243,-0.0016693731716269,0.001669373170418,-0.0016693731697449,0.0016693731713122,-0.001669373171541,0.0016693731705059,-0.0013060677134078,0.0013060677173898,-0.0013060677176898,0.0013060677142455,-0.0015668887036558,0.001566888702366,-0.0015668887034065,0.0015668887026226,5.4352134599128e-13,5.5544750204832e-13,-0.0006852365599194,0.00068523656083469,-1.3265498571654e-12,2.4341671378648e-12,-0.00076471221214742,0.00076471221144065,-0.0007647122108871,0.00076471221270067,-0.00076471221214359,0.00076471221144478,-0.00076471221088326,0.0007647122127048,-0.00086585581442263,0.00086585581711309,-0.00086585581443429,0.00086585581710142,0.74581354470513,128637,2834,0.0064708892278736,0.0064708892278736,0.0028546640089346,37.194787289493,0.00021275829831594,0.00021275829831594,0.00021275829831594,1768996.818828,0.015922291142495
38880000,0.99999787445814,0.015920760939384,0.0059962140531711,0.0059962140531711,0.0039283328330418,-0.0015593808352219,0.0015593808350401,-8.4831702567365e-14,-9.6715457173877e-14,3.6238657639767e-14,-2.2377148746407e-13,-0.0016698900403794,0.0016698900402911,-0.0016698900409494,0.0016698900408532,-0.0016698900404698,0.0016698900402077,-0.0016698900410308,0.0016698900407607,-0.0013077796088302,0.0013077796085729,-0.0013077796093519,0.0013077796090714,-3.6242539874108e-14,2.2376584459877e-13,1.9442113796314e-12,-1.7626873330972e-12,-0.0015593808350401,0.0015593808352219,-0.0016698900396274,0.001669890040994,-0.001669890041515,0.0016698900403328,-0.0016698900395415,0.001669890041082,-0.001669890041429,0.0016698900404207,-0.0013077796067064,0.0013077796106216,-0.001307779610939,0.0013077796075614,-0.0015683254541872,0.0015683254529219,-0.0015683254539378,0.0015683254531786,2.3485932003895e-13,2.4678849019279e-13,-0.00068516971114014,0.00068516971116238,-1.5929058231146e-12,2.0929485471527e-12,-0.0007657477514911,0.00076574775008006,-0.00076574775025682,0.00076574775131403,-0.00076574775148726,0.00076574775008418,-0.00076574775025298,0.00076574775131815,-0.00086520045578185,0.00086520045775909,-0.00086520045579352,0.00086520045774742,0.74997280595469,128637,2834,0.0064755972993344,0.0064755972993344,0.0028543943708805,37.193619221454,0.00021274895377163,0.00021274895377163,0.00021274895377163,1740351.4656237,0.015931585747081
