time,ASR_ext,ASR_strain,ASR_strain_xx,ASR_strain_yy,ASR_strain_zz,disp_x_101,disp_x_102,disp_x_103,disp_x_104,disp_x_105,disp_x_106,disp_x_p1_neg,disp_x_p1_pos,disp_x_p2_neg,disp_x_p2_pos,disp_x_p3_neg,disp_x_p3_pos,disp_x_p4_neg,disp_x_p4_pos,disp_x_p5_neg,disp_x_p5_pos,disp_x_p6_neg,disp_x_p6_pos,disp_y_101,disp_y_102,disp_y_103,disp_y_104,disp_y_105,disp_y_106,disp_y_p1_neg,disp_y_p1_pos,disp_y_p2_neg,disp_y_p2_pos,disp_y_p3_neg,disp_y_p3_pos,disp_y_p4_neg,disp_y_p4_pos,disp_y_p5_neg,disp_y_p5_pos,disp_y_p6_neg,disp_y_p6_pos,disp_y_p7_neg,disp_y_p7_pos,disp_y_p8_neg,disp_y_p8_pos,disp_z_101,disp_z_102,disp_z_103,disp_z_104,disp_z_105,disp_z_106,disp_z_p1_neg,disp_z_p1_pos,disp_z_p2_neg,disp_z_p2_pos,disp_z_p3_neg,disp_z_p3_pos,disp_z_p4_neg,disp_z_p4_pos,disp_z_p5_neg,disp_z_p5_pos,disp_z_p6_neg,disp_z_p6_pos,humidity,ndof,nelem,strain_xx,strain_yy,strain_zz,temp,thermal_strain_xx,thermal_strain_yy,thermal_strain_zz,vonmises,vstrain
2419200,0,0,0,0,0,0,0,0,0,0,0,0,0,0,0,0,0,0,0,0,0,0,0,0,0,0,0,0,0,0,0,0,0,0,0,0,0,0,0,0,0,0,0,0,0,0,0,0,0,0,0,0,0,0,0,0,0,0,0,0,0,0,0,0,0,0,0,0,0,0,0,0,0,0,0
3419200,0.15865407263893,0.0030037075439544,0.0010012358479848,0.0010012358479848,0.0010012358479848,-0.00028779587678684,0.00028779587677713,-5.6085492509055e-15,-5.7312219739263e-15,-8.1440894389521e-16,-7.9444558317394e-15,-0.00029112986569341,0.00029112986568986,-0.00029113107830215,0.00029113107829754,-0.00029112987755384,0.00029112987754372,-0.00029113106644237,0.00029113106643808,-0.00027919263404696,0.00027919263401336,-0.00027919331817476,0.00027919331814216,1.3842224188376e-15,8.3009036540151e-15,-7.0890705402663e-10,7.0891347157528e-10,-0.00028779587677646,0.0002877958767869,-0.00029113018623401,0.00029112965192287,-0.00029113075772922,0.00029113129206613,-0.00029113018623666,0.00029112965192184,-0.00029113075773092,0.00029113129206661,-0.00027919339323809,0.00027919202795582,-0.00027919255894487,0.00027919392423963,-0.00028783342058653,0.00028783391440473,-0.00028783342057318,0.00028783391440771,-5.4921865239212e-09,-5.4921863986888e-09,-0.00025104791764078,0.00025103391502181,-4.6330778276379e-09,-6.1646384933602e-09,-0.00025765154887201,0.00025764005632445,-0.00025765207865774,0.00025763952652792,-0.00025765154886839,0.0002576400563312,-0.00025765207866777,0.00025763952652908,-0.00025942075655397,0.00025940872634261,-0.00025942075652149,0.00025940872632302,0.75746877217741,120135,2834,0.0011984263097185,0.0011984263097173,0.0010454645088103,31.79840064026,0.00016958720512208,0.00016958720512208,0.00016958720512208,2383848.3932327,0.0034482511193329
4419200,0.34992768955129,0.0064598014443523,0.0022803720886441,0.0022803720886358,0.0018990572670725,-0.00060547831610517,0.00060547831608239,-1.2958927643068e-14,-1.3796402058799e-14,-8.0351957067573e-15,-1.322214019034e-14,-0.00062246603988068,0.00062246603986876,-0.00062246934428627,0.00062246934427166,-0.00062246608444053,0.0006224660844225,-0.00062246929971939,0.00062246929970368,-0.00056330209530636,0.00056330209526505,-0.00056330369042319,0.00056330369038186,8.1619565401832e-15,1.6446073497117e-14,-8.2995350717434e-10,8.2996942918748e-10,-0.00060547831607987,0.00060547831610383,-0.00062246649396392,0.00062246583269162,-0.00062246889014241,0.00062246955146069,-0.00062246649396374,0.0006224658326952,-0.00062246889013978,0.00062246955145552,-0.00056330300979308,0.00056330142831177,-0.00056330277587783,0.00056330435741207,-0.00060969559467413,0.00060969622168625,-0.00060969559464002,0.00060969622167438,-1.0268357104697e-08,-1.0268357782351e-08,-0.00043977006788328,0.00043974558138402,-9.0750910494625e-09,-1.1039046677025e-08,-0.00045595378791022,0.00045593156768562,-0.00045595447676461,0.00045593087882445,-0.00045595378791539,0.00045593156769509,-0.00045595447677785,0.00045593087882864,-0.00047908971249292,0.00047906797962064,-0.00047908971244832,0.00047906797959382,0.73992840791513,120135,2834,0.0025196117358957,0.0025196117358877,0.0018307884031467,33.599874854578,0.00018399899883663,0.00018399899883663,0.00018399899883663,3950535.2663144,0.0068936823581539
5419200,0.55027467312213,0.0099612052548605,0.0036527982658124,0.0036527982658269,0.0026556087232212,-0.00094853673853681,0.00094853673853475,-5.9292306307801e-17,-1.4132509438008e-15,-2.7242991274729e-15,-5.3732182048134e-16,-0.00098504917028666,0.00098504917028327,-0.0009850506671407,0.00098505066714705,-0.00098504919914527,0.00098504919915466,-0.00098505063827233,0.00098505063827413,-0.00085757641273375,0.00085757641270994,-0.00085757570440132,0.00085757570439712,-2.6707125292125e-15,1.1196613373941e-15,8.1605275803443e-10,-8.1606246892895e-10,-0.00094853673853906,0.00094853673853831,-0.00098504886429968,0.00098504944443281,-0.00098505097311902,0.00098505039297747,-0.00098504886429251,0.00098504944443823,-0.00098505097311341,0.00098505039297245,-0.00085757549734642,0.00085757712947055,-0.00085757661979898,0.0008575749876942,-0.00096158283302172,0.00096158236557044,-0.00096158283301824,0.00096158236556759,-2.1719546340717e-09,-2.1719553570194e-09,-0.00059278565079388,0.00059277871697827,-2.9067800509677e-09,-1.4010561564756e-09,-0.00062003604055795,0.00062002890332734,-0.0006200355238414,0.00062002942003066,-0.00062003604057031,0.00062002890332665,-0.00062003552384659,0.00062002942003606,-0.00067406529897485,0.00067406131382955,-0.00067406529893227,0.00067406131380458,0.72499638738019,120135,2834,0.0039443168214415,0.0039443168214535,0.0024674558276739,36.268271498236,0.00020534617198589,0.00020534617198589,0.00020534617198589,4433069.0577978,0.010409951616267
6419200,0.70681914167805,0.012203736185006,0.0045579627203007,0.0045579627202003,0.0030878107445046,-0.0011749867882832,0.0011749867882664,-9.2965983482431e-15,-1.067132105729e-14,-1.7409762261361e-15,-1.6176564640584e-14,-0.0012347869743927,0.0012347869743848,-0.0012347880171992,0.0012347880171879,-0.0012347869929574,0.0012347869929393,-0.0012347879986254,0.0012347879986087,-0.0010361548441035,0.0010361548440551,-0.001036154665097,0.0010361546650703,3.2538770668774e-14,5.3647871434427e-14,8.769265344919e-10,-8.7683855347452e-10,-0.0011749867881961,0.0011749867883033,-0.0012347866703565,0.0012347872779829,-0.0012347883211307,0.0012347877136485,-0.0012347866703479,0.0012347872779873,-0.0012347883211196,0.001234787713644,-0.001036153919141,0.0010361556686376,-0.001036155589896,0.0010361538406544,-0.0011907647530062,0.0011907642252881,-0.0011907647529857,0.0011907642253026,-3.1176268413985e-09,-3.1176273841823e-09,-0.00066377474655746,0.00066376689340408,-3.9193110684725e-09,-2.252041839403e-09,-0.00070243573924886,0.00070242764799013,-0.00070243517577611,0.00070242821141421,-0.00070243573926577,0.00070242764799606,-0.00070243517578569,0.00070242821142352,-0.00077557068906327,0.00077556526855636,-0.00077557068902487,0.00077556526852668,0.59839168540088,120135,2834,0.0048836011089001,0.0048836011087958,0.0027630327113809,36.738684856664,0.00020910947885331,0.00020910947885331,0.00020910947885331,4438691.3886585,0.012609181583123
7419200,0.8322303150531,0.013779391061569,0.0051887773432614,0.0051887773431574,0.0034018363751505,-0.0013413846397151,0.0013413846396994,-8.3432157087224e-15,-9.4648873247774e-15,2.0414082246153e-15,-1.8896510959855e-14,-0.0014219840309952,0.00142198403099,-0.0014219851991098,0.0014219851991054,-0.0014219840487016,0.0014219840486847,-0.001421985181384,0.0014219851813658,-0.0011632393637745,0.0011632393637302,-0.0011632394063707,0.0011632394063415,2.4713892066385e-14,5.2120305566048e-14,7.8864772878654e-10,-7.8858346264557e-10,-0.0013413846396393,0.0013413846397251,-0.0014219837693704,0.0014219843049203,-0.0014219854606302,0.0014219849251891,-0.0014219837693576,0.0014219843049294,-0.0014219854606162,0.0014219849251937,-0.0011632385497677,0.0011632401241966,-0.0011632402202675,0.0011632386460278,-0.0013586037840857,0.0013586033132706,-0.0013586037840519,0.0013586033132964,-3.9898956054049e-09,-3.989895901419e-09,-0.00071214994344061,0.00071213988080196,-4.6749719666978e-09,-3.2008891514748e-09,-0.00075663741707706,0.00075662765273571,-0.00075663692431803,0.00075662814545643,-0.00075663741708919,0.00075662765274212,-0.00075663692432579,0.00075662814546339,-0.00084926028534315,0.00084925293093712,-0.00084926028530714,0.00084925293091541,0.52694121020036,120135,2834,0.0055732216237776,0.0055732216236741,0.002964576014132,40.763314069895,0.00024130651255916,0.00024130651255916,0.00024130651255916,4185317.3787854,0.014211235868158
8419200,0.90788581857476,0.01463239914287,0.0055256522006267,0.005525652200528,0.0035810947417152,-0.0014304030653697,0.0014304030653511,-9.898697601583e-15,-1.0996369950799e-14,3.1033757822354e-15,-2.2269996137493e-14,-0.0015225294089961,0.0015225294089889,-0.0015225302195327,0.0015225302195264,-0.0015225294234708,0.0015225294234505,-0.001522530205037,0.0015225302050138,-0.0012292517548913,0.0012292517548404,-0.0012292517358239,0.0012292517357898,2.1916977510205e-14,5.3617541306304e-14,9.8089507569163e-10,-9.8083047214793e-10,-0.0014304030652943,0.0014304030653789,-0.0015225290629104,0.0015225297416268,-0.0015225305655061,0.0015225298869042,-0.0015225290628976,0.0015225297416374,-0.0015225305654909,0.0015225298869092,-0.0012292507395144,0.0012292526831329,-0.001229252751081,0.0012292508076588,-0.0014492008998494,0.0014492002942792,-0.0014492008998114,0.0014492002943048,-2.5221389583312e-09,-2.5221392451714e-09,-0.00072570091079989,0.00072569467040116,-3.4396545813254e-09,-1.5481650454882e-09,-0.00077589578742309,0.00077588922867373,-0.00077589515065877,0.00077588986539964,-0.0007758957874342,0.00077588922867883,-0.00077589515066607,0.0007758898654074,-0.00087801478628964,0.00087801067912581,-0.00087801478625153,0.00087801067910118,0.47156008474719,120135,2834,0.0059419233052304,0.0059419233051315,0.0030213055141258,41.433537877044,0.00024666830301635,0.00024666830301635,0.00024666830301635,3757486.8232698,0.015017028340649
9419200,0.94974817007962,0.015040949250442,0.0056847198437655,0.0056847198436686,0.0036715095630078,-0.0014727185292564,0.0014727185292295,-1.3931103826106e-14,-1.7656754715911e-14,4.3389556831764e-15,-3.090955573429e-14,-0.0015703302908871,0.0015703302908782,-0.0015703309620166,0.0015703309620049,-0.0015703303058977,0.0015703303058656,-0.0015703309469875,0.0015703309469539,-0.0012608378622129,0.0012608378621539,-0.0012608377970553,0.0012608377970059,1.6328148245103e-14,5.7981511333305e-14,1.7257698981129e-09,-1.7257213588088e-09,-0.0014727185291818,0.001472718529258,-0.001570329702468,0.0015703308732349,-0.0015703315503364,0.0015703303796597,-0.0015703297024464,0.0015703308732478,-0.001570331550318,0.0015703303796739,-0.0012608361224175,0.0012608395270546,-0.0012608395367046,0.0012608361322442,-0.0014922696204343,0.001492268519043,-0.0014922696203912,0.0014922685190767,-1.843847430199e-09,-1.8438450094183e-09,-0.00072500381926741,0.00072499928081587,-3.5020570596049e-09,-1.1893188865362e-10,-0.00078019350473345,0.00078018797781485,-0.00078019237244666,0.00078018911006438,-0.00078019350474616,0.00078018797782021,-0.00078019237245234,0.0007801891100717,-0.00088412345537565,0.00088412129990667,-0.00088412345533836,0.00088412129987926,0.40621133923259,120135,2834,0.0061171150946057,0.0061171150945102,0.0030186726444665,41.14530327689,0.00024436242621512,0.00024436242621512,0.00024436242621512,3393171.1511787,0.015370095921606
10419200,0.97068278739711,0.015261880110685,0.005769082639533,0.0057690826394373,0.0037237148317149,-0.0014900006181696,0.0014900006181468,-1.0579382689474e-14,-1.4317150856163e-14,5.9066724963862e-15,-2.9636094637652e-14,-0.0015906639247364,0.0015906639247297,-0.001590664206389,0.0015906642063815,-0.0015906639365317,0.0015906639365048,-0.0015906641945796,0.0015906641945481,-0.0012701193272207,0.0012701193271648,-0.0012701191729039,0.0012701191728592,1.7313118154948e-14,5.9166821572799e-14,2.1455945001766e-09,-2.1455287250555e-09,-0.0014900006180927,0.0014900006181777,-0.0015906631739048,0.0015906646406421,-0.0015906649571095,0.0015906634904829,-0.0015906631738885,0.0015906646406563,-0.0015906649570916,0.0015906634904919,-0.0012701171591401,0.0012701213800542,-0.0012701213408523,0.001270117120144,-0.0015109985276769,0.0015109971407028,-0.0015109985276301,0.0015109971407393,-3.0279406612549e-10,-3.0279166674596e-10,-0.00071838044923206,0.00071837979781412,-2.4208766033815e-09,1.8341188717657e-09,-0.00077446900316405,0.00077446662677671,-0.00077446757469977,0.00077446805520303,-0.00077446900317413,0.00077446662678256,-0.00077446757470568,0.00077446805521131,-0.00088383403093132,0.00088383537772462,-0.00088383403089625,0.0008838353776981,0.43665130715676,120135,2834,0.0061886577635459,0.0061886577634505,0.002991332637386,38.098685485998,0.00021998948388798,0.00021998948388798,0.00021998948388798,3223921.9193252,0.015487638046718
11419200,0.98277026749507,0.015380261764319,0.0058140886906937,0.0058140886905985,0.0037520843830272,-0.0015033077212167,0.0015033077211942,-1.0368977352507e-14,-1.4106216123604e-14,6.1173425311495e-15,-2.9501245816014e-14,-0.0016045131530465,0.0016045131530401,-0.0016045137331946,0.0016045137331874,-0.0016045131683156,0.001604513168289,-0.0016045137179118,0.0016045137178806,-0.0012809684511885,0.001280968451133,-0.0012809683836859,0.0012809683836414,1.740517416623e-14,5.9338135675209e-14,2.225686401067e-09,-2.2256203967437e-09,-0.0015033077211397,0.0015033077212252,-0.0016045124012811,0.0016045139025315,-0.001604514484849,0.0016045129837103,-0.0016045124012648,0.0016045139025456,-0.0016045144848311,0.0016045129837194,-0.0012809662244878,0.001280970609208,-0.0012809706102543,0.0012809662257405,-0.0015250921856923,0.0015250907512068,-0.0015250921856454,0.0015250907512432,-1.5483333704933e-09,-1.5483309774926e-09,-0.00071389424146555,0.00071389043193406,-3.7009172000494e-09,6.8006978720247e-10,-0.00077483057585972,0.00077482534760646,-0.00077482911168062,0.00077482681174728,-0.00077483057586989,0.00077482534761221,-0.0007748291116866,0.00077482681175555,-0.00088114027682407,0.00088113904254355,-0.00088114027678897,0.00088113904251691,0.40445605707229,120135,2834,0.0062437108185422,0.006243710818447,0.002972828232342,37.627881551337,0.00021622305241069,0.00021622305241069,0.00021622305241069,2980196.3210019,0.015580678346621
12419200,0.98970225130593,0.015456622721347,0.005842769973611,0.005842769973516,0.0037710827742202,-0.0015096466709037,0.001509646670881,-1.049279709931e-14,-1.4228153574969e-14,6.0991077940906e-15,-2.9630418340471e-14,-0.0016116786933456,0.0016116786933392,-0.0016116792202922,0.0016116792202848,-0.0016116787083651,0.0016116787083383,-0.0016116792052591,0.0016116792052276,-0.0012849520196851,0.0012849520196293,-0.0012849519377749,0.0012849519377304,1.7168416693126e-14,5.9209804404924e-14,2.3199537847961e-09,-2.3198880819601e-09,-0.0015096466708269,0.001509646670912,-0.0016116779084056,0.0016116794737981,-0.0016116800051215,0.0016116784398404,-0.0016116779083894,0.0016116794738123,-0.0016116800051035,0.0016116784398494,-0.0012849496997475,0.0012849542686788,-0.0012849542575796,0.0012849496888543,-0.0015319229147737,0.0015319214169748,-0.0015319229147265,0.0015319214170113,-1.3431989206659e-09,-1.3431965246505e-09,-0.00071108359816563,0.00071108031760929,-3.5936153325478e-09,9.7938037839583e-10,-0.00077260130983589,0.00077259648363463,-0.00077259978129038,0.00077259801214199,-0.00077260130984597,0.00077259648364051,-0.00077259978129628,0.00077259801215029,-0.00088044410646986,0.00088044337281534,-0.00088044410643469,0.00088044337278889,0.45322610794666,120135,2834,0.006269945414103,0.006269945414008,0.0029612183573903,36.803752297441,0.00020963001837953,0.00020963001837953,0.00020963001837953,2894939.5829492,0.015622176642155
13419200,0.99357352218687,0.015495692869286,0.0058574390991766,0.0058574390990817,0.0037808146710279,-0.0015115102036808,0.0015115102036587,-1.0185924121128e-14,-1.3929103887202e-14,6.3541000042536e-15,-2.9423689361781e-14,-0.001613337715499,0.001613337715493,-0.0016133380926426,0.0016133380926356,-0.0016133377294747,0.0016133377294483,-0.0016133380786537,0.0016133380786226,-0.001286281242917,0.0012862812428618,-0.0012862810987951,0.0012862810987511,1.7365822427222e-14,5.9455972378687e-14,2.4829652417905e-09,-2.4828991798182e-09,-0.0015115102036039,0.0015115102036896,-0.00161333686841,0.0016133385481952,-0.0016133389396213,0.0016133372599481,-0.0016133368683937,0.0016133385482095,-0.0016133389396032,0.0016133372599572,-0.0012862787569049,0.001286283643175,-0.0012862835846745,0.0012862786986111,-0.0015342045741681,0.0015342029658018,-0.0015342045741209,0.0015342029658384,-7.0864003582878e-10,-7.0863763669486e-10,-0.00070339151993854,0.00070338984880395,-3.1365859645401e-09,1.7740265283397e-09,-0.00076858600903865,0.0007685824376504,-0.00076858436600398,0.0007685840806465,-0.00076858600904877,0.00076858243765621,-0.00076858436600985,0.00076858408065476,-0.00087318210351114,0.00087318282382841,-0.00087318210347607,0.00087318282380201,0.4150894025916,120135,2834,0.0062776256850564,0.0062776256849612,0.0029293502602389,34.7933540797,0.0001935468326376,0.0001935468326376,0.0001935468326376,2745874.1624988,0.015605421452981
14419200,0.99580880102701,0.01551654282894,0.0058652347601395,0.0058652347600446,0.0037860733087559,-0.0015092815763503,0.0015092815763277,-1.0489032508433e-14,-1.422144789747e-14,6.1886344708767e-15,-2.9613271805462e-14,-0.0016119090639694,0.001611909063963,-0.0016119094149191,0.0016119094149118,-0.0016119090780863,0.0016119090780595,-0.0016119094007887,0.0016119094007572,-0.0012823353586077,0.0012823353585518,-0.0012823352161264,0.0012823352160817,1.7238179267809e-14,5.9357695509654e-14,2.635397514319e-09,-2.635331631003e-09,-0.0015092815762735,0.0015092815763587,-0.0016119081671619,0.0016119099477621,-0.0016119103116158,0.0016119085311272,-0.0016119081671456,0.0016119099477763,-0.0016119103115976,0.0016119085311363,-0.0012823327242624,0.0012823379095596,-0.0012823378503386,0.0012823326652476,-0.0015321312599046,0.0015321295501323,-0.0015321312598571,0.0015321295501688,-6.1055814608741e-10,-6.105557527938e-10,-0.00069774959566139,0.00069774817599209,-3.189819439044e-09,2.0258343364016e-09,-0.0007620507715942,0.00076204734252133,-0.00076204902724116,0.0007620490868359,-0.00076205077160433,0.0007620473425273,-0.00076204902724721,0.00076204908684437,-0.00086899381892057,0.00086899484863952,-0.00086899381888508,0.00086899484861269,0.38312450045663,120135,2834,0.0062684012711089,0.0062684012710142,0.0029059312741252,32.64257746723,0.00017634061973784,0.00017634061973784,0.00017634061973784,2736032.5520546,0.015562899277476
15419200,0.99697269501145,0.015531046936229,0.0058706187534406,0.0058706187533458,0.0037898094294427,-0.0015001656555686,0.0015001656555461,-1.041568180807e-14,-1.4138097502591e-14,6.2109867292071e-15,-2.9610536594903e-14,-0.0016031756444233,0.0016031756444171,-0.0016031755759595,0.0016031755759524,-0.0016031756553876,0.001603175655361,-0.0016031755649818,0.0016031755649504,-0.0012721495120008,0.001272149511945,-0.0012721492356859,0.0012721492356413,1.7154299477338e-14,5.929437494865e-14,3.0862432091104e-09,-3.0861775498391e-09,-0.0015001656554921,0.0015001656555771,-0.0016031745740706,0.0016031766722686,-0.0016031766462019,0.0016031745481155,-0.0016031745740541,0.0016031766722826,-0.0016031766461838,0.0016031745481246,-0.0012721464176399,0.0012721524801647,-0.0012721523299146,0.0012721462675955,-0.0015232644247356,0.001523262408717,-0.0015232644246884,0.0015232624087537,1.1528297812913e-09,1.1528321685039e-09,-0.00068538236175004,0.00068538540324334,-1.9206801787595e-09,4.2316407480152e-09,-0.00074938426675902,0.00074938443820368,-0.00074938220463475,0.00074938650028923,-0.00074938426676892,0.0007493844382094,-0.00074938220464057,0.00074938650029744,-0.00085766325974433,0.000857668318427,-0.00085766325970903,0.00085766831840101,0.51103778709309,120135,2834,0.0062306541782728,0.0062306541781783,0.0028545784625325,27.066362998547,0.00013173090398838,0.00013173090398838,0.00013173090398838,2750272.0789758,0.0154340860574
16419200,0.9977199586059,0.015539519437087,0.0058737791739518,0.005873779173857,0.0037919610892787,-0.0014987157931979,0.0014987157931759,-1.0128278823328e-14,-1.3853165030612e-14,6.4503029476726e-15,-2.9312045713595e-14,-0.00160055613406,0.0016005561340542,-0.001600556431802,0.0016005564317953,-0.0016005561490507,0.0016005561490246,-0.0016005564167984,0.0016005564167676,-0.0012718921547218,0.0012718921546666,-0.0012718919722675,0.0012718919722236,1.7403174227326e-14,5.9483860083722e-14,3.1732055638561e-09,-3.1731395845157e-09,-0.0014987157931209,0.0014987157932068,-0.0016005550644025,0.0016005571987005,-0.0016005575013497,0.0016005553671641,-0.0016005550643861,0.0016005571987148,-0.0016005575013316,0.0016005553671731,-0.0012718889977628,0.0012718952389866,-0.0012718951290934,0.0012718888880765,-0.0015221422917838,0.0015221402250336,-0.0015221422917366,0.0015221402250701,-3.1895031791994e-10,-3.1894794106522e-10,-0.00067474599386371,0.0006747452945791,-3.4267677644353e-09,2.8600119541274e-09,-0.00074468446012893,0.00074468124038523,-0.00074468236023736,0.00074468334023804,-0.00074468446013912,0.000744681240391,-0.00074468236024322,0.00074468334024627,-0.00084611652126351,0.00084611852376026,-0.00084611652122837,0.00084611852373375,0.46538451425637,120135,2834,0.0062245966590768,0.0062245966589814,0.0028104755208234,24.416724872453,0.00011053379897962,0.00011053379897962,0.00011053379897962,2560989.8111718,0.015377017194636
17419200,0.99822180158948,0.015545956504433,0.0058761591044217,0.0058761591043269,0.0037936382956846,-0.0014940410382163,0.0014940410381942,-1.0274862580589e-14,-1.3998278244561e-14,6.3194834147078e-15,-2.9411013278439e-14,-0.001596927306976,0.0015969273069699,-0.0015969276201846,0.0015969276201777,-0.0015969273222914,0.0015969273222649,-0.001596927604856,0.001596927604825,-0.0012651671947099,0.0012651671946545,-0.0012651670339704,0.0012651670339262,1.729153057914e-14,5.9338906044597e-14,3.2149708406288e-09,-3.2149048017401e-09,-0.0014940410381396,0.0014940410382251,-0.0015969262258352,0.0015969283862456,-0.0015969287012149,0.0015969265409166,-0.0015969262258189,0.0015969283862598,-0.0015969287011968,0.0015969265409257,-0.0012651639993435,0.0012651703230044,-0.0012651702292037,0.0012651639057493,-0.0015175726544475,0.0015175705603646,-0.0015175726544004,0.0015175705604011,-4.1784854018361e-10,-4.1784615638086e-10,-0.00066852998876486,0.00066852904984298,-3.563350087042e-09,2.8045066284976e-09,-0.00073624957979696,0.00073624616597884,-0.0007362474536083,0.00073624829212852,-0.00073624957980703,0.00073624616598466,-0.00073624745361433,0.00073624829213677,-0.00084170690779542,0.00084170873074421,-0.00084170690776025,0.00084170873071765,0.52521873377382,120135,2834,0.0062052542832314,0.0062052542831366,0.0027846492140601,21.978749782083,9.1029998256667e-05,9.1029998256667e-05,9.1029998256667e-05,2583325.7601954,0.015311510032692
18419200,0.99853368519549,0.015549801803913,0.0058775844093281,0.0058775844092333,0.0037946329853515,-0.0014872776720662,0.0014872776720442,-1.0159513163258e-14,-1.3896046073566e-14,6.4158040015917e-15,-2.9342485960137e-14,-0.0015898611012786,0.0015898611012728,-0.0015898611706306,0.0015898611706237,-0.0015898611146899,0.0015898611146637,-0.0015898611572061,0.0015898611571752,-0.001258329982444,0.0012583299823887,-0.0012583297253205,0.0012583297252765,1.7503112350756e-14,5.9572211532164e-14,3.3947311839912e-09,-3.3946649169548e-09,-0.0014872776719893,0.0014872776720752,-0.0015898599459004,0.0015898622367123,-0.0015898623258987,0.0015898600351996,-0.001589859945884,0.0015898622367263,-0.0015898623258805,0.0015898600352087,-0.0012583265995706,0.0012583332715836,-0.0012583331080605,0.0012583264362548,-0.0015111160290132,0.001511113811601,-0.0015111160289659,0.0015111138116374,6.0665759451491e-10,6.0665998642443e-10,-0.00065569813373055,0.00065569980019351,-2.7447393582584e-09,4.0030194985462e-09,-0.000725978474704,0.00072597715692145,-0.0007259762184345,0.00072597941315217,-0.00072597847471402,0.00072597715692713,-0.00072597621844058,0.00072597941316049,-0.00082899145619908,0.00082899557376504,-0.00082899145616392,0.00082899557373836,0.50516361584657,120135,2834,0.0061772223112842,0.0061772223111891,0.0027313915177791,17.483368764393,5.5066950115147e-05,5.5066950115147e-05,5.5066950115147e-05,2497070.7472964,0.015200527795817
19419200,0.99879183999639,0.01555392537775,0.0058791020548218,0.0058791020547271,0.0037957212682006,-0.001487509093034,0.0014875090930119,-1.0200276623845e-14,-1.3935750742969e-14,6.3806580164539e-15,-2.9372955617545e-14,-0.0015902820815023,0.0015902820814964,-0.0015902821443097,0.0015902821443028,-0.0015902820949239,0.0015902820948975,-0.001590282130875,0.0015902821308441,-0.0012582537202394,0.0012582537201841,-0.0012582534717607,0.0012582534717166,1.7448996356903e-14,5.9522107019624e-14,3.4100742030978e-09,-3.4100077788531e-09,-0.0014875090929571,0.0014875090930429,-0.0015902809210455,0.0015902832220665,-0.0015902833046563,0.0015902810037477,-0.0015902809210292,0.0015902832220807,-0.0015902833046382,0.0015902810037568,-0.0012582503224473,0.0012582570245899,-0.0012582568694193,0.0012582501674841,-0.0015113343156056,0.0015113320880637,-0.0015113343155584,0.0015113320881002,-1.3111297776402e-09,-1.3111273838408e-09,-0.00065488554811441,0.00065488221103084,-4.6044203657802e-09,2.0761872322434e-09,-0.00072460458501517,0.00072459888865571,-0.00072460235343608,0.00072460112019606,-0.00072460458502523,0.00072459888866148,-0.00072460235344209,0.00072460112020437,-0.00082851905749761,0.00082851878536372,-0.00082851905746239,0.00082851878533716,0.65325215552182,120135,2834,0.0061781837287008,0.0061781837286059,0.0027280028735913,17.551531866275,5.5612254930198e-05,5.5612254930198e-05,5.5612254930198e-05,2484574.1262778,0.015199036581802
20419200,0.99901649106851,0.015557770636252,0.0058805184322257,0.0058805184321309,0.0037967337718957,-0.0014922561339548,0.0014922561339333,-9.8410523037838e-15,-1.3577408748894e-14,6.653237924619e-15,-2.9106052006561e-14,-0.0015943471010879,0.0015943471010826,-0.0015943478181779,0.0015943478181717,-0.0015943471199739,0.0015943471199481,-0.001594347799279,0.0015943477992485,-0.0012633557780462,0.0012633557779918,-0.0012633557506655,0.0012633557506222,1.7652225442512e-14,5.97249639314e-14,3.1180967842841e-09,-3.1180301618372e-09,-0.0014922561338778,0.0014922561339643,-0.001594346079277,0.001594348154791,-0.0015943488398789,0.0015943467644781,-0.0015943460792608,0.0015943481548053,-0.0015943488398608,0.001594346764487,-0.0012633526979435,0.0012633588398912,-0.0012633588306348,0.0012633526888952,-0.0015164603513979,0.0015164583290172,-0.001516460351351,0.0015164583290539,-2.1386450999809e-09,-2.1386427125214e-09,-0.00065218913023848,0.00065218381745943,-5.1376893167063e-09,9.9828345605214e-10,-0.0007262692218889,0.00072626205960731,-0.00072626717917235,0.00072626410228484,-0.00072626922189895,0.00072626205961308,-0.00072626717917827,0.00072626410229318,-0.00082550044208061,0.00082549854498736,-0.00082550044204574,0.00082549854496092,0.70012779305906,120135,2834,0.0061977998104568,0.0061977998103614,0.002716877475247,18.5960635186,6.3968508148803e-05,6.3968508148803e-05,6.3968508148803e-05,2301706.2970994,0.015227583116152
21419200,0.99916937054322,0.015560202425619,0.0058814107485659,0.0058814107484711,0.0037973809285816,-0.0014866296536806,0.0014866296536588,-1.0034987555666e-14,-1.3768755844548e-14,6.5051542131806e-15,-2.9257017982889e-14,-0.0015888108074814,0.0015888108074756,-0.0015888115249213,0.0015888115249147,-0.0015888108263407,0.0015888108263149,-0.0015888115060481,0.0015888115060176,-0.0012574941848139,0.0012574941847592,-0.0012574941496552,0.0012574941496116,1.7421585429583e-14,5.9502688897301e-14,3.0987750342713e-09,-3.0987089662281e-09,-0.0014866296536039,0.0014866296536896,-0.0015888097919681,0.0015888118547011,-0.0015888125403247,0.0015888104777036,-0.0015888097919519,0.0015888118547157,-0.0015888125403066,0.0015888104777127,-0.0012574911235882,0.0012574972275638,-0.001257497210748,0.0012574911069794,-0.0015109132334565,0.0015109112238762,-0.0015109132334094,0.0015109112239131,-2.5576515898993e-10,-2.5576276712303e-10,-0.00064227774164446,0.00064227734260082,-3.3075084835921e-09,2.8857137668664e-09,-0.00071695071778151,0.00071694787737609,-0.00071694865376071,0.00071694994135668,-0.00071695071779146,0.00071694787738185,-0.00071694865376694,0.00071694994136527,-0.00081621384261217,0.00081621625616045,-0.00081621384257677,0.00081621625613352,0.64990944923707,120135,2834,0.0061744872943229,0.0061744872942277,0.0026757351946211,15.229630574758,3.7037044598064e-05,3.7037044598064e-05,3.7037044598064e-05,2228517.9160873,0.015138482846811
22419200,0.99929589513071,0.015562267897669,0.0058821660007529,0.0058821660006581,0.0037979358962585,-0.0014854579225547,0.0014854579225328,-1.0115690972584e-14,-1.3848753400678e-14,6.4508617541309e-15,-2.9303398918925e-14,-0.0015881592831068,0.0015881592831011,-0.0015881596365227,0.001588159636516,-0.0015881592995499,0.0015881592995239,-0.0015881596200664,0.0015881596200357,-0.0012553917003213,0.0012553917002663,-0.0012553913856415,0.0012553913855977,1.7532817325642e-14,5.9607623421403e-14,3.1216289937807e-09,-3.1215622693933e-09,-0.0014854579224778,0.0014854579225638,-0.0015881582415486,0.0015881603339965,-0.0015881606779707,0.0015881585856355,-0.0015881582415324,0.0015881603340109,-0.0015881606779527,0.0015881585856446,-0.0012553886057315,0.0012553947521198,-0.0012553944800976,0.0012553883339172,-0.0015097620968835,0.0015097600691469,-0.0015097620968364,0.0015097600691836,-1.2580661581068e-09,-1.2580637675449e-09,-0.00063995921619341,0.00063995617144637,-4.2677657240102e-09,1.8640666799984e-09,-0.00071327777640588,0.00071327258950413,-0.00071327573324693,0.00071327463262405,-0.00071327777641603,0.00071327258951001,-0.00071327573325306,0.00071327463263251,-0.00081447025419507,0.00081447032163402,-0.00081447025415969,0.00081447032160731,0.66642562144512,120135,2834,0.0061696484232018,0.0061696484231068,0.0026660813350311,14.859466930602,3.4075735444818e-05,3.4075735444818e-05,3.4075735444818e-05,2251018.1744739,0.015118853924374
23419200,0.99940824073521,0.015563997267437,0.005882799606037,0.0058827996059422,0.0037983980554577,-0.0014875466154841,0.0014875466154621,-1.0161571923894e-14,-1.3895457856242e-14,6.4218038183015e-15,-2.9332898017748e-14,-0.0015905639638173,0.0015905639638115,-0.0015905644606646,0.0015905644606579,-0.0015905639808314,0.0015905639808051,-0.001590564443638,0.0015905644436071,-0.0012567559271065,0.0012567559270514,-0.0012567557898039,0.00125675578976,1.7595344827235e-14,5.9667922934993e-14,3.1046876036861e-09,-3.1046208485083e-09,-0.001487546615407,0.0014875466154933,-0.0015905629323883,0.0015905650094223,-0.0015905654919831,0.0015905634150627,-0.0015905629323721,0.0015905650094365,-0.0015905654919651,0.0015905634150718,-0.0012567528510326,0.0012567589636543,-0.0012567588657439,0.0012567527533303,-0.0015120101940352,0.0015120081773921,-0.0015120101939881,0.0015120081774287,-1.9062609401984e-09,-1.906258549051e-09,-0.00064011978286574,0.0006401150093221,-4.8932187585405e-09,1.2044912008706e-09,-0.00071331584514109,0.00071330911935261,-0.00071331381320467,0.00071331115125078,-0.00071331584515121,0.00071330911935849,-0.00071331381321066,0.00071331115125911,-0.00081515985761991,0.00081515834650745,-0.0008151598575847,0.00081515834648095,0.62875729639222,120135,2834,0.0061782981625291,0.0061782981624341,0.002666753892681,15.704712668601,4.0837701348809e-05,4.0837701348809e-05,4.0837701348809e-05,2205557.6525833,0.015137098140536
24419200,0.99951428639306,0.01556571845783,0.005883428499435,0.0058834284993402,0.003798861459055,-0.0014916583815038,0.0014916583814816,-1.0301920577516e-14,-1.403068901914e-14,6.2983664127589e-15,-2.9480040581467e-14,-0.0015956144874465,0.0015956144874404,-0.0015956153396875,0.0015956153396805,-0.0015956145071508,0.0015956145071244,-0.00159561531997,0.0015956153199388,-0.0012586339336823,0.0012586339336268,-0.0012586339567381,0.0012586339566938,1.7343352525427e-14,5.9441160848173e-14,2.7767105184039e-09,-2.7766442944467e-09,-0.001491658381427,0.0014916583815126,-0.0015956135851961,0.0015956154292827,-0.0015956162418273,0.0015956143978533,-0.0015956135851798,0.001595615429297,-0.0015956162418092,0.0015956143978624,-0.0012586311936729,0.0012586366676588,-0.0012586366966141,0.0012586312228349,-0.0015164807163535,0.0015164789225783,-0.0015164807163064,0.001516478922615,-2.7222848445818e-09,-2.722282455669e-09,-0.00064465320758914,0.0006446464351304,-5.3685729747955e-09,7.4706361521936e-11,-0.00071556520790469,0.00071555701871517,-0.00071556339776854,0.00071555882881252,-0.00071556520791481,0.00071555701872097,-0.00071556339777447,0.0007155588288208,-0.00082138973532029,0.00082138639006009,-0.00082138973528514,0.00082138639003375,0.66255127740755,120135,2834,0.0061953427824889,0.0061953427823941,0.0026855842994968,17.878970344262,5.8231762754097e-05,5.8231762754097e-05,5.8231762754097e-05,2210677.3168062,0.015190816615836
25419200,0.99961097282764,0.015567566631831,0.0058841024062498,0.0058841024061551,0.0037993618194261,-0.0014960995973892,0.0014960995973669,-1.0246451683817e-14,-1.3977278886077e-14,6.3510412741663e-15,-2.9424512866036e-14,-0.0015999754958987,0.0015999754958925,-0.0015999763472234,0.0015999763472164,-0.0015999755155042,0.0015999755154777,-0.0015999763276046,0.0015999763275734,-0.0012630731547531,0.0012630731546976,-0.0012630731762583,0.0012630731762141,1.7352940467816e-14,5.9449356254978e-14,2.7544416397774e-09,-2.7543754341623e-09,-0.0014960995973123,0.001496099597398,-0.0015999746003139,0.001599976430122,-0.0015999772426976,0.0015999754130019,-0.0015999746002973,0.001599976430136,-0.0015999772426794,0.0015999754130109,-0.0012630704361356,0.0012630758663881,-0.0012630758947426,0.0012630704646969,-0.0015210004931793,0.0015209987141458,-0.0015210004931319,0.0015209987141822,-2.6735218878449e-09,-2.6735194972851e-09,-0.00064750120692802,0.00064749456500004,-5.3006558217355e-09,1.0139645286385e-10,-0.0007192821929247,0.00071927413053357,-0.00071928039622884,0.00071927592719043,-0.00071928219293459,0.00071927413053922,-0.00071928039623461,0.00071927592719857,-0.00082414468291182,0.00082414143590745,-0.00082414468287686,0.0008241414358812,0.77991302017262,120135,2834,0.0062137253405645,0.0062137253404696,0.0026974347810342,19.924097809803,7.4592782478426e-05,7.4592782478426e-05,7.4592782478426e-05,2148217.5050372,0.015240174460348
26419200,0.9996902612242,0.015569178611421,0.0058846892530947,0.005884689253,0.0037998001053263,-0.0014988845028772,0.0014988845028553,-1.0082339050286e-14,-1.3818871960594e-14,6.4753904165618e-15,-2.925078287925e-14,-0.0016018805146313,0.0016018805146255,-0.001601881154429,0.0016018811544223,-0.0016018805317535,0.0016018805317275,-0.0016018811372939,0.0016018811372632,-0.0012669879231605,0.0012669879231055,-0.001266987865482,0.0012669878654381,1.7559698857371e-14,5.9606303264123e-14,2.6355659067416e-09,-2.6354995221663e-09,-0.0014988845028002,0.0014988845028863,-0.0016018796402953,0.0016018814042227,-0.001601882028655,0.0016018802648405,-0.0016018796402789,0.0016018814042369,-0.0016018820286369,0.0016018802648497,-0.0012669853061687,0.0012669904985838,-0.0012669904823405,0.0012669852901326,-0.0015239178027913,0.0015239160988009,-0.0015239178027439,0.0015239160988374,-1.8801985683351e-09,-1.880196179415e-09,-0.00064529797957502,0.00064529336027553,-4.4187056564283e-09,7.6653763800721e-10,-0.00072081048746334,0.00072080422683299,-0.00072080875847282,0.00072080595578429,-0.00072081048747352,0.0007208042268388,-0.00072080875847882,0.0007208059557926,-0.00082107357075927,0.00082107192095703,-0.00082107357072409,0.00082107192093053,0.82922923068303,120135,2834,0.0062252223160981,0.0062252223160028,0.0026883414932057,20.393542576078,7.8348340608621e-05,7.8348340608621e-05,7.8348340608621e-05,2027070.4458633,0.015254295972272
27419200,0.999759404948,0.015570446239768,0.0058851497699464,0.0058851497698517,0.0038001466999703,-0.0015029449216635,0.0015029449216416,-1.0134984500827e-14,-1.3862929438198e-14,6.4778315184584e-15,-2.9231871692268e-14,-0.0016061522605686,0.0016061522605628,-0.0016061530689488,0.0016061530689421,-0.0016061522788368,0.0016061522788107,-0.0016061530506677,0.0016061530506369,-0.0012704242707944,0.0012704242707393,-0.0012704242756304,0.0012704242755865,1.7579286494276e-14,5.9608168326632e-14,2.4388696717738e-09,-2.4388031342696e-09,-0.0015029449215866,0.0015029449216727,-0.0016061514604688,0.0016061530868478,-0.0016061538689385,0.0016061522426724,-0.0016061514604525,0.0016061530868619,-0.0016061538689204,0.0016061522426814,-0.0012704218533449,0.0012704266626685,-0.0012704266929472,0.0012704218838312,-0.001528089537516,0.0015280879668263,-0.0015280895374687,0.0015280879668626,-2.595731267974e-09,-2.5957288862937e-09,-0.0006468301225861,0.00064682368875414,-4.9213710777564e-09,-1.4256154051927e-10,-0.00072268873278427,0.0007226810439912,-0.00072268714127325,0.00072268263546314,-0.00072268873279444,0.00072268104399702,-0.00072268714127922,0.00072268263547145,-0.00082310575503054,0.00082310245756885,-0.00082310575499507,0.00082310245754227,0.74718867332314,120135,2834,0.0062420300205605,0.0062420300204657,0.0026947266527771,22.250591102663,9.3204728821302e-05,9.3204728821302e-05,9.3204728821302e-05,1959200.8151807,0.015294907740479
28419200,0.99981623689674,0.015571631814888,0.0058855782840371,0.0058855782839424,0.0038004752469086,-0.0015043735448326,0.0015043735448105,-1.0261157116929e-14,-1.3986513898072e-14,6.3236597577116e-15,-2.9385514057422e-14,-0.0016085975235864,0.0016085975235804,-0.0016085982489424,0.0016085982489355,-0.0016085975408981,0.0016085975408718,-0.0016085982316176,0.0016085982315865,-0.0012700877134848,0.0012700877134295,-0.0012700876954749,0.0012700876954308,1.7395645045573e-14,5.9425427528263e-14,2.3247049668548e-09,-2.3246387744988e-09,-0.0015043735447559,0.0015043735448414,-0.0016085967541984,0.0016085983101064,-0.00160859901822,0.0016085974624244,-0.0016085967541822,0.0016085983101206,-0.0016085990182019,0.0016085974624335,-0.0012700854026428,0.0012700899858129,-0.0012700900061837,0.0012700854232205,-0.0015296105374319,0.0015296090407842,-0.0015296105373848,0.0015296090408208,-2.2754032158659e-09,-2.2754008306253e-09,-0.00064947984850198,0.00064947424507467,-4.4993424972928e-09,5.9817968219779e-11,-0.00072217903852067,0.00072217214690714,-0.00072217751860859,0.00072217366678029,-0.00072217903853073,0.00072217214691298,-0.00072217751861459,0.0007221736667886,-0.00082717600916253,0.00082717332148486,-0.00082717600912726,0.00082717332145832,0.8493285419621,120135,2834,0.0062479721214818,0.0062479721213871,0.0027057093774676,23.44031248485,0.0001027224998788,0.0001027224998788,0.0001027224998788,1995775.9159371,0.01531811643202
29419200,0.99986241658044,0.015572321369944,0.005885829388003,0.0058858293879083,0.0038006625940328,-0.0015082890800198,0.0015082890799979,-1.0162218962951e-14,-1.3892399126155e-14,6.4542145928804e-15,-2.925295928335e-14,-0.0016117926758441,0.0016117926758384,-0.0016117934187523,0.0016117934187455,-0.0016117926930093,0.0016117926929832,-0.0016117934015742,0.0016117934015434,-0.0012749845802684,0.0012749845802133,-0.0012749845634843,0.0012749845634404,1.7553816684126e-14,5.9582584779147e-14,2.2350992748031e-09,-2.2350328486888e-09,-0.0015082890799428,0.0015082890800289,-0.0016117919353202,0.0016117934321051,-0.0016117941591658,0.001611792662494,-0.001611791935304,0.0016117934321192,-0.0016117941591478,0.0016117926625031,-0.0012749823559817,0.0012749867635386,-0.0012749867876374,0.0012749823802876,-0.0015336728999462,0.0015336714629866,-0.0015336728998988,0.0015336714630231,-2.3555623844942e-09,-2.3555599989942e-09,-0.00064990993247292,0.00064990412317084,-4.4912959477859e-09,-1.1088693036275e-10,-0.00072551383264797,0.00072550681155541,-0.0007255123719298,0.00072550827223457,-0.00072551383265816,0.00072550681156126,-0.00072551237193582,0.00072550827224283,-0.00082672178823332,0.00082671886910947,-0.00082672178819805,0.00082671886908292,0.6088157864604,120135,2834,0.0062641590687298,0.0062641590686346,0.002707534471431,24.779144175562,0.0001134331534045,0.0001134331534045,0.0001134331534045,1894225.4103223,0.015352847611216
30419200,0.99989915239664,0.015572785913829,0.0058859979652773,0.0058859979651826,0.0038007899833688,-0.0015083790103084,0.0015083790102858,-1.0488444291109e-14,-1.421568336769e-14,6.1158719878383e-15,-2.9592419501309e-14,-0.0016125788513834,0.0016125788513769,-0.0016125795964522,0.0016125795964448,-0.0016125788686414,0.0016125788686145,-0.0016125795791812,0.0016125795791498,-0.0012743135847565,0.0012743135847007,-0.0012743135754233,0.0012743135753787,1.7327117727271e-14,5.9351849008573e-14,2.2275957617357e-09,-2.2275296346311e-09,-0.0015083790102316,0.001508379010317,-0.0016125781139679,0.0016125796053741,-0.001612580333757,0.001612578842463,-0.0016125781139516,0.0016125796053881,-0.0016125803337389,0.0016125788424722,-0.0012743113682446,0.0012743157608566,-0.0012743157918013,0.001274311399396,-0.0015333603381599,0.0015333589060915,-0.0015333603381127,0.001533358906128,-2.3645082308262e-09,-2.364505836705e-09,-0.00065594856079848,0.00065594273017802,-4.4908804101861e-09,-1.2780552604067e-10,-0.00072674146895587,0.00072673445038527,-0.00072674001439582,0.00072673590490752,-0.00072674146896584,0.00072673445039105,-0.00072674001440169,0.00072673590491576,-0.00083327337310011,0.00083327043170027,-0.00083327337306504,0.00083327043167385,0.51512748248587,120135,2834,0.006264580016525,0.0062645800164305,0.0027325361376309,26.129827942954,0.00012423862354363,0.00012423862354363,0.00012423862354363,2073965.5798474,0.015379071307847
31419200,0.99992889083636,0.015573270974516,0.005886173962873,0.0058861739627783,0.0038009230488643,-0.0015118415142089,0.0015118415141861,-1.0611616998855e-14,-1.4322974207676e-14,6.0587560856311e-15,-2.970115147374e-14,-0.0016172780402849,0.0016172780402782,-0.0016172789140959,0.0016172789140884,-0.0016172780585278,0.0016172780585008,-0.0016172788958389,0.0016172788958072,-0.0012759957790997,0.0012759957790438,-0.0012759958137902,0.0012759958137455,1.6983892918435e-14,5.9055769703409e-14,2.0401922098962e-09,-2.04012677593e-09,-0.0015118415141324,0.0015118415142169,-0.0016172773723843,0.0016172787340031,-0.0016172795818855,0.0016172782203778,-0.0016172773723681,0.0016172787340172,-0.0016172795818675,0.0016172782203869,-0.0012759937524882,0.0012759977795483,-0.001275997840269,0.0012759938134143,-0.0015370604785307,0.0015370591728087,-0.0015370604784833,0.0015370591728451,-2.9034289967116e-09,-2.9034266166628e-09,-0.00066389482372218,0.00066388764148163,-4.8297355120424e-09,-8.5119992695593e-10,-0.00073056998238535,0.00073056190801473,-0.00073056865791457,0.00073056323244729,-0.00073056998239554,0.00073056190802084,-0.00073056865792065,0.00073056323245576,-0.00084272246440979,0.00084271826338252,-0.00084272246437431,0.00084271826335604,0.66479676253864,120135,2834,0.0062789495915926,0.0062789495914981,0.0027655060697455,28.437419091632,0.00014269935273306,0.00014269935273306,0.00014269935273306,2125505.439013,0.015441726060658
32419200,0.99995061857832,0.015573688512171,0.0058863256574802,0.0058863256573855,0.0038010371973054,-0.0015158353837903,0.0015158353837681,-1.031933181032e-14,-1.4034865362144e-14,6.2977781954344e-15,-2.9430983256605e-14,-0.001619501958098,0.0016195019580919,-0.0016195026432351,0.0016195026432282,-0.0016195019741854,0.0016195019741589,-0.0016195026271349,0.0016195026271037,-0.0012827317966348,0.0012827317965793,-0.0012827317608038,0.0012827317607597,1.7332764613586e-14,5.9378193677108e-14,2.0268674590234e-09,-2.0268015259061e-09,-0.0015158353837134,0.0015158353837991,-0.0016195012789092,0.0016195026429051,-0.0016195033223139,0.0016195019584302,-0.0016195012788928,0.0016195026429193,-0.0016195033222957,0.0016195019584392,-0.0012827297702557,0.0012827337674042,-0.0012827337870498,0.0012827297901079,-0.0015411117458766,0.0015411104457165,-0.0015411117458295,0.0015411104457529,-2.1342089140062e-09,-2.1342065425728e-09,-0.00066303560726246,0.00066303036605859,-4.0750288210344e-09,-1.0231475594267e-10,-0.00073607151928706,0.00073606512788459,-0.00073607019256313,0.00073606645456943,-0.00073607151929727,0.00073606512789037,-0.00073607019256909,0.00073606645457775,-0.00083955814200153,0.00083955555537874,-0.00083955814196621,0.00083955555535227,0.78355820163569,120135,2834,0.0062954319230669,0.0062954319229718,0.0027620118721148,29.295034664078,0.00014956027731262,0.00014956027731262,0.00014956027731262,1971489.7122941,0.015471668065483
33419200,0.99996572120352,0.015573988715847,0.0058864342328988,0.005886434232804,0.0038011202501446,-0.0015167733828963,0.0015167733828743,-1.0179512552291e-14,-1.3894810817185e-14,6.428568317533e-15,-2.9299869614978e-14,-0.0016203618549551,0.0016203618549493,-0.0016203625396682,0.0016203625396615,-0.0016203618710403,0.0016203618710141,-0.0016203625235704,0.0016203625235395,-0.0012837231132479,0.0012837231131927,-0.0012837230741472,0.0012837230741033,1.7478054292733e-14,5.9523660625655e-14,2.026294654264e-09,-2.026228393619e-09,-0.0015167733828193,0.0015167733829053,-0.0016203611759263,0.0016203625395554,-0.001620363218587,0.0016203618550708,-0.00162036117591,0.0016203625395696,-0.0016203632185689,0.0016203618550798,-0.0012837210873376,0.0012837250833684,-0.0012837250999243,0.0012837211041008,-0.001542073741674,0.0015420724419119,-0.0015420737416268,0.0015420724419483,-1.7649528551069e-09,-1.7649504869447e-09,-0.00066004753595187,0.00066004326233447,-3.7194516283059e-09,2.7109969969321e-10,-0.00073513882108357,0.00073513327093186,-0.00073513748791852,0.00073513460405774,-0.00073513882109376,0.00073513327093766,-0.00073513748792452,0.00073513460406606,-0.00083663144735208,0.00083662971036519,-0.00083663144731674,0.00083662971033868,0.80945760226258,120135,2834,0.0062992917470056,0.0062992917469105,0.002749646842856,29.317282254511,0.00014973825803609,0.00014973825803609,0.00014973825803609,1859523.7796538,0.015466955704074
34419200,0.99997714996565,0.015574194843003,0.0058865086291927,0.005886508629098,0.0038011775847122,-0.0015213534563119,0.00152135345629,-1.0117396802825e-14,-1.3829459872435e-14,6.4394209271697e-15,-2.9258459115334e-14,-0.0016248913444218,0.0016248913444161,-0.001624892194198,0.0016248921941914,-0.0016248913618783,0.0016248913618522,-0.0016248921767288,0.001624892176698,-0.0012879891308882,0.0012879891308332,-0.0012879891539405,0.0012879891538966,1.7528876269568e-14,5.9542287239529e-14,1.9277855526327e-09,-1.9277190616217e-09,-0.001521353456235,0.001521353456321,-0.0016248907084782,0.001624891998853,-0.0016248928300313,0.0016248915397697,-0.001624890708462,0.0016248919988672,-0.0016248928300133,0.0016248915397788,-0.0012879872093515,0.0012879910150975,-0.0012879910753436,0.0012879872698052,-0.0015467160829366,0.0015467148513732,-0.0015467160828895,0.0015467148514098,-2.8227388183615e-09,-2.8227364508684e-09,-0.00066275778672597,0.00066275080124045,-4.6462466503836e-09,-8.8570631626531e-10,-0.00073843732001296,0.00073842948680758,-0.0007384360663326,0.00073843074044852,-0.00073843732002299,0.0007384294868133,-0.00073843606633856,0.00073843074045675,-0.00083954205462799,0.0008395379440128,-0.00083954205459282,0.00083953794398636,0.73398852679866,120135,2834,0.0063182514493459,0.0063182514492509,0.0027609208359634,31.481439507267,0.00016705151605814,0.00016705151605814,0.00016705151605814,1821605.3061731,0.015516911502177
35419200,0.99998611323978,0.015574337936973,0.0058865602459865,0.0058865602458917,0.0038012174450947,-0.0015288922020428,0.0015288922020206,-1.0324096370649e-14,-1.4029983158351e-14,6.3173952432059e-15,-2.9359720727744e-14,-0.0016331819651654,0.0016331819651593,-0.0016331831230153,0.0016331831230084,-0.001633181985122,0.0016331819850955,-0.0016331831030453,0.0016331831030144,-0.0012944005418904,0.001294400541835,-0.0012944006696568,0.0012944006696126,1.7246649597282e-14,5.9241493406975e-14,1.6706814534832e-09,-1.6706156353832e-09,-0.0015288922019662,0.0015288922020515,-0.0016331814334917,0.0016331825389467,-0.0016331836545784,0.0016331825492354,-0.0016331814334754,0.0016331825389607,-0.0016331836545602,0.0016331825492444,-0.0012943988870026,0.0012944021936192,-0.0012944023244122,0.0012943990180016,-0.0015542651514394,0.0015542640955459,-0.0015542651513922,0.0015542640955824,-4.0914874674586e-09,-4.0914851017034e-09,-0.00067282592260548,0.00067281572110447,-5.6237400817037e-09,-2.4044514461294e-09,-0.00074569653139783,0.00074568607976656,-0.00074569546264669,0.00074568714847944,-0.00074569653140806,0.00074568607977255,-0.00074569546265294,0.00074568714848779,-0.0008504274899884,0.00085042052167523,-0.00085042748995266,0.00085042052164838,0.64952121200815,120135,2834,0.0063494897810068,0.006349489780912,0.0028027101601919,35.927895972501,0.00020262316778001,0.00020262316778001,0.00020262316778001,1845299.5025227,0.01562279323551
36419200,0.99999185209418,0.015574434026881,0.0058865948682269,0.0058865948681322,0.0038012442905222,-0.0015310908542053,0.0015310908541829,-1.0362624605402e-14,-1.4060805746154e-14,6.2123102181871e-15,-2.9487893282749e-14,-0.0016358408873049,0.0016358408872987,-0.0016358416653551,0.001635841665348,-0.0016358409034553,0.0016358409034286,-0.0016358416491911,0.0016358416491599,-0.0012959785802448,0.0012959785801892,-0.0012959785806792,0.0012959785806349,1.7258943339363e-14,5.9277407119119e-14,1.6530715816048e-09,-1.6530056395587e-09,-0.0015310908541287,0.0015310908542139,-0.0016358403331547,0.0016358414477815,-0.0016358422193945,0.0016358411048796,-0.0016358403331385,0.0016358414477957,-0.0016358422193765,0.0016358411048887,-0.001295976921225,0.0012959801857143,-0.0012959802395661,0.0012959769752832,-0.0015564664176281,0.0015564653667365,-0.0015564664175809,0.001556465366773,-2.5674930806163e-09,-2.5674907193915e-09,-0.00067739707808165,0.00067739076866955,-4.1323332805401e-09,-9.103868669826e-10,-0.00074813587884104,0.00074812880911931,-0.00074813480250439,0.00074812988541751,-0.00074813587885111,0.00074812880912514,-0.00074813480251037,0.00074812988542573,-0.00085544430624347,0.00085544056638438,-0.00085544430620833,0.00085544056635806,0.68119810794789,120135,2834,0.0063586124790219,0.0063586124789272,0.0028216771400405,37.479886121556,0.00021503908897245,0.00021503908897245,0.00021503908897245,1890775.6467482,0.015660582602328
37419200,0.99999524148196,0.01557448856507,0.0058866145616499,0.0058866145615552,0.0038012594418651,-0.0015320344804569,0.0015320344804346,-1.0290862091815e-14,-1.3991925497457e-14,6.289190222497e-15,-2.9414983745379e-14,-0.0016366019074467,0.0016366019074407,-0.0016366026851456,0.0016366026851386,-0.0016366019235787,0.0016366019235523,-0.0016366026690003,0.0016366026689692,-0.0012971039854758,0.0012971039854204,-0.0012971039823838,0.0012971039823397,1.7331352892007e-14,5.9351619695726e-14,1.6529174213753e-09,-1.6528513753817e-09,-0.0015320344803801,0.0015320344804656,-0.0016366013532501,0.0016366024678295,-0.0016366032392315,0.0016366021247646,-0.0016366013532339,0.0016366024678436,-0.0016366032392135,0.0016366021247737,-0.0012971023263854,0.0012971055905685,-0.0012971056413412,0.0012971023773648,-0.0015575161215295,0.0015575150707121,-0.0015575161214823,0.0015575150707486,-1.9481161681438e-09,-1.9481138088427e-09,-0.00067720134921111,0.0006771966494919,-3.536618397515e-09,-2.8340971674828e-10,-0.00074895904749143,0.00074895338870748,-0.00074895795993415,0.00074895447622606,-0.00074895904750157,0.00074895338871335,-0.00074895795994019,0.00074895447623435,-0.00085509939089917,0.00085509706830758,-0.00085509939086389,0.00085509706828115,0.65495763090947,120135,2834,0.0063625097195312,0.0063625097194364,0.0028208840495143,37.680327004156,0.00021664261603325,0.00021664261603325,0.00021664261603325,1849856.859458,0.015667697400318
38419200,0.99999718968449,0.015574523471478,0.0058866271280812,0.0058866271279864,0.0038012692154101,-0.0015310738840526,0.0015310738840304,-1.0321096462294e-14,-1.4020395215962e-14,6.277778806402e-15,-2.9437512468907e-14,-0.0016354603015324,0.0016354603015263,-0.0016354608099648,0.0016354608099578,-0.001635460315358,0.0016354603153314,-0.001635460796126,0.0016354607960949,-0.0012964940920694,0.001296494092014,-0.0012964940047104,0.0012964940046662,1.7326353044749e-14,5.9357905521621e-14,1.8136535450916e-09,-1.8135874583999e-09,-0.0015310738839759,0.0015310738840614,-0.0016354596765601,0.0016354609108996,-0.0016354614348266,0.0016354602005993,-0.0016354596765438,0.0016354609109137,-0.0016354614348086,0.0016354602006084,-0.001296492261778,0.0012964958362648,-0.0012964958348686,0.0012964922605886,-0.0015564861814375,0.0015564850193358,-0.0015564861813903,0.0015564850193723,-1.4447196236975e-09,-1.4447172639969e-09,-0.00067614761361666,0.00067614414778975,-3.2019500521532e-09,3.6588270979907e-10,-0.00074818222051348,0.00074817751445929,-0.00074818102463126,0.00074817871030265,-0.00074818222052359,0.00074817751446514,-0.00074818102463728,0.00074817871031093,-0.0008537583966892,0.00085375714054852,-0.00085375839665391,0.00085375714052208,0.72891346290551,120135,2834,0.0063585308033367,0.0063585308032419,0.0028165070536573,37.196128271452,0.00021276902617162,0.00021276902617162,0.00021276902617162,1859285.9123098,0.015655169079148
38880000,0.99999787000043,0.015574535935541,0.0058866316165258,0.0058866316164311,0.0038012727025843,-0.0015319206416716,0.0015319206416616,-4.9149674981755e-15,-8.4806820974539e-15,1.2186745350354e-14,-2.3314993625302e-14,-0.0016359980631077,0.0016359980631058,-0.0016359986136335,0.0016359986136527,-0.0016359980773032,0.0016359980772962,-0.0016359985994199,0.0016359985993779,-0.001297642208245,0.0012976422082086,-0.0012976421513366,0.001297642151307,1.7830984687422e-14,5.9394644805971e-14,1.8335825672583e-09,-1.833534334792e-09,-0.0015319206416039,0.00153192064168,-0.0016359974343787,0.0016359986797805,-0.0016359992422601,0.0016359979969523,-0.0016359974343544,0.0016359986797977,-0.0016359992422442,0.001635997996946,-0.0012976403599424,0.0012976439738443,-0.0012976439995499,0.0012976403858328,-0.0015574603530224,0.0015574591780306,-0.001557460352997,0.0015574591780522,-1.6885102426139e-09,-1.6885078753905e-09,-0.00067475136573627,0.00067474726873238,-3.457989828902e-09,1.4248660883779e-10,-0.00074851729842631,0.00074851201292209,-0.0007485160922212,0.00074851321909887,-0.00074851729842755,0.00074851201293085,-0.00074851609222029,0.00074851321910998,-0.00085210243206758,0.00085210063643517,-0.00085210243203685,0.00085210063639888,0.74537476942468,120135,2834,0.0063620196614864,0.0063620196613844,0.0028107360440215,37.193651848146,0.00021274921478517,0.00021274921478517,0.00021274921478517,1798789.0885477,0.015656400004037
