time,ASR_ext,ASR_strain,ASR_strain_xx,ASR_strain_yy,ASR_strain_zz,disp_x_101,disp_x_102,disp_x_103,disp_x_104,disp_x_105,disp_x_106,disp_x_p1_neg,disp_x_p1_pos,disp_x_p2_neg,disp_x_p2_pos,disp_x_p3_neg,disp_x_p3_pos,disp_x_p4_neg,disp_x_p4_pos,disp_x_p5_neg,disp_x_p5_pos,disp_x_p6_neg,disp_x_p6_pos,disp_y_101,disp_y_102,disp_y_103,disp_y_104,disp_y_105,disp_y_106,disp_y_p1_neg,disp_y_p1_pos,disp_y_p2_neg,disp_y_p2_pos,disp_y_p3_neg,disp_y_p3_pos,disp_y_p4_neg,disp_y_p4_pos,disp_y_p5_neg,disp_y_p5_pos,disp_y_p6_neg,disp_y_p6_pos,disp_y_p7_neg,disp_y_p7_pos,disp_y_p8_neg,disp_y_p8_pos,disp_z_101,disp_z_102,disp_z_103,disp_z_104,disp_z_105,disp_z_106,disp_z_p1_neg,disp_z_p1_pos,disp_z_p2_neg,disp_z_p2_pos,disp_z_p3_neg,disp_z_p3_pos,disp_z_p4_neg,disp_z_p4_pos,disp_z_p5_neg,disp_z_p5_pos,disp_z_p6_neg,disp_z_p6_pos,humidity,ndof,nelem,strain_xx,strain_yy,strain_zz,temp,thermal_strain_xx,thermal_strain_yy,thermal_strain_zz,vonmises,vstrain
2419200,0,0,0,0,0,0,0,0,0,0,0,0,0,0,0,0,0,0,0,0,0,0,0,0,0,0,0,0,0,0,0,0,0,0,0,0,0,0,0,0,0,0,0,0,0,0,0,0,0,0,0,0,0,0,0,0,0,0,0,0,0,0,0,0,0,0,0,0,0,0,0,0,0,0,0
2919200,0.076409990034536,0.0015958589991154,0.00053195299970513,0.00053195299970513,0.00053195299970513,-0.00017250373699131,0.00017250373699134,8.0359309784129e-16,8.7715702698434e-16,-2.409154343165e-15,1.4886934920239e-15,-0.00017133699054867,0.0001713369905495,-0.00017133925332537,0.00017133925332213,-0.00017133701280434,0.00017133701280253,-0.00017133923107661,0.00017133923107252,-0.00017090805421306,0.00017090805422268,-0.00017090939659619,0.00017090939660042,9.6470582301696e-16,-3.0139368928639e-15,-1.3082962638971e-09,1.3082934906388e-09,-0.00017250373699389,0.00017250373699053,-0.00017133758403918,0.00017133659668287,-0.0001713386598439,0.00017133964719409,-0.00017133758404588,0.00017133659668053,-0.00017133865984618,0.00017133964718791,-0.00017090945666238,0.00017090693730028,-0.00017090799417712,0.00017091051351585,-0.00017443696126176,0.00017443787310899,-0.00017443696126772,0.00017443787311253,-1.0268152047006e-08,-1.026815212006e-08,-0.00015639516545698,0.0001563689252213,-8.6792878430965e-09,-1.1508397001217e-08,-0.00015705348209887,0.00015703200454887,-0.00015705446087659,0.00015703102576474,-0.00015705348209759,0.00015703200455284,-0.00015705446088295,0.00015703102576779,-0.00016212209849096,0.00016209962154824,-0.00016212209848643,0.00016209962155111,0.83502648770561,120135,2834,0.00071850613049654,0.00071850613050025,0.00065138054362186,32.407590752835,0.00017446072602268,0.00017446072602268,0.00017446072602268,1359225.9738074,0.0020905768273003
3419200,0.15583296907967,0.0031275120417253,0.001068026854841,0.0010680268549959,0.00099145833188837,-0.0003034170313272,0.00030341703132784,8.7622323198173e-16,1.2317564883319e-15,-4.9883181985385e-15,4.4731427603239e-15,-0.00030490567935905,0.00030490567935901,-0.00030490872506116,0.00030490872505878,-0.00030490569048765,0.00030490569048894,-0.00030490871394934,0.00030490871394935,-0.00029464241255698,0.00029464241256677,-0.00029464546922718,0.00029464546923278,-1.4680242705133e-14,-2.5271156794973e-14,-1.2417346463305e-10,1.2414695873478e-10,-0.00030341703137301,0.00030341703135645,-0.00030490573143498,0.00030490564732428,-0.00030490867303954,0.00030490875711808,-0.00030490573144327,0.00030490564732004,-0.00030490867304419,0.00030490875711138,-0.00029464260765933,0.00029464238755598,-0.00029464527421055,0.0002946454942399,-0.00030528567625773,0.0003052858058619,-0.00030528567627159,0.00030528580586386,-6.9877020161616e-09,-6.9877017723824e-09,-0.0002519729531214,0.00025195526269467,-6.6624500039132e-09,-7.0610008871779e-09,-0.0002590451316986,0.00025903024288683,-0.0002590452619137,0.00025903011265405,-0.00025904513169515,0.00025903024289012,-0.0002590452619208,0.00025903011265669,-0.00026506192503473,0.00026504720541242,-0.00026506192503274,0.00026504720541536,0.77960726241633,120135,2834,0.001263433468766,0.0012634334689209,0.0010493153114532,31.910929665295,0.00017048743732236,0.00017048743732236,0.00017048743732236,2205702.3665972,0.003582588069385
3919200,0.24311407898365,0.0047207473948704,0.0016545634427729,0.0016545634429789,0.0014116205091186,-0.00044827447328249,0.00044827447328509,1.7090213199836e-15,2.0635546068821e-15,-4.570933890519e-15,5.8803056548163e-15,-0.00045685921580215,0.0004568592158034,-0.00045686120985961,0.00045686120985857,-0.00045685921569277,0.00045685921569576,-0.00045686120997897,0.00045686120998041,-0.00042374420194737,0.00042374420195934,-0.0004237459705812,0.00042374597059003,-1.4040732829956e-14,-2.562505816471e-14,7.3848090340897e-10,-7.3850604822988e-10,-0.00044827447334218,0.00044827447332355,-0.00045685895127338,0.00045685945797007,-0.00045686147445383,0.00045686096773072,-0.00045685895128157,0.00045685945796633,-0.00045686147445692,0.0004568609677229,-0.00042374353728165,0.00042374499925235,-0.00042374663534133,0.00042374517332199,-0.00045135023237521,0.00045134976130695,-0.00045135023238945,0.00045134976130705,-2.8707286354319e-09,-2.8707284522016e-09,-0.00034105424560301,0.00034104601501046,-3.526986957543e-09,-2.0898339687127e-09,-0.000352948082976,0.00035294124248711,-0.00035294759337615,0.00035294173207455,-0.00035294808297379,0.00035294124249078,-0.00035294759338317,0.00035294173207642,-0.00036675333103671,0.00036674765528546,-0.00036675333103534,0.00036674765528985,0.74640349119053,120135,2834,0.0018660514365308,0.0018660514367349,0.0014200952896384,32.496378126252,0.00017517102501002,0.00017517102501002,0.00017517102501002,3056905.1792803,0.005165501306956
4419200,0.33867849155399,0.0064450243391744,0.0023064247506585,0.0023064247509019,0.001832174837614,-0.00061020394192768,0.00061020394193133,2.7090348879026e-15,3.0525243945339e-15,-4.660563505337e-15,6.7447645403084e-15,-0.0006278761191027,0.00062787611910686,-0.00062787737252311,0.00062787737252107,-0.00062787610169295,0.00062787610169647,-0.00062787738994692,0.00062787738995014,-0.00056541028708007,0.00056541028709616,-0.00056541195816129,0.00056541195816954,-1.1102984340862e-14,-2.3308542908994e-14,1.1612729697002e-09,-1.1612898951399e-09,-0.00061020394199496,0.00061020394198042,-0.00062787569509028,0.00062787648417848,-0.00062787779660164,0.00062787700749675,-0.00062787569509753,0.00062787648417366,-0.00062787779660493,0.00062787700748713,-0.00056540922664438,0.00056541150520927,-0.00056541301868074,0.00056541074007953,-0.0006156769894843,0.00061567621108775,-0.00061567698949832,0.00061567621108455,-1.109531765294e-09,-1.109531676613e-09,-0.0004303272763802,0.00043032340290662,-2.2467876306287e-09,9.9178457475027e-11,-0.00044631021001842,0.00044630725788224,-0.00044630941873926,0.00044630804913463,-0.000446310210016,0.00044630725788643,-0.00044630941874637,0.00044630804913492,-0.00047348497252284,0.00047348315940002,-0.00047348497252581,0.00047348315940259,0.74424082049435,120135,2834,0.002539251122478,0.0025392511227198,0.0017915811699321,33.598107567927,0.00018398486054342,0.00018398486054342,0.00018398486054342,3682072.2790054,0.0068937532424697
4919200,0.44236285725428,0.0083145949659881,0.0030308295244159,0.0030308295246851,0.002252935916887,-0.00079151346329204,0.00079151346329655,3.2598121796814e-15,3.4408948830233e-15,-4.6378142003126e-15,7.2065739617593e-15,-0.00081915270119121,0.00081915270119577,-0.00081915366081176,0.00081915366081136,-0.00081915267911676,0.00081915267912047,-0.00081915368290161,0.00081915368290652,-0.00072263934178392,0.00072263934180084,-0.00072264119994905,0.00072264119995912,-1.2082248542659e-14,-2.4830378914502e-14,1.2807031342284e-09,-1.2807161087226e-09,-0.00079151346336443,0.00079151346335383,-0.00081915226301596,0.0008191531081552,-0.00081915409905072,0.00081915325390301,-0.00081915226302302,0.00081915310815066,-0.000819154099055,0.00081915325389422,-0.00072263819824438,0.00072264070151783,-0.00072264234356584,0.00072263984027685,-0.00080103673788543,0.00080103586131362,-0.00080103673790123,0.00080103586130952,-6.3753452278601e-10,-6.3753447614173e-10,-0.00051878247539777,0.00051877995630572,-1.9003490987057e-09,7.0554206077729e-10,-0.00054000388128931,0.00054000230379916,-0.00054000300868697,0.00054000317638062,-0.00054000388128724,0.00054000230380344,-0.00054000300869278,0.00054000317638003,-0.00058300305338568,0.00058300224869692,-0.00058300305338821,0.00058300224869875,0.74696695512676,120135,2834,0.0032924677039867,0.003292467704256,0.0021596123884854,35.342689569078,0.00019794151655263,0.00019794151655263,0.00019794151655263,4080280.9364856,0.0087829249822205
5419200,0.54333768063167,0.010093904082103,0.0037332318931814,0.0037332318934814,0.0026274402954401,-0.0009664075476162,0.0009664075476231,4.7930006359442e-15,4.987082942157e-15,-3.9198508394828e-15,8.2984964866287e-15,-0.001004636916505,0.0010046369165113,-0.0010046375906489,0.0010046375906512,-0.0010046368902163,0.0010046368902232,-0.0010046376169523,0.0010046376169593,-0.00087140217450225,0.00087140217452209,-0.00087140391439844,0.0008714039144129,-1.5559789364998e-14,-2.8689601263772e-14,1.4512262494614e-09,-1.4512424477784e-09,-0.00096640754769923,0.00096640754768419,-0.0010046364157875,0.0010046373763809,-0.0010046380914315,0.0010046371308293,-0.001004636415796,0.0010046373763768,-0.0010046380914357,0.0010046371308205,-0.00087140087396193,0.0008714037031747,-0.00087140521501856,0.00087140238579653,-0.00098023106397926,0.00098023006420241,-0.00098023106399615,0.00098023006420155,3.0253821833135e-10,3.0253822884125e-10,-0.0005929913525954,0.00059299135949769,-1.14476216239e-09,1.8187548529789e-09,-0.0006205759051752,0.00062057645446192,-0.00062057491393998,0.00062057744567706,-0.00062057590517269,0.00062057645446696,-0.00062057491394481,0.00062057744567696,-0.00067874493456135,0.00067874629190094,-0.00067874493456478,0.00067874629190534,0.73229095938567,120135,2834,0.0040184765891185,0.0040184765894175,0.0024683882329969,36.272427625445,0.00020537942100356,0.00020537942100356,0.00020537942100356,4292853.3030705,0.010560769671505
5919200,0.63472339387387,0.011487212651135,0.0042913143400917,0.0042913143404041,0.0029045839706393,-0.0011057477065338,0.001105747706539,3.5059811299772e-15,3.6485355985655e-15,-3.9090864624448e-15,7.2000447494576e-15,-0.0011579426857649,0.0011579426857707,-0.0011579431083229,0.0011579431083233,-0.0011579426568058,0.0011579426568117,-0.0011579431372969,0.0011579431373024,-0.00098257171230729,0.00098257171232447,-0.00098257347649798,0.00098257347651007,-1.8068565664781e-14,-3.0243609798609e-14,1.6680267279971e-09,-1.6680449652481e-09,-0.0011057477066205,0.0011057477066029,-0.0011579421035095,0.0011579432154538,-0.0011579436906434,0.0011579425786834,-0.0011579421035176,0.0011579432154499,-0.0011579436906467,0.0011579425786747,-0.00098257019919368,0.00098257344865214,-0.00098257498968271,0.00098257174021397,-0.0011205898938614,0.0011205887424898,-0.0011205898938746,0.001120588742488,1.1777388618938e-09,1.1777388475043e-09,-0.00064264020293707,0.00064264241942805,-5.0547299623517e-10,2.9105469312597e-09,-0.00067684309371013,0.00067684558415621,-0.00067684195051202,0.00067684672733685,-0.00067684309370779,0.00067684558416091,-0.00067684195051901,0.00067684672733592,-0.00074585710093228,0.00074586040759763,-0.00074585710093514,0.00074586040760027,0.6360792580923,120135,2834,0.0045965088508156,0.0045965088511278,0.0026750521817428,36.778805323376,0.00020943044258701,0.00020943044258701,0.00020943044258701,4423230.5348821,0.011938856917928
6419200,0.71197748856914,0.012584161038523,0.0047303792790823,0.0047303792794016,0.003123402480039,-0.0012141726925962,0.0012141726926017,3.7441209137938e-15,3.8593526876599e-15,-4.4000420523239e-15,8.0831060078364e-15,-0.0012798837836987,0.0012798837837029,-0.00127988395425,0.0012798839542501,-0.0012798837514162,0.0012798837514227,-0.0012798839865459,0.0012798839865518,-0.0010660288945731,0.0010660288945907,-0.0010660306547993,0.0010660306548112,-1.745540792574e-14,-3.0915494891088e-14,1.9613778316481e-09,-1.961394367254e-09,-0.0012141726926836,0.001214172692667,-0.0012798830905624,0.0012798844065721,-0.0012798846474459,0.001279883331426,-0.0012798830905701,0.0012798844065677,-0.00127988464745,0.0012798833314164,-0.0010660270901316,0.0010660309098455,-0.0010660324593092,0.0010660286395877,-0.0012294913629565,0.0012294900098729,-0.0012294913629725,0.001229490009869,2.0829753978241e-09,2.0829753410037e-09,-0.00067884025907418,0.00067884473842464,8.2306892051534e-11,4.1076014701682e-09,-0.00071589397783825,0.00071589841110023,-0.000715892629458,0.00071589975946637,-0.00071589397783692,0.00071589841110523,-0.00071589262946369,0.00071589975946649,-0.00079790800995227,0.00079791340639269,-0.00079790800995569,0.00079791340639503,0.59525943091212,120135,2834,0.0050460639854019,0.0050460639857183,0.0028257782274382,36.74152907827,0.00020913223262616,0.00020913223262616,0.00020913223262616,4528030.1256747,0.013001816986574
6919200,0.78143305525538,0.013651292277248,0.005153806828101,0.0051538068284232,0.0033436786207234,-0.0013241607888731,0.0013241607888792,4.0998159299082e-15,4.2383999315562e-15,-5.0702274609726e-15,9.2350119943698e-15,-0.001398979897068,0.0013989798970725,-0.0013989802802594,0.0013989802802596,-0.0013989798661124,0.0013989798661196,-0.0013989803112293,0.0013989803112363,-0.0011561105376596,0.0011561105376795,-0.0011561124575098,0.0011561124575231,-1.7062772861649e-14,-3.2434316598745e-14,1.9234663422693e-09,-1.9234821864763e-09,-0.0013241607889619,0.0013241607889448,-0.0013989792367807,0.0013989805119887,-0.0013989809406043,0.0013989796653869,-0.0013989792367896,0.0013989805119838,-0.001398980940609,0.001398979665378,-0.0011561087926975,0.0011561125413531,-0.0011561142025316,0.0011561104538717,-0.0013424336006401,0.0013424322738066,-0.001342433600658,0.0013424322738031,9.8103771816891e-10,9.810376607964e-10,-0.00071666608907724,0.00071666776517428,-9.4572023974879e-10,2.9793929768397e-09,-0.00075707701050425,0.00075707911025757,-0.00075707570082093,0.00075708041992705,-0.00075707701050307,0.00075707911026271,-0.0007570757008275,0.00075708041992612,-0.00085223143336628,0.00085223447081607,-0.00085223143337001,0.00085223447081893,0.64378173705164,120135,2834,0.0055018761844029,0.0055018761847227,0.0029832694640495,38.623398984073,0.00022418719187259,0.00022418719187259,0.00022418719187259,4370770.5812267,0.014085438109355
7419200,0.84119770189535,0.01444647669631,0.0054710170867222,0.0054710170870464,0.0035044425225411,-0.0014104805227437,0.0014104805227492,3.6099485420794e-15,3.7425915487501e-15,-5.01634675405e-15,9.064958365862e-15,-0.0014941151308274,0.0014941151308316,-0.0014941155983434,0.0014941155983433,-0.001494115100564,0.0014941151005703,-0.0014941156286222,0.0014941156286289,-0.0012240768959377,0.0012240768959559,-0.0012240788921725,0.0012240788921852,-1.7213180031519e-14,-3.2378575194989e-14,1.8331549021837e-09,-1.8331706677051e-09,-0.001410480522833,0.0014104805228166,-0.0014941145065788,0.0014941157178263,-0.0014941162226495,0.0014941150113946,-0.0014941145065875,0.0014941157178213,-0.0014941162226538,0.0014941150113849,-0.0012240752462654,0.0012240788182602,-0.0012240805418995,0.0012240769699013,-0.0014298497339588,0.0014298484673546,-0.0014298497339754,0.0014298484673497,6.5850908613392e-10,6.5850903270695e-10,-0.00073740613541812,0.00073740706270741,-1.168656321778e-09,2.5697302979592e-09,-0.00078550780977465,0.0007855092979688,-0.00078550656336719,0.00078551054435964,-0.0007855078097733,0.00078550929797381,-0.00078550656337399,0.00078551054435918,-0.00088447296074539,0.00088447527038251,-0.00088447296074767,0.00088447527038522,0.55664260548471,120135,2834,0.0058594245364606,0.0058594245367849,0.0030697915441582,40.76194431148,0.00024129555449184,0.00024129555449184,0.00024129555449184,4040003.3877769,0.014898716434735
7919200,0.88604800430976,0.014991538793647,0.0056863376522185,0.0056863376525443,0.0036188634888839,-0.0014653989251983,0.0014653989252048,4.3582786222856e-15,4.4443348168574e-15,-4.7285614280471e-15,9.4471819833105e-15,-0.0015571862265698,0.0015571862265747,-0.0015571863002336,0.0015571863002342,-0.0015571861924301,0.0015571861924379,-0.001557186334387,0.0015571863343943,-0.0012634659166474,0.0012634659166667,-0.0012634678016959,0.0012634678017095,-1.6874249209152e-14,-3.2185722113632e-14,2.0685429180298e-09,-2.0685573370797e-09,-0.0014653989252877,0.0014653989252719,-0.0015571854964893,0.001557186885058,-0.0015571870303707,0.001557185641796,-0.0015571854964979,0.0015571868850531,-0.0015571870303755,0.0015571856417863,-0.0012634640169714,0.0012634680423479,-0.001263469701425,0.0012634656760483,-0.0014852280869769,0.0014852266560683,-0.0014852280869943,0.0014852266560626,2.4117822816032e-09,2.4117822815009e-09,-0.00074786476624576,0.00074787016758683,2.9992545604202e-10,4.5482427022634e-09,-0.00079756445919182,0.00079756970503753,-0.00079756303648578,0.00079757112773008,-0.00079756445919035,0.00079756970504273,-0.00079756303649168,0.00079757112772998,-0.0009047543261418,0.00090476050814761,-0.00090475432614516,0.00090476050815007,0.5070717593097,120135,2834,0.0060868514970492,0.0060868514973732,0.0031135039477061,40.955967055085,0.00024284773644068,0.00024284773644068,0.00024284773644068,3907100.7198804,0.015404864999508
8419200,0.91941663328923,0.015377094699986,0.0058373388481385,0.0058373388484651,0.0037024170033826,-0.0015058037044751,0.0015058037044814,4.1577553363697e-15,4.2575169946018e-15,-4.8894094554268e-15,9.5936775079728e-15,-0.0016030100266027,0.0016030100266072,-0.0016030101215809,0.0016030101215812,-0.0016030099929333,0.0016030099929409,-0.0016030101552638,0.001603010155271,-0.0012930313105746,0.001293031310594,-0.0012930332252677,0.001293033225281,-1.6978363675585e-14,-3.2610025213044e-14,2.2595596766595e-09,-2.2595745359056e-09,-0.0015058037045648,0.0015058037045486,-0.0016030092381978,0.0016030107500522,-0.001603010910042,0.0016030093981814,-0.0016030092382064,0.0016030107500471,-0.0016030109100467,0.0016030093981715,-0.0012930292290408,0.0012930336298857,-0.0012930353068534,0.001293030906007,-0.0015264609300573,0.0015264593725439,-0.0015264609300747,0.001526459372538,2.329576106186e-09,2.3295760943435e-09,-0.0007534825454109,0.00075348771427933,3.5338317894528e-11,4.660867747425e-09,-0.00080555988532936,0.00080556484117675,-0.00080555833816909,0.00080556638832339,-0.00080555988532801,0.00080556484118195,-0.00080555833817511,0.0008055663883235,-0.00091739503000449,0.00091740115780516,-0.00091739503000807,0.00091740115780711,0.48138031764921,120135,2834,0.0062541308195742,0.0062541308198986,0.0031370538459217,41.432112657485,0.00024665690125988,0.00024665690125988,0.00024665690125988,3705190.1173845,0.015768579859795
8919200,0.94373055027429,0.015628847409502,0.0059353896605753,0.0059353896609023,0.0037580680880247,-0.0015332717003209,0.0015332717003272,4.1144625412878e-15,4.2128712996736e-15,-4.9784949692196e-15,9.7461140276124e-15,-0.0016342862964546,0.0016342862964589,-0.0016342863682671,0.0016342863682676,-0.0016342862629003,0.0016342862629079,-0.0016342864018352,0.0016342864018424,-0.0013128083541461,0.0013128083541657,-0.0013128102682082,0.0013128102682214,-1.6672549488587e-14,-3.2544154235927e-14,2.4196336159967e-09,-2.4196480154747e-09,-0.0015332717004106,0.0015332717003948,-0.0016342854560851,0.0016342870736314,-0.0016342872086932,0.0016342855911412,-0.0016342854560936,0.0016342870736262,-0.0016342872086981,0.0016342855911311,-0.0013128061173591,0.0013128108320982,-0.0013128125050467,0.0013128077903074,-0.0015544708101863,0.001554469146067,-0.0015544708102043,0.0015544691460603,2.4419164858499e-09,2.4419164784219e-09,-0.000754665885587,0.00075467132759342,-1.0778682248068e-11,4.9349101684701e-09,-0.00080962825890601,0.00080963335795553,-0.00080962660526582,0.00080963501158196,-0.00080962825890505,0.00080963335796041,-0.0008096266052719,0.00080963501158206,-0.00092322424187912,0.00092323070975477,-0.00092322424188276,0.00092323070975699,0.43063171924148,120135,2834,0.0063678233589861,0.0063678233593116,0.0031421449241774,41.891138215441,0.00025032910572353,0.00025032910572353,0.00025032910572353,3491661.3639423,0.01600477181954
9419200,0.96036816120366,0.015792207574665,0.0059984323581262,0.0059984323584534,0.0037953428580856,-0.0015474028943621,0.0015474028943686,4.2008716662542e-15,4.2981628117235e-15,-4.9577897193978e-15,9.7901126834836e-15,-0.0016500617125934,0.001650061712598,-0.0016500617779581,0.0016500617779589,-0.001650061678977,0.0016500616789847,-0.0016500618115883,0.0016500618115957,-0.0013247013419195,0.0013247013419392,-0.0013247032503888,0.0013247032504023,-1.6738135720267e-14,-3.2622089469949e-14,2.4311347921275e-09,-2.4311492154316e-09,-0.0015474028944519,0.0015474028944359,-0.0016500608682262,0.0016500624935573,-0.0016500626223813,0.0016500609970449,-0.0016500608682351,0.0016500624935522,-0.0016500626223864,0.0016500609970349,-0.0013246990940698,0.0013247038313087,-0.00132470549829,0.0013247007610505,-0.0015684745503389,0.0015684728786002,-0.0015684745503571,0.0015684728785938,3.4792010751002e-09,3.4792010625311e-09,-0.00075385100288156,0.00075385914583323,9.7587371902187e-10,5.9966973239395e-09,-0.0008110607137792,0.00081106818370307,-0.00081105903390626,0.00081106986356188,-0.00081106071377837,0.00081106818370831,-0.00081105903391225,0.0008110698635619,-0.00092375043006561,0.00092375928170974,-0.00092375043006921,0.00092375928171203,0.40723906797413,120135,2834,0.0064262979420993,0.0064262979424245,0.0031388508933832,41.151541410538,0.0002444123312843,0.0002444123312843,0.0002444123312843,3339675.0521962,0.016120262595349
9919200,0.97155670165828,0.0159014679533,0.0060402374769318,0.0060402374772591,0.0038209929991093,-0.0015578909082907,0.0015578909082972,4.2715165669245e-15,4.3772192201339e-15,-4.9685246855696e-15,9.9329906716003e-15,-0.001663061945828,0.0016630619458325,-0.0016630615529774,0.0016630615529778,-0.0016630619085321,0.00166306190854,-0.0016630615902875,0.0016630615902952,-0.001328659340113,0.0013286593401325,-0.001328661112408,0.0013286611124218,-1.6672784775517e-14,-3.2742696539162e-14,2.9474674238078e-09,-2.9474813943913e-09,-0.0015578909083805,0.0015578909083647,-0.0016630609030546,0.00166306289163,-0.001663062595807,0.0016630606072267,-0.0016630609030634,0.0016630628916248,-0.0016630625958119,0.0016630606072168,-0.0013286565658156,0.0013286623077276,-0.0013286638867555,0.0013286581448435,-0.0015800173694383,0.001580015346978,-0.0015800173694561,0.0015800153469714,4.4461241901216e-09,4.4461241753996e-09,-0.00074915073946348,0.00074916121866837,1.4142218349349e-09,7.4584933791029e-09,-0.000806604810438,0.00080661401017815,-0.00080660278388077,0.00080661603672125,-0.00080660481043694,0.00080661401018333,-0.00080660278388671,0.00080661603672121,-0.00092361300754963,0.00092362405653969,-0.00092361300755292,0.00092362405654198,0.40432824355073,120135,2834,0.0064697061202636,0.0064697061205892,0.0031194530664199,39.828786973763,0.0002338302957901,0.0002338302957901,0.0002338302957901,3251238.5720124,0.016188781885117
10419200,0.97907403016047,0.015979461472085,0.0060698796415063,0.0060698796418337,0.0038397021887452,-0.0015634447690413,0.0015634447690477,4.2377528924992e-15,4.3440437630332e-15,-5.1429311222786e-15,1.000037096612e-14,-0.0016691298934992,0.0016691298935037,-0.0016691293928862,0.0016691293928866,-0.0016691298563848,0.0016691298563928,-0.0016691294300145,0.0016691294300222,-0.0013324406927538,0.0013324406927734,-0.0013324424215211,0.0013324424215349,-1.6762311452303e-14,-3.3069314663225e-14,3.4205186414254e-09,-3.420532966235e-09,-0.0015634447691313,0.0015634447691153,-0.0016691286943097,0.0016691309973405,-0.0016691305921319,0.001669128289096,-0.0016691286943185,0.0016691309973353,-0.0016691305921368,0.001669128289086,-0.0013324374558443,0.0013324441249572,-0.0013324456584806,0.0013324389893668,-0.0015861002586951,0.0015860979209171,-0.0015861002587134,0.0015860979209104,4.9579254674586e-09,4.9579254519278e-09,-0.00074438284074246,0.00074439458582339,1.4530490732747e-09,8.4457198674672e-09,-0.00080397729547458,0.00080398727849549,-0.00080397495311352,0.00080398962084194,-0.00080397729547347,0.00080398727850071,-0.00080397495311945,0.00080398962084196,-0.0009202634608857,0.00092027589960212,-0.00092026346088911,0.00092027589960442,0.42845224819223,120135,2834,0.0064926723913369,0.006492672391663,0.0030997313874002,38.100847290748,0.00022000677832598,0.00022000677832598,0.00022000677832598,3140272.5568865,0.016215425177509
10919200,0.98458544889304,0.016032345040095,0.0060899606298789,0.0060899606302063,0.0038524237800098,-0.0015698324493009,0.0015698324493074,4.2787516400156e-15,4.3878659537071e-15,-5.1331078929597e-15,1.0134043353108e-14,-0.0016756017919351,0.0016756017919397,-0.0016756016740582,0.0016756016740586,-0.0016756017591415,0.0016756017591496,-0.0016756017068658,0.0016756017068735,-0.0013379592399035,0.0013379592399232,-0.0013379610828854,0.0013379610828993,-1.6706960202069e-14,-3.3135029797217e-14,3.4888874583962e-09,-3.4889017591741e-09,-0.0015698324493911,0.0015698324493751,-0.0016756006013448,0.0016756029270332,-0.001675602864705,0.0016756005390114,-0.0016756006013537,0.0016756029270279,-0.00167560286471,0.0016756005390014,-0.0013379559604156,0.0013379627720055,-0.0013379643624231,0.0013379575508326,-0.0015928314522278,0.0015928290763134,-0.001592831452246,0.0015928290763065,3.3755279432048e-09,3.3755279259683e-09,-0.00074200026888373,0.00074200800281121,-1.4215038222693e-10,6.9456533192941e-09,-0.00080456972539421,0.00080457613132907,-0.00080456735898876,0.00080457849772003,-0.00080456972539316,0.00080457613133433,-0.00080456735899474,0.00080457849772006,-0.00091844670450542,0.00091845584186256,-0.0009184467045088,0.0009184558418648,0.39597081456719,120135,2834,0.0065190845864727,0.0065190845867994,0.0030899030765389,37.946339258573,0.00021877071406859,0.00021877071406859,0.00021877071406859,3008539.2812054,0.016259128693321
11419200,0.98860085246254,0.016070804857085,0.0061044807237264,0.0061044807240538,0.0038618434093046,-0.001572851178223,0.0015728511782295,4.2747517622092e-15,4.3849836888171e-15,-5.1952236424251e-15,1.0192247457366e-14,-0.0016794636576015,0.001679463657606,-0.001679463495031,0.0016794634950313,-0.0016794636245329,0.0016794636245412,-0.0016794635281131,0.0016794635281209,-0.0013391981118957,0.0013391981119155,-0.0013391999429606,0.0013391999429746,-1.6677608157578e-14,-3.322946452719e-14,3.5708290510462e-09,-3.5708434504925e-09,-0.0015728511783131,0.0015728511782969,-0.0016794624379435,0.0016794648195723,-0.0016794647147452,0.0016794623331111,-0.0016794624379524,0.0016794648195669,-0.0016794647147502,0.0016794623331011,-0.0013391947512604,0.0013392017230177,-0.0013392033036457,0.0013391963318875,-0.001595956714309,0.0015959542832653,-0.0015959567143273,0.0015959542832583,3.5533178266963e-09,3.5533178089624e-09,-0.00074069621264551,0.00074070440168532,-4.9483416080311e-11,7.2052569249645e-09,-0.000802817141488,0.00080282390205798,-0.00080281471914418,0.0008028263243873,-0.00080281714148698,0.00080282390206325,-0.00080281471915016,0.00080282632438731,-0.00091861593130172,0.00091862550186899,-0.00091861593130514,0.00091862550187123,0.39457194111806,120135,2834,0.0065315796757412,0.006531579676067,0.0030845185368229,37.628694850123,0.00021622955880098,0.00021622955880098,0.00021622955880098,2980062.8402484,0.016279052874791
11919200,0.991510772085,0.016100868503655,0.0061157790027993,0.0061157790031268,0.0038693104977289,-0.0015754352934479,0.0015754352934545,4.3093389408887e-15,4.4181003241855e-15,-5.20663505852e-15,1.0249098661777e-14,-0.0016821471740613,0.0016821471740659,-0.0016821469577581,0.0016821469577584,-0.0016821471407282,0.0016821471407364,-0.0016821469911047,0.0016821469911126,-0.0013411599431892,0.0013411599432091,-0.0013411617537311,0.0013411617537452,-1.6658079342405e-14,-3.3276974909421e-14,3.6663255844152e-09,-3.6663399447578e-09,-0.0015754352935381,0.001575435293522,-0.0016821459204524,0.0016821483672979,-0.0016821482114233,0.0016821457645726,-0.0016821459204614,0.0016821483672926,-0.0016821482114284,0.0016821457645624,-0.0013411564872194,0.0013411636455338,-0.0013411652097507,0.0013411580514352,-0.0015988305330158,0.0015988280378309,-0.0015988305330343,0.0015988280378238,3.7841026776321e-09,3.7841026620259e-09,-0.0007387148096675,0.00073872358095568,8.1455325081026e-11,7.5309970730619e-09,-0.0008019654548362,0.00080197265211587,-0.00080196296698211,0.00080197513995538,-0.00080196545483514,0.0008019726521211,-0.00080196296698806,0.00080197513995542,-0.00091714230249612,0.00091715242427894,-0.00091714230249954,0.00091715242428118,0.42516298576731,120135,2834,0.0065422638427328,0.006542263843059,0.0030763262566544,37.105361205792,0.00021204288964634,0.00021204288964634,0.00021204288964634,2921514.2557341,0.016292447061517
12419200,0.99365296574565,0.016124138785254,0.0061244995130909,0.0061244995134183,0.0038751397587448,-0.0015779916520689,0.0015779916520756,4.3099271582132e-15,4.4190414719046e-15,-5.1981353181812e-15,1.026442172308e-14,-0.0016845420843524,0.001684542084357,-0.0016845418671456,0.0016845418671461,-0.001684542051075,0.0016845420510833,-0.0016845419004365,0.0016845419004445,-0.0013436950014656,0.0013436950014855,-0.0013436968074722,0.0013436968074863,-1.6685666734923e-14,-3.3305326639802e-14,3.6727931129544e-09,-3.6728074901438e-09,-0.0015779916521593,0.0015779916521431,-0.0016845408288813,0.0016845432798034,-0.0016845431226733,0.0016845406717458,-0.0016845408288902,0.0016845432797981,-0.0016845431226785,0.0016845406717357,-0.0013436915392318,0.0013436987102602,-0.0013437002697558,0.0013436930987264,-0.0016016439768248,0.0016016414774106,-0.0016016439768434,0.0016016414774037,3.5897010756796e-09,3.5897010609202e-09,-0.00073667009749322,0.00073667837101029,-1.1156535472558e-10,7.3407187337874e-09,-0.00080173288256628,0.00080173961996054,-0.00080173039401074,0.00080174210850137,-0.00080173288256535,0.00080173961996593,-0.00080173039401678,0.0008017421085015,-0.00091529407600133,0.00091530376036038,-0.00091529407600462,0.00091530376036246,0.44663644431851,120135,2834,0.0065528247883915,0.0065528247887182,0.003067876850515,36.80262902732,0.00020962103221856,0.00020962103221856,0.00020962103221856,2823704.461416,0.016305331146008
12919200,0.99521141135956,0.016140017305624,0.0061304478147038,0.0061304478150313,0.0038791216758887,-0.0015793181479933,0.0015793181479998,4.2905159865053e-15,4.4008655565781e-15,-5.250339605729e-15,1.0268127492224e-14,-0.0016856639864686,0.001685663986473,-0.0016856637337009,0.0016856637337013,-0.0016856639531205,0.0016856639531287,-0.0016856637670626,0.0016856637670705,-0.001344795947083,0.0013447959471029,-0.0013447977297075,0.0013447977297216,-1.6673137705912e-14,-3.3348546482149e-14,3.7514687680496e-09,-3.7514830633889e-09,-0.0015793181480836,0.0015793181480674,-0.0016856627039287,0.0016856652079534,-0.0016856650162974,0.0016856625122674,-0.0016856627039376,0.001685665207948,-0.0016856650163025,0.0016856625122573,-0.0013447924070219,0.0013447997319961,-0.0013448012698179,0.0013447939448428,-0.0016031037307733,0.0016031011787929,-0.0016031037307919,0.0016031011787858,3.9356402157412e-09,3.935640199217e-09,-0.00073328898865031,0.00073329815167979,1.4630923233868e-10,7.7677155270491e-09,-0.00080046877872949,0.00080047621624757,-0.00080046623331498,0.00080047876164734,-0.00080046877872847,0.00080047621625281,-0.00080046623332093,0.00080047876164735,-0.00091199186590537,0.00091200236950796,-0.00091199186590884,0.00091200236951022,0.41875849256558,120135,2834,0.0065582966577749,0.0065582966581016,0.0030538790842623,36.137237244165,0.00020429789795332,0.00020429789795332,0.00020429789795332,2762879.7120037,0.016302232285516
13419200,0.99632174117693,0.016151074668095,0.0061345809319114,0.0061345809322389,0.0038819128039442,-0.0015774872677652,0.0015774872677718,4.2765164141826e-15,4.390748218597e-15,-5.2726624531931e-15,1.0276068426105e-14,-0.0016844872056574,0.0016844872056618,-0.0016844867782221,0.0016844867782224,-0.001684487171023,0.0016844871710312,-0.00168448681287,0.0016844868128779,-0.0013416787416392,0.0013416787416591,-0.0013416804728974,0.0013416804729115,-1.666349094179e-14,-3.3373443239953e-14,3.9593065221511e-09,-3.959320961694e-09,-0.0015774872678554,0.0015774872678392,-0.001684485844563,0.0016844884939608,-0.0016844881393728,0.0016844854899697,-0.001684485844572,0.0016844884939554,-0.0016844881393779,0.0016844854899596,-0.0013416749908715,0.0013416827207082,-0.0013416842237145,0.0013416764938766,-0.0016013135412607,0.0016013108483541,-0.0016013135412792,0.001601310848347,4.6590232140198e-09,4.6590231936572e-09,-0.00072986217769506,0.00072987317566885,6.4463756905888e-10,8.6958285507157e-09,-0.0007959915567674,0.00079600047265914,-0.00079598886602277,0.00079600316338917,-0.0007959915567664,0.00079600047266441,-0.00079598886602873,0.00079600316338917,-0.00090968168081015,0.00090969385449716,-0.00090968168081359,0.00090969385449942,0.40900439415344,120135,2834,0.0065507241374531,0.0065507241377791,0.0030396565896361,34.796810893309,0.00019357448714647,0.00019357448714647,0.00019357448714647,2769275.6612377,0.016272383718066
13919200,0.99713932880389,0.016159046388576,0.0061375606187166,0.006137560619044,0.0038839251508158,-0.0015765769980595,0.0015765769980661,4.2998098202321e-15,4.4143357333088e-15,-5.2715742511428e-15,1.0315449575979e-14,-0.001683766824248,0.0016837668242525,-0.0016837664866715,0.0016837664866719,-0.0016837667908071,0.0016837667908155,-0.0016837665201259,0.0016837665201339,-0.0013402514972475,0.0013402514972674,-0.0013402532624413,0.0013402532624554,-1.6629903732562e-14,-3.3379613432891e-14,4.0638756315986e-09,-4.0638899335881e-09,-0.0015765769981496,0.0015765769981335,-0.0016837654371154,0.0016837681497355,-0.0016837678738605,0.0016837651612352,-0.0016837654371244,0.0016837681497301,-0.0016837678738656,0.0016837651612251,-0.0013402476508299,0.0013402555880284,-0.0013402571089081,0.0013402491717087,-0.0016005456398904,0.0016005428793827,-0.001600545639909,0.0016005428793755,4.3003627525668e-09,4.3003627311352e-09,-0.00072722204057073,0.00072723211937659,1.9657966850842e-10,8.4460859224756e-09,-0.00079335124080331,0.00079335929905411,-0.00079334848609791,0.00079336205374481,-0.0007933512408023,0.00079335929905937,-0.00079334848610386,0.00079336205374484,-0.00090744224827448,0.00090745372854218,-0.00090744224827793,0.00090745372854442,0.40047476240274,120135,2834,0.0065469548103419,0.006546954810668,0.0030286981660001,33.829705911939,0.00018583764729551,0.00018583764729551,0.00018583764729551,2755420.4237851,0.016253586362385
14419200,0.99774228906225,0.016164655603462,0.0061396580537741,0.0061396580541016,0.0038853394955866,-0.0015750129676163,0.0015750129676229,4.2338706581576e-15,4.3462789888662e-15,-5.3008380630358e-15,1.0311361465573e-14,-0.0016823412323773,0.0016823412323818,-0.0016823408406726,0.0016823408406729,-0.0016823411987146,0.0016823411987229,-0.0016823408743488,0.0016823408743567,-0.0013382929706365,0.0013382929706564,-0.0013382947180508,0.0013382947180649,-1.6637374092583e-14,-3.3411256193249e-14,4.1901831073239e-09,-4.1901975191913e-09,-0.0015750129677065,0.0015750129676903,-0.0016823398014949,0.001682342599523,-0.0016823422716115,0.001682339473578,-0.0016823398015038,0.0016823425995175,-0.0016823422716166,0.0016823394735678,-0.001338288999205,0.0013382971835151,-0.0013382986895315,0.0013382905052203,-0.0015990771997846,0.0015990743546571,-0.0015990771998031,0.0015990743546499,4.5342912527561e-09,4.5342912341623e-09,-0.00072415122286888,0.00072416189126096,3.0074494184553e-10,8.8061556305197e-09,-0.0007903516798756,0.00079036016937933,-0.00079034883950053,0.00079036300973973,-0.0007903516798746,0.00079036016938462,-0.0007903488395065,0.00079036300973979,-0.00090470058106433,0.00090471263925328,-0.00090470058106771,0.0009047126392555,0.38210045494666,120135,2834,0.0065404785887771,0.0065404785891032,0.0030159533236804,32.643707712145,0.00017634966169716,0.00017634966169716,0.00017634966169716,2744694.2363722,0.016227472281032
14919200,0.9981747828634,0.016168835747269,0.0061412174276383,0.0061412174279658,0.0038864008916644,-0.0015714253590648,0.0015714253590715,4.3781603678531e-15,4.4913922028159e-15,-5.2573393918904e-15,1.0384594522472e-14,-0.0016790087235036,0.0016790087235082,-0.0016790081148789,0.0016790081148793,-0.0016790086883209,0.0016790086883293,-0.0016790081500751,0.0016790081500832,-0.0013341411849539,0.001334141184974,-0.0013341428634536,0.0013341428634679,-1.6649138439073e-14,-3.3454837582456e-14,4.470296454416e-09,-4.4703108888907e-09,-0.001571425359155,0.0015714253591387,-0.001679007188073,0.0016790101810257,-0.0016790096503659,0.0016790066574079,-0.001679007188082,0.0016790101810203,-0.001679009650371,0.0016790066573977,-0.0013341369302655,0.0013341456605444,-0.0013341471181915,0.0013341383879113,-0.0015955567814699,0.0015955537468332,-0.0015955567814886,0.0015955537468261,5.4514393617963e-09,5.4514393419466e-09,-0.00071949414894527,0.00071950713558213,9.1667279358421e-10,9.9996546853252e-09,-0.00078530781826991,0.00078531815155633,-0.00078530478275754,0.00078532118705411,-0.00078530781826889,0.00078531815156161,-0.00078530478276349,0.00078532118705412,-0.0009005541795786,0.00090056836302935,-0.00090055417958217,0.00090056836303167,0.39678962402156,120135,2834,0.0065256294940778,0.0065256294944038,0.0029966174563017,30.581053799909,0.00015984843039928,0.00015984843039928,0.00015984843039928,2753946.3140477,0.0161776430837
15419200,0.99846948040243,0.016172331083978,0.0061425150090547,0.0061425150093821,0.0038873010655413,-0.001565793765958,0.0015657937659646,4.2753399795336e-15,4.414629841971e-15,-5.2607510523724e-15,1.0394358930058e-14,-0.0016731459811838,0.0016731459811883,-0.0016731450317492,0.0016731450317495,-0.0016731459438219,0.0016731459438302,-0.0016731450691245,0.0016731450691325,-0.0013286044078414,0.0013286044078611,-0.0013286059619215,0.0013286059619358,-1.6722489139436e-14,-3.3537670185249e-14,4.9374372633717e-09,-4.9374520060098e-09,-0.0015657937660484,0.0015657937660319,-0.0016731442735974,0.0016731475900778,-0.0016731467393921,0.0016731434229061,-0.0016731442736065,0.0016731475900724,-0.0016731467393972,0.0016731434228958,-0.0013285996823109,0.0013286093234579,-0.0013286106875016,0.001328601046353,-0.0015900971419967,0.0015900937918611,-0.0015900971420151,0.0015900937918537,6.9237032846424e-09,6.9237032413539e-09,-0.00071098477508403,0.00071100148113415,1.8903294618943e-09,1.1933545114829e-08,-0.00077815851782322,0.00077817174945124,-0.00077815515828888,0.00077817510897098,-0.00077815851782221,0.00077817174945652,-0.0007781551582948,0.00077817510897104,-0.00089201914439517,0.00089203675359736,-0.00089201914439833,0.0008920367535997,0.48651353790675,120135,2834,0.0065023034874747,0.0065023034878011,0.0029613023714753,27.073626277268,0.00013178901021815,0.00013178901021815,0.00013178901021815,2726739.669284,0.016094357382963
15919200,0.99869591699856,0.016175622700516,0.0061437330878427,0.0061437330881702,0.0038881565245032,-0.0015647818767346,0.0015647818767411,4.2369293882449e-15,4.3789250503749e-15,-5.3436308733919e-15,1.0321655268752e-14,-0.0016710766548627,0.001671076654867,-0.0016710761508877,0.001671076150888,-0.0016710766222031,0.0016710766222114,-0.0016710761835608,0.0016710761835688,-0.0013289236761734,0.0013289236761933,-0.0013289253566973,0.0013289253567115,-1.6774311085722e-14,-3.358635964451e-14,4.9835598881559e-09,-4.9835744774963e-09,-0.0015647818768252,0.0015647818768088,-0.001671074966314,0.0016710782881454,-0.0016710778394934,0.0016710745176564,-0.0016710749663228,0.0016710782881399,-0.0016710778394985,0.0016710745176463,-0.0013289189317844,0.0013289286728875,-0.0013289301011351,0.0013289203600305,-0.0015892808575297,0.0015892774852354,-0.0015892808575483,0.0015892774852283,5.1170427055783e-09,5.1170426577711e-09,-0.0007044431682016,0.00070445528503545,9.8106066500541e-11,1.0188347050197e-08,-0.00077596788223192,0.00077597703040941,-0.0007759645151199,0.00077598039750645,-0.000775967882231,0.0007759770304147,-0.00077596451512587,0.00077598039750644,-0.00088445638873201,0.00088447020472689,-0.00088445638873562,0.0008844702047293,0.59571470761932,120135,2834,0.0064980743086606,0.0064980743089882,0.0029341815995132,25.355433654426,0.00011804346923541,0.00011804346923541,0.00011804346923541,2604869.1648509,0.016058217407154
16419200,0.99887964336247,0.016177873479759,0.0061445690340703,0.0061445690343978,0.0038887354112906,-0.0015649762974561,0.0015649762974627,4.3232208697465e-15,4.4748044742655e-15,-5.3370134284915e-15,1.0318684771263e-14,-0.0016705051563516,0.0016705051563561,-0.0016705048415443,0.0016705048415446,-0.0016705051252896,0.0016705051252979,-0.0016705048726201,0.0016705048726281,-0.0013299572307815,0.0013299572308014,-0.0013299589626179,0.0013299589626321,-1.6692842986282e-14,-3.3498133709237e-14,4.8774323220321e-09,-4.8774465801123e-09,-0.0015649762975466,0.0015649762975304,-0.0016705035150555,0.0016705067571958,-0.0016705064828974,0.0016705032407518,-0.0016705035150644,0.0016705067571904,-0.0016705064829027,0.0016705032407417,-0.001329952599507,0.0013299621362185,-0.0013299635939404,0.0013299540572281,-0.0015895521810428,0.00158954888282,-0.0015895521810616,0.0015895488828129,4.2976271723932e-09,4.2976271170004e-09,-0.00069864625824302,0.00069865631755,-5.9383989715759e-10,9.2679330277284e-09,-0.00077417165775209,0.00077417905181813,-0.00077416836940773,0.00077418234014744,-0.00077417165775106,0.00077417905182339,-0.00077416836941361,0.00077418234014739,-0.00087809700726626,0.00087810902463272,-0.0008780970072697,0.00087810902463515,0.50210013400473,120135,2834,0.0064988398752918,0.0064988398756195,0.0029101671351983,24.412882052576,0.00011050305642061,0.00011050305642061,0.00011050305642061,2471869.9935141,0.016035382963072
16919200,0.99903233109524,0.016180307379506,0.0061454621726927,0.0061454621730202,0.0038893830337928,-0.0015620923529716,0.0015620923529783,4.3212209308432e-15,4.4708634181915e-15,-5.2885737318204e-15,1.0367595041794e-14,-0.0016683610130278,0.0016683610130324,-0.0016683606900183,0.0016683606900187,-0.001668360981896,0.0016683609819045,-0.0016683607211626,0.0016683607211708,-0.0013262475815926,0.0013262475816125,-0.0013262493208539,0.0013262493208682,-1.6856308580755e-14,-3.3674427955922e-14,4.8691388430023e-09,-4.8691534757937e-09,-0.0015620923530621,0.0015620923530452,-0.0016683593743478,0.0016683626111354,-0.0016683623287552,0.0016683590919605,-0.0016683593743568,0.0016683626111301,-0.0016683623287605,0.0016683590919505,-0.0013262429586342,0.0013262524788911,-0.0013262539438608,0.001326244423602,-0.001586319601838,0.0015863163089037,-0.0015863196018568,0.0015863163088966,4.0686781526417e-09,4.068678097177e-09,-0.00069732951585549,0.00069733896524092,-8.0426172359171e-10,9.0270678400975e-09,-0.00076994217925377,0.00076994909820969,-0.00076993890162626,0.00076995237582093,-0.00076994217925286,0.0007699490982151,-0.00076993890163236,0.00076995237582113,-0.00087757500906296,0.00087758649243645,-0.0008775750090661,0.00087758649243846,0.65164127745866,120135,2834,0.0064869261376399,0.0064869261379658,0.0029046562100041,23.78033084983,0.00010544264679864,0.00010544264679864,0.00010544264679864,2551873.7736779,0.016005561712124
17419200,0.99915211351688,0.016182026431572,0.0061460979112703,0.0061460979115977,0.0038898306087037,-0.0015616601141973,0.0015616601142036,3.9956426417424e-15,4.1348148607148e-15,-5.4479512158888e-15,1.0209570457572e-14,-0.0016674769321347,0.0016674769321389,-0.001667476411777,0.0016674764117769,-0.0016674768993543,0.0016674768993624,-0.0016674764445709,0.0016674764445786,-0.0013255630699191,0.0013255630699386,-0.0013255647242201,0.0013255647242338,-1.675454698362e-14,-3.3560038872305e-14,4.90120139832e-09,-4.9012158596279e-09,-0.0015616601142878,0.0015616601142714,-0.0016674752697976,0.0016674785376356,-0.0016674780741708,0.0016674748063272,-0.0016674752698065,0.0016674785376301,-0.0016674780741759,0.0016674748063169,-0.0013255584052905,0.0013255679846241,-0.0013255693888964,0.0013255598095616,-0.0015865710890373,0.0015865677715814,-0.0015865710890558,0.0015865677715739,5.1216865816876e-09,5.1216865409624e-09,-0.00068965201015597,0.00068966418726122,1.8313868057726e-10,1.0109892667895e-08,-0.00076623644358401,0.00076624561851734,-0.0007662331304725,0.00076624893161376,-0.00076623644358304,0.0007662456185227,-0.0007662331304786,0.00076624893161391,-0.00086998589943088,0.00086999968893449,-0.00086998589943409,0.00086999968893659,0.58772740813402,120135,2834,0.0064850979521479,0.0064850979524757,0.0028728517082954,21.984444689815,9.1075557518521e-05,9.1075557518521e-05,9.1075557518521e-05,2386529.0192804,0.015969549786125
17919200,0.99924362823108,0.01618312571766,0.0061465043913719,0.0061465043916994,0.0038901169345884,-0.0015558227796992,0.0015558227797056,4.1279915397509e-15,4.2727518233059e-15,-5.4103347179882e-15,1.0263304110163e-14,-0.0016631021691648,0.001663102169169,-0.0016631014621638,0.001663101462164,-0.0016631021349117,0.0016631021349198,-0.0016631014964302,0.0016631014964381,-0.0013170666239852,0.0013170666240048,-0.0013170682382271,0.0013170682382409,-1.6634315362496e-14,-3.3465844024709e-14,5.0675790896094e-09,-5.0675934658548e-09,-0.0015558227797892,0.001555822779773,-0.0016631004409152,0.0016631038274613,-0.0016631031904695,0.0016630998039182,-0.0016631004409242,0.0016631038274559,-0.0016631031904746,0.0016630998039079,-0.0013170617886675,0.0013170716913063,-0.0013170730735932,0.0013170631709531,-0.0015806961781724,0.0015806927468517,-0.0015806961781911,0.0015806927468444,5.8492444528867e-09,5.8492444026868e-09,-0.00068355801109459,0.0006835720464276,7.2555193634227e-10,1.1000122416752e-08,-0.00075668747487651,0.00075669821707574,-0.00075668404375627,0.00075670164818103,-0.00075668747487559,0.00075669821708106,-0.00075668404376224,0.00075670164818111,-0.00086625936020884,0.00086627480390927,-0.00086625936021206,0.00086627480391134,0.4915601615792,120135,2834,0.006460958681924,0.0064609586822498,0.0028475274050544,19.504841113314,7.1238728906511e-05,7.1238728906511e-05,7.1238728906511e-05,2436073.4413954,0.015894763938221
18419200,0.9993163725065,0.016184039814559,0.0061468416779293,0.0061468416782568,0.0038903564583729,-0.0015505320295329,0.0015505320295394,4.1973423623073e-15,4.346514275796e-15,-5.321984475851e-15,1.0314184908731e-14,-0.0016592086486564,0.0016592086486607,-0.0016592080298382,0.0016592080298384,-0.0016592086153425,0.0016592086153507,-0.0016592080631654,0.0016592080631732,-0.0013094131530808,0.0013094131531005,-0.0013094148352962,0.0013094148353102,-1.6620374611905e-14,-3.3420877280306e-14,5.1521764412251e-09,-5.1521910173951e-09,-0.0015505320296227,0.0015505320296064,-0.0016592068998282,0.001659210337132,-0.0016592097787222,0.001659206341413,-0.0016592068998371,0.0016592103371265,-0.0016592097787273,0.0016592063414028,-0.0013094082412881,0.001309418312001,-0.0013094197471379,0.0013094096764233,-0.0015754736523013,0.0015754701662709,-0.0015754736523198,0.0015754701662634,5.4749506041424e-09,5.4749505487836e-09,-0.00068022682217298,0.00068023988087855,2.8017710534058e-10,1.0714525277431e-08,-0.00074889369694074,0.00074890364889375,-0.00074889021463979,0.00074890713118008,-0.00074889369693982,0.00074890364889906,-0.00074889021464575,0.00074890713118012,-0.00086490159734336,0.00086491628947964,-0.00086490159734667,0.00086491628948186,0.51421839069127,120135,2834,0.0064390941755825,0.0064390941759074,0.0028336411128008,17.481196705894,5.5049573647152e-05,5.5049573647152e-05,5.5049573647152e-05,2533707.9508332,0.015836223900892
18919200,0.99937985363531,0.016184951394601,0.0061471779901913,0.0061471779905187,0.0038905954138907,-0.0015502158085687,0.0015502158085753,4.2251650417553e-15,4.3756898550903e-15,-5.3062790732873e-15,1.0331537319803e-14,-0.0016585930051662,0.0016585930051706,-0.0016585923893841,0.0016585923893844,-0.0016585929719134,0.0016585929719217,-0.0016585924226501,0.001658592422658,-0.0013093249203954,0.0013093249204151,-0.0013093266063058,0.0013093266063199,-1.6598198818773e-14,-3.3396377626639e-14,5.1571179715449e-09,-5.1571322442823e-09,-0.0015502158086589,0.0015502158086425,-0.0016585912550439,0.001658594695332,-0.0016585941395628,0.0016585906992691,-0.0016585912550529,0.0016585946953265,-0.0016585941395679,0.0016585906992589,-0.0013093200037653,0.0013093300841906,-0.0013093315229852,0.0013093214425586,-0.001575487797854,0.0015754843086249,-0.0015754877978727,0.0015754843086175,4.2629398403329e-09,4.2629397836746e-09,-0.00067842355576322,0.00067843344904086,-8.8998540435093e-10,9.4921211782431e-09,-0.00074807181610637,0.00074807896682352,-0.00074806835258332,0.00074808243033152,-0.00074807181610548,0.00074807896682889,-0.00074806835258922,0.00074808243033154,-0.00086293840897218,0.00086295031860944,-0.00086293840897558,0.00086295031861174,0.58779877663219,120135,2834,0.0064377761764862,0.0064377761768121,0.0028261564560359,16.875569511106,5.020455608885e-05,5.020455608885e-05,5.020455608885e-05,2489331.0600928,0.015825947889086
19419200,0.99943972298123,0.016185912494303,0.0061475317223191,0.0061475317226466,0.0038908490493371,-0.0015530982721218,0.0015530982721282,4.2073420568235e-15,4.3558669312552e-15,-5.3619832539157e-15,1.0281774134152e-14,-0.001660312033736,0.0016603120337403,-0.001660312080309,0.0016603120803092,-0.0016603120058462,0.0016603120058544,-0.0016603121082124,0.0016603121082203,-0.0013140532812668,0.0013140532812865,-0.0013140551664577,0.0013140551664717,-1.6705960232618e-14,-3.3506630117876e-14,4.7315558224438e-09,-4.7315702350823e-09,-0.0015530982722122,0.0015530982721959,-0.0016603104651131,0.0016603135922576,-0.0016603136489886,0.0016603105218388,-0.0016603104651221,0.0016603135922522,-0.0016603136489937,0.0016603105218286,-0.0013140488121231,0.0013140580699238,-0.00131405963565,0.001314050377848,-0.0015784308441722,0.001578427649006,-0.0015784308441909,0.0015784276489987,2.7464224070078e-09,2.7464223537117e-09,-0.00067779647679375,0.00067780259012505,-1.9552655699349e-09,7.5813088853205e-09,-0.00075129078172637,0.00075129493260755,-0.0007512876077523,0.00075129810656664,-0.00075129078172536,0.00075129493261285,-0.00075128760775829,0.00075129810656667,-0.00086062749648063,0.00086063612087198,-0.00086062749648395,0.00086063612087429,0.65664642788027,120135,2834,0.0064496754342882,0.0064496754346154,0.0028235815957161,17.545231305912,5.5561850447298e-05,5.5561850447298e-05,5.5561850447298e-05,2396080.3702241,0.01584751639013
19919200,0.99949745249075,0.016186815506901,0.0061478637782347,0.0061478637785622,0.003891087950104,-0.0015562948395593,0.0015562948395658,4.17434306492e-15,4.3207503569837e-15,-5.3782768738039e-15,1.027789189981e-14,-0.0016630612643149,0.0016630612643192,-0.0016630614208218,0.001663061420822,-0.0016630612364298,0.0016630612364381,-0.0016630614487204,0.0016630614487283,-0.0013177892227683,0.001317789222788,-0.0013177911441057,0.0013177911441197,-1.669519585558e-14,-3.3500828479855e-14,4.3286103511855e-09,-4.3286247361363e-09,-0.0015562948396497,0.0015562948396334,-0.0016630598301765,0.0016630626884693,-0.0016630628550168,0.0016630599967189,-0.0016630598301855,0.0016630626884638,-0.0016630628550219,0.0016630599967087,-0.0013177851488169,0.0013177936170774,-0.001317795218105,0.0013177867498433,-0.0015816379344216,0.0015816350082672,-0.0015816379344402,0.0015816350082599,2.2354141014108e-09,2.2354140510175e-09,-0.00067795827448043,0.00067796310884106,-2.0611698724988e-09,6.6659609602478e-09,-0.00075366378961392,0.00075366709329739,-0.00075366088521945,0.00075366999767688,-0.00075366378961292,0.00075366709330267,-0.0007536608852254,0.00075366999767687,-0.00086041230577364,0.00086041958408587,-0.00086041230577699,0.00086041958408812,0.63949909152815,120135,2834,0.0064628867080656,0.0064628867083927,0.0028242909261275,18.680888009082,6.4647104072658e-05,6.4647104072658e-05,6.4647104072658e-05,2309882.6888771,0.015875083517322
20419200,0.99954900386474,0.016187686488669,0.0061481826068733,0.0061481826072008,0.0038913212745953,-0.0015557793831771,0.0015557793831836,4.1939307018253e-15,4.3399262417618e-15,-5.3592186324907e-15,1.0295567830411e-14,-0.0016628113882107,0.0016628113882151,-0.001662811546242,0.0016628115462423,-0.0016628113602906,0.0016628113602988,-0.0016628115741756,0.0016628115741836,-0.0013169319691677,0.0013169319691874,-0.0013169338886163,0.0013169338886303,-1.6718548083362e-14,-3.3529753032811e-14,4.3011990184435e-09,-4.3012135634645e-09,-0.0015557793832674,0.0015557793832511,-0.0016628099631564,0.0016628128032266,-0.0016628129713529,0.0016628101312774,-0.0016628099631654,0.0016628128032211,-0.001662812971358,0.0016628101312672,-0.0013169279219502,0.0013169363361844,-0.0013169379358817,0.001316929521646,-0.0015810113251325,0.0015810084170066,-0.0015810113251512,0.0015810084169993,3.2672783036529e-09,3.2672782527157e-09,-0.00067685355323713,0.00067686107818203,-1.0402285606433e-09,7.6827105251583e-09,-0.0007519177972287,0.00075192348217186,-0.00075191489308824,0.00075192638629733,-0.00075191779722772,0.00075192348217717,-0.0007519148930942,0.00075192638629734,-0.00085964110389724,0.00085965073151244,-0.0008596411039006,0.00085965073151467,0.69004788769244,120135,2834,0.0064607566292094,0.0064607566295359,0.0028197038684806,18.601952255968,6.4015618047742e-05,6.4015618047742e-05,6.4015618047742e-05,2307523.5437523,0.015866092134868
20919200,0.99959188247406,0.0161883629607,0.0061484308362691,0.0061484308365966,0.0038915012878343,-0.0015542311319991,0.0015542311320056,4.1861662331421e-15,4.3353969683633e-15,-5.3612773931264e-15,1.0295714884742e-14,-0.0016614247349105,0.0016614247349148,-0.0016614242997007,0.0016614242997009,-0.0016614247016535,0.0016614247016616,-0.0016614243329714,0.0016614243329792,-0.0013145747460641,0.0013145747460838,-0.0013145764537319,0.0013145764537458,-1.6634727114623e-14,-3.3448247940015e-14,4.3834878839471e-09,-4.3835020432568e-09,-0.0015542311320894,0.0015542311320732,-0.0016614232418856,0.0016614261670794,-0.0016614257927821,0.0016614228675833,-0.0016614232418945,0.0016614261670739,-0.0016614257927873,0.0016614228675731,-0.0013145705867756,0.0013145791506089,-0.001314580613068,0.0013145720492339,-0.0015797731667273,0.0015797701935482,-0.001579773166746,0.0015797701935408,4.6737964411171e-09,4.6737963872874e-09,-0.00067202861900825,0.00067203967949663,2.497952965428e-10,9.1409782041993e-09,-0.00074795215518016,0.00074796075805127,-0.00074794918648961,0.00074796372672665,-0.00074795215517915,0.00074796075805658,-0.00074794918649565,0.00074796372672671,-0.0008554501018692,0.00085546260207694,-0.00085545010187246,0.00085546260207914,0.64466974006304,120135,2834,0.0064543373797847,0.0064543373801115,0.002799698982529,17.27857528111,5.3428602248882e-05,5.3428602248882e-05,5.3428602248882e-05,2251786.3572324,0.015832732436078
21419200,0.99962629560844,0.016188903037705,0.0061486286293126,0.0061486286296401,0.0038916457787519,-0.0015497152275339,0.0015497152275403,4.1188741712214e-15,4.2599875073647e-15,-5.4058054445897e-15,1.0287332787868e-14,-0.0016578125778581,0.0016578125778624,-0.0016578119524331,0.0016578119524331,-0.0016578125432138,0.001657812543222,-0.001657811987091,0.0016578119870988,-0.0013083713334353,0.001308371333455,-0.001308372991967,0.0013083729919809,-1.6614786547323e-14,-3.3464183919174e-14,4.5996458370416e-09,-4.5996598905256e-09,-0.0015497152276239,0.0015497152276078,-0.0016578110027111,0.0016578140794332,-0.0016578135276363,0.0016578104509091,-0.00165781100272,0.0016578140794277,-0.0016578135276414,0.0016578104508988,-0.0013083669544201,0.001308375939247,-0.0013083773710302,0.0013083683862025,-0.0015753040752041,0.0015753009552662,-0.0015753040752226,0.0015753009552587,5.4454186875962e-09,5.4454186416396e-09,-0.00066716102857478,0.00066717404981631,7.8647608744539e-10,1.0125253186921e-08,-0.00074086071303959,0.00074087091186064,-0.00074085759298925,0.00074087403189599,-0.00074086071303873,0.00074087091186608,-0.00074085759299527,0.0007408740318961,-0.0008520622745108,0.00085207655321681,-0.00085206227451413,0.00085207655321886,0.64095610021345,120135,2834,0.0064356592498771,0.006435659250203,0.0027794702539219,15.233244581746,3.7065956653967e-05,3.7065956653967e-05,3.7065956653967e-05,2284784.6144578,0.015774231408922
21919200,0.9996555583212,0.016189349315893,0.006148792337482,0.0061487923378095,0.0038917646406016,-0.0015475079188185,0.0015475079188253,4.2963393380176e-15,4.4389232174721e-15,-5.2543688944017e-15,1.0445298550358e-14,-0.0016555972655905,0.0016555972655953,-0.0016555966387457,0.0016555966387464,-0.0016555972309781,0.0016555972309867,-0.0016555966733706,0.0016555966733788,-0.0013061229013043,0.0013061229013244,-0.001306124563242,0.0013061245632563,-1.6803486665017e-14,-3.3660557975229e-14,4.6134539208148e-09,-4.6134683887443e-09,-0.0015475079189092,0.0015475079188922,-0.0016555956861045,0.001655598771808,-0.0016555982182888,0.0016555951325784,-0.0016555956861136,0.0016555987718025,-0.0016555982182942,0.0016555951325682,-0.001306118508905,0.0013061275208792,-0.0013061289556906,0.0013061199437145,-0.0015732049406998,0.0015732018116645,-0.0015732049407187,0.0015732018116572,4.7780295385657e-09,4.7780294917729e-09,-0.00066411330232181,0.00066412457306153,1.3116727419452e-10,9.4634625234953e-09,-0.00073773675921595,0.0007377454208383,-0.00073773364216481,0.00073774853787296,-0.0007377367592154,0.0007377454208441,-0.00073773364217097,0.0007377485378732,-0.00084916299378116,0.00084917574537058,-0.00084916299378427,0.00084917574537248,0.623111015312,120135,2834,0.0064265206218383,0.0064265206221644,0.0027668049949296,13.997180891197,2.7177447129578e-05,2.7177447129578e-05,2.7177447129578e-05,2275903.7011632,0.01574280143056
22419200,0.99968394621483,0.016189801751511,0.006148958042194,0.0061489580425215,0.0038918856667955,-0.0015490048859006,0.0015490048859068,4.0734637937714e-15,4.2158712080285e-15,-5.4704799394165e-15,1.0218187841376e-14,-0.0016572432515413,0.0016572432515453,-0.001657242755712,0.0016572427557119,-0.0016572432178528,0.0016572432178608,-0.0016572427894146,0.0016572427894222,-0.0013073271751197,0.0013073271751392,-0.0013073289520611,0.0013073289520749,-1.6328501175497e-14,-3.3177526545845e-14,4.6121148912549e-09,-4.6121281057846e-09,-0.0015490048859902,0.0015490048859748,-0.0016572416795003,0.0016572447588704,-0.0016572443278089,0.0016572412484348,-0.001657241679509,0.0016572447588648,-0.0016572443278139,0.0016572412484245,-0.0013073227883266,0.0013073317985255,-0.001307333338901,0.0013073243287029,-0.0015747093095887,0.0015747061825398,-0.0015747093096071,0.0015747061825323,2.9129608048505e-09,2.9129607571072e-09,-0.00066546919254129,0.00066547560921593,-1.669697902184e-09,7.5835713559389e-09,-0.0007386223128779,0.00073862673557326,-0.00073861922479208,0.00073862982364476,-0.00073862231287669,0.00073862673557834,-0.00073861922479791,0.00073862982364469,-0.00085060936314375,0.000850617857097,-0.00085060936314734,0.00085061785709936,0.65096373206223,120135,2834,0.0064327234603303,0.0064327234606564,0.0027724202608203,14.849245366874,3.3993962934994e-05,3.3993962934994e-05,3.3993962934994e-05,2278701.3129151,0.01576110462617
22919200,0.99971079473502,0.016190187696651,0.0061490998067499,0.0061490998070774,0.0038919880828233,-0.0015504871590647,0.0015504871590712,4.2234003897819e-15,4.3661019127012e-15,-5.3512776986102e-15,1.034262521637e-14,-0.001658690953612,0.0016586909536162,-0.0016586908405094,0.0016586908405096,-0.0016586909227033,0.0016586909227116,-0.0016586908714318,0.0016586908714397,-0.0013087574601892,0.001308757460209,-0.0013087595154392,0.0013087595154533,-1.6527318631172e-14,-3.3376232791682e-14,4.5739313133477e-09,-4.5739453191947e-09,-0.0015504871591548,0.0015504871591389,-0.0016586894152219,0.0016586924530659,-0.0016586923789558,0.0016586893411073,-0.0016586894152308,0.0016586924530604,-0.0016586923789609,0.001658689341097,-0.0013087531236842,0.0013087620618595,-0.0013087638519921,0.0013087549138164,-0.0015763208421512,0.0015763177440048,-0.0015763208421697,0.0015763177439974,2.9156855796834e-09,2.9156855326025e-09,-0.00066569730764439,0.00066570380297475,-1.6528041715994e-09,7.5780495870222e-09,-0.00073943629734631,0.00073944083844049,-0.00073943321825358,0.00073944391751868,-0.00073943629734529,0.00073944083844573,-0.00073943321825955,0.0007394439175187,-0.00085088443224911,0.00085089302025959,-0.0008508844322525,0.00085089302026183,0.58748017292924,120135,2834,0.0064388534333029,0.0064388534336293,0.0027733818021545,15.356968774683,3.8055750197466e-05,3.8055750197466e-05,3.8055750197466e-05,2235794.7571679,0.015774537004236
23419200,0.99973587541896,0.016190558976526,0.0061492357718736,0.006149235772201,0.0038920874324513,-0.0015504275745769,0.0015504275745834,4.2429880266871e-15,4.3848660453522e-15,-5.3338958766717e-15,1.0358712960194e-14,-0.0016589003514292,0.0016589003514336,-0.0016589002920673,0.0016589002920675,-0.0016589003214878,0.0016589003214961,-0.0016589003220224,0.0016589003220303,-0.0013083454980873,0.0013083454981071,-0.0013083475110444,0.0013083475110585,-1.654478868571e-14,-3.3397300966998e-14,4.5517173298366e-09,-4.5517314548866e-09,-0.0015504275746668,0.0015504275746509,-0.0016588988275005,0.0016589018459161,-0.0016589018160523,0.001658898797632,-0.0016588988275094,0.0016589018459106,-0.0016589018160573,0.0016588987976218,-0.0013083411888847,0.0013083500859116,-0.0013083518202949,0.0013083429232673,-0.0015761375304134,0.0015761344490158,-0.001576137530432,0.0015761344490084,3.0500983088416e-09,3.0500982622976e-09,-0.00066693256929569,0.00066693947595636,-1.4934336010404e-09,7.6942779368994e-09,-0.00073918464247443,0.00073918961785034,-0.00073918157967057,0.00073919268063974,-0.00073918464247344,0.00073918961785558,-0.00073918157967653,0.00073919268063978,-0.00085237701458901,0.00085238603951763,-0.00085237701459238,0.00085238603951986,0.60459639632209,120135,2834,0.006438620889911,0.0064386208902369,0.0027784912664207,15.7054235825,4.0843388659998e-05,4.0843388659998e-05,4.0843388659998e-05,2285868.4359641,0.015779249021201
23919200,0.99976059245356,0.016190990177681,0.0061493933504066,0.0061493933507341,0.00389220347654,-0.001553360996427,0.0015533609964335,4.1829310378575e-15,4.3242796609305e-15,-5.3630420450998e-15,1.0329743256964e-14,-0.0016618997152208,0.0016618997152251,-0.0016618999034755,0.0016618999034757,-0.0016618996874384,0.0016618996874466,-0.0016618999312714,0.0016618999312793,-0.001310997193836,0.0013109971938557,-0.0013109991351286,0.0013109991351426,-1.6587257976537e-14,-3.3438820608528e-14,4.1550853365529e-09,-4.1550995225085e-09,-0.0015533609965172,0.0015533609965011,-0.0016618983395537,0.0016619010820878,-0.001661901279199,0.0016618985366599,-0.0016618983395626,0.0016619010820823,-0.0016619012792041,0.0016618985366497,-0.0013109932906581,0.0013110014183949,-0.0013110030383543,0.0013109949106167,-0.001579296420653,0.0015792936096104,-0.0015792964206716,0.001579293609603,2.0839302774088e-09,2.0839302303913e-09,-0.00066938863154843,0.00066939308646011,-2.0362803727088e-09,6.3400148135171e-09,-0.00074179849765349,0.00074180159275315,-0.0007417957106967,0.00074180437969518,-0.00074179849765257,0.00074180159275852,-0.00074179571070273,0.00074180437969525,-0.00085500650436523,0.00085501334476357,-0.00085500650436849,0.00085501334476568,0.71228945632067,120135,2834,0.0064507628259362,0.0064507628262626,0.0027886983611526,17.003353503204,5.1226828025632e-05,5.1226828025632e-05,5.1226828025632e-05,2250234.5146181,0.015814287203735
24419200,0.99978416298351,0.016191382069379,0.0061495367647393,0.0061495367650668,0.0038923085395724,-0.0015563138988241,0.0015563138988304,4.1219917230411e-15,4.2633991678466e-15,-5.428951796308e-15,1.0265686390327e-14,-0.0016645176068014,0.0016645176068056,-0.0016645177928824,0.0016645177928823,-0.0016645175788911,0.0016645175788992,-0.001664517820807,0.0016645178208146,-0.0013142828207136,0.0013142828207332,-0.0013142847570853,0.0013142847570991,-1.6483672905696e-14,-3.3328943450494e-14,4.1296426233063e-09,-4.1296566198801e-09,-0.0015563138989141,0.0015563138988984,-0.0016645162383524,0.00166451896486,-0.0016645191613876,0.0016645164348763,-0.0016645162383613,0.0016645189648544,-0.0016645191613926,0.0016645164348659,-0.0013142789418213,0.0013142870197048,-0.001314288636025,0.0013142805581412,-0.0015824211172167,0.0015824183231596,-0.0015824211172351,0.0015824183231522,2.4219190358213e-09,2.4219189905667e-09,-0.00066906106133115,0.00066906640712799,-1.689112745868e-09,6.65697805214e-09,-0.00074398799192255,0.00074399187823994,-0.00074398521409252,0.00074399465605614,-0.00074398799192151,0.00074399187824508,-0.00074398521409844,0.00074399465605602,-0.00085441017553322,0.00085441777859074,-0.00085441017553668,0.00085441777859318,0.67894105241859,120135,2834,0.0064629612823331,0.0064629612826602,0.0027873873961344,17.881009353844,5.8248074830756e-05,5.8248074830756e-05,5.8248074830756e-05,2136725.8177723,0.015837746717612
24919200,0.99980599404972,0.016191707206041,0.0061496556390596,0.006149655639387,0.003892395927594,-0.0015569127860261,0.0015569127860326,4.2105772521081e-15,4.3507494405322e-15,-5.3606303540694e-15,1.0336184236667e-14,-0.0016651087980064,0.0016651087980106,-0.0016651089170872,0.0016651089170874,-0.0016651087695376,0.0016651087695458,-0.0016651089455697,0.0016651089455776,-0.0013148682978677,0.0013148682978875,-0.0013148701804732,0.0013148701804872,-1.6637609379513e-14,-3.3490012518915e-14,4.1122546901549e-09,-4.1122690911914e-09,-0.0015569127861163,0.0015569127861002,-0.0016651074315676,0.0016651101493044,-0.0016651102835823,0.0016651075658407,-0.0016651074315766,0.0016651101492989,-0.0016651102835874,0.0016651075658305,-0.0013148644334579,0.0013148724765566,-0.001314874044931,0.0013148660018311,-0.0015829050228053,0.0015829022396456,-0.0015829050228238,0.0015829022396382,2.8236588455437e-09,2.823658799956e-09,-0.00066952873116567,0.00066953511407032,-1.2795465024238e-09,7.0400303965068e-09,-0.0007441244503173,0.00074412925646689,-0.00074412168065908,0.00074413202611053,-0.00074412445031629,0.00074412925647211,-0.00074412168066506,0.00074413202611054,-0.00085486780049253,0.00085487629940119,-0.00085486780049591,0.00085487629940345,0.60789483588396,120135,2834,0.0064654427228521,0.0064654427231786,0.0027893307599861,18.351538202369,6.2012305618949e-05,6.2012305618949e-05,6.2012305618949e-05,2152832.3449756,0.015844759039248
25419200,0.99982743497377,0.016192094826122,0.0061497966103316,0.0061497966106591,0.003892501605131,-0.0015590688618264,0.0015590688618328,4.1913425455976e-15,4.334044068517e-15,-5.3789827345933e-15,1.0316243669367e-14,-0.001667564793946,0.0016675647939502,-0.0016675648250149,0.0016675648250148,-0.0016675647647529,0.0016675647647612,-0.0016675648542219,0.0016675648542297,-0.0013166731006392,0.001316673100659,-0.0013166749343105,0.0013166749343245,-1.6466732246751e-14,-3.3319821601403e-14,4.0999478051863e-09,-4.0999617116293e-09,-0.0015590688619161,0.0015590688619005,-0.001667563426414,0.0016675661398792,-0.0016675661926026,0.0016675634791335,-0.0016675634264228,0.0016675661398738,-0.0016675661926076,0.0016675634791233,-0.0013166692449235,0.0013166772627434,-0.0013166787900735,0.0013166707722534,-0.0015848814982529,0.0015848787221193,-0.0015848814982713,0.001584878722112,1.962299859646e-09,1.9622998136171e-09,-0.00067347332633595,0.00067347743456395,-2.090633558271e-09,6.1481796099508e-09,-0.0007463415123715,0.00074634433153254,-0.00074633877023614,0.00074634707365395,-0.0007463415123704,0.00074634433153759,-0.00074633877024218,0.00074634707365402,-0.0008590311798513,0.0008590376520738,-0.00085903117985456,0.00085903765207591,0.7372586897946,120135,2834,0.0064743877417248,0.0064743877420506,0.0028056811068502,19.918752329031,7.4550018632244e-05,7.4550018632244e-05,7.4550018632244e-05,2204152.0081787,0.015879536022066
25919200,0.99984739086193,0.016192451362758,0.0061499267095049,0.0061499267098323,0.0038925979434203,-0.0015625893303774,0.001562589330384,4.2858690696419e-15,4.4239236756978e-15,-5.3536305679081e-15,1.0388712043743e-14,-0.0016701242455607,0.0016701242455652,-0.0016701243145525,0.0016701243145528,-0.001670124215788,0.0016701242157965,-0.0016701243443388,0.0016701243443468,-0.0013215475621615,0.0013215475621815,-0.0013215494559238,0.0013215494559381,-1.655825886244e-14,-3.3453301094468e-14,3.862216349805e-09,-3.8622304332835e-09,-0.0015625893304678,0.0015625893304517,-0.0016701229525007,0.0016701255106705,-0.0016701256076695,0.0016701230494944,-0.0016701229525097,0.0016701255106651,-0.0016701256076746,0.0016701230494842,-0.0013215439338507,0.0013215514837445,-0.001321553084282,0.001321545534388,-0.0015887200987418,0.0015887174798397,-0.0015887200987605,0.0015887174798323,2.5175818677892e-09,2.5175818262798e-09,-0.00067315416143991,0.00067315974170374,-1.3356871109697e-09,6.472943794128e-09,-0.00074991259658495,0.00074991683516892,-0.00074990999481865,0.0007499194369204,-0.00074991259658398,0.0007499168351742,-0.00074990999482461,0.00074991943692045,-0.00085757815772688,0.00085758572868697,-0.00085757815773032,0.00085758572868928,0.72914636768882,120135,2834,0.0064889253114027,0.0064889253117301,0.0028044104501485,20.733725976523,8.106980781218e-05,8.106980781218e-05,8.106980781218e-05,2075095.9324819,0.01590779509653
26419200,0.99986471503691,0.016192788030018,0.0061500488692227,0.0061500488695502,0.0038926902912455,-0.001561734672297,0.0015617346723035,4.1775194384723e-15,4.3111035928621e-15,-5.3853648925639e-15,1.0356183625699e-14,-0.001669736339935,0.0016697363399393,-0.0016697361249126,0.0016697361249128,-0.0016697363074835,0.0016697363074917,-0.0016697361573776,0.0016697361573855,-0.001319780597999,0.0013197805980188,-0.0013197823957297,0.0013197823957437,-1.6597845888378e-14,-3.3492630315781e-14,3.8732393353708e-09,-3.8732535635693e-09,-0.0015617346723872,0.001561734672371,-0.0016697350232362,0.0016697376036632,-0.0016697374416678,0.0016697348612358,-0.0016697350232452,0.0016697376036577,-0.0016697374416729,0.0016697348612255,-0.0013197769437318,0.0013197845093067,-0.0013197860500446,0.0013197784844686,-0.0015878053911057,0.0015878027596636,-0.0015878053911244,0.0015878027596562,3.6803116625745e-09,3.6803116246532e-09,-0.00067149043999733,0.00067149898561758,-2.1901518873632e-10,7.6377417712022e-09,-0.00074747508575744,0.0007474818739091,-0.00074747246327494,0.0007474844963766,-0.00074747508575658,0.00074748187391446,-0.00074747246328094,0.00074748449637667,-0.00085679523494014,0.00085680528409258,-0.00085679523494344,0.0008568052840947,0.7920419595447,120135,2834,0.0064853912321898,0.0064853912325162,0.0027975131250749,20.39915880271,7.8393270421682e-05,7.8393270421682e-05,7.8393270421682e-05,2069326.3013528,0.015893604363371
26919200,0.99988084367858,0.016193083521957,0.0061501562889785,0.006150156289306,0.0038927709436724,-0.0015642295548393,0.0015642295548458,4.2349294493417e-15,4.3641607955304e-15,-5.38695307934e-15,1.0361771690282e-14,-0.001671853678855,0.0016718536788593,-0.0016718537606098,0.00167185376061,-0.0016718536488555,0.0016718536488639,-0.0016718537906228,0.0016718537906307,-0.0013227452795606,0.0013227452795804,-0.0013227471808689,0.001322747180883,-1.6570552604522e-14,-3.3473181231629e-14,3.7151212850273e-09,-3.7151353045674e-09,-0.0015642295549296,0.0015642295549135,-0.0016718524332025,0.0016718548945473,-0.001671855006319,0.0016718525449692,-0.0016718524332115,0.0016718548945418,-0.0016718550063242,0.001671852544959,-0.0013227417939985,0.0013227490549758,-0.0013227506664782,0.0013227434055002,-0.0015904025801237,0.0015904000587991,-0.0015904025801424,0.0015904000587918,2.4503678122937e-09,2.450367778064e-09,-0.00067176648175993,0.00067177189500754,-1.2580625071863e-09,6.2571924445806e-09,-0.00074942080166351,0.00074942499684758,-0.00074941829722859,0.00074942750126738,-0.00074942080166252,0.00074942499685289,-0.00074941829723456,0.00074942750126741,-0.00085663556632692,0.00085664289912586,-0.00085663556633027,0.00085664289912807,0.74688297492095,120135,2834,0.0064957035944165,0.0064957035947433,0.0027986788874041,21.286345494362,8.5490763954895e-05,8.5490763954895e-05,8.5490763954895e-05,2005996.7647333,0.015915745887495
27419200,0.99989581563863,0.016193350241529,0.006150253073599,0.0061502530739265,0.0038928440940039,-0.0015653817288457,0.0015653817288521,4.1864015200719e-15,4.3193974571373e-15,-5.3818061777508e-15,1.0347272133233e-14,-0.001673790230463,0.0016737902304672,-0.001673790333212,0.0016737903332123,-0.0016737902002478,0.001673790200256,-0.0016737903634407,0.0016737903634486,-0.0013225294659716,0.0013225294659913,-0.001322531377858,0.0013225313778719,-1.6522083496985e-14,-3.34089320455e-14,3.5314370802269e-09,-3.5314510814906e-09,-0.0015653817289357,0.0015653817289197,-0.0016737890446488,0.001673791384718,-0.0016737915190824,0.0016737891790084,-0.0016737890446577,0.0016737913847124,-0.0016737915190875,0.0016737891789982,-0.0013225261600791,0.0013225330604514,-0.001322534683798,0.0013225277834249,-0.0015915458485121,0.0015915434490797,-0.0015915458485308,0.0015915434490723,2.3474145842149e-09,2.347414545744e-09,-0.00067359325210919,0.00067359841321113,-1.1783769544223e-09,5.9692937191303e-09,-0.00074909821603892,0.00074910231917205,-0.00074909583392819,0.00074910470126781,-0.000749098216038,0.00074910231917736,-0.00074909583393425,0.00074910470126787,-0.0008596204514794,0.00085962744787937,-0.00085962045148268,0.00085962744788146,0.72588280929977,120135,2834,0.0065004910681093,0.0065004910684352,0.0028062539978038,22.250223761394,9.3201790091156e-05,9.3201790091156e-05,9.3201790091156e-05,2025662.2312782,0.015933162776187
27919200,0.99990938580085,0.016193605130644,0.0061503454883988,0.0061503454887262,0.003892914153519,-0.0015664916789304,0.0015664916789369,4.2456938263797e-15,4.3778662591909e-15,-5.3568069414603e-15,1.0363712807452e-14,-0.0016751830170585,0.0016751830170628,-0.0016751830451657,0.0016751830451659,-0.0016751829858864,0.0016751829858946,-0.0016751830763513,0.0016751830763592,-0.0013231277171619,0.0013231277171817,-0.0013231296053933,0.0013231296054075,-1.6553847232507e-14,-3.3431554975709e-14,3.4382815206944e-09,-3.4382956812083e-09,-0.0015664916790205,0.0015664916790044,-0.0016751818551128,0.0016751841384258,-0.0016751842071678,0.0016751819238498,-0.0016751818551217,0.0016751841384203,-0.001675184207173,0.0016751819238396,-0.0013231244969187,0.0013231312127025,-0.0013231328256844,0.0013231261098998,-0.0015927490065303,0.0015927466673969,-0.001592749006549,0.0015927466673895,2.6382150736744e-09,2.6382150366357e-09,-0.00067487989256132,0.00067488580101033,-8.0675775795722e-10,6.163238270522e-09,-0.00074949209137417,0.00074949690207374,-0.00074948976677945,0.00074949922665356,-0.00074949209137322,0.00074949690207904,-0.0007494897667854,0.00074949922665357,-0.00086125735508902,0.00086126490870898,-0.00086125735509249,0.0008612649087113,0.76533978020323,120135,2834,0.0065050941620022,0.0065050941623283,0.0028115907728782,22.918028502833,9.8544228022664e-05,9.8544228022664e-05,9.8544228022664e-05,2029706.0360691,0.015947935711315
28419200,0.99992152264853,0.016193851070278,0.0061504345789808,0.0061504345793083,0.0038929819119893,-0.0015681303160638,0.0015681303160703,4.2460467567744e-15,4.382866106449e-15,-5.3684830553513e-15,1.0356389501763e-14,-0.001676439416459,0.0016764394164633,-0.0016764394078131,0.0016764394078134,-0.0016764393848352,0.0016764393848434,-0.0016764394394505,0.0016764394394584,-0.0013253180223941,0.001325318022414,-0.0013253198950024,0.0013253198950166,-1.6579552329586e-14,-3.3460080873563e-14,3.3974395019681e-09,-3.3974535886342e-09,-0.0015681303161541,0.001568130316138,-0.0016764382645616,0.0016764405232442,-0.0016764405597669,0.0016764383010794,-0.0016764382645705,0.0016764405232387,-0.0016764405597721,0.0016764383010693,-0.0013253148391326,0.0013253214739245,-0.0013253230783115,0.0013253164435187,-0.0015944848469891,0.0015944825343379,-0.0015944848470078,0.0015944825343306,2.7829668737634e-09,2.7829668314501e-09,-0.00067506294200345,0.00067506921983491,-6.2753588262131e-10,6.2652784048983e-09,-0.00075101008394191,0.00075101523226595,-0.00075100778410596,0.00075101753208685,-0.00075101008394095,0.00075101523227128,-0.00075100778411187,0.00075101753208684,-0.00086092782514405,0.00086093565844337,-0.00086092782514763,0.00086093565844576,0.82558911402084,120135,2834,0.0065118655576928,0.0065118655580194,0.0028123668857187,23.441034151996,0.00010272827321596,0.00010272827321596,0.00010272827321596,1986413.7512174,0.015962486888132
28919200,0.99993234015075,0.016194053936307,0.0061505081340107,0.0061505081343382,0.0038930376679583,-0.0015698904568694,0.0015698904568758,4.1516966979275e-15,4.2855749609796e-15,-5.4013644037898e-15,1.0324802231438e-14,-0.0016778043415615,0.0016778043415658,-0.0016778043377436,0.0016778043377438,-0.0016778043099045,0.0016778043099127,-0.0016778043694142,0.0016778043694221,-0.0013276157525048,0.0013276157525246,-0.0013276176232994,0.0013276176233133,-1.6564199857417e-14,-3.3443737967497e-14,3.3599914575692e-09,-3.3600054793375e-09,-0.0015698904569596,0.0015698904569435,-0.0016778032017741,0.00167780543574,-0.0016778054775876,0.0016778032436168,-0.0016778032017831,0.0016778054357345,-0.0016778054775926,0.0016778032436065,-0.0013276126054572,0.0013276191667623,-0.0013276207703943,0.0013276142090883,-0.0015962787678814,0.0015962764801957,-0.0015962787679001,0.0015962764801883,2.7589974279555e-09,2.7589973897295e-09,-0.00067477976741874,0.00067478598557772,-6.1472240682891e-10,6.203485725887e-09,-0.00075239216762615,0.00075239728067297,-0.00075238989247639,0.00075239955580748,-0.00075239216762527,0.0007523972806783,-0.00075238989248248,0.00075239955580762,-0.00086021660275071,0.00086022436075135,-0.00086021660275393,0.0008602243607533,0.76400561131051,120135,2834,0.0065191356260184,0.0065191356263453,0.0028112160522755,23.983294704875,0.000107066357639,0.000107066357639,0.000107066357639,1929464.4984696,0.015976094100488
29419200,0.99994206323853,0.01619420289429,0.0061505622625043,0.0061505622628317,0.003893078368954,-0.0015705492258405,0.001570549225847,4.2278708414479e-15,4.3566904355095e-15,-5.3634243863607e-15,1.0369565569831e-14,-0.001679326184843,0.0016793261848473,-0.0016793262436542,0.0016793262436544,-0.0016793261535886,0.0016793261535969,-0.0016793262749222,0.0016793262749301,-0.0013268027344426,0.0013268027344624,-0.0013268046333383,0.0013268046333524,-1.6548200346192e-14,-3.3440435448902e-14,3.287130935055e-09,-3.2871450320088e-09,-0.0015705492259305,0.0015705492259145,-0.0016793250726868,0.0016793272556907,-0.0016793273558667,0.0016793251728578,-0.0016793250726958,0.0016793272556852,-0.0016793273558718,0.0016793251728475,-0.0013267996618473,0.0013268060812027,-0.0013268077059812,0.001326801286625,-0.0015968997053177,0.0015968974668139,-0.0015968997053365,0.0015968974668065,2.4970001916506e-09,2.4970001575651e-09,-0.00067656245853327,0.00067656801336931,-7.9719944729528e-10,5.8699493377682e-09,-0.00075167277137067,0.00075167737430002,-0.00075167054753955,0.00075167959811613,-0.00075167277136972,0.00075167737430534,-0.00075167054754548,0.00075167959811618,-0.0008632684952136,0.00086327565113991,-0.00086326849521692,0.0008632756511421,0.62417410960896,120135,2834,0.0065218836862769,0.0065218836866028,0.0028186025337175,24.777895448612,0.00011342316358889,0.00011342316358889,0.00011342316358889,1961665.9622041,0.015989175365614
29919200,0.99995069071854,0.016194348385711,0.0061506149515463,0.0061506149518738,0.0038931184822905,-0.0015700654781954,0.0015700654782019,4.2771634532395e-15,4.3999832305914e-15,-5.3209550955331e-15,1.0331978482797e-14,-0.0016802254210194,0.0016802254210237,-0.0016802254520771,0.0016802254520774,-0.0016802253893195,0.0016802253893277,-0.0016802254837905,0.0016802254837985,-0.0013241789320784,0.0013241789320984,-0.001324180832204,0.0013241808322181,-1.6426733468686e-14,-3.3248295408721e-14,3.2392009114795e-09,-3.2392147714181e-09,-0.001570065478285,0.0015700654782692,-0.0016802243219818,0.0016802264752566,-0.0016802265511705,0.0016802243978911,-0.0016802243219907,0.0016802264752511,-0.0016802265511756,0.0016802243978809,-0.0013241759048144,0.0013241822293763,-0.0013241838595157,0.0013241775349535,-0.0015963382870314,0.0015963360794938,-0.0015963382870501,0.0015963360794866,2.6046726705886e-09,2.6046726412446e-09,-0.00067995562909932,0.00067996146346637,-6.4588747512511e-10,5.928349122886e-09,-0.00075006721476305,0.00075007211251549,-0.00075006502150426,0.00075007430575945,-0.00075006721476218,0.00075007211252088,-0.00075006502151027,0.00075007430575947,-0.00086846644384985,0.00086847379910756,-0.00086846644385326,0.00086847379910986,0.68688558505508,120135,2834,0.0065199262573849,0.0065199262577096,0.0028326409398588,25.464600013959,0.00011891680011167,0.00011891680011167,0.00011891680011167,2069735.252375,0.015999448340664
30419200,0.99995828829794,0.016194453142386,0.0061506531888628,0.0061506531891903,0.0038931467643331,-0.0015727010340623,0.0015727010340688,4.2207534118217e-15,4.3471613148529e-15,-5.3479542707268e-15,1.0329243272238e-14,-0.0016816956416212,0.0016816956416254,-0.0016816956678756,0.0016816956678759,-0.0016816956098476,0.0016816956098558,-0.0016816956996628,0.0016816956996706,-0.0013287155032376,0.0013287155032573,-0.0013287173925745,0.0013287173925886,-1.6586669759213e-14,-3.3424726484866e-14,3.2055962655739e-09,-3.2056103343635e-09,-0.0015727010341525,0.0015727010341365,-0.0016816945526342,0.0016816966842479,-0.0016816967569192,0.0016816946253006,-0.0016816945526431,0.0016816966842425,-0.0016816967569243,0.0016816946252904,-0.0013287125072253,0.0013287187657022,-0.0013287203886347,0.0013287141301568,-0.0015992326386985,0.0015992304536096,-0.001599232638717,0.0015992304536022,2.6225128616738e-09,2.6225128309155e-09,-0.00068080580439985,0.00068081168069572,-5.9707568327714e-10,5.9116509465186e-09,-0.00075426727287296,0.00075427220872389,-0.00075426510084625,0.00075427438073558,-0.00075426727287209,0.00075427220872927,-0.00075426510085218,0.00075427438073562,-0.00086749041583922,0.0008674977830179,-0.00086749041584261,0.00086749778302009,0.56251928746541,120135,2834,0.0065308094399588,0.0065308094402855,0.0028361934044518,26.129927784569,0.00012423942227655,0.00012423942227655,0.00012423942227655,2000459.3469647,0.01602518256734
30919200,0.99996504501595,0.01619456528535,0.0061506938094259,0.0061506938097534,0.0038931776661708,-0.0015728355173707,0.0015728355173774,4.3489847885588e-15,4.4720986745729e-15,-5.2795151850233e-15,1.0439092857585e-14,-0.001682999446527,0.0016829994465315,-0.0016829995574237,0.0016829995574242,-0.0016829994153455,0.001682999415354,-0.0016829995886187,0.0016829995886268,-0.0013271412609196,0.0013271412609396,-0.0013271431846724,0.0013271431846866,-1.6439909536754e-14,-3.3324062050904e-14,3.1178802704523e-09,-3.1178941792304e-09,-0.0015728355174605,0.0015728355174446,-0.00168299839169,0.0016830004613678,-0.0016830006123168,0.0016829985426343,-0.0016829983916989,0.0016830004613624,-0.0016830006123219,0.0016829985426241,-0.0013271383554163,0.0013271444431643,-0.001327146090224,0.0013271400024753,-0.0015991062840205,0.0015991041582347,-0.0015991062840393,0.0015991041582274,2.2770669133841e-09,2.2770668832286e-09,-0.00068486357181566,0.00068486857526968,-8.4494581714705e-10,5.4804339543723e-09,-0.00075399992768692,0.00075400417578778,-0.00075399781828954,0.00075400628517017,-0.00075399992768595,0.00075400417579305,-0.00075399781829551,0.00075400628517025,-0.00087315019417664,0.00087315677534861,-0.00087315019418007,0.00087315677535077,0.67617106509292,120135,2834,0.0065314036340872,0.0065314036344123,0.0028530021615538,27.118823753215,0.00013215059002572,0.00013215059002572,0.00013215059002572,2100249.0347221,0.016043456214216
31419200,0.9999710898488,0.016194668982921,0.0061507314986599,0.0061507314989874,0.0038932059852732,-0.0015773297242947,0.0015773297243011,4.1415205382139e-15,4.2785751748183e-15,-5.416481589029e-15,1.0306067509653e-14,-0.0016858334904238,0.0016858334904281,-0.0016858336823071,0.0016858336823071,-0.0016858334597551,0.0016858334597632,-0.0016858337129894,0.0016858337129972,-0.0013343176082427,0.0013343176082625,-0.001334319548296,0.00133431954831,-1.6657844055475e-14,-3.3537631928145e-14,2.9921649520674e-09,-2.9921792763833e-09,-0.0015773297243852,0.0015773297243689,-0.001685832480664,0.001685834464006,-0.0016858346921235,0.0016858327087763,-0.0016858324806729,0.0016858344640005,-0.0016858346921286,0.0016858327087661,-0.0013343148274998,0.0013343206700333,-0.0013343223290869,0.001334316486552,-0.0016038188095926,0.00160381676891,-0.0016038188096113,0.0016038167689028,1.9181614522128e-09,1.9181614101327e-09,-0.00068630937557674,0.00068631346969313,-1.0728277224966e-09,4.9964845206217e-09,-0.00076062516068137,0.00076062868421897,-0.00076062313697606,0.00076063070790947,-0.00076062516068046,0.0007606286842243,-0.00076062313698204,0.00076063070790954,-0.00087214507257193,0.00087215080607432,-0.00087214507257532,0.00087215080607668,0.69952705654839,120135,2834,0.0065499640217228,0.0065499640220502,0.0028590505295458,28.435763290188,0.0001426861063215,0.0001426861063215,0.0001426861063215,1984984.4672745,0.016087333164581
31919200,0.99997629651185,0.016194760921084,0.0061507647872143,0.0061507647875418,0.003893231346328,-0.0015791291146933,0.0015791291146998,4.2045774353984e-15,4.3421614675948e-15,-5.3671007446387e-15,1.03649774747e-14,-0.0016875059786332,0.0016875059786376,-0.0016875060494744,0.0016875060494747,-0.0016875059467182,0.0016875059467265,-0.0016875060814029,0.0016875060814109,-0.0013362995847609,0.0013362995847807,-0.0013363014843658,0.0013363014843799,-1.6571493752241e-14,-3.3460775130847e-14,2.9711266199483e-09,-2.971140670817e-09,-0.0015791291147835,0.0015791291147675,-0.0016875049666696,0.0016875069428081,-0.0016875070614947,0.0016875050853512,-0.0016875049666785,0.0016875069428026,-0.0016875070614998,0.001687505085341,-0.0013362968176529,0.0013363026162647,-0.0013363042515214,0.0013362984529088,-0.001605496016155,0.0016054939872188,-0.0016054960161737,0.0016054939872114,2.4124192275207e-09,2.4124191849851e-09,-0.00068728626120006,0.00068729161367598,-5.7365976639674e-10,5.4655639999921e-09,-0.00076238739633665,0.00076239202148077,-0.00076238538040965,0.00076239403739273,-0.00076238739633578,0.00076239202148613,-0.00076238538041564,0.00076239403739279,-0.000873085160868,0.0008730919299885,-0.00087308516087133,0.00087309192999065,0.71926751588325,120135,2834,0.0065574036742741,0.0065574036746009,0.0028631301569033,29.268439170464,0.00014934751336371,0.00014934751336371,0.00014934751336371,1954374.8774901,0.016106598070892
32419200,0.99998057181811,0.016194843782205,0.0061507947107544,0.0061507947110819,0.0038932543603691,-0.0015793468149313,0.0015793468149378,4.1975188275046e-15,4.335102859701e-15,-5.3779239434092e-15,1.0354918958451e-14,-0.0016877396402851,0.0016877396402894,-0.0016877397115432,0.0016877397115434,-0.0016877396083678,0.0016877396083761,-0.0016877397434739,0.0016877397434819,-0.0013364843762781,0.0013364843762979,-0.0013364862731069,0.0013364862731209,-1.6595669484277e-14,-3.3485874088356e-14,2.9699335180824e-09,-2.9699476852104e-09,-0.0015793468150216,0.0015793468150054,-0.0016877386286939,0.0016877406040561,-0.001687740723191,0.0016877387478237,-0.0016877386287028,0.0016877406040506,-0.0016877407231961,0.0016877387478135,-0.0013364816103035,0.0013364874065706,-0.001336489039129,0.0013364832428609,-0.0016057083374354,0.0016057063092927,-0.001605708337454,0.0016057063092853,3.1182544903725e-09,3.1182544475259e-09,-0.00068657023363122,0.00068657742610052,1.0630871393e-10,6.1791896791145e-09,-0.00076208924886224,0.00076209548857971,-0.0007620872208796,0.00076209751654731,-0.00076208924886132,0.00076209548858504,-0.00076208722088559,0.00076209751654737,-0.00087241110126807,0.00087241948893545,-0.00087241110127139,0.00087241948893762,0.78912843059547,120135,2834,0.0065582994905046,0.0065582994908312,0.0028601708196952,29.299074156565,0.00014959259325252,0.00014959259325252,0.00014959259325252,1929002.5535046,0.016105412328739
32919200,0.99998405496968,0.016194902877894,0.0061508161100137,0.0061508161103412,0.0038932706575394,-0.0015798289617164,0.0015798289617229,4.2064597308368e-15,4.3433967239762e-15,-5.3740122982014e-15,1.0361595225084e-14,-0.001688081088686,0.0016880810886903,-0.0016880810271555,0.0016880810271557,-0.001688081055903,0.0016880810559113,-0.001688081059952,0.0016880810599599,-0.0013370675900436,0.0013370675900634,-0.0013370693776929,0.001337069377707,-1.6616610021029e-14,-3.3505877498405e-14,2.983895358501e-09,-2.9839095455877e-09,-0.0015798289618067,0.0015798289617905,-0.0016880800657938,0.0016880820556816,-0.0016880820501044,0.0016880800602114,-0.0016880800658027,0.0016880820556761,-0.0016880820501096,0.0016880800602012,-0.0013370648063148,0.0013370706292375,-0.0013370721614693,0.0013370663385456,-0.0016062869089413,0.0016062848705318,-0.00160628690896,0.0016062848705244,3.3621623583235e-09,3.3621623163668e-09,-0.00068482943812452,0.00068483725485706,3.3745983453958e-10,6.4290540526206e-09,-0.0007616762296466,0.00076168299276713,-0.00076167419482906,0.00076168502756952,-0.00076167622964573,0.00076168299277252,-0.00076167419483506,0.00076168502756959,-0.00087062900033547,0.00087063793599318,-0.00087062900033878,0.00087063793599532,0.69092321609739,120135,2834,0.0065602806802892,0.006560280680616,0.0028529691077536,29.174720780397,0.00014859776624318,0.00014859776624318,0.00014859776624318,1868328.149059,0.016102124904822
33419200,0.99998693327715,0.016194957749769,0.0061508358749666,0.0061508358752941,0.003893285999508,-0.0015790663620608,0.0015790663620673,4.2115772215598e-15,4.3489847885588e-15,-5.3672183881036e-15,1.0364712776904e-14,-0.001687625055505,0.0016876250555093,-0.0016876249257905,0.0016876249257907,-0.001687625022055,0.0016876250220633,-0.0016876249592542,0.0016876249592621,-0.001335895037387,0.0013358950374068,-0.0013358968007375,0.0013358968007516,-1.652461283148e-14,-3.3417897649364e-14,2.9977049859592e-09,-2.9977189482677e-09,-0.0015790663621508,0.0015790663621349,-0.0016876240230986,0.001687626025774,-0.0016876259582532,0.001687623955573,-0.0016876240231075,0.0016876260257685,-0.0016876259582583,0.0016876239555628,-0.0013358922370891,0.0013358980860799,-0.0013358996010826,0.0013358937520911,-0.0016053360440466,0.0016053339954279,-0.0016053360440652,0.0016053339954205,3.1804109991822e-09,3.1804109571872e-09,-0.00068557396271316,0.0006855812705077,1.4900896092265e-10,6.2547417910347e-09,-0.00076063076578241,0.00076063707379469,-0.00076062872580083,0.00076063911376148,-0.00076063076578151,0.00076063707380002,-0.00076062872580679,0.00076063911376153,-0.00087165629543028,0.00087166476785172,-0.00087165629543364,0.00087166476785392,0.77567308772678,120135,2834,0.0065571417939313,0.0065571417942573,0.0028560324119119,29.31598065564,0.00014972784524512,0.00014972784524512,0.00014972784524512,1937136.0696962,0.016098851154602
33919200,0.99998937893798,0.016195003583817,0.0061508524367264,0.0061508524370539,0.0038932987100364,-0.0015816385102515,0.0015816385102579,4.2153418124365e-15,4.3559257529877e-15,-5.3779239434092e-15,1.0350213219856e-14,-0.0016898769302665,0.0016898769302708,-0.0016898769794931,0.0016898769794933,-0.001689876898232,0.0016898768982402,-0.0016898770115412,0.0016898770115491,-0.0013386993249907,0.0013386993250105,-0.0013387012167448,0.0013387012167588,-1.6609845521797e-14,-3.3494419783173e-14,2.9957698000278e-09,-2.9957839927451e-09,-0.0015816385103418,0.0015816385103256,-0.0016898759090394,0.0016898779023723,-0.0016898780007769,0.0016898760074388,-0.0016898759090484,0.0016898779023668,-0.001689878000782,0.0016898760074286,-0.0013386965326367,0.001338702379246,-0.0013387040091464,0.001338698162536,-0.0016081818789321,0.0016081798333551,-0.0016081818789508,0.0016081798333477,2.5092415847091e-09,2.5092415393346e-09,-0.00068592850367882,0.00068593410081766,-5.0393232003707e-10,5.5866632437139e-09,-0.00076279466312212,0.0007627994824445,-0.00076279262974758,0.00076280151580392,-0.00076279466312118,0.00076279948244982,-0.00076279262975357,0.00076280151580397,-0.00087174563494113,0.0008717526268963,-0.00087174563494449,0.00087175262689845,0.76303060755974,120135,2834,0.0065677729758577,0.0065677729761846,0.002857530248801,30.069090008148,0.00015575272006519,0.00015575272006519,0.00015575272006519,1861421.1594894,0.016121985240916
34419200,0.99999150339222,0.016195041585721,0.0061508661492297,0.0061508661495572,0.0038933092869343,-0.0015840523706684,0.001584052370675,4.2762811272528e-15,4.4178650372557e-15,-5.3466307817468e-15,1.0385123918064e-14,-0.0016925931941393,0.0016925931941437,-0.0016925934130169,0.0016925934130172,-0.0016925931634358,0.0016925931634442,-0.0016925934437339,0.0016925934437419,-0.0013405963140924,0.0013405963141123,-0.001340598265026,0.0013405982650402,-1.6562435205444e-14,-3.3451085743947e-14,2.8786833846209e-09,-2.8786975104656e-09,-0.0015840523707586,0.0015840523707425,-0.0016925922221226,0.0016925941298945,-0.0016925943850902,0.0016925924773132,-0.0016925922221316,0.0016925941298891,-0.0016925943850953,0.001692592477303,-0.0013405936447679,0.0013405992647693,-0.0013406009343981,0.0013405953143957,-0.0016105416282757,0.0016105396632179,-0.0016105416282945,0.0016105396632105,1.8060374422574e-09,1.8060373954738e-09,-0.00068858424884988,0.00068858805987605,-1.0711775978479e-09,4.7705968463793e-09,-0.0007646705720509,0.00076467393036278,-0.00076466862412001,0.00076467587827872,-0.00076467057204997,0.00076467393036809,-0.00076466862412597,0.00076467587827874,-0.00087487597422507,0.00087488139816725,-0.00087487597422849,0.00087488139816951,0.72790058071019,120135,2834,0.0065777706150197,0.006577770615346,0.0028685577184728,31.478087854818,0.00016702470283854,0.00016702470283854,0.00016702470283854,1857072.3206476,0.016153505724064
34919200,0.99999337331704,0.016195076427796,0.0061508787031964,0.0061508787035238,0.0038933190210753,-0.0015875811787062,0.0015875811787128,4.2582228553912e-15,4.4001008740563e-15,-5.3473954642686e-15,1.0378888814424e-14,-0.0016964992227812,0.0016964992227856,-0.0016964996243966,0.0016964996243969,-0.0016964991933633,0.0016964991933717,-0.001696499653828,0.001696499653836,-0.0013435467180202,0.0013435467180401,-0.0013435487295141,0.0013435487295283,-1.6525965731326e-14,-3.3411888067328e-14,2.6676286078012e-09,-2.6676426432087e-09,-0.0015875811787963,0.0015875811787803,-0.0016964983308173,0.0016965000908173,-0.0016965005164169,0.0016964987564121,-0.0016964983308262,0.0016965000908119,-0.001696500516422,0.0016964987564019,-0.0013435442633328,0.0013435494722507,-0.0013435511842491,0.0013435459753303,-0.0016140663638591,0.001614064541754,-0.0016140663638778,0.0016140645417466,1.0496944560127e-09,1.0496944092916e-09,-0.0006932923944578,0.00069329428837761,-1.5980610144065e-09,3.8066178380851e-09,-0.00076803154656783,0.00076803338002074,-0.00076802974669291,0.00076803517988052,-0.00076803154656689,0.00076803338002603,-0.00076802974669886,0.00076803517988057,-0.00088001714737734,0.00088002082988447,-0.00088001714738073,0.00088002082988667,0.75808686568769,120135,2834,0.0065923899357265,0.0065923899360526,0.0028880969786414,33.570811306714,0.00018376649045371,0.00018376649045371,0.00018376649045371,1868252.4543333,0.016203069083544
35419200,0.99999499004665,0.016195103191687,0.0061508883739961,0.0061508883743236,0.0038933264433676,-0.0015924657751246,0.001592465775131,4.1219329013087e-15,4.2619874462679e-15,-5.4110111679113e-15,1.0315037823851e-14,-0.0017010569907745,0.0017010569907786,-0.0017010574610898,0.0017010574610899,-0.0017010569616662,0.0017010569616743,-0.0017010574902116,0.0017010574902194,-0.0013489660988206,0.0013489660988402,-0.0013489681385942,0.0013489681386082,-1.6535494851983e-14,-3.3415362111014e-14,2.5432605715259e-09,-2.5432745433592e-09,-0.0015924657752147,0.0015924657751987,-0.0017010561424903,0.0017010578178815,-0.0017010583094304,0.0017010566340343,-0.0017010561424992,0.001701057817876,-0.0017010583094354,0.0017010566340241,-0.0013489637673947,0.0013489687331801,-0.001348970470067,0.0013489655042807,-0.0016190135493722,0.0016190118107843,-0.0016190135493909,0.0016190118107768,7.3910821565445e-10,7.3910817054685e-10,-0.0006978886041144,0.00069788971508609,-1.7796660052928e-09,3.371892426898e-09,-0.00077352890274036,0.00077353014351572,-0.00077352718759039,0.00077353185865071,-0.0007735289027395,0.00077353014352111,-0.00077352718759639,0.00077353185865077,-0.00088406922414776,0.00088407216048489,-0.00088406922415108,0.00088407216048717,0.67379056419234,120135,2834,0.0066126014462874,0.0066126014466139,0.0029071949012212,35.926499384867,0.00020261199507894,0.00020261199507894,0.00020261199507894,1830993.3620949,0.016263558848066
35919200,0.99999629781301,0.016195126398201,0.0061508967290754,0.0061508967294029,0.0038933329397222,-0.0015944509986989,0.0015944509987055,4.2724577146437e-15,4.4102182120374e-15,-5.3049555843072e-15,1.0380065249073e-14,-0.0017038324254668,0.0017038324254712,-0.0017038327088425,0.0017038327088429,-0.001703832394307,0.0017038323943153,-0.0017038327400158,0.0017038327400238,-0.0013497903430382,0.0013497903430581,-0.0013497923152922,0.0013497923153063,-1.6502142929685e-14,-3.335037615971e-14,2.4459055987065e-09,-2.445919569757e-09,-0.0015944509987889,0.0015944509987729,-0.0017038315945592,0.0017038332162912,-0.0017038335398064,0.0017038319180697,-0.0017038315945682,0.0017038332162857,-0.0017038335398115,0.0017038319180595,-0.0013497880959303,0.0013497928666884,-0.0013497945624478,0.0013497897916889,-0.0016208827418956,0.0016208810644228,-0.0016208827419142,0.0016208810644154,1.5014545958088e-09,1.5014545517117e-09,-0.00070226851480975,0.00070227157776989,-9.4612110604671e-10,4.0300261600113e-09,-0.00077511557259313,0.00077511855375773,-0.00077511391250728,0.00077512021382863,-0.0007751155725922,0.000775118553763,-0.00077511391251331,0.00077512021382873,-0.0008894483247205,0.00088945282513127,-0.00088944832472386,0.00088945282513343,0.72183945217265,120135,2834,0.0066208434450399,0.0066208434453655,0.0029253624723062,37.534304883706,0.00021547443906965,0.00021547443906965,0.00021547443906965,1881932.4146458,0.016298766724491
36419200,0.99999726238021,0.016195143094023,0.0061509027539652,0.0061509027542927,0.0038933375857652,-0.0015951017962368,0.0015951017962433,4.2288708108995e-15,4.36751363428e-15,-5.3420426866158e-15,1.0344860442203e-14,-0.0017042484853885,0.0017042484853929,-0.0017042487678,0.0017042487678003,-0.0017042484542203,0.0017042484542286,-0.0017042487989818,0.0017042487989897,-0.0013506667275593,0.0013506667275791,-0.0013506686911609,0.001350668691175,-1.6577846499345e-14,-3.3424553810913e-14,2.4404064384581e-09,-2.440420649453e-09,-0.001595101796327,0.0015951017963109,-0.001704247656109,0.0017042492743192,-0.0017042495971361,0.0017042479789209,-0.001704247656118,0.0017042492743138,-0.0017042495971413,0.0017042479789107,-0.0013506644855995,0.0013506692455862,-0.0013506709331688,0.0013506661731809,-0.0016217243357275,0.0016217226619302,-0.0016217243357461,0.0016217226619229,2.9933774776831e-09,2.9933774336388e-09,-0.00070158197150265,0.00070158892236688,4.93474010693e-10,5.5354064826169e-09,-0.00077562165178971,0.00077562804804141,-0.00077561996787674,0.00077562973193933,-0.00077562165178879,0.00077562804804672,-0.00077561996788273,0.0007756297319394,-0.00088854994978957,0.00088855786813664,-0.00088854994979293,0.00088855786813881,0.70447270805609,120135,2834,0.006623526314936,0.0066235263152623,0.0029225365921392,37.488426462159,0.00021510741169727,0.00021510741169727,0.00021510741169727,1836236.5513256,0.016301353030139
36919200,0.99999795728241,0.016195154148872,0.0061509067440773,0.0061509067444048,0.00389334066039,-0.0015938538995637,0.0015938538995702,4.2118125084896e-15,4.3519846969137e-15,-5.3467190143454e-15,1.0355507175776e-14,-0.001702786199594,0.0017027861995983,-0.0017027858926523,0.0017027858926526,-0.0017027861634355,0.0017027861634438,-0.0017027859288243,0.0017027859288322,-0.0013498488778359,0.0013498488778557,-0.0013498506553774,0.0013498506553915,-1.655802357551e-14,-3.3420823571009e-14,2.7818455178056e-09,-2.7818595437016e-09,-0.0015938538996539,0.0015938538996378,-0.0017027852192065,0.0017027870924397,-0.0017027868730963,0.0017027849998582,-0.0017027852192155,0.0017027870924342,-0.0017027868731014,0.0017027849998479,-0.0013498462717599,0.001349851690668,-0.0013498532615008,0.0013498478425919,-0.0016203814103828,0.0016203794999804,-0.0016203814104014,0.001620379499973,3.9425969252943e-09,3.9425968794011e-09,-0.00070005293862089,0.00070006220047722,1.0898259218897e-09,6.7918916150351e-09,-0.00077448924491943,0.00077449738728152,-0.00077448733371393,0.00077449929847195,-0.00077448924491855,0.00077449738728685,-0.00077448733371995,0.00077449929847203,-0.00088664563401032,0.00088665553522178,-0.00088664563401363,0.00088665553522391,0.64727478642577,120135,2834,0.0066183578085709,0.0066183578088971,0.0029161885412184,36.862413180181,0.00021009930544145,0.00021009930544145,0.00021009930544145,1845344.7896957,0.016284395685407
37419200,0.99999849356356,0.016195162777146,0.0061509098554306,0.0061509098557581,0.0038933430659576,-0.0015947493643576,0.0015947493643642,4.2135183387306e-15,4.3516905882514e-15,-5.342983834335e-15,1.0355624819241e-14,-0.0017041389690082,0.0017041389690125,-0.0017041390376466,0.0017041390376468,-0.0017041389366309,0.0017041389366392,-0.0017041390700373,0.0017041390700452,-0.0013500558527719,0.0013500558527917,-0.0013500577590164,0.0013500577590304,-1.6524259901085e-14,-3.3386188484786e-14,2.8184270295574e-09,-2.8184410718834e-09,-0.0015947493644476,0.0015947493644316,-0.0017041380048162,0.0017041398815198,-0.0017041400018947,0.0017041381251863,-0.0017041380048252,0.0017041398815143,-0.0017041400018998,0.001704138125176,-0.0013500532329912,0.0013500587314471,-0.0013500603788447,0.001350054880388,-0.0016212377455091,0.00162123581747,-0.0016212377455277,0.0016212358174626,2.4223279472268e-09,2.4223279036335e-09,-0.00070251176212944,0.00070251714777206,-4.163756670533e-10,5.3209533123229e-09,-0.00077523334914602,0.00077523811723682,-0.00077523143319129,0.00077524003317666,-0.00077523334914511,0.00077523811724216,-0.00077523143319727,0.00077524003317674,-0.0008896854465371,0.00088969214286338,-0.00088968544654041,0.00088969214286548,0.654624582255,120135,2834,0.0066220797892964,0.0066220797896222,0.0029263743160291,37.672998423525,0.0002165839873882,0.0002165839873882,0.0002165839873882,1880096.9632096,0.016302308093434
37919200,0.99999888911021,0.016195168711777,0.0061509120002442,0.0061509120005717,0.0038933447109611,-0.0015950475406556,0.0015950475406621,4.2195769771727e-15,4.3576904049611e-15,-5.344042625519e-15,1.0355448354043e-14,-0.0017043268312412,0.0017043268312455,-0.0017043269000488,0.0017043269000491,-0.0017043267988753,0.0017043267988836,-0.0017043269324282,0.0017043269324361,-0.0013504612304003,0.0013504612304201,-0.0013504631323289,0.001350463132343,-1.6559552940554e-14,-3.3421025655828e-14,2.8198281224179e-09,-2.8198422736806e-09,-0.0015950475407457,0.0015950475407296,-0.0017043258666285,0.0017043277442211,-0.001704327864718,0.0017043259871205,-0.0017043258666374,0.0017043277442156,-0.0017043278647231,0.0017043259871102,-0.0013504586092677,0.0013504641104762,-0.0013504657535093,0.0013504602522998,-0.0016216285358557,0.0016216266069038,-0.0016216285358744,0.0016216266068964,3.1322063473828e-09,3.1322063039827e-09,-0.00070248065676554,0.00070248789767787,2.6505523675916e-10,6.041297335528e-09,-0.00077562822321361,0.00077563461231186,-0.0007756262934289,0.0007756365420816,-0.00077562822321271,0.00077563461231721,-0.00077562629343489,0.00077563654208167,-0.00088953695899131,0.00088954528622054,-0.00088953695899464,0.00088954528622268,0.61069305856334,120135,2834,0.0066233106626894,0.0066233106630156,0.0029262536815681,37.676453602702,0.00021661162882161,0.00021661162882161,0.00021661162882161,1866730.1275424,0.016304689506648
38419200,0.9999991750806,0.016195173612069,0.0061509137649961,0.0061509137653236,0.003893346081749,-0.0015937216484759,0.0015937216484824,4.2453997177175e-15,4.3819837804622e-15,-5.3308077357182e-15,1.0377918255839e-14,-0.0017031389376493,0.0017031389376537,-0.0017031386681081,0.0017031386681084,-0.0017031389024145,0.0017031389024228,-0.0017031387033564,0.0017031387033643,-0.00134902520421,0.0013490252042299,-0.0013490270033992,0.0013490270034134,-1.6535083099856e-14,-3.3408275241116e-14,3.0567099450865e-09,-3.0567239854819e-09,-0.001593721648566,0.0015937216485499,-0.0017031378729342,0.0017031399239058,-0.0017031397328796,0.0017031376819031,-0.0017031378729431,0.0017031399239003,-0.0017031397328847,0.0017031376818929,-0.0013490223346837,0.0013490282945248,-0.0013490298729732,0.0013490239131313,-0.0016202224559535,0.0016202203640965,-0.0016202224559721,0.0016202203640891,3.8170955133088e-09,3.8170954705594e-09,-0.00070200153711195,0.00070201046216568,7.013673050338e-10,6.9459578527849e-09,-0.00077439379908339,0.00077440149570893,-0.00077439170892341,0.00077440358585394,-0.00077439379908247,0.00077440149571427,-0.0007743917089294,0.00077440358585401,-0.0008891620387594,0.00088917184785275,-0.00088916203876273,0.00088917184785494,0.69725492786573,120135,2834,0.0066178294252203,0.0066178294255462,0.002924253639997,37.198573733193,0.00021278858986554,0.00021278858986554,0.00021278858986554,1897251.8932014,0.016291513129327
38880000,0.99999937477607,0.016195177165066,0.006150915045923,0.0061509150462505,0.0038933470728924,-0.001594928152506,0.0015949281524991,-4.6897979063638e-15,-4.5683898505906e-15,-1.0380271125137e-14,3.8761462922738e-15,-0.0017037800785691,0.0017037800785699,-0.0017037798951614,0.0017037798951637,-0.0017037800441673,0.0017037800441608,-0.0017037799295929,0.0017037799295535,-0.0013508436719286,0.001350843671923,-0.0013508455327737,0.0013508455327929,-3.6197717713983e-15,-2.0744231971887e-14,3.0804409721865e-09,-3.0804244527247e-09,-0.0015949281525764,0.0015949281525904,-0.0017037790118827,0.0017037810741578,-0.0017037809618613,0.0017037788996294,-0.0017037790118832,0.0017037810741376,-0.0017037809618473,0.0017037788995972,-0.0013508407823312,0.001350846789239,-0.0013508484223104,0.0013508424155125,-0.0016216741679287,0.0016216720611719,-0.001621674167963,0.0016216720611435,3.3265254801019e-09,3.3265251829685e-09,-0.00070080283239172,0.00070081048928377,2.0262715454128e-10,6.479906771105e-09,-0.00077563369222768,0.00077564023392423,-0.00077563159227357,0.00077564233388416,-0.00077563369222282,0.00077564023393445,-0.00077563159228957,0.00077564233388803,-0.0008873908235544,0.00088739953726792,-0.00088739082350064,0.00088739953721051,0.72416034322606,120135,2834,0.0066228002164703,0.0066228002168048,0.0029193096418156,37.193693957259,0.00021274955165807,0.00021274955165807,0.00021274955165807,1824940.4343211,0.016296600470393
