time,ASR_ext,ASR_strain,ASR_strain_xx,ASR_strain_yy,ASR_strain_zz,disp_x_101,disp_x_102,disp_x_103,disp_x_104,disp_x_105,disp_x_106,disp_x_p1_neg,disp_x_p1_pos,disp_x_p2_neg,disp_x_p2_pos,disp_x_p3_neg,disp_x_p3_pos,disp_x_p4_neg,disp_x_p4_pos,disp_x_p5_neg,disp_x_p5_pos,disp_x_p6_neg,disp_x_p6_pos,disp_y_101,disp_y_102,disp_y_103,disp_y_104,disp_y_105,disp_y_106,disp_y_p1_neg,disp_y_p1_pos,disp_y_p2_neg,disp_y_p2_pos,disp_y_p3_neg,disp_y_p3_pos,disp_y_p4_neg,disp_y_p4_pos,disp_y_p5_neg,disp_y_p5_pos,disp_y_p6_neg,disp_y_p6_pos,disp_y_p7_neg,disp_y_p7_pos,disp_y_p8_neg,disp_y_p8_pos,disp_z_101,disp_z_102,disp_z_103,disp_z_104,disp_z_105,disp_z_106,disp_z_p1_neg,disp_z_p1_pos,disp_z_p2_neg,disp_z_p2_pos,disp_z_p3_neg,disp_z_p3_pos,disp_z_p4_neg,disp_z_p4_pos,disp_z_p5_neg,disp_z_p5_pos,disp_z_p6_neg,disp_z_p6_pos,humidity,ndof,nelem,strain_xx,strain_yy,strain_zz,temp,thermal_strain_xx,thermal_strain_yy,thermal_strain_zz,vonmises,vstrain
2419200,0,0,0,0,0,0,0,0,0,0,0,0,0,0,0,0,0,0,0,0,0,0,0,0,0,0,0,0,0,0,0,0,0,0,0,0,0,0,0,0,0,0,0,0,0,0,0,0,0,0,0,0,0,0,0,0,0,0,0,0,0,0,0,0,0,0,0,0,0,0,0,0,0,0,0
2919200,0.076591003506949,0.0015995539757295,0.00053318465857651,0.00053318465857651,0.00053318465857651,-0.00016370184829595,0.0001636849222773,-6.3756473008734e-09,-6.3756472619702e-09,-6.1942209427616e-09,-6.3488852598876e-09,-0.00016496445116873,0.00016495030923792,-0.00016496576068528,0.00016495161874705,-0.00016496566753501,0.00016495152154212,-0.00016496695310866,0.00016495280713727,-0.00016671523156733,0.00016670142039579,-0.0001667164363201,0.00016670262513904,-6.1942268794304e-09,-6.3488936852525e-09,-6.6673560954033e-09,-6.0839455046278e-09,-0.00016370184830592,0.0001636849222761,-0.00016496463246706,0.00016495023214866,-0.00016496557939414,0.00016495169584543,-0.00016496583686883,0.00016495143249828,-0.00016496678377876,0.00016495289619063,-0.00016671556988818,0.00016670120373263,-0.00016671609800144,0.00016670284181416,-0.00016671505623774,0.00016670172299598,-0.00016671622914668,0.00016670270720365,-6.4346582678495e-09,-6.4346582418062e-09,-0.00016370190735301,0.00016368486323122,-5.9701857795034e-09,-6.6998108458997e-09,-0.00016496432612879,0.00016495032598972,-0.00016496590783422,0.0001649513892148,-0.00016496564858876,0.00016495164845208,-0.00016496718082351,0.00016495266218767,-0.00016671661239574,0.00016670247315422,-0.00016671543660783,0.00016670129736666,0.83502648770561,125301,3014,0.0006818225000847,0.00068182250010295,0.00068182250010756,32.433347234693,0.00017466677787754,0.00017466677787754,0.00017466677787754,1190364.7044521,0.0020475634085321
3419200,0.15540880198067,0.0030956078431227,0.0010318692810215,0.0010318692810408,0.0010318692810604,-0.00027522098511996,0.00027520209816359,-7.8828494141555e-09,-7.8828480614469e-09,-7.5901651249523e-09,-7.8417345145772e-09,-0.00028499485171255,0.00028497835423175,-0.00028499697054278,0.00028498047305813,-0.00028499688735674,0.00028498031501906,-0.00028499896892029,0.0002849823966009,-0.00028055640198676,0.00028053956441173,-0.00028055895812219,0.00028054212056636,-7.5901719570564e-09,-7.8417382681013e-09,-8.3518216886222e-09,-7.4138723045131e-09,-0.00027522098512514,0.00027520209816526,-0.00028499511009659,0.0002849782304281,-0.00028499671215891,0.00028498059687894,-0.00028499712706344,0.00028498017253856,-0.00028499872920833,0.00028498253909661,-0.00028055694953587,0.00028053921563132,-0.00028055841055097,0.0002805424693667,-0.0002805561030719,0.00028054007448398,-0.00028055862287427,0.00028054224883203,-7.9664209597345e-09,-7.9664196030113e-09,-0.000275221068839,0.00027520201446235,-7.2223816754328e-09,-8.39524527063e-09,-0.00028499467156591,0.00028497839151154,-0.00028499722795483,0.0002849801155519,-0.00028499681177879,0.00028498053172309,-0.000284999289933,0.00028498217751296,-0.00028055922456265,0.00028054188495598,-0.0002805567246798,0.00028053938503363,0.77960726241633,125301,3014,0.0011460577674358,0.0011460577674501,0.0011460577674729,31.910845921381,0.00017048676737105,0.00017048676737105,0.00017048676737105,1883771.5909107,0.0034440999808726
3919200,0.24170969229975,0.0046204620727005,0.0015401540242194,0.0015401540242284,0.0015401540242528,-0.00039065222134193,0.00039064212226232,-4.1176572901169e-09,-4.1176525632465e-09,-3.9206605573862e-09,-4.1022857903527e-09,-0.00041482117481473,0.00041481287469683,-0.00041482217179602,0.00041481387166553,-0.00041482217309753,0.00041481377438892,-0.00041482314968044,0.00041481475098395,-0.0003976867452537,0.00039767745696989,-0.00039768808474934,0.00039767879646711,-3.920661500885e-09,-4.1022797074751e-09,-4.090534173366e-09,-4.1447564855773e-09,-0.00039065222133739,0.00039064212227049,-0.00041482121152232,0.00041481289847658,-0.00041482213506902,0.00041481384791462,-0.00041482219958092,0.00041481378794475,-0.00041482312317117,0.00041481473745945,-0.00039768676477261,0.00039767753831891,-0.00039768806519121,0.00039767871515224,-0.00039768662617231,0.00039767767768192,-0.00039768800455251,0.00039767877469482,-4.1045691873318e-09,-4.1045644390503e-09,-0.0003906522077975,0.00039064213582396,-3.9413913541996e-09,-4.0611044009085e-09,-0.00041482112564721,0.00041481286405453,-0.00041482219129202,0.00041481381463486,-0.00041482213376059,0.00041481387216416,-0.00041482315817256,0.0004148147814873,-0.00039768807792511,0.0003976788225865,-0.00039768677529769,0.00039767751993904,0.74640349119053,125301,3014,0.0016263783727252,0.0016263783727327,0.001626378372761,32.497067518689,0.00017517654014951,0.00017517654014951,0.00017517654014951,2694280.5373307,0.0048910812673691
4419200,0.33621570572896,0.0062463015656149,0.0020821005218578,0.002082100521864,0.0020821005218931,-0.00051392282436978,0.00051391687419812,-2.4059589053423e-09,-2.4059568951978e-09,-2.3428212141039e-09,-2.4185611856012e-09,-0.000557246724199,0.00055724263959383,-0.00055724708387258,0.00055724299925732,-0.00055724711055013,0.00055724299055107,-0.00055724747001807,0.00055724335002855,-0.00052407251131686,0.00052406688607086,-0.00052407364866062,0.00052406802343499,-2.342818816878e-09,-2.4185431380524e-09,-1.9645414197515e-09,-2.8473394529437e-09,-0.00051392282435617,0.00051391687421472,-0.00055724658488125,0.0005572427784503,-0.00055724722315774,0.00055724286044311,-0.00055724697110741,0.00055724312928865,-0.00055724760940924,0.00055724321133886,-0.00052407206747245,0.0005240673120473,-0.00052407409245463,0.000524067597511,-0.00052407259199331,0.00052406676816334,-0.00052407381738836,0.00052406788546864,-2.2851901800969e-09,-2.2851881639673e-09,-0.00051392270212359,0.00051391699646169,-2.648544800995e-09,-1.852157431928e-09,-0.00055724675052772,0.0005572426281466,-0.00055724684558973,0.00055724324363245,-0.00055724710580268,0.00055724298342158,-0.00055724720651513,0.00055724360452575,-0.00052407338766791,0.00052406829390479,-0.00052407225318298,0.00052406715937326,0.74424082049435,125301,3014,0.002139061511405,0.0021390615114112,0.0021390615114412,33.599428540018,0.00018399542832015,0.00018399542832015,0.00018399542832015,3445590.3863734,0.0064378769034024
4919200,0.43900753154374,0.0079832708610086,0.0026610902869903,0.0026610902869975,0.0026610902870208,-0.00064493936786528,0.00064493526210568,-1.6752124509978e-09,-1.675204998196e-09,-1.7003851327543e-09,-1.7035704409306e-09,-0.00071452619509603,0.00071452390109941,-0.00071452617419443,0.00071452388018431,-0.00071452620270435,0.00071452392659024,-0.00071452619122394,0.00071452391511015,-0.00065980086134013,0.00065979678602392,-0.00065980180758616,0.00065979773228428,-1.7003809981926e-09,-1.7035433219117e-09,-9.4299531743631e-10,-2.4073752025387e-09,-0.0006449393678451,0.00064493526212766,-0.00071452594047453,0.00071452412634101,-0.0007145264287711,0.00071452365499013,-0.00071452595277999,0.00071452415654069,-0.0007145264410783,0.0007145236852201,-0.00065980009971004,0.00065979745957563,-0.00065980256915671,0.00065979705879701,-0.00065980108544358,0.00065979643573437,-0.00065980214341782,0.00065979751155812,-1.4945736673298e-09,-1.4945661683236e-09,-0.00064493918554998,0.00064493544443583,-2.2159570939436e-09,-7.8347741333224e-10,-0.00071452628458302,0.00071452386812181,-0.00071452576583948,0.00071452431558407,-0.00071452624894667,0.00071452383248079,-0.0007145257605117,0.00071452431021579,-0.00065980138653214,0.00065979815832857,-0.00065980042358697,0.00065979719534515,0.74696695512676,125301,3014,0.0026836809684004,0.0026836809684042,0.0026836809684313,35.344799608529,0.00019795839686823,0.00019795839686823,0.00019795839686823,4079497.9151223,0.0080836708831881
5419200,0.53946219971006,0.009612553862799,0.0032041846209229,0.0032041846209252,0.0032041846209509,-0.00076350935162359,0.00076350714682592,-9.5726586580254e-10,-9.5726096436404e-10,-1.0453809600645e-09,-9.9587531167812e-10,-0.00086411341217572,0.00086411293084541,-0.00086411315305859,0.00086411267172398,-0.00086411319137467,0.00086411275280194,-0.00086411294737763,0.00086411250881508,-0.00078266474090461,0.00078266221299813,-0.00078266573056313,0.00078266320268323,-1.0453744410997e-09,-9.9584178702764e-10,4.7425355259642e-11,-1.961897546039e-09,-0.00076350935159718,0.00076350714685123,-0.00086411305027701,0.00086411324283533,-0.00086411351489546,0.00086411235978489,-0.00086411283702919,0.00086411307235932,-0.00086411330163691,0.00086411218932539,-0.00078266369888777,0.00078266313157111,-0.00078266677251465,0.00078266228418644,-0.00078266509650506,0.00078266168008532,-0.00078266620069361,0.0007826628955623,-7.2730979827314e-10,-7.2730495359762e-10,-0.00076350912013091,0.00076350737833234,-1.7642415942921e-09,2.4881796435551e-10,-0.00086411356846273,0.00086411286437109,-0.00086411260086776,0.00086411326784364,-0.00086411328640252,0.0008641125823116,-0.00086411236552671,0.00086411303246988,-0.00078266516918537,0.00078266376948138,-0.00078266415000631,0.00078266275025329,0.73229095938568,125301,3014,0.0031763269632587,0.0031763269632564,0.0031763269632873,36.273583710241,0.00020538866968193,0.00020538866968193,0.00020538866968193,4546785.4172818,0.0095747709831228
5919200,0.63075861524443,0.010871803370124,0.0036239344566998,0.0036239344566973,0.003623934456727,-0.0008504225124449,0.0008504221632695,-2.2478615890773e-10,-2.2478123005831e-10,-3.6474703968419e-10,-2.6974229214637e-10,-0.00098299515600144,0.00098299640139518,-0.00098299467105464,0.00098299591643365,-0.00098299471847404,0.0009829960230886,-0.00098299425202181,0.00098299555663693,-0.0008696024148226,0.00086960144603158,-0.00086960334636852,0.00086960237759965,-3.6474174503947e-10,-2.6970178589667e-10,1.0799855997212e-09,-1.5294922103107e-09,-0.00085042251241518,0.00085042216329724,-0.00098299468103794,0.00098299681209463,-0.00098299514595021,0.00098299550578531,-0.00098299425275178,0.0009829964430509,-0.00098299471764856,0.00098299513675118,-0.00086960107244855,0.00086960264588726,-0.00086960468866276,0.00086960117782427,-0.0008696029098679,0.00086960074053771,-0.00086960394573583,0.00086960197165075,5.369329594196e-11,5.3698153381804e-11,-0.00085042223295802,0.00085042244277164,-1.3161859388495e-09,1.3258204991379e-09,-0.00098299538588062,0.00098299628711603,-0.00098299396971319,0.00098299667523639,-0.00098299487186175,0.00098299577309065,-0.00098299351340843,0.00098299621889182,-0.00086960263742965,0.00086960309269573,-0.00086960166675849,0.00086960212197717,0.6360792580923,125301,3014,0.0035373214288789,0.0035373214288748,0.0035373214289107,36.77943620256,0.00020943548962048,0.00020943548962048,0.00020943548962048,4805185.7884499,0.010668824407595
6419200,0.70826216156137,0.011859311988533,0.0039531039961692,0.0039531039961657,0.0039531039961983,-0.00091522608117244,0.00091522732296857,3.7522535309362e-10,3.7523009709575e-10,1.8983447346656e-10,3.2516761441141e-10,-0.0010737783685721,0.001073781148463,-0.00107377768439,0.0010737804642647,-0.001073777736977,0.0010737805928453,-0.0010737770734669,0.0010737799293341,-0.00093409165822112,0.0009340919828486,-0.00093409260751631,0.00093409293216712,1.8983887742867e-10,3.2521036062208e-10,2.0141716458938e-09,-1.263653760247e-09,-0.00091522608114154,0.00091522732299687,-0.001073777773315,0.00107378166991,-0.0010737782795794,0.0010737799428698,-0.0010737771520484,0.0010737811246451,-0.0010737776582976,0.0010737793976113,-0.00093408998372164,0.00093409350145526,-0.0009340942819342,0.0009340914136457,-0.00093409229996761,0.00093409110180872,-0.00093409334286502,0.00093409241580612,7.1498954403081e-10,7.1499419430051e-10,-0.00091522574098473,0.00091522766317104,-1.0145209415375e-09,2.3185783222885e-09,-0.0010737786667579,0.0010737809869459,-0.0010737768102593,0.0010737814061813,-0.0010737779481311,0.001073780268311,-0.0010737761579715,0.0010737807538502,-0.00093409172732246,0.00093409381887259,-0.00093409073059402,0.00093409282209711,0.59525943091212,125301,3014,0.00380641240336,0.0038064124033546,0.0038064124033908,36.741496750107,0.00020913197400086,0.00020913197400086,0.00020913197400086,5026223.2728614,0.011485137922062
6919200,0.77824167447545,0.012821729828081,0.0042739099426853,0.004273909942681,0.0042739099427144,-0.00097929322983219,0.00097929259695387,-3.5441981777667e-10,-3.5441516091894e-10,-5.337480223643e-10,-4.0063529323445e-10,-0.0011629869028435,0.0011629881534423,-0.0011629863165159,0.0011629875670968,-0.0011629863466112,0.0011629876891518,-0.0011629857770575,0.0011629871195953,-0.0010013099971932,0.0010013087994528,-0.0010013110582376,0.0010013098605214,-5.3374317911913e-10,-4.0059024312173e-10,1.3921125720369e-09,-2.1008829154346e-09,-0.00097929322979962,0.00097929259698298,-0.0011629862847708,0.0011629887149987,-0.0011629869345164,0.0011629870055918,-0.00116298573692,0.0011629882591147,-0.0011629863866471,0.0011629865497113,-0.0010013082272351,0.0010013104356322,-0.0010013128281141,0.0010013082244291,-0.0010013106852717,0.0010013078860631,-0.001001311817569,0.0010013093055236,-1.2712124594496e-12,-1.2667491840349e-12,-0.00097929287672175,0.00097929295007954,-1.8203615831738e-09,1.7152658645111e-09,-0.0011629872145573,0.0011629879662413,-0.0011629853881049,0.0011629885497324,-0.001162986593082,0.0011629873447569,-0.0011629848271772,0.0011629879887614,-0.0010013101338349,0.0010013107956071,-0.001001309026632,0.001001309688357,0.64378173705164,125301,3014,0.0040723735647212,0.0040723735647141,0.004072373564753,38.625674168419,0.00022420539334735,0.00022420539334735,0.00022420539334735,5144975.4487945,0.012292664874368
7419200,0.83866452841849,0.013534892712542,0.0045116309041726,0.0045116309041673,0.004511630904202,-0.0010199020050146,0.0010199007684612,-6.1522038935117e-10,-6.1521585713669e-10,-7.8789915283936e-10,-6.5804904933266e-10,-0.0012307023977369,0.0012307030950604,-0.0012307018905319,0.0012307025878369,-0.0012307019101173,0.001230702702372,-0.0012307014168606,0.0012307022091134,-0.0010430071085198,0.0010430053842185,-0.0010430082497319,0.0010430065254549,-7.8789527383017e-10,-6.580012606786e-10,1.151823076137e-09,-2.3821927498326e-09,-0.0010199020049808,0.0010199007684911,-0.0012307017788572,0.0012307036669743,-0.0012307025093362,0.001230702015974,-0.0012307012982062,0.0012307032812832,-0.001230702028665,0.0012307016302828,-0.0010430053259905,0.0010430070486884,-0.0010430100321753,0.0010430048610745,-0.0010430078088654,0.0010430044736133,-0.0010430090050683,0.001043005960617,-2.7405609771551e-10,-2.7405176581844e-10,-0.0010199016645442,0.0010199011089469,-2.102202712209e-09,1.4664637627151e-09,-0.0012307027236173,0.0012307028845086,-0.0012307009663592,0.0012307035586644,-0.0012307021820721,0.0012307023429533,-0.001230700479647,0.0012307030719088,-0.0010430073336888,0.0010430074555137,-0.0010430061482389,0.0010430062700157,0.55664260548471,125301,3014,0.0042409672215139,0.0042409672215056,0.0042409672215458,40.764598161834,0.00024131678529467,0.00024131678529467,0.00024131678529467,5002655.5621122,0.012804967167723
7919200,0.88411576830491,0.01402530977292,0.0046751032576319,0.0046751032576261,0.0046751032576616,-0.001042561188074,0.0010425631054263,5.7447261931464e-10,5.7447681174539e-10,3.6053887015265e-10,5.2543261283553e-10,-0.001270522750568,0.0012705261831759,-0.0012705220154253,0.0012705254480153,-0.0012705220519455,0.0012705255808023,-0.0012705213337223,0.0012705248625748,-0.0010661060382789,0.0010661068681556,-0.0010661071639327,0.0010661079938342,3.6054261137573e-10,5.2548257760877e-10,2.5665575239115e-09,-1.4175395659506e-09,-0.0010425611880394,0.0010425631054572,-0.0012705220414758,0.0012705268290099,-0.0012705227244423,0.0012705248022332,-0.0012705213513071,0.0012705262351195,-0.0012705220342526,0.0012705242083415,-0.0010661040278138,0.0010661087400088,-0.00106610917431,0.0010661061220737,-0.0010661068376053,0.0010661058304635,-0.0010661080203855,0.0010661073545051,9.4716312928715e-10,9.4716714707617e-10,-0.0010425608167593,0.0010425634767566,-1.1359239455973e-09,2.9074636636279e-09,-0.001270523140356,0.0012705259300835,-0.0012705209890779,0.0012705265363257,-0.0012705223678439,0.0012705251575615,-0.0012705202789407,0.0012705258261449,-0.0010661061402886,0.0010661090305712,-0.0010661049639959,0.0010661078542316,0.5070717593097,125301,3014,0.0043350429935485,0.0043350429935407,0.0043350429935808,40.956256879996,0.00024285005503997,0.00024285005503997,0.00024285005503997,4935846.1635298,0.013090949149583
8419200,0.91799264840258,0.014373770923735,0.0047912569745703,0.0047912569745642,0.0047912569746001,-0.0010560154504986,0.0010560172136054,5.1394621864875e-10,5.1395021985004e-10,2.9856562576037e-10,4.6598879995026e-10,-0.0012980873051814,0.0012980906427641,-0.0012980865784472,0.0012980899160114,-0.001298086610482,0.0012980900471248,-0.0012980858991441,0.0012980893357827,-0.0010803768314046,0.0010803775387768,-0.001080377990951,0.0010803786983481,2.9856851888189e-10,4.6604076461646e-10,2.6888738592383e-09,-1.6609086953638e-09,-0.0010560154504634,0.0010560172136365,-0.001298086539151,0.0012980913513123,-0.0012980873444011,0.0012980892075132,-0.0012980858521436,0.0012980907633966,-0.0012980866573728,0.0012980886195957,-0.001080374646019,0.0010803795944107,-0.0010803801762482,0.0010803766428075,-0.0010803776968497,0.0010803764381221,-0.0010803789054999,0.0010803779969946,9.0520105937605e-10,9.0520492914019e-10,-0.0010560150611295,0.0010560176029903,-1.3539357570744e-09,3.0503363467449e-09,-0.0012980877373219,0.0012980903453061,-0.0012980854740505,0.0012980910794719,-0.0012980869727744,0.0012980895807492,-0.0012980847699966,0.0012980903753739,-0.0010803768903032,0.0010803798141984,-0.0010803756795226,0.0010803786033706,0.48138031764921,125301,3014,0.0043909123233034,0.004390912323295,0.0043909123233364,41.432700734395,0.00024666160587516,0.00024666160587516,0.00024666160587516,4800969.5435849,0.013260873203417
8919200,0.94270820230601,0.014602032721805,0.0048673442405939,0.0048673442405877,0.0048673442406238,-0.0010616295447949,0.0010616315336426,5.9870366301406e-10,5.987075801591e-10,3.7972811912544e-10,5.5111428342518e-10,-0.0013152682197325,0.0013152717686101,-0.0013152674781034,0.0013152710269626,-0.0013152675085413,0.0013152711578731,-0.0013152667815475,0.0013152704308752,-0.0010866278440403,0.0010866287387003,-0.001086629020338,0.0010866299150224,3.7973045622977e-10,5.5116705936254e-10,2.9224520450235e-09,-1.7249710877544e-09,-0.0010616295447594,0.001061631533674,-0.0013152674055271,0.0013152725278473,-0.0013152682922329,0.0013152702677757,-0.0013152667016466,0.001315271924454,-0.0013152675883302,0.00131526966438,-0.001086625515171,0.0010866309422851,-0.0010866313491176,0.0010866277115333,-0.0010866287637978,0.0010866275845206,-0.0010866299841083,0.0010866291633112,1.0008738956366e-09,1.0008776446397e-09,-0.0010616291449188,0.0010616319335342,-1.4047733148748e-09,3.2957668876574e-09,-0.0013152686918539,0.001315271431016,-0.0013152663145097,0.0013152722487523,-0.0013152679120558,0.0013152706512079,-0.0013152655943783,0.001315271528577,-0.0010866278607046,0.0010866310912721,-0.0010866266323211,0.0010866298628409,0.43063171924148,125301,3014,0.0044142521642608,0.0044142521642521,0.0044142521642929,41.891712495513,0.00025033369996411,0.00025033369996411,0.00025033369996411,4631940.7414843,0.013331920411656
9419200,0.95963370606758,0.014750943650209,0.0049169812167286,0.0049169812167223,0.0049169812167585,-0.0010622859781541,0.0010622904225039,1.5402506034896e-09,1.5402543626394e-09,1.2879552673801e-09,1.4876668877389e-09,-0.0013228054789385,0.0013228112073686,-0.0013228045439342,0.0013228102723456,-0.0013228045875963,0.0013228104184721,-0.0013228036696169,0.0013228095004884,-0.001087896246916,0.0010878991544479,-0.0010878974185606,0.001087900326117,1.2879572624927e-09,1.4877200637523e-09,4.1584447589149e-09,-1.0778700695237e-09,-0.0010622859781185,0.0010622904225353,-0.0013228045559177,0.0013228120636112,-0.0013228054668788,0.001322809416153,-0.0013228036730814,0.0013228112832539,-0.0013228045840198,0.0013228086357925,-0.0010878936240595,0.0010879016368771,-0.0010879000413275,0.001087897843784,-0.001087897283226,0.0010878978599776,-0.0010878985014105,0.001087899477159,1.9777597870314e-09,1.977763359687e-09,-0.0010622855433643,0.0010622908573093,-7.4442596768004e-10,4.5633920724605e-09,-0.0013228060301175,0.0013228108086225,-0.0013228032505849,0.001322811635901,-0.0013228050539962,0.001322809832491,-0.0013228023409411,0.0013228107262129,-0.0010878961249018,0.001087901635788,-0.0010878948954276,0.0010879004062661,0.40723906797413,125301,3014,0.0044170089526715,0.0044170089526628,0.004417008952704,41.150649045173,0.00024440519236138,0.00024440519236138,0.00024440519236138,4530230.6382765,0.013340360273003
9919200,0.97102198662207,0.014851027994228,0.0049503426647349,0.0049503426647285,0.0049503426647648,-0.0010601056569717,0.001060111442385,2.0576677595742e-09,2.0576714537848e-09,1.7884661200142e-09,2.0026906641014e-09,-0.0013263976154867,0.0013264045347115,-0.0013263965770952,0.0013264034963011,-0.0013263966263971,0.0013264036491635,-0.0013263956054797,0.0013264026282417,-0.0010863535141006,0.0010863575278935,-0.0010863546902174,0.0010863587040347,1.7884678166417e-09,2.0027443897818e-09,5.0100734580525e-09,-8.946641782535e-10,-0.001060105656936,0.0010601114424165,-0.0013263965784892,0.0013264055024007,-0.0013263976140166,0.001326402528662,-0.0013263955981298,0.0013264046256168,-0.0013263966336346,0.0013264016518748,-0.0010863505631234,0.0010863603354636,-0.001086357641104,0.0010863558965612,-0.0010863546707553,0.001086356100989,-0.0010863558942413,0.0010863577440764,2.5287069427975e-09,2.5287104539255e-09,-0.0010601051888974,0.0010601119104749,-5.3341499611155e-10,5.4477729941128e-09,-0.0013263982528281,0.0013264040589473,-0.0013263951422888,0.0013264050061712,-0.0013263971711762,0.0013264029772852,-0.0013263941302243,0.0013264039940625,-0.0010863532525438,0.0010863601582947,-0.001086352015339,0.0010863589210422,0.40432824355073,125301,3014,0.0044079938587537,0.004407993858745,0.0044079938587862,39.827160992014,0.00023381728793611,0.00023381728793611,0.00023381728793611,4428632.776174,0.013313015529163
10419200,0.97867640776401,0.014922781283135,0.0049742604277039,0.0049742604276975,0.0049742604277338,-0.0010562839015535,0.0010562906355147,2.4225120511844e-09,2.422515730572e-09,2.1431217521457e-09,2.3660954226884e-09,-0.0013276026230604,0.0013276103675312,-0.0013276015147168,0.0013276092591689,-0.0013276015670911,0.0013276094153328,-0.0013276004760334,0.0013276083242708,-0.0010832529202895,0.0010832577175488,-0.0010832540990961,0.0010832588963801,2.1431233922285e-09,2.366149375678e-09,5.7023880315353e-09,-8.5729039242055e-10,-0.0010562839015178,0.0010562906355462,-0.0013276014770551,0.0013276114447597,-0.0013276026606459,0.0013276081819899,-0.0013276004297219,0.0013276105012318,-0.0013276016132899,0.0013276072384583,-0.0010832496493623,0.0010832608461817,-0.001083257369933,0.0010832557678436,-0.0010832541908499,0.001083256169468,-0.0010832554176529,0.0010832578274363,2.9216998235759e-09,2.9217033001756e-09,-0.0010562834054306,0.0010562911316532,-4.6790930605953e-10,6.1684250146441e-09,-0.0013276033463753,0.0013276098113796,-0.0013275999457412,0.0013276109054685,-0.0013276021931085,0.0013276086581024,-0.0013275988637269,0.0013276098234102,-0.0010832525253001,0.0010832604875314,-0.001083251283322,0.0010832592455056,0.42845224819223,125301,3014,0.0043921676283284,0.0043921676283196,0.0043921676283609,38.098728417693,0.00021998982734154,0.00021998982734154,0.00021998982734154,4332532.1816517,0.013264964942745
10919200,0.98429058590761,0.014971494112136,0.0049904980373708,0.0049904980373643,0.0049904980374007,-0.0010541549399689,0.0010541586804551,1.274173537873e-09,1.2741772295838e-09,1.0333751398341e-09,1.2246493676995e-09,-0.001330676613226,0.0013306817200945,-0.0013306757427028,0.0013306808495526,-0.0013306757757322,0.0013306809854822,-0.0013306749176418,0.0013306801273877,-0.0010817218552503,0.0010817242040846,-0.0010817230513257,0.0010817254001849,1.0333766096993e-09,1.2247033641511e-09,4.6201419938151e-09,-2.0717212082538e-09,-0.0010541549399332,0.0010541586804866,-0.0013306754645637,0.0013306828223295,-0.0013306768912891,0.0013306797473673,-0.0013306746332796,0.0013306820939612,-0.0013306760599818,0.0013306790189952,-0.0010817185314144,0.0010817274159596,-0.0010817263750714,0.0010817221884068,-0.0010817231284238,0.0010817226831378,-0.0010817243638995,0.0010817243078611,1.7661182244182e-09,1.7661217220172e-09,-0.0010541544509992,0.0010541591694403,-1.6502103895436e-09,5.0863115912458e-09,-0.0013306773467589,0.0013306811316099,-0.0013306741586214,0.0013306824936064,-0.0013306764336942,0.0013306802185348,-0.0013306733070803,0.0013306816420214,-0.0010817214668582,0.0010817270051549,-0.0010817202132871,0.0010817257515356,0.39597081456719,125301,3014,0.0043833599119794,0.0043833599119708,0.0043833599120119,37.946110840795,0.00021876888672636,0.00021876888672636,0.00021876888672636,4210968.3385819,0.013238251973197
11419200,0.98838170914209,0.015007054540787,0.005002351513588,0.0050023515135815,0.0050023515136179,-0.0010530753579345,0.0010530794428442,1.403271890007e-09,1.4032754715152e-09,1.1563227241345e-09,1.352983608206e-09,-0.0013309495210823,0.0013309549361396,-0.0013309486226976,0.0013309540377361,-0.0013309486577436,0.001330954176298,-0.0013309477719732,0.0013309532905234,-0.0010810368349969,0.0010810394648059,-0.0010810380297031,0.0010810406595369,1.1563241676862e-09,1.3530379239125e-09,4.8174711795274e-09,-2.0108537351651e-09,-0.0010530753578987,0.0010530794428758,-0.0013309483485816,0.0013309560610834,-0.0013309497951221,0.0013309529128418,-0.0013309474915432,0.0013309553075769,-0.0013309489380607,0.0013309521593313,-0.001081033443985,0.0010810427428184,-0.0010810414206243,0.0010810373816213,-0.0010810381346936,0.001081037913187,-0.0010810393682682,0.0010810395446514,1.9077484619764e-09,1.9077518662841e-09,-0.0010530748566373,0.0010530799441569,-1.5789482789639e-09,5.2958534994138e-09,-0.0013309502679824,0.001330954337464,-0.0013309470048992,0.0013309557174095,-0.0013309493264192,0.0013309533958906,-0.001330946125885,0.0013309548383514,-0.0010810364102925,0.0010810422994313,-0.0010810351568275,0.0010810410459183,0.39457194111806,125301,3014,0.0043788863760704,0.0043788863760616,0.0043788863761028,37.628307530729,0.00021622646024583,0.00021622646024583,0.00021622646024583,4182959.7913364,0.013224664195023
11919200,0.99134693184518,0.015034926529368,0.0050116421764482,0.0050116421764417,0.0050116421764782,-0.0010512624181755,0.0010512669569403,1.5763897620807e-09,1.5763933333246e-09,1.3248950274987e-09,1.5254564068539e-09,-0.001331548841067,0.0013315546490388,-0.0013315479091239,0.0013315537170769,-0.0013315479459584,0.0013315538572979,-0.0013315470268399,0.0013315529381751,-0.0010795497848006,0.0010795527869936,-0.0010795509815177,0.0010795539837354,1.3248964086961e-09,1.5255107255658e-09,5.0778616149695e-09,-1.925008446547e-09,-0.0010512624181397,0.0010512669569719,-0.0013315476383483,0.0013315558030465,-0.0013315491117665,0.0013315525631185,-0.0013315467496451,0.0013315550177459,-0.0013315482230402,0.0013315517778138,-0.0010795463079325,0.0010795561495607,-0.001079554458295,0.0010795506212653,-0.0010795511160508,0.0010795512010741,-0.001079552351775,0.0010795528397179,2.0842131566599e-09,2.0842165505562e-09,-0.001051261913555,0.0010512674615764,-1.4920661470799e-09,5.5592553914609e-09,-0.0013315496158012,0.0013315540247371,-0.001331546259556,0.0013315554299816,-0.0013315486403066,0.0013315530492321,-0.0013315453473445,0.0013315545177262,-0.0010795493297709,0.0010795556561354,-0.0010795480735505,0.0010795543998669,0.42516298576731,125301,3014,0.0043713793061243,0.0043713793061155,0.0043713793061567,37.104724030478,0.00021203779224382,0.00021203779224382,0.00021203779224382,4128146.2651045,0.013201876471932
12419200,0.99353012576384,0.015056542772625,0.0050188475908672,0.0050188475908607,0.0050188475908971,-0.0010486271383094,0.0010486313334257,1.4447725245735e-09,1.4447761264046e-09,1.2002159921371e-09,1.3919057028392e-09,-0.0013316395532514,0.0013316450502305,-0.0013316386219484,0.0013316441189088,-0.001331638660884,0.0013316442553169,-0.0013316377423056,0.0013316433367345,-0.00107752751333,0.0010775302150656,-0.0010775287119488,0.0010775314137095,1.2002172552192e-09,1.3919598913014e-09,4.9526652283418e-09,-2.0630467615139e-09,-0.0010486271382738,0.0010486313334571,-0.0013316383486403,0.0013316462065022,-0.0013316398264838,0.0013316429626861,-0.0013316374626284,0.001331645417979,-0.0013316389404487,0.0013316421741588,-0.0010775240304634,0.001077533584218,-0.0010775321947252,0.0010775280446538,-0.0010775288404005,0.0010775286345933,-0.0010775300845422,0.0010775302664952,1.9419614614398e-09,1.9419648819529e-09,-0.0010486266441913,0.0010486318275593,-1.6346677803008e-09,5.4216241333102e-09,-0.0013316403397588,0.0013316444129326,-0.0013316369829992,0.0013316458205441,-0.0013316393651905,0.0013316434383541,-0.0013316360712035,0.0013316449087046,-0.0010775270686625,0.001077533078015,-0.0010775258108502,0.0010775318201543,0.44663644431852,125301,3014,0.0043604575566823,0.0043604575566736,0.0043604575567146,36.802252712391,0.00020961802169913,0.00020961802169913,0.00020961802169913,4016813.445646,0.013168715135287
12919200,0.99511850781448,0.015071300568452,0.0050237668561427,0.0050237668561362,0.0050237668561726,-0.0010455811443832,0.0010455860243817,1.7017806459459e-09,1.7017842611002e-09,1.4496084883087e-09,1.6509529927399e-09,-0.001331942090561,0.0013319481666352,-0.0013319411372373,0.001331947213293,-0.0013319411741442,0.0013319473526672,-0.0013319402334985,0.0013319464120175,-0.0010747040841221,0.0010747073635351,-0.001074705285296,0.0010747085647342,1.4496097520536e-09,1.6510074320732e-09,5.2878265599373e-09,-1.8841918686148e-09,-0.0010455811443475,0.0010455860244131,-0.0013319408597607,0.0013319493491192,-0.0013319423679617,0.0013319460308579,-0.001331939949676,0.0013319485415184,-0.0013319414578538,0.0013319452232529,-0.0010747005250661,0.0010747108093513,-0.0010747088442619,0.0010747051190149,-0.0010747054443153,0.0010747057502869,-0.0010747066832372,0.0010747073918977,2.2000636698298e-09,2.2000670790786e-09,-0.0010455806491832,0.0010455865195971,-1.4606601437176e-09,5.759912038391e-09,-0.0013319429026142,0.0013319475041521,-0.0013319394688267,0.0013319489448657,-0.0013319419060828,0.0013319465076105,-0.0013319385350069,0.0013319480110021,-0.0010747036151265,0.0010747102560877,-0.0010747023546534,0.0010747089955661,0.41875849256559,125301,3014,0.004347849273973,0.0043478492739642,0.0043478492740053,36.136432433284,0.00020429145946627,0.00020429145946627,0.00020429145946627,3974166.3258425,0.01313043178997
13419200,0.9962502030984,0.015081595074962,0.0050271983583129,0.0050271983583065,0.0050271983583429,-0.0010422013157892,0.0010422075557786,2.2176388944776e-09,2.2176424375164e-09,1.9469845303708e-09,2.1637682860553e-09,-0.001328431261536,0.0013284385348633,-0.0013284301997767,0.0013284374730853,-0.0013284302446879,0.001328437620992,-0.0013284291969369,0.001328436573237,-0.0010715274575329,0.001071531845301,-0.0010715286582597,0.0010715330460528,1.9469858025117e-09,2.1638226794763e-09,5.9512959187715e-09,-1.5159446160003e-09,-0.0010422013157534,0.0010422075558101,-0.0013284299757998,0.0013284397658503,-0.0013284314854369,0.0013284362421474,-0.001328428965949,0.0013284388590114,-0.0013284304755628,0.0013284353353043,-0.0010715237506383,0.0010715354303628,-0.0010715323650639,0.001071529461088,-0.0010715288763471,0.0010715301592922,-0.0010715301174918,0.001071531824606,2.7384123227362e-09,2.7384156535462e-09,-0.0010422007982769,0.0010422080733063,-1.0817696528414e-09,6.4436954618503e-09,-0.0013284321095398,0.0013284378468285,-0.0013284284622812,0.0013284392806808,-0.0013284310028422,0.0013284367401208,-0.0013284274222868,0.0013284382406427,-0.0010715269159677,0.0010715348088914,-0.0010715256526992,0.0010715335455747,0.40900439415344,125301,3014,0.0043338262908911,0.0043338262908823,0.0043338262909234,34.795197247029,0.00019356157797623,0.00019356157797623,0.00019356157797623,3979733.725243,0.013087805768782
13919200,0.99708359134641,0.015089016862486,0.0050296722874875,0.005029672287481,0.0050296722875175,-0.001039613817849,0.0010396193468074,1.9473685339339e-09,1.9473720690318e-09,1.6849819470905e-09,1.8949772375991e-09,-0.0013264428940505,0.0013264495557225,-0.001326441888003,0.0013264485496564,-0.0013264419284845,0.0013264486932553,-0.0013264409351221,0.0013264476998889,-0.0010690334994525,0.0010690373067761,-0.0010690347068491,0.001069038514198,1.6849832384673e-09,1.895031624217e-09,5.768900880607e-09,-1.874090231932e-09,-0.0010396138178132,0.001039619346839,-0.0013264415844764,0.0013264508167192,-0.0013264431975011,0.0013264472887088,-0.0013264406252461,0.0013264499606228,-0.0013264422382475,0.0013264464326081,-0.0010690297096016,0.0010690409829152,-0.0010690384966095,0.001069034838156,-0.0010690349430866,0.0010690356014639,-0.001069036189351,0.0010690372634719,2.4763427983391e-09,2.4763461146202e-09,-0.0010396132921739,0.001039619872498,-1.4206238738129e-09,6.2715212653597e-09,-0.0013264437593275,0.0013264488461228,-0.001326440113976,0.0013264503897724,-0.0013264427084822,0.0013264477952673,-0.0013264391277951,0.0013264494035476,-0.0010690329285437,0.0010690403140302,-0.001069031659515,0.0010690390449534,0.40047476240274,125301,3014,0.0043230921353246,0.0043230921353158,0.0043230921353569,33.828525956001,0.00018582820764801,0.00018582820764801,0.00018582820764801,3966285.0820024,0.013055191441867
14419200,0.99769822587366,0.015094238429294,0.0050314128097569,0.0050314128097504,0.0050314128097869,-0.0010366112134763,0.0010366171812191,2.1142598441366e-09,2.114263360088e-09,1.8466995595814e-09,2.0610601190134e-09,-0.0013239721410245,0.0013239791858804,-0.0013239711013293,0.0013239781461665,-0.0013239711439245,0.0013239782919557,-0.001323970117132,0.0013239772651591,-0.0010661424904154,0.0010661466563979,-0.0010661436978931,0.0010661478639007,1.8467008307005e-09,2.0611144166635e-09,6.0322540144354e-09,-1.8036608812357e-09,-0.0010366112134405,0.0010366171812506,-0.0013239707983211,0.001323980478923,-0.0013239724439567,0.0013239768531731,-0.0013239698076656,0.0013239795914778,-0.0013239714532779,0.0013239759657237,-0.0010661386056381,0.0010661504261788,-0.0010661475825801,0.0010661440942167,-0.0010661439686091,0.0010661449126254,-0.0010661452156539,0.0010661465812354,2.6527362828157e-09,2.6527395958616e-09,-0.0010366106783452,0.0010366177163655,-1.3427285040659e-09,6.5440421704449e-09,-0.0013239730315625,0.0013239784540268,-0.0013239692867765,0.0013239800285317,-0.0013239719464276,0.0013239773688817,-0.0013239682673808,0.0013239790090923,-0.0010661418780656,0.0010661497052224,-0.0010661406079816,0.0010661484350902,0.38210045494667,125301,3014,0.0043106383766031,0.0043106383765943,0.0043106383766354,32.642283115779,0.00017633826492623,0.00017633826492623,0.00017633826492623,3955878.6381987,0.013017350864955
14919200,0.99813908910248,0.015098134921187,0.0050327116403877,0.0050327116403812,0.0050327116404177,-0.001032169301574,0.0010321769960839,2.7722686589484e-09,2.7722721460183e-09,2.4833220128201e-09,2.7154700111228e-09,-0.0013195176419557,0.0013195261992743,-0.0013195164668295,0.0013195250241295,-0.0013195165190279,0.0013195251798517,-0.0013195153585224,0.0013195240193421,-0.0010618002363403,0.0010618058127114,-0.0010618014416012,0.0010618070179974,2.4833233081718e-09,2.7155243592915e-09,6.873305758842e-09,-1.3286950291022e-09,-0.0010321693015382,0.0010321769961154,-0.0013195162310238,0.0013195275523933,-0.0013195178776851,0.0013195236710596,-0.0013195151153996,0.0013195265403092,-0.0013195167620376,0.0013195226589713,-0.0010617961681966,0.0010618097550261,-0.0010618055096545,0.0010618030757796,-0.0010618017859868,0.0010618039811887,-0.0010618030345922,0.0010618056750148,3.3327776721357e-09,3.3327809667998e-09,-0.0010321687445136,0.0010321775531598,-8.6061075337341e-10,7.4044285616577e-09,-0.0013195185820633,0.0013195254300598,-0.0013195145716597,0.0013195269953272,-0.0013195173595007,0.0013195242074871,-0.0013195134196597,0.0013195258432834,-0.0010617995379212,0.0010618089423363,-0.0010617982664768,0.0010618076708437,0.39678962402156,125301,3014,0.0042922119965832,0.0042922119965743,0.0042922119966155,30.578608663503,0.00015982886930803,0.00015982886930803,0.00015982886930803,3965623.2537712,0.012961354472189
15419200,0.99843947557835,0.015101401531473,0.005033800510483,0.0050338005104765,0.005033800510513,-0.0010239138820963,0.0010239243692354,3.8358985780786e-09,3.8359021025297e-09,3.5168913591625e-09,3.7738914501626e-09,-0.0013129874166303,0.0013129983847395,-0.0013129860288468,0.0013129969969373,-0.0013129860952222,0.001312997166143,-0.0013129847246588,0.0013129957955755,-0.0010537562834285,0.0010537641430385,-0.0010537574832585,0.0010537653428937,3.516892565712e-09,3.7739455577321e-09,8.2166467309203e-09,-5.44776094315e-10,-0.0010239138820606,0.0010239243692668,-0.0013129859014887,0.0013129998297675,-0.0013129875439126,0.0013129955519585,-0.0013129845886839,0.001312998619809,-0.0013129862310845,0.0013129943419957,-0.0010537519353817,0.0010537683490789,-0.001053761831215,0.0010537611369505,-0.001053757940305,0.0010537621821962,-0.0010537591895762,0.00105376390729,4.4166305229104e-09,4.4166338448972e-09,-0.0010239133047444,0.0010239249466025,-7.9055190594664e-11,8.7639341913704e-09,-0.0013129884442424,0.0013129975448783,-0.0013129840227861,0.0013129990907875,-0.0013129870064746,0.0013129961071003,-0.0013129826623167,0.0013129977302743,-0.0010537554645042,0.0010537673810647,-0.0010537541939215,0.0010537661104339,0.48651353790675,125301,3014,0.0042579787134274,0.0042579787134186,0.0042579787134594,27.069526342264,0.00013175621073811,0.00013175621073811,0.00013175621073811,3940073.9130812,0.012857354688047
15919200,0.99867031846948,0.015104484768762,0.0050348282562462,0.0050348282562397,0.0050348282562761,-0.0010170591541311,0.0010170661859281,2.5156231875267e-09,2.5156268745317e-09,2.243176015586e-09,2.4616358203772e-09,-0.0013110154992278,0.0013110234119548,-0.0013110143901961,0.0013110223029043,-0.0013110144344621,0.0013110224486315,-0.0013110133374652,0.0013110213516304,-0.0010473942401298,0.0010473992753521,-0.0010473954541119,0.0010474004893595,2.243176773605e-09,2.4616901561732e-09,6.9597871674357e-09,-1.928467790553e-09,-0.0010170591540957,0.0010170661859594,-0.0013110139845808,0.0013110248809284,-0.001311015904768,0.0013110208339794,-0.0013110129258255,0.0013110239236509,-0.0013110148459894,0.0013110198766976,-0.00104738984239,0.0010474035636051,-0.001047399851762,0.0010473962012038,-0.001047395893595,0.0010473973529236,-0.0010473971489801,0.0010473990313744,3.0735048430368e-09,3.0735082255805e-09,-0.0010170585991958,0.0010170667408785,-1.441654767157e-09,7.4924374311795e-09,-0.0013110165473911,0.0013110225253474,-0.0013110123838466,0.0013110243771986,-0.00131101539155,0.0013110213694965,-0.0013110112942208,0.0013110232875289,-0.0010473934411395,0.0010474025250387,-0.0010473921637121,0.0010474012475624,0.59571470761932,125301,3014,0.0042295677635492,0.0042295677635409,0.0042295677635811,25.353383786754,0.00011802707029404,0.00011802707029404,0.00011802707029404,3818449.529919,0.012771096853139
16419200,0.99885763442499,0.015106590688779,0.0050355302295852,0.0050355302295787,0.0050355302296152,-0.0010105481018506,0.0010105536259886,1.9344846210874e-09,1.9344883819431e-09,1.6820049312863e-09,1.8843341276653e-09,-0.0013095429320573,0.0013095495065346,-0.0013095419432474,0.0013095485177062,-0.0013095419779497,0.0013095486535306,-0.001309540999303,0.00130954767488,-0.0010415548604979,0.0010415586590741,-0.0010415560803935,0.001041559878996,1.6820059923608e-09,1.8843883906234e-09,6.3249832645142e-09,-2.4559406637627e-09,-0.0010105481018151,0.0010105536260199,-0.001309541443187,0.0013095509585506,-0.0013095434320421,0.0013095470657391,-0.0013095404941543,0.0013095501106565,-0.001309542482986,0.0013095462178406,-0.0010415505200318,0.0010415629025861,-0.0010415604207701,0.0010415556355808,-0.0010415564868971,0.0010415567809511,-0.0010415577424422,0.0010415584380767,2.4666170093082e-09,2.466620449409e-09,-0.0010105475724279,0.0010105541554265,-1.9790570391218e-09,6.8351617957931e-09,-0.0013095439773094,0.00130954861051,-0.0013095399782666,0.0013095505424942,-0.0013095429437854,0.0013095475769762,-0.0013095390058953,0.001309549570079,-0.0010415541123098,0.0010415618708364,-0.001041552832527,0.0010415605910049,0.50210013400473,125301,3014,0.0042025870659157,0.0042025870659071,0.0042025870659476,24.411765701032,0.00011049412560826,0.00011049412560826,0.00011049412560826,3680585.9827147,0.012689188148666
16919200,0.99901331131128,0.0151088859722,0.0050362953240588,0.0050362953240523,0.0050362953240888,-0.001009029642695,0.0010090345800199,1.7095835268379e-09,1.7095871119343e-09,1.4556117740301e-09,1.6593027496753e-09,-0.0013042472131654,0.0013042533340275,-0.0013042462601916,0.0013042523810352,-0.0013042462943859,0.0013042525180179,-0.0013042453510724,0.0013042515747004,-0.0010401590382,0.0010401623538282,-0.0010401602620135,0.0010401635776673,1.4556129518733e-09,1.6593570711776e-09,6.0190035859011e-09,-2.5997632305918e-09,-0.0010090296426593,0.0010090345800513,-0.0013042457531637,0.0013042547593566,-0.0013042477201173,0.001304250955755,-0.0013042448392077,0.0013042539482054,-0.0013042468061378,0.0013042501445994,-0.0010401547780967,0.0010401665195597,-0.0010401645220269,0.0010401594120327,-0.0010401606393708,0.00104016049792,-0.0010401618977997,0.0010401621642303,2.2690450805244e-09,2.269048323896e-09,-0.0010090290864708,0.0010090351362594,-2.0915451321584e-09,6.5569596613097e-09,-0.001304248205991,0.0013042524917087,-0.0013042442979362,0.0013042544030962,-0.0013042472076629,0.0013042514933704,-0.001304243360911,0.0013042534660274,-0.0010401582947659,0.0010401655688024,-0.0010401570097727,0.0010401642837606,0.65164127745866,125301,3014,0.004196250400026,0.0041962504000173,0.0041962504000582,23.779588566327,0.00010543670853061,0.00010543670853061,0.00010543670853061,3761062.0215525,0.012669872963913
17419200,0.99913543164567,0.015110498275988,0.005036832758655,0.0050368327586485,0.0050368327586849,-0.0010008370675491,0.001000844230536,2.5467932196859e-09,2.5467969657479e-09,2.2777773386276e-09,2.4940359821774e-09,-0.0013027826626641,0.0013027906304647,-0.001302781549037,0.0013027895168189,-0.0013027815916412,0.0013027896597935,-0.0013027804900164,0.0013027885581648,-0.0010323239110802,0.0010323290389412,-0.0010323251363851,0.0010323302642731,2.2777783788657e-09,2.4940897362301e-09,6.9079509757003e-09,-1.8142918920005e-09,-0.0010008370675137,0.0010008442305671,-0.0013027811752131,0.0013027920720417,-0.0013027830364126,0.0013027880752905,-0.001302780110185,0.0013027911074002,-0.0013027819713609,0.0013027871106442,-0.0010323195952702,0.0010323332462179,-0.0010323294521063,0.0010323260570925,-0.0010323255371183,0.0010323271514648,-0.0010323267994225,0.0010323288327011,3.0719450470698e-09,3.0719484853177e-09,-0.0010008365452615,0.0010008447528387,-1.3615983831923e-09,7.4080755084813e-09,-0.0013027837128229,0.0013027897371359,-0.0013027796009492,0.0013027915316302,-0.0013027825541387,0.0013027885784416,-0.0013027785064758,0.0013027904371132,-0.0010323231834947,0.0010323322401749,-0.0010323218961637,0.0010323309527948,0.58772740813402,125301,3014,0.0041623123382372,0.0041623123382285,0.0041623123382689,21.982398242941,9.1059185943528e-05,9.1059185943528e-05,9.1059185943528e-05,3588644.0852197,0.012566877034968
17919200,0.99922873020937,0.015111530063823,0.0050371766879333,0.0050371766879268,0.0050371766879632,-0.00099460120810001,0.00099460972727878,3.0561501620633e-09,3.0561537497772e-09,2.7637286532073e-09,2.9994908649954e-09,-0.0012942578796568,0.0012942670709534,-0.0012942566511865,0.0012942658424646,-0.0012942567034326,0.0012942659962549,-0.0012942554883476,0.0012942647811662,-0.0010263871320221,0.0010263933560149,-0.0010263883648094,0.0010263945888281,2.7637299934572e-09,2.9995449908749e-09,7.5526431521107e-09,-1.440269655324e-09,-0.00099460120806432,0.00099460972731009,-0.0012942563409185,0.0012942685569701,-0.0012942581898487,0.0012942643564967,-0.0012942551713805,0.0012942674889927,-0.001294257020287,0.0012942632885146,-0.0010263826798861,0.0010263976898736,-0.0010263928168556,0.0010263902550659,-0.0010263888155017,0.0010263913920924,-0.001026390088476,0.0010263931129766,3.619463253588e-09,3.6194665596046e-09,-0.00099460064805538,0.00099461028733863,-9.6232324821474e-10,8.0883829198362e-09,-0.0012942589488186,0.0012942661718314,-0.0012942546242864,0.0012942679445577,-0.0012942576729211,0.0012942648959239,-0.0012942534175015,0.0012942667377292,-0.0010263863285946,0.0010263966474064,-0.0010263850291846,0.0010263953479475,0.4915601615792,125301,3014,0.0041364168904858,0.0041364168904769,0.0041364168905178,19.502019860959,7.1216158887671e-05,7.1216158887671e-05,7.1216158887671e-05,3638824.702123,0.012488175148895
18419200,0.99930289599584,0.015112388866041,0.0050374629553392,0.0050374629553327,0.0050374629553691,-0.0009917426833677,0.00099175039114336,2.7561240873892e-09,2.7561275460777e-09,2.4654173100612e-09,2.6999799079377e-09,-0.0012873880506208,0.0012873966196062,-0.0012873868758699,0.0012873954448366,-0.0012873869255898,0.0012873955984338,-0.0012873857631585,0.0012873944359986,-0.001023345628852,0.0010233511949559,-0.0010233468715781,0.0010233524377076,2.4654185371361e-09,2.7000343179612e-09,7.3385005964691e-09,-1.8261790171156e-09,-0.0009917426833319,0.00099175039117489,-0.0012873864878827,0.0012873981346626,-0.0012873884385318,0.0012873939298293,-0.0012873853690049,0.0012873971196784,-0.0012873873196304,0.0012873929148406,-0.0010233410947523,0.0010233556169565,-0.0010233514055876,0.0010233480158042,-0.0010233473405122,0.001023349201272,-0.0010233486224165,0.0010233509342574,3.3562902019911e-09,3.3562933946289e-09,-0.00099174208700485,0.00099175098752168,-1.3019200670445e-09,7.9126193042646e-09,-0.001287389112077,0.0012873957285542,-0.0012873847870219,0.0012873976071188,-0.0012873878888373,0.0012873945053045,-0.0012873836326277,0.001287396452681,-0.0010233447719769,0.0010233545605203,-0.0010233434614912,0.0010233532499863,0.51421839069127,125301,3014,0.0041245191896453,0.0041245191896366,0.0041245191896778,17.478872668479,5.5030981347835e-05,5.5030981347835e-05,5.5030981347835e-05,3742438.81494,0.012451987183247
18919200,0.99936762467412,0.015113244785075,0.005037748261684,0.0050377482616775,0.005037748261714,-0.0009898441332334,0.00098984911902257,1.7295336172587e-09,1.7295371468568e-09,1.4757487083458e-09,1.6796088943071e-09,-0.0012871636959837,0.0012871698786787,-0.001287162742496,0.0012871689251725,-0.0012871627753736,0.0012871690612182,-0.0012871618308854,0.001287168116726,-0.0010213563342597,0.001021359691197,-0.0010213575785414,0.0010213609355045,1.4757499076248e-09,1.6796634330325e-09,6.205397833591e-09,-2.746257217075e-09,-0.0009898441331976,0.00098984911905407,-0.0012871621829372,0.0012871713599377,-0.0012871642554664,0.0012871674439623,-0.0012871612668201,0.0012871705470055,-0.0012871633393257,0.0012871666310255,-0.0010213519125785,0.0010213640221178,-0.0010213620001326,0.0010213566046808,-0.0010213579910896,0.0010213577800623,-0.0010213592689965,0.001021359466774,2.3019666263232e-09,2.3019699089288e-09,-0.00098984356440224,0.00098984968786906,-2.2205238106395e-09,6.75715271352e-09,-0.0012871647315419,0.0012871689931428,-0.0012871607137221,0.0012871710126199,-0.0012871637323761,0.0012871679939668,-0.0012871597752091,0.0012871700740633,-0.0010213555442983,0.0010213629949559,-0.0010213542381929,0.0010213616888019,0.5877987766322,125301,3014,0.0041166471074663,0.0041166471074575,0.0041166471074985,16.874846119817,5.0198768958538e-05,5.0198768958538e-05,5.0198768958538e-05,3699209.4464986,0.012428110191713
19419200,0.99942867617664,0.015114148899086,0.005038049633021,0.0050380496330145,0.0050380496330509,-0.00098880551921963,0.00098880804214715,7.9487385132594e-10,7.948774515983e-10,5.7203857230546e-10,7.5047864064268e-10,-0.0012895888840922,0.00128959291396,-0.0012895881253441,0.0012895921551933,-0.0012895881440947,0.0012895922769518,-0.0012895873920676,0.0012895915249206,-0.0010206218555707,0.0010206232056698,-0.001020623100724,0.0010206244508492,5.720397332607e-10,7.5053294775937e-10,5.0404371250901e-09,-3.4506159269166e-09,-0.00098880551918392,0.00098880804217855,-0.0012895874576643,0.0012895943195027,-0.0012895895516961,0.0012895907496996,-0.0012895867210206,0.0012895936858832,-0.0012895888150288,0.0012895901160753,-0.0010206176649891,0.0010206273205843,-0.0010206272912158,0.0010206203360319,-0.0010206234210801,0.0010206214108979,-0.0010206246931137,0.0010206230579183,1.3254766672741e-09,1.3254800536413e-09,-0.00098880499196209,0.00098880856941982,-2.9466187026742e-09,5.5543314398695e-09,-0.0012895898687,0.0012895920611863,-0.001289586210535,0.0012895941168693,-0.0012895890674645,0.0012895912599408,-0.0012895854628726,0.0012895933691633,-0.0010206211860623,0.0010206263918753,-0.0010206198845127,0.0010206250902766,0.65664642788028,125301,3014,0.0041123596807267,0.0041123596807179,0.0041123596807584,17.545969304781,5.556775443825e-05,5.556775443825e-05,5.556775443825e-05,3597915.509769,0.012415137543383
19919200,0.99948754731805,0.015114999451279,0.0050383331504185,0.005038333150412,0.0050383331504484,-0.00098820179441272,0.0009882034114597,4.5067290578149e-10,4.5067653470005e-10,2.3864777748892e-10,4.0842907418391e-10,-0.0012918586075732,0.0012918618517928,-0.0012918579190105,0.0012918611632116,-0.001291857932971,0.001291861280374,-0.0012918572508706,0.0012918605982699,-0.0010204223109262,0.0010204229228345,-0.0010204235574247,0.001020424169359,2.3864897605589e-10,4.0848348917782e-10,4.4556457921489e-09,-3.5542265741968e-09,-0.00098820179437703,0.00098820341149114,-0.0012918572624792,0.0012918631772481,-0.0012918592640287,0.0012918598378051,-0.0012918565911015,0.0012918626090891,-0.0012918585926272,0.0012918592696414,-0.0010204183567679,0.0010204268035269,-0.0010204275114932,0.0010204202887634,-0.0010204237924945,0.0010204212223642,-0.0010204250620482,0.0010204228559216,9.5015881456514e-10,9.501622380782e-10,-0.00098820129821589,0.00098820390767175,-3.079015023734e-09,4.9390827477653e-09,-0.0012918595371161,0.0012918610467659,-0.0012918561121604,0.0012918630134237,-0.0012918588079724,0.0012918603176124,-0.0012918554339554,0.0012918623351751,-0.0010204217536126,0.0010204259995769,-0.0010204204530159,0.0010204246989308,0.63949909152816,125301,3014,0.0041098744374739,0.0041098744374652,0.0041098744375058,18.682176551025,6.4657412408199e-05,6.4657412408199e-05,6.4657412408199e-05,3504250.8306177,0.012407624948343
20419200,0.99954011389575,0.015115822284453,0.0050386074281431,0.0050386074281366,0.0050386074281731,-0.00098665622159651,0.00098665988372429,1.2224184777487e-09,1.2224220370812e-09,9.797253450044e-10,1.1902724415969e-09,-0.0012897759477493,0.0012897809726559,-0.0012897752607626,0.0012897802856506,-0.0012897752605672,0.0012897804173658,-0.0012897745800215,0.0012897797368162,-0.0010190237726165,0.0010190261632752,-0.0010190250225277,0.0010190274132123,9.7972649771778e-10,1.1903267981661e-09,5.2078698385433e-09,-2.7629597317739e-09,-0.00098665622156085,0.00098665988375569,-0.0012897746092042,0.0012897822916802,-0.0012897765992318,0.0012897789666751,-0.001289773925236,0.0012897817396392,-0.0012897759152398,0.0012897784146293,-0.0010190198375186,0.0010190300246464,-0.0010190289575358,0.0010190235519377,-0.0010190252777921,0.0010190244391805,-0.0010190265166889,0.0010190261102383,1.7276644963885e-09,1.7276678523448e-09,-0.00098665571982851,0.00098666038550753,-2.3114255453597e-09,5.7067967578499e-09,-0.0012897768654459,0.0012897801795573,-0.0012897734411461,0.001289782148839,-0.0012897761379423,0.0012897794520437,-0.0012897727645366,0.0012897814721859,-0.0010190232197679,0.0010190292423756,-0.0010190219156953,0.0010190279382538,0.69004788769244,125301,3014,0.0041034595902552,0.0041034595902464,0.0041034595902871,18.601887938132,6.4015103505059e-05,6.4015103505059e-05,6.4015103505059e-05,3502999.1749043,0.012388129940304
20919200,0.99958383349438,0.015116460280463,0.0050388200934798,0.0050388200934733,0.0050388200935098,-0.00098152058827486,0.0009815269777878,2.2515962917494e-09,2.2515998776105e-09,1.9872261545757e-09,2.2005885822058e-09,-0.0012869305867288,0.0012869379288719,-0.0012869295338213,0.001286936875946,-0.0012869295725415,0.0012869370167772,-0.0012869285315556,0.0012869359757876,-0.0010141525955533,0.0010141570948734,-0.0010141538447838,0.0010141583441301,1.9872273240036e-09,2.2006429966409e-09,6.3072468766272e-09,-1.8039811021462e-09,-0.00098152058823928,0.00098152697781929,-0.0012869292006736,0.0012869392689262,-0.0012869309198008,0.0012869355359407,-0.0012869281924405,0.0012869383628208,-0.0012869299115439,0.0012869346298306,-0.0010141485790881,0.0010141610029984,-0.0010141578611594,0.001014154436102,-0.0010141541213919,0.0010141553146067,-0.0010141554016418,0.0010141570136763,2.7571574672908e-09,2.7571608679222e-09,-0.00098152008621564,0.00098152747986229,-1.372415166894e-09,6.7878097867174e-09,-0.0012869315519925,0.0012869371150013,-0.0012869277054064,0.0012869387691606,-0.0012869304557844,0.0012869360187833,-0.0012869266711493,0.00128693773486,-0.0010141520134128,0.001014160199134,-0.0010141507028005,0.0010141588884724,0.64466974006304,125301,3014,0.0040821675315028,0.0040821675314944,0.0040821675315348,17.277088666691,5.3416709333528e-05,5.3416709333528e-05,5.3416709333528e-05,3439097.5828887,0.012323497408308
21419200,0.99961892017786,0.015116970331677,0.005038990110551,0.0050389901105445,0.005038990110581,-0.00097668323651091,0.00097669107880025,2.8002800417493e-09,2.8002835404953e-09,2.51500764164e-09,2.7457211033256e-09,-0.0012805790682377,0.0012805877009417,-0.0012805778976211,0.0012805865303066,-0.0012805779451509,0.0012805866806598,-0.0012805767878824,0.0012805855233875,-0.0010094612163012,0.0010094668936859,-0.0010094624763153,0.0010094681537257,2.5150089622007e-09,2.7457755072776e-09,7.0032736923497e-09,-1.4026400652058e-09,-0.00097668323647514,0.00097669107883181,-0.0012805776267744,0.0012805890894301,-0.0012805793390082,0.0012805851418673,-0.0012805765103551,0.0012805880758507,-0.0012805782225652,0.0012805841282831,-0.0010094570517014,0.0010094709398992,-0.001009466640825,0.0010094641076098,-0.0010094628020152,0.0010094650369028,-0.0010094640965341,0.0010094667747804,3.3328194542122e-09,3.3328227763755e-09,-0.00097668270773577,0.00097669160759076,-9.5734407628091e-10,7.5082618348578e-09,-0.0012805800661243,0.0012805868660594,-0.0012805759962138,0.0012805885041873,-0.0012805788502384,0.0012805856501636,-0.0012805748466895,0.0012805873546194,-0.0010094605685169,0.0010094700847364,-0.0010094592432906,0.001009468759461,0.64095610021345,125301,3014,0.0040620812433605,0.0040620812433518,0.0040620812433927,15.230920883268,3.7047367066147e-05,3.7047367066147e-05,3.7047367066147e-05,3474677.5541972,0.012262474455714
21919200,0.99964875758947,0.015117391306454,0.0050391304354767,0.0050391304354703,0.0050391304355067,-0.00097339199804037,0.00097339829688884,2.2190253482694e-09,2.2190288453096e-09,1.9516974490268e-09,2.1675453346838e-09,-0.0012774835290833,0.001277490835738,-0.0012774824798136,0.0012774897864499,-0.0012774825184428,0.0012774899282664,-0.0012774814803897,0.0012774888902094,-0.0010061881938692,0.0010061926163631,-0.0010061894590602,0.0010061938815799,1.9516987076605e-09,2.1675998070601e-09,6.4613929126171e-09,-2.0232689227929e-09,-0.0009733919980046,0.00097339829692033,-0.0012774820836792,0.0012774922383649,-0.0012774839251414,0.0012774883838718,-0.0012774810786406,0.0012774913365302,-0.001277482920079,0.0012774874820322,-0.0010061839956663,0.0010061967094341,-0.0010061936571733,0.0010061897886061,-0.0010061897831635,0.0010061907681398,-0.001006191080161,0.0010061924895602,2.7544098462581e-09,2.7544131816857e-09,-0.00097339146646011,0.00097339882848433,-1.5563057586332e-09,6.9725942964422e-09,-0.0012774845288159,0.0012774899895948,-0.0012774805627142,0.0012774917682517,-0.001277483435099,0.0012774888958679,-0.0012774795313318,0.0012774907368259,-0.0010061875373914,0.0010061958279479,-0.0010061862092941,0.0010061944998015,0.623111015312,125301,3014,0.0040484192724288,0.00404841927242,0.0040484192724607,13.995749721783,2.7165997774263e-05,2.7165997774263e-05,2.7165997774263e-05,3467748.1406148,0.01222099453425
22419200,0.99967770730834,0.015117818498167,0.0050392728327144,0.0050392728327079,0.0050392728327444,-0.00097487190628294,0.00097487411805466,6.7213088933329e-10,6.7213437531503e-10,4.5144037338e-10,6.2856890082802e-10,-0.0012784086713495,0.0012784124397562,-0.0012784079402799,0.0012784117086682,-0.0012784079567437,0.0012784118289653,-0.001278407232258,0.0012784111044757,-0.0010076727694535,0.0010076738612937,-0.0010076740316367,0.0010076751235027,4.5144154852112e-10,6.2862330047129e-10,4.7286903600527e-09,-3.3843552609275e-09,-0.00097487190624722,0.00097487411808616,-0.0012784073077742,0.0012784137827041,-0.0012784093037792,0.0012784103657693,-0.0012784065964538,0.0012784131752336,-0.0012784085924349,0.001278409758294,-0.0010076687640333,0.001007677790608,-0.0010076780369671,0.0010076711942854,-0.0010076742731095,0.0010076721315862,-0.001007675559496,0.0010076737929734,1.1923403502325e-09,1.1923436648077e-09,-0.00097487138992555,0.00097487463442736,-2.8914074234291e-09,5.2320226338441e-09,-0.0012784096021131,0.0012784116373564,-0.0012784060983827,0.0012784135962704,-0.0012784088297104,0.0012784108649437,-0.0012784053779919,0.0012784128758361,-0.00100767219072,0.001007676991757,-0.0010076708722866,0.0010076756732745,0.65096373206223,125301,3014,0.0040545464516439,0.0040545464516352,0.004054546451676,14.850174803504,3.4001398428032e-05,3.4001398428032e-05,3.4001398428032e-05,3468380.6319341,0.012239595099557
22919200,0.99970508653805,0.015118182326426,0.005039394108801,0.0050393941087945,0.005039394108831,-0.00097454711942585,0.00097454989882367,8.8575067492489e-10,8.857541916998e-10,6.5756689331219e-10,8.449114189773e-10,-0.0012791755729336,0.0012791798303236,-0.0012791748423441,0.0012791790997155,-0.0012791748548257,0.0012791792235385,-0.0012791741309097,0.0012791784996186,-0.0010074981725163,0.0010074997581633,-0.0010074994339598,0.0010075010196327,6.5756832986291e-10,8.4496609829218e-10,4.9249459554761e-09,-3.1533707559644e-09,-0.00097454711938993,0.00097454989885546,-0.0012791742147359,0.0012791811674242,-0.0012791762004652,0.0012791777626642,-0.0012791734999583,0.0012791805640046,-0.0012791754856637,0.0012791771592397,-0.0010074941840356,0.0010075036704241,-0.0010075034223502,0.0010074971074696,-0.0010074996779893,0.001007498027461,-0.0010075009545783,0.0010074996958915,1.3980570746102e-09,1.3980604225373e-09,-0.00097454661088182,0.00097455040738318,-2.6774383491551e-09,5.423148995962e-09,-0.0012791765053715,0.001279179025758,-0.0012791730095554,0.0012791809780935,-0.0012791757336367,0.0012791782540131,-0.0012791722896974,0.001279180258192,-0.0010074976064124,0.0010075028744768,-0.0010074962888925,0.0010075015569078,0.58748017292924,125301,3014,0.00405320450814,0.0040532045081315,0.0040532045081724,15.357556235289,3.806044988231e-05,3.806044988231e-05,3.806044988231e-05,3414266.2589128,0.012235537379237
23419200,0.99973066266265,0.015118532957362,0.0050395109857794,0.0050395109857729,0.0050395109858094,-0.0009762704494177,0.00097627358420428,1.0213785075289e-09,1.0213819501002e-09,7.8948212783351e-10,9.7928923338613e-10,-0.0012791304106381,0.0012791349837627,-0.001279129644897,0.001279134218003,-0.0012791296605647,0.0012791343434795,-0.0012791289019918,0.0012791335849026,-0.001009043425829,0.0010090453171386,-0.0010090446622249,0.0010090465535602,7.8948362785639e-10,9.7934399802561e-10,5.0481244011898e-09,-3.0052934515241e-09,-0.00097627044938168,0.00097627358423611,-0.0012791290545502,0.0012791363164599,-0.0012791310009081,0.0012791328853553,-0.0012791283080545,0.0012791356797895,-0.0012791302543884,0.00127913224868,-0.0010090394484598,0.001009049215705,-0.0010090486395036,0.0010090426550916,-0.0010090449288082,0.0010090435865852,-0.001009046181272,0.0010090452336698,1.5446442756483e-09,1.5446475492247e-09,-0.00097626993017608,0.00097627410346132,-2.5205399562933e-09,5.5554478066476e-09,-0.0012791313306152,0.0012791341943623,-0.0012791278072698,0.0012791361033532,-0.0012791305234434,0.0012791333871805,-0.0012791270530419,0.0012791353490818,-0.0010090428277994,0.0010090484145385,-0.0010090415345488,0.001009047121239,0.60459639632208,125301,3014,0.0040603491880948,0.0040603491880862,0.0040603491881271,15.705825728815,4.0846605830516e-05,4.0846605830516e-05,4.0846605830516e-05,3485610.4404842,0.012257209485669
23919200,0.99975586945665,0.015118940558806,0.0050396468529275,0.005039646852921,0.0050396468529575,-0.00097825481794059,0.00097825614176609,3.3507063299863e-10,3.3507412071562e-10,1.2514671861836e-10,2.9356307021736e-10,-0.0012818693812165,0.0012818723732572,-0.0012818687203065,0.0012818717123288,-0.0012818687320405,0.0012818718280368,-0.001281868077395,0.0012818711733874,-0.0010110579362984,0.0010110583075066,-0.0010110591923683,0.0010110595636024,1.2514781504813e-10,2.9361737573667e-10,4.1525486827667e-09,-3.482334290285e-09,-0.00097825481790497,0.00097825614179747,-0.001281868098576,0.0012818736367105,-0.0012818700028713,0.0012818704489242,-0.0012818674525257,0.001281873094651,-0.0012818693567971,0.0012818699068598,-0.0010110541659779,0.0010110620043406,-0.0010110629625991,0.0010110558668654,-0.0010110593561184,0.0010110566714448,-0.0010110606331176,0.0010110583122368,8.3149417560017e-10,8.314974899695e-10,-0.00097825432546558,0.0009782566342564,-3.0105052567191e-09,4.6327162677863e-09,-0.0012818702506577,0.0012818716253813,-0.0012818669791527,0.0012818734956017,-0.0012818695500207,0.0012818709247345,-0.0012818663280616,0.0012818728444671,-0.0010110574544551,0.00101106132875,-0.0010110561441882,0.0010110600184341,0.71228945632066,125301,3014,0.0040685811645455,0.0040685811645367,0.0040685811645775,17.00481784521,5.123854276168e-05,5.123854276168e-05,5.123854276168e-05,3437710.7655374,0.012282222272934
24419200,0.99977990621537,0.01511931079229,0.0050397702640887,0.0050397702640822,0.0050397702641187,-0.00097720163234682,0.00097720378642196,6.4990943244825e-10,6.4991304895541e-10,4.3263367223534e-10,6.0749285264271e-10,-0.0012851570652232,0.001285160769222,-0.0012851563409885,0.0012851600449689,-0.0012851563568002,0.0012851601644244,-0.0012851556405091,0.0012851594481294,-0.0010103121600802,0.0010103132097909,-0.0010103134187075,0.0010103144684445,4.3263480655073e-10,6.0754711188218e-10,4.3289305572519e-09,-3.0290386555731e-09,-0.00097720163231121,0.00097720378645325,-0.0012851558216416,0.0012851619856593,-0.0012851575844942,0.0012851588285802,-0.001285155117184,0.0012851613848619,-0.0012851568800125,0.0012851582277779,-0.0010103085216895,0.0010103167649325,-0.0010103170570086,0.0010103109133995,-0.0010103135390484,0.0010103116125699,-0.0010103148179522,0.001010313262655,1.116389413805e-09,1.1163928059073e-09,-0.00097720116961451,0.00097720424916935,-2.6020039597416e-09,4.776878136049e-09,-0.001285157920858,0.0012851600376578,-0.0012851546726228,0.0012851617594717,-0.0012851571576526,0.0012851592744425,-0.0012851539604313,0.0012851610472366,-0.0010103117547829,0.0010103161586201,-0.001010310441888,0.0010103148456761,0.67894105241859,125301,3014,0.0040642478927985,0.0040642478927896,0.0040642478928301,17.882022086363,5.8256176690902e-05,5.8256176690902e-05,5.8256176690902e-05,3314648.4719151,0.012269124252276
24919200,0.99980216840241,0.015119618353964,0.0050398727846469,0.0050398727846404,0.0050398727846768,-0.00097742598866842,0.00097742882823338,9.0823279734677e-10,9.082363374151e-10,6.7974945991472e-10,8.693098417987e-10,-0.0012844290135699,0.0012844333174237,-0.0012844282902461,0.0012844325940813,-0.0012844283013734,0.0012844327188657,-0.0012844275859638,0.0012844320034522,-0.0010106120046616,0.0010106136504838,-0.001010613265315,0.0010106149111633,6.7975096884155e-10,8.6936449596913e-10,4.576299492298e-09,-2.7597601263992e-09,-0.00097742598863239,0.00097742882826525,-0.001284427773702,0.0012844345302753,-0.0012844295300373,0.0012844313812796,-0.0012844270654559,0.0012844339357027,-0.0012844288217672,0.0012844307867021,-0.001010608376938,0.0010106171947224,-0.0010106168929479,0.0010106113670221,-0.0010106133909765,0.0010106120455944,-0.0010106146597421,0.0010106137103675,1.381821867114e-09,1.3818251829539e-09,-0.00097742551900605,0.00097742929791115,-2.3352753261918e-09,5.0345155131981e-09,-0.0012844298589853,0.0012844325963827,-0.0012844266143609,0.0012844343163983,-0.0012844290966859,0.0012844318340733,-0.0012844259031021,0.0012844336050959,-0.001010611598273,0.0010106166044372,-0.0010106102832312,0.0010106152893464,0.60789483588396,125301,3014,0.0040651733095818,0.0040651733095732,0.004065173309614,18.35208539339,6.2016683147116e-05,6.2016683147116e-05,6.2016683147116e-05,3333890.2634713,0.012271914316512
25419200,0.99982403415294,0.015119986046727,0.0050399953489011,0.0050399953488946,0.0050399953489311,-0.00098145036940236,0.0009814511504715,1.2835750306051e-10,1.283609710428e-10,-7.5560039795592e-11,8.8006982623562e-11,-0.0012855511648485,0.0012855536829999,-0.0012855505472596,0.0012855530653925,-0.0012855505564641,0.0012855531788136,-0.0012855499454999,0.0012855525678456,-0.0010146006922971,0.0010146006220296,-0.0010146019491773,0.0010146018789359,-7.5558611717077e-11,8.8061576461272e-11,3.596844666466e-09,-3.3400562307784e-09,-0.00098145036936649,0.00098145115050314,-0.0012855499966874,0.0012855548301338,-0.0012855517153442,0.0012855519183078,-0.001285549391609,0.0012855543292886,-0.0012855511102418,0.0012855514174575,-0.0010145972629208,0.0010146039753875,-0.0010146053784635,0.0010145985256752,-0.0010146019947475,0.0010145991097421,-0.0010146032700924,0.001014600743049,5.9470453350825e-10,5.9470776499777e-10,-0.00098144990714867,0.00098145161274057,-2.9019662631138e-09,4.0462514261935e-09,-0.0012855519447097,0.0012855530196592,-0.0012855489492597,0.0012855547041177,-0.0012855512892193,0.0012855523641588,-0.0012855483416467,0.0012855540964614,-0.0010146003565323,0.0010146034985694,-0.0010145990469979,0.001014602188986,0.7372586897946,125301,3014,0.004081840797057,0.0040818407970483,0.0040818407970892,19.920521567013,7.4564172536101e-05,7.4564172536101e-05,7.4564172536101e-05,3382533.4210576,0.012322490238856
25919200,0.99984438428987,0.015120323442517,0.0050401078141645,0.005040107814158,0.0050401078141945,-0.00098026644403941,0.00098026871729231,6.9406389023634e-10,6.9406747683266e-10,4.7568953584944e-10,6.516623035463e-10,-0.00128954337142,0.0012895471768762,-0.0012895426387603,0.001289546444198,-0.0012895426553923,0.0012895465645745,-0.001289541931707,0.0012895458408853,-0.0010135536318318,0.0010135547788729,-0.0010135548935586,0.0010135560406263,4.7569071558029e-10,6.5171686615518e-10,4.0864191615714e-09,-2.6982181712947e-09,-0.00098026644400371,0.0009802687173238,-0.0012895422186638,0.0012895482974492,-0.0012895437914402,0.0012895453236738,-0.0012895415071172,0.0012895476896638,-0.0012895430798695,0.001289544715883,-0.0010135502718235,0.0010135580489957,-0.0010135582534772,0.0010135527706004,-0.0010135549178066,0.0010135532761976,-0.0010135561984262,0.001013554929635,1.1338751821562e-09,1.1338786001694e-09,-0.00098026600810191,0.000980269153245,-2.3076244055408e-09,4.5060026574177e-09,-0.0012895441582321,0.0012895465130429,-0.0012895410896558,0.0012895480408593,-0.0012895433878575,0.0012895457426585,-0.0012895403702274,0.0012895473213875,-0.0010135533502521,0.0010135576096674,-0.0010135520347492,0.001013556294115,0.72914636768881,125301,3014,0.0040769726142104,0.0040769726142017,0.0040769726142421,20.734676954043,8.1077415632342e-05,8.1077415632342e-05,8.1077415632342e-05,3241044.4045647,0.012307784917031
26419200,0.99986204935745,0.015120643340743,0.0050402144469064,0.0050402144469,0.0050402144469364,-0.0009782717579286,0.0009782759897584,1.4338831151198e-09,1.4338866393063e-09,1.1860009704403e-09,1.4011753541577e-09,-0.0012873391125137,0.0012873446255516,-0.0012873383811044,0.0012873438941238,-0.0012873383841023,0.0012873440284686,-0.0012873376616428,0.0012873433060053,-0.0010117799920515,0.0010117828429357,-0.0010117812585236,0.0010117841094343,1.1860019780685e-09,1.4012297336398e-09,4.8204890849538e-09,-1.95265002064e-09,-0.00097827175789308,0.00097827598978968,-0.0012873379616925,0.0012873457442533,-0.0012873395318498,0.0012873427754704,-0.0012873372377498,0.0012873451516742,-0.001287338807883,0.0012873421828863,-0.0010117766376277,0.0010117861073233,-0.0010117846128582,0.0010117808451433,-0.0010117813049918,0.0010117813131765,-0.0010117825576982,0.001011783004211,1.8771543724577e-09,1.8771577294434e-09,-0.00097827131863273,0.00097827642906947,-1.5871535173436e-09,5.2530205681951e-09,-0.0012873398942209,0.0012873439669162,-0.0012873368171887,0.0012873455057728,-0.0012873391251386,0.0012873431978241,-0.0012873360990092,0.0012873447875499,-0.0010117797139126,0.0010117856798348,-0.0010117783935988,0.0010117843594716,0.7920419595447,125301,3014,0.0040686960440505,0.0040686960440417,0.0040686960440823,20.39880052111,7.839040416888e-05,7.839040416888e-05,7.839040416888e-05,3232264.8531455,0.012282640407541
26919200,0.99987849663197,0.015120923811064,0.0050403079370136,0.0050403079370071,0.0050403079370436,-0.00097788077143421,0.00097788292958259,6.4973114445365e-10,6.4973472799123e-10,4.3228157031535e-10,6.0773025931656e-10,-0.001289244444403,0.0012892481547931,-0.0012892437225067,0.0012892474328785,-0.0012892437381719,0.0012892475526693,-0.0012892430252066,0.0012892468397004,-0.0010116310619932,0.0010116321141798,-0.0010116323324982,0.0010116333847113,4.3228271083714e-10,6.0778455072418e-10,3.9807185230964e-09,-2.6811830620032e-09,-0.00097788077139864,0.00097788292961404,-0.0012892433120534,0.0012892492550346,-0.0012892448547805,0.0012892463326859,-0.0012892426102813,0.0012892486574052,-0.0012892441529845,0.0012892457350511,-0.0010116277620417,0.0010116353239512,-0.0010116356323602,0.0010116301750371,-0.0010116323279275,0.0010116306330336,-0.0010116336161537,0.0010116322938981,1.0830727620765e-09,1.0830761539728e-09,-0.00097788034202997,0.00097788335900202,-2.2975834201978e-09,4.393862316037e-09,-0.0012892452163551,0.0012892475043142,-0.0012892421996259,0.0012892490028377,-0.0012892444572577,0.001289246745207,-0.0012892414908358,0.0012892482940041,-0.0010116308161601,0.0010116349271336,-0.0010116294921517,0.0010116336030755,0.74688297492094,125301,3014,0.0040670857125522,0.0040670857125436,0.0040670857125839,21.287339873754,8.5498718990029e-05,8.5498718990029e-05,8.5498718990029e-05,3160456.6562271,0.012277781890733
27419200,0.99989376436047,0.015121177303115,0.0050403924343639,0.0050403924343574,0.0050403924343939,-0.00097939686026775,0.00097939883469136,5.7888425086585e-10,5.7888776008218e-10,3.6224020775148e-10,5.369678544124e-10,-0.0012891338875406,0.0012891374404636,-0.0012891331796628,0.0012891367325672,-0.0012891331947697,0.001289136852067,-0.0012891324957514,0.0012891361530449,-0.0010132177497472,0.0010132186516788,-0.0010132190175991,0.0010132199195571,3.6224150364124e-10,5.3702244188082e-10,3.8400268477224e-09,-2.6821847250657e-09,-0.00097939686023189,0.00097939883472293,-0.0012891327786139,0.0012891385175254,-0.001289134288513,0.0012891356555543,-0.0012891320902664,0.0012891379335874,-0.0012891336001415,0.0012891350716112,-0.0010132145182761,0.001013221793154,-0.00101322224898,0.0010132167781793,-0.001013218992329,0.0010132171942393,-0.0010132202775904,0.0010132188519691,1.0131776122665e-09,1.0131809310474e-09,-0.00097939643005799,0.00097939926491634,-2.2972339014341e-09,4.2540684669079e-09,-0.0012891346350911,0.0012891368137402,-0.0012891316792956,0.0012891382796994,-0.0012891338901782,0.0012891360688176,-0.0012891309843963,0.0012891375847568,-0.001013217523603,0.0010132214395786,-0.0010132162022476,0.0010132201181738,0.72588280929977,125301,3014,0.0040733604144942,0.0040733604144854,0.0040733604145261,22.251334729094,9.3210677832752e-05,9.3210677832752e-05,9.3210677832752e-05,3182639.2366131,0.012296809967819
27919200,0.99990760224153,0.01512141959084,0.0050404731969388,0.0050404731969323,0.0050404731969687,-0.00098054676310671,0.00098054932414638,8.0056848482938e-10,8.0057197181109e-10,5.7694049012876e-10,7.574687640992e-10,-0.0012896341744239,0.0012896382369333,-0.0012896334209572,0.0012896374834482,-0.0012896334393467,0.0012896376062243,-0.0012896326955597,0.0012896368624336,-0.0010142889936397,0.0010142903734924,-0.0010142902629753,0.0010142916428542,5.7694170171658e-10,7.5752323474399e-10,4.0361217773826e-09,-2.4349115297502e-09,-0.00098054676307095,0.00098054932417787,-0.0012896330703789,0.0012896393051255,-0.0012896345249259,0.0012896364153047,-0.0012896323401353,0.0012896386792852,-0.0012896337946581,0.0012896357894594,-0.0010142857852703,0.0010142934865761,-0.0010142934712549,0.0010142885298678,-0.0010142902316291,0.001014288915954,-0.001014291519289,0.0010142905837507,1.2342732363587e-09,1.2342765401401e-09,-0.00098054633356349,0.00098054975370488,-2.058088827152e-09,4.4481917953823e-09,-0.001289634917416,0.0012896376182814,-0.0012896319296635,0.0012896390244592,-0.001289634126634,0.0012896368274895,-0.0012896311903697,0.0012896382851221,-0.0010142887773326,0.0010142931540629,-0.0010142874535121,0.0010142918301931,0.76533978020322,125301,3014,0.0040781259673406,0.0040781259673318,0.0040781259673726,22.91880832666,9.8550466613276e-05,9.8550466613276e-05,9.8550466613276e-05,3187706.5028589,0.012311276718828
28419200,0.99991997834916,0.015121653463132,0.0050405511543696,0.0050405511543631,0.0050405511543996,-0.00098037832668819,0.00098038118793124,9.1425357409265e-10,9.1425711445508e-10,6.8830958212945e-10,8.7085658106158e-10,-0.0012910377470533,0.001291042066333,-0.0012910369714312,0.0012910412906925,-0.001291036990977,0.0012910414144306,-0.0012910362253998,0.0012910406488496,-0.001014182006337,0.001014183630741,-0.0010141832794125,0.001014184903843,6.8831086051299e-10,8.7091104558155e-10,4.1458647534221e-09,-2.31728414091e-09,-0.0009803783266524,0.00098038118796276,-0.0012910366426834,0.0012910431330771,-0.0012910380757247,0.0012910402239972,-0.0012910358916233,0.001291042486226,-0.0012910373246404,0.0012910395771409,-0.0010141788010337,0.0010141867384839,-0.0010141864846259,0.0010141817961974,-0.0010141832444412,0.0010141821721791,-0.0010141845359212,0.0010141838458946,1.3428317490883e-09,1.3428350813394e-09,-0.00098037790223897,0.00098038161239567,-1.9490756355331e-09,4.5522697040206e-09,-0.0012910384947232,0.0012910414438867,-0.001291035486008,0.0012910428268689,-0.0012910376818621,0.0012910406310157,-0.0012910347250466,0.0012910420658642,-0.001014181799835,0.0010141864089515,-0.0010141804721236,0.0010141850811905,0.82558911402084,125301,3014,0.0040774395549689,0.00407743955496,0.0040774395550007,23.44164449112,0.00010273315592896,0.00010273315592896,0.00010273315592896,3137744.3680837,0.01230921747038
28919200,0.99993100906349,0.015121846334525,0.0050406154448339,0.0050406154448274,0.0050406154448639,-0.00097953415666519,0.00097953698574633,9.0136840996086e-10,9.0137198155763e-10,6.7674310687439e-10,8.5833731110492e-10,-0.0012922993569431,0.001292303643564,-0.0012922985851399,0.0012923028717424,-0.0012922986040172,0.0012923029947032,-0.001292297842183,0.0012923022328653,-0.001013564445874,0.0010135660433839,-0.0010135657219451,0.0010135673194816,6.7674436378343e-10,8.5839171890971e-10,4.1280307518282e-09,-2.3252205907507e-09,-0.0009795341566295,0.00097953698577781,-0.0012922982544683,0.0012923047087321,-0.0012922996875386,0.0012923018066232,-0.0012922975065205,0.0012923040648845,-0.0012922989395668,0.0012923011627705,-0.0010135612456693,0.0010135691465621,-0.0010135689220601,0.0010135642164006,-0.0010135656819182,0.0010135645886047,-0.0010135669756688,0.0010135662629997,1.3249524754643e-09,1.3249558467143e-09,-0.00097953373717635,0.00097953740525031,-1.9616205884405e-09,4.529618015823e-09,-0.0012923001070393,0.0012923030175595,-0.0012922971058404,0.0012923044012634,-0.0012922992982971,0.0012923022088074,-0.0012922963485398,0.0012923036439194,-0.0010135642490523,0.0010135688181119,-0.0010135629187015,0.0010135674877113,0.7640056113105,125301,3014,0.0040739529801784,0.0040739529801697,0.0040739529802101,23.983925178749,0.00010707140142999,0.00010707140142999,0.00010707140142999,3070953.4536312,0.01229865807721
29419200,0.99994092389086,0.015121987797104,0.0050406625990267,0.0050406625990202,0.0050406625990567,-0.00098113866140533,0.00098114097230001,7.0488946899293e-10,7.048929485631e-10,4.8423479110658e-10,6.6244246770498e-10,-0.0012917939393324,0.0012917977853962,-0.001291793206661,0.0012917970527066,-0.0012917932233359,0.0012917971738958,-0.0012917925000806,0.0012917964506367,-0.0010152273680134,0.0010152285429046,-0.0010152286421511,0.0010152298170687,4.8423605340927e-10,6.6249704488327e-10,3.8989610076028e-09,-2.489108693087e-09,-0.00098113866136952,0.00098114097233161,-0.0012917928500221,0.0012917988399743,-0.0012917942958948,0.0012917959981775,-0.0012917921387274,0.0012917982332107,-0.0012917935845758,0.0012917953914087,-0.0010152242008341,0.0010152316161793,-0.0010152318092405,0.0010152267438913,-0.0010152285912556,0.0010152271029747,-0.0010152298824845,0.0010152287715425,1.1333029658135e-09,1.1333062635069e-09,-0.00098113823722453,0.00098114139649608,-2.1158651873003e-09,4.3060901683424e-09,-0.0012917946721176,0.0012917971746191,-0.0012917917339925,0.0012917985738071,-0.0012917939026544,0.001291796405146,-0.0012917910150227,0.001291797854794,-0.001015227175854,0.0010152313093174,-0.0010152258477326,0.0010152299811466,0.62417410960896,125301,3014,0.0040805904024576,0.0040805904024489,0.0040805904024895,24.7788172602,0.0001134305380816,0.0001134305380816,0.0001134305380816,3108473.9237303,0.012318781460075
29919200,0.99994972138311,0.015122126194942,0.0050407087316395,0.005040708731633,0.0050407087316695,-0.00098513404264846,0.00098513654806435,7.7845881585283e-10,7.784621760737e-10,5.5258295752878e-10,7.349263316374e-10,-0.0012905913226159,0.0012905953497866,-0.0012905905724117,0.001290594599564,-0.0012905905911549,0.0012905947234526,-0.0012905898507219,0.0012905939830158,-0.0010189443298682,0.0010189456632184,-0.0010189456002806,0.0010189469336566,5.5258434903439e-10,7.3498105415316e-10,3.9552530489954e-09,-2.3982618569615e-09,-0.00098513404261246,0.00098513654809601,-0.0012905902374684,0.0012905963984349,-0.0012905916574825,0.001290593550965,-0.0012905895108866,0.0012905957770152,-0.0012905909308766,0.0012905929295402,-0.0010189411784806,0.0010189487179543,-0.0010189487515779,0.0010189438790184,-0.0010189455500042,0.0010189442211784,-0.0010189468388516,0.0010189458942551,1.2197502802897e-09,1.2197534389579e-09,-0.00098513360585337,0.00098513698487477,-2.0152118943658e-09,4.374414585446e-09,-0.0012905920399413,0.00129059475771,-0.0012905890940081,0.0012905961283354,-0.0012905912522927,0.0012905939700515,-0.0012905883581047,0.0012905953923885,-0.0010189441267266,0.0010189484327461,-0.0010189428010982,0.0010189471070686,0.68688558505508,125301,3014,0.0040971273496281,0.0040971273496191,0.0040971273496601,25.465406053744,0.00011892324842996,0.00011892324842996,0.00011892324842996,3235386.8959979,0.012368936550323
30419200,0.99995746861431,0.015122225353549,0.0050407417845085,0.005040741784502,0.0050407417845385,-0.00098575469075766,0.00098575726249887,8.0536450690243e-10,8.0536800035453e-10,5.8186010242622e-10,7.6234082679045e-10,-0.0012943360790417,0.0012943401551725,-0.0012943353256567,0.0012943394017689,-0.0012943353438817,0.0012943395244782,-0.0012943346003961,0.0012943387809888,-0.0010193615145388,0.0010193629035876,-0.0010193627880007,0.0010193641770758,5.8186128694972e-10,7.623955166914e-10,3.972532241172e-09,-2.3617298192682e-09,-0.00098575469072186,0.00098575726253047,-0.001294334996649,0.0012943412005537,-0.0012943364079732,0.0012943383564364,-0.0012943342664324,0.0012943405748383,-0.0012943356777322,0.0012943377307157,-0.0010193583725498,0.0010193659486176,-0.0010193659298999,0.0010193611321434,-0.0010193627302959,0.00101936146896,-0.0010193640217218,0.0010193631405702,1.2325428493091e-09,1.2325461310618e-09,-0.00098575426787167,0.00098575768540014,-1.9938487828324e-09,4.3776135679104e-09,-0.0012943368056809,0.0012943395522462,-0.0012943338629346,0.001294340914296,-0.001294336015338,0.0012943387618935,-0.001294333123893,0.0012943401752109,-0.0010193613313649,0.0010193656593569,-0.0010193600034817,0.0010193643314243,0.56251928746541,125301,3014,0.0040997278326206,0.0040997278326119,0.0040997278326525,26.130709217796,0.00012424567374237,0.00012424567374237,0.00012424567374237,3155476.8239183,0.012376887388156
30919200,0.99996435849906,0.015122331983392,0.0050407773277894,0.0050407773277829,0.0050407773278193,-0.00099033297979648,0.00099033486175235,5.4255475488349e-10,5.4255808978161e-10,3.2466362080807e-10,5.0022503340977e-10,-0.0012942357210938,0.0012942392003504,-0.0012942350197075,0.0012942384989455,-0.0012942350350727,0.0012942386192402,-0.0012942343428555,0.001294237927019,-0.0010238734660213,0.0010238742916711,-0.0010238747324294,0.0010238755581046,3.2466486356212e-10,5.0027997433982e-10,3.6570101148016e-09,-2.5718267037045e-09,-0.0009903329797603,0.00099033486178409,-0.0012942346593231,0.0012942402285221,-0.001294236081401,0.0012942374708228,-0.0012942339778799,0.0012942396520256,-0.001294235399934,0.001294236894321,-0.0010238703770846,0.0010238772877131,-0.0010238778212751,0.0010238725621604,-0.0010238746609903,0.0010238728802146,-0.0010238759453136,0.0010238745393844,9.7845634553617e-10,9.7845953173295e-10,-0.00099033254838455,0.00099033529317962,-2.1885381903811e-09,4.0716793638286e-09,-0.0012942364193648,0.0012942386232265,-0.0012942335667657,0.0012942399992509,-0.001294235681083,0.0012942378849347,-0.0012942328786629,0.0012942393111047,-0.001023873285296,0.0010238770310304,-0.0010238719648916,0.0010238757105767,0.67617106509292,125301,3014,0.0041186886931752,0.004118688693166,0.0041186886932073,27.119981798324,0.00013215985438659,0.00013215985438659,0.00013215985438659,3270718.8341102,0.012434407907206
31419200,0.99997052251231,0.015122430315756,0.0050408101052442,0.0050408101052377,0.0050408101052742,-0.00099118135191293,0.00099118258894568,2.9831375769006e-10,2.9831722493708e-10,9.0784049256671e-11,2.5801964444168e-10,-0.0013000980434078,0.0013001009559023,-0.0013000973923245,0.0013001003048004,-0.0013000974035077,0.0013001004203506,-0.0013000967611248,0.0013000997779637,-0.0010246698710997,0.0010246701699892,-0.001024671139898,0.0010246714388137,9.0785234454753e-11,2.5807430937281e-10,3.3337321088883e-09,-2.7370313017333e-09,-0.00099118135187712,0.00099118258897717,-0.0013000970101558,0.0013001019579167,-0.0013000984254999,0.0013000993028347,-0.0013000963745998,0.0013001014267442,-0.0013000977899197,0.0013000987716569,-0.0010246668609977,0.0010246730909335,-0.0010246741499104,0.0010246685179667,-0.0010246710350874,0.0010246687991521,-0.0010246723191107,0.0010246704458886,7.0952212788015e-10,7.0952552145295e-10,-0.00099118094491001,0.00099118299596387,-2.3742067889506e-09,3.7248478964683e-09,-0.0013000987342562,0.001300100379963,-0.0013000959875907,0.0013001017533403,-0.0013000980476174,0.0013000996933143,-0.0013000953488512,0.0013001011145575,-0.0010246697437076,0.0010246728611914,-0.0010246684230954,0.0010246715405293,0.69952705654839,125301,3014,0.0041222487358147,0.0041222487358057,0.0041222487358466,28.437316163203,0.00014269852930562,0.00014269852930562,0.00014269852930562,3138447.1382955,0.012445297083234
31919200,0.99997583160274,0.015122517771598,0.0050408392571915,0.005040839257185,0.0050408392572215,-0.00099172276735218,0.00099172497792072,6.6796767586954e-10,6.6797113479329e-10,4.4943398757077e-10,6.2590613645305e-10,-0.0013016680063254,0.001301671762321,-0.0013016672810419,0.001301671037019,-0.0013016672973578,0.0013016711576994,-0.001301666582002,0.0013016704423398,-0.0010254911502688,0.0010254922449685,-0.001025492421434,0.0010254935161599,4.4943518008903e-10,6.2596074362124e-10,3.6930891525029e-09,-2.3570804765383e-09,-0.00099172276731638,0.00099172497795228,-0.0013016669711526,0.0013016727603649,-0.0013016683161383,0.0013016700390239,-0.0013016662671426,0.0013016721607361,-0.001301667612104,0.0013016694393899,-0.0010254881474784,0.0010254951509653,-0.0010254954241345,0.0010254906102604,-0.0010254923168237,0.0010254908644203,-0.0010254936044761,0.0010254925265995,1.0780895842797e-09,1.078092974382e-09,-0.00099172236144412,0.00099172538384404,-2.0064197096963e-09,4.0812041246625e-09,-0.0013016686999005,0.0013016711891779,-0.0013016658806918,0.0013016724857601,-0.0013016679385926,0.0013016704278602,-0.0013016651696034,0.0013016717746283,-0.0010254910286777,0.0010254949344237,-0.0010254897043049,0.0010254936100012,0.71926751588325,125301,3014,0.0041245064907479,0.0041245064907391,0.0041245064907798,29.269440244649,0.00014935552195719,0.00014935552195719,0.00014935552195719,3102263.190894,0.012452161655665
32419200,0.99998019077235,0.015122596721838,0.0050408655739383,0.0050408655739318,0.0050408655739683,-0.00099052607018385,0.00099052968532472,1.1988106977443e-09,1.1988141540211e-09,9.5970759995924e-10,1.1636271600625e-09,-0.0013011712047185,0.0013011761836601,-0.0013011704802216,0.0013011754591448,-0.0013011704866906,0.0013011755895185,-0.0013011697721028,0.001301174874927,-0.0010244378374789,0.0010244401542524,-0.0010244391122208,0.0010244414290205,9.5970880539178e-10,1.1636817802671e-09,4.2233092798258e-09,-1.825614565704e-09,-0.00099052607014806,0.00099052968535629,-0.0013011701697844,0.0013011771815228,-0.0013011715150793,0.001301174461331,-0.0013011694567047,0.0013011765923647,-0.0013011708019755,0.0013011738721677,-0.001024434835326,0.0010244430596544,-0.0010244421142838,0.0010244385237158,-0.0010244390240081,0.0010244387539042,-0.0010244402922279,0.0010244404423897,1.6081652665668e-09,1.6081686546691e-09,-0.00099052566504136,0.00099053009048245,-1.4962624206954e-09,4.617528125656e-09,-0.001301171898767,0.0013011756098757,-0.001301169071049,0.0013011769166685,-0.0013011711383097,0.0013011748494086,-0.0013011683607189,0.001301176206295,-0.001024437720493,0.0010244428463516,-0.0010244363925688,0.0010244415183777,0.78912843059542,125301,3014,0.0041195459494434,0.0041195459494347,0.0041195459494753,29.299129211567,0.00014959303369254,0.00014959303369254,0.00014959303369254,3068125.1568482,0.012437101087668
32919200,0.99998374221328,0.01512265294371,0.0050408843145622,0.0050408843145557,0.0050408843145922,-0.00098794380776208,0.00098794794645724,1.3973861350481e-09,1.3973896406469e-09,1.1593267157176e-09,1.3561353141882e-09,-0.0013006171881247,0.0013006226208268,-0.0013006163811766,0.0013006218138604,-0.0013006163977121,0.0013006219426621,-0.0013006156017112,0.0013006211466574,-0.0010221376576684,0.0010221404181756,-0.0010221388802797,0.0010221416408133,1.159327874337e-09,1.3561898812455e-09,4.4329826889976e-09,-1.6381371450374e-09,-0.00098794380772635,0.00098794794648877,-0.0013006161450547,0.001300623621868,-0.0013006174241704,0.0013006208128679,-0.0013006153601094,0.0013006229492058,-0.0013006166392009,0.0013006201402005,-0.001022134642503,0.0010221433316779,-0.0010221418953553,0.0010221387274082,-0.0010221388417451,0.0010221390156648,-0.0010221400708926,0.001022140648396,1.8040475614383e-09,1.8040509889512e-09,-0.0009879434052694,0.0009879483489651,-1.3105626476666e-09,4.8184688132323e-09,-0.0013006178926888,0.001300622041114,-0.0013006149766014,0.001300623270584,-0.0013006170493854,0.0013006211978009,-0.0013006141853629,0.0013006224793022,-0.0010221374866976,0.0010221430591451,-0.0010221362093593,0.0010221417817569,0.69092321609738,125301,3014,0.0041088416285414,0.0041088416285327,0.0041088416285731,29.174576830966,0.00014859661464773,0.00014859661464773,0.00014859661464773,2986766.1052344,0.01240461498439
33419200,0.99998667699959,0.015122705321507,0.0050409017738277,0.0050409017738212,0.0050409017738577,-0.00098928799151579,0.00098929162969179,1.2072391614958e-09,1.207242565833e-09,9.7015121691391e-10,1.1621812121764e-09,-0.0012992842155569,0.0012992892200924,-0.0012992833805198,0.0012992883850368,-0.0012992834045724,0.0012992885139845,-0.0012992825809035,0.0012992876903118,-0.001023421590866,0.0010234238488023,-0.0010234228707359,0.0010234251286983,9.7015249678375e-10,1.1622360661955e-09,4.3259418632576e-09,-1.9113899322557e-09,-0.00098928799147983,0.0009892916297235,-0.0012992831427254,0.0012992902487091,-0.0012992844532746,0.0012992873564693,-0.0012992823374188,0.0012992895483142,-0.0012992836479438,0.0012992866560692,-0.0010234184927732,0.0010234268403413,-0.0010234259687385,0.001023422137257,-0.0010234227986043,0.0010234224137307,-0.0010234240971103,0.0010234241081647,1.6314141113599e-09,1.6314174073769e-09,-0.00098928757170524,0.00098929204951761,-1.5605945815538e-09,4.7256678789872e-09,-0.0012992849350316,0.0012992886305296,-0.0012992819365823,0.001299289884271,-0.001299284062683,0.0012992877581711,-0.0012992811180867,0.0012992890657319,-0.0010234214319682,0.0010234265923547,-0.0010234200959534,0.0010234252562904,0.77567308772675,125301,3014,0.0041144018953231,0.0041144018953143,0.0041144018953551,29.316142638731,0.00014972914110985,0.00014972914110985,0.00014972914110985,3079339.6676696,0.012421461484635
33919200,0.99998917073052,0.015122748974503,0.0050409163248264,0.0050409163248199,0.0050409163248563,-0.00098913199494519,0.00098913439383201,7.3796727107702e-10,7.3797077976395e-10,5.1783995440368e-10,6.9590800140001e-10,-0.001302229875842,0.0013022337957767,-0.0013022291390534,0.0013022330589698,-0.0013022291553814,0.0013022331798181,-0.0013022284283274,0.0013022324527602,-0.0010232426073587,0.0010232438542399,-0.0010232438884469,0.0010232451353548,5.1784108900648e-10,6.9596275711881e-10,3.8478135796179e-09,-2.3718055763333e-09,-0.00098913199490942,0.00098913439386366,-0.0013022288130199,0.0013022348222402,-0.0013022302017994,0.0013022320325554,-0.0013022280974202,0.0013022342111777,-0.0013022294861753,0.0013022314214876,-0.0010232395219768,0.0010232468436217,-0.0010232469737387,0.0010232421460705,-0.0010232438032951,0.0010232424437739,-0.0010232451002279,0.001023244117465,1.1515373194136e-09,1.1515407106629e-09,-0.00098913158560933,0.00098913480318305,-2.017087438628e-09,4.2396738580356e-09,-0.0013022305945885,0.0013022331976578,-0.0013022277075346,0.0013022345389511,-0.0013022298217135,0.0013022324247729,-0.0013022269847229,0.0013022338160961,-0.001023242464543,0.0010232465853557,-0.0010232411299622,0.0010232452507253,0.76303060755972,125301,3014,0.0041137764448243,0.0041137764448157,0.004113776444856,30.069974333419,0.00015575979466735,0.00015575979466735,0.00015575979466735,2992656.8829714,0.012419611958786
34419200,0.99999133699747,0.015122785217637,0.0050409284058712,0.0050409284058647,0.0050409284059012,-0.00099140814798251,0.00099140918365403,2.2147941974987e-10,2.2148290105529e-10,1.6179944287338e-11,1.8195318730797e-10,-0.001304025399799,0.0013040281406322,-0.0013040247681694,0.0013040275089842,-0.0013040247774503,0.0013040276231104,-0.0013040241541122,0.0013040269997686,-0.0010256417683051,0.0010256419041581,-0.0010256430444912,0.0010256431803706,1.6181137258117e-11,1.8200794096249e-10,3.2476747815386e-09,-2.8046424112954e-09,-0.00099140814794664,0.00099140918368564,-0.0013040243710722,0.0013040291398795,-0.0013040257968198,0.0013040265097857,-0.001304023752863,0.0013040286265325,-0.0013040251785862,0.0013040259964334,-0.0010256387682154,0.0010256448174155,-0.0010256460444908,0.0010256402672109,-0.0010256429289895,0.001025640539484,-0.0010256442182917,0.0010256421902426,6.297580277363e-10,6.2976137689869e-10,-0.00099140774397604,0.00099140958767569,-2.4422911227415e-09,3.6365375329511e-09,-0.0013040260888993,0.001304027564078,-0.0013040233692338,0.0013040289504298,-0.0013040254222477,0.0013040268974166,-0.0013040227493384,0.0013040283304911,-0.0010256416548482,0.0010256445967672,-0.0010256403272886,0.0010256432691577,0.72790058071018,125301,3014,0.0041232135629732,0.0041232135629644,0.004123213563005,31.479763041336,0.00016703810433069,0.00016703810433069,0.00016703810433069,2987341.2826211,0.012448263938101
34919200,0.9999932437542,0.01512281847271,0.0050409394908956,0.0050409394908891,0.0050409394909256,-0.00099588035030481,0.00099587993557903,-3.2830926108332e-10,-3.2830581351217e-10,-5.1693303053605e-10,-3.6511075217597e-10,-0.0013072475743694,0.0013072490515213,-0.001307247055642,0.0013072485327755,-0.0013072470573547,0.0013072486393882,-0.0013072465455346,0.0013072481275643,-0.0010300306333277,0.0010300295870811,-0.0010300319026288,0.0010300308564086,-5.1693172872383e-10,-3.6505599267971e-10,2.5475502250402e-09,-3.2040951112615e-09,-0.00099588035026887,0.00099587993561071,-0.0013072466016599,0.0013072500013586,-0.0013072480282749,0.0013072475829873,-0.0013072460880925,0.0013072495927081,-0.0013072475146833,0.0013072471743315,-0.0010300277837005,0.0010300323585549,-0.0010300347521659,0.0010300280850324,-0.0010300317356261,0.0010300282927604,-0.0010300330154383,0.0010300299160752,6.8233873119661e-11,6.8237192547666e-11,-0.00099587995806817,0.00099588032783093,-2.8410468009263e-09,2.9267942629296e-09,-0.0013072482171884,0.0013072485120366,-0.0013072457172464,0.0013072499072748,-0.0013072476648418,0.0013072479596802,-0.0013072452080027,0.0013072493979878,-0.001030030575597,0.0010300322107815,-0.001030029257467,0.0010300308926018,0.75808686568767,125301,3014,0.0041417563137494,0.0041417563137406,0.0041417563137813,33.573327316335,0.00018378661853068,0.00018378661853068,0.00018378661853068,3001278.2929132,0.01250456833423
35419200,0.99999489229339,0.015122843971154,0.0050409479903767,0.0050409479903702,0.0050409479904067,-0.0010000012041824,0.0010000002140199,-5.4616361610584e-10,-5.4616015688799e-10,-7.2824077465598e-10,-5.8168294767641e-10,-0.0013123840065671,0.001312384987413,-0.0013123835309573,0.0013123845117842,-0.0013123835299755,0.001312384615841,-0.0013123830612572,0.0013123841471191,-0.0010341018816867,0.0010341003668836,-0.0010341031477318,0.0010341016329557,-7.2824003555893e-10,-5.8162768036479e-10,2.1478705793287e-09,-3.240123870152e-09,-0.0010000012041463,0.0010000002140516,-0.0013123830945567,0.0013123858766416,-0.0013123844428912,0.0013123836226042,-0.0013123826214041,0.0013123855085451,-0.0013123839697139,0.0013123832545021,-0.0010340992102839,0.0010341029606648,-0.0010341058190435,0.0010340990392721,-0.0010341029212038,0.0010340991415826,-0.0010341041955227,0.0010341007528151,-1.6919556116234e-10,-1.6919220138262e-10,-0.0010000008314965,0.0010000005867212,-2.8964752508458e-09,2.5077186551665e-09,-0.00131238460486,0.0013123844882148,-0.0013123822703846,0.001312385806547,-0.0013123840967941,0.0013123839801386,-0.0013123818039825,0.0013123853401018,-0.0010341019003294,0.0010341029075188,-0.0010341005868691,0.0010341015940094,0.67379056419233,125301,3014,0.0041588621100111,0.004158862110002,0.0041588621100431,35.929370695209,0.00020263496556167,0.00020263496556167,0.00020263496556167,2957649.7835665,0.012556545066216
35919200,0.99999622568532,0.015122866127156,0.005040955375711,0.0050409553757045,0.0050409553757409,-0.001004470018384,0.0010044705360025,2.3420426727922e-11,2.3423801624821e-11,-1.7611983327763e-10,-1.5268436736209e-11,-0.0013139358024706,0.0013139380813136,-0.0013139352112167,0.0013139374900412,-0.0013139352186769,0.0013139376022854,-0.0013139346363403,0.0013139370199449,-0.0010384875569016,0.0010384872713971,-0.001038488823829,0.0010384885383506,-1.7611889757324e-10,-1.521306981366e-11,2.6593907843589e-09,-2.6124761580557e-09,-0.001004470018348,0.0010044705360342,-0.0013139349008702,0.001313938950339,-0.0013139361127405,0.0013139366210646,-0.0013139343215285,0.0013139384757987,-0.0013139355333747,0.001313936146519,-0.0010384849375018,0.0010384898000075,-0.0010384914431381,0.0010384860098385,-0.0010384885862829,0.0010384860438782,-0.0010384898646585,0.0010384876774668,3.9955683913636e-10,3.9956013280045e-10,-0.0010044696466185,0.0010044709077833,-2.2879553573138e-09,3.0149523271142e-09,-0.0013139363906785,0.0013139376012207,-0.00131393397081,0.0013139387720595,-0.001313935766169,0.0013139369767014,-0.0013139333917766,0.0013139381929827,-0.0010384875946009,0.0010384897934038,-0.0010384862779163,0.0010384884766697,0.72183945217264,125301,3014,0.0041773835421805,0.0041773835421717,0.0041773835422125,37.536299913037,0.00021549039930429,0.00021549039930429,0.00021549039930429,3018748.6902896,0.012612765670884
36419200,0.99999720904399,0.015122882037307,0.0050409606790944,0.0050409606790879,0.0050409606791244,-0.0010035373132736,0.0010035413196733,1.3474283440184e-09,1.3474317905308e-09,1.1083922743916e-09,1.3022791684712e-09,-0.0013150710888873,0.0013150764044193,-0.0013150702273832,0.0013150755428968,-0.0013150702531853,0.0013150756733108,-0.0013150694045394,0.0013150748246612,-0.0010375046619983,0.0010375072230172,-0.0010375059433218,0.001037508504367,1.1083931649662e-09,1.3023342118191e-09,4.1367330531976e-09,-1.4418028922136e-09,-0.0010035373132377,0.0010035413197049,-0.0013150701191537,0.0013150773227345,-0.0013150711970406,0.0013150746246305,-0.0013150692898742,0.0013150765980842,-0.0013150703677369,0.001315073899975,-0.0010375018833683,0.0010375098861601,-0.0010375087218617,0.0010375058413218,-0.0010375057630921,0.0010375058966105,-0.0010375070615674,0.001037507592634,1.7349847295839e-09,1.7349880817168e-09,-0.0010035369301052,0.0010035417028569,-1.1413425452246e-09,4.4975632933669e-09,-0.001315071735473,0.0013150758869658,-0.0013150689256167,0.0013150769021903,-0.0013150708381624,0.0013150749896453,-0.0013150680824042,0.0013150760589345,-0.0010375046485902,0.0010375098230547,-0.0010375033118898,0.0010375084863046,0.70447270805608,125301,3014,0.0041735373018698,0.0041735373018611,0.0041735373019017,37.488410552099,0.00021510728441679,0.00021510728441679,0.00021510728441679,2966593.0877629,0.012601115772665
36919200,0.9999979174626,0.01512289257429,0.0050409641914222,0.0050409641914157,0.0050409641914522,-0.0010020865953952,0.001002091839482,1.8173434995212e-09,1.8173469224461e-09,1.5629046499828e-09,1.7695610813001e-09,-0.0013132891880494,0.0013132955875194,-0.0013132882306244,0.001313294630076,-0.0013132882629704,0.0013132947672454,-0.0013132873193546,0.0013132938236259,-0.0010361638719006,0.0010361674418818,-0.0010361651606334,0.0010361687306409,1.5629056559232e-09,1.7696160864175e-09,4.8027517004487e-09,-1.167991194233e-09,-0.0010020865953593,0.0010020918395137,-0.0013132881488661,0.0013132965707101,-0.0013132892697313,0.0013132936469341,-0.0013132872306853,0.0013132957573698,-0.0013132883515261,0.0013132928335885,-0.0010361608987287,0.0010361702930386,-0.001036168133715,0.0010361658795817,-0.0010361650456334,0.0010361660306919,-0.0010361663545009,0.0010361677540472,2.2252317039048e-09,2.2252350339207e-09,-0.0010020861919467,0.0010020922429458,-8.5595675262347e-10,5.1823039806413e-09,-0.0013132898871633,0.0013132950262462,-0.0013132868454648,0.0013132960782379,-0.0013132888923152,0.0013132940313883,-0.0013132859080144,0.0013132951407441,-0.0010361637800679,0.0010361701349248,-0.0010361624332669,0.0010361687880741,0.64727478642576,125301,3014,0.0041675175563067,0.0041675175562978,0.0041675175563385,36.861660018852,0.00021009328015081,0.00021009328015081,0.00021009328015081,2975194.2932517,0.012582822597631
37419200,0.99999846421922,0.01512290080251,0.0050409669341621,0.0050409669341556,0.005040966934192,-0.0010046869560034,0.0010046891980463,6.7838227368132e-10,6.783856612543e-10,4.577961602592e-10,6.3609499777857e-10,-0.001314058731783,0.0013140625259344,-0.0013140580062095,0.0013140618003425,-0.0013140580224275,0.0013140619215804,-0.0013140573067616,0.0013140612059108,-0.0010386676267358,0.0010386687452427,-0.0010386689085405,0.0010386700270736,4.5779730399008e-10,6.3614996048736e-10,3.6754999221791e-09,-2.3186617254406e-09,-0.0010046869559674,0.001004689198078,-0.0013140577055421,0.0013140635148313,-0.0013140590323738,0.0013140608114946,-0.0013140570011339,0.0013140629154602,-0.0013140583279414,0.0013140602121182,-0.0010386646509715,0.0010386716230665,-0.0010386718842145,0.0010386671493477,-0.0010386687859632,0.0010386673706326,-0.0010386700837529,0.0010386690466727,1.0908815706404e-09,1.0908848546871e-09,-0.001004686547957,0.001004689606108,-1.9670239579595e-09,4.0656883083512e-09,-0.0013140594144513,0.001314061963687,-0.0013140566131775,0.001314063242092,-0.0013140586530222,0.0013140612022481,-0.0013140559017546,0.0013140625306259,-0.0010386675230008,0.0010386714385741,-0.0010386661874949,0.0010386701030187,0.65462458225499,125301,3014,0.0041782859266318,0.004178285926623,0.0041782859266638,37.673961257327,0.00021659169005861,0.00021659169005861,0.00021659169005861,3016901.9647274,0.012615509348161
37919200,0.99999886747122,0.015122906453083,0.0050409688176865,0.00504096881768,0.0050409688177165,-0.0010045893254707,0.0010045929926277,1.2163836191977e-09,1.2163870311523e-09,9.756168573247e-10,1.180994028649e-09,-0.0013145040384732,0.00131450906961,-0.0013145033131558,0.0013145083442741,-0.0013145033194699,0.0013145084750934,-0.0013145026040659,0.0013145077596855,-0.0010385633591341,0.0010385657171874,-0.0010385646416824,0.0010385669997618,9.7561797940052e-10,1.181048965195e-09,4.2135000911171e-09,-1.7806592977425e-09,-0.0010045893254348,0.0010045929926594,-0.0013145030122464,0.0013145100584929,-0.001314504339306,0.0013145073554401,-0.0013145022981934,0.0013145094689621,-0.0013145036252287,0.001314506765904,-0.0010385603834483,0.0010385685951168,-0.0010385676172779,0.0010385641219301,-0.0010385645380857,0.0010385643231776,-0.0010385658138803,0.0010385660221399,1.6265761535386e-09,1.6265794631433e-09,-0.0010045889196822,0.0010045933984315,-1.4520054715384e-09,4.6083461577764e-09,-0.0013145047232158,0.001314508505101,-0.0013145019123969,0.0013145097936114,-0.0013145039620669,0.0013145077439422,-0.0013145012012156,0.0013145090823867,-0.0010385632583442,0.0010385684090415,-0.001038561922168,0.0010385670728157,0.61069305856359,125301,3014,0.0041778869096267,0.0041778869096179,0.0041778869096587,37.676476874262,0.0002166118149941,0.0002166118149941,0.0002166118149941,2997843.3158168,0.012614307763571
38419200,0.99999915900511,0.015122911128179,0.0050409703760518,0.0050409703760453,0.0050409703760818,-0.0010045563716798,0.001004561155012,1.644796821292e-09,1.6448002036593e-09,1.3937787477219e-09,1.6066158664734e-09,-0.0013135684848644,0.0013135745030146,-0.0013135676698439,0.0013135736879757,-0.0013135676826118,0.001313573823178,-0.0013135668787608,0.0013135730193231,-0.0010384079714743,0.0010384112917205,-0.0010384091970022,0.0010384125172745,1.3937796196508e-09,1.6066705386708e-09,4.6551826623522e-09,-1.3655160217876e-09,-0.0010045563716443,0.0010045611550434,-0.0013135674490937,0.0013135754955652,-0.0013135687055386,0.0013135726954731,-0.0013135666524197,0.0013135748213426,-0.0013135679088403,0.0013135720212452,-0.0010384049802693,0.0010384141793277,-0.0010384121881176,0.0010384096297645,-0.0010384091593325,0.0010384098828266,-0.0010384103798872,0.001038411534863,2.059038509081e-09,2.0590417887162e-09,-0.0010045559619037,0.0010045615648035,-1.0422364831262e-09,5.0511176612492e-09,-0.0013135691753086,0.0013135739389021,-0.0013135662621994,0.0013135751489539,-0.0013135683237856,0.0013135730873691,-0.0013135654632259,0.001313574349937,-0.0010384078042732,0.0010384139345518,-0.0010384065231977,0.0010384126534269,0.69725492786589,125301,3014,0.004177749145843,0.0041777491458345,0.0041777491458752,37.197998777961,0.00021278399022369,0.00021278399022369,0.00021278399022369,3042393.2796549,0.012613876602876
38880000,0.99999936259195,0.015122914515642,0.0050409715052062,0.0050409715051997,0.0050409715052361,-0.0010026479412676,0.0010026519399633,1.3530414228662e-09,1.3531765867959e-09,1.1160887066826e-09,1.3090641928698e-09,-0.0013144668251214,0.0013144721266911,-0.0013144659565983,0.0013144712585337,-0.0013144659814232,0.0013144713873529,-0.0013144651249202,0.0013144705315408,-0.0010367359832884,0.0010367385734236,-0.001036737218204,0.0010367398094744,1.1186901842488e-09,1.3116123846401e-09,4.3863713630588e-09,-1.6730072187631e-09,-0.0010026479401894,0.0010026519434251,-0.0013144657765306,0.0013144731271124,-0.0013144670021615,0.0013144702638073,-0.0013144649408506,0.0013144723942554,-0.0013144661642362,0.0013144695287382,-0.0010367329709234,0.001036741482766,-0.0010367402290796,0.0010367369105368,-0.0010367371624543,0.0010367371763292,-0.001036738414991,0.0010367388231599,1.7652336849991e-09,1.7652418459851e-09,-0.0010026475327043,0.0010026523442486,-1.342973867482e-09,4.7697389041476e-09,-0.0013144675259673,0.0013144715512651,-0.0013144645528014,0.0013144727145145,-0.0013144666230698,0.0013144706464828,-0.0013144637006439,0.0013144718627505,-0.0010367358196983,0.0010367412296898,-0.0010367345281035,0.0010367399371561,0.72416034322618,125301,3014,0.0041698453043085,0.0041698453092514,0.0041698452954509,37.193675266849,0.00021274940213479,0.00021274940213479,0.00021274940213479,2941802.29422,0.012589907250886
