time,ASR_ext,ASR_strain,ASR_strain_xx,ASR_strain_yy,ASR_strain_zz,disp_x_101,disp_x_102,disp_x_103,disp_x_104,disp_x_105,disp_x_106,disp_x_p1_neg,disp_x_p1_pos,disp_x_p2_neg,disp_x_p2_pos,disp_x_p3_neg,disp_x_p3_pos,disp_x_p4_neg,disp_x_p4_pos,disp_x_p5_neg,disp_x_p5_pos,disp_x_p6_neg,disp_x_p6_pos,disp_y_101,disp_y_102,disp_y_103,disp_y_104,disp_y_105,disp_y_106,disp_y_p1_neg,disp_y_p1_pos,disp_y_p2_neg,disp_y_p2_pos,disp_y_p3_neg,disp_y_p3_pos,disp_y_p4_neg,disp_y_p4_pos,disp_y_p5_neg,disp_y_p5_pos,disp_y_p6_neg,disp_y_p6_pos,disp_y_p7_neg,disp_y_p7_pos,disp_y_p8_neg,disp_y_p8_pos,disp_z_101,disp_z_102,disp_z_103,disp_z_104,disp_z_105,disp_z_106,disp_z_p1_neg,disp_z_p1_pos,disp_z_p2_neg,disp_z_p2_pos,disp_z_p3_neg,disp_z_p3_pos,disp_z_p4_neg,disp_z_p4_pos,disp_z_p5_neg,disp_z_p5_pos,disp_z_p6_neg,disp_z_p6_pos,humidity,ndof,nelem,strain_xx,strain_yy,strain_zz,temp,thermal_strain_xx,thermal_strain_yy,thermal_strain_zz,vonmises,vstrain
2419200,0,0,0,0,0,0,0,0,0,0,0,0,0,0,0,0,0,0,0,0,0,0,0,0,0,0,0,0,0,0,0,0,0,0,0,0,0,0,0,0,0,0,0,0,0,0,0,0,0,0,0,0,0,0,0,0,0,0,0,0,0,0,0,0,0,0,0,0,0,0,0,0,0,0,0
3419200,0.15883388282749,0.0030071891066613,0.0010023963688871,0.0010023963688871,0.0010023963688871,-0.00026709537866353,0.00026708617289098,-3.4840471867647e-09,-3.4840470578569e-09,-3.377049197921e-09,-3.4614710305537e-09,-0.00027586317603802,0.00027585545004873,-0.00027586393439398,0.00027585620840883,-0.00027586387123484,0.00027585614967495,-0.00027586461571618,0.00027585689413744,-0.00026920622024461,0.00026919884792224,-0.00026920669738663,0.00026919932505833,-3.377044746347e-09,-3.4614653405253e-09,-3.9380877938192e-09,-3.029999216996e-09,-0.00026709537865887,0.00026708617289128,-0.00027586337764395,0.00027585531021712,-0.0002758637327771,0.00027585634824466,-0.00027586406591118,0.00027585600289188,-0.00027586442103883,0.00027585704090707,-0.00026920670023032,0.00026919845334783,-0.00026920621739416,0.00026919971960757,-0.00026920602949814,0.00026919913663238,-0.00026920646131231,0.00026919946753444,-3.5653084169075e-09,-3.5653085257425e-09,-0.0002670954602838,0.00026708609127078,-3.0178634009182e-09,-3.9987244953733e-09,-0.00027586304929384,0.00027585550564811,-0.0002758641559422,0.00027585593461551,-0.00027586381709252,0.00027585627344407,-0.0002758648924737,0.00027585667113681,-0.00026920694056957,0.00026919909208295,-0.00026920648212998,0.00026919863360999,0.75746877217741,125301,3014,0.0011122584023776,0.0011122584023685,0.0011122584023777,31.811013852655,0.00016968811082124,0.00016968811082124,0.00016968811082124,1977328.4155222,0.0033423530387795
4419200,0.34871486503407,0.0063293896924864,0.0021097965641719,0.0021097965641394,0.0021097965641751,-0.00051764332779761,0.00051762170293785,-9.0645547761179e-09,-9.0645509976304e-09,-8.626142553803e-09,-8.9840949540587e-09,-0.00055688473755606,0.00055686459059866,-0.00055688768484909,0.00055686753788351,-0.00055688758949449,0.00055686729275867,-0.00055689048112933,0.00055687018435513,-0.00052630467051328,0.00052628592404098,-0.00052630657516059,0.00052628782871429,-8.6261324203235e-09,-8.9840831419738e-09,-1.013524405865e-08,-7.9938473382273e-09,-0.00051764332778462,0.00051762170293589,-0.00055688523115441,0.00055686428501866,-0.00055688719119857,0.00055686784345562,-0.00055688805525423,0.00055686695930559,-0.00055689001534875,0.00055687051780713,-0.00052630587242734,0.00052628506005229,-0.00052630537320028,0.00052628869267611,-0.00052630409703533,0.00052628687514078,-0.00052630589394562,0.0005262881448252,-9.2863408620287e-09,-9.2863372849615e-09,-0.00051764355054778,0.00051762148019046,-7.8266090850457e-09,-1.0281780362337e-08,-0.00055688445226896,0.00055686466374642,-0.00055688829856942,0.00055686678776319,-0.00055688743742617,0.00055686764887538,-0.00055689116041638,0.00055686964956735,-0.00052630718784961,0.00052628724810917,-0.00052630537453728,0.00052628543476016,0.73992840791513,125301,3014,0.0021544929967484,0.0021544929967173,0.0021544929967541,33.601078942278,0.00018400863153822,0.00018400863153822,0.00018400863153822,3662354.5920314,0.0064844625091148
5419200,0.54805223772399,0.0095826648645421,0.0031942216215255,0.0031942216214945,0.0031942216215221,-0.00075745805494422,0.00075745719419287,2.2370529536855e-10,2.2370446730561e-10,5.3659086329687e-10,2.5403083007663e-10,-0.00084996343852818,0.00084996310592168,-0.00084996392812619,0.00084996359547633,-0.00084996412866344,0.00084996343202826,-0.0008499645913775,0.00084996389470944,-0.00077515744549462,0.00077515742170514,-0.0007751565536502,0.00077515652987221,5.3659679373771e-10,2.5403714597008e-10,6.367004610029e-10,-1.892791456572e-10,-0.00075745805493155,0.00075745719419055,-0.00084996328748566,0.00084996326843381,-0.00084996407911724,0.00084996343294336,-0.00084996396416976,0.00084996358107976,-0.00084996475583173,0.0008499637456739,-0.00077515714690001,0.00077515793280681,-0.00077515685218763,0.00077515601874293,-0.00077515734597063,0.0007751577371606,-0.00077515650623304,0.00077515635939309,2.8730747180689e-10,2.8730678371027e-10,-0.00075745798907673,0.00075745726005926,1.6725495044666e-10,7.3303918959711e-10,-0.00084996353540298,0.00084996300878532,-0.00084996388672066,0.00084996366860966,-0.00084996404098778,0.00084996351433697,-0.00084996433909038,0.00084996412093743,-0.00077515635830657,0.000775156727156,-0.00077515731931662,0.00077515768813872,0.72499638738019,125301,3014,0.0031511797058436,0.0031511797058125,0.0031511797058413,36.269898500092,0.00020535918800074,0.00020535918800074,0.00020535918800074,4701653.695309,0.0094985718275941
6419200,0.70454336924478,0.011606232029725,0.0038687440099193,0.0038687440098867,0.003868744009919,-0.0008911498118802,0.00089114727539725,-9.3937310691404e-10,-9.3937633575658e-10,-8.2595678295489e-10,-9.3225361960067e-10,-0.0010393456833126,0.0010393436003139,-0.0010393458931968,0.0010393438101414,-0.0010393460828574,0.0010393438015785,-0.0010393462979175,0.0010393440165613,-0.00090968253784604,0.00090968077756672,-0.00090968235185466,0.00090968059158844,-8.2595140794159e-10,-9.3223578672633e-10,-1.9139320195141e-10,-1.6873316701635e-09,-0.0008911498118606,0.0008911472754011,-0.0010393453796018,0.0010393438357885,-0.0010393461968407,0.0010393435746612,-0.0010393457817137,0.0010393440395888,-0.0010393465990106,0.0010393437785721,-0.00090968184620426,0.00090968154264255,-0.0009096830434287,0.0009096798264812,-0.00090968270388407,0.00090968065364675,-0.0009096825432596,0.0009096803473968,-7.5474361539475e-10,-7.5474669080079e-10,-0.00089114962498093,0.00089114746229593,-1.3678132075689e-09,6.7182343213766e-12,-0.0010393458270599,0.0010393435618779,-0.0010393455759786,0.0010393442090232,-0.001039346025113,0.0010393437598805,-0.0010393457970136,0.0010393444299855,-0.00090968192013877,0.00090968101798474,-0.00090968210827749,0.00090968120609516,0.59839168540088,125301,3014,0.0037064383215658,0.003706438321533,0.0037064383215646,36.738986260569,0.00020911189008455,0.00020911189008455,0.00020911189008455,4977139.0091139,0.011181776292629
7419200,0.83062809652637,0.01301955768085,0.0043398525602936,0.0043398525602625,0.0043398525602939,-0.00097965957463189,0.00097965681982539,-8.9492980556757e-10,-8.949333640471e-10,-8.0637862873053e-10,-8.8689860351822e-10,-0.0011718331368223,0.0011718310415151,-0.001171833344333,0.0011718312489705,-0.0011718335241319,0.0011718312502414,-0.0011718337349274,0.0011718314609625,-0.00099874594814961,0.00099874422752545,-0.00099874577530695,0.00099874405470833,-8.0637131170139e-10,-8.8687896176716e-10,1.3096870460811e-10,-1.9208054053755e-09,-0.00097965957461158,0.00097965681983177,-0.0011718327425587,0.0011718313720163,-0.0011718337385261,0.0011718309184694,-0.0011718331314922,0.0011718315823358,-0.0011718341275139,0.0011718311288944,-0.00099874498178746,0.00099874526348287,-0.00099874674160152,0.00099874301873049,-0.00099874622392887,0.00099874397540314,-0.00099874607155637,0.0009987437221162,-6.7954001190145e-10,-6.795434513552e-10,-0.00097965935809086,0.00097965703636661,-1.5747090876448e-09,3.6289041877033e-10,-0.0011718333506032,0.0011718309406787,-0.0011718329018744,0.0011718317719641,-0.0011718335419035,0.0011718311319293,-0.0011718331164941,0.0011718319865108,-0.00099874522244349,0.00099874460298214,-0.00099874539526631,0.00099874477576806,0.52694121020036,125301,3014,0.0040739223415161,0.0040739223414872,0.0040739223415166,40.765796231726,0.00024132636985381,0.00024132636985381,0.00024132636985381,5009760.2388496,0.012297382329058
8419200,0.90691088537748,0.013785349139817,0.004595116379949,0.004595116379919,0.0045951163799494,-0.0010122450599136,0.0010122452404094,2.0587158361738e-10,2.0586657221165e-10,2.502903554191e-10,2.0830363074648e-10,-0.0012344880552316,0.0012344884953851,-0.0012344880518809,0.0012344884919803,-0.0012344882409036,0.001234488512951,-0.0012344882432414,0.0012344885152144,-0.0010331335484925,0.0010331342011206,-0.0010331334029255,0.00103313405558,2.502991141496e-10,2.0832738983499e-10,1.6221920317871e-09,-1.2104218870756e-09,-0.0010122450598907,0.0010122452404185,-0.0012344875202863,0.0012344889549754,-0.001234488586751,0.0012344880323956,-0.0012344877087866,0.0012344889753386,-0.0012344887753014,0.0012344880528602,-0.0010331321928745,0.001033135608186,-0.0010331347584702,0.0010331326485016,-0.0010331339804743,0.001033133761849,-0.0010331338560822,0.0010331335948943,4.6100259351074e-10,4.6099769783677e-10,-0.0010122448044961,0.0010122454958272,-8.507150275928e-10,1.8901696761286e-09,-0.0012344883782833,0.0012344883060523,-0.0012344874420082,0.0012344891940879,-0.0012344883541852,0.0012344882819041,-0.0012344874491598,0.001234489201167,-0.0010331326804892,0.0010331347733824,-0.001033132818544,0.0010331349113996,0.47156008474719,125301,3014,0.0042092479228296,0.0042092479228009,0.0042092479228302,41.433976961178,0.00024667181568942,0.00024667181568942,0.00024667181568942,4779183.7983145,0.012708633340238
9419200,0.94918800922406,0.014154164732844,0.0047180549109576,0.0047180549109279,0.0047180549109581,-0.0010186070402318,0.0010186085768733,7.2310915118826e-10,7.231036519445e-10,7.4576381279508e-10,7.2336348888901e-10,-0.0012592277145889,0.0012592293751093,-0.001259227601002,0.001259229261469,-0.0012592277923106,0.0012592292906398,-0.0012592276845785,0.0012592291828329,-0.001040944272527,0.0010409460392748,-0.0010409441596089,0.0010409459263844,7.4577160705485e-10,7.2338782709219e-10,2.5377821819743e-09,-1.091537460076e-09,-0.0010186070402091,0.0010186085768826,-0.0012592270455163,0.0012592299679111,-0.0012592282700005,0.0012592286686723,-0.0012592271261502,0.0012592298863245,-0.0012592283506814,0.001259228587183,-0.0010409425264625,0.0010409478348789,-0.0010409459056,0.0010409441307682,-0.0010409448515119,0.0010409454394099,-0.0010409447565944,0.0010409453334409,1.0163810517565e-09,1.0163756129815e-09,-0.0010186067473092,0.0010186088697965,-6.9985846453961e-10,2.8436693892051e-09,-0.0012592281413812,0.0012592290913779,-0.0012592268232709,0.001259230135201,-0.0012592280042592,0.001259228954206,-0.0012592267205193,0.0012592300323771,-0.001040943268251,0.0010409468146255,-0.0010409433692722,0.0010409469156068,0.40621133923259,125301,3014,0.0042357229550825,0.0042357229550547,0.0042357229550837,41.145129791557,0.00024436103833246,0.00024436103833246,0.00024436103833246,4509177.177334,0.01278921458575
10419200,0.970345703745,0.014355707071708,0.004785235690579,0.0047852356905494,0.0047852356905795,-0.0010155006084427,0.0010155051215472,1.8640169067689e-09,1.8640112000021e-09,1.8462436059957e-09,1.8582741157955e-09,-0.0012653113652344,0.0012653156638578,-0.0012653110157712,0.0012653153143412,-0.0012653112212791,0.0012653153614871,-0.0012653108799467,0.0012653150200801,-0.0010393790429733,0.0010393832523902,-0.0010393789374112,0.0010393831468574,1.8462515937045e-09,1.8582986115673e-09,4.2010260156308e-09,-4.729660558602e-10,-0.00101550060842,0.0010155051215567,-0.0012653105123576,0.0012653164296547,-0.0012653118685731,0.0012653145485499,-0.0012653103724542,0.0012653161313061,-0.0012653117287146,0.0012653142502961,-0.0010393767799192,0.0010393855503387,-0.0010393812003923,0.0010393808488968,-0.0010393798172646,0.0010393824272857,-0.0010393797335602,0.001039382381371,2.2147458923862e-09,2.2147402850575e-09,-0.0010155002585306,0.0010155054714598,-4.5336726494126e-11,4.5609568205617e-09,-0.0012653119280078,0.00126531526616,-0.0012653100120284,0.0012653164271372,-0.0012653115505283,0.0012653148886308,-0.0012653096772644,0.0012653160923015,-0.0010393778148089,0.0010393842661522,-0.0010393779011355,0.0010393843524383,0.43665130715676,125301,3014,0.0042228781294341,0.0042228781294068,0.0042228781294353,38.096825844039,0.00021997460675231,0.00021997460675231,0.00021997460675231,4369355.8312918,0.012750277390045
11419200,0.98256899597218,0.014464025899741,0.0048213419665901,0.0048213419665606,0.0048213419665906,-0.0010118251495073,0.0010118280850662,1.5839523964592e-09,1.5840051359069e-09,1.6386492553165e-09,1.6309598525019e-09,-0.0012710348738713,0.0012710371447678,-0.0012710350338426,0.0012710373043123,-0.0012710351417594,0.0012710372481998,-0.0012710351749796,0.0012710372811831,-0.0010369215179612,0.0010369258445353,-0.0010369197936458,0.0010369241206359,1.6380897109369e-09,1.6316554071227e-09,3.9538728976634e-08,-3.6370797451972e-08,-0.0010118251493078,0.0010118280850447,-0.0012710227271735,0.0012710498422058,-0.001271047180193,0.0012710246062042,-0.0012710229314319,0.0012710498827548,-0.0012710473843933,0.001271024646995,-0.0010368847933146,0.0010369637047427,-0.0010369565176239,0.0010368862599823,-0.0010369339511105,0.0010369134118627,-0.0010369320883052,0.001036911555227,5.6542708667004e-09,5.654204278117e-09,-0.0010118210780198,0.0010118321563611,-3.1017424927548e-08,4.3878812043441e-08,-0.0012710436331656,0.0012710286959611,-0.0012710188401581,0.0012710534400889,-0.0012710436087081,0.0012710286713689,-0.001271018856588,0.0012710534568457,-0.0010369032510015,0.0010369406377535,-0.001036904898579,0.0010369422856679,0.40445605707229,125301,3014,0.0042076708820745,0.0042076708816281,0.0042076708816874,37.62757640035,0.0002162206112028,0.0002162206112028,0.0002162206112028,4141114.2469149,0.012704174333449
12419200,0.98958079299336,0.014534424340488,0.0048448081135091,0.0048448081134735,0.0048448081135051,-0.0010093210328638,0.0010093240772421,1.5017899120844e-09,1.5018441629858e-09,1.53714910515e-09,1.5340675471277e-09,-0.0012712468365491,0.0012712494260216,-0.0012712469381287,0.0012712495274071,-0.0012712470436756,0.0012712494744426,-0.0012712470197249,0.0012712494503648,-0.0010354256696049,0.0010354295674294,-0.0010354245561812,0.0010354284542415,1.5365524608676e-09,1.5346747291339e-09,3.885485870487e-08,-3.5851314966231e-08,-0.001009321032828,0.0010093240772259,-0.0012712348822784,0.0012712619231465,-0.0012712588925112,0.0012712370297593,-0.0012712350262803,0.0012712619092037,-0.0012712590365684,0.0012712370159933,-0.0010353895029948,0.0010354667815776,-0.0010354607223925,0.0010353912399763,-0.0010354379130921,0.0010354172557152,-0.0010354367285191,0.001035416088789,5.5157851935485e-09,5.5157199237484e-09,-0.0010093170195065,0.0010093280905572,-3.0573555861517e-08,4.3120103319545e-08,-0.0012712554537903,0.0012712411154382,-0.001271231000649,0.0012712654090015,-0.0012712553739626,0.0012712410355986,-0.0012712309598456,0.0012712653682628,-0.0010354082837101,0.0010354447326073,-0.0010354093141081,0.0010354457632233,0.45322610794666,125301,3014,0.0041972893786201,0.004197289378524,0.0041972893785447,36.803249251795,0.00020962599401436,0.00020962599401436,0.00020962599401436,4039893.9784739,0.012672666810975
13419200,0.99349716463224,0.014570452610051,0.0048568175366971,0.004856817536661,0.0048568175366929,-0.0010019255365803,0.0010019294854825,1.6512676454951e-09,1.6513221744764e-09,1.6503259326756e-09,1.6513761473864e-09,-0.0012708469253207,0.0012708506420094,-0.0012708467742674,0.0012708504909255,-0.0012708468975253,0.0012708504549669,-0.0012708466447118,0.0012708502021109,-0.0010286229481841,0.0010286267745806,-0.0010286227331298,0.0010286265596905,1.6499588451382e-09,1.6518605954067e-09,3.3631648506472e-08,-3.0328964612952e-08,-0.0010019255365163,0.001001929485523,-0.001270836659594,0.0012708613372732,-0.0012708570400916,0.0012708397954387,-0.0012708365806479,0.0012708610995914,-0.001270856961182,0.0012708395578526,-0.0010285919242365,0.0010286585511419,-0.0010286537566553,0.0010285947834161,-0.0010286334397283,0.0010286160979206,-0.0010286332913003,0.0010286159726672,4.8792739127665e-09,4.8792090095434e-09,-0.0010019223074052,0.001001932714648,-2.6063755820739e-08,3.704658870338e-08,-0.0012708545287999,0.0012708433186268,-0.0012708333388251,0.0012708639003421,-0.0012708542247074,0.0012708430144476,-0.0012708330723546,0.0012708636337824,-0.0010286090254271,0.0010286403274103,-0.0010286091567091,0.0010286404587769,0.4150894025916,125301,3014,0.0041666508762627,0.0041666508762229,0.0041666508762517,34.792138963681,0.00019353711170945,0.00019353711170945,0.00019353711170945,3929265.0535123,0.012579669281709
14419200,0.9957587367201,0.014589741290393,0.004863247096811,0.0048632470967749,0.0048632470968068,-0.0009964364891839,0.00099644061992184,1.7176489875025e-09,1.7177034388096e-09,1.710795369714e-09,1.7168276484026e-09,-0.0012659352181663,0.0012659391153864,-0.0012659350334273,0.0012659389306172,-0.0012659351664929,0.0012659389055321,-0.0012659348929911,0.001265938631988,-0.0010234498939411,0.0010234538618446,-0.0010234496962646,0.0010234536643319,1.7105254528922e-09,1.7171905939454e-09,2.9731718154744e-08,-2.6296290736412e-08,-0.00099643648913057,0.00099644061995304,-0.0012659262179361,0.0012659484835793,-0.0012659440337059,0.001265929562256,-0.0012659261216805,0.001265948229512,-0.0012659439374864,0.0012659293082842,-0.0010234227223483,0.0010234816980903,-0.0010234768675291,0.0010234258282873,-0.0010234590858292,0.0010234444953495,-0.0010234589517867,0.001023444392695,4.6336530750204e-09,4.6335880896527e-09,-0.00099643357472947,0.00099644353436805,-2.2452801233526e-08,3.2811916680586e-08,-0.0012659418136664,0.0012659327878825,-0.0012659232017168,0.0012659507527288,-0.0012659414901525,0.0012659324642814,-0.0012659229166511,0.0012659504675738,-0.0010234376051369,0.001023465812008,-0.0010234377227436,0.0010234659296992,0.38312450045663,125301,3014,0.0041438744550563,0.004143874455017,0.004143874455046,32.641282072633,0.00017633025658106,0.00017633025658106,0.00017633025658106,3919301.094632,0.01251048619914
15419200,0.99693629859359,0.014603215860312,0.0048677386201175,0.0048677386200815,0.0048677386201133,-0.00098475567846825,0.00098476315853741,2.9953798353198e-09,2.99543426451e-09,2.9476290353534e-09,2.9877940757213e-09,-0.0012548231963355,0.0012548300242124,-0.0012548227348216,0.0012548295626679,-0.0012548228945241,0.0012548295648781,-0.0012548223605846,0.0012548290308963,-0.0010120468527701,0.0010120535595868,-0.0010120466566346,0.001012053363615,2.9474290126556e-09,2.9880684545341e-09,2.7786128925702e-08,-2.1795255751652e-08,-0.00098475567842303,0.00098476315856093,-0.0012548152007811,0.0012548383101719,-0.0012548307303896,0.0012548212765783,-0.0012548148626063,0.0012548378147411,-0.0012548303922507,0.0012548207812426,-0.0010120227983495,0.0010120781742164,-0.001012070710795,0.0010120287491184,-0.0010120550090869,0.001012045217206,-0.0010120548768205,0.0010120451612093,5.6073099150899e-09,5.6072448712535e-09,-0.00098475306941651,0.00098476576758141,-1.8395882802849e-08,3.0535946014178e-08,-0.0012548290376113,0.0012548244594468,-0.0012548122495849,0.001254840068833,-0.0012548284483291,0.0012548238700772,-0.0012548117079664,0.0012548395271253,-0.0010120359225082,0.0010120641457824,-0.0010120360387512,0.00101206426211,0.51103778709309,125301,3014,0.004095412493749,0.0040954124937092,0.0040954124937383,27.063097621573,0.00013170478097258,0.00013170478097258,0.00013170478097258,3935994.5116254,0.01236330256529
16419200,0.99769245691454,0.014611066268841,0.0048703554229603,0.0048703554229243,0.0048703554229561,-0.00097348994786847,0.00097349460782844,1.9098857806828e-09,1.909940431072e-09,1.9040444807481e-09,1.9089795381767e-09,-0.001250871932446,0.0012508762414362,-0.0012508716872591,0.0012508759962199,-0.0012508718374655,0.0012508759866666,-0.0012508715300985,0.001250875679258,-0.0010016060607531,0.001001610453859,-0.0010016059011318,0.0010016102944031,1.9038881104634e-09,1.9091936298624e-09,2.4022393591496e-08,-2.0202521994447e-08,-0.00097348994783066,0.0009734946078454,-0.001250864792489,0.0012508836262964,-0.0012508788272113,0.0012508686112515,-0.0012508646663007,0.0012508833405188,-0.0012508787010583,0.0012508683255685,-0.0010015846023412,0.0010016324111821,-0.0010016273593323,0.001001588337166,-0.0010016133210798,0.0010016030645316,-0.0010016132087375,0.0010016029782824,4.0088541552574e-09,4.0087893240614e-09,-0.00097348784885757,0.00097349670683235,-1.739395233052e-08,2.6246487808005e-08,-0.0012508773585158,0.0012508710499462,-0.0012508625586934,0.0012508851452719,-0.0012508770063054,0.0012508706976492,-0.0012508622440172,0.0012508848305068,-0.0010015965538331,0.0010016196822234,-0.0010015966510301,0.0010016197795034,0.46538451425637,125301,3014,0.0040487062575624,0.0040487062575232,0.0040487062575521,24.415164603522,0.00011052131682817,0.00011052131682817,0.00011052131682817,3746519.1489737,0.012221553153792
17419200,0.99820030004548,0.014617067543426,0.004872355847822,0.004872355847786,0.0048723558478179,-0.00096726350999009,0.00096726798636846,1.8388835846629e-09,1.8389381307318e-09,1.8297784064375e-09,1.8380556075452e-09,-0.0012436448359947,0.0012436490162547,-0.0012436445920182,0.0012436487722486,-0.001243644746524,0.001243648768342,-0.0012436444459981,0.0012436484677744,-0.00099563385885415,0.00099563810161348,-0.0009956337016489,0.00099563794457328,1.8296552250732e-09,1.8382300432292e-09,2.1737390708152e-08,-1.8059529157244e-08,-0.00096726350995519,0.00096726798638289,-0.0012436384080116,0.0012436556620825,-0.0012436510199785,0.0012436421263318,-0.0012436382901721,0.0012436553859534,-0.0012436509021739,0.0012436418502969,-0.00099561455626054,0.00099565786503865,-0.00099565300406125,0.00099561818120502,-0.0009956403928087,0.00099563144259612,-0.00099564027966147,0.0009956313629166,3.8309359503599e-09,3.8308710243434e-09,-0.00096726152031916,0.00096726997603273,-1.5406973098709e-08,2.3843999526638e-08,-0.0012436496353651,0.0012436444467064,-0.0012436362978509,0.0012436570944778,-0.0012436492905315,0.001243644101786,-0.0012436359909783,0.0012436567875165,-0.00099562519169469,0.00099564649364369,-0.00099562528680247,0.0009956465888348,0.52521873377382,125301,3014,0.0040228550575859,0.0040228550575468,0.0040228550575756,21.977342414688,9.1018739317505e-05,9.1018739317505e-05,9.1018739317505e-05,3768834.3857847,0.012143037426215
18419200,0.99851590282907,0.014620645857961,0.0048735486193338,0.0048735486192977,0.0048735486193296,-0.00095428315411258,0.0009542896257837,2.5915034208494e-09,2.5915580572979e-09,2.5636677099171e-09,2.5873755557175e-09,-0.0012344184982798,0.0012344243777277,-0.0012344180969304,0.001234423976349,-0.0012344182658374,0.0012344239856521,-0.0012344178180062,0.0012344235377796,-0.00098315367112542,0.00098315954044574,-0.00098315352345573,0.00098315939294197,2.5635660810598e-09,2.5875218268704e-09,2.0794666536653e-08,-1.5611570893677e-08,-0.000954283154081,0.00095428962579572,-0.0012344125943458,0.0012344304526381,-0.0012344240008319,0.0012344179013611,-0.0012344123385846,0.0012344300373638,-0.0012344237451051,0.0012344174861805,-0.0009831360040507,0.00098317760567976,-0.00098317119037304,0.00098314132774424,-0.00098315966036672,0.00098315342708281,-0.00098315955520703,0.00098315337307883,4.3433221866356e-09,4.3432573214702e-09,-0.00095428140438228,0.00095429137550806,-1.3283203120498e-08,2.2645856766473e-08,-0.0012344229763071,0.0012344201295693,-0.0012344105844586,0.0012344315337815,-0.001234422482527,0.0012344196357025,-0.0012344101325206,0.0012344310817554,-0.0009831458050351,0.00098316714478098,-0.00098314589306083,0.00098316723288971,0.50516361584657,125301,3014,0.003969013881038,0.0039690138810001,0.0039690138810286,17.480808939739,5.504647151791e-05,5.504647151791e-05,5.504647151791e-05,3680648.7653917,0.011979616206618
19419200,0.9987771819783,0.014624501946118,0.0048748339820529,0.0048748339820168,0.0048748339820487,-0.00095306398357233,0.00095306664052019,1.1506626026062e-09,1.1507171451752e-09,1.1764014587577e-09,1.1279427769459e-09,-0.0012328398343701,0.0012328424106808,-0.001232839429024,0.0012328420053055,-0.0012328396250931,0.0012328419893606,-0.0012328391735688,0.0012328415377949,-0.00098210653095605,0.00098210908394306,-0.00098210638159906,0.00098210893475183,1.1763020183819e-09,1.1280870506947e-09,1.9200539603705e-08,-1.6899124699105e-08,-0.00095306398354038,0.00095306664053214,-0.0012328339802789,0.0012328484345542,-0.001232845283081,0.0012328359813562,-0.0012328337478362,0.0012328479901856,-0.0012328450506724,0.001232835537081,-0.00098208901274701,0.00098212699669909,-0.00098212389965052,0.00098209102203063,-0.00098211241778255,0.00098210307291875,-0.00098211237120025,0.00098210295797854,2.9208366177698e-09,2.9207716607542e-09,-0.0009530622164286,0.00095306840765767,-1.4496974246814e-08,2.1049635580847e-08,-0.0012328442449382,0.0012328382304417,-0.0012328319782102,0.0012328495021026,-0.0012328437474425,0.0012328377328595,-0.0012328315227291,0.001232849046533,-0.00098209869675326,0.00098211665315512,-0.00098209878605076,0.00098211674253558,0.6532521555218,125301,3014,0.0039639416330699,0.0039639416330311,0.0039639416330598,17.55154616863,5.5612369349036e-05,5.5612369349036e-05,5.5612369349036e-05,3668164.0077157,0.011964212744867
20419200,0.99900456088229,0.014628095536017,0.0048760318453522,0.0048760318453162,0.0048760318453481,-0.00094917827674001,0.00094917948246923,5.8914270921229e-10,5.8919749339161e-10,6.2298778660664e-10,5.9542594295498e-10,-0.0012354180795986,0.0012354194074371,-0.0012354180775313,0.0012354194053408,-0.0012354182222975,0.0012354193904757,-0.0012354181754234,0.0012354193435603,-0.00097891837707544,0.0009789199416988,-0.00097891826456265,0.00097891982935344,6.2290304334214e-10,5.955502595083e-10,1.6936825295994e-08,-1.5758454293657e-08,-0.00094917827671029,0.00094917948247918,-0.0012354127900335,0.0012354248617085,-0.0012354233670559,0.0012354139510018,-0.0012354129102633,0.0012354248223732,-0.0012354234873194,0.0012354139117589,-0.00097890252165758,0.00097893618511376,-0.0009789341198388,0.00097890358595895,-0.00097892372773015,0.00097891452440655,-0.00097892364214753,0.00097891442424729,2.0791118033557e-09,2.0790470477457e-09,-0.00094917678880025,0.00094918097040278,-1.3698450155868e-08,1.8524133493952e-08,-0.0012354221661133,0.0012354155070883,-0.0012354114209624,0.001235426090668,-0.0012354220853657,0.0012354154262545,-0.0012354113678272,0.0012354260374448,-0.00097891142071089,0.00097892670667757,-0.00097891148662709,0.00097892677267559,0.70012779305905,125301,3014,0.0039478553624198,0.003947855362381,0.0039478553624093,18.596655430301,6.3973243442411e-05,6.3973243442411e-05,6.3973243442411e-05,3472371.8579814,0.011915459791267
21419200,0.99915927624941,0.01463037463039,0.0048767915434769,0.0048767915434409,0.0048767915434727,-0.00093775118879211,0.00093775615936373,2.01107751658e-09,2.0111323089355e-09,1.989282344084e-09,2.0358697566941e-09,-0.0012253187188971,0.00122532332473,-0.001225318718747,0.0012253233245509,-0.0012253188377939,0.0012253233363728,-0.0012253187933563,0.001225323291894,-0.00096823530926456,0.00096824015107616,-0.00096823520495315,0.00096824004693183,1.9891948401809e-09,2.035988636373e-09,1.8228422837604e-08,-1.4206191303079e-08,-0.00093775118876775,0.00093775615936992,-0.0012253134715131,0.0012253287351017,-0.0012253239660988,0.0012253179141028,-0.0012253135682029,0.0012253287246308,-0.0012253240628217,0.001225317903724,-0.00096821957999542,0.00096825626472075,-0.00096825093409227,0.00096822393329888,-0.00096824067194484,0.00096823472315113,-0.0009682405322276,0.00096823469252189,3.4913645995316e-09,3.4912998731266e-09,-0.00093774971104337,0.00093775763710752,-1.221075492701e-08,1.9823005024377e-08,-0.0012253227719386,0.0012253194568751,-0.0012253120905221,0.001225329982388,-0.0012253226940261,0.0012253193788767,-0.0012253120400009,0.0012253299317786,-0.0009682284147678,0.00096824687076003,-0.00096822847244375,0.00096824692851747,0.64990944923707,125301,3014,0.0039004375565247,0.0039004375564891,0.0039004375565167,15.227728957925,3.7021831663397e-05,3.7021831663397e-05,3.7021831663397e-05,3378343.9402117,0.011771536789599
22419200,0.99928733507653,0.014632314270481,0.0048774380901738,0.0048774380901378,0.0048774380901696,-0.00093589557772218,0.00093589862049246,1.2841046772483e-09,1.2841592940798e-09,1.3076820439906e-09,1.27766588914e-09,-0.0012225390174209,0.0012225419610059,-0.0012225387870953,0.0012225417306515,-0.0012225389568695,0.0012225417189171,-0.0012225386851311,0.0012225414471378,-0.00096635149769584,0.00096635462805318,-0.00096635124126511,0.00096635437178947,1.3075995337503e-09,1.2777874254529e-09,1.740344899527e-08,-1.4835154797104e-08,-0.00093589557769317,0.00093589862050222,-0.0012225337905389,0.0012225473374756,-0.0012225440139362,0.0012225363541147,-0.0012225337092177,0.0012225470747088,-0.0012225439326478,0.0012225360914399,-0.00096633585789678,0.00096637063626805,-0.00096636688092569,0.00096633836359263,-0.00096635676959308,0.0009663492754392,-0.00096635656246378,0.00096634903866393,2.8090219977768e-09,2.8089570929948e-09,-0.00093589405678007,0.00093590014142889,-1.2743377042902e-08,1.9009150106924e-08,-0.0012225430087663,0.0012225381702608,-0.0012225321896951,0.0012225483695958,-0.0012225426989362,0.0012225378603447,-0.0012225319134394,0.0012225480932522,-0.00096634443836458,0.00096636120550966,-0.00096634464288118,0.00096636141010772,0.66642562144511,125301,3014,0.003892727710002,0.0038927277099642,0.0038927277099925,14.859239138539,3.407391310831e-05,3.407391310831e-05,3.407391310831e-05,3417975.1598461,0.011748126144734
23419200,0.99940104810271,0.01463393641799,0.0048779788060102,0.0048779788059741,0.004877978806006,-0.0009354859366346,0.00093548758532646,7.6398772311125e-10,7.6404233309001e-10,7.9403485107447e-10,7.6209648796071e-10,-0.0012229934155128,0.001222995109604,-0.0012229932783331,0.0012229949723955,-0.0012229934417317,0.0012229949598155,-0.0012229932624715,0.0012229947805142,-0.00096611701285251,0.00096611889216936,-0.00096611687491763,0.00096611875440124,7.93954295024e-10,7.6221778043546e-10,1.6757759613785e-08,-1.5229697681048e-08,-0.00093548593660441,0.00093548758533707,-0.0012229882324848,0.0012230004445875,-0.0012229984613172,0.0012229896373479,-0.0012229882376006,0.0012230002737864,-0.0012229984664656,0.0012229894666383,-0.00096610149738965,0.00096613477778039,-0.00096613239024023,0.00096610286880876,-0.00096612224209527,0.00096611358454512,-0.00096612215020461,0.00096611346518458,2.2694335044525e-09,2.2693685932002e-09,-0.00093548443540769,0.00093548908654742,-1.3155956049809e-08,1.8349413333386e-08,-0.0012229973817661,0.0012229913398035,-0.0012229867383868,0.0012230015508168,-0.0012229971656209,0.0012229911235721,-0.0012229865540653,0.0012230013664073,-0.0009661101329588,0.00096612552895132,-0.00096611022039092,0.00096612561646518,0.62875729639221,125301,3014,0.0038910235939943,0.0038910235939558,0.0038910235939842,15.70518941338,4.0841515307037e-05,4.0841515307037e-05,4.0841515307037e-05,3360306.2604715,0.011742966580551
24419200,0.99950838856332,0.014635553801538,0.0048785179338594,0.0048785179338234,0.0048785179338552,-0.00093986729690802,0.0009398674429424,1.8381770140716e-10,1.8387223659409e-10,2.266810470055e-10,1.9257723550059e-10,-0.0012267207978939,0.0012267212191653,-0.0012267208770589,0.0012267212983014,-0.0012267210182318,0.001226721281402,-0.0012267210554996,0.0012267213186289,-0.00097038916557341,0.00097038986907869,-0.00097038905942799,0.00097038976309986,2.2660854334923e-10,1.9268702481939e-10,1.4927021842868e-08,-1.4559303403841e-08,-0.00093986729687952,0.00093986744295159,-0.0012267160295733,0.0012267261381166,-0.0012267256453326,0.0012267163792897,-0.0012267162289061,0.0012267261794262,-0.0012267258446977,0.0012267164206907,-0.00097037487461788,0.00097040452717268,-0.00097040335025329,0.00097037510501437,-0.00097039398448335,0.00097038499466169,-0.00097039390124598,0.00097038489121352,1.6017699570273e-09,1.6017049785712e-09,-0.00093986588423569,0.00093986885560907,-1.2594339441252e-08,1.643614246938e-08,-0.0012267244210573,0.0012267177715675,-0.0012267148231302,0.0012267273811269,-0.0012267244269115,0.0012267177773353,-0.0012267148536031,0.0012267274115116,-0.00097038281970615,0.00097039603846086,-0.00097038287916176,0.00097039609799809,0.66255127740754,125301,3014,0.0039091983730703,0.003909198373032,0.0039091983730605,17.880206698032,5.8241653584256e-05,5.8241653584256e-05,5.8241653584256e-05,3370973.296818,0.011798123092874
25419200,0.99960625399152,0.014637292464361,0.0048790974881336,0.0048790974880976,0.0048790974881294,-0.00094188176233352,0.0009418820224968,2.268676183794e-10,2.2692220827054e-10,2.688998839843e-10,2.3605753670723e-10,-0.0012301210502149,0.0012301215688201,-0.0012301211298236,0.0012301216483994,-0.0012301212704652,0.0012301216321753,-0.0012301213089078,0.0012301216705767,-0.00097258744107217,0.00097258824419677,-0.00097258733657535,0.00097258813986669,2.6882905015358e-10,2.3616753732473e-10,1.4860636497251e-08,-1.4406816229449e-08,-0.00094188176230385,0.00094188202250688,-0.0012301163154152,0.0012301264507334,-0.0012301258645739,0.0012301167664285,-0.0012301165150268,0.0012301264935268,-0.001230126064217,0.0012301168093128,-0.00097257325579742,0.00097260279329605,-0.00097260152171816,0.00097257359077747,-0.00097259222530679,0.00097258340611908,-0.00097259214197428,0.00097258330454747,1.6079818236708e-09,1.6079168971837e-09,-0.00094188038617007,0.00094188339865429,-1.248681639933e-08,1.6333364124099e-08,-0.0012301246727104,0.0012301181206415,-0.001230115145172,0.0012301276624541,-0.0012301246798855,0.0012301181277298,-0.0012301151768282,0.0012301276940221,-0.00097258116864109,0.00097259434327249,-0.00097258122680851,0.00097259440152168,0.77991302017261,125301,3014,0.003917564402964,0.0039175644029251,0.0039175644029536,19.925268253779,7.4602146030232e-05,7.4602146030232e-05,7.4602146030232e-05,3292695.045513,0.011823536424831
26419200,0.99968650475844,0.014638810653429,0.0048796035511565,0.0048796035511205,0.0048796035511523,-0.00093873209824806,0.00093873394429777,8.2480122194766e-10,8.248559409525e-10,8.52004841234e-10,8.3101398600492e-10,-0.0012317787846876,0.0012317806613538,-0.0012317787331314,0.0012317806097693,-0.0012317788855792,0.0012317806032348,-0.0012317787995807,0.0012317805171958,-0.00096991182614788,0.00096991391817306,-0.00096991173339412,0.0009699138255872,8.5193877349608e-10,8.3111527775612e-10,1.452049441355e-08,-1.2870810490797e-08,-0.00093873209822059,0.00093873394430613,-0.0012317743358738,0.0012317852264797,-0.0012317831818954,0.001231776044586,-0.0012317744194929,0.0012317851511565,-0.0012317832655461,0.0012317759693534,-0.00096989854290178,0.00096992752341837,-0.00096992501651716,0.0009699002203446,-0.00096991631192976,0.00096990937788514,-0.00096991623966314,0.00096990930057741,2.0628752766646e-09,2.0628104989964e-09,-0.00093873086473687,0.00093873517780343,-1.1146976318407e-08,1.5839011057982e-08,-0.0012317822406405,0.0012317773816239,-0.0012317731902332,0.0012317861945497,-0.0012317821219376,0.0012317772628352,-0.0012317730992728,0.0012317861035018,-0.00096990601263428,0.00096991957741366,-0.00096990606064489,0.00096991962550467,0.82922923068302,125301,3014,0.0039045334466007,0.0039045334465625,0.0039045334465909,20.393820125342,7.8350561002733e-05,7.8350561002733e-05,7.8350561002733e-05,3163507.0129148,0.01178404373945
27419200,0.99975649028594,0.014640006627201,0.0048800022090805,0.0048800022090445,0.0048800022090763,-0.00093913980703745,0.00093914028524986,3.0541039212805e-10,3.0546513427924e-10,3.4706742868123e-10,3.1422298551231e-10,-0.0012337886979609,0.0012337894011014,-0.0012337887488484,0.0012337894519607,-0.0012337888958521,0.0012337894405088,-0.0012337889134985,0.0012337894581148,-0.00097064888468517,0.00097064985701812,-0.00097064880181448,0.00097064977431592,3.4700556471674e-10,3.143188115132e-10,1.3164877413493e-08,-1.2553976106088e-08,-0.0009391398070106,0.00093914028525788,-0.0012337845229663,0.0012337936870386,-0.0012337929237914,0.0012337851659689,-0.0012337847041888,0.0012337937098394,-0.001233793105045,0.0012337851888597,-0.0009706364172601,0.0009706626379777,-0.00097066126912107,0.00097063699335519,-0.00097065308884578,0.00097064561240111,-0.00097065302227086,0.00097064552644555,1.4684612851922e-09,1.4683964980832e-09,-0.00093913864895102,0.00093914144333091,-1.0914394431889e-08,1.4406309483046e-08,-0.0012337919425378,0.0012337863212777,-0.0012337835521122,0.0012337946877388,-0.0012337919305934,0.0012337863092478,-0.0012337835644305,0.0012337946999698,-0.00097064343224272,0.00097065517490271,-0.0009706434735894,0.00097065521632935,0.74718867332313,125301,3014,0.0039062305332928,0.003906230533255,0.0039062305332831,22.251655913015,9.3213247304119e-05,9.3213247304119e-05,9.3213247304119e-05,3084215.0596428,0.011789211779684
28419200,0.99981401238465,0.014641128843626,0.004880376281222,0.004880376281186,0.0048803762812178,-0.00094160901885946,0.00094161015435816,5.5434273082774e-10,5.5439730421938e-10,5.862836224966e-10,5.6177642514524e-10,-0.0012336315529317,0.0012336328294821,-0.0012336315496467,0.0012336328261688,-0.0012336317018475,0.0012336328203997,-0.0012336316678831,0.0012336327863947,-0.00097304380485109,0.00097304531519503,-0.00097304371859931,0.00097304522911061,5.8622514899178e-10,5.6186837524248e-10,1.2691912419347e-08,-1.1583147183941e-08,-0.00094160901883285,0.00094161015436597,-0.0012336276060597,0.0012336368743941,-0.0012336354964652,0.0012336287812044,-0.0012336277395902,0.0012336368499836,-0.0012336356300265,0.0012336287568839,-0.00097303203875659,0.00097305737775342,-0.00097305548457805,0.00097303316654766,-0.00097304777673943,0.00097304129777209,-0.0009730477069936,0.00097304122066703,1.6947293463877e-09,1.6946643968424e-09,-0.00094160788448007,0.00094161128873228,-9.9904809054602e-09,1.3905959960498e-08,-0.0012336345858397,0.0012336299646778,-0.0012336266134405,0.0012336378071647,-0.0012336345209214,0.0012336298996737,-0.0012336265747316,0.0012336377683682,-0.00097303860903494,0.00097305036868492,-0.00097303865259202,0.0009730504123227,0.8493285419621,125301,3014,0.0039164559826581,0.0039164559826202,0.0039164559826485,23.441006551793,0.00010272805241435,0.00010272805241435,0.00010272805241435,3127071.7944758,0.011820216198894
29419200,0.9998607526231,0.014641778275526,0.0048805927585221,0.0048805927584861,0.004880592758518,-0.00094104788812521,0.00094104888244596,4.9919606910863e-10,4.9925076196722e-10,5.3534043483484e-10,5.072674503423e-10,-0.0012367287529174,0.0012367299006056,-0.0012367287610605,0.0012367299087204,-0.0012367289132055,0.0012367299024557,-0.0012367288932144,0.0012367298824243,-0.00097274855686526,0.00097274995030433,-0.00097274848137292,0.00097274987498027,5.3528396582137e-10,5.0735668067152e-10,1.2066526107873e-08,-1.1068054455573e-08,-0.00094104788809893,0.00094104888245353,-0.0012367249860142,0.0012367337538817,-0.0012367325279096,0.0012367260553927,-0.0012367251321911,0.0012367337416751,-0.0012367326741173,0.0012367260432757,-0.00097273734270474,0.00097276144507028,-0.00097275969542003,0.00097273838020851,-0.00097275234058646,0.00097274612983956,-0.00097275227898473,0.00097274605517633,1.5483099748401e-09,1.5482451331445e-09,-0.00094104684463825,0.00094104992592779,-9.5878649731594e-09,1.3185513923601e-08,-0.001236731682333,0.0012367271332258,-0.0012367240961394,0.0012367346199491,-0.0012367316326358,0.0012367270834429,-0.0012367240716093,0.0012367345953321,-0.00097274364884832,0.0009727547360392,-0.00097274368441296,0.00097275477168344,0.60881578646039,125301,3014,0.0039141531290152,0.0039141531289774,0.0039141531290059,24.779924753177,0.00011343939802542,0.00011343939802542,0.00011343939802542,3008212.4036233,0.011813277017967
30419200,0.99989793395786,0.014642216757571,0.0048807389192039,0.0048807389191679,0.0048807389191997,-0.0009483295659382,0.00094833052511049,4.887755192434e-10,4.8882990146441e-10,5.1908339841732e-10,4.9628395982157e-10,-0.0012358495632927,0.0012358506999611,-0.0012358495666457,0.0012358507032854,-0.0012358497207361,0.0012358507006116,-0.001235849696558,0.0012358506763926,-0.00097958240175763,0.00097958376889831,-0.00097958231274392,0.00097958368005115,5.1902849165247e-10,4.9637083234047e-10,1.147879922366e-08,-1.0501169604963e-08,-0.00094832956591212,0.00094833052511773,-0.0012358459834339,0.0012358543617757,-0.0012358531464493,0.0012358470414205,-0.0012358461270687,0.0012358543486692,-0.001235853290115,0.0012358470284039,-0.00097957175211607,0.00097959469358842,-0.00097959296227278,0.00097957275535209,-0.00097958599777245,0.0009795801296994,-0.00097958592316231,0.00097958005213641,1.5707511230138e-09,1.5706858987416e-09,-0.0009483284911699,0.00094833159987378,-8.9969126938165e-09,1.2628683744248e-08,-0.0012358522741704,0.0012358481547275,-0.0012358450637527,0.0012358552549395,-0.0012358522191057,0.0012358480995762,-0.0012358450350884,0.0012358552261867,-0.00097957763908937,0.00097958838221252,-0.00097957768635519,0.00097958842956012,0.51512748248588,125301,3014,0.0039443112604832,0.0039443112604451,0.003944311260474,26.130620489411,0.00012424496391528,0.00012424496391528,0.00012424496391528,3209358.6903946,0.011904719211414
31419200,0.99992803336538,0.014642674266437,0.0048808914221592,0.0048808914221232,0.004880891422155,-0.00095665964395622,0.0009566595979977,1.0753969664785e-10,1.0759401595902e-10,1.5107479265114e-10,1.1703118638053e-10,-0.00124174089068,0.0012417411414794,-0.0012417409698384,0.0012417412206088,-0.0012417411192334,0.0012417412128704,-0.0012417411713532,0.0012417412649493,-0.0009873603032441,0.00098736085023303,-0.00098736020689815,0.0009873607540533,1.5102107044775e-10,1.1711622362277e-10,1.0583544728814e-08,-1.0368387709336e-08,-0.00095665964393058,0.00095665959800464,-0.0012417374792665,0.0012417446320082,-0.0012417443811968,0.0012417377300301,-0.0012417376942583,0.0012417446898875,-0.0012417445962199,0.0012417377879998,-0.00098735015559019,0.0009873712692268,-0.00098737035444156,0.00098735033504884,-0.00098736372328034,0.0009873573988736,-0.00098736363900786,0.00098735729615866,1.1395968593923e-09,1.1395315354762e-09,-0.00095665861897172,0.00095666062297716,-8.9201714176951e-09,1.1682466403244e-08,-0.0012417434732186,0.0012417387161786,-0.0012417366811361,0.0012417455547422,-0.0012417434964975,0.0012417387393708,-0.0012417367282079,0.0012417456017257,-0.00098735575186696,0.00098736523665195,-0.00098735580987976,0.00098736529474735,0.66479676253864,125301,3014,0.0039788652581298,0.0039788652580918,0.0039788652581203,28.438780691912,0.0001427102455353,0.0001427102455353,0.0001427102455353,3277584.0386157,0.012009597463493
32419200,0.99995002355811,0.014643067670632,0.0048810225568908,0.0048810225568548,0.0048810225568867,-0.00095479107724222,0.0009547925340994,6.7899459891638e-10,6.7904920627757e-10,7.0958073800141e-10,6.8606047075002e-10,-0.0012464457280226,0.0012464472802846,-0.0012464456940309,0.0012464472462646,-0.0012464458517506,0.0012464472457719,-0.0012464457947888,0.0012464471887693,-0.00098589008432884,0.0009858918605702,-0.00098589000285787,0.00098589177926674,7.0952832291427e-10,6.8614484831756e-10,1.0838659818462e-08,-9.4805922026421e-09,-0.00095479107721635,0.00095479253410653,-0.001246442406386,0.0012464506627851,-0.0012464490156107,0.0012464438637146,-0.0012464425185879,0.0012464506167943,-0.0012464491278436,0.001246443817814,-0.00098588023663204,0.00098590195518407,-0.00098589985044453,0.00098588168464225,-0.00098589340868279,0.00098588850209732,-0.00098589333944035,0.00098588842563419,1.6192645236391e-09,1.6191995106252e-09,-0.00095479014296318,0.0009547934683731,-8.1578412911954e-09,1.1840023372119e-08,-0.0012464482990632,0.0012464448698953,-0.0012464415925889,0.0012464514014784,-0.0012464482116556,0.0012464447824012,-0.0012464415319305,0.0012464513407323,-0.00098588573954117,0.00098589606733953,-0.00098588578337121,0.00098589611125037,0.7835582016357,125301,3014,0.0039711649604991,0.003971164960461,0.003971164960489,29.295552963585,0.00014956442370868,0.00014956442370868,0.00014956442370868,3101230.9204859,0.01198630367044
33419200,0.99996530816495,0.01464335160853,0.0048811172028568,0.0048811172028208,0.0048811172028526,-0.00095047297505018,0.0009504752926369,1.0003392809393e-09,1.0003941050586e-09,1.0227718206847e-09,1.0060444782229e-09,-0.0012463032042129,0.0012463054870788,-0.0012463031064915,0.0012463053893292,-0.0012463032688474,0.0012463053928435,-0.0012463031501096,0.001246305274065,-0.00098214591667073,0.00098214839049233,-0.00098214584713055,0.00098214832112083,1.0227197153517e-09,1.0061284656737e-09,1.0952664682198e-08,-8.9519071336134e-09,-0.00095047297502441,0.0009504752926443,-0.0012462999438807,0.0012463087994401,-0.001246306366767,0.0012463020769192,-0.0012462999979664,0.0012463086947036,-0.0012463064208829,0.0012463019722722,-0.00098213626728821,0.00098215827439786,-0.00098215549640261,0.00098213843720535,-0.00098214917778999,0.00098214509230099,-0.00098214912077908,0.00098214503589234,1.9039579985371e-09,1.9038930910788e-09,-0.0009504720772732,0.00095047619040889,-7.6819222944882e-09,1.1914319414308e-08,-0.0012463057452937,0.0012463031087606,-0.0012462991076187,0.0012463094465556,-0.0012463055953916,0.0012463029587731,-0.0012462989858991,0.0012463093247487,-0.00098214168741367,0.00098215250481891,-0.00098214171899936,0.00098215253648458,0.80945760226261,125301,3014,0.0039532757983266,0.0039532757982892,0.0039532757983172,29.317300401637,0.0001497384032131,0.0001497384032131,0.0001497384032131,2975884.6382829,0.011932041670501
34419200,0.99997687520624,0.014643546899665,0.0048811822999016,0.0048811822998656,0.0048811822998974,-0.00095240832313924,0.00095240845898904,1.7307327623021e-10,1.7312809343794e-10,2.1843400560871e-10,1.8283699571999e-10,-0.001248904901799,0.0012489053107956,-0.0012489049698982,0.0012489053788666,-0.0012489051214705,0.0012489053723578,-0.0012489051668118,0.0012489054176589,-0.00098427957785837,0.00098428026889112,-0.00098427951211504,0.00098428020331682,2.183823241489e-10,1.8292027812798e-10,9.8497998474848e-09,-9.5035745339365e-09,-0.00095240832311349,0.00095240845899625,-0.0012489017410411,0.0012489085320606,-0.0012489081305994,0.0012489021575528,-0.0012489019492932,0.001248908582251,-0.0012489083388818,0.0012489022078323,-0.0009842702023089,0.0009842898896962,-0.00098428888755568,0.0009842705825016,-0.00098428273686154,0.00098427708966904,-0.00098428267899371,0.00098427700955079,1.0555284320957e-09,1.0554634847562e-09,-0.00095240744673677,0.00095240933538651,-8.2385199331359e-09,1.0793122518266e-08,-0.0012489073611659,0.0012489030008152,-0.0012489010821077,0.001248909316375,-0.0012489073794547,0.0012489030190183,-0.0012489011233028,0.0012489093574829,-0.00098427546673936,0.00098428427398402,-0.00098427549786831,0.00098428430519309,0.73398852679868,125301,3014,0.0039613041949129,0.0039613041948751,0.0039613041949034,31.482725562822,0.00016706180450257,0.00016706180450257,0.00016706180450257,2924424.5424417,0.011956417813594
35419200,0.99998594709457,0.014643682497927,0.0048812274993225,0.0048812274992865,0.0048812274993183,-0.00096201687076945,0.00096201457266877,-7.4853020471018e-10,-7.4847551464563e-10,-6.7616128111935e-10,-7.3412579504912e-10,-0.0012558583011831,0.0012558565936082,-0.0012558585571044,0.0012558568495015,-0.0012558586962979,0.0012558568310722,-0.0012558589273039,0.0012558570620378,-0.00099367563539257,0.00099367434302696,-0.00099367555688735,0.00099367426468994,-6.7621281874627e-10,-7.3404291074111e-10,8.574991825111e-09,-1.007197359641e-08,-0.00096201687074381,0.00096201457267603,-0.0012558552669638,0.0012558596983765,-0.0012558615912665,0.0012558537446849,-0.0012558556495808,0.0012558599233894,-0.0012558619739138,0.0012558539697869,-0.00099366661095441,0.00099368362615871,-0.0009936845812169,0.00099366498154739,-0.00099367866373481,0.00099367131372705,-0.00099367858851521,0.00099367118806412,1.1680639926233e-10,1.167412857515e-10,-0.00096201601182546,0.00096201543160784,-8.8050497713176e-09,9.5045315558057e-09,-0.0012558606477687,0.0012558543814271,-0.0012558548022652,0.0012558606438196,-0.0012558608562511,0.0012558545898239,-0.0012558550276754,0.0012558608691421,-0.0009936716475627,0.00099367820042281,-0.00099367169545535,0.0009936782483962,0.64952121200817,125301,3014,0.0040011524676538,0.0040011524676163,0.0040011524676444,35.930598369048,0.00020264478695238,0.00020264478695238,0.00020264478695238,2953918.7262426,0.012077363449843
36419200,0.99999175479408,0.014643773578127,0.0048812578593891,0.0048812578593531,0.0048812578593849,-0.0009668442208102,0.00096684492556699,3.9002147808215e-10,3.9007605732656e-10,4.2645103312543e-10,3.9856947722606e-10,-0.0012582191641452,0.0012582200672493,-0.0012582191844279,0.0012582200875037,-0.0012582193408162,0.0012582200864425,-0.0012582193405683,0.001258220086154,-0.00099823735015582,0.00099823851016064,-0.00099823727214922,0.00099823843232182,4.2639977699037e-10,3.986521632405e-10,9.5405452973841e-09,-8.760424000453e-09,-0.00096684422078455,0.00096684492557414,-0.0012582161681159,0.0012582231124485,-0.0012582221804003,0.0012582170422563,-0.0012582163344815,0.0012582231213828,-0.0012582223467961,0.0012582170512799,-0.00099822848508374,0.0009982476065854,-0.00099824613711273,0.00099822933588608,-0.00099824034105086,0.00099823549455132,-0.00099824027050046,0.00099823541315169,1.2495947222096e-09,1.2495294953787e-09,-0.00096684336787083,0.00096684577850139,-7.5393065483748e-09,1.0457382874117e-08,-0.001258221476193,0.0012582179081665,-0.0012582154919744,0.0012582238349526,-0.0012582214475149,0.0012582178794023,-0.0012582154881385,0.0012582238310287,-0.00099823342190331,0.000998242306134,-0.00099823346464375,0.00099824234895559,0.6811981079479,125301,3014,0.0040211731311614,0.0040211731311236,0.0040211731311519,37.480857761683,0.00021504686209347,0.00021504686209347,0.00021504686209347,3008557.6316816,0.012138124462715
37419200,0.99999518467151,0.01464382518773,0.0048812750625901,0.0048812750625541,0.004881275062586,-0.00096640736967319,0.00096640950957679,9.3507082002243e-10,9.3512547132345e-10,9.5640926523581e-10,9.4094202979335e-10,-0.0012595145283495,0.0012595166793624,-0.0012595144386393,0.0012595165896239,-0.0012595146025253,0.0012595165957107,-0.0012595144944389,0.0012595164875838,-0.00099786158832308,0.00099786391928137,-0.00099786152079627,0.00099786385192271,9.5635814293788e-10,9.4102452199937e-10,1.003785442116e-08,-8.1676345563287e-09,-0.00096640736964764,0.00096640950958392,-0.0012595115391942,0.0012595197076017,-0.0012595174277378,0.0012595135613364,-0.0012595116041418,0.0012595196147682,-0.0012595174927158,0.0012595134685923,-0.00099785276475157,0.00099787296031611,-0.00099787034425971,0.00099785481087709,-0.0009978645717766,0.00099786090165239,-0.0009978645141954,0.00099786084843155,1.7790589758518e-09,1.7789938316067e-09,-0.00096640653217266,0.00096641034707238,-6.9811140483461e-09,1.0935607396156e-08,-0.0012595168464981,0.0012595145214205,-0.0012595107758129,0.0012595203141779,-0.0012595167075723,0.0012595143824086,-0.001259510665065,0.0012595202033425,-0.00099785769988302,0.00099786769543341,-0.00099785773045275,0.00099786772608383,0.65495763090949,125301,3014,0.0040193769650027,0.0040193769649651,0.0040193769649933,37.680458792065,0.00021664367033652,0.00021664367033652,0.00021664367033652,2961715.8060494,0.012132695629871
38419200,0.99999715611392,0.01464385829053,0.0048812860968568,0.0048812860968208,0.0048812860968526,-0.00096540588792695,0.0009654087523669,1.2104448485349e-09,1.2104994844246e-09,1.2225304693863e-09,1.2147936127272e-09,-0.001258180575079,0.0012581833611173,-0.0012581804284984,0.0012581832145084,-0.001258180596549,0.0012581832249532,-0.0012581804325103,0.0012581830608739,-0.00099690567363412,0.00099690859556127,-0.00099690560929849,0.00099690853139371,1.2224794388229e-09,1.2148759762773e-09,1.0318335207779e-08,-7.8973673695001e-09,-0.00096540588790142,0.00096540875237398,-0.0012581775801905,0.001258186390643,-0.00125818342333,0.0012581801849344,-0.0012581775928916,0.0012581862457562,-0.0012581834360613,0.0012581800401368,-0.00099689684281966,0.00099691763779914,-0.00099691444000495,0.00099689948914462,-0.00099690866374944,0.00099690556454093,-0.00099690861074856,0.00099690552628004,2.0581642054963e-09,2.0580990438987e-09,-0.00096540504676385,0.00096540959352504,-6.7154717545799e-09,1.121834074092e-08,-0.0012581828956774,0.0012581812056091,-0.0012581767606091,0.0012581869478489,-0.0012581826993012,0.0012581810091468,-0.0012581765944043,0.0012581867815564,-0.0009969017822748,0.00099691238059169,-0.00099690180827562,0.00099691240667329,0.72891346290552,125301,3014,0.0040152196119008,0.0040152196118631,0.0040152196118914,37.19583516304,0.00021276668130432,0.00021276668130432,0.00021276668130432,2971339.7682186,0.01212006726504
38880000,0.99999784455626,0.014643870107775,0.0048812900359385,0.0048812900359025,0.0048812900359343,-0.00096333664669897,0.00096333902851077,1.0249700133991e-09,1.0250225827637e-09,1.0446304818294e-09,1.0296715730932e-09,-0.0012583719052045,0.0012583742553717,-0.0012583717781719,0.0012583741286054,-0.0012583719468829,0.0012583741359406,-0.0012583718022568,0.0012583739918883,-0.00099510254054719,0.00099510503917106,-0.00099510249521243,0.0009951049945508,1.044058578835e-09,1.0293182692614e-09,1.0131124813246e-08,-8.0797601437279e-09,-0.00096333664725558,0.00096333902908849,-0.0012583689128459,0.0012583772856356,-0.0012583747723682,0.0012583711009138,-0.0012583689450123,0.0012583771566351,-0.0012583748037819,0.0012583709717118,-0.00099509371269436,0.00099511408046514,-0.00099511132161483,0.00099509595280214,-0.00099510552547802,0.00099510201733908,-0.00099510549399741,0.00099510198892451,1.8605588913207e-09,1.8605245659575e-09,-0.00096333581858628,0.00096333985822372,-6.9057109225951e-09,1.101850227354e-08,-0.0012583742365552,0.0012583720896217,-0.0012583681240478,0.0012583778479243,-0.0012583740603678,0.0012583719131176,-0.0012583679783968,0.001258377701617,-0.00099509868156173,0.00099510883170022,-0.00099509868816774,0.00099510883834275,0.74537476942469,125301,3014,0.0040066443748533,0.0040066443772027,0.0040066443781653,37.19364233839,0.00021274913870712,0.00021274913870712,0.00021274913870712,2891080.848167,0.012094058649017
