time,ASR_ext,ASR_strain,ASR_strain_xx,ASR_strain_yy,ASR_strain_zz,disp_x_101,disp_x_102,disp_x_103,disp_x_104,disp_x_105,disp_x_106,disp_x_p1_neg,disp_x_p1_pos,disp_x_p2_neg,disp_x_p2_pos,disp_x_p3_neg,disp_x_p3_pos,disp_x_p4_neg,disp_x_p4_pos,disp_x_p5_neg,disp_x_p5_pos,disp_x_p6_neg,disp_x_p6_pos,disp_y_101,disp_y_102,disp_y_103,disp_y_104,disp_y_105,disp_y_106,disp_y_p1_neg,disp_y_p1_pos,disp_y_p2_neg,disp_y_p2_pos,disp_y_p3_neg,disp_y_p3_pos,disp_y_p4_neg,disp_y_p4_pos,disp_y_p5_neg,disp_y_p5_pos,disp_y_p6_neg,disp_y_p6_pos,disp_y_p7_neg,disp_y_p7_pos,disp_y_p8_neg,disp_y_p8_pos,disp_z_101,disp_z_102,disp_z_103,disp_z_104,disp_z_105,disp_z_106,disp_z_p1_neg,disp_z_p1_pos,disp_z_p2_neg,disp_z_p2_pos,disp_z_p3_neg,disp_z_p3_pos,disp_z_p4_neg,disp_z_p4_pos,disp_z_p5_neg,disp_z_p5_pos,disp_z_p6_neg,disp_z_p6_pos,humidity,ndof,nelem,strain_xx,strain_yy,strain_zz,temp,thermal_strain_xx,thermal_strain_yy,thermal_strain_zz,vonmises,vstrain
2419200,0,0,0,0,0,0,0,0,0,0,0,0,0,0,0,0,0,0,0,0,0,0,0,0,0,0,0,0,0,0,0,0,0,0,0,0,0,0,0,0,0,0,0,0,0,0,0,0,0,0,0,0,0,0,0,0,0,0,0,0,0,0,0,0,0,0,0,0,0,0,0,0,0,0,0
3419200,0.15985862437543,0.0027569435542116,0.0009189811847372,0.0009189811847372,0.0009189811847372,-0.00024845091546066,0.00024845090893595,-2.1705765286123e-12,-2.1705777344578e-12,-2.1081894896406e-12,-2.1597463006448e-12,-0.00025610492199883,0.00025610491697532,-0.00025610492280615,0.00025610491778265,-0.00025610492277623,0.00025610491775231,-0.00025610492358334,0.00025610491855943,-0.00025001562840888,0.00025001562353834,-0.00025001562868624,0.00025001562381564,-2.1119329057706e-12,-2.1549277948137e-12,-4.1095461520729e-12,-2.2972945436369e-13,-0.00024845091545992,0.00024845090893667,-0.00025610492264683,0.00025610491632836,-0.00025610492215949,0.00025610491842837,-0.00025610492342142,0.0002561049171081,-0.00025610492293409,0.0002561049192081,-0.0002500156303079,0.00025001562164315,-0.00025001562678203,0.0002500156257162,-0.00025001562775037,0.00025001562426359,-0.00025001562799538,0.00025001562446045,-2.5017929028265e-12,-2.5017916602174e-12,-0.00024845091579413,0.00024845090860247,-5.5988472311191e-13,-4.4408038364911e-12,-0.00025610492165165,0.00025610491727492,-0.00025610492376569,0.00025610491680169,-0.00025610492247209,0.00025610491809536,-0.00025610492456865,0.00025610491760465,-0.00025001562966192,0.00025001562284423,-0.00025001562939602,0.00025001562257827,0.78394350386619,134343,3014,0.0010346757878855,0.0010346757878855,0.0010346757878855,31.882667637199,0.00017026134109759,0.00017026134109759,0.00017026134109759,1818014.3273186,0.0031088535308956
4419200,0.34992912663815,0.0058452329800204,0.00194841099334,0.0019484109933402,0.0019484109933402,-0.00048065483327828,0.00048065482034431,-4.785720608344e-12,-4.7856985943106e-12,-4.5572851383614e-12,-4.7486992687323e-12,-0.00051519615269496,0.00051519614144858,-0.00051519615558863,0.00051519614434226,-0.00051519615552837,0.00051519614422868,-0.00051519615841022,0.00051519614711052,-0.00048754065261135,0.00048754064244439,-0.00048754065394859,0.00048754064378158,-4.5622311585931e-12,-4.7420200040292e-12,-7.4165587373557e-12,-2.1515170838087e-12,-0.00048065483327706,0.00048065482034557,-0.00051519615361564,0.00051519614058054,-0.00051519615466935,0.00051519614520919,-0.00051519615643952,0.00051519614335861,-0.00051519615749322,0.00051519614798725,-0.00048754065521887,0.00048754063991594,-0.00048754065133329,0.00048754064631836,-0.0004875406516304,0.00048754064363053,-0.00048754065291789,0.00048754064464697,-5.3374605324798e-12,-5.3374827376838e-12,-0.00048065483383366,0.00048065481978897,-2.622089132271e-12,-7.9509760957851e-12,-0.00051519615227042,0.00051519614173087,-0.00051519615699105,0.00051519614287893,-0.00051519615520485,0.0005151961446653,-0.00051519615986197,0.00051519614574984,-0.00048754065538131,0.00048754064236616,-0.00048754065409282,0.00048754064107763,0.77879287408742,134343,3014,0.0020007350436375,0.0020007350436376,0.0020007350436376,33.607450480302,0.00018405960384242,0.00018405960384242,0.00018405960384242,3393069.3091602,0.0060202916840573
5419200,0.5492554725329,0.0089166352672962,0.0029722117557654,0.0029722117557654,0.0029722117557654,-0.00070624037675238,0.00070624037577705,2.1011728694347e-13,2.1013416878068e-13,3.6553120091978e-13,2.1784453617543e-13,-0.00078764451055779,0.00078764451004639,-0.0007876445111073,0.0007876445105959,-0.00078764451120914,0.00078764451052123,-0.00078764451175009,0.00078764451106217,-0.00071999992640423,0.00071999992632734,-0.00071999992577411,0.00071999992569716,3.5992352968663e-13,2.2406931476271e-13,-1.2904396588366e-12,1.7123214680748e-12,-0.00070624037675187,0.00070624037577756,-0.00078764451104689,0.00078764450955544,-0.00078764451062113,0.00078764451108401,-0.00078764451169018,0.00078764451002995,-0.00078764451126442,0.00078764451155851,-0.00071999992790278,0.00071999992487849,-0.00071999992426976,0.00071999992715236,-0.00071999992578284,0.00071999992705698,-0.00071999992518995,0.00071999992618544,1.5486465134415e-13,1.5484768127433e-13,-0.00070624037679933,0.0007062403757301,1.7127197070004e-12,-1.3390661512718e-12,-0.00078764451010829,0.00078764451048943,-0.00078764451169517,0.00078764451002945,-0.00078764451067174,0.00078764451105289,-0.00078764451223462,0.0007876445105689,-0.00071999992632101,0.00071999992514995,-0.00071999992699025,0.00071999992581911,0.77316544217767,134343,3014,0.0029384095431721,0.0029384095431721,0.0029384095431721,36.279054990027,0.00020543243992021,0.00020543243992021,0.00020543243992021,4443456.3165389,0.0088543503733504
6419200,0.7054826536789,0.011101940902912,0.0037006469676375,0.0037006469676374,0.0037006469676375,-0.0008517185229533,0.00085171852222155,-2.176909967483e-14,-2.18286860898e-14,4.9553927338006e-15,-3.0967553962483e-14,-0.00098736978162881,0.00098736978132334,-0.00098736978188262,0.0009873697815771,-0.0009873697820018,0.00098736978158936,-0.00098736978227101,0.0009873697818585,-0.00086693920000762,0.00086693919985029,-0.00086693920016413,0.00086693920000657,-2.681896470639e-16,-2.4815192280557e-14,-1.2429252326123e-12,1.2015744190762e-12,-0.00085171852295254,0.00085171852222227,-0.00098736978198416,0.00098736978090066,-0.00098736978152955,0.0009873697819976,-0.00098736978236126,0.00098736978117815,-0.00098736978190663,0.00098736978227507,-0.00086693920118768,0.00086693919862272,-0.00086693919897769,0.00086693920124119,-0.00086693919957558,0.00086693920028755,-0.00086693919975807,0.00086693920041817,-1.0525549039937e-13,-1.0519043356328e-13,-0.00085171852303342,0.0008517185221414,1.0548673921723e-12,-1.3414165647624e-12,-0.00098736978134967,0.00098736978166057,-0.0009873697823965,0.0009873697811257,-0.00098736978160564,0.0009873697819166,-0.00098736978267452,0.00098736978140378,-0.00086693920063869,0.00086693919952636,-0.00086693920047636,0.00086693919936377,0.7291130398093,134343,3014,0.0035427174201191,0.0035427174201191,0.0035427174201191,36.740631119161,0.00020912504895329,0.00020912504895329,0.00020912504895329,4798222.8480656,0.010685175398058
7419200,0.83126857610745,0.012784592199294,0.004261530733098,0.0042615307330979,0.004261530733098,-0.00095532574126102,0.00095532574002821,-1.3675602807957e-13,-1.3679273284062e-13,-1.2790981303125e-13,-1.4407462803078e-13,-0.0011415927410766,0.0011415927404722,-0.0011415927413212,0.0011415927407168,-0.0011415927414158,0.0011415927407321,-0.0011415927416714,0.0011415927409876,-0.00097071442526372,0.00097071442481293,-0.00097071442542869,0.00097071442497773,-1.3431419573653e-13,-1.3643125123657e-13,-1.117764453247e-12,8.4659140019639e-13,-0.00095532574126017,0.00095532574002901,-0.0011415927413669,0.0011415927401339,-0.0011415927410337,0.0011415927410521,-0.0011415927417073,0.001141592740404,-0.0011415927413741,0.0011415927413221,-0.00097071442621193,0.00097071442383016,-0.00097071442447315,0.0009707144259685,-0.00097071442493266,0.00097071442514336,-0.0009707144251022,0.00097071442531131,-1.6267894203469e-13,-1.6263676685253e-13,-0.00095532574128305,0.00095532574000615,7.596188088727e-13,-1.151796269297e-12,-0.0011415927408181,0.0011415927407883,-0.0011415927416875,0.0011415927404008,-0.0011415927410591,0.0011415927410293,-0.0011415927419488,0.0011415927406622,-0.0009707144257681,0.00097071442463151,-0.00097071442559805,0.00097071442446126,0.71231368641729,134343,3014,0.0039729346784382,0.0039729346784381,0.0039729346784381,40.779748488334,0.00024143798790667,0.00024143798790667,0.00024143798790667,4829638.9309807,0.011990687885245
8419200,0.90728228349016,0.013780671041085,0.004593557013695,0.0045935570136949,0.0045935570136949,-0.00099917308997989,0.0009991730908239,5.1694456063969e-13,5.1687520981714e-13,4.9890968512217e-13,5.0792527734908e-13,-0.0012225020741479,0.001222502075175,-0.0012225020741651,0.0012225020751921,-0.0012225020742584,0.001222502075217,-0.0012225020742864,0.001222502075245,-0.0010157595804776,0.0010157595815786,-0.0010157595807207,0.0010157595818214,4.9313934396762e-13,5.1479609686202e-13,-1.7172350166711e-13,1.2077716104433e-12,-0.0009991730899791,0.00099917309082463,-0.0012225020743391,0.0012225020749354,-0.0012225020739765,0.001222502075429,-0.001222502074451,0.0012225020749871,-0.0012225020740884,0.0012225020754806,-0.0010157595811386,0.0010157595808796,-0.001015759580053,0.0010157595825278,-0.0010157595802628,0.0010157595817776,-0.0010157595805046,0.0010157595820573,5.1851180687904e-13,5.1858668694445e-13,-0.000999173089975,0.00099917309082875,1.1370012653918e-12,-1.7837184498022e-13,-0.0012225020739684,0.0012225020754213,-0.0012225020744063,0.0012225020750038,-0.0012225020739786,0.0012225020754316,-0.0012225020744398,0.0012225020750373,-0.0010157595809361,0.0010157595815991,-0.001015759580684,0.0010157595813468,0.698454387865,134343,3014,0.0041550255264652,0.0041550255264651,0.0041550255264652,41.436353355163,0.00024669082684131,0.00024669082684131,0.00024669082684131,4572220.3745595,0.012543884447307
9419200,0.94939378553809,0.014323211127495,0.0047744037091649,0.0047744037091649,0.0047744037091649,-0.001012656190535,0.0010126561923347,8.1694939569792e-13,8.1687545678023e-13,7.8424871821058e-13,8.0725336837548e-13,-0.0012600569656656,0.0012600569674955,-0.0012600569655478,0.0012600569673775,-0.0012600569656397,0.001260056967407,-0.0012600569655321,0.0012600569672993,-0.0010304021743067,0.0010304021761205,-0.0010304021746065,0.00103040217642,7.787545679235e-13,8.1373071645283e-13,3.9520931035847e-13,1.2407486500935e-12,-0.0010126561905342,0.0010126561923353,-0.001260056965769,0.0012600569673459,-0.001260056965447,0.0012600569675245,-0.0012600569657444,0.0012600569672666,-0.0012600569654224,0.0012600569674451,-0.0010304021747074,0.0010304021756837,-0.0010304021741994,0.0010304021768639,-0.0010304021741917,0.001030402176212,-0.0010304021744854,0.0010304021765666,8.4525944261012e-13,8.4533914605759e-13,-0.0010126561905039,0.0010126561923657,1.194786514798e-12,4.1606975994267e-13,-0.0012600569655535,0.0012600569676792,-0.0012600569656751,0.0012600569673039,-0.0012600569654266,0.0012600569675524,-0.0012600569655726,0.0012600569672015,-0.0010304021747079,0.0010304021763126,-0.0010304021743964,0.0010304021760008,0.67991627713549,134343,3014,0.0042110723989399,0.0042110723989398,0.0042110723989398,41.144138447433,0.00024435310757947,0.00024435310757947,0.00024435310757947,4261151.197652,0.012714317630855
10419200,0.97045994715371,0.014604099510185,0.0048680331700616,0.0048680331700616,0.0048680331700616,-0.0010094847195235,0.0010094847234852,1.5105702060583e-12,1.5104984729556e-12,1.4515092603296e-12,1.4981832903524e-12,-0.0012699894657598,0.0012699894693574,-0.0012699894653561,0.0012699894689537,-0.0012699894654546,0.0012699894689941,-0.001269989465062,0.0012699894686015,-0.0010287202363755,0.0010287202398065,-0.0010287202367399,0.0010287202401707,1.4469472287407e-12,1.503414788622e-12,1.4246480345062e-12,1.5982726005121e-12,-0.0010094847195229,0.0010094847234857,-0.0012699894657467,0.0012699894693199,-0.0012699894653713,0.0012699894689891,-0.0012699894654439,0.0012699894689654,-0.0012699894650685,0.0012699894686346,-0.0010287202364452,0.0010287202396942,-0.0010287202366648,0.0010287202402891,-0.0010287202363874,0.0010287202397532,-0.0010287202367463,0.0010287202402052,1.5777072138923e-12,1.5777840350749e-12,-0.001009484719454,0.0010094847235546,1.5797907237719e-12,1.4830643698721e-12,-0.0012699894657322,0.0012699894694692,-0.0012699894653363,0.0012699894690342,-0.0012699894653167,0.0012699894690538,-0.0012699894649495,0.0012699894686476,-0.0010287202366916,0.0010287202402132,-0.0010287202363107,0.001028720239832,0.69326328333094,134343,3014,0.0041979729597272,0.0041979729597271,0.0041979729597271,38.086341303736,0.00021989073042989,0.00021989073042989,0.00021989073042989,4049725.1933977,0.012674623064059
11419200,0.98263601585932,0.014764347817787,0.0049214492725958,0.0049214492725957,0.0049214492725957,-0.0010085255642918,0.0010085255665655,9.5871871180145e-13,9.5865615488899e-13,9.1806465963719e-13,9.4951683114788e-13,-0.0012791395239845,0.0012791395262281,-0.0012791395237962,0.0012791395260397,-0.0012791395238843,0.0012791395260699,-0.0012791395237043,0.0012791395258898,-0.0010285436421906,0.0010285436443555,-0.0010285436425521,0.0010285436447168,9.1330459293884e-13,9.550416072227e-13,9.8732267528617e-13,9.3198774285583e-13,-0.0010085255642911,0.0010085255665661,-0.0012791395239441,0.0012791395262306,-0.0012791395238387,0.0012791395260352,-0.0012791395238448,0.0012791395260799,-0.0012791395237395,0.0012791395258845,-0.0010285436421549,0.0010285436443654,-0.0010285436425822,0.0010285436447132,-0.0010285436422313,0.0010285436442874,-0.0010285436425829,0.0010285436447128,1.028675868776e-12,1.0287436902335e-12,-0.0010085255642196,0.0010085255666376,9.3822907303996e-13,1.0525120376562e-12,-0.0012791395239835,0.0012791395263028,-0.0012791395237362,0.0012791395261511,-0.001279139523784,0.0012791395261033,-0.0012791395235607,0.0012791395259755,-0.0010285436424656,0.0010285436447997,-0.0010285436420899,0.0010285436444238,0.67903392424516,134343,3014,0.0041940438685284,0.0041940438685282,0.0041940438685283,37.62592183735,0.0002162073746988,0.0002162073746988,0.0002162073746988,3841161.9014789,0.012662789131361
12419200,0.98962036761752,0.014859111997708,0.0049530373325694,0.0049530373325693,0.0049530373325693,-0.0010050855037091,0.0010050855063196,1.0632322248677e-12,1.0631421982062e-12,1.0175658846489e-12,1.0537178978768e-12,-0.0012806663946644,0.0012806663971895,-0.0012806663944321,0.0012806663969571,-0.0012806663945205,0.0012806663969889,-0.0012806663942962,0.0012806663967645,-0.001025957424164,0.0010259574265787,-0.0010259574245451,0.0010259574269595,1.012842867442e-12,1.0591711908413e-12,1.2160769383791e-12,9.1219228311169e-13,-0.0010050855037085,0.0010050855063202,-0.0012806663945834,0.0012806663972336,-0.0012806663945153,0.0012806663969108,-0.0012806663944403,0.0012806663970404,-0.0012806663943722,0.0012806663967176,-0.0010259574240072,0.0010259574267111,-0.0010259574246963,0.0010259574268333,-0.0010259574242493,0.0010259574264628,-0.0010259574246193,0.0010259574269143,1.1484592682989e-12,1.1485545595054e-12,-0.001005085503622,0.0010050855064067,9.3460749250029e-13,1.2969707166702e-12,-0.0012806663946919,0.0012806663972379,-0.0012806663943173,0.0012806663971239,-0.0012806663944475,0.0012806663969937,-0.0012806663940974,0.0012806663969041,-0.0010259574244027,0.0010259574270987,-0.0010259574240063,0.0010259574267021,0.69352050814898,134343,3014,0.0041797931099809,0.0041797931099808,0.0041797931099808,36.800418346643,0.00020960334677314,0.00020960334677314,0.00020960334677314,3725350.552798,0.012619538045352
13419200,0.99352097610795,0.014910822131311,0.0049702740437703,0.0049702740437702,0.0049702740437703,-0.00099918499172171,0.00099918499525291,1.3601967998626e-12,1.3601310077549e-12,1.3075623195746e-12,1.3494318640181e-12,-0.001279729957094,0.0012797299603538,-0.0012797299567484,0.0012797299600082,-0.0012797299568398,0.0012797299600426,-0.0012797299565026,0.0012797299597053,-0.0010204235492521,0.0010204235523604,-0.0010204235496671,0.0010204235527752,1.3026513824278e-12,1.3551340445998e-12,1.6414539429441e-12,1.0808347112794e-12,-0.00099918499172106,0.0009991849952535,-0.0012797299569684,0.0012797299604406,-0.0012797299568763,0.0012797299599192,-0.001279729956715,0.0012797299601371,-0.0012797299566229,0.0012797299596157,-0.0010204235489686,0.0010204235526169,-0.0010204235499447,0.001020423552525,-0.0010204235493839,0.0010204235521933,-0.0010204235497884,0.0010204235526874,1.4509266457752e-12,1.450997702428e-12,-0.00099918499162913,0.00099918499534546,1.1048647471404e-12,1.7271270315724e-12,-0.0012797299571622,0.0012797299603652,-0.0012797299565864,0.0012797299602245,-0.0012797299568039,0.001279729960007,-0.0012797299562539,0.0012797299598919,-0.0010204235494765,0.0010204235529628,-0.0010204235490449,0.0010204235525309,0.67547399841453,134343,3014,0.0041553363131721,0.004155336313172,0.004155336313172,34.785274791503,0.00019348219833203,0.00019348219833203,0.00019348219833203,3612627.8683258,0.012545307300059
14419200,0.99577366842733,0.014940336725202,0.0049801122417341,0.004980112241734,0.0049801122417341,-0.00099212455398681,0.00099212455765539,1.4010236408659e-12,1.4009673778789e-12,1.3449501774012e-12,1.3899401853403e-12,-0.0012743268443101,0.0012743268476943,-0.0012743268439447,0.0012743268473289,-0.0012743268440362,0.0012743268473644,-0.0012743268436788,0.001274326847007,-0.0010139206970342,0.001013920700241,-0.0010139206974598,0.0010139207006663,1.3398220250956e-12,1.3959155579438e-12,1.8051395794088e-12,9.9885242557056e-13,-0.00099212455398614,0.000992124557656,-0.001274326844145,0.0012743268478221,-0.0012743268441121,0.0012743268471987,-0.0012743268438716,0.0012743268474999,-0.0012743268438387,0.0012743268468764,-0.0010139206966311,0.0010139207006192,-0.0010139206978568,0.0010139207002947,-0.001013920697209,0.0010139207000281,-0.0010139206976232,0.0010139207005382,1.5098616394692e-12,1.5099227258384e-12,-0.00099212455387636,0.0009921245577658,1.0433174656029e-12,1.9094582997126e-12,-0.0012743268444029,0.0012743268476828,-0.0012743268437258,0.0012743268476024,-0.0012743268440241,0.001274326847304,-0.001274326843373,0.0012743268472497,-0.0010139206972111,0.0010139207009124,-0.0010139206967679,0.001013920700469,0.66541085069793,134343,3014,0.0041260455658821,0.0041260455658819,0.004126045565882,32.633968077694,0.00017627174462155,0.00017627174462155,0.00017627174462155,3565650.4325466,0.012456344456512
15419200,0.99694614337412,0.014956616660249,0.0049855388867496,0.0049855388867495,0.0049855388867495,-0.00097813208237499,0.00097813208853977,2.2054520367189e-12,2.206200160923e-12,2.1277754243919e-12,2.1861844341544e-12,-0.0012619483630221,0.0012619483684329,-0.0012619483623354,0.0012619483677466,-0.0012619483624404,0.0012619483677908,-0.0012619483617633,0.0012619483671142,-0.0010004749907356,0.0010004749958083,-0.0010004749912258,0.0010004749962999,2.1148149528651e-12,2.2024006758917e-12,2.8711342626243e-12,1.5445312783479e-12,-0.00097813208237331,0.00097813208854139,-0.0012619483627647,0.0012619483686446,-0.001261948362599,0.0012619483675284,-0.0012619483621786,0.001261948368017,-0.0012619483620129,0.0012619483669008,-0.0010004749900692,0.0010004749964388,-0.0010004749918784,0.0010004749956839,-0.0010004749910127,0.0010004749954738,-0.001000474991486,0.0010004749960926,2.3468383645224e-12,2.3460955636851e-12,-0.00097813208223305,0.00097813208868167,1.6034297810267e-12,3.0035266413816e-12,-0.0012619483631838,0.0012619483683668,-0.0012619483620028,0.0012619483681429,-0.0012619483624816,0.0012619483676641,-0.0012619483613321,0.0012619483674717,-0.0010004749908578,0.0010004749966649,-0.0010004749903439,0.0010004749961523,0.70136005659793,134343,3014,0.0040679891887882,0.0040679891887881,0.0040679891887881,27.044459488073,0.00013155567590458,0.00013155567590458,0.00013155567590458,3539736.2444012,0.012280037166434
16419200,0.99769956998074,0.014966706819331,0.0049889022731103,0.0049889022731102,0.0049889022731102,-0.0009715271155034,0.00097152711955966,1.5246690988762e-12,1.5253762243328e-12,1.47174642151e-12,1.5111600409804e-12,-0.0012593681943912,0.0012593681980793,-0.0012593681939836,0.0012593681976721,-0.0012593681940769,0.0012593681977044,-0.0012593681936764,0.0012593681973044,-0.00099371920011902,0.00099371920361796,-0.00099371920057743,0.00099371920407766,1.4619393649795e-12,1.5231084572145e-12,2.243077410727e-12,8.1005727033884e-13,-0.00097152711550219,0.00097152711956082,-0.0012593681941263,0.0012593681983109,-0.0012593681942532,0.0012593681974356,-0.0012593681938087,0.0012593681979468,-0.0012593681939355,0.0012593681970715,-0.00099371919940873,0.00099371920430915,-0.0009937192012771,0.00099371920339768,-0.00099371920039757,0.00099371920330076,-0.00099371920084087,0.00099371920384903,1.651614838418e-12,1.650912859863e-12,-0.00097152711537564,0.00097152711968739,8.7913061375145e-13,2.3654884271288e-12,-0.0012593681945722,0.0012593681979803,-0.0012593681936467,0.0012593681980626,-0.0012593681941508,0.0012593681975584,-0.0012593681932511,0.0012593681976665,-0.00099371920020852,0.00099371920444528,-0.00099371919973036,0.00099371920396838,0.67694980784898,134343,3014,0.004040603582366,0.0040406035823659,0.004040603582366,24.406321686304,0.00011045057349043,0.00011045057349043,0.00011045057349043,3453714.182207,0.012196948607451
17419200,0.99820565216109,0.01497368340486,0.0049912278016201,0.00499122780162,0.0049912278016201,-0.0009639067815779,0.00096390678550363,1.4786204468074e-12,1.4794949495037e-12,1.4227020374293e-12,1.4667345452076e-12,-0.0012517514623131,0.0012517514659083,-0.0012517514619188,0.0012517514655146,-0.0012517514620106,0.0012517514655484,-0.0012517514616231,0.0012517514651614,-0.00098667955501598,0.00098667955841225,-0.00098667955547024,0.00098667955886814,1.4153932088507e-12,1.4755196095505e-12,2.2293263280558e-12,7.3132130408653e-13,-0.00096390678157696,0.00096390678550451,-0.001251751462038,0.0012517514661517,-0.0012517514621973,0.0012517514652677,-0.0012517514617338,0.0012517514658005,-0.0012517514618931,0.0012517514649165,-0.00098667955427562,0.00098667955913522,-0.00098667955620238,0.00098667955815391,-0.00098667955530594,0.0009866795580823,-0.00098667955574709,0.00098667955862672,1.6185815828554e-12,1.6177123741151e-12,-0.00096390678143751,0.00096390678564398,8.1557296715863e-13,2.3653599751705e-12,-0.0012517514624924,0.0012517514658118,-0.001251751461559,0.0012517514659277,-0.0012517514620839,0.0012517514654027,-0.0012517514611764,0.0012517514655446,-0.00098667955507904,0.00098667955925828,-0.0009866795546041,0.00098667955878493,0.69391424293907,134343,3014,0.004008976929753,0.0040089769297529,0.0040089769297529,21.969289189951,9.0954313519607e-05,9.0954313519607e-05,9.0954313519607e-05,3443040.3195553,0.012100900648407
18419200,0.99852004529543,0.014977946142362,0.0049926487141208,0.0049926487141207,0.0049926487141207,-0.00095298013455876,0.00095298014111906,2.3343747452774e-12,2.3352091609631e-12,2.2554425536605e-12,2.3192861032839e-12,-0.0012433041492898,0.0012433041549938,-0.0012433041485666,0.0012433041542712,-0.0012433041486686,0.0012433041543156,-0.0012433041479544,0.0012433041536018,-0.00097586961003814,0.00097586961542086,-0.00097586961056873,0.00097586961595301,2.2491544060877e-12,2.3267549854088e-12,3.2439146198446e-12,1.4279344980431e-12,-0.00095298013455795,0.00095298014111981,-0.0012433041489523,0.0012433041552894,-0.0012433041489071,0.0012433041539726,-0.0012433041483312,0.0012433041546202,-0.001243304148286,0.0012433041533033,-0.00097586960913771,0.00097586961629059,-0.00097586961146202,0.00097586961509098,-0.00097586961039241,0.00097586961501098,-0.00097586961091442,0.00097586961565789,2.4816596575892e-12,2.4808305652703e-12,-0.000952980134411,0.00095298014126677,1.5006595382341e-12,3.384110191286e-12,-0.0012433041495253,0.0012433041548532,-0.0012433041481474,0.0012433041547527,-0.0012433041487864,0.0012433041541138,-0.0012433041474393,0.001243304154044,-0.00097586961011591,0.00097586961640396,-0.00097586960956139,0.00097586961585096,0.68264644531426,134343,3014,0.0039636447925097,0.0039636447925096,0.0039636447925096,17.464467693849,5.491574155079e-05,5.491574155079e-05,5.491574155079e-05,3398715.5370472,0.011963310876348
19419200,0.99878059889353,0.014981697717782,0.0049938992392606,0.0049938992392605,0.0049938992392606,-0.00095120731214961,0.00095120731430274,9.011661464634e-13,9.0160963291519e-13,8.6030477710313e-13,8.9462783149855e-13,-0.0012418327362381,0.0012418327384059,-0.0012418327360724,0.0012418327382404,-0.0012418327361539,0.0012418327382671,-0.0012418327359928,0.0012418327381062,-0.00097442816142113,0.00097442816348498,-0.0009744281618472,0.00097442816391159,8.5764831612039e-13,8.9759573531642e-13,1.7092838887086e-12,9.4688758116176e-14,-0.00095120731214924,0.00095120731430306,-0.0012418327359517,0.0012418327386709,-0.00124183273636,0.0012418327379743,-0.001241832735868,0.0012418327385363,-0.0012418327362762,0.0012418327378397,-0.00097442816063169,0.00097442816427063,-0.00097442816263334,0.00097442816312944,-0.0009744281617197,0.00097442816315897,-0.00097442816213503,0.00097442816364683,1.0409303767621e-12,1.0404905078469e-12,-0.000951207312009,0.00095120731444333,1.9905137499948e-13,1.8495533650613e-12,-0.0012418327364275,0.0012418327382897,-0.0012418327356927,0.0012418327386656,-0.0012418327362483,0.0012418327381101,-0.0012418327355352,0.0012418327385078,-0.00097442816143866,0.0009744281643202,-0.00097442816099565,0.00097442816387769,0.72155884054392,134343,3014,0.0039562871946989,0.0039562871946988,0.0039562871946988,17.551745954506,5.5613967636049e-05,5.5613967636049e-05,5.5613967636049e-05,3371645.2712128,0.011940970385868
20419200,0.99900738780069,0.014985000560032,0.0049950001866773,0.0049950001866772,0.0049950001866772,-0.00095275016480695,0.00095275016603946,6.0251806407496e-13,6.0300881378878e-13,5.7366885716314e-13,5.9706261308819e-13,-0.0012462715537478,0.0012462715551656,-0.0012462715537015,0.0012462715551196,-0.0012462715537797,0.0012462715551409,-0.0012462715537379,0.0012462715550994,-0.00097561930222644,0.00097561930360069,-0.00097561930263046,0.00097561930400559,5.6984808354737e-13,6.0140525248236e-13,1.2414281326676e-12,-3.4170955095493e-14,-0.00095275016480641,0.00095275016603994,-0.0012462715535189,0.0012462715553739,-0.0012462715539322,0.0012462715549096,-0.0012462715535504,0.0012462715553541,-0.0012462715539637,0.0012462715548899,-0.00097561930160247,0.00097561930422222,-0.00097561930324962,0.00097561930338936,-0.00097561930246355,0.00097561930334589,-0.00097561930285392,0.00097561930379747,7.0878399419433e-13,7.0829886195596e-13,-0.0009527501646997,0.00095275016614667,3.8258243001644e-14,1.3481452709697e-12,-0.0012462715539088,0.0012462715550713,-0.0012462715534087,0.0012462715554547,-0.0012462715538506,0.0012462715550128,-0.0012462715533701,0.0012462715554157,-0.00097561930231113,0.00097561930432531,-0.00097561930189179,0.00097561930390681,0.72908277580482,134343,3014,0.0039627083982914,0.0039627083982912,0.0039627083982913,18.600447147134,6.4003577177068e-05,6.4003577177068e-05,6.4003577177068e-05,3294253.6162971,0.011960526404864
21419200,0.9991615602934,0.014987187516138,0.0049957291720461,0.0049957291720461,0.0049957291720461,-0.00094377809970724,0.00094377810522006,1.9930454079485e-12,1.9936446837587e-12,1.9276120686568e-12,1.9804138820683e-12,-0.0012387254878782,0.0012387254927159,-0.0012387254872992,0.0012387254921372,-0.0012387254873942,0.0012387254921741,-0.0012387254868216,0.0012387254916019,-0.00096704789868449,0.00096704790328316,-0.00096704789920395,0.00096704790380371,1.9220192848078e-12,1.9869659447749e-12,3.2507944988235e-12,7.3798612779577e-13,-0.00094377809970653,0.00094377810522072,-0.0012387254874348,0.001238725493129,-0.0012387254877452,0.0012387254917215,-0.0012387254869502,0.0012387254925944,-0.0012387254872606,0.0012387254911869,-0.00096704789744923,0.00096704790450326,-0.00096704790043276,0.00096704790259062,-0.0009670478991454,0.00096704790277543,-0.00096704789965624,0.00096704790339218,2.1575121188975e-12,2.1569179017563e-12,-0.00094377809954204,0.00094377810538523,8.5023646703603e-13,3.4122653899876e-12,-0.0012387254882064,0.0012387254924764,-0.0012387254867492,0.0012387254927426,-0.0012387254876111,0.0012387254918808,-0.0012387254861816,0.0012387254921746,-0.00096704789862034,0.00096704790438746,-0.0009670478980787,0.00096704790384687,0.70949067210777,134343,3014,0.0039254811941378,0.0039254811941377,0.0039254811941378,15.215521517895,3.6924172143163e-05,3.6924172143163e-05,3.6924172143163e-05,3262677.0109108,0.011847529928817
22419200,0.99928926167089,0.014989018501581,0.004996339500527,0.004996339500527,0.004996339500527,-0.00094109102411753,0.00094109102672948,1.0461116596539e-12,1.0466906713773e-12,1.0045051512924e-12,1.0376370214895e-12,-0.0012358896346741,0.0012358896372034,-0.0012358896344559,0.0012358896369857,-0.001235889634539,0.0012358896370113,-0.0012358896343247,0.0012358896367974,-0.00096480136411072,0.00096480136651336,-0.0009648013645632,0.00096480136696691,9.9897230464903e-13,1.0440559577483e-12,2.199455142714e-12,-1.0462399432465e-13,-0.00094109102411685,0.0009410910267301,-0.0012358896342767,0.0012358896375829,-0.0012358896348559,0.0012358896366036,-0.0012358896341398,0.0012358896373967,-0.0012358896347189,0.0012358896364173,-0.00096480136298361,0.0009648013676412,-0.00096480136568399,0.00096480136584593,-0.00096480136452449,0.00096480136606909,-0.00096480136496464,0.00096480136659009,1.2084855521842e-12,1.2079089815627e-12,-0.00094109102395452,0.00094109102689246,2.8505658583462e-14,2.3628953004646e-12,-0.0012358896349579,0.001235889636995,-0.0012358896339427,0.0012358896375442,-0.0012358896347251,0.0012358896367618,-0.0012358896337319,0.0012358896373331,-0.00096480136401884,0.00096480136751295,-0.00096480136354738,0.00096480136704251,0.71602859694071,134343,3014,0.0039143263383415,0.0039143263383414,0.0039143263383415,14.857860055328,3.4062880442624e-05,3.4062880442624e-05,3.4062880442624e-05,3248098.7152977,0.011813653315069
23419200,0.99940268646918,0.014990617021494,0.0049968723404979,0.0049968723404979,0.0049968723404979,-0.00094164007613129,0.00094164007758446,6.7024923022845e-13,6.70841829772e-13,6.3974769144129e-13,6.6375254634474e-13,-0.0012374313288623,0.0012374313304595,-0.0012374313287912,0.0012374313303888,-0.0012374313288696,0.0012374313304096,-0.0012374313288019,0.0012374313303422,-0.00096540470542359,0.00096540470695878,-0.00096540470584358,0.00096540470737981,6.343976913059e-13,6.700916394545e-13,1.6545288206295e-12,-3.1129248253073e-13,-0.00094164007613056,0.00094164007758514,-0.0012374313285235,0.001237431330783,-0.0012374313291324,0.0012374313300629,-0.0012374313285288,0.0012374313307386,-0.0012374313291376,0.0012374313300185,-0.00096540470446367,0.00096540470792359,-0.00096540470679727,0.00096540470642197,-0.00096540470577592,0.00096540470658533,-0.00096540470618116,0.0009654047070588,8.1211160231271e-13,8.1152353204256e-13,-0.00094164007598875,0.00094164007772697,-1.9372412597858e-13,1.7983466940959e-12,-0.0012374313291047,0.001237431330286,-0.0012374313283527,0.0012374313308688,-0.0012374313290203,0.0012374313302012,-0.0012374313282879,0.0012374313308037,-0.00096540470537594,0.00096540470784906,-0.0009654047049391,0.00096540470741327,0.70402580109969,134343,3014,0.0039166108837906,0.0039166108837905,0.0039166108837905,15.708253208441,4.0866025667532e-05,4.0866025667532e-05,4.0866025667532e-05,3208424.4932444,0.011820604225718
24419200,0.99950977794661,0.014992154148837,0.004997384716279,0.004997384716279,0.004997384716279,-0.00094472795367899,0.00094472795384793,2.5261440045053e-13,2.5324305771607e-13,2.3343425109681e-13,2.4819571190902e-13,-0.0012404254215301,0.0012404254221,-0.001240425421616,0.0012404254221863,-0.0012404254216917,0.0012404254222045,-0.0012404254217837,0.0012404254222969,-0.00096870611403809,0.00096870611460651,-0.00096870611442918,0.00096870611499875,2.2815191223885e-13,2.5438235563189e-13,4.9869115779068e-14,4.5801955607064e-13,-0.0009447279536783,0.00094472795384856,-0.0012404254215743,0.0012404254220266,-0.0012404254215743,0.0012404254222572,-0.0012404254217353,0.001240425422138,-0.0012404254217353,0.0012404254223686,-0.00096870611423356,0.00096870611439713,-0.00096870611422743,0.0009687061152147,-0.00096870611399501,0.00096870611464341,-0.00096870611436632,0.00096870611507075,2.797814234578e-13,2.7915808955904e-13,-0.00094472795365105,0.00094472795387583,4.3447487414965e-13,7.4431417347762e-14,-0.001240425421484,0.0012404254222041,-0.0012404254216743,0.0012404254221696,-0.0012404254215621,0.0012404254222818,-0.0012404254217694,0.0012404254222643,-0.00096870611446588,0.00096870611496095,-0.00096870611406255,0.00096870611455873,0.71547577169718,134343,3014,0.0039294248202085,0.0039294248202084,0.0039294248202084,17.888107072593,5.8304856580746e-05,5.8304856580746e-05,5.8304856580746e-05,3182686.5222254,0.011859491998306
25419200,0.99960740368199,0.014993628515657,0.0049978761718856,0.0049978761718855,0.0049978761718855,-0.00094806471044054,0.00094806471073828,2.9385287593753e-13,2.9448018030322e-13,2.7361296484115e-13,2.8956460988229e-13,-0.0012448228811509,0.0012448228818224,-0.0012448228812212,0.0012448228818931,-0.0012448228812972,0.0012448228819119,-0.0012448228813739,0.0012448228819889,-0.00097198325407381,0.00097198325473884,-0.00097198325446882,0.00097198325513499,2.6884788657715e-13,2.9508455154598e-13,9.8065464645311e-14,4.9217969253408e-13,-0.0009480647104399,0.00094806471073885,-0.0012448228811919,0.0012448228817516,-0.0012448228811824,0.0012448228819617,-0.0012448228813381,0.0012448228818477,-0.0012448228813286,0.0012448228820578,-0.00097198325426254,0.00097198325453563,-0.00097198325427444,0.00097198325534441,-0.00097198325403359,0.00097198325477249,-0.00097198325440954,0.00097198325520391,3.1952241528013e-13,3.1890034604862e-13,-0.00094806471041408,0.00094806471076469,4.6624037432366e-13,1.2098577455587e-13,-0.001244822881109,0.0012448228819226,-0.0012448228812783,0.001244822881878,-0.0012448228811716,0.0012448228819847,-0.0012448228813581,0.0012448228819574,-0.00097198325450453,0.00097198325509831,-0.00097198325409721,0.00097198325469209,0.75063327654583,134343,3014,0.0039432797806507,0.0039432797806506,0.0039432797806506,19.932713684836,7.4661709478688e-05,7.4661709478688e-05,7.4661709478688e-05,3137445.0336223,0.011901571037193
26419200,0.99968742646562,0.014994865447259,0.0049982884824198,0.0049982884824197,0.0049982884824198,-0.00094824603179226,0.00094824603373723,8.2973456394333e-13,8.303544861816e-13,7.9643905168661e-13,8.2299732858478e-13,-0.0012470671516491,0.0012470671536303,-0.0012470671515164,0.001247067153498,-0.0012470671515989,0.0012470671535226,-0.0012470671514738,0.0012470671533978,-0.00097204582839856,0.00097204583030673,-0.00097204582883733,0.00097204583074663,7.9144037480291e-13,8.2880998373274e-13,7.2774957657351e-13,9.3430133264945e-13,-0.00094824603179161,0.00094824603373783,-0.0012470671516534,0.0012470671535902,-0.0012470671515145,0.0012470671535358,-0.0012470671516035,0.0012470671534898,-0.0012470671514647,0.0012470671534354,-0.00097204582849252,0.00097204583019036,-0.00097204582873748,0.00097204583086941,-0.00097204582839618,0.00097204583029322,-0.00097204582881806,0.00097204583078453,8.59976787123e-13,8.5936212942978e-13,-0.00094824603176121,0.00094824603376825,9.0174768752125e-13,7.5319181403651e-13,-0.0012470671516404,0.0012470671537046,-0.0012470671515384,0.0012470671535233,-0.001247067151499,0.0012470671535628,-0.0012470671514172,0.0012470671534016,-0.00097204582883626,0.00097204583074629,-0.00097204582838319,0.00097204583029433,0.76690380774609,134343,3014,0.0039440471399149,0.0039440471399148,0.0039440471399148,20.39538201256,7.8363056100478e-05,7.8363056100478e-05,7.8363056100478e-05,3080483.4333919,0.011903942156937
27419200,0.99975722691643,0.014995903364003,0.0049986344546676,0.0049986344546676,0.0049986344546676,-0.00095072378915901,0.00095072379011102,5.0551370396217e-13,5.0640470615443e-13,4.8156128863319e-13,4.9977271758065e-13,-0.0012505403383584,0.0012505403395504,-0.0012505403383499,0.0012505403395425,-0.0012505403384287,0.0012505403395624,-0.0012505403384267,0.001250540339561,-0.00097473531823174,0.00097473531938859,-0.00097473531864794,0.00097473531980645,4.7548837319726e-13,5.069161225163e-13,4.2692733450122e-13,5.8721491783477e-13,-0.00095072378915824,0.00095072379011174,-0.0012505403383596,0.0012505403395182,-0.0012505403383515,0.0012505403395718,-0.001250540338429,0.0012505403395378,-0.0012505403384209,0.0012505403395914,-0.00097473531830473,0.0009747353192997,-0.00097473531856795,0.00097473531990282,-0.00097473531823261,0.00097473531937786,-0.0009747353186297,0.00097473531983751,5.3704647595175e-13,5.3616044419588e-13,-0.00095072378912693,0.00095072379014308,5.6475882053511e-13,4.5491116159981e-13,-0.0012505403383523,0.0012505403396175,-0.0012505403383635,0.0012505403395724,-0.0012505403383356,0.0012505403396002,-0.0012505403383651,0.0012505403395734,-0.00097473531863922,0.00097473531981445,-0.0009747353182093,0.00097473531938616,0.73787115040683,134343,3014,0.0039543382878001,0.0039543382878,0.0039543382878,22.257776691613,9.3262213532907e-05,9.3262213532907e-05,9.3262213532907e-05,3032336.1477084,0.011935191595941
28419200,0.99981458571533,0.014996802693376,0.0049989342311253,0.0049989342311253,0.0049989342311253,-0.00095164536700023,0.00095164536842796,6.5954032208412e-13,6.6048238154015e-13,6.3029831834844e-13,6.5306113766582e-13,-0.001250735792552,0.0012507357941245,-0.0012507357924842,0.0012507357940573,-0.0012507357925648,0.0012507357940794,-0.0012507357925037,0.001250735794019,-0.00097604840864948,0.00097604841016385,-0.0009760484090769,0.00097604841059303,6.2418063230757e-13,6.602875180078e-13,6.2913288566117e-13,6.930875401452e-13,-0.00095164536699945,0.00095164536842868,-0.0012507357925361,0.0012507357941082,-0.001250735792503,0.0012507357940706,-0.001250735792548,0.001250735794071,-0.0012507357925149,0.0012507357940334,-0.0009760484086746,0.00097604841012107,-0.00097604840904476,0.00097604841064324,-0.00097604840866909,0.00097604841013031,-0.00097604840907778,0.00097604841060823,6.9974829964036e-13,6.9881144590766e-13,-0.00095164536695959,0.00095164536846856,6.7651742109246e-13,6.6537351153125e-13,-0.0012507357925558,0.0012507357941844,-0.001250735792474,0.0012507357941127,-0.0012507357924793,0.0012507357941073,-0.0012507357924167,0.0012507357940548,-0.00097604840904352,0.00097604841062538,-0.00097604840860146,0.00097604841018506,0.77519038654409,134343,3014,0.0039581570012275,0.0039581570012274,0.0039581570012274,23.444957329293,0.00010275965863435,0.00010275965863435,0.00010275965863435,3025366.0658213,0.011946757895692
29419200,0.99986119139475,0.014997448922604,0.004999149640868,0.0049991496408679,0.0049991496408679,-0.00095387452524236,0.00095387452656238,6.2349312918348e-13,6.2622839856405e-13,5.9736488326581e-13,6.1834209536755e-13,-0.0012548965092821,0.0012548965107635,-0.0012548965092293,0.0012548965107125,-0.0012548965093097,0.0012548965107329,-0.0012548965092633,0.0012548965106883,-0.00097807594447163,0.00097807594590406,-0.00097807594489761,0.00097807594633527,5.9152870244063e-13,6.251533928018e-13,6.6515321035689e-13,5.8676223141127e-13,-0.00095387452524165,0.00095387452656309,-0.0012548965092435,0.0012548965107714,-0.0012548965092705,0.0012548965107017,-0.0012548965092702,0.0012548965107482,-0.0012548965092973,0.0012548965106785,-0.00097807594442714,0.00097807594593341,-0.00097807594493489,0.00097807594631324,-0.00097807594451307,0.00097807594585155,-0.00097807594492215,0.00097807594632592,6.6630943882167e-13,6.6357961045134e-13,-0.00095387452520083,0.00095387452660397,5.7445593605959e-13,7.0280945612413e-13,-0.001254896509307,0.0012548965108012,-0.0012548965091947,0.0012548965107912,-0.0012548965092467,0.0012548965107391,-0.0012548965091532,0.0012548965107478,-0.00097807594484212,0.00097807594639057,-0.00097807594439839,0.00097807594595207,0.68887395937315,134343,3014,0.0039674228143016,0.0039674228143016,0.0039674228143017,24.784378676604,0.00011347502941283,0.00011347502941283,0.00011347502941283,2968961.6535634,0.011974929912349
30419200,0.99989826301186,0.01499795427614,0.0049993180920468,0.0049993180920468,0.0049993180920468,-0.0009548275120395,0.00095482751334267,6.1710938302607e-13,6.1985706379219e-13,5.8728185306016e-13,6.122361642525e-13,-0.0012524574044012,0.0012524574058808,-0.0012524574043474,0.0012524574058288,-0.0012524574044274,0.0012524574058509,-0.0012524574043798,0.0012524574058051,-0.00097969771423291,0.00097969771564971,-0.00097969771465726,0.00097969771607936,5.8212125185212e-13,6.1824271972694e-13,6.7439854740348e-13,5.6456641619924e-13,-0.00095482751203883,0.00095482751334329,-0.0012524574043579,0.0012524574058943,-0.001252457404393,0.0012524574058129,-0.0012524574043837,0.0012524574058712,-0.0012524574044188,0.0012524574057898,-0.00097969771417358,0.00097969771569436,-0.00097969771471056,0.0009796977160413,-0.0009796977142808,0.0009796977155867,-0.00097969771468864,0.00097969771606428,6.752323132928e-13,6.7249016176953e-13,-0.00095482751198293,0.00095482751339921,5.6800988298209e-13,7.2765112369883e-13,-0.0012524574044176,0.0012524574059287,-0.0012524574042936,0.0012524574059272,-0.0012524574043558,0.0012524574058651,-0.0012524574042509,0.0012524574058827,-0.00097969771458177,0.0009796977161542,-0.00097969771413875,0.00097969771571645,0.67661723253704,134343,3014,0.0039713514556141,0.0039713514556139,0.003971351455614,26.135132274353,0.00012428105819483,0.00012428105819483,0.00012428105819483,3018114.317219,0.011986775997562
31419200,0.99992827517341,0.014998394390956,0.0049994647969854,0.0049994647969853,0.0049994647969853,-0.00095882619863624,0.00095882619923307,3.8841034021308e-13,3.9048386510361e-13,3.6575341471954e-13,3.831388836054e-13,-0.0012561656549263,0.0012561656558417,-0.0012561656549617,0.0012561656558785,-0.0012561656550391,0.0012561656558971,-0.0012561656550804,0.0012561656559397,-0.00098374351727343,0.00098374351815976,-0.00098374351768413,0.00098374351857441,3.5882254401952e-13,3.9146905375677e-13,3.6051462117653e-13,4.2047780439299e-13,-0.0009588261986354,0.00095882619923387,-0.0012561656549137,0.0012561656558265,-0.0012561656549773,0.0012561656558902,-0.0012561656550247,0.0012561656558899,-0.0012561656550883,0.0012561656559536,-0.00098374351729688,0.00098374351812191,-0.00098374351765117,0.00098374351861744,-0.00098374351729077,0.00098374351813194,-0.00098374351768161,0.00098374351858944,4.3799311961085e-13,4.3592397693938e-13,-0.0009588261985875,0.00095882619928179,4.1999933107344e-13,4.0650340512942e-13,-0.0012561656549194,0.0012561656559088,-0.0012561656549435,0.0012561656559388,-0.0012561656549472,0.0012561656559351,-0.0012561656549888,0.0012561656559827,-0.00098374351764279,0.00098374351861273,-0.00098374351721624,0.00098374351819013,0.72613574125628,134343,3014,0.0039879438035059,0.0039879438035059,0.0039879438035059,28.44652629429,0.00014277221035432,0.00014277221035432,0.00014277221035432,3002757.7552231,0.012037146380106
32419200,0.99995019410912,0.014998732405366,0.0049995774684555,0.0049995774684554,0.0049995774684554,-0.00096068170139714,0.00096068170305502,7.3268332290977e-13,7.3486307984911e-13,7.0247905445297e-13,7.2641933779963e-13,-0.0012609610924102,0.0012609610941655,-0.0012609610923149,0.0012609610940717,-0.0012609610923966,0.0012609610940939,-0.0012609610923082,0.0012609610940069,-0.00098507228205353,0.00098507228373958,-0.00098507228249081,0.00098507228418105,6.9605662242259e-13,7.3403523197753e-13,7.5124336574776e-13,7.1857825329296e-13,-0.00096068170139632,0.00096068170305578,-0.0012609610923779,0.0012609610941655,-0.0012609610923503,0.0012609610940686,-0.0012609610923633,0.0012609610941019,-0.0012609610923356,0.001260961094005,-0.00098507228203061,0.00098507228374475,-0.00098507228250646,0.00098507228418365,-0.00098507228208973,0.00098507228368839,-0.00098507228250909,0.00098507228417985,7.7710728931751e-13,7.7493276751236e-13,-0.00096068170135359,0.00096068170309853,7.0458724004935e-13,7.9036286966274e-13,-0.0012609610924277,0.0012609610942126,-0.0012609610922863,0.001260961094146,-0.0012609610923244,0.0012609610941079,-0.0012609610922024,0.0012609610940607,-0.00098507228243974,0.00098507228423134,-0.00098507228198498,0.00098507228378075,0.76212037556395,134343,3014,0.0039956636695751,0.003995663669575,0.0039956636695751,29.298458796879,0.00014958767037503,0.00014958767037503,0.00014958767037503,2933242.8092004,0.01206065383347
33419200,0.99996542660977,0.014998970336123,0.0049996567787078,0.0049996567787077,0.0049996567787077,-0.00095982888893121,0.0009598288911991,9.3086800379793e-13,9.3305093711081e-13,8.963835572741e-13,9.2407816710513e-13,-0.0012618629180078,0.0012618629202415,-0.0012618629178396,0.0012618629200748,-0.0012618629179234,0.0012618629200988,-0.0012618629177623,0.0012618629199392,-0.00098424321878952,0.00098424322093652,-0.00098424321924473,0.00098424322139592,8.9035510337052e-13,9.3117365071063e-13,1.0165675029246e-12,8.4952192205652e-13,-0.00095982888893045,0.0009598288911998,-0.0012618629179515,0.0012618629202639,-0.0012618629178988,0.0012618629200496,-0.0012618629178665,0.0012618629201291,-0.0012618629178137,0.0012618629199148,-0.00098424321870033,0.00098424322100596,-0.00098424321932703,0.00098424322133384,-0.00098424321884974,0.00098424322085842,-0.00098424321928849,0.00098424322137195,9.7738496508963e-13,9.752075610196e-13,-0.00095982888888554,0.00095982889124474,8.3483502577478e-13,1.057294744489e-12,-0.0012618629180476,0.0012618629202688,-0.0012618629177868,0.0012618629201749,-0.001261862917871,0.0012618629200908,-0.0012618629176306,0.0012618629200173,-0.00098424321916905,0.00098424322147077,-0.00098424321869574,0.00098424322100162,0.77026309110655,134343,3014,0.0039921375700741,0.003992137570074,0.0039921375700741,29.317385105094,0.00014973908084076,0.00014973908084076,0.00014973908084076,2885053.8430686,0.012049977498722
34419200,0.99997695744868,0.014999143735069,0.0049997145783562,0.0049997145783562,0.0049997145783562,-0.00096315206265533,0.00096315206335563,4.1980617520951e-13,4.2226980582964e-13,3.9833190476315e-13,4.1580331220011e-13,-0.0012656459903994,0.0012656459913918,-0.001265645990425,0.0012656459914191,-0.0012656459905023,0.0012656459914371,-0.0012656459905336,0.0012656459914701,-0.00098778238712574,0.00098778238808858,-0.00098778238754454,0.00098778238851214,3.9293446655203e-13,4.221058090014e-13,4.7048396848992e-13,3.7362083783449e-13,-0.00096315206265464,0.00096315206335627,-0.0012656459903606,0.0012656459914033,-0.0012656459904663,0.001265645991405,-0.0012656459904626,0.0012656459914553,-0.0012656459905683,0.001265645991457,-0.00098778238707428,0.00098778238812913,-0.00098778238758977,0.0009877823884784,-0.00098778238716717,0.00098778238803866,-0.00098778238756818,0.00098778238849914,4.632739061237e-13,4.608153929943e-13,-0.00096315206261297,0.00096315206339796,3.6797544977907e-13,5.1018870820282e-13,-0.0012656459904242,0.0012656459914269,-0.0012656459903868,0.0012656459914992,-0.0012656459904424,0.0012656459914435,-0.0012656459904224,0.0012656459915331,-0.00098778238748545,0.00098778238857114,-0.00098778238704986,0.00098778238814028,0.74167726424793,134343,3014,0.0040059326943885,0.0040059326943884,0.0040059326943885,31.490036573389,0.00016712029258711,0.00016712029258711,0.00016712029258711,2849339.5704422,0.012091859712191
35419200,0.99998600183248,0.014999275081471,0.0049997583604905,0.0049997583604904,0.0049997583604905,-0.00097142163995014,0.0009714216389361,-1.3740691995997e-13,-1.3500902262586e-13,-1.4419210973591e-13,-1.3879962741372e-13,-0.0012728501620598,0.0012728501616935,-0.0012728501622966,0.0012728501619318,-0.0012728501623673,0.0012728501619437,-0.0012728501626092,0.0012728501621872,-0.00099622411615412,0.0009962241158249,-0.00099622411653539,0.00099622411621079,-1.4954270773906e-13,-1.3254740113553e-13,-4.050637078428e-13,1.3471351398915e-13,-0.00097142163994944,0.00097142163893675,-0.0012728501621297,0.0012728501615992,-0.001272850162229,0.0012728501620236,-0.0012728501624361,0.0012728501618558,-0.0012728501625354,0.0012728501622802,-0.00099622411641584,0.0009962241155562,-0.00099622411626723,0.00099622411648618,-0.00099622411608332,0.00099622411589927,-0.00099622411644328,0.00099622411630331,-1.2100633275136e-13,-1.2339881848609e-13,-0.0009714216399348,0.00097142163895141,1.0752150940934e-13,-3.9133232447787e-13,-0.001272850161998,0.0012728501618061,-0.0012728501623882,0.001272850161877,-0.0012728501622294,0.0012728501620358,-0.0012728501626336,0.0012728501621209,-0.00099622411660894,0.00099622411613696,-0.0009962241162138,0.00099622411574641,0.71639572357224,134343,3014,0.0040402425062453,0.0040402425062452,0.0040402425062452,35.945827969868,0.00020276662375895,0.00020276662375895,0.00020276662375895,2836435.5049084,0.012196011139774
36419200,0.99999178793953,0.014999360906845,0.0049997869689483,0.0049997869689482,0.0049997869689483,-0.00097377946519039,0.00097377946632134,5.592012991371e-13,5.6163366600644e-13,5.3223821107623e-13,5.5455319113361e-13,-0.0012744639483359,0.0012744639496728,-0.0012744639483066,0.0012744639496451,-0.0012744639483858,0.001274463949666,-0.0012744639483631,0.0012744639496449,-0.00099872450162893,0.00099872450291487,-0.00099872450205753,0.00099872450334816,5.2694749464505e-13,5.6071399189597e-13,4.6298087095808e-13,6.5986934802181e-13,-0.00097377946518971,0.00097377946632196,-0.0012744639483422,0.001274463949635,-0.0012744639483028,0.0012744639496804,-0.0012744639483918,0.0012744639496353,-0.0012744639483523,0.0012744639496807,-0.00099872450171912,0.00099872450280779,-0.00099872450196117,0.0009987245034619,-0.0009987245016254,0.00099872450290688,-0.00099872450203611,0.00099872450338382,5.9504773346491e-13,5.926205723189e-13,-0.00097377946515573,0.00097377946635596,6.3814399043325e-13,4.9368810934361e-13,-0.0012744639483215,0.001274463949749,-0.0012744639483237,0.0012744639496723,-0.0012744639482851,0.0012744639497109,-0.0012744639483055,0.0012744639496525,-0.00099872450205395,0.00099872450335104,-0.00099872450160821,0.00099872450290996,0.7306262834018,134343,3014,0.0040500208660021,0.004050020866002,0.004050020866002,37.486240179916,0.00021508992143933,0.00021508992143933,0.00021508992143933,2835750.960682,0.012225687658698
37419200,0.99999520410844,0.014999410795318,0.0049998035984392,0.0049998035984392,0.0049998035984392,-0.00097373815705181,0.00097373815918669,8.8571967716596e-13,8.8815398515247e-13,8.5041304987684e-13,8.7960218758048e-13,-0.0012754805547113,0.0012754805568441,-0.0012754805545587,0.0012754805566931,-0.0012754805546419,0.0012754805567177,-0.0012754805544967,0.0012754805565741,-0.00099857190550582,0.00099857190754965,-0.00099857190595821,0.00099857190800672,8.4509775182069e-13,8.8582746799068e-13,8.6489741253656e-13,9.1100928966723e-13,-0.00097373815705112,0.00097373815918733,-0.0012754805546893,0.0012754805568311,-0.0012754805545832,0.0012754805567036,-0.0012754805546199,0.0012754805567122,-0.0012754805545138,0.0012754805565847,-0.00099857190552054,0.00099857190751356,-0.00099857190593727,0.00099857190804955,-0.00099857190553149,0.00099857190750651,-0.00099857190596737,0.00099857190801743,9.2642799237841e-13,9.2399871365003e-13,-0.00097373815701229,0.00097373815922618,8.876535298528e-13,8.9928686563884e-13,-0.0012754805547213,0.0012754805569006,-0.0012754805545465,0.0012754805567529,-0.0012754805545608,0.0012754805567385,-0.0012754805544062,0.001275480556611,-0.00099857190592418,0.00099857190803977,-0.00099857190545331,0.00099857190757356,0.7195688567388,134343,3014,0.0040498562533756,0.0040498562533755,0.0040498562533755,37.681166354767,0.00021664933083813,0.00021664933083813,0.00021664933083813,2806887.3788448,0.012225211314752
38419200,0.99999716748463,0.014999440577994,0.004999813525998,0.0049998135259979,0.0049998135259979,-0.00097192680235073,0.00097192680499523,1.050396117002e-12,1.0529166870591e-12,1.0099242798594e-12,1.0435753547834e-12,-0.0012736544258318,0.0012736544283732,-0.0012736544256168,0.0012736544281599,-0.0012736544257012,0.0012736544281859,-0.0012736544254925,0.0012736544279789,-0.00099689420997838,0.00099689421240404,-0.00099689421044352,0.00099689421287403,1.0046937192048e-12,1.0496758467264e-12,1.4513555269746e-12,6.539694953998e-13,-0.00097192680235005,0.00097192680499585,-0.0012736544256736,0.0012736544285013,-0.0012736544257775,0.0012736544280294,-0.0012736544255425,0.0012736544283209,-0.0012736544256464,0.001273654427849,-0.00099689420958227,0.00099689421278476,-0.00099689421083316,0.00099689421249964,-0.00099689421014518,0.00099689421221367,-0.00099689421059569,0.00099689421274499,1.1338929779949e-12,1.1313774666068e-12,-0.00097192680226859,0.00097192680507733,6.8225412819294e-13,1.5300507285887e-12,-0.0012736544259428,0.001273654428333,-0.0012736544254264,0.0012736544283982,-0.001273654425718,0.0012736544281065,-0.0012736544252228,0.0012736544281929,-0.00099689421022836,0.00099689421308881,-0.00099689420974269,0.00099689421260796,0.74580747229312,134343,3014,0.0040423382261997,0.0040423382261996,0.0040423382261996,37.194176606582,0.00021275341285266,0.00021275341285266,0.00021275341285266,2802135.0723796,0.012202378326043
38880000,0.99999785317346,0.014999451040106,0.0049998170133687,0.0049998170133686,0.0049998170133687,-0.00097183004055265,0.00097183004283958,9.3468194610814e-13,9.3720154560669e-13,8.988599669156e-13,9.2851503156197e-13,-0.0012747648829423,0.0012747648851933,-0.001274764882774,0.0012747648850267,-0.0012747648828567,0.0012747648850505,-0.0012747648826944,0.0012747648848899,-0.00099666006873212,0.00099666007089033,-0.0009966600691915,0.00099666007135455,8.9361969373891e-13,9.3462852678418e-13,1.3287560048426e-12,5.4514423549285e-13,-0.00097183004055197,0.0009718300428402,-0.0012747648827878,0.0012747648853192,-0.0012747648829309,0.0012747648848984,-0.0012747648827016,0.0012747648851831,-0.0012747648828448,0.0012747648847624,-0.00099666006834371,0.0009966600712658,-0.00099666006957371,0.00099666007098568,-0.00099666006889401,0.00099666007070835,-0.00099666006933834,0.00099666007122768,1.0118485298984e-12,1.0093336361385e-12,-0.00097183004047676,0.00097183004291543,5.7020940402353e-13,1.4016317693469e-12,-0.0012747648830551,0.001274764885149,-0.0012747648825917,0.0012747648852552,-0.0012747648828773,0.0012747648849696,-0.0012747648824342,0.0012747648850961,-0.00099666006898524,0.00099666007156086,-0.00099666006850613,0.00099666007108656,0.74996681887873,134343,3014,0.004041945535609,0.0040419455356088,0.0040419455356089,37.193611323696,0.00021274889058957,0.00021274889058957,0.00021274889058957,2774487.4784019,0.012201211699801
