time,ASR_ext,ASR_strain,ASR_strain_xx,ASR_strain_yy,ASR_strain_zz,disp_x_101,disp_x_102,disp_x_103,disp_x_104,disp_x_105,disp_x_106,disp_x_p1_neg,disp_x_p1_pos,disp_x_p2_neg,disp_x_p2_pos,disp_x_p3_neg,disp_x_p3_pos,disp_x_p4_neg,disp_x_p4_pos,disp_x_p5_neg,disp_x_p5_pos,disp_x_p6_neg,disp_x_p6_pos,disp_y_101,disp_y_102,disp_y_103,disp_y_104,disp_y_105,disp_y_106,disp_y_p1_neg,disp_y_p1_pos,disp_y_p2_neg,disp_y_p2_pos,disp_y_p3_neg,disp_y_p3_pos,disp_y_p4_neg,disp_y_p4_pos,disp_y_p5_neg,disp_y_p5_pos,disp_y_p6_neg,disp_y_p6_pos,disp_y_p7_neg,disp_y_p7_pos,disp_y_p8_neg,disp_y_p8_pos,disp_z_101,disp_z_102,disp_z_103,disp_z_104,disp_z_105,disp_z_106,disp_z_p1_neg,disp_z_p1_pos,disp_z_p2_neg,disp_z_p2_pos,disp_z_p3_neg,disp_z_p3_pos,disp_z_p4_neg,disp_z_p4_pos,disp_z_p5_neg,disp_z_p5_pos,disp_z_p6_neg,disp_z_p6_pos,humidity,ndof,nelem,strain_xx,strain_yy,strain_zz,temp,thermal_strain_xx,thermal_strain_yy,thermal_strain_zz,vonmises,vstrain
2419200,0,0,0,0,0,0,0,0,0,0,0,0,0,0,0,0,0,0,0,0,0,0,0,0,0,0,0,0,0,0,0,0,0,0,0,0,0,0,0,0,0,0,0,0,0,0,0,0,0,0,0,0,0,0,0,0,0,0,0,0,0,0,0,0,0,0,0,0,0,0,0,0,0,0,0
3419200,0.15846859669257,0.0027326333783929,0.00091087779279765,0.00091087779279765,0.00091087779279765,-0.00024410989567631,0.00024462566628832,1.3846481822287e-06,-1.2223720651614e-06,-8.394284960111e-07,1.7912904124369e-06,-0.00025231295428252,0.00025268633836443,-0.00025318854126193,0.00025194280586128,-0.00025138603879673,0.00025365691266963,-0.00025214375491331,0.00025278879945383,-0.00024473719938003,0.00024798213329854,-0.00024724477290396,0.00024565870440806,5.1975339481465e-07,-2.121154073619e-06,-2.3756057966159e-06,9.9648831101261e-07,-0.00024507758282575,0.00024366952878215,-0.00025351655396765,0.00025203713122731,-0.00025244528603434,0.00025305260821321,-0.00025423469626919,0.00025082584574522,-0.00025294686573455,0.00025187140150055,-0.000249436533702,0.00024329415781041,-0.00024530896065158,0.00024659801304075,-0.0002455660168003,0.00024766664111782,-0.00024722681967923,0.00024456296110765,-1.8286222862625e-06,7.8575530180027e-07,-0.00024472975013351,0.00024397727123827,1.3212947232069e-06,-2.0020346792469e-06,-0.0002523784127793,0.00025201294627036,-0.00025357992383973,0.00025101668145507,-0.00025169372986848,0.0002531462127356,-0.00025302803982682,0.00025205764764142,-0.00024652645421246,0.00024691188809708,-0.00024814337328456,0.00024374192406984,0.78396790151885,134640,3014,0.0010176804377098,0.0010177044841064,0.0010176210464339,31.78537611194,0.00016948300889552,0.00016948300889552,0.00016948300889552,2124783.9544882,0.003057675168367
4419200,0.34815987672428,0.0057940698539336,0.0019314026705504,0.0019316532582806,0.0019310139251026,-0.00047475646230506,0.00047607928012293,2.5837805983108e-06,-2.118841799317e-06,-1.5556019457276e-06,3.9133037687858e-06,-0.00051258322025518,0.00051336346031198,-0.00051417208240132,0.00051209238292094,-0.00051064693700637,0.00051537376986479,-0.00051195694770614,0.00051383159419698,-0.00047960591741093,0.0004857194491835,-0.00048401806689286,0.00048168033622242,9.4373706626924e-07,-4.5301923723466e-06,-4.8659072934802e-06,1.8076286703957e-06,-0.00047703382441078,0.00047388805099059,-0.00051525326570869,0.00051207700260172,-0.00051310449739016,0.0005140462357954,-0.00051669537594298,0.00050941702401503,-0.00051398119988698,0.00051146850133298,-0.00048904803685446,0.00047645729095677,-0.00048084824743606,0.00048311927598457,-0.00048132533060055,0.00048543543094076,-0.00048480547553468,0.00047872426744414,-3.7349811239966e-06,9.8302807051286e-07,-0.0004763996468252,0.00047430734776434,2.317658862348e-06,-4.2645471026278e-06,-0.00051285008812809,0.00051166049083645,-0.00051519918140787,0.00050975943874561,-0.00051173593690833,0.00051391352346438,-0.00051442975569542,0.00051174928175033,-0.00048374925635203,0.0004833055929371,-0.00048624363732309,0.00047747518059521,0.77882048942115,134640,3014,0.0019789609252016,0.0019791400243118,0.0019786932516956,33.598604762549,0.00018398883810039,0.00018398883810039,0.00018398883810039,3550652.6768865,0.0059544935363806
5419200,0.54762666227711,0.0088581618811319,0.0029527307359519,0.0029528301673276,0.0029526009778524,-0.00070049987230385,0.0007010073785972,1.4429527718573e-06,-1.4781642747041e-06,-1.0163280520038e-06,2.248828688293e-06,-0.00078688531725766,0.00078705337229531,-0.0007877945205126,0.00078620140733273,-0.00078568089641034,0.00078824055421519,-0.00078646748226615,0.00078726812553441,-0.00071338509199866,0.00071667581613639,-0.00071601322887882,0.00071426174860173,9.6590700014133e-07,-2.3030002267389e-06,-3.332539822927e-06,2.4495235573357e-06,-0.00070122816650193,0.00070030447955135,-0.00078804228172691,0.00078658058735777,-0.00078624312672377,0.00078834884360509,-0.00078893565947302,0.00078501145087615,-0.00078674691084975,0.00078685982797023,-0.00071935033110374,0.00071077569526733,-0.00071255872293227,0.00071669391174721,-0.00071345431292965,0.00071735807091276,-0.00071549875091657,0.00071334507775419,-2.4300508472527e-06,5.1253525087432e-07,-0.00070146148461053,0.00070002057773106,2.0809980901504e-06,-3.5461412375986e-06,-0.0007866702127083,0.00078638292811051,-0.00078865968571892,0.000784690239725,-0.00078591239254781,0.00078774762589098,-0.00078815126957843,0.00078584108556881,-0.00071608878357661,0.00071509606129185,-0.00071754848095074,0.00071155098621767,0.77319620109489,134640,3014,0.0029156237685935,0.0029156765909174,0.0029155712941358,36.266592204067,0.00020533273763254,0.00020533273763254,0.00020533273763254,4577941.1625741,0.0087853975001502
6419200,0.70427825321079,0.011047022688217,0.0036823337258607,0.0036823454726354,0.0036823434897208,-0.00084693557788379,0.00084730266429201,8.0130966131509e-07,-1.1231907127522e-06,-1.1596474854515e-06,2.3569641773802e-06,-0.00098911968083394,0.00098878763830698,-0.00098973272676454,0.00098826956110077,-0.00098786894080225,0.00099005789297466,-0.00098830581462017,0.00098944147453356,-0.00086203354972007,0.00086397668467452,-0.00086366774902348,0.00086266164304684,9.0714025364034e-07,-2.6070454159368e-06,-3.0229881442174e-06,1.9168560621917e-06,-0.00084772629666355,0.00084649883693194,-0.00099002316530813,0.00098858453255849,-0.00098845655487227,0.00099007124702887,-0.0009910045711313,0.00098691737133285,-0.00098905383277192,0.00098847308414079,-0.00086716486682341,0.00085904203647453,-0.00086098956946762,0.00086404932756629,-0.00086167472860151,0.00086515782017932,-0.00086387665516732,0.0008608710154189,-1.8604349836733e-06,8.5455971548398e-08,-0.00084774392997006,0.00084653720062218,1.8200979271608e-06,-2.9801311666541e-06,-0.00098854403215782,0.0009885386752324,-0.00099022044791067,0.00098713598505497,-0.0009881112409918,0.00098959189785656,-0.0009900665249137,0.00098796733760502,-0.00086453036660603,0.00086292666804548,-0.00086474861279415,0.00086023050075986,0.7291435703838,134640,3014,0.0035236393486059,0.0035236122437628,0.0035237280447317,36.738372756617,0.00020910698205294,0.00020910698205294,0.00020910698205294,4870792.7333222,0.010627401187796
7419200,0.83045226393513,0.01273492104879,0.004244963322141,0.0042449356842074,0.0042450220424414,-0.00094955437666309,0.00095006835428133,1.0890798168645e-06,-1.1896305944918e-06,-1.6011459675934e-06,2.8414256127732e-06,-0.0011434778452034,0.0011431162368915,-0.0011441961138141,0.0011424902417688,-0.0011419183916451,0.0011446873698953,-0.0011424799883646,0.0011439721092175,-0.00096488342202536,0.00096779225143073,-0.00096692414327153,0.00096618866406267,1.4148544041101e-06,-3.0249068282091e-06,-2.6415851467122e-06,1.5572916289875e-06,-0.00095038740310072,0.00094920722546111,-0.0011440288227937,0.0011431649881491,-0.0011427130850706,0.0011444101896419,-0.00114537337985,0.0011412490204685,-0.0011436485446761,0.0011425715925657,-0.00097031768733932,0.00096251200447953,-0.00096494425089436,0.00096698562444525,-0.00096465001831425,0.0009686954641839,-0.00096783846467941,0.00096389892796192,-2.0343452214804e-06,2.6662473943382e-07,-0.00095043599736475,0.00094925813746313,1.4572184287708e-06,-2.6100335442869e-06,-0.0011430656424319,0.001142773109984,-0.0011445081970863,0.0011416150350627,-0.001142485012888,0.0011438954529216,-0.0011441637888846,0.0011424945037321,-0.00096756414830136,0.00096649847555384,-0.00096830741358375,0.00096370134659731,0.71234622079923,134640,3014,0.0039500827504514,0.0039500245714742,0.003950230449086,40.760780650871,0.00024128624520697,0.00024128624520697,0.00024128624520697,4946989.0691627,0.011921407786712
8419200,0.90680971613483,0.013733765906205,0.0045779107283911,0.0045778731281184,0.0045779820496957,-0.00099251371664495,0.00099319429318106,1.5707850725029e-06,-1.4667801111349e-06,-1.5547897094683e-06,2.9838355517721e-06,-0.0012244473459936,0.0012244492753693,-0.0012254055115121,0.0012235474045176,-0.0012228585133892,0.0012260452596089,-0.0012236828863972,0.001225067622655,-0.0010091533193714,0.0010130603748311,-0.001011877248689,0.0010106011459797,1.4211898937882e-06,-3.1138518705384e-06,-2.5283793032769e-06,1.3959571892623e-06,-0.0009934548848744,0.00099221666377709,-0.001225118032029,0.001224331529276,-0.0012239036227776,0.0012254805073578,-0.0012264973381709,0.0012224113561655,-0.0012248978453233,0.0012236435298864,-0.0010148655922442,0.0010073800401863,-0.0010098775616762,0.001011506626876,-0.0010093477778379,0.0010134187615727,-0.0010127124626963,0.0010084583898036,-2.2913469638878e-06,7.6683734170802e-07,-0.00099338645614722,0.00099239840671554,1.4161994589389e-06,-2.3810475631526e-06,-0.0012243301336877,0.0012238507801853,-0.0012256878739941,0.0012227744198195,-0.0012234690309148,0.0012252080474403,-0.0012250633457375,0.0012238963017707,-0.0010116494730189,0.0010117305083903,-0.0010132568604815,0.0010082297981786,0.69848786966001,134640,3014,0.0041288539288991,0.004128778400476,0.0041290127237581,41.433084658943,0.00024666467727155,0.00024666467727155,0.00024666467727155,4688119.9054528,0.012464479824909
9419200,0.94913266460763,0.014277912919851,0.004759292303752,0.0047592497227392,0.0047593708933601,-0.0010052690921549,0.0010058491087525,1.6087630286326e-06,-1.608886443289e-06,-1.5937148371548e-06,2.925328388209e-06,-0.0012619121322107,0.0012618837840928,-0.0012629266954121,0.0012609111896235,-0.0012603346868886,0.0012634724508535,-0.0012612168016461,0.0012624309721069,-0.0010233388722062,0.0010272997767033,-0.0010262441214904,0.0010246737512136,1.4024934056995e-06,-3.1138858835792e-06,-2.4086324316215e-06,1.2680692566565e-06,-0.0010061600339952,0.0010049178047111,-0.0012625189625681,0.0012618160033325,-0.0012613862550121,0.0012628785434924,-0.0012638934810151,0.0012599094977191,-0.0012623834599029,0.0012610614375855,-0.0010289868790365,0.0010217284291189,-0.0010242178547787,0.0010256218328194,-0.0010236111944179,0.0010275778670908,-0.0010269666322665,0.0010226023876042,-2.3442033456125e-06,8.9340271497342e-07,-0.0010060607298708,0.0010051383106411,1.3319525710245e-06,-2.2213394618514e-06,-0.0012618491596635,0.0012612779015736,-0.0012631105652245,0.0012602757257532,-0.0012609122056769,0.0012626881168945,-0.0012624234486376,0.0012614480487524,-0.0010256943423294,0.0010260912520936,-0.0010274742829041,0.0010224172623198,0.67994985088383,134640,3014,0.0041816860126775,0.0041816024010823,0.004181852979185,41.145479031469,0.00024436383225175,0.00024436383225175,0.00024436383225175,4368357.6534226,0.01262513701139
10419200,0.97031595951877,0.014559729085727,0.0048532304653142,0.0048531858625667,0.0048533127578465,-0.0010031117916512,0.0010035070063289,1.4776647322101e-06,-1.6638598706079e-06,-1.1359622544652e-06,2.2627926044407e-06,-0.0012723361911607,0.0012724767564443,-0.0012733280188001,0.0012715260863562,-0.0012711166292727,0.0012736843314383,-0.0012719778700276,0.001272669726072,-0.0010228054502124,0.0010261212332321,-0.0010256620310917,0.0010235871859389,9.4213391207763e-07,-2.4538497230323e-06,-2.5628150889108e-06,1.5943395753485e-06,-0.0010038208336339,0.0010027563653246,-0.0012731860814107,0.0012721314914407,-0.0012719024444841,0.0012733595128233,-0.0012742073263231,0.0012706124715942,-0.0012725512308615,0.0012719237610819,-0.0010281220416592,0.0010209457482059,-0.0010228604774595,0.0010252866774813,-0.0010231240169026,0.0010263614269609,-0.0010254114190683,0.0010224687633838,-2.3444512068768e-06,8.1894693677671e-07,-0.0010038468588917,0.0010028579372298,1.536289162562e-06,-2.4913994665717e-06,-0.0012723073680438,0.0012718559859688,-0.001273723667172,0.0012706950473017,-0.0012713956358978,0.001273232778743,-0.0012730541557277,0.0012718371406145,-0.0010250007433161,0.001025087530667,-0.0010267097031193,0.0010214717570477,0.69329668256523,134640,3014,0.0041724137722228,0.0041723275989913,0.0041725914654256,38.100583853105,0.00022000467082484,0.00022000467082484,0.00022000467082484,4113961.8056503,0.01259707264979
11419200,0.98255181785243,0.014720586307712,0.0049068491085362,0.0049068035611514,0.0049069336380241,-0.0010018261031825,0.0010022141647511,1.5284426772196e-06,-1.7198235916144e-06,-1.1284462885242e-06,2.2447725215223e-06,-0.001281377788257,0.0012815556011106,-0.0012824033604528,0.0012805673027997,-0.0012801654056851,0.0012827555999183,-0.001281062971934,0.0012817037523177,-0.0010225051160625,0.0010259125028139,-0.0010254649903561,0.0010232712772793,9.3077253364103e-07,-2.439818238036e-06,-2.513261798031e-06,1.5478953433926e-06,-0.0010025298185077,0.0010014676738841,-0.0012822303667672,0.0012812018173546,-0.0012809782579781,0.0012823968471446,-0.0012832462051149,0.0012796931930349,-0.0012816226512685,0.0012809739719766,-0.0010278155573847,0.0010207413411379,-0.001022647302622,0.0010249936069093,-0.0010228908257741,0.0010260708903114,-0.0010251594742558,0.0010222148364997,-2.3878680187374e-06,8.8217202880036e-07,-0.0010025502548525,0.0010015781789672,1.4976485920175e-06,-2.4353061538461e-06,-0.0012813984690904,0.0012808939892541,-0.001282781063007,0.0012797639281475,-0.0012804469227731,0.0012823041301635,-0.0012820726010172,0.0012809379112301,-0.0010246638001573,0.0010249061427695,-0.001026482651546,0.001021193052877,0.67906583974283,134640,3014,0.0041671200324746,0.0041670314226276,0.0041673021834378,37.628197151635,0.00021622557721308,0.00021622557721308,0.00021622557721308,3900867.7075273,0.012581103700755
12419200,0.98957078519863,0.014815703954624,0.0049385547669837,0.004938508721639,0.0049386404660013,-0.00099844147431024,0.00099884950282039,1.5944443968947e-06,-1.7632795225462e-06,-1.1407234532071e-06,2.2849050789052e-06,-0.0012828356725471,0.001283053065255,-0.0012839034164288,0.001282024990522,-0.001281598349689,0.0012842477211162,-0.001282534089806,0.0012831778084191,-0.0010199171219545,0.0010234602142045,-0.001022959420949,0.0010207071710356,9.5630539251757e-07,-2.4644569566898e-06,-2.5359318475545e-06,1.5660388394251e-06,-0.00099915721023523,0.00099809299681169,-0.0012836965869951,0.0012826640658927,-0.0012824361012845,0.001283893699207,-0.0012847451404272,0.0012811535466726,-0.0012831128075454,0.0012824529866285,-0.001025293438894,0.0010181908582075,-0.0010201494066271,0.0010224781731697,-0.0010203111774204,0.001023568369992,-0.0010226539685887,0.0010196693293072,-2.4474867253554e-06,9.3300224555863e-07,-0.0009991855734604,0.0009981969569667,1.5021442782632e-06,-2.471372307038e-06,-0.0012828838071689,0.0012823541716319,-0.0012842997502096,0.0012812162667502,-0.001281902730624,0.0012837901603981,-0.0012835416262345,0.0012824246976045,-0.0010220837943505,0.0010224259654294,-0.0010240218340492,0.0010186118076266,0.69355173703386,134640,3014,0.0041531416586193,0.0041530573181065,0.0041533308912221,36.804267166657,0.00020963413733326,0.00020963413733326,0.00020963413733326,3775208.4948272,0.012538692080129
13419200,0.99349127634186,0.014867631178424,0.0049558636916699,0.0049558174409798,0.0049559500457742,-0.00099348685861688,0.0009938720073728,1.6305032217979e-06,-1.8225391635708e-06,-1.127477715507e-06,2.2375247597793e-06,-0.0012824999966714,0.0012827466576512,-0.0012835935836016,0.0012816886025096,-0.0012812914364427,0.001283944313216,-0.0012822570453682,0.0012828240677074,-0.0010152516927652,0.0010188548747599,-0.0010184111310015,0.0010160149516653,9.2785937881388e-07,-2.4347997518725e-06,-2.5876846591733e-06,1.6235806024351e-06,-0.00099418738483031,0.00099312711850094,-0.0012834084406936,0.0012823298825748,-0.001282107743084,0.0012835749404283,-0.0012844237915116,0.001280828293212,-0.0012827543497708,0.0012821579463694,-0.0010207301740213,0.0010135153554698,-0.0010154228816127,0.001017915385798,-0.0010157061866401,0.0010189348670886,-0.0010179786587366,0.0010150909686204,-2.4994266166071e-06,9.75380103317e-07,-0.00099422010898199,0.00099322861624192,1.5605313741446e-06,-2.5202830199058e-06,-0.0012825782853318,0.0012820356236312,-0.0012840093882104,0.0012808545430235,-0.0012815554999049,0.0012835119284565,-0.0012832284994208,0.0012820942159101,-0.0010174385045295,0.0010178130914283,-0.001019463923765,0.0010139065599533,0.67550368780458,134640,3014,0.0041325615019766,0.0041324695967261,0.004132747134377,34.794598025539,0.00019355678420431,0.00019355678420431,0.00019355678420431,3639412.8672261,0.012476230094512
14419200,0.99575512629983,0.014897287350415,0.0049657490230707,0.0049657026196166,0.0049658357077277,-0.00098753729446192,0.00098792037474213,1.650414832157e-06,-1.8433034851128e-06,-1.1170084184535e-06,2.2249329325078e-06,-0.0012776210136019,0.0012778865927754,-0.0012787273847653,0.0012768138977583,-0.0012764171037547,0.0012790716983035,-0.0012773977016986,0.0012779413168087,-0.0010096021023989,0.0010132366819457,-0.0010128039376871,0.001010358076974,9.1971113726254e-07,-2.4197564597911e-06,-2.6629360235169e-06,1.7048157595874e-06,-0.00098823411535414,0.00098717957771664,-0.0012785613352726,0.0012774294180145,-0.0012772118865194,0.0012787286129305,-0.0012795727746319,0.0012759381857791,-0.0012778538493339,0.0012773221468085,-0.0010151662181825,0.001007813122364,-0.0010097085236106,0.001012367991784,-0.0010100559912252,0.0010133170533327,-0.0010123089396343,0.0010095016071538,-2.5313175261121e-06,9.8440159155508e-07,-0.00098828146557602,0.00098726769424034,1.6250838361615e-06,-2.6103487198167e-06,-0.0012776990449823,0.0012771749458634,-0.0012791828303205,0.0012759436193442,-0.0012766635014402,0.0012786620929547,-0.0012783873675361,0.0012771950837965,-0.0010118223445154,0.0010121629986959,-0.0010138923819692,0.0010082186590645,0.66543916131097,134640,3014,0.0041078725515424,0.004107781455105,0.0041080615918722,32.643906427225,0.0001763512514178,0.0001763512514178,0.0001763512514178,3567569.2996438,0.012401243021214
15419200,0.99693403428877,0.014913659778626,0.0049712064664992,0.0049711599912939,0.0049712933208326,-0.0009768718792809,0.00097723999268651,1.6271462799474e-06,-1.8346053932481e-06,-1.0852013305025e-06,2.1760401498127e-06,-0.0012670044493872,0.0012672734237307,-0.0012681026692243,0.0012662096849238,-0.0012658285919073,0.0012684301056784,-0.0012667965796258,0.0012673121244385,-0.00099894516267956,0.0010024989702677,-0.0010021104206948,0.00099965947673973,8.8472756804014e-07,-2.3741237151331e-06,-2.7292452088609e-06,1.7792450765363e-06,-0.00097755661360615,0.00097651120474576,-0.0012679771589717,0.0012667802997827,-0.001266581396286,0.0012681282714828,-0.0012689628396666,0.0012653185734301,-0.0012671997668223,0.0012667478161705,-0.0010045179603574,0.00099706759288776,-0.00099893123764909,0.0010017585417832,-0.00099936319995821,0.0010026116708876,-0.0010015474737636,0.00099886982322645,-2.5249437640095e-06,9.5884471442718e-07,-0.00097761847743132,0.00097658558620154,1.6831471785549e-06,-2.6908851869761e-06,-0.0012670663933048,0.0012665808668651,-0.0012685966454108,0.0012653038605513,-0.0012660409158532,0.0012680576236767,-0.0012678106582297,0.0012665437050783,-0.0010011750501066,0.0010014146186922,-0.001003211422486,0.00099750560004032,0.70138893956891,134640,3014,0.0040635811295516,0.0040634898691216,0.0040637716403135,27.069722678282,0.00013175778142625,0.00013175778142625,0.00013175778142625,3474166.4297011,0.012266723527087
16419200,0.9976908648503,0.014923818733851,0.0049745927640644,0.0049745462437003,0.0049746797260866,-0.00097179394472574,0.00097222947618915,1.6884503573278e-06,-1.8198730179722e-06,-1.0435270233192e-06,2.2167423832945e-06,-0.0012652329430245,0.0012655830792926,-0.001266348913924,0.0012644943628669,-0.0012640552763514,0.0012667091978351,-0.0012650347289855,0.0012655959068443,-0.00099370414637872,0.00099735460647574,-0.00099689857331801,0.00099448926272226,8.8602153201027e-07,-2.3684415865572e-06,-2.7685059951777e-06,1.8283824549998e-06,-0.00097250938471079,0.00097147168460771,-0.001266246093624,0.0012650177835746,-0.0012648218754536,0.0012664111836279,-0.0012672402904333,0.0012635699065895,-0.0012654506098468,0.0012650385124507,-0.00099935207277675,0.00099185416253491,-0.00099370907574679,0.00099662032763017,-0.00099414820689725,0.00099743935650241,-0.00099635105219386,0.00099369320078502,-2.5565267623047e-06,9.7406443510637e-07,-0.00097258274819152,0.00097153171688953,1.7161160084654e-06,-2.7467763633731e-06,-0.0012653189945115,0.0012648419052648,-0.0012668960516735,0.0012635441856383,-0.0012642820150843,0.0012663246306323,-0.0012660938329511,0.0012647914552612,-0.00099598573312601,0.00099621448731328,-0.0009980697665536,0.00099227896071235,0.67697638762169,134640,3014,0.0040426685632622,0.0040425809236665,0.0040428566913982,24.41833532113,0.00011054668256904,0.00011054668256904,0.00011054668256904,3358838.9495531,0.012203289695955
17419200,0.99819913001319,0.014930846132285,0.0049769352170933,0.0049768886700426,0.0049770222451489,-0.00096563552633935,0.0009660303166943,1.6702371283303e-06,-1.8481040149133e-06,-1.0587501334007e-06,2.1756295180925e-06,-0.0012583799913463,0.0012587033882274,-0.0012594930527098,0.0012576099591623,-0.0012572148431857,0.0012598455457736,-0.00125819043538,0.0012587125066302,-0.00098777369104333,0.00099138588085708,-0.00099098238234358,0.00098850755445808,8.7368783224416e-07,-2.3587378962394e-06,-2.7881454036891e-06,1.8385568631329e-06,-0.00096633065373257,0.00096528935802591,-0.0012593963095216,0.0012581585328209,-0.0012579572433137,0.0012595488813372,-0.0012603690949958,0.0012566974154398,-0.0012585737018557,0.0012581717527655,-0.00099341796622685,0.00098587427762245,-0.00098774009431309,0.00099068474940751,-0.00098819179630133,0.00099147584238028,-0.00099037678552348,0.00098775476385335,-2.5581343232634e-06,9.8085398592251e-07,-0.00096640194636805,0.00096535387060603,1.730303074564e-06,-2.7594203205515e-06,-0.0012584670538592,0.0012579863454471,-0.0012600367287902,0.0012566705585243,-0.0012574155997241,0.0012594811985347,-0.0012592339097874,0.0012579258815706,-0.0009900347930039,0.00099026023519972,-0.000992106076052,0.00098630259927751,0.69394003836384,134640,3014,0.0040170203262385,0.0040169253651617,0.0040172062214015,21.980202011765,9.1041616094123e-05,9.1041616094123e-05,9.1041616094123e-05,3320934.1674379,0.012125369939953
18419200,0.99851489136425,0.01493514382272,0.0049783677739393,0.0049783212065184,0.004978454842262,-0.00095750365400351,0.00095787124468501,1.6842245624049e-06,-1.8908985131838e-06,-1.0678679726248e-06,2.1551446036473e-06,-0.0012514101990418,0.0012517280437187,-0.0012525431661269,0.0012506266692419,-0.0012502445078334,0.0012528735612894,-0.0012512523505775,0.001251715812884,-0.00097938959195242,0.0009830501108676,-0.00098267053582974,0.00098009411106512,8.6960395530205e-07,-2.3510106777401e-06,-2.8268244747561e-06,1.8855484549583e-06,-0.00095818416197183,0.00095714573595705,-0.0012524408318872,0.0012511719534039,-0.0012509808139975,0.00125258598252,-0.0012534162201411,0.001249724182548,-0.0012515881197519,0.0012512216395691,-0.00098510695565116,0.00097747210603031,-0.00097931744810214,0.00098237005632969,-0.00097984446820471,0.00098312143442691,-0.00098199009924253,0.00097943117656294,-2.5945142679203e-06,1.002749069552e-06,-0.00095826299865458,0.00095720376511336,1.7688487757561e-06,-2.8063650833042e-06,-0.0012514945537931,0.0012510120846325,-0.0012530902168459,0.0012496681430127,-0.0012504303953929,0.0012525250943933,-0.0012522645101643,0.0012509449006293,-0.00098166121244329,0.00098192262538782,-0.00098381589494649,0.0009779056074663,0.68267067345847,134640,3014,0.003983222889716,0.0039831296705346,0.0039834126980525,17.477991088817,5.5023928710538e-05,5.5023928710538e-05,5.5023928710538e-05,3225101.7261782,0.012022784992364
19419200,0.99877634922929,0.014938926778824,0.0049796287534283,0.0049795821712882,0.0049797158541076,-0.00095563942310494,0.00095601380337969,1.6907168396371e-06,-1.8899394195149e-06,-1.0856155968909e-06,2.1812027321472e-06,-0.001249865694601,0.0012501767916944,-0.0012509994575467,0.0012490725660239,-0.0012486847257432,0.0012513348819008,-0.0012496942311864,0.0012501765532149,-0.00097781343636918,0.00098150029839198,-0.00098110067126296,0.00097853956073449,8.878029955667e-07,-2.376630896246e-06,-2.8294493933233e-06,1.8814671904877e-06,-0.00095632677200626,0.00095528181598332,-0.0012508874908637,0.0012496275003943,-0.0012494280599076,0.0012510418241275,-0.0012518776701008,0.0012481644031277,-0.001250050169543,0.001249663561115,-0.00098355318215358,0.00097589984701126,-0.00097776728654657,0.00098079696601825,-0.00097826358961925,0.00098157559351198,-0.00098045327451571,0.00097784274076991,-2.5970404109342e-06,1.0055849834398e-06,-0.00095640265787598,0.00095534348209098,1.7679101611367e-06,-2.8059728434479e-06,-0.0012499480636148,0.0012494642346188,-0.0012515438955352,0.0012481206131634,-0.0012488812750706,0.0012509780440526,-0.00125071670569,0.0012493980737996,-0.00098009473638132,0.00098036130358256,-0.00098225513689267,0.00097633888426627,0.72158242952903,134640,3014,0.0039755006032412,0.0039754081354164,0.0039756925993694,17.551568050536,5.5612544404292e-05,5.5612544404292e-05,5.5612544404292e-05,3201632.9309201,0.011999337937466
20419200,0.99900389100004,0.014942256199752,0.0049807385550468,0.0049806919607073,0.0049808256839975,-0.00095658412140428,0.00095696708615147,1.7203254221776e-06,-1.9104052406227e-06,-1.1114471041506e-06,2.2152440337813e-06,-0.0012540126092643,0.0012543297412879,-0.0012551629255448,0.0012532084840485,-0.0012528125178325,0.0012555077555892,-0.0012538386813855,0.0012543327861839,-0.00097870555637782,0.00098247014995695,-0.00098204206895374,0.00097946186075521,9.1249963801256e-07,-2.4117484918659e-06,-2.8558436901192e-06,1.8993991631194e-06,-0.00095728036315181,0.00095622622326146,-0.0012550398405022,0.0012537754803014,-0.0012535655290331,0.0012552045903239,-0.0012560493618346,0.0012522926527125,-0.0012542070559166,0.0012538065167575,-0.00098452142316949,0.00097679511235817,-0.00097869186725304,0.00098173720689957,-0.0009791621998783,0.00098253669394244,-0.00098141350634086,0.0009787481048131,-2.6235852477761e-06,1.0289866301023e-06,-0.00095735334597435,0.00095629085894135,1.788003947768e-06,-2.8300435510677e-06,-0.0012541008482459,0.0012536120984577,-0.0012557112769149,0.0012522537581279,-0.0012530172438041,0.0012551424386551,-0.0012548669275925,0.0012535475407159,-0.00098101085715839,0.00098130746510068,-0.00098322070317367,0.00097723773536762,0.72910480586261,134640,3014,0.0039794598061191,0.0039793673859136,0.0039796519455452,18.597312354036,6.3978498832292e-05,6.3978498832292e-05,6.3978498832292e-05,3141629.2582044,0.012011430478035
21419200,0.99915869252284,0.014944461786552,0.0049814737470801,0.0049814271444389,0.004981560895033,-0.00094970443244138,0.00095008945318471,1.7337272769059e-06,-1.9218227340933e-06,-1.1013201117294e-06,2.2077779472492e-06,-0.0012475431353013,0.0012478776004747,-0.0012487006205333,0.0012467449025878,-0.0012463501133645,0.0012490458676584,-0.0012473808400619,0.0012478647614411,-0.00097190239997142,0.00097568180621637,-0.00097526219516154,0.00097265460370048,9.1050879736049e-07,-2.395665280541e-06,-2.8654431008086e-06,1.9239540674822e-06,-0.00095039481670014,0.00094935461962407,-0.0012485800161617,0.001247308842811,-0.0012470918159707,0.0012487531071294,-0.0012495814507389,0.001245832695525,-0.0012477305377623,0.0012473592787989,-0.00097772619378317,0.0009700026308289,-0.00097187805749284,0.00097496989323833,-0.0009723523566956,0.0009757479513478,-0.00097460145000738,0.00097196777185786,-2.6351195873096e-06,1.0419664899228e-06,-0.00095047443094266,0.00094941182886436,1.8039594772721e-06,-2.8473725529188e-06,-0.0012476375233958,0.0012471541975569,-0.0012492630778781,0.0012457832665747,-0.0012465464062945,0.0012486901040344,-0.001248408988527,0.0012470852501247,-0.00097420756324751,0.00097451482678614,-0.00097643892713686,0.0009704178465154,0.70951084593173,134640,3014,0.0039509152659708,0.0039508232011043,0.0039511061213276,15.225615260312,3.7004922082496e-05,3.7004922082496e-05,3.7004922082496e-05,3072684.1404455,0.011924769843456
22419200,0.999286838534,0.014946309036522,0.0049820894942293,0.0049820428848819,0.0049821766574106,-0.00094720093989051,0.00094758377133497,1.7229395009463e-06,-1.9124424068337e-06,-1.1102010914957e-06,2.2138395018646e-06,-0.0012447817285117,0.0012451005813155,-0.0012459330400902,0.0012439774026475,-0.001243582156728,0.0012462771816778,-0.0012446099578227,0.001245100878041,-0.00096971671336619,0.0009734861418178,-0.00097305795227309,0.00097047271666375,9.1166252379237e-07,-2.4099503112348e-06,-2.8679089860911e-06,1.9120906258129e-06,-0.00094789657886882,0.0009468432864516,-0.0012458126809775,0.0012445403547455,-0.0012443307716277,0.0012459777256543,-0.0012468219859809,0.0012430594008175,-0.0012449724604805,0.0012445818329551,-0.00097554552617035,0.00096779738945336,-0.00096969341439812,0.00097276387343395,-0.00097017210951365,0.00097355321968541,-0.00097242167108738,0.0009697678157102,-2.6274226342288e-06,1.0298436780064e-06,-0.00094797185451609,0.00094690612200016,1.7981188964532e-06,-2.8441087894969e-06,-0.0012448695352723,0.0012443841354594,-0.0012464879521743,0.0012430176302139,-0.0012437838845766,0.0012459153429275,-0.0012456415165852,0.0012443122728541,-0.00097202632109777,0.00097231676770133,-0.00097424326563143,0.00096824433716232,0.71604798214682,134640,3014,0.0039405176160856,0.0039404247208231,0.0039407103285306,14.858990533528,3.407192426822e-05,3.407192426822e-05,3.407192426822e-05,3055772.3013358,0.011893186445647
23419200,0.99940063412104,0.014947921628971,0.0049826270225255,0.0049825804072546,0.0049827141991906,-0.00094723175983458,0.00094761890371886,1.7326514887965e-06,-1.9173524890381e-06,-1.1210031503247e-06,2.2296056551179e-06,-0.0012460477650769,0.0012463659041109,-0.0012472032951801,0.0012452380792432,-0.0012448399070642,0.0012475519231559,-0.0012458720071741,0.0012463706780524,-0.00096991949348138,0.00097371905381429,-0.0009732743639406,0.00097068912335924,9.2372910077354e-07,-2.4245246830664e-06,-2.874675006839e-06,1.9171947579574e-06,-0.00094793059819157,0.0009468749569226,-0.0012470778312547,0.0012458072643074,-0.0012455913792457,0.0012472484669945,-0.0012480956636866,0.0012443174181985,-0.0012462424304332,0.0012458436769715,-0.00097577197902182,0.00096800331834845,-0.00096991278427589,0.00097298197155484,-0.00097037426563917,0.00097378334425683,-0.00097264970035858,0.00096997286020327,-2.6343254082239e-06,1.0372267405806e-06,-0.00094800509908662,0.00094693878193651,1.8031972300808e-06,-2.8507024765835e-06,-0.0012461359934513,0.0012456494278677,-0.0012477593210903,0.0012442785657689,-0.0012450452429652,0.0012471851535056,-0.0012469073205925,0.0012455781617215,-0.00097223683255553,0.00097253932456622,-0.00097447043141361,0.00096845406976497,0.70404422427816,134640,3014,0.003940662265418,0.003940568827701,0.00394085486796,15.705719503111,4.0845756024888e-05,4.0845756024888e-05,4.0845756024888e-05,3029460.6697425,0.011893645691543
24419200,0.99950805654526,0.014949471217737,0.0049831435498473,0.004983096929015,0.004983230738875,-0.00094894794537366,0.00094933729393241,1.7378604913518e-06,-1.9204783828766e-06,-1.1303114522823e-06,2.2408749090653e-06,-0.0012483095588776,0.001248626567995,-0.0012494674909703,0.0012474952015288,-0.0012470947250732,0.0012498192362312,-0.0012481299936236,0.0012486347277896,-0.00097201453692945,0.00097583014340398,-0.00097537773013236,0.00097279264053437,9.3288496918595e-07,-2.4359330788791e-06,-2.8618129836874e-06,1.9017200538769e-06,-0.00094964882585651,0.00094859128987093,-0.0012493311250888,0.0012480757248369,-0.0012478544486381,0.0012495071715589,-0.0012503554271163,0.001246578875606,-0.0012485117770038,0.0012480962390384,-0.00097786708419904,0.00097011422615815,-0.00097203263206064,0.00097506692619974,-0.00097247295548756,0.00097589053026045,-0.00097476932813286,0.00097206028649762,-2.6365846087944e-06,1.0433834248478e-06,-0.00094972050207728,0.00094865806880579,1.791402604749e-06,-2.8344725472459e-06,-0.0012484022829629,0.0012479067166577,-0.0012500150587562,0.0012465451440741,-0.0012473080680879,0.0012494451223898,-0.001249160528021,0.0012478469946912,-0.00097432930518537,0.00097465205879053,-0.0009765691734735,0.00097055850136071,0.71549404792133,134640,3014,0.0039477921298473,0.003947698658662,0.00394798497021,17.881578703147,5.825262962518e-05,5.825262962518e-05,5.825262962518e-05,3032033.5231709,0.011915289694212
25419200,0.99960599449414,0.014950956100892,0.0049836385089125,0.0049835918831648,0.0049837257088149,-0.00095102067865282,0.00095141289273176,1.751794884087e-06,-1.9314648045971e-06,-1.1438855593524e-06,2.2571240867311e-06,-0.0012520511165053,0.0012523700176442,-0.0012532175942243,0.0012512301718101,-0.0012508269173946,0.001253572701639,-0.0012518705459109,0.0012523796394753,-0.00097428407627837,0.00097813616547299,-0.00097767262309544,0.0009750756083694,9.4434720145096e-07,-2.4542956486246e-06,-2.8607681179921e-06,1.8949797173048e-06,-0.00095172595727997,0.00095066244526643,-0.0012530703659694,0.0012518213891966,-0.0012515961323774,0.0012532503614497,-0.0012541043779274,0.0012503148885898,-0.0012522630927319,0.0012518296476045,-0.00098016019714358,0.00097239969405904,-0.00097433241332979,0.00097734396603768,-0.00097475100297813,0.00097818852094734,-0.00097707812154213,0.00097432912996553,-2.6480517030562e-06,1.0569858539282e-06,-0.00095179353163634,0.00095073354734161,1.7890944924619e-06,-2.8292315626412e-06,-0.0012521496759377,0.0012516455826806,-0.001253759580383,0.0012502863261338,-0.0012510469638253,0.0012531923577448,-0.0012528964611026,0.0012515963443919,-0.00097660330057242,0.00097695445793939,-0.00097886800758063,0.00097283639498412,0.75065157254394,134640,3014,0.0039564113295629,0.0039563177662958,0.0039566045240926,19.926560985447,7.4612487883573e-05,7.4612487883573e-05,7.4612487883573e-05,3014050.6646079,0.011941487476215
26419200,0.9996862959897,0.014952201140979,0.0049840535206976,0.0049840068909352,0.0049841407293467,-0.00095091574801726,0.00095131621174965,1.7695817634988e-06,-1.9387382859245e-06,-1.1502772378187e-06,2.2767837019725e-06,-0.0012541652952111,0.0012544901257767,-0.0012553412874958,0.0012533431626821,-0.0012529314727193,0.0012556940012379,-0.0012539844008817,0.0012544993883881,-0.00097422855184621,0.00097812498724457,-0.00097763999528884,0.00097504056728157,9.5568934901494e-07,-2.4679379999087e-06,-2.8746171138393e-06,1.9099648850063e-06,-0.00095162633280091,0.0009505615218,-0.0012551878163657,0.0012539328635807,-0.0012537046785267,0.0012553751552247,-0.0012562348085638,0.0012524245393872,-0.0012543832150599,0.0012539492328019,-0.00098014206970963,0.00097235461725295,-0.00097429387117552,0.00097731941189188,-0.00097470299601141,0.00097817090877638,-0.0009770546868885,0.00097428721233812,-2.6633706940452e-06,1.0669576522902e-06,-0.00095169571542105,0.00095063065437795,1.8007128984723e-06,-2.8464995288518e-06,-0.0012542633750754,0.0012537600860234,-0.0012558897317309,0.001252393385676,-0.0012531558241089,0.001255312180679,-0.0012550160097042,0.0012537106679953,-0.00097656132419385,0.00097692670895226,-0.00097886193165605,0.00097279014279643,0.76692112582992,134640,3014,0.0039560093921379,0.0039559180731636,0.0039562044522774,20.393280622158,7.8346244977262e-05,7.8346244977262e-05,7.8346244977262e-05,2965317.7864013,0.011940319504595
27419200,0.99975632078389,0.014953245556379,0.0049844016576231,0.0049843550246806,0.0049844888740749,-0.00095217109812561,0.00095256775184496,1.7758470287281e-06,-1.9498217223975e-06,-1.1595236512914e-06,2.2765047527297e-06,-0.0012569990803288,0.0012573250642842,-0.0012581798445639,0.0012561711795375,-0.0012557632409044,0.0012585383413954,-0.0012568213089707,0.0012573323094196,-0.00097590554928352,0.0009798164730759,-0.00097933594912675,0.00097671576242021,9.5980947686332e-07,-2.4737644561913e-06,-2.8572276698281e-06,1.8884770567967e-06,-0.00095288049949139,0.00095181328223814,-0.0012580163808767,0.0012567776557112,-0.0012565449692142,0.0012582037462016,-0.0012590627410949,0.0012552608801953,-0.0012572241556839,0.001256772251868,-0.00098181472167382,0.00097404979298558,-0.00097599715019946,0.00097898376468265,-0.00097638788021296,0.00097985148744978,-0.00097875294883942,0.000975961302872,-2.6680942952688e-06,1.079322066379e-06,-0.00095294503348807,0.00095188743161011,1.7856570737006e-06,-2.8231373558331e-06,-0.0012571082625144,0.001256589879225,-0.0012587155154424,0.0012552340988146,-0.0012559917105131,0.0012581501083965,-0.0012578376645056,0.0012565575032542,-0.0009782307614802,0.00097862844446395,-0.00098053995527243,0.00097447192877205,0.73788855870012,134640,3014,0.003961223898217,0.0039611305519783,0.0039614172936587,22.249487837461,9.3195902699688e-05,9.3195902699688e-05,9.3195902699688e-05,2941834.1716205,0.011956164572303
28419200,0.99981387904519,0.014954149885968,0.0049847030997133,0.004984656464011,0.0049847903222438,-0.00095229330272935,0.00095268532391053,1.7708717831453e-06,-1.9506602275845e-06,-1.1603289712924e-06,2.2701076536475e-06,-0.0012567340255121,0.001257057532555,-0.0012579143443498,0.0012559047835744,-0.0012555011329957,0.0012582718746627,-0.0012565578882737,0.0012570657718487,-0.0009764375561686,0.00098033890748564,-0.00097986062607149,0.00097723792079988,9.5957839872376e-07,-2.4690871279692e-06,-2.8492511156932e-06,1.8801632705194e-06,-0.0009529995347181,0.00095193349335795,-0.001257749666872,0.0012565170006935,-0.0012562838974351,0.0012579352389313,-0.0012587941833579,0.0012549990985005,-0.0012569615337448,0.0012565036465067,-0.00098233081514722,0.0009745801371292,-0.00097653397537736,0.00097950349191548,-0.00097691254123794,0.00098037055814014,-0.00097927210093015,0.0009764895987524,-2.664549688745e-06,1.0786687668411e-06,-0.00095306465946169,0.00095200872182046,1.7770150099358e-06,-2.8151485451896e-06,-0.0012568475326421,0.0012563242301811,-0.0012584463023102,0.0012549732079679,-0.0012557298739536,0.001257884802982,-0.0012575685402897,0.001256296043533,-0.00097875362925491,0.00097915945390705,-0.00098105860355344,0.00097500626778459,0.77520834847147,134640,3014,0.0039617179012866,0.0039616234439498,0.0039619136832905,23.439579031661,0.00010271663225329,0.00010271663225329,0.00010271663225329,2950161.0327267,0.011957640794197
29419200,0.99986064939054,0.014954799816537,0.0049849197422215,0.0049848731042106,0.0049850069701045,-0.00095366605306196,0.000954065044166,1.7898540111952e-06,-1.9611111055744e-06,-1.1681849571959e-06,2.2874310439251e-06,-0.0012605026631073,0.0012608325290173,-0.0012616912729918,0.00125966997574,-0.0012592607283146,0.0012620529974187,-0.0012603268804971,0.0012608379343375,-0.00097786461246697,0.00098181088287726,-0.00098131954254438,0.00097868412227378,9.683955063992e-07,-2.4848502567961e-06,-2.8572158695118e-06,1.8865248782481e-06,-0.00095437752436068,0.00095330818090472,-0.0012615194586464,0.0012602858095926,-0.0012600484465665,0.0012617108192065,-0.0012625720687833,0.0012587623231573,-0.0012607344362938,0.0012602731272615,-0.00098379396174368,0.00097602240373584,-0.00097797969319859,0.00098095544483457,-0.00097835552724891,0.00098183498606642,-0.00098073985726646,0.00097792684937148,-2.6795487173192e-06,1.0930001718822e-06,-0.00095444042851817,0.00095338432837898,1.7852692222289e-06,-2.8215410790308e-06,-0.001260618236816,0.0012600920127236,-0.0012622247897992,0.0012587364304039,-0.0012594926832176,0.0012616605616042,-0.0012613380394692,0.001260068050041,-0.0009801925937183,0.0009806179933048,-0.00098252788663074,0.00097643821673287,0.68889126615489,134640,3014,0.0039674477801354,0.0039673537610163,0.0039676412572174,24.778337395782,0.00011342669916626,0.00011342669916626,0.00011342669916626,2911279.4226149,0.01197508842755
30419200,0.9998978556227,0.01495530790328,0.004985089103745,0.0049850424638864,0.004985176335649,-0.00095372194342692,0.00095411442792195,1.7679971301468e-06,-1.9465369349916e-06,-1.1456399381091e-06,2.2592023581476e-06,-0.0012574621830043,0.0012577904294264,-0.0012586392975321,0.0012566399786617,-0.0012562363897602,0.0012589931621516,-0.001257291174496,0.0012577906302864,-0.00097845430983781,0.0009823393679423,-0.00098187372385742,0.00097924766227308,9.464476677252e-07,-2.4560151694927e-06,-2.8057276740071e-06,1.8396424183542e-06,-0.00095442718797264,0.00095336380043171,-0.0012584660197123,0.0012572547502648,-0.0012570280703732,0.0012586472611752,-0.0012595028538414,0.0012557492465466,-0.0012576980621446,0.0012572273450175,-0.00098429355677128,0.00097664134231339,-0.0009785746971229,0.00098147535851835,-0.00097895283535331,0.0009823583967692,-0.00098128567822527,0.00097849596313334,-2.6564495197059e-06,1.0800327760781e-06,-0.00095448804146144,0.00095344259149981,1.7426414934702e-06,-2.7665104601854e-06,-0.0012575829244639,0.0012570461940692,-0.0012591565740585,0.001255723107244,-0.0012564693299326,0.0012586022208082,-0.0012582817834177,0.0012570423934526,-0.00098074748256627,0.00098118123530954,-0.00098304638295853,0.00097703439837434,0.67663456807433,134640,3014,0.0039676411116523,0.0039675470973532,0.0039678358780175,26.12900914429,0.00012423207315432,0.00012423207315432,0.00012423207315432,2976969.6371051,0.011975589850481
31419200,0.99992797461262,0.014955749972582,0.0049852364595849,0.0049851898182934,0.0049853236947033,-0.00095625296746518,0.00095664598598744,1.7744609902361e-06,-1.9525360430251e-06,-1.1476053177957e-06,2.2620041269514e-06,-0.0012603658954825,0.0012606972631946,-0.00126154714857,0.0012595426212497,-0.0012591386224777,0.0012619014162631,-0.0012601976070705,0.0012606947472875,-0.00098123658628648,0.00098513567554507,-0.00098466826528879,0.00098203173084947,9.4847279300676e-07,-2.4587745169955e-06,-2.7891015340647e-06,1.8223197832272e-06,-0.00095695873301813,0.00095589476849092,-0.0012613650701468,0.0012601659555979,-0.0012599381119368,0.0012615471730552,-0.001262403499958,0.001258659188147,-0.0012606098108199,0.0012601260486177,-0.00098706745561026,0.00097944639333231,-0.0009813814985824,0.00098424649647812,-0.00098174558213664,0.00098514420662679,-0.00098408315996442,0.00098127652929332,-2.6601819222889e-06,1.0887942664829e-06,-0.00095701691943065,0.00095597649892109,1.7287290231109e-06,-2.7468658586208e-06,-0.0012604937855007,0.0012599465397334,-0.0012620562661727,0.0012586344705303,-0.0012593758732214,0.0012615065717047,-0.0012611771448638,0.00125995777729,-0.00098352235206235,0.00098398458559071,-0.00098583346763645,0.00097982536128955,0.72615477791871,134640,3014,0.0039781482483819,0.0039780540901672,0.0039783434356186,28.436007460712,0.00014268805968569,0.00014268805968569,0.00014268805968569,2990607.0446284,0.012007494382697
32419200,0.99994998179022,0.014956089305776,0.0049853495702311,0.0049853029279012,0.0049854368076438,-0.00095757139489661,0.00095797454937104,1.8104995761008e-06,-1.975632544312e-06,-1.1610226241249e-06,2.2890868114054e-06,-0.0012650041934874,0.0012653485825001,-0.0012662051003625,0.0012641756954916,-0.0012637632264993,0.0012665629940814,-0.001264841814634,0.0012653401938357,-0.00098230308717952,0.00098628883447023,-0.00098579058585794,0.00098312709642367,9.6591407655032e-07,-2.4813777886536e-06,-2.8153406930374e-06,1.8472022931784e-06,-0.00095828433865472,0.00095721662342199,-0.0012660134730309,0.0012648048907055,-0.0012645696054099,0.0012662046837855,-0.001267068281118,0.0012632876606381,-0.0012652562784947,0.0012647722584571,-0.00098820933678244,0.00098052621194553,-0.00098247710352982,0.00098537390009579,-0.00098283300615338,0.00098627806172551,-0.00098520621509364,0.00098237533507366,-2.6933383050412e-06,1.1145192103781e-06,-0.00095834462321829,0.00095729624994454,1.7496401194443e-06,-2.7767327310729e-06,-0.0012651400602961,0.0012645848109112,-0.0012667239141786,0.0012632572240131,-0.0012640043657192,0.001266163393196,-0.0012658240701627,0.0012645994233046,-0.00098461406532902,0.0009851107453626,-0.00098699163530144,0.00098090279477485,0.76213985038889,134640,3014,0.0039836638710867,0.0039835707168627,0.0039838599885564,29.29448690667,0.00014955589525336,0.00014955589525336,0.00014955589525336,2931742.6040659,0.012024325464427
33419200,0.99996527914701,0.014956328145462,0.0049854291831649,0.0049853825401461,0.0049855164221511,-0.0009566455315397,0.00095703739597637,1.8232886504097e-06,-2.0012032956399e-06,-1.1454063271881e-06,2.2560712132513e-06,-0.0012659078237685,0.001266273498067,-0.0012671212692123,0.0012650862911199,-0.0012646827982986,0.001267474889881,-0.0012657740941055,0.0012662361850707,-0.00098149801198065,0.00098549030270779,-0.0009850252399651,0.00098229274425599,9.4520489704024e-07,-2.453875124744e-06,-2.7851187919246e-06,1.8210045866007e-06,-0.00095735011106624,0.00095628743581318,-0.0012669245688035,0.0012657246280551,-0.0012654982161994,0.0012671041702213,-0.001267960999123,0.0012642207066402,-0.0012661679925805,0.0012656857885213,-0.00098737243833843,0.00097976061566253,-0.00098169130295883,0.00098455664432448,-0.00098205661634521,0.00098544473697787,-0.00098439122990045,0.00098159220055213,-2.7081721713273e-06,1.1380707137396e-06,-0.00095740828987648,0.00095636890751968,1.7269253928247e-06,-2.7439974625311e-06,-0.0012660686560314,0.0012654889938658,-0.0012676300213015,0.0012641786673846,-0.0012649182006942,0.0012670811479663,-0.0012667179956139,0.0012655337974342,-0.00098378206891648,0.00098434105691609,-0.00098619066170504,0.00098009032762518,0.77028159862261,134640,3014,0.0039798125404522,0.0039797185464902,0.0039800072742334,29.317262035562,0.00014973809628449,0.00014973809628449,0.00014973809628449,2884226.4789605,0.012012665025674
34419200,0.99997685467956,0.014956502166402,0.0049854871899361,0.0049854405463773,0.0049855744300882,-0.00095848823699538,0.0009588762906234,1.8254806306608e-06,-2.0060437256016e-06,-1.1564937152088e-06,2.2696110462802e-06,-0.0012688675059661,0.0012692260043687,-0.001270090825999,0.0012680411017086,-0.0012676347781547,0.0012704242354984,-0.0012687371975536,0.0012691920086625,-0.00098377398172094,0.00098777943127997,-0.0009873124156107,0.00098457766186677,9.5436339804661e-07,-2.467187141239e-06,-2.7915805795885e-06,1.8229840317861e-06,-0.00095919559266615,0.00095812640066941,-0.0012698814505897,0.0012686762079587,-0.0012684590384183,0.0012700598604044,-0.0012709361204486,0.0012671768685073,-0.0012691375723599,0.0012686419151371,-0.00098967289911638,0.00098203892893271,-0.00098398016957093,0.00098683841988648,-0.00098433945026161,0.00098774135340163,-0.00098668738423013,0.00098386838646154,-2.7222766416158e-06,1.1325470616912e-06,-0.00095925818822983,0.00095820499958114,1.7247952337627e-06,-2.7553474667603e-06,-0.0012690271635484,0.0012684393908666,-0.0012705966741023,0.0012671309271622,-0.0012678792219395,0.0012700308957318,-0.0012696768311681,0.0012684879913635,-0.00098606865339386,0.00098662783037062,-0.00098850551283721,0.00098237568800797,0.74169710814504,134640,3014,0.003987460639899,0.0039873726318431,0.0039876645293083,31.480106693001,0.00016704085354401,0.00016704085354401,0.00016704085354401,2874287.9038337,0.012035908631186
35419200,0.99998593289564,0.014956633879472,0.0049855310940421,0.0049854844501774,0.0049856183352526,-0.00096391139296405,0.00096428684637109,1.8151025013533e-06,-2.0090783045891e-06,-1.1646479039528e-06,2.259170087167e-06,-0.0012745421958384,0.0012748828902835,-0.0012757628477932,0.00127370819417,-0.0012733083669741,0.0012760965495768,-0.0012744134924989,0.0012748575306738,-0.00098974477302684,0.00099374683816043,-0.00099327421981771,0.00099052679176959,9.5395303586673e-07,-2.4674318003132e-06,-2.7693335808352e-06,1.7968511504007e-06,-0.00096461309892357,0.00096354084273382,-0.0012755456245043,0.0012743585366755,-0.0012741418452445,0.0012757182628979,-0.0012766021500395,0.0012728540674985,-0.0012748157986493,0.0012742992800431,-0.00099561829021601,0.00098800788657035,-0.00098996258132565,0.000992776462858,-0.00099031875547741,0.00099368700462837,-0.00099264536133119,0.00098983316437456,-2.7110726986215e-06,1.1354025124268e-06,-0.00096467087076666,0.00096362839005066,1.7052377126019e-06,-2.7272614340947e-06,-0.0012747031398826,0.0012741066075997,-0.001276249620359,0.0012728118853364,-0.0012735556764037,0.0012757010471412,-0.001275331759467,0.0012741682977089,-0.00099201774393565,0.00099261255265464,-0.00099445428935708,0.00098836676905215,0.71641844427445,134640,3014,0.0040099416762279,0.0040098499673509,0.0040101504651323,35.925106813728,0.00020260085450982,0.00020260085450982,0.00020260085450982,2915995.3610764,0.012104156707506
36419200,0.99999174608191,0.014956719883912,0.0049855597620184,0.0049855131179333,0.0049856470039605,-0.00096528262224455,0.00096567588850297,1.8231094595614e-06,-1.9996118394586e-06,-1.1498340964736e-06,2.2630688615279e-06,-0.0012756152841898,0.0012759778938379,-0.001276827907715,0.0012747910033649,-0.0012743865558394,0.0012771821100437,-0.0012754775505056,0.0012759440957131,-0.00099137196661961,0.00099536741680538,-0.00099489797357313,0.00099217106945032,9.5030841287059e-07,-2.4601942106364e-06,-2.7527925679387e-06,1.787307188941e-06,-0.00096598827581692,0.00096492476877786,-0.0012766171719589,0.0012754421606173,-0.0012752127976421,0.0012767997760683,-0.0012776575727166,0.0012739355507503,-0.0012758866451626,0.0012753790695666,-0.00099721768043505,0.00098966630525037,-0.00099160127123921,0.00099439654388499,-0.00099193773912788,0.00099531530533429,-0.00099428314286363,0.00099144905164721,-2.7027037349312e-06,1.1418695124788e-06,-0.00096604171615816,0.00096501156952503,1.6994615480882e-06,-2.7060620335168e-06,-0.0012757815042203,0.001275189508381,-0.0012773211467391,0.0012739006291782,-0.0012746312551476,0.0012767804393737,-0.0012764092404673,0.0012752547296889,-0.00099364145388349,0.00099423027245155,-0.00099604925429603,0.00098998086672708,0.73065039199795,134640,3014,0.0040156660409811,0.0040155718644772,0.0040158618331452,37.478875580648,0.00021503100464518,0.00021503100464518,0.00021503100464518,2935262.9806716,0.012121509164273
37419200,0.99999517955297,0.014956769870384,0.0049855764241126,0.0049855297798701,0.004985663666401,-0.00096506680637759,0.00096546403242998,1.8327723044706e-06,-2.0038204134851e-06,-1.1528386641983e-06,2.2726933104324e-06,-0.001276599848503,0.0012769651598684,-0.0012778180043015,0.0012757747003993,-0.0012753662337924,0.0012781702178696,-0.0012764622628113,0.0012769315753543,-0.0009911177134305,0.00099513711108404,-0.00099465453844044,0.0009919263562339,9.5864870136598e-07,-2.4639554066702e-06,-2.7670185029722e-06,1.8072051342246e-06,-0.00096577271808973,0.00096471336421684,-0.0012776044789235,0.0012764240350068,-0.0012761888429611,0.0012777955781113,-0.0012786522866883,0.0012749162665089,-0.0012768693537782,0.0012763717090326,-0.00099698871532031,0.00098941103113489,-0.00099134648016951,0.00099417093006601,-0.00099168141643912,0.00099508564388379,-0.00099403807157269,0.00099120986979028,-2.7126191724989e-06,1.1458419404238e-06,-0.00096583158955552,0.00096479475170613,1.7122558831911e-06,-2.7270605219736e-06,-0.0012767645540084,0.0012761753987657,-0.0012783194932442,0.001274876263692,-0.0012756120336282,0.0012777693475816,-0.0012774015890412,0.001276234375777,-0.00099339931255354,0.00099398697327644,-0.0009958272253191,0.00098972837637554,0.71959281465209,134640,3014,0.0040147868742455,0.0040146941914131,0.0040149841731519,37.680188805741,0.00021664151044593,0.00021664151044593,0.00021664151044593,2907974.5098804,0.01211887192325
38419200,0.99999715313035,0.014956799709878,0.0049855863705715,0.0049855397262468,0.0049856736130597,-0.00096350567902143,0.00096389900503081,1.8269791527063e-06,-2.003450436767e-06,-1.1525652949598e-06,2.2649547982248e-06,-0.0012748767581635,0.0012752410955415,-0.0012760921925954,0.0012740510479961,-0.0012736467587738,0.0012764472138384,-0.0012747398616236,0.0012752068400445,-0.00098963097243852,0.0009936350093904,-0.0009931629659908,0.00099043094353028,9.5266618366307e-07,-2.462419580764e-06,-2.7766170697464e-06,1.810769568472e-06,-0.00096421142440354,0.00096314767169608,-0.0012758866199512,0.0012746971149046,-0.0012744665059738,0.0012760710630124,-0.0012769286637718,0.0012731887271249,-0.0012751429106094,0.0012746478694812,-0.00099550301310055,0.00098790567587792,-0.00098984554563548,0.0009926825977441,-0.00099018741803942,0.00099358721063335,-0.00099254063597426,0.00098971795745098,-2.7091953313854e-06,1.1430419710341e-06,-0.00096426790970545,0.00096323156471748,1.7187510662295e-06,-2.7333953029712e-06,-0.0012750408780465,0.0012744561183228,-0.0012765964484473,0.0012731514395502,-0.0012738878111869,0.0012760494366571,-0.0012756811581562,0.0012745080060914,-0.00099191098010166,0.00099248661411449,-0.00099432616419648,0.00098822969733863,0.74583042895002,134640,3014,0.0040082979087459,0.004008203482204,0.0040084937269776,37.196433269661,0.00021277146615729,0.00021277146615729,0.00021277146615729,2897737.0116677,0.012099158861301
38880000,0.99999784229556,0.014956810192057,0.0049855898646193,0.0049855432202636,0.0049856771071742,-0.00096336846310846,0.00096376026905118,1.8377807139373e-06,-2.0151514668806e-06,-1.1476894172169e-06,2.2580397373043e-06,-0.0012760333757502,0.0012764070852935,-0.0012772561666035,0.0012752101607235,-0.0012748067366319,0.0012776093955959,-0.0012759080281176,0.0012763614260848,-0.00098942691028826,0.00099344935804187,-0.00099298231265371,0.0009902233915291,9.4727878488587e-07,-2.4560491044734e-06,-2.7627183443047e-06,1.798322491732e-06,-0.00096407302213217,0.00096301015053054,-0.001277045208524,0.0012758613759295,-0.0012756338962393,0.0012772258876503,-0.00127808408233,0.0012743573455556,-0.0012763061652551,0.0012758075665968,-0.00099529530288393,0.00098772615905866,-0.00098965882549022,0.00099247789402834,-0.00099000509995661,0.00099338220810899,-0.00099234526332248,0.00098952711359837,-2.7192076452697e-06,1.155535769411e-06,-0.00096412839572635,0.0009630951831386,1.7080020012839e-06,-2.7183392042178e-06,-0.0012762083332086,0.0012756102954919,-0.0012777547933583,0.001274314580445,-0.001275047862052,0.0012772111839075,-0.0012768322779528,0.0012756784114706,-0.00099170010678457,0.00099230892237388,-0.00099413915602533,0.00098803189754143,0.749989392493,134640,3014,0.0040077353378917,0.0040076409744997,0.0040079312596416,37.193663116545,0.00021274930493236,0.00021274930493236,0.00021274930493236,2868953.257399,0.012097482406352
