time,ASR_ext,ASR_strain,ASR_strain_xx,ASR_strain_yy,ASR_strain_zz,disp_x_101,disp_x_102,disp_x_103,disp_x_104,disp_x_105,disp_x_106,disp_x_p1_neg,disp_x_p1_pos,disp_x_p2_neg,disp_x_p2_pos,disp_x_p3_neg,disp_x_p3_pos,disp_x_p4_neg,disp_x_p4_pos,disp_x_p5_neg,disp_x_p5_pos,disp_x_p6_neg,disp_x_p6_pos,disp_y_101,disp_y_102,disp_y_103,disp_y_104,disp_y_105,disp_y_106,disp_y_p1_neg,disp_y_p1_pos,disp_y_p2_neg,disp_y_p2_pos,disp_y_p3_neg,disp_y_p3_pos,disp_y_p4_neg,disp_y_p4_pos,disp_y_p5_neg,disp_y_p5_pos,disp_y_p6_neg,disp_y_p6_pos,disp_y_p7_neg,disp_y_p7_pos,disp_y_p8_neg,disp_y_p8_pos,disp_z_101,disp_z_102,disp_z_103,disp_z_104,disp_z_105,disp_z_106,disp_z_p1_neg,disp_z_p1_pos,disp_z_p2_neg,disp_z_p2_pos,disp_z_p3_neg,disp_z_p3_pos,disp_z_p4_neg,disp_z_p4_pos,disp_z_p5_neg,disp_z_p5_pos,disp_z_p6_neg,disp_z_p6_pos,humidity,ndof,nelem,strain_xx,strain_yy,strain_zz,temp,thermal_strain_xx,thermal_strain_yy,thermal_strain_zz,vonmises,vstrain
2419200,0,0,0,0,0,0,0,0,0,0,0,0,0,0,0,0,0,0,0,0,0,0,0,0,0,0,0,0,0,0,0,0,0,0,0,0,0,0,0,0,0,0,0,0,0,0,0,0,0,0,0,0,0,0,0,0,0,0,0,0,0,0,0,0,0,0,0,0,0,0,0,0,0,0,0
3419200,0.15985851953087,0.0026637872408911,0.00088792908029702,0.00088792908029702,0.00088792908029702,-0.00024754755803134,0.00024754755413617,-8.4454812610506e-13,-1.7925473933194e-12,-6.3626294863308e-13,-1.9875051213181e-12,-0.00025257777699985,0.00025257777477815,-0.00025257777776728,0.00025257777491046,-0.00025257777786091,0.00025257777476503,-0.00025257777863376,0.00025257777489659,-0.00024793509444006,0.00024793509200093,-0.00024793509557678,0.00024793509128778,-1.6472987829429e-12,-3.4574831354547e-13,-2.6380306034501e-12,5.7018614677791e-13,-0.0002475475577425,0.0002475475544251,-0.00025257777783599,0.0002525777739037,-0.00025257777722576,0.00025257777544284,-0.00025257777784394,0.00025257777478875,-0.00025257777723082,0.00025257777633113,-0.00024793509571952,0.00024793509068988,-0.00024793509284728,0.0002479350940593,-0.00024793509447098,0.00024793509198383,-0.00024793509340826,0.00024793509349393,-1.9882614364485e-12,-1.0402697425323e-12,-0.00024754755823272,0.00024754755393526,7.0579285027761e-14,-3.1264604115746e-12,-0.00025257777716995,0.00025257777455088,-0.00025257777871303,0.00025257777394034,-0.00025257777730889,0.00025257777532773,-0.00025257777884199,0.00025257777470738,-0.00024793509518103,0.0002479350917301,-0.00024793509588211,0.00024793509058576,0.75746877217741,125301,3014,0.0010309151036114,0.0010309151036116,0.0010309151036124,31.88266033072,0.00017026128264576,0.00017026128264576,0.00017026128264576,974207.02992042,0.0030975348556273
4419200,0.35106322943469,0.0056944364271301,0.0018981454757168,0.0018981454757136,0.0018981454756997,-0.00048350503041206,0.00048350502190635,-2.714099733175e-12,-3.6631233735072e-12,-2.3116098745521e-12,-3.9690092127283e-12,-0.00050293793214103,0.00050293792579148,-0.00050293793404343,0.00050293792705534,-0.0005029379342001,0.00050293792677914,-0.00050293793610474,0.00050293792803162,-0.00048695017665341,0.00048695017022913,-0.0004869501786617,0.00048695017037842,-3.4413315551439e-12,-1.9819382647274e-12,-4.7668395893282e-12,-8.6676981601492e-13,-0.00048350503003233,0.00048350502228493,-0.0005029379331315,0.00050293792478869,-0.00050293793335663,0.00050293792769833,-0.0005029379341639,0.00050293792684365,-0.00050293793438264,0.00050293792976039,-0.00048695017811832,0.00048695016876704,-0.000486950175411,0.00048695017364096,-0.00048695017648294,0.00048695017047544,-0.00048695017606514,0.00048695017296927,-3.9255910905927e-12,-2.9766342717486e-12,-0.00048350503068147,0.00048350502163068,-1.4803496366289e-12,-5.401778023507e-12,-0.00050293793226137,0.00050293792553491,-0.00050293793522483,0.00050293792582091,-0.00050293793354295,0.00050293792746133,-0.00050293793646974,0.00050293792771087,-0.00048695017841618,0.00048695017068836,-0.0004869501782696,0.00048695016869262,0.73992840791513,125301,3014,0.0020125762822723,0.0020125762822699,0.0020125762822592,33.607449931172,0.00018405959944937,0.00018405959944937,0.00018405959944937,1835524.2111453,0.0060560101214482
5419200,0.55102009211832,0.0087234502278715,0.0029078167426293,0.0029078167426267,0.0029078167426156,-0.00071634267768061,0.00071634267286177,-1.1966007681973e-12,-2.1466516271487e-12,-9.4077517172898e-13,-2.2993129781551e-12,-0.00076014266855025,0.00076014266505206,-0.00076014266986831,0.00076014266573182,-0.00076014266999071,0.00076014266556225,-0.00076014267130501,0.00076014266622859,-0.00072534783256883,0.00072534782933393,-0.0007253478336999,0.00072534782860138,-2.0608323800718e-12,-9.1340669164079e-13,-3.1023512845809e-12,-5.3382475819654e-14,-0.00071634267758738,0.00071634267295404,-0.00076014266956413,0.0007601426640285,-0.00076014266953403,0.00076014266604681,-0.00076014267016974,0.00076014266538613,-0.00076014267013518,0.00076014266740944,-0.00072534783402876,0.00072534782791164,-0.00072534783121605,0.00072534783105884,-0.00072534783273093,0.00072534782925157,-0.00072534783172531,0.00072534783053309,-2.203825321708e-12,-1.2538361961649e-12,-0.00071634267773913,0.00071634267279835,-1.5817696192004e-13,-3.2490721401352e-12,-0.00076014266859671,0.00076014266493418,-0.00076014267067356,0.00076014266490397,-0.00076014266928618,0.00076014266626636,-0.00076014267133382,0.00076014266620713,-0.00072534783314256,0.00072534782919703,-0.0007253478338914,0.00072534782809014,0.72499638738019,125301,3014,0.0029803252703696,0.0029803252703676,0.0029803252703594,36.27905408625,0.00020543243269,0.00020543243269,0.00020543243269,2565894.0954332,0.0089811298147154
6419200,0.70714583239218,0.01062893811923,0.00354297937308,0.0035429793730784,0.0035429793730716,-0.00085176757846712,0.00085176757491633,-8.0715622428434e-13,-1.7577893007435e-12,-5.8971736689218e-13,-1.9261699950641e-12,-0.00092564334751116,0.00092564334514377,-0.00092564334855698,0.00092564334555131,-0.00092564334870034,0.00092564334541422,-0.00092564334975456,0.00092564334581983,-0.00086145855368961,0.00086145855136021,-0.00086145855478263,0.00086145855058954,-1.5392307015074e-12,-3.4983958286147e-13,-2.3727213035958e-12,3.4378083200316e-13,-0.00085176757819759,0.00085176757518546,-0.00092564334827115,0.0009256433443364,-0.00092564334812459,0.00092564334599666,-0.00092564334863314,0.00092564334546482,-0.00092564334848169,0.00092564334713048,-0.00086145855478563,0.00086145855025409,-0.00086145855230815,0.00086145855308554,-0.00086145855374719,0.0008614585513331,-0.00086145855271667,0.0008614585526629,-1.8951456634244e-12,-9.4457120282166e-13,-0.00085176757860859,0.00085176757477297,-5.9010947256068e-14,-2.7853724970175e-12,-0.00092564334771374,0.00092564334489432,-0.00092564334939225,0.00092564334472351,-0.00092564334813004,0.00092564334595371,-0.00092564334979712,0.00092564334577154,-0.00086145855424739,0.00086145855116556,-0.00086145855501947,0.00086145855008208,0.59839168540088,125301,3014,0.0035427914239105,0.0035427914239097,0.0035427914239066,36.740630764926,0.0002091250461194,0.0002091250461194,0.0002091250461194,2883608.461071,0.010685199572414
7419200,0.83240993654023,0.011956248365769,0.0039854161219251,0.003985416121924,0.0039854161219195,-0.00094439095204457,0.00094439094815844,-8.9259396716112e-13,-1.8436410897949e-12,-6.97448619894e-13,-1.9963584390906e-12,-0.0010444635754008,0.0010444635728894,-0.0010444635764089,0.0010444635732593,-0.0010444635765427,0.0010444635731394,-0.0010444635775591,0.0010444635735075,-0.00095444332905444,0.00095444332650651,-0.00095444333012337,0.00095444332571109,-1.6802041285229e-12,-5.1558616831412e-13,-2.4230141109351e-12,9.611501463693e-14,-0.00094439095183942,0.00094439094836345,-0.0010444635761824,0.0010444635720629,-0.001044463576064,0.0010444635736188,-0.0010444635765172,0.0010444635731475,-0.0010444635763941,0.0010444635747087,-0.00095444333012769,0.00095444332542379,-0.00095444332781892,0.0009544433280355,-0.00095444332920476,0.00095444332638053,-0.00095444332817661,0.00095444332766702,-1.9215409747128e-12,-9.7055102680293e-13,-0.00094439095212658,0.00094439094807611,-1.8594117256599e-13,-2.7114704458509e-12,-0.0010444635755767,0.0010444635726773,-0.0010444635771454,0.0010444635725341,-0.001044463575953,0.0010444635736966,-0.0010444635775135,0.0010444635735452,-0.00095444332949984,0.00095444332637342,-0.00095444333029538,0.00095444332531261,0.52694121020036,125301,3014,0.0039273261999983,0.0039273261999981,0.0039273261999977,40.779745460726,0.00024143796368581,0.00024143796368581,0.00024143796368581,3026046.0976678,0.011851887210544
8419200,0.90796492505302,0.012669959242828,0.0042233197476113,0.0042233197476103,0.0042233197476068,-0.00098144718540555,0.00098144718304417,-3.8913520042203e-13,-1.3403253480983e-12,-2.2473097285834e-13,-1.4816086790483e-12,-0.0011006425763802,0.0011006425750797,-0.0011006425771882,0.0011006425752494,-0.0011006425773203,0.0011006425751488,-0.001100642578138,0.0011006425753182,-0.00099301115876828,0.00099301115736626,-0.00099301115979498,0.00099301115652839,-1.1918189920576e-12,-4.1829850803242e-14,-1.748253167893e-12,4.0432647381608e-13,-0.00098144718521273,0.000981447183237,-0.0011006425770992,0.0011006425743113,-0.0011006425769126,0.0011006425755465,-0.0011006425772509,0.0011006425751958,-0.0011006425770596,0.0011006425764362,-0.00099301115968007,0.00099301115643684,-0.00099301115769448,0.00099301115865655,-0.00099301115898985,0.0009930111571535,-0.00099301115795152,0.00099301115839292,-1.3880504195419e-12,-4.369175054113e-13,-0.00098144718545754,0.0009814471829927,1.5423124422371e-13,-1.9963107346656e-12,-0.0011006425765918,0.0011006425748456,-0.0011006425778306,0.0011006425746261,-0.0011006425767656,0.0011006425756622,-0.0011006425780011,0.0011006425754396,-0.00099301115908367,0.00099301115727681,-0.00099301115991865,0.00099301115625516,0.47156008474719,125301,3014,0.0040811546203399,0.00408115462034,0.004081154620341,41.436352882143,0.00024669082305714,0.00024669082305714,0.00024669082305714,3002830.31031,0.012319025756195
9419200,0.94978148635217,0.013010619095639,0.0043368730318813,0.0043368730318805,0.0043368730318773,-0.00099094039661487,0.00099094039503185,-1.2301015388894e-13,-1.0742017721085e-12,2.4718244874586e-14,-1.2094530667449e-12,-0.0011228073135551,0.0011228073128965,-0.0011228073142492,0.0011228073129524,-0.0011228073143801,0.0011228073128617,-0.0011228073150843,0.0011228073129178,-0.0010038476886788,0.0010038476878754,-0.0010038476896862,0.0010038476870182,-9.3409028409339e-13,2.0870639805986e-13,-1.3376220267307e-12,5.1359520983506e-13,-0.00099094039642846,0.00099094039521837,-0.0011228073142239,0.0011228073121772,-0.0011228073140272,0.0011228073131984,-0.0011228073142701,0.0011228073129475,-0.0011228073140687,0.0011228073139738,-0.0010038476894532,0.0010038476870808,-0.0010038476877452,0.001003847688989,-0.0010038476889564,0.0010038476875984,-0.001003847687915,0.0010038476888164,-1.1008015477389e-12,-1.4966710424329e-13,-0.00099094039664585,0.00099094039500188,2.8694923389787e-13,-1.5588872447118e-12,-0.0011228073137988,0.0011228073126381,-0.0011228073148192,0.001122807312405,-0.0011228073138569,0.0011228073133391,-0.0011228073148769,0.0011228073131056,-0.0010038476889057,0.001003847687835,-0.0010038476897582,0.0010038476868308,0.40621133923259,125301,3014,0.004120583716294,0.0041205837162942,0.0041205837162961,41.144138656454,0.00024435310925163,0.00024435310925163,0.00024435310925163,2927326.6961421,0.012438834215117
10419200,0.970690785968,0.013195017238989,0.0043983390796645,0.0043983390796636,0.0043983390796606,-0.00098932951608044,0.00098932951610612,4.2005472643997e-13,-5.3111977465546e-13,5.4533129638558e-13,-6.6405678705039e-13,-0.0011276376643672,0.0011276376650154,-0.0011276376648485,0.0011276376648586,-0.001127637664984,0.0011276376647804,-0.0011276376654767,0.001127637664625,-0.0010036116892924,0.0010036116897139,-0.001003611690278,0.0010036116888351,-4.0661105544831e-13,7.3966082114905e-13,-5.8598267629692e-13,8.4115796892984e-13,-0.0009893295158976,0.00098932951628911,-0.0011276376649606,0.0011276376643662,-0.0011276376647023,0.001127637665035,-0.001127637664806,0.0011276376649295,-0.0011276376645429,0.0011276376656034,-0.0010036116898629,0.0010036116891151,-0.0010036116885549,0.0010036116905958,-0.0010036116896482,0.0010036116893436,-0.0010036116885999,0.0010036116905527,-5.2776243604338e-13,4.2335415505646e-13,-0.0009893295160815,0.00098932951610632,6.3804481699234e-13,-7.7565515720856e-13,-0.001127637664659,0.001127637664721,-0.0011276376653186,0.0011276376644182,-0.0011276376645021,0.0011276376652069,-0.0011276376651659,0.0011276376649083,-0.001003611689398,0.0010036116897501,-0.0010036116902691,0.0010036116887646,0.43665130715676,125301,3014,0.0041139197002326,0.0041139197002329,0.0041139197002353,38.086342966102,0.00021989074372881,0.00021989074372881,0.00021989074372881,2888995.0566453,0.012418625153436
11419200,0.98277314472756,0.013293809389781,0.0044312697965954,0.0044312697965945,0.0044312697965916,-0.00098664734632109,0.00098664734522111,4.537596673654e-14,-9.0575915320902e-13,1.8009710109836e-13,-1.0335197060942e-12,-0.0011322316386392,0.0011322316383612,-0.0011322316392621,0.001132231638346,-0.0011322316393888,0.0011322316382625,-0.001132231640021,0.0011322316382467,-0.0010022187713072,0.0010022187708859,-0.0010022187722958,0.0010022187700101,-7.6832599513746e-13,3.617937581108e-13,-8.6446704792655e-13,3.6602702946512e-13,-0.00098664734614051,0.00098664734540187,-0.0011322316392085,0.0011322316377463,-0.0011322316391412,0.0011322316384878,-0.001132231639189,0.0011322316384407,-0.0011322316391169,0.0011322316391874,-0.0010022187717908,0.001002218770387,-0.0010022187706677,0.0010022187716626,-0.0010022187716896,0.0010022187704985,-0.001002218770647,0.0010022187716876,-8.977921024793e-13,5.3285725098852e-14,-0.0009866473463175,0.00098664734522616,1.8487946970617e-13,-1.0443795213931e-12,-0.0011322316389523,0.001132231638039,-0.0011322316396941,0.0011322316379372,-0.0011322316389372,0.0011322316386667,-0.00113223163968,0.0011322316385659,-0.001002218771381,0.001002218770961,-0.0010022187722508,0.0010022187699744,0.40445605707229,125301,3014,0.0041028158540516,0.004102815854052,0.0041028158540546,37.625922124859,0.00021620737699887,0.00021620737699887,0.00021620737699887,2807380.855773,0.012384948307713
12419200,0.98970281928025,0.013357653794371,0.0044525512647919,0.0044525512647911,0.0044525512647882,-0.00098491419669389,0.00098491419586035,1.3295646768294e-13,-8.1815474122838e-13,2.6267575484776e-13,-9.4440803133585e-13,-0.0011332910489437,0.0011332910488808,-0.0011332910495285,0.0011332910488274,-0.0011332910496552,0.0011332910487467,-0.0011332910502492,0.0011332910486927,-0.0010012193935918,0.0010012193933728,-0.0010012193945764,0.0010012193924931,-6.8310591992749e-13,4.4572234672356e-13,-6.9668319980279e-13,3.711792029521e-13,-0.00098491419651449,0.00098491419603995,-0.0011332910494858,0.0011332910482934,-0.0011332910494346,0.0011332910489423,-0.0011332910494305,0.0011332910489496,-0.0011332910493747,0.0011332910496037,-0.0010012193939983,0.0010012193929513,-0.0010012193930301,0.0010012193940633,-0.0010012193940026,0.0010012193929545,-0.0010012193929601,0.0010012193941397,-7.9985850604816e-13,1.5119593989135e-13,-0.00098491419667998,0.00098491419587582,2.014400373216e-13,-8.6506041123353e-13,-0.0011332910492748,0.0011332910485432,-0.0011332910499234,0.0011332910484568,-0.0011332910492208,0.001133291049132,-0.0011332910498713,0.0011332910490474,-0.001001219393625,0.0010012193934804,-0.0010012193944982,0.0010012193924972,0.45322610794666,125301,3014,0.0040956334556921,0.0040956334556925,0.0040956334556954,36.800418769779,0.00020960335015823,0.00020960335015823,0.00020960335015823,2780774.751508,0.012363148676606
13419200,0.9935726156622,0.013390287197293,0.0044634290657659,0.0044634290657651,0.0044634290657622,-0.00097744907888949,0.00097744907879147,3.7942699700099e-13,-5.7160094974805e-13,5.0244304776861e-13,-6.9781735862928e-13,-0.0011305808008622,0.0011305808013548,-0.0011305808013589,0.0011305808012135,-0.0011305808014878,0.001130580801136,-0.0011305808019942,0.0011305808009944,-0.00099460941277065,0.0009946094131142,-0.00099460941373826,0.00099460941221762,-4.4170823491947e-13,6.8881936512946e-13,-3.499239906689e-13,5.1590856712774e-13,-0.00097744907871093,0.00097744907897026,-0.0011305808013694,0.001130580800801,-0.0011305808013002,0.001130580801295,-0.0011305808012299,0.0011305808013708,-0.0011305808011559,0.00113058080187,-0.00099460941307891,0.00099460941278862,-0.00099460941229328,0.00099460941368864,-0.00099460941321687,0.00099460941265563,-0.00099460941216209,0.00099460941382801,-5.4814125466093e-13,4.0283054674449e-13,-0.00097744907887035,0.00097744907881228,3.4933241636977e-13,-5.1298226992025e-13,-0.0011305808012242,0.0011305808009901,-0.0011305808017155,0.0011305808008833,-0.0011305808010815,0.0011305808014901,-0.0011305808015762,0.0011305808013866,-0.00099460941274817,0.00099460941324321,-0.0009946094136373,0.00099460941227603,0.4150894025916,125301,3014,0.0040646740877595,0.00406467408776,0.004064674087763,34.785275961958,0.00019348220769566,0.00019348220769566,0.00019348220769566,2723188.6535551,0.012269162364283
14419200,0.99580742186854,0.013407706329169,0.0044692354430577,0.0044692354430569,0.004469235443054,-0.00097240081193657,0.00097240081193535,4.0859548827654e-13,-5.4239316555522e-13,5.2856172044932e-13,-6.6783211289325e-13,-0.0011260181582462,0.0011260181588317,-0.0011260181587245,0.001126018158672,-0.0011260181588533,0.0011260181585961,-0.001126018159341,0.0011260181584359,-0.00098977844454304,0.0009897784449552,-0.00098977844551641,0.00098977844406446,-4.140870284354e-13,7.162383399986e-13,-2.2594517427634e-13,4.4929730098772e-13,-0.00097240081175852,0.00097240081211363,-0.0011260181587223,0.00112601815831,-0.0011260181586966,0.0011260181587218,-0.0011260181585655,0.0011260181588615,-0.001126018158535,0.0011260181592785,-0.00098977844475978,0.00098977844472269,-0.00098977844416544,0.00098977844544005,-0.00098977844502175,0.0009897784444621,-0.00098977844397481,0.00098977844564141,-5.0417471545558e-13,4.4675744010217e-13,-0.00097240081190267,0.00097240081197097,2.995921123725e-13,-3.7333303610848e-13,-0.0011260181586261,0.0011260181584509,-0.0011260181590354,0.0011260181583879,-0.0011260181584644,0.0011260181589319,-0.0011260181588775,0.0011260181588726,-0.00098977844448071,0.00098977844513583,-0.00098977844536348,0.00098977844416237,0.38312450045663,125301,3014,0.00404372559806,0.0040437255980605,0.0040437255980636,32.633969296473,0.00017627175437179,0.00017627175437179,0.00017627175437179,2722724.1314141,0.012205546020476
15419200,0.99697056247318,0.013419851578905,0.0044732838596365,0.0044732838596357,0.0044732838596329,-0.00096115538115905,0.00096115538297818,1.0154861246548e-12,6.459646779872e-14,1.1172182373968e-12,-6.3467987567134e-14,-0.0011151413989571,0.0011151414009948,-0.0011151413992049,0.0011151414006047,-0.0011151413993422,0.0011151414005381,-0.001115141399601,0.0011151414001491,-0.00097875046335048,0.00097875046513941,-0.00097875046430763,0.00097875046423272,1.7547397116338e-13,1.3188110071849e-12,5.4366963804884e-13,8.9279375471584e-13,-0.0009611553809814,0.00096115538315605,-0.0011151413993725,0.0011151414005264,-0.0011151413992376,0.0011151414006013,-0.0011151413989954,0.0011151414008567,-0.0011151413988557,0.0011151414009368,-0.00097875046340431,0.0009787504650598,-0.00097875046312124,0.00097875046545378,-0.00097875046389087,0.00097875046456949,-0.00097875046283425,0.00097875046575488,1.2520558681997e-13,1.0760379513086e-12,-0.00096115538110274,0.00096115538303621,7.5360205150403e-13,4.16626022361e-13,-0.0011151413993778,0.0011151414005845,-0.0011151413994411,0.0011151414004028,-0.0011151413989838,0.001115141400833,-0.0011151413990555,0.0011151414006597,-0.00097875046319457,0.00097875046538025,-0.00097875046409024,0.00097875046441997,0.51103778709309,125301,3014,0.0039970587735298,0.0039970587735303,0.0039970587735334,27.044461057015,0.00013155568845612,0.00013155568845612,0.00013155568845612,2735301.710597,0.012063848969592
16419200,0.9977179794359,0.013426938036858,0.0044756460122874,0.0044756460122866,0.0044756460122837,-0.0009498447852098,0.00094984478559027,5.3704103494149e-13,-4.1376618325653e-13,6.5555613497477e-13,-5.389015516334e-13,-0.0011099929699006,0.0011099929707386,-0.0011099929703412,0.0011099929705412,-0.0011099929704698,0.0011099929704651,-0.001109992970919,0.0011099929702666,-0.00096846960249464,0.00096846960320408,-0.00096846960345272,0.00096846960229838,-2.8616373129747e-13,8.4284906955419e-13,1.2793972893719e-13,3.5144009006197e-13,-0.00094984478503235,0.00094984478576797,-0.0011099929703044,0.0011099929702927,-0.001109992970386,0.0011099929705152,-0.00110999297011,0.0011099929708049,-0.0011099929701869,0.0011099929710326,-0.00096846960249285,0.00096846960319426,-0.00096846960232226,0.00096846960344911,-0.0009684696030473,0.00096846960263543,-0.00096846960198815,0.00096846960379798,-3.6331798912012e-13,5.8743128967145e-13,-0.00094984478516345,0.00094984478563843,2.194591339094e-13,-5.7533242398937e-15,-0.0011099929703437,0.0011099929702959,-0.0011099929705659,0.0011099929703427,-0.0011099929701435,0.0011099929707382,-0.0011099929703696,0.001109992970789,-0.00096846960233046,0.0009684696034563,-0.00096846960322799,0.00096846960249794,0.46538451425637,125301,3014,0.0039501446793403,0.0039501446793408,0.0039501446793441,24.406322707108,0.00011045058165687,0.00011045058165687,0.00011045058165687,2653503.2322377,0.011921472534188
17419200,0.99822001977474,0.013432333851376,0.0044774446171267,0.0044774446171259,0.0044774446171231,-0.00094418041463398,0.0009441804149051,4.957293263976e-13,-4.5503733421591e-13,6.1282974906007e-13,-5.7965930651196e-13,-0.001103555799334,0.0011035558001158,-0.0011035557997782,0.0011035557999221,-0.0011035557999065,0.0011035557998469,-0.0011035558003591,0.0011035557996518,-0.00096289289806109,0.00096289289867985,-0.00096289289903047,0.00096289289778555,-3.2828554718759e-13,8.0094467139596e-13,1.3111467146693e-13,2.6515961049341e-13,-0.0009441804144568,0.00094418041508253,-0.0011035557997236,0.0011035557996851,-0.0011035557998371,0.001103555799881,-0.0011035557995331,0.0011035558002011,-0.0011035557996419,0.0011035558004022,-0.00096289289801669,0.00096289289871429,-0.00096289289794372,0.00096289289889081,-0.00096289289862947,0.00096289289809457,-0.0009628928975817,0.00096289289926955,-3.9155089133022e-13,5.5915900631147e-13,-0.00094418041457467,0.00094418041496626,1.4827397033199e-13,1.1189525814726e-14,-0.0011035557997796,0.0011035557996718,-0.0011035557999758,0.0011035557997509,-0.0011035557995826,0.0011035558001172,-0.0011035557997829,0.0011035558002005,-0.00096289289788095,0.00096289289897075,-0.00096289289876673,0.00096289289800072,0.52521873377382,125301,3014,0.0039266309939972,0.0039266309939977,0.0039266309940011,21.969289883362,9.0954319066894e-05,9.0954319066894e-05,9.0954319066894e-05,2667303.4370897,0.011850078918306
18419200,0.99853192623217,0.013435552443672,0.0044785174812254,0.0044785174812246,0.0044785174812218,-0.00093139333718649,0.00093139333861781,8.8074132925108e-13,-6.9914599451096e-14,9.8864629753425e-13,-1.9609864167405e-13,-0.0010939729236948,0.0010939729253602,-0.0010939729239995,0.001093972925027,-0.0010939729241325,0.0010939729249561,-0.0010939729244464,0.0010939729246225,-0.00095069634317347,0.00095069634467278,-0.00095069634412614,0.00095069634376203,4.7849041289211e-14,1.1835006242801e-12,6.1230535607256e-13,5.5365135442629e-13,-0.00093139333700961,0.00093139333879497,-0.0010939729240491,0.001093972924961,-0.001093972924094,0.0010939729249543,-0.0010939729237245,0.0010939729253418,-0.0010939729237646,0.0010939729253403,-0.00095069634303296,0.00095069634479788,-0.00095069634313633,0.00095069634477579,-0.0009506963437774,0.00095069634404461,-0.00095069634271686,0.00095069634521338,-2.860147918562e-15,9.4773960602912e-13,-0.00093139333712356,0.00093139333868265,4.3384733449703e-13,4.9478219356715e-13,-0.0010939729241734,0.0010939729248888,-0.0010939729241622,0.0010939729248944,-0.0010939729238361,0.0010939729251938,-0.0010939729238313,0.0010939729252059,-0.00095069634294049,0.00095069634498282,-0.00095069634384127,0.00095069634402806,0.50516361584657,125301,3014,0.0038735726711571,0.0038735726711577,0.0038735726711611,17.466071138348,5.4928569106787e-05,5.4928569106787e-05,5.4928569106787e-05,2630570.3375235,0.011689058599639
19419200,0.99879039069581,0.013439015353934,0.0044796717846463,0.0044796717846455,0.0044796717846427,-0.00093045167579338,0.00093045167480614,7.7888120571381e-14,-8.7276495527677e-13,2.0631075617155e-13,-9.9456257267845e-13,-0.0010929036562799,0.0010929036560717,-0.0010929036568811,0.0010929036560352,-0.0010929036570026,0.0010929036559539,-0.0010929036576104,0.0010929036559142,-0.00094987197661943,0.00094987197628858,-0.00094987197760422,0.0009498719754099,-7.3425988369109e-13,3.8426887482024e-13,-2.30568780271e-13,-2.0978505978809e-13,-0.00093045167561678,0.00093045167498301,-0.0010929036566578,0.001092903655661,-0.0010929036569522,0.0010929036559738,-0.0010929036566173,0.0010929036563264,-0.0010929036569069,0.0010929036566443,-0.00094987197652489,0.00094987197638436,-0.00094987197656941,0.00094987197645194,-0.00094987197720122,0.00094987197569926,-0.00094987197616646,0.00094987197687302,-8.0713372497168e-13,1.4346288201331e-13,-0.00093045167573193,0.00093045167486954,-3.1046001565963e-13,-3.4506478203718e-13,-0.0010929036567362,0.0010929036556104,-0.0010929036570576,0.0010929036558793,-0.0010929036566968,0.0010929036562133,-0.0010929036570193,0.0010929036564834,-0.00094987197643551,0.0009498719766153,-0.00094987197730743,0.00094987197563163,0.65325215552177,125301,3014,0.0038696627548501,0.0038696627548507,0.0038696627548542,17.551719729885,5.5613757839082e-05,5.5613757839082e-05,5.5613757839082e-05,2626233.8553776,0.011677186535681
20419200,0.99901535618032,0.013442243236636,0.0044807477455467,0.0044807477455459,0.0044807477455431,-0.00092602954219624,0.00092602954075359,-6.9649636957283e-14,-1.020218597728e-12,6.4218288175377e-14,-1.1410411272709e-12,-0.0010942088533574,0.0010942088527709,-0.0010942088540198,0.0010942088527956,-0.0010942088541388,0.0010942088527117,-0.0010942088548077,0.001094208852733,-0.00094636651824093,0.00094636651757404,-0.00094636651921841,0.00094636651668824,-8.7639105047057e-13,2.3735906318179e-13,-4.4075473055803e-13,-2.9478368280762e-13,-0.0009260295420198,0.0009260295409303,-0.0010942088537577,0.0010942088523394,-0.0010942088540691,0.001094208852755,-0.0010942088537756,0.001094208853063,-0.0010942088540823,0.0010942088534838,-0.00094636651820837,0.00094636651760957,-0.00094636651812179,0.00094636651779018,-0.00094636651879953,0.0009463665170132,-0.00094636651775618,0.00094636651817132,-9.7645819928405e-13,-2.5946148539443e-14,-0.00092602954215663,0.00092602954079522,-4.1516911098629e-13,-5.7657706243711e-13,-0.0010942088538117,0.0010942088523081,-0.0010942088542376,0.0010942088525964,-0.0010942088538344,0.0010942088529731,-0.00109420885426,0.0010942088532612,-0.00094636651809233,0.00094636651785106,-0.00094636651897242,0.00094636651687571,0.70012779305903,125301,3014,0.0038513339571002,0.0038513339571008,0.0038513339571044,18.600074111449,6.4000592891592e-05,6.4000592891592e-05,6.4000592891592e-05,2533949.4857978,0.01162161063933
21419200,0.99916830232759,0.013444282809309,0.0044814276031044,0.0044814276031036,0.0044814276031008,-0.00091482516711913,0.00091482516813927,7.3866734598433e-13,-2.1179708856786e-13,8.5109863187396e-13,-3.3657146797269e-13,-0.0010851847278322,0.0010851847291465,-0.0010851847281877,0.0010851847288644,-0.001085184728318,0.0010851847287911,-0.0010851847286824,0.001085184728508,-0.00093571555277851,0.00093571555396795,-0.00093571555373353,0.00093571555305981,-8.9472425054291e-14,1.0412370806278e-12,4.2440340011671e-13,4.5633865464069e-13,-0.00091482516694297,0.00091482516831573,-0.0010851847282038,0.0010851847287323,-0.001085184728266,0.0010851847288061,-0.0010851847279276,0.0010851847291606,-0.001085184727985,0.0010851847292396,-0.00093571555268442,0.0009357155540496,-0.00093571555269906,0.00093571555411488,-0.00093571555336565,0.0009357155533613,-0.00093571555230646,0.00093571555452402,-1.6136162933652e-13,7.8905271851049e-13,-0.00091482516707291,0.00091482516818758,3.238509301058e-13,2.9162566456554e-13,-0.0010851847283096,0.0010851847286733,-0.0010851847283814,0.0010851847286989,-0.001085184728024,0.0010851847290299,-0.0010851847281008,0.0010851847290606,-0.00093571555257991,0.00093571555424858,-0.00093571555347885,0.00093571555329221,0.64990944923706,125301,3014,0.0038048356898914,0.003804835689892,0.0038048356898958,15.216724427038,3.6933795416305e-05,3.6933795416305e-05,3.6933795416305e-05,2503342.3902371,0.011480517376359
22419200,0.99929497859047,0.013446017238365,0.004482005746123,0.0044820057461222,0.0044820057461194,-0.00091341950728006,0.00091341950664892,1.9232571281679e-13,-7.5814339806313e-13,3.1739481851205e-13,-8.7999095511567e-13,-0.0010824734483678,0.0010824734484319,-0.0010824734489213,0.0010824734483478,-0.0010824734490441,0.0010824734482683,-0.0010824734496047,0.0010824734481815,-0.00093427704754624,0.00093427704748229,-0.00093427704853016,0.00093427704660313,-6.2302365446885e-13,4.9684053509799e-13,-1.3815923429346e-13,-7.4662756759133e-14,-0.00091341950710433,0.00091341950682495,-0.0010824734487517,0.0010824734480134,-0.0010824734489877,0.0010824734482934,-0.0010824734486656,0.0010824734486323,-0.0010824734488968,0.0010824734489174,-0.00093427704747254,0.00093427704755442,-0.00093427704747667,0.00093427704766646,-0.00093427704812302,0.00093427704689617,-0.00093427704708896,0.00093427704807152,-7.0259083045006e-13,2.4782210567537e-13,-0.00091341950722883,0.00091341950670227,-1.8807812198953e-13,-2.6265382904699e-13,-0.0010824734488285,0.001082473447968,-0.0010824734491148,0.0010824734481763,-0.0010824734487415,0.0010824734485233,-0.0010824734490296,0.0010824734487334,-0.00093427704737862,0.0009342770477912,-0.00093427704825049,0.00093427704680783,0.66642562144511,125301,3014,0.0037989934111098,0.0037989934111105,0.0037989934111142,14.857990882398,3.4063927059187e-05,3.4063927059187e-05,3.4063927059187e-05,2513168.7550517,0.011462772632602
23419200,0.9994074898077,0.013447468798265,0.0044824895994232,0.0044824895994224,0.0044824895994196,-0.00091321368380812,0.00091321368253072,-1.9408671784282e-14,-9.6986851824134e-13,1.115954584824e-13,-1.0903118828969e-12,-0.0010832983334548,0.0010832983330111,-0.0010832983340902,0.0010832983330088,-0.0010832983342097,0.0010832983329265,-0.0010832983348516,0.0010832983329209,-0.0009342670611764,0.00093426706062844,-0.00093426706216186,0.00093426705975083,-8.287611303596e-13,2.8577233970413e-13,-4.0066705769053e-13,-2.3623367815665e-13,-0.00091321368363272,0.00091321368270644,-0.0010832983338579,0.001083298332576,-0.0010832983341377,0.0010832983329707,-0.0010832983338503,0.0010832983332733,-0.0010832983341254,0.0010832983336731,-0.00093426706115399,0.00093426706065289,-0.00093426706105792,0.00093426706086087,-0.00093426706173398,0.00093426706006689,-0.00093426706069985,0.00093426706123513,-9.220777429226e-13,2.8326017012565e-14,-0.00091321368376472,0.00091321368257629,-3.5286088210697e-13,-5.3171985926446e-13,-0.0010832983339034,0.0010832983325557,-0.0010832983343074,0.0010832983328111,-0.0010832983338988,0.0010832983331934,-0.0010832983343031,0.001083298333449,-0.00093426706103525,0.00093426706091419,-0.0009342670619066,0.00093426705993032,0.62875729639221,125301,3014,0.0037981434960029,0.0037981434960036,0.0037981434960074,15.707951103075,4.0863608824596e-05,4.0863608824596e-05,4.0863608824596e-05,2488322.6460725,0.011460203087417
24419200,0.99951371625305,0.013448915187726,0.0044829717292433,0.0044829717292425,0.0044829717292397,-0.0009174813817207,0.00091748137970507,-2.646204454388e-13,-1.2151130556008e-12,-1.2739478464736e-13,-1.3340404959786e-12,-0.0010867085362947,0.0010867085352756,-0.0010867085370208,0.001086708535364,-0.0010867085371367,0.0010867085352787,-0.0010867085378687,0.0010867085353632,-0.00093848063239741,0.00093848063129032,-0.00093848063338974,0.0009384806304195,-1.0676222480395e-12,4.1380700921521e-14,-7.1942610198965e-13,-4.0848576575533e-13,-0.00091748138154557,0.00091748137988051,-0.0010867085367246,0.0010867085348164,-0.0010867085370418,0.0010867085353498,-0.0010867085368041,0.0010867085356008,-0.0010867085371166,0.0010867085361393,-0.00093848063244866,0.00093848063124484,-0.00093848063221303,0.00093848063159869,-0.0009384806329282,0.00093848063076099,-0.00093848063189917,0.00093848063192741,-1.1725277683168e-12,-2.2209177407228e-13,-0.00091748138168261,0.00091748137974534,-5.2550026985689e-13,-8.545091159213e-13,-0.0010867085367209,0.0010867085348387,-0.0010867085372669,0.0010867085351347,-0.0010867085368076,0.0010867085355677,-0.0010867085373523,0.0010867085358623,-0.00093848063229323,0.00093848063155324,-0.00093848063315879,0.00093848063056352,0.66255127740754,125301,3014,0.0038158534982636,0.0038158534982643,0.0038158534982681,17.887330804721,5.8298646437769e-05,5.8298646437769e-05,5.8298646437769e-05,2488420.6553911,0.011513933698274
25419200,0.99961055446419,0.013450469331717,0.0044834897772406,0.0044834897772398,0.004483489777237,-0.00091952839022506,0.00091952838829599,-2.3447321935704e-13,-1.1849784761915e-12,-9.787005425467e-14,-1.3039359156528e-12,-0.0010904073033998,0.0010904073024451,-0.0010904073041157,0.0010904073025233,-0.0010904073042321,0.0010904073024385,-0.0010904073049543,0.0010904073025133,-0.00094077265309541,0.00094077265205644,-0.00094077265408355,0.00094077265118143,-1.0380621311474e-12,7.1086214394358e-14,-7.46998745418e-13,-3.2098433908214e-13,-0.00091952839005011,0.00091952838847127,-0.0010904073038476,0.0010904073019663,-0.001090407304119,0.0010904073025285,-0.0010904073039177,0.0010904073027411,-0.0010904073041844,0.0010904073033084,-0.00094077265320234,0.00094077265195304,-0.00094077265285162,0.00094077265241802,-0.00094077265360756,0.00094077265154576,-0.00094077265257463,0.00094077265270812,-1.1527108737094e-12,-2.0226046814036e-13,-0.00091952839019731,0.00091952838832594,-4.5090484281362e-13,-8.927682706598e-13,-0.0010904073038171,0.001090407302017,-0.0010904073043905,0.0010904073022659,-0.001090407303894,0.0010904073027361,-0.0010904073044662,0.0010904073029838,-0.00094077265301602,0.0009407726522859,-0.00094077265388586,0.00094077265130041,0.77991302017261,125301,3014,0.0038243577496932,0.0038243577496939,0.0038243577496978,19.931984403906,7.4655875231249e-05,7.4655875231249e-05,7.4655875231249e-05,2453888.4702249,0.011539755888717
26419200,0.9996899352361,0.013451824888963,0.0044839416296559,0.004483941629655,0.0044839416296522,-0.00091536783338499,0.00091536783237333,7.0761661809216e-14,-8.7967403832667e-13,2.00069064498e-13,-1.0001461815148e-12,-0.0010904643916725,0.0010904643914205,-0.0010904643922772,0.0010904643913877,-0.0010904643923978,0.0010904643913065,-0.00109046439301,0.0010904643912713,-0.00093728919991296,0.00093728919957241,-0.00093728920088753,0.00093728919868395,-7.4021443205142e-13,3.7477354541074e-13,-4.5008458386462e-13,-7.3054938201105e-15,-0.00091536783321008,0.00091536783254857,-0.0010904643921191,0.0010904643909383,-0.0010904643922821,0.0010904643913963,-0.0010904643920826,0.001090464391606,-0.0010904643922408,0.0010904643920692,-0.0009372892000254,0.00093728919945685,-0.00093728919964993,0.0009372891999327,-0.00093728920042567,0.00093728919905577,-0.00093728919938149,0.00093728920021343,-8.5537107488317e-13,9.5008744606893e-14,-0.0009153678333652,0.00091536783239539,-1.5347209094473e-13,-6.0550660513003e-13,-0.0010904643920986,0.0010904643909879,-0.0010904643925627,0.001090464391123,-0.0010904643920641,0.0010904643915956,-0.0010904643925289,0.0010904643917314,-0.0009372891998298,0.00093728919977801,-0.00093728920071196,0.00093728919880498,0.82922923068302,125301,3014,0.0038071075889442,0.0038071075889449,0.003807107588949,20.395380521171,7.8363044169366e-05,7.8363044169366e-05,7.8363044169366e-05,2385912.0371677,0.011487447188663
27419200,0.9997591756005,0.013452890725514,0.0044842969085062,0.0044842969085054,0.0044842969085027,-0.00091550549644891,0.0009155054946567,-1.8825292547294e-13,-1.1386817434661e-12,-5.2525483617825e-14,-1.2577887371822e-12,-0.0010923292381742,0.0010923292373189,-0.0010923292388732,0.0010923292373803,-0.0010923292389902,0.001092329237296,-0.0010923292396959,0.0010923292373543,-0.00093778981762595,0.00093778981669221,-0.00093778981860905,0.00093778981581233,-9.9278411287775e-13,1.1673322064494e-13,-7.452104654899e-13,-2.3054327915436e-13,-0.00091550549627419,0.00091550549483176,-0.0010923292386358,0.001092329236825,-0.0010923292388633,0.0010923292374003,-0.0010923292386898,0.0010923292375834,-0.0010923292389125,0.0010923292381638,-0.00093778981777553,0.0009377898165439,-0.00093778981733487,0.00093778981709335,-0.00093778981812402,0.00093778981619532,-0.0009377898170867,0.00093778981735321,-1.1189387877763e-12,-1.6856540926598e-13,-0.00091550549643374,0.00091550549467419,-3.754387953084e-13,-9.0390794505628e-13,-0.0010923292385896,0.0010923292368931,-0.0010923292391747,0.0010923292370968,-0.0010923292386499,0.0010923292375956,-0.001092329239234,0.0010923292377983,-0.00093778981756857,0.00093778981688979,-0.00093778981844306,0.00093778981590915,0.74718867332314,125301,3014,0.0038076856548051,0.0038076856548058,0.00380768565481,22.257776055599,9.3262208444795e-05,9.3262208444795e-05,9.3262208444795e-05,2346413.9055412,0.011489211867818
28419200,0.99981607408439,0.013453889102594,0.0044846297008662,0.0044846297008654,0.0044846297008626,-0.00091847668202356,0.000918476680601,-6.9456613442254e-14,-1.0199210185836e-12,6.1951328017689e-14,-1.1392908130948e-12,-0.0010929946826055,0.0010929946820498,-0.0010929946832543,0.001092994682061,-0.0010929946833731,0.0010929946819791,-0.001092994684029,0.0010929946819877,-0.00094055705945531,0.00094055705879616,-0.00094055706044199,0.00094055705791977,-8.7805952012267e-13,2.3428754120585e-13,-6.4614887410646e-13,-9.2768533258655e-14,-0.0009184766818492,0.00091847668077571,-0.0010929946830716,0.0010929946815492,-0.0010929946832401,0.0010929946820876,-0.0010929946830779,0.0010929946822595,-0.0010929946832416,0.0010929946828031,-0.00094055705962342,0.00094055705862655,-0.00094055705915042,0.00094055705922096,-0.0009405570599494,0.00094055705830033,-0.00094055705891665,0.00094055705946654,-9.9595863297095e-13,-4.555052022758e-14,-0.00091847668200428,0.00091847668062262,-2.3679119266219e-13,-8.0095344318681e-13,-0.0010929946830124,0.001092994681635,-0.0010929946835584,0.0010929946817769,-0.0010929946830222,0.001092994682287,-0.0010929946835681,0.0010929946824289,-0.00094055705940352,0.00094055705899493,-0.00094055706027392,0.0009405570580101,0.8493285419621,125301,3014,0.0038200059081031,0.0038200059081038,0.0038200059081079,23.444957875208,0.00010275966300166,0.00010275966300166,0.00010275966300166,2368195.9660804,0.011526572327602
29419200,0.99986230569836,0.013454467673759,0.0044848225579213,0.0044848225579205,0.0044848225579177,-0.00091717511651822,0.00091717511503606,-8.617201456293e-14,-1.0365957444763e-12,4.649643250708e-14,-1.1557208552859e-12,-0.001095212077469,0.001095212076856,-0.0010952120781284,0.0010952120768778,-0.0010952120782466,0.0010952120767953,-0.0010952120789132,0.0010952120768145,-0.00093972635100939,0.00093972635031025,-0.00093972635199055,0.00093972634942847,-8.9349380375721e-13,2.17385825924e-13,-6.8009735492647e-13,-9.2492539823107e-14,-0.00091717511634403,0.00091717511521059,-0.0010952120779412,0.0010952120763496,-0.0010952120781086,0.0010952120769101,-0.0010952120779575,0.0010952120770696,-0.0010952120781202,0.0010952120776353,-0.00093972635119434,0.00093972635012366,-0.00093972635068245,0.00093972635074612,-0.00093972635149711,0.00093972634982202,-0.00093972635045907,0.00093972635098032,-1.0209880448102e-12,-7.0620313186143e-14,-0.00091717511650727,0.00091717511504939,-2.4474899367448e-13,-8.4313761037182e-13,-0.0010952120778777,0.0010952120764385,-0.001095212078446,0.0010952120765798,-0.0010952120778984,0.0010952120771014,-0.0010952120784663,0.0010952120772423,-0.000939726350966,0.00093972635048961,-0.00093972635184207,0.00093972634951056,0.60881578646039,125301,3014,0.003814620282791,0.0038146202827917,0.0038146202827959,24.784377771065,0.00011347502216852,0.00011347502216852,0.00011347502216852,2306834.7438906,0.011510263963345
30419200,0.99989907974712,0.013454857610512,0.0044849525368387,0.0044849525368379,0.0044849525368351,-0.00092581756469552,0.00092581756315,-1.1420151122222e-13,-1.064721208792e-12,1.655031792856e-14,-1.1832188975925e-12,-0.0010964101310598,0.0010964101304257,-0.0010964101317182,0.0010964101304464,-0.0010964101318363,0.0010964101303652,-0.0010964101325017,0.0010964101303832,-0.00094751855955629,0.00094751855879699,-0.00094751856055351,0.00094751855793103,-9.2277700051297e-13,1.8862349503464e-13,-7.2538562627219e-13,-1.0424412900487e-13,-0.00092581756452171,0.00092581756332415,-0.0010964101315371,0.0010964101299137,-0.001096410131693,0.0010964101304841,-0.0010964101315532,0.0010964101306334,-0.0010964101317043,0.0010964101312089,-0.00094751855975869,0.00094751855859313,-0.00094751855922969,0.00094751855926441,-0.00094751856003988,0.00094751855831173,-0.00094751855901809,0.00094751855948788,-1.0351134074077e-12,-8.4649766948902e-14,-0.00092581756467077,0.00092581756317709,-2.4201128319201e-13,-8.7393722828816e-13,-0.00109641013145,0.0010964101300278,-0.001096410132028,0.0010964101301567,-0.0010964101314693,0.0010964101306893,-0.0010964101320472,0.0010964101308181,-0.00094751855952104,0.00094751855900029,-0.00094751856038096,0.00094751855800486,0.51512748248588,125301,3014,0.0038504564671989,0.0038504564671997,0.0038504564672038,26.135131493841,0.00012428105195073,0.00012428105195073,0.00012428105195073,2408185.7169031,0.01161894240201
31419200,0.99992885098979,0.013455265483293,0.0044850884944324,0.0044850884944315,0.0044850884944288,-0.00093417082619973,0.00093417082409195,-2.9995257194894e-13,-1.2505435026368e-12,-1.636446184163e-13,-1.3677059381107e-12,-0.0011024677587978,0.0011024677577116,-0.0011024677595294,0.0011024677578055,-0.0011024677596444,0.0011024677577215,-0.0011024677603826,0.0011024677578122,-0.00095534526644431,0.00095534526526154,-0.0009553452674434,0.00095534526439731,-1.1026815801777e-12,3.4287573861684e-15,-9.5483143027949e-13,-2.4684628205666e-13,-0.00093417082602612,0.00093417082426589,-0.0011024677592916,0.0011024677571854,-0.0011024677594877,0.0011024677578573,-0.0011024677593779,0.001102467757975,-0.0011024677595692,0.001102467758652,-0.00095534526669092,0.0009553452650167,-0.0009553452660762,0.00095534526577099,-0.00095534526691079,0.00095534526479816,-0.00095534526589001,0.00095534526596796,-1.2251588957661e-12,-2.746244927632e-13,-0.00093417082617921,0.00093417082411476,-3.8456570766396e-13,-1.1066274285858e-12,-0.0011024677591746,0.0011024677573233,-0.0011024677598571,0.0011024677574953,-0.0011024677592677,0.0011024677580586,-0.0011024677599486,0.0011024677582291,-0.00095534526643,0.00095534526544802,-0.00095534526728911,0.00095534526445164,0.66479676253864,125301,3014,0.0038851181618619,0.0038851181618625,0.0038851181618666,28.446526103021,0.00014277220882417,0.00014277220882417,0.00014277220882417,2437532.9120073,0.011724126503683
32419200,0.99995059396534,0.01345561649427,0.0044852054980916,0.0044852054980908,0.004485205498088,-0.00093119325655445,0.0009311932553198,-2.5006294898385e-15,-9.5302809152834e-13,1.2729143486345e-13,-1.0720621462961e-12,-0.0011054125492321,0.00110541254882,-0.0011054125498615,0.0011054125488117,-0.0011054125499806,0.0011054125487309,-0.0011054125506176,0.0011054125487204,-0.00095309218465299,0.00095309218414261,-0.00095309218563441,0.00095309218326082,-8.1209217646429e-13,2.9979798843607e-13,-6.5098487848382e-13,4.4871377544316e-14,-0.0009311932563806,0.00093119325549399,-0.0011054125497202,0.0011054125482951,-0.0011054125498256,0.0011054125488623,-0.0011054125497083,0.0011054125489865,-0.001105412549809,0.0011054125495588,-0.00095309218489037,0.00095309218390021,-0.00095309218427522,0.00095309218463288,-0.00095309218512412,0.00095309218366929,-0.00095309218408788,0.00095309218483005,-9.3943577147027e-13,1.1034633487757e-14,-0.0009311932565456,0.00093119325533098,-1.1307113398977e-13,-8.1651015911629e-13,-0.0011054125496259,0.0011054125484186,-0.0011054125501985,0.0011054125484953,-0.0011054125496164,0.0011054125490514,-0.0011054125501893,0.0011054125491285,-0.00095309218462949,0.00095309218430217,-0.0009530921855052,0.00095309218332251,0.7835582016357,125301,3014,0.003872788482086,0.0038727884820867,0.0038727884820908,29.298459220336,0.00014958767376269,0.00014958767376269,0.00014958767376269,2349508.8364951,0.011686762919805
33419200,0.9999657041786,0.013455869091339,0.0044852896971144,0.0044852896971136,0.0044852896971108,-0.00092621128875103,0.0009262112880306,1.6713286479394e-13,-7.8333056978879e-13,2.9313164797054e-13,-9.0332883039489e-13,-0.0011044780402194,0.0011044780401926,-0.0011044780407871,0.0011044780401227,-0.0011044780409085,0.0011044780400436,-0.0011044780414844,0.001104478039972,-0.00094879141267259,0.00094879141255289,-0.00094879141364552,0.00094879141166275,-6.4635077367156e-13,4.6889191464446e-13,-4.5710836331871e-13,1.9075777097024e-13,-0.00092621128857702,0.00092621128820496,-0.0011044780406977,0.0011044780396756,-0.0011044780407609,0.0011044780401656,-0.0011044780406265,0.0011044780403074,-0.001104478040685,0.0011044780408026,-0.00094879141288513,0.00094879141233268,-0.00094879141231056,0.00094879141301319,-0.0009487914131532,0.00094879141206704,-0.00094879141210949,0.0009487914132242,-7.7177680510132e-13,1.7863007238567e-13,-0.00092621128874418,0.00092621128803983,2.7169258233105e-14,-6.255648306003e-13,-0.0011044780406251,0.0011044780397816,-0.0011044780411184,0.0011044780398137,-0.0011044780405538,0.0011044780403525,-0.0011044780410484,0.001104478040386,-0.00094879141263425,0.00094879141271014,-0.00094879141351775,0.0009487914117384,0.80945760226261,125301,3014,0.0038521288780143,0.0038521288780151,0.0038521288780193,29.317385110633,0.00014973908088506,0.00014973908088506,0.00014973908088506,2288184.4350424,0.011624095166216
34419200,0.99997714244504,0.013456042563974,0.0044853475213263,0.0044853475213255,0.0044853475213227,-0.00092797625847299,0.00092797625650269,-2.4797389515595e-13,-1.1984430354467e-12,-1.1162394290634e-13,-1.3163927262823e-12,-0.0011070933223454,0.0011070933213526,-0.0011070933230642,0.0011070933214338,-0.0011070933231799,0.0011070933213496,-0.0011070933239055,0.0011070933214277,-0.00095075516198242,0.00095075516091326,-0.00095075516296793,0.00095075516003579,-1.0510313337236e-12,5.5674330437422e-14,-8.9997203082884e-13,-1.9674780072595e-13,-0.00092797625829904,0.00092797625667698,-0.001107093322838,0.0011070933208272,-0.0011070933230236,0.001107093321485,-0.0011070933229116,0.0011070933216041,-0.0011070933230925,0.0011070933222671,-0.00095075516222542,0.00095075516067086,-0.00095075516160287,0.00095075516140829,-0.00095075516244936,0.00095075516044955,-0.00095075516141515,0.00095075516160603,-1.1894915736136e-12,-2.3907837279041e-13,-0.00092797625846871,0.00092797625650938,-3.5281857457591e-13,-1.0688852580538e-12,-0.0011070933227393,0.0011070933209474,-0.0011070933234068,0.0011070933211089,-0.0011070933228197,0.00110709332167,-0.0011070933234857,0.0011070933218301,-0.00095075516196959,0.000950755161071,-0.00095075516284221,0.0009507551600885,0.73398852679868,125301,3014,0.0038594568827202,0.0038594568827209,0.0038594568827252,31.490035645427,0.00016712028516341,0.00016712028516341,0.00016712028516341,2262209.6735838,0.011646336937693
35419200,0.99998611421667,0.013456162947363,0.0044853876491226,0.0044853876491218,0.004485387649119,-0.00093784032660607,0.00093784032325474,-7.0649488765438e-13,-1.6570541428393e-12,-5.5783966426353e-13,-1.7723350328519e-12,-0.0011146418385761,0.001114641836499,-0.0011146418394662,0.0011146418367514,-0.0011146418395754,0.0011146418366612,-0.0011146418404709,0.0011146418369092,-0.0009603200780384,0.0009603200759236,-0.00096032007903242,0.00096032007505439,-1.4973181285932e-12,-4.0082251617668e-13,-1.4457183306209e-12,-5.6875941066473e-13,-0.00093784032643244,0.00093784032342874,-0.001114641839103,0.0011146418359454,-0.0011146418393918,0.0011146418368305,-0.0011146418393409,0.0011146418368867,-0.001114641839625,0.001114641837777,-0.00096032007837024,0.00096032007560077,-0.00096032007757936,0.00096032007650667,-0.00096032007847148,0.0009603200755041,-0.00096032007744188,0.00096032007665242,-1.6539892952918e-12,-7.0348692072217e-13,-0.00093784032660781,0.00093784032325544,-7.2019024868226e-13,-1.6181887125044e-12,-0.0011146418389409,0.0011146418361156,-0.0011146418398427,0.0011146418363873,-0.0011146418391936,0.0011146418370105,-0.0011146418400909,0.0011146418372777,-0.0009603200780699,0.00096032007605448,-0.00096032007893629,0.0009603200750655,0.64952121200817,125301,3014,0.0039003855697323,0.0039003855697331,0.0039003855697374,35.945825109658,0.00020276660087726,0.00020276660087726,0.00020276660087726,2275594.6875737,0.011770535324377
36419200,0.99999185387027,0.013456243780702,0.0044854145935688,0.004485414593568,0.0044854145935652,-0.00094297479677281,0.00094297479512386,-1.4476695982169e-13,-1.0953819780089e-12,-1.2265331184905e-14,-1.2133660207362e-12,-0.0011174933608619,0.0011174933601319,-0.0011174933615363,0.0011174933601687,-0.0011174933616538,0.0011174933600868,-0.0011174933623357,0.0011174933601213,-0.00096512358949079,0.00096512358866146,-0.00096512359047787,0.00096512358778518,-9.5165172318942e-13,1.5771356614999e-13,-8.8657962515985e-13,-4.8865252949146e-15,-0.00094297479659937,0.00094297479529767,-0.0011174933613815,0.0011174933595761,-0.0011174933614694,0.0011174933602499,-0.0011174933614133,0.001117493360311,-0.0011174933614964,0.0011174933609899,-0.00096512358982027,0.00096512358832823,-0.00096512358902771,0.00096512358924709,-0.0009651235899308,0.0009651235882225,-0.00096512358889843,0.00096512358938455,-1.089155756451e-12,-1.3859673655307e-13,-0.00094297479677149,0.00094297479512761,-1.6883523925816e-13,-1.0587896105865e-12,-0.0011174933612307,0.0011174933597537,-0.001117493361911,0.0011174933598137,-0.0011174933612668,0.001117493360432,-0.0011174933619466,0.0011174933604915,-0.00096512358951136,0.00096512358878823,-0.00096512359038211,0.00096512358780345,0.6811981079479,125301,3014,0.0039216848483339,0.0039216848483347,0.0039216848483389,37.486239723577,0.00021508991778861,0.00021508991778861,0.00021508991778861,2302005.6272463,0.011835167187725
37419200,0.99999524261246,0.013456289613331,0.0044854298711117,0.0044854298711108,0.0044854298711081,-0.00094218353232275,0.00094218353148189,1.2517041142397e-13,-8.254326659516e-13,2.5065954840521e-13,-9.4485390006781e-13,-0.0011182899228914,0.0011182899227957,-0.001118289923467,0.0011182899227336,-0.0011182899235881,0.0011182899226552,-0.001118289924172,0.0011182899225916,-0.00096450559659974,0.00096450559638296,-0.00096450559758267,0.00096450559550256,-6.8876446265343e-13,4.2614044126086e-13,-5.7592628590245e-13,2.2430825673939e-13,-0.00094218353214934,0.00094218353165565,-0.0011182899233945,0.0011182899222528,-0.0011182899234168,0.0011182899228017,-0.0011182899233315,0.0011182899228927,-0.001118289923349,0.0011182899234468,-0.00096450559688725,0.00096450559608641,-0.00096450559617446,0.00096450559692772,-0.00096450559705626,0.00096450559592149,-0.00096450559602231,0.00096450559708853,-8.1723200471146e-13,1.3331460380095e-13,-0.00094218353231942,0.00094218353148764,5.6180386668928e-14,-7.4743329877872e-13,-0.0011182899232753,0.0011182899224065,-0.0011182899238266,0.0011182899223967,-0.001118289923212,0.0011182899229855,-0.0011182899237646,0.001118289922977,-0.00096450559660002,0.0009645055965214,-0.00096450559747371,0.00096450559553959,0.65495763090949,125301,3014,0.0039184089361208,0.0039184089361215,0.0039184089361258,37.681166276907,0.00021664933021526,0.00021664933021526,0.00021664933021526,2277444.7527174,0.011825240576077
38419200,0.99999719022561,0.013456318984767,0.0044854396615905,0.0044854396615897,0.0044854396615869,-0.00094127833907304,0.00094127833863137,2.5704432394293e-13,-6.9355340065498e-13,3.7846323232569e-13,-8.136234825964e-13,-0.0011170859533965,0.00111708595362,-0.0011170859539213,0.0011170859535071,-0.0011170859540443,0.0011170859534307,-0.0011170859545777,0.0011170859533166,-0.0009636096552029,0.00096360965528687,-0.00096360965618563,0.00096360965440631,-5.6084675165573e-13,5.571726846393e-13,-3.9486465131036e-13,3.0690372709937e-13,-0.00094127833889967,0.0009412783388051,-0.001117085953882,0.0011170859530933,-0.0011170859538886,0.001117085953559,-0.0011170859537703,0.0011170859536845,-0.0011170859537722,0.0011170859541553,-0.00096360965544157,0.00096360965503732,-0.00096360965482649,0.00096360965578425,-0.00096360965567754,0.00096360965480388,-0.00096360965464463,0.00096360965597592,-6.7851674236751e-13,2.7202495453025e-13,-0.00094127833906286,0.00094127833864398,1.4338867839783e-13,-5.599307033249e-13,-0.001117085953792,0.0011170859532217,-0.0011170859542583,0.0011170859531944,-0.0011170859536775,0.0011170859537494,-0.001117085954146,0.0011170859537245,-0.00096360965517966,0.00096360965544825,-0.00096360965605288,0.00096360965446594,0.72891346290552,125301,3014,0.0039146504440359,0.0039146504440367,0.003914650444041,37.194176560433,0.00021275341248346,0.00021275341248346,0.00021275341248346,2282970.4719484,0.011813828101419
38880000,0.99999787040937,0.013456329472276,0.0044854431574269,0.0044854431574261,0.0044854431574233,-0.0009389091105761,0.00093890910987413,1.7168381400086e-13,-7.7888814667824e-13,2.9642673848426e-13,-8.9851377160928e-13,-0.0011171766840799,0.0011171766840823,-0.0011171766846408,0.0011171766840057,-0.0011171766847623,0.0011171766839273,-0.0011171766853314,0.0011171766838489,-0.0009615649555044,0.00096156495539426,-0.00096156495648404,0.00096156495451062,-6.4290573602103e-13,4.7241733451883e-13,-4.5064104296812e-13,1.9218958760951e-13,-0.00093890911040266,0.00093890911004794,-0.0011171766845575,0.0011171766835659,-0.001117176684616,0.0011171766840475,-0.00111717668448,0.0011171766841911,-0.0011171766845338,0.0011171766846779,-0.00096156495571522,0.00096156495517547,-0.00096156495515241,0.00096156495585802,-0.00096156495598688,0.00096156495490578,-0.00096156495495036,0.00096156495607029,-7.6483092905777e-13,1.8568479804511e-13,-0.00093890911056684,0.00093890910988584,3.1325307739233e-14,-6.1607676751294e-13,-0.0011171766844845,0.0011171766836732,-0.001117176684969,0.0011171766837003,-0.0011171766844062,0.0011171766842372,-0.0011171766848922,0.0011171766842658,-0.00096156495546954,0.00096156495556131,-0.00096156495634632,0.00096156495458262,0.74537476942469,125301,3014,0.0039048291777993,0.0039048291778001,0.0039048291778044,37.193611324069,0.00021274889059255,0.00021274889059255,0.00021274889059255,2246448.0401904,0.011784040476898
