time,ASR_ext,ASR_strain,ASR_strain_xx,ASR_strain_yy,ASR_strain_zz,disp_x_101,disp_x_102,disp_x_103,disp_x_104,disp_x_105,disp_x_106,disp_x_p1_neg,disp_x_p1_pos,disp_x_p2_neg,disp_x_p2_pos,disp_x_p3_neg,disp_x_p3_pos,disp_x_p4_neg,disp_x_p4_pos,disp_x_p5_neg,disp_x_p5_pos,disp_x_p6_neg,disp_x_p6_pos,disp_y_101,disp_y_102,disp_y_103,disp_y_104,disp_y_105,disp_y_106,disp_y_p1_neg,disp_y_p1_pos,disp_y_p2_neg,disp_y_p2_pos,disp_y_p3_neg,disp_y_p3_pos,disp_y_p4_neg,disp_y_p4_pos,disp_y_p5_neg,disp_y_p5_pos,disp_y_p6_neg,disp_y_p6_pos,disp_y_p7_neg,disp_y_p7_pos,disp_y_p8_neg,disp_y_p8_pos,disp_z_101,disp_z_102,disp_z_103,disp_z_104,disp_z_105,disp_z_106,disp_z_p1_neg,disp_z_p1_pos,disp_z_p2_neg,disp_z_p2_pos,disp_z_p3_neg,disp_z_p3_pos,disp_z_p4_neg,disp_z_p4_pos,disp_z_p5_neg,disp_z_p5_pos,disp_z_p6_neg,disp_z_p6_pos,humidity,ndof,nelem,strain_xx,strain_yy,strain_zz,temp,thermal_strain_xx,thermal_strain_yy,thermal_strain_zz,vonmises,vstrain
2419200,0,0,0,0,0,0,0,0,0,0,0,0,0,0,0,0,0,0,0,0,0,0,0,0,0,0,0,0,0,0,0,0,0,0,0,0,0,0,0,0,0,0,0,0,0,0,0,0,0,0,0,0,0,0,0,0,0,0,0,0,0,0,0,0,0,0,0,0,0,0,0,0,0,0,0
3419200,0.15883388282883,0.0030071891066872,0.0010023963688958,0.0010023963688958,0.0010023963688958,-0.00026709549051123,0.00026708627928443,-3.4896258058564e-09,-3.489626007512e-09,-3.3834837803269e-09,-3.4679486738279e-09,-0.00027586195601942,0.00027585423234505,-0.0002758627121481,0.00027585498847314,-0.00027586264915365,0.00027585492982939,-0.00027586339093758,0.00027585567160356,-0.00026920680332429,0.0002691994057692,-0.00026920730297366,0.00026919990542179,-3.3834779689611e-09,-3.4679447323739e-09,-3.831830429335e-09,-3.1474095049541e-09,-0.00026709549050797,0.00026708627929346,-0.00027586212172196,0.00027585413024732,-0.00027586254643376,0.0002758550905977,-0.00027586280769494,0.00027585482055985,-0.00027586323240322,0.00027585578089847,-0.00026920717359247,0.00026919912006948,-0.00026920693270875,0.00026920019113468,-0.00026920664932586,0.00026919965315948,-0.00026920710764049,0.00026920001056861,-3.551885537982e-09,-3.551885314827e-09,-0.00026709555298218,0.00026708621681567,-3.1137505519698e-09,-3.8736233353117e-09,-0.00027586184802405,0.00027585427010816,-0.00027586287822979,0.00027585477001284,-0.0002758626130784,0.00027585503515826,-0.000275863612071,0.00027585550384747,-0.00026920749067783,0.00026919972924151,-0.00026920700935187,0.00026919924792692,0.75746877217741,125301,3014,0.0011122588565851,0.0011122588565971,0.0011122588565897,31.811013852749,0.00016968811082199,0.00016968811082199,0.00016968811082199,1977322.2954997,0.0033423544060126
4419200,0.3487148757885,0.0063293906894224,0.0021097968964547,0.0021097968964899,0.0021097968964779,-0.00051764342060055,0.000517621782212,-9.0773921868556e-09,-9.0773900219511e-09,-8.6406602140705e-09,-8.9987876311781e-09,-0.00055688143341964,0.00055686128752579,-0.00055688437530513,0.00055686422939664,-0.0005568842804013,0.00055686398434012,-0.00055688716594021,0.00055686686984571,-0.00052630600537057,0.00052628721661716,-0.00052630794077337,0.00052628915203077,-8.6406572468747e-09,-8.9987871338542e-09,-1.0087213717739e-08,-8.0675638891477e-09,-0.00051764342060269,0.00051762178222367,-0.0005568819062124,0.00055686100308771,-0.00055688390250938,0.00055686451386064,-0.00055688472501218,0.00055686367169611,-0.00055688672135597,0.00055686718251986,-0.00052630714715308,0.00052628641028765,-0.00052630679903146,0.00052628995834906,-0.00052630545166934,0.0005262881405346,-0.00052630728629098,0.00052628944755748,-9.2812661271172e-09,-9.2812631217973e-09,-0.00051764362519688,0.00051762157762684,-7.8782518264396e-09,-1.0216776263079e-08,-0.00055688115199836,0.00055686135916646,-0.00055688495226998,0.00055686351583376,-0.0005568841304718,0.00055686433761789,-0.00055688780766011,0.00055686637120323,-0.00052630851623417,0.00052628861068278,-0.00052630667191734,0.00052628676637103,0.73992840791513,125301,3014,0.00215449335437,0.0021544933543987,0.0021544933543932,33.601078942283,0.00018400863153826,0.00018400863153826,0.00018400863153826,3662365.9010837,0.006484463588528
5419200,0.54805224523991,0.0095826655521302,0.0031942218507011,0.0031942218507107,0.0031942218507184,-0.00075745812479733,0.00075745724874302,2.1236057338319e-10,2.1235448115754e-10,5.2477928339723e-10,2.4187417199831e-10,-0.00084996152589439,0.00084996118961789,-0.00084996201269853,0.00084996167638137,-0.00084996221425043,0.00084996151353163,-0.00084996267500562,0.00084996197424434,-0.00077515828484283,0.00077515822509332,-0.0007751574159307,0.0007751573561984,5.2477038477567e-10,2.4185298383677e-10,6.5709316562203e-10,-2.3241432346945e-10,-0.0007574581248113,0.00075745724873197,-0.00084996136147755,0.00084996136201703,-0.00084996217712249,0.00084996150394574,-0.00084996203681499,0.00084996167288039,-0.000849962852478,0.00084996181486534,-0.00077515795389408,0.00077515876435271,-0.00077515774696428,0.00077515681689669,-0.00077515819572113,0.00077515852749645,-0.0007751573824037,0.00077515717519164,2.513998619362e-10,2.5139469488817e-10,-0.00075745808405511,0.00075745728949099,9.9184293914374e-11,7.275064587506e-10,-0.00084996165884654,0.00084996105591574,-0.0008499619864082,0.00084996173555138,-0.00084996216244764,0.00084996155948775,-0.00084996243692188,0.00084996218605818,-0.00077515723477821,0.0007751575406449,-0.00077515817226484,0.00077515847814982,0.72499638738019,125301,3014,0.003151179963808,0.003151179963814,0.0031511799638199,36.269898500093,0.00020535918800074,0.00020535918800074,0.00020535918800074,4701659.4624238,0.0094985726079512
6419200,0.70454337453928,0.011606232773587,0.0038687442578576,0.0038687442578609,0.003868744257868,-0.00089114989268941,0.00089114733972821,-9.5174819289307e-10,-9.5175549858165e-10,-8.3920085482817e-10,-9.4581061817896e-10,-0.0010393434310825,0.0010393413439036,-0.001039343638006,0.0010393415507652,-0.0010393438286688,0.0010393415427583,-0.0010393440407914,0.0010393417548016,-0.00090968356782095,0.00090968176593476,-0.00090968341059238,0.00090968160872216,-8.3920014200422e-10,-9.4583037655514e-10,-1.655572320925e-10,-1.7379681285773e-09,-0.00089114989269563,0.00089114733972199,-0.0010393431133073,0.0010393415922758,-0.0010393439557665,0.0010393413023671,-0.0010393435134882,0.001039341793686,-0.0010393443560062,0.0010393415038585,-0.00090968283775449,0.00090968256596465,-0.00090968414072746,0.00090968080866195,-0.0009096837463039,0.00090968162521934,-0.00090968361903993,0.00090968135150453,-7.7259206143109e-10,-7.7259845485342e-10,-0.00089114971107513,0.00089114752134515,-1.4227356745929e-09,2.6118651901937e-11,-0.0010393435932217,0.0010393412873077,-0.0010393433139336,0.001039341957216,-0.0010393437885431,0.0010393414825797,-0.001039343532371,0.0010393421756266,-0.00090968297219988,0.00090968204340672,-0.0009096831310124,0.00090968220223408,0.59839168540088,125301,3014,0.0037064386213727,0.0037064386213727,0.0037064386213783,36.73898626057,0.00020911189008456,0.00020911189008456,0.00020911189008456,4977141.1263794,0.011181777200724
7419200,0.830628099738,0.013019558385588,0.0043398527951929,0.0043398527951944,0.0043398527952009,-0.00097965964947365,0.00097965687792277,-9.0728795226996e-10,-9.0729586905752e-10,-8.1948574424362e-10,-9.0033770128654e-10,-0.0011718308666103,0.0011718287664136,-0.0011718310713958,0.0011718289711384,-0.0011718312523012,0.001171828973071,-0.0011718314605787,0.0011718291812683,-0.00099874694354611,0.00099874518204646,-0.00099874679850517,0.00099874503703015,-8.1948324146745e-10,-9.003554420056e-10,1.5775100184505e-10,-1.972352762691e-09,-0.00097965964947727,0.00097965687791834,-0.0011718304577258,0.0011718291099797,-0.0011718314802622,0.0011718286275506,-0.0011718308451565,0.0011718293183373,-0.0011718318677471,0.0011718288359883,-0.00099874593780473,0.00099874625381107,-0.00099874780431044,0.00099874396523908,-0.00099874723213735,0.00099874491319063,-0.00099874711184662,0.00099874469110739,-6.9945632767755e-10,-6.9946317632127e-10,-0.00097965944032409,0.00097965708707397,-1.6330730200638e-09,3.8103764738496e-10,-0.0011718311009004,0.0011718286449215,-0.0011718306237682,0.001171829500218,-0.0011718312899948,0.0011718288339671,-0.0011718308363058,0.001171829712724,-0.00099874624067742,0.00099874559182483,-0.0009987463851312,0.00099874573628771,0.52694121020036,125301,3014,0.0040739226153445,0.0040739226153427,0.0040739226153479,40.765796231728,0.00024132636985382,0.00024132636985382,0.00024132636985382,5009760.1633874,0.012297383158727
8419200,0.90691088719814,0.013785349829616,0.0045951166098694,0.0045951166098702,0.0045951166098764,-0.0010122451332649,0.0010122452968031,1.934153640581e-10,1.9340591890547e-10,2.3709193207775e-10,1.9476588835933e-10,-0.0012344858101833,0.0012344862453025,-0.0012344858042045,0.0012344862392649,-0.0012344859943101,0.0012344862608709,-0.001234485994187,0.001234486260666,-0.0010331345223428,0.0010331351338811,-0.0010331344047455,0.0010331350163092,2.3709437951631e-10,1.9475252865901e-10,1.6587264470291e-09,-1.271918613737e-09,-0.0010122451332654,0.0010122452968,-0.0012344852575163,0.0012344867212869,-0.0012344863568494,0.0012344857632572,-0.0012344854445649,0.0012344867397419,-0.0012344865439483,0.0012344857817881,-0.0010331331178246,0.0010331365865597,-0.0010331358093169,0.0010331335636085,-0.0010331349703869,0.0010331346745951,-0.0010331348782279,0.0010331345389842,4.4377501686021e-10,4.4376678034712e-10,-0.0010122448824141,0.0010122455476547,-9.1598325711966e-10,1.920921862288e-09,-0.0012344861541883,0.0012344860348859,-0.0012344851831176,0.0012344869534605,-0.0012344861279512,0.0012344860085992,-0.0012344851882497,0.0012344869585592,-0.0010331336713012,0.0010331357466598,-0.0010331337808454,0.001033135856215,0.47156008474719,125301,3014,0.0042092481897596,0.0042092481897541,0.0042092481897613,41.433976961178,0.00024667181568943,0.00024667181568943,0.00024667181568943,4779184.3508008,0.012708634149093
9419200,0.94918801023431,0.014154165415951,0.0047180551386479,0.0047180551386481,0.0047180551386545,-0.0010186071108048,0.0010186086305148,7.1073271010357e-10,7.1072277637763e-10,7.3265735479132e-10,7.0991686904166e-10,-0.0012592254396621,0.0012592270950314,-0.0012592253235165,0.0012592269788263,-0.0012592255159199,0.0012592270086444,-0.0012592254058139,0.0012592268984574,-0.00104094525525,0.001040946981214,-0.0010409451700877,0.0010409468960801,7.3265915191136e-10,7.0990378692293e-10,2.5688179036558e-09,-1.1473763087585e-09,-0.0010186071108057,0.0010186086305114,-0.0012592247546433,0.0012592277023627,-0.0012592260085145,0.0012592263714738,-0.0012592248339174,0.0012592276189549,-0.0012592260878339,0.0012592262881379,-0.001040943465727,0.0010409488169201,-0.001040946959666,0.0010409450603514,-0.0010409458484762,0.0010409463632664,-0.0010409457854902,0.0010409462883338,9.9920024079499e-10,9.9919141500579e-10,-0.0010186068224674,0.001018608918853,-7.596862738411e-10,2.8688692385729e-09,-0.0012592258855423,0.0012592267920525,-0.0012592245363729,0.0012592278628649,-0.0012592257463757,0.0012592266528364,-0.0012592244316968,0.0012592277581561,-0.001040944269561,0.0010409477949744,-0.0010409443423288,0.0010409478677487,0.40621133923259,125301,3014,0.0042357232102811,0.004235723210276,0.0042357232102827,41.145129791557,0.00024436103833246,0.00024436103833246,0.00024436103833246,4509177.247821,0.01278921535888
10419200,0.97034570433989,0.014355707749965,0.0047852359166529,0.0047852359166529,0.0047852359166593,-0.001015500679543,0.0010155051755717,1.8515453015914e-09,1.8515352073998e-09,1.8330389169487e-09,1.8447271796303e-09,-0.0012653091207095,0.0012653134141327,-0.001265308768719,0.0012653130620825,-0.0012653089753017,0.0012653131098552,-0.0012653086316028,0.0012653127660757,-0.0010393800086624,0.0010393841770235,-0.0010393799310616,0.0010393840994531,1.8330405630708e-09,1.8447149037995e-09,4.2375781145559e-09,-5.3451089625724e-10,-0.0010155006795436,0.0010155051755687,-0.0012653082501057,0.0012653141963501,-0.0012653096393019,0.0012653122798443,-0.0012653081088402,0.0012653138961794,-0.0012653094980804,0.0012653119797442,-0.001039377696705,0.0010393865206415,-0.0010393822430735,0.001039381755815,-0.0010393807990429,0.0010393833319425,-0.0010393807475007,0.0010393833172929,2.1984263191438e-09,2.198417268038e-09,-0.0010155003332531,0.0010155055218624,-1.0974643539526e-10,4.5926585510073e-09,-0.0012653097034906,0.0012653129962945,-0.0012653077527806,0.0012653141879374,-0.0012653093239686,0.0012653126167234,-0.0012653074160934,0.0012653138512175,-0.0010393787964889,0.0010393852322129,-0.0010393788543556,0.0010393852900859,0.43665130715676,125301,3014,0.0042228783865537,0.004222878386549,0.0042228783865556,38.096825844038,0.0002199746067523,0.0002199746067523,0.0002199746067523,4369356.3299001,0.012750278169037
11419200,0.98256899632316,0.014464026575691,0.0048213421918949,0.0048213421918949,0.0048213421919013,-0.0010119311336299,0.0010119333371194,9.684680287018e-10,9.6845797212667e-10,9.8176144253831e-10,9.6719401288682e-10,-0.0012713425499198,0.0012713448128738,-0.0012713423846634,0.0012713446475583,-0.0012713425734695,0.0012713446771232,-0.0012713424116882,0.001271344515262,-0.0010370279384028,0.0010370302323751,-0.0010370278915637,0.0010370301855675,9.817630378798e-10,9.6718180452632e-10,3.6089501290228e-09,-1.6720372389047e-09,-0.0010119311336303,0.0010119333371162,-0.0012713416138821,0.0012713456830767,-0.0012713433206801,0.001271343777334,-0.0012713416391661,0.0012713455490257,-0.001271343346007,0.0012713436433519,-0.0010370253891324,0.0010370328431562,-0.0010370304408881,0.0010370275747664,-0.0010370287970002,0.0010370293435736,-0.0010370287691545,0.0010370293172536,1.3208939949187e-09,1.3208848900204e-09,-0.001011930781728,0.0010119336890218,-1.2032212976653e-09,3.9766229029e-09,-0.0012713431958526,0.0012713443131414,-0.0012713412795485,0.0012713458464209,-0.0012713430043516,0.0012713441215918,-0.0012713411224185,0.0012713456892588,-0.0010370266712697,0.001037031407698,-0.001037026702621,0.0010370314390541,0.40445605707229,125301,3014,0.0042081132754666,0.0042081132754609,0.0042081132754675,37.62757639914,0.00021622061119312,0.00021622061119312,0.00021622061119312,4151133.1565949,0.012705521916124
12419200,0.98958079376898,0.014534430708488,0.0048448102361605,0.0048448102361604,0.0048448102361668,-0.0010097092101298,0.001009711850269,1.1321694602943e-09,1.1321593631321e-09,1.1384803862351e-09,1.1301733317011e-09,-0.0012727693285846,0.0012727719777356,-0.0012727691293805,0.0012727717784726,-0.0012727693196511,0.0012727718104283,-0.0012727691236153,0.0012727716143127,-0.0010356342106638,0.0010356368616613,-0.0010356341692333,0.0010356368202625,1.1384819431202e-09,1.1301616687725e-09,3.9959115320859e-09,-1.7315953560031e-09,-0.00100970921013,0.001009711850266,-0.0012727683190707,0.0012727729225801,-0.001272770138873,0.0012727708336071,-0.0012727683117185,0.0012727727568194,-0.001272770131563,0.0012727706679147,-0.0010356314435169,0.0010356396922553,-0.0010356369364335,0.0010356339896488,-0.0010356351474059,0.0010356358898104,-0.0010356351243318,0.0010356358779297,1.5080991164895e-09,1.5080899641221e-09,-0.0010097088349283,0.0010097122254709,-1.237699731814e-09,4.3875952156103e-09,-0.0012727700288612,0.0012727714273916,-0.0012727679291774,0.0012727730737012,-0.0012727698021853,0.0012727712006675,-0.0012727677378654,0.0012727728823571,-0.0010356328522207,0.0010356381396134,-0.0010356328765286,0.0010356381639256,0.45322610794666,125301,3014,0.0041989106124646,0.0041989106124587,0.0041989106124654,36.803249238905,0.00020962599391124,0.00020962599391124,0.00020962599391124,4072776.9607697,0.01267760223388
13419200,0.99349716588736,0.014570469426508,0.0048568231421672,0.004856823142167,0.0048568231421734,-0.0010019461170937,0.0010019500031503,1.6018265115643e-09,1.6018164754886e-09,1.5973374734661e-09,1.5978908335172e-09,-0.0012709004473621,0.001270904155318,-0.0012709001585768,0.0012709038664744,-0.0012709003533604,0.0012709039020414,-0.0012709000682444,0.0012709036168461,-0.001028635518253,0.0010286391853751,-0.001028635485078,0.001028639152233,1.5973388640205e-09,1.5978790055164e-09,4.7119221667654e-09,-1.5082919311646e-09,-0.0010019461170939,0.0010019500031472,-0.0012708993535325,0.00127090518218,-0.0012709012523852,0.001270902839591,-0.0012708992613628,0.0012709049307009,-0.0012709011602572,0.0012709025881793,-0.0010286325089447,0.0010286422551247,-0.0010286384944393,0.0010286360824637,-0.0010286365418122,0.0010286381196122,-0.0010286365288873,0.0010286381276422,1.9843713052893e-09,1.9843622231256e-09,-0.0010019457351394,0.0010019503851049,-1.0126378643583e-09,5.109324662727e-09,-0.0012709012278132,0.0012709035301901,-0.001270898871259,0.0012709052521511,-0.0012709009105277,0.0012709032128567,-0.0012708985912955,0.001270904972156,-0.0010286340794093,0.0010286405604512,-0.0010286340937587,0.0010286405748042,0.4150894025916,125301,3014,0.0041667365872189,0.0041667365872127,0.0041667365872194,34.792138963496,0.00019353711170797,0.00019353711170797,0.00019353711170797,3929046.1982465,0.012579930001876
14419200,0.99575873754523,0.014589758206654,0.0048632527355494,0.0048632527355492,0.0048632527355556,-0.00099645718210741,0.00099646125304395,1.6706925920764e-09,1.6706825214722e-09,1.6607810737047e-09,1.6662287018128e-09,-0.0012659890373762,0.0012659929256839,-0.0012659887311723,0.0012659926194215,-0.001265988927108,0.0012659926570995,-0.0012659886241223,0.0012659923540346,-0.0010234627943682,0.0010234666105035,-0.0010234627673221,0.0010234665834902,1.6607826117312e-09,1.66621716402e-09,4.9832664435256e-09,-1.6419037502307e-09,-0.00099645718210738,0.00099646125304089,-0.0012659878777069,0.0012659940202329,-0.0012659898908198,0.0012659915248514,-0.0012659877690453,0.0012659937532208,-0.0012659897821994,0.0012659912579064,-0.0010234595876265,0.001023469880168,-0.0010234659741165,0.0010234633138062,-0.0010234638881455,0.0010234654696629,-0.0010234638811337,0.0010234654920363,2.0812182003891e-09,2.0812090599036e-09,-0.00099645677240029,0.00099646166275121,-1.1151657568928e-09,5.4093627522399e-09,-0.0012659898603856,0.0012659922614575,-0.0012659873515361,0.0012659940983931,-0.0012659895244397,0.0012659919254638,-0.0012659870537714,0.0012659938005967,-0.0010234612675675,0.0010234680863347,-0.00102346127424,0.0010234680930108,0.38312450045663,125301,3014,0.0041439606398755,0.0041439606398691,0.0041439606398759,32.641282072529,0.00017633025658023,0.00017633025658023,0.00017633025658023,3919086.0471413,0.012510748339172
15419200,0.99693629921545,0.014603232842112,0.0048677442807019,0.0048677442807017,0.0048677442807081,-0.00098387884664971,0.00098388593850273,2.8144579072723e-09,2.8144478156394e-09,2.7599139995365e-09,2.8245998589279e-09,-0.0012534101589763,0.0012534166848722,-0.0012534098516251,0.0012534163774623,-0.0012534100267249,0.0012534164362808,-0.0012534097225412,0.0012534161320173,-0.0010114806100551,0.0010114870572022,-0.0010114805868952,0.0010114870340745,2.7599120126638e-09,2.8245845547833e-09,6.1451880346167e-09,-5.1630222776215e-10,-0.00098387884665476,0.00098388593849562,-0.0012534089934121,0.0012534177854825,-0.0012534110171753,0.0012534152768191,-0.001253408862745,0.0012534175384405,-0.0012534108865493,0.0012534150298438,-0.0010114773856295,0.0010114903448612,-0.0010114838113848,0.0010114837463897,-0.0010114817533287,0.0010114858666285,-0.0010114817009985,0.0010114859424949,3.2292775306999e-09,3.2292683690974e-09,-0.00098387843274681,0.00098388635240666,-2.8893574674068e-11,6.5902276679214e-09,-0.0012534109841335,0.001253416018835,-0.0012534084412443,0.0012534178872715,-0.001253410646921,0.0012534156815746,-0.0012534081422771,0.0012534175882719,-0.0010114790770959,0.0010114885470877,-0.0010114790796757,0.0010114885496715,0.51103778709308,125301,3014,0.0040917712349553,0.004091771234951,0.0040917712349575,27.063098067831,0.00013170478454264,0.00013170478454264,0.00013170478454264,3919186.8815572,0.012352238979232
16419200,0.99769245722831,0.014611078160935,0.0048703593869762,0.004870359386976,0.0048703593869824,-0.00097349520222685,0.00097349980295625,1.8638793763233e-09,1.8638694182746e-09,1.8549551976714e-09,1.8597353603172e-09,-0.0012508986465116,0.0012509029456561,-0.0012508983156683,0.0012509026147548,-0.0012508985101582,0.0012509026501179,-0.0012508981820829,0.0012509023219637,-0.0010016097201861,0.0010016139677008,-0.0010016097103149,0.001001613957864,1.8549567046608e-09,1.8597234074801e-09,5.3611240649966e-09,-1.6333885695077e-09,-0.00097349520222711,0.00097349980295285,-0.0012508974271833,0.0012509041022099,-0.0012508995349751,0.0012509014581791,-0.001250897292212,0.0012509038080193,-0.0012508994000446,0.0012509011640546,-0.0010016063340342,0.0010016174197343,-0.0010016130965202,0.0010016105058104,-0.0010016108745542,0.0010016127693086,-0.0010016108839293,0.0010016128041845,2.2607129795056e-09,2.260703985398e-09,-0.00097349480587331,0.00097350019930984,-1.1177985310222e-09,5.7743594812668e-09,-0.0012508995426997,0.0012509022059495,-0.0012508968874326,0.001250904140735,-0.0012508991824698,0.0012509018456721,-0.0012508965643541,0.0012509038176256,-0.0010016081631399,0.0010016155090338,-0.0010016081532616,0.0010016154991577,0.46538451425637,125301,3014,0.0040487283477207,0.0040487283477141,0.0040487283477208,24.415164606472,0.00011052131685178,0.00011052131685178,0.00011052131685178,3746295.1534517,0.012221620492877
17419200,0.99820030029097,0.014617079467068,0.0048723598223539,0.0048723598223537,0.0048723598223601,-0.00096726880782277,0.00096727322383022,1.7919687139094e-09,1.7919586934802e-09,1.779739801009e-09,1.7878192426582e-09,-0.0012436715768047,0.001243675747287,-0.0012436712541981,0.0012436754246224,-0.0012436714488771,0.0012436754615122,-0.0012436711284088,0.001243675140965,-0.0009956374603379,0.00099564155441911,-0.00099563745387749,0.00099564154799244,1.7797414572414e-09,1.7878076601388e-09,5.4234361798495e-09,-1.8395211596157e-09,-0.00096726880782275,0.00096727322382721,-0.0012436703151214,0.0012436769488127,-0.0012436725158598,0.0012436742230757,-0.0012436701882612,0.0012436766640707,-0.0012436723890397,0.0012436739383998,-0.00099563394398341,0.00099564514039718,-0.00099564097028478,0.00099563796199488,-0.00099563866152948,0.00099564030584576,-0.00099563867303327,0.00099564035029828,2.2180854507767e-09,2.2180763752893e-09,-0.00096726838251937,0.00096727364913369,-1.2899417275627e-09,5.867019628857e-09,-0.0012436724907467,0.0012436749922709,-0.0012436697552151,0.0012436770216853,-0.001243672137699,0.0012436746391757,-0.0012436694397349,0.0012436767061738,-0.00099563583419334,0.00099564317206397,-0.00099563581957633,0.0009956431574495,0.52521873377382,125301,3014,0.0040228773263791,0.0040228773263728,0.0040228773263793,21.977342414584,9.1018739316676e-05,9.1018739316676e-05,9.1018739316676e-05,3768612.2841094,0.012143105301421
18419200,0.99851590303189,0.014620657800825,0.0048735526002731,0.0048735526002729,0.0048735526002794,-0.0009542886703281,0.00095429508115314,2.5441782907467e-09,2.5441683305215e-09,2.5132129327906e-09,2.5366972305379e-09,-0.0012344454344688,0.0012344513041525,-0.0012344449641378,0.0012344508337641,-0.0012344451676812,0.0012344508783118,-0.00123444470107,0.0012344504116222,-0.00098315743550553,0.00098316315464827,-0.0009831574346688,0.0009831631538463,2.513213777696e-09,2.536684610201e-09,6.396279392687e-09,-1.3079469662398e-09,-0.00095428867032891,0.00095429508114911,-0.0012344440924717,0.0012344525785273,-0.0012344463061148,0.0012344495593669,-0.0012344438275428,0.0012344521545102,-0.0012344460412258,0.0012344491354153,-0.00098315369960909,0.00098316695041974,-0.00098316117061921,0.00098315935805171,-0.00098315871889516,0.00098316181114095,-0.00098315873967248,0.00098316188260481,2.9756453282249e-09,2.9756363049711e-09,-0.00095428823954839,0.00095429551193271,-7.6710592216123e-10,6.8426369378885e-09,-0.0012344464252157,0.0012344504821594,-0.0012344433876823,0.0012344525154112,-0.0012344459230857,0.0012344499799823,-0.0012344429270003,0.0012344520546984,-0.00098315573509336,0.00098316485728186,-0.00098315571217274,0.00098316483436334,0.50516361584657,125301,3014,0.0039690370623834,0.0039690370623767,0.0039690370623832,17.480808939515,5.504647151612e-05,5.504647151612e-05,5.504647151612e-05,3680433.3047612,0.011979686844561
19419200,0.99877718214566,0.014624513908183,0.0048748379693923,0.0048748379693921,0.0048748379693986,-0.00095306956413351,0.00095307216041887,1.1034841873744e-09,1.1034741576514e-09,1.1261010201221e-09,1.0774163665666e-09,-0.0012328667448078,0.0012328693113852,-0.0012328662709738,0.0012328688374936,-0.001232866501399,0.0012328688565118,-0.0012328660312473,0.0012328683862816,-0.00098211038223023,0.00098211278557242,-0.00098211037928836,0.00098211278266513,1.1261026038434e-09,1.0774045225424e-09,4.9750421295167e-09,-2.7680963340199e-09,-0.00095306956413355,0.00095307216041561,-0.0012328653963077,0.001232870592247,-0.0012328676194523,0.0012328675566107,-0.0012328651547387,0.0012328701391785,-0.001232867377923,0.0012328671036077,-0.00098210662729347,0.0009821166005306,-0.0009821141342778,0.00098210896768635,-0.00098211161982841,0.00098211148731105,-0.00098211169872759,0.00098211149738563,1.543993445913e-09,1.5439843427205e-09,-0.00095306912452276,0.00095307260002958,-2.1625087624594e-09,5.4117166069048e-09,-0.0012328677340428,0.0012328684918131,-0.0012328647064526,0.0012328705077773,-0.0012328672282405,0.0012328679859638,-0.0012328642422713,0.001232870043565,-0.00098210866475431,0.00098211450118192,-0.00098210864353154,0.00098211447996124,0.6532521555218,125301,3014,0.0039639650811595,0.0039639650811529,0.0039639650811595,17.551546168631,5.5612369349049e-05,5.5612369349049e-05,5.5612369349049e-05,3667949.4317962,0.011964284190197
20419200,0.99900456101871,0.014628107516177,0.0048760358387236,0.0048760358387234,0.0048760358387299,-0.00094918421400501,0.00094918535937975,5.4225973810193e-10,5.422498425807e-10,5.7300237620014e-10,5.4520270187288e-10,-0.0012354450845944,0.0012354464026679,-0.0012354450228449,0.0012354463408609,-0.0012354451970003,0.0012354463559818,-0.0012354451327479,0.0012354462916512,-0.0009789225271871,0.00097892394319052,-0.00097892255609292,0.00097892397213172,5.7300383856356e-10,5.4519085970524e-10,4.2794013396641e-09,-3.1949044220208e-09,-0.00094918421400496,0.00094918535937635,-0.0012354438078006,0.0012354476416827,-0.0012354462996169,0.0012354451018245,-0.0012354439189538,0.0012354475937095,-0.0012354464108095,0.001235445053916,-0.00097891891854047,0.00097892765123015,-0.00097892616479225,0.0009789202640715,-0.00097892374170553,0.00097892271418362,-0.00097892378057768,0.00097892273805347,9.3969839562376e-10,9.3968949242515e-10,-0.00094918381709873,0.00094918575628582,-2.6326192608916e-09,4.7015024762825e-09,-0.0012354460406525,0.0012354455808574,-0.0012354435159449,0.0012354479275468,-0.001235445951654,0.0012354454918123,-0.0012354434541677,0.0012354478657391,-0.00097892093413353,0.00097892560202904,-0.00097892089045809,0.00097892555835416,0.70012779305905,125301,3014,0.0039478803008606,0.0039478803008534,0.0039478803008602,18.59665543035,6.3973243442799e-05,6.3973243442799e-05,6.3973243442799e-05,3472167.0917328,0.011915535761336
21419200,0.99915927636471,0.014630386621639,0.0048767955405445,0.0048767955405443,0.0048767955405507,-0.00093775737001646,0.0009377622802453,1.9641968350467e-09,1.9641869484076e-09,1.9393006800042e-09,1.9856476443275e-09,-0.0012253458460157,0.0012253504421023,-0.0012253457868927,0.0012253503829217,-0.0012253459348795,0.0012253504242786,-0.0012253458732427,0.0012253503625636,-0.00096823969463379,0.00096824438779047,-0.00096823973182508,0.0009682444250174,1.9392994898232e-09,1.9856329874609e-09,5.6913518460559e-09,-1.762986504371e-09,-0.00093775737002013,0.00093776228023929,-0.0012253445725273,0.0012253516777912,-0.0012253470603659,0.0012253491472042,-0.0012253446601346,0.0012253516586763,-0.0012253471480117,0.0012253491281536,-0.00096823609575579,0.00096824808608289,-0.0009682433307635,0.00096824072669967,-0.00096824096052705,0.00096824310811732,-0.00096824094530874,0.00096824320156117,2.3609929109637e-09,2.3609840286174e-09,-0.00093775697388644,0.00093776267637587,-1.2560977759134e-09,6.1310464338135e-09,-0.0012253467995088,0.0012253496225925,-0.0012253442583078,0.00122535199143,-0.0012253467133395,0.0012253495363762,-0.0012253441991399,0.0012253519322314,-0.0009682381141741,0.00096824605073739,-0.00096823806221351,0.00096824599877707,0.64990944923707,125301,3014,0.0039004635113493,0.0039004635113444,0.0039004635113505,15.227728957772,3.7021831662177e-05,3.7021831662177e-05,3.7021831662177e-05,3378145.9353477,0.01177161583242
22419200,0.99928733517432,0.014632326270854,0.0048774420902828,0.0048774420902826,0.004877442090289,-0.0009358256983462,0.00093582828281459,1.0842189694724e-09,1.0842089682485e-09,1.0950934253387e-09,1.0849185024698e-09,-0.0012227375722064,0.0012227401472516,-0.0012227374036291,0.001222739978617,-0.0012227375852503,0.0012227400027838,-0.0012227374157153,0.0012227398331708,-0.00096622599252406,0.00096622858608282,-0.00096622602874653,0.00096622862234076,1.0950951258573e-09,1.0849071259589e-09,4.805981163988e-09,-2.637565315527e-09,-0.00093582569834596,0.00093582828281163,-0.0012227362931833,0.0012227413805533,-0.0012227386826302,0.0012227387452945,-0.0012227363057475,0.0012227412355714,-0.0012227386952327,0.0012227386003767,-0.00096622239526218,0.00096623227261513,-0.00096622962606083,0.00096622493578945,-0.00096622721389478,0.00096622733768552,-0.00096622725969557,0.00096622739379992,1.4964367049741e-09,1.4964276958376e-09,-0.00093582528725525,0.00093582869390534,-2.0764621449774e-09,5.2405885979244e-09,-0.0012227385180965,0.0012227393450759,-0.0012227358890572,0.0012227415802705,-0.0012227383211848,0.0012227391481174,-0.0012227357228326,0.0012227414140153,-0.00096622439649768,0.00096623026201943,-0.00096622434227199,0.00096623020779457,0.66642562144511,125301,3014,0.00389243410095,0.0038924341009433,0.0038924341009496,14.859239137069,3.4073913096551e-05,3.4073913096551e-05,3.4073913096551e-05,3418406.2523645,0.011747234204766
23419200,0.99940104818453,0.014633948348014,0.0048779827826693,0.0048779827826691,0.0048779827826755,-0.00093569992854236,0.00093570132717698,6.3495889614746e-10,6.3494889645294e-10,6.6026071870885e-10,6.3816370509569e-10,-0.0012236647971176,0.0012236663444895,-0.0012236647225181,0.0012236662698328,-0.0012236648972277,0.001223666287298,-0.0012236648204466,0.0012236662104389,-0.00096623143739453,0.00096623306444403,-0.00096623147665468,0.00096623310373982,6.6026229708365e-10,6.381524190765e-10,4.2716233951008e-09,-3.0017277767747e-09,-0.00093569992854212,0.00093570132717396,-0.0012236635517341,0.0012236675500147,-0.0012236659678798,0.0012236650642867,-0.0012236636507525,0.0012236674916971,-0.0012236660669363,0.0012236650060332,-0.00096622792633369,0.00096623667246955,-0.00096623498776776,0.00096622949569489,-0.00096623262348042,0.00096623186224745,-0.00096623266962888,0.00096623190330643,1.0350499838158e-09,1.0350409478272e-09,-0.00093569952962635,0.00093570172609285,-2.441912290991e-09,4.6960463842123e-09,-0.0012236657196804,0.0012236655573694,-0.0012236632471178,0.0012236678265471,-0.0012236656179985,0.0012236654556409,-0.0012236631728213,0.0012236677522199,-0.0009662298857994,0.00096623470295501,-0.00096622983070407,0.0009662346478605,0.62875729639221,125301,3014,0.0038919149402303,0.0038919149402236,0.0038919149402301,15.705189405741,4.084151524593e-05,4.084151524593e-05,4.084151524593e-05,3368451.891789,0.011745675806494
24419200,0.99950838863177,0.014635565934646,0.0048785219782132,0.004878521978213,0.0048785219782194,-0.00093986116354818,0.00093986143291387,2.0832334512951e-10,2.0831330190691e-10,2.4928897309887e-10,2.0618067757183e-10,-0.0012269433594477,0.0012269439270707,-0.001226943284369,0.0012269438519341,-0.001226943466952,0.0012269438619981,-0.0012269433896832,0.0012269437846504,-0.00097031511009763,0.00097031575576934,-0.00097031514706942,0.00097031579277583,2.4929076733285e-10,2.0616966943202e-10,3.8379970047506e-09,-3.4213719790414e-09,-0.00093986116354773,0.00093986143291061,-0.0012269421162987,0.0012269451302873,-0.0012269445274949,0.0012269426486953,-0.0012269422227085,0.0012269450640857,-0.001226944633942,0.0012269425825569,-0.0009703116058354,0.00097031935686874,-0.00097031865138391,0.00097031219165751,-0.0009703162786958,0.00097031457097886,-0.00097031633998996,0.00097031459246536,6.1402270352789e-10,6.1401360324707e-10,-0.00093986075919237,0.00093986183726929,-2.8395391008825e-09,4.2624229243614e-09,-0.001226944274564,0.0012269431477286,-0.001226941813975,0.0012269454038532,-0.0012269441723433,0.0012269430454605,-0.0012269417391794,0.0012269453290263,-0.00097031355313395,0.00097031739500415,-0.00097031350025464,0.00097031734212704,0.66255127740754,125301,3014,0.0039091779224983,0.0039091779224906,0.0039091779224975,17.880206763334,5.8241654106669e-05,5.8241654106669e-05,5.8241654106669e-05,3377866.3558206,0.011798065300889
25419200,0.99960625404611,0.014637304587573,0.0048791015291891,0.0048791015291889,0.0048791015291953,-0.0009422620703445,0.00094226228629356,1.8598133783897e-10,1.8597131949796e-10,2.2510972991992e-10,1.9156185263748e-10,-0.0012308913066655,0.0012308918284685,-0.0012308913236774,0.0012308918454234,-0.0012308914920698,0.0012308918566083,-0.0012308915059092,0.0012308918703698,-0.00097292362464182,0.00097292428655935,-0.00097292366448064,0.00097292432643379,2.251109801218e-10,1.9155028977381e-10,3.6764443285781e-09,-3.3045042491907e-09,-0.00094226207034441,0.00094226228629021,-0.0012308901141898,0.0012308929857516,-0.0012308925161318,0.0012308906881189,-0.0012308902980069,0.00123089301227,-0.0012308926999867,0.0012308907147012,-0.0009729202591188,0.00097292775541,-0.00097292703005616,0.00097292085756327,-0.0009729247556931,0.00097292315018494,-0.00097292479958003,0.00097292317437345,5.7114445469367e-10,5.7113538708832e-10,-0.00094226168648548,0.00094226267015241,-2.750616898233e-09,4.0874368762268e-09,-0.0012308921888143,0.0012308910737599,-0.0012308899104761,0.0012308933347211,-0.0012308921801365,0.0012308910650355,-0.0012308899260303,0.001230893350245,-0.00097292213786737,0.00097292586208393,-0.00097292208429357,0.00097292580851096,0.77991302017261,125301,3014,0.0039191500295142,0.003919150029507,0.0039191500295139,19.925268205368,7.4602145642947e-05,7.4602145642947e-05,7.4602145642947e-05,3302133.2096742,0.011828354978525
26419200,0.99968650480269,0.014638823107039,0.0048796077023443,0.0048796077023441,0.0048796077023505,-0.00093874955518408,0.0009387513400785,7.7754211947492e-10,7.775322250713e-10,8.0140728199882e-10,7.8057404251352e-10,-0.0012318356943871,0.0012318375609225,-0.0012318355947443,0.0012318374612227,-0.0012318357706986,0.0012318374792058,-0.0012318356699647,0.0012318373783943,-0.00096992296032462,0.00096992490158518,-0.00096992300962597,0.00096992495092315,8.0140855207711e-10,7.8056234162465e-10,4.2375773821068e-09,-2.6825158661663e-09,-0.00093874955518409,0.00093875134007511,-0.0012318345032322,0.0012318387071044,-0.0012318367858778,0.0012318363150193,-0.0012318345789977,0.0012318386248074,-0.0012318368616807,0.0012318362327857,-0.0009699196199881,0.00096992833267179,-0.0009699263500156,0.00096992151981613,-0.00096992408986041,0.00096992375828878,-0.00096992414470745,0.00096992380850837,1.1443734087955e-09,1.1443644437459e-09,-0.00093874918951128,0.00093875170575098,-2.1653303823638e-09,4.6270236796468e-09,-0.0012318365911144,0.0012318367985061,-0.0012318342084999,0.0012318389302361,-0.0012318364656827,0.0012318366730278,-0.0012318341103966,0.0012318388321026,-0.00096992150939285,0.00096992645913966,-0.00096992144479534,0.00096992639454209,0.82922923068302,125301,3014,0.0039046063841343,0.0039046063841273,0.0039046063841338,20.39382012504,7.8350561000321e-05,7.8350561000321e-05,7.8350561000321e-05,3163256.9764239,0.011784265574988
27419200,0.99975649032033,0.014640019087954,0.0048800063626494,0.0048800063626492,0.0048800063626556,-0.00093915750968712,0.00093915792715858,2.5848092826154e-10,2.5847105994536e-10,2.9681226232442e-10,2.6412289884439e-10,-0.0012338457831458,0.0012338464762092,-0.0012338457890492,0.0012338464820559,-0.0012338459578208,0.0012338464933796,-0.0012338459612416,0.0012338464967228,-0.0009706603795228,0.00097066120224609,-0.0009706604365712,0.00097066125933143,2.968136664211e-10,2.6411148621877e-10,3.6251264953381e-09,-3.1081869487313e-09,-0.00093915750968687,0.00093915792715525,-0.0012338446291014,0.0012338475919097,-0.0012338469430718,0.001233845366334,-0.0012338448025348,0.0012338476078042,-0.0012338471165421,0.0012338453822913,-0.00097065713368843,0.00097066454713456,-0.00097066368245795,0.00097065791442305,-0.00097066147131017,0.00097066010727535,-0.0009706615308301,0.00097066014783844,6.1612410927256e-10,6.1611513204681e-10,-0.00093915715329049,0.00093915828355468,-2.5879841184352e-09,4.007570414313e-09,-0.0012338466508175,0.0012338457344153,-0.0012338444423292,0.0012338479056667,-0.0012338466322093,0.0012338457157609,-0.0012338444475722,0.0012338479108797,-0.0009706589779137,0.00097066272708148,-0.00097065890760663,0.00097066265677405,0.74718867332314,125301,3014,0.0039063044918249,0.0039063044918174,0.0039063044918238,22.251655913117,9.3213247304933e-05,9.3213247304933e-05,9.3213247304933e-05,3083971.0709671,0.011789436713201
28419200,0.99981401241092,0.01464114131072,0.0048803804369048,0.0048803804369046,0.004880380436911,-0.00094162667934141,0.00094162775390746,5.0720487094523e-10,5.0719487704466e-10,5.3580838624512e-10,5.114525264911e-10,-0.0012336885895641,0.0012336898561485,-0.0012336885430884,0.0012336898096157,-0.001233688716055,0.0012336898256172,-0.001233688667955,0.0012336897774393,-0.00097305532290856,0.00097305668285508,-0.00097305537680469,0.00097305673678773,5.3580976424126e-10,5.1144130357476e-10,3.8265343095903e-09,-2.8121467331408e-09,-0.00094162667934111,0.00094162775390426,-0.001233687447085,0.0012336909557841,-0.0012336896855457,0.0012336887099586,-0.0012336875727633,0.0012336909244063,-0.001233689811261,0.0012336886786435,-0.00097305212130835,0.00097305997772874,-0.00097305857845715,0.00097305344189465,-0.00097305640451584,0.00097305559104498,-0.0009730564616703,0.00097305564127382,8.751776165128e-10,8.7516851405558e-10,-0.00094162631297621,0.00094162812027232,-2.2900504135171e-09,4.2178059611437e-09,-0.0012336894364626,0.0012336891403364,-0.0012336872029963,0.0012336912304904,-0.001233689364817,0.0012336890686444,-0.0012336871571492,0.0012336911846131,-0.00097305392304745,0.00097305819917346,-0.00097305385419961,0.00097305813032605,0.8493285419621,125301,3014,0.0039165297590729,0.0039165297590656,0.0039165297590722,23.441006551862,0.0001027280524149,0.0001027280524149,0.0001027280524149,3126824.2133664,0.011820440582352
29419200,0.99986075264278,0.014641790746629,0.0048805969155409,0.0048805969155407,0.0048805969155471,-0.00094106582729278,0.00094106676078193,4.5214303654648e-10,4.5213311043795e-10,4.8495599026562e-10,4.5703205749907e-10,-0.0012367859041595,0.0012367870418797,-0.0012367858720317,0.0012367870096952,-0.0012367860432862,0.0012367870235432,-0.00123678600955,0.0012367869897293,-0.00097276029728601,0.00097276154055533,-0.00097276036001529,0.0009727616033216,4.8495728954628e-10,4.5702070647267e-10,3.7271055334724e-09,-2.8228415948347e-09,-0.00094106582729243,0.00094106676077857,-0.0012367847766204,0.0012367881267123,-0.0012367869995487,0.0012367859248406,-0.0012367849149427,0.0012367881075374,-0.0012367871379078,0.001236785905728,-0.00097275713921371,0.00097276479205459,-0.00097276351813904,0.00097275835180253,-0.00097276136239512,0.00097276046968534,-0.00097276142746717,0.00097276052213291,8.0129626630204e-10,8.0128725701844e-10,-0.00094106547957911,0.00094106710849525,-2.319465855572e-09,4.0995826852101e-09,-0.0012367867523208,0.0012367863216543,-0.0012367845636188,0.0012367883974868,-0.0012367866958966,0.0012367862651835,-0.0012367845319512,0.0012367883657891,-0.00097275893955537,0.00097276303265288,-0.00097275886291697,0.00097276295601412,0.60881578646039,125301,3014,0.0039142280694707,0.003914228069463,0.0039142280694701,24.779924753251,0.00011343939802601,0.00011343939802601,0.00011343939802601,3007973.3382348,0.011813504938265
30419200,0.99989793397229,0.014642229231286,0.0048807430770934,0.0048807430770932,0.0048807430770996,-0.00094834709599131,0.00094834799441633,4.4174663926693e-10,4.4173647054816e-10,4.6872175157812e-10,4.4607282491375e-10,-0.0012359066627436,0.0012359077895981,-0.0012359066264527,0.0012359077532499,-0.0012359067993911,0.0012359077704257,-0.0012359067614501,0.0012359077324066,-0.00097959385029088,0.00097959506739358,-0.00097959389953855,0.00097959511667693,4.6872325684274e-10,4.4606176425348e-10,3.6775096446764e-09,-2.7940384775954e-09,-0.00094834709599101,0.00094834799441329,-0.0012359055476103,0.0012359088614846,-0.0012359077415642,0.0012359066813421,-0.0012359056834323,0.0012359088414525,-0.001235907877423,0.001235906661373,-0.00097959073024972,0.00097959827999927,-0.00097959701963143,0.00097959190405218,-0.00097959490562133,0.00097959399983725,-0.00097959495771234,0.00097959404942247,8.2393345216331e-10,8.2392415877075e-10,-0.00094834671595131,0.00094834837445633,-2.2583764037981e-09,4.0828293887765e-09,-0.0012359074693586,0.0012359071151238,-0.0012359053012844,0.0012359091596647,-0.0012359074076025,0.0012359070533209,-0.0012359052655204,0.0012359091238699,-0.00097959245978351,0.00097959656526512,-0.00097959239481376,0.00097959650029666,0.51512748248588,125301,3014,0.0039443844846424,0.0039443844846354,0.0039443844846424,26.130620489492,0.00012424496391593,0.00012424496391593,0.00012424496391593,3209105.1825588,0.011904941931334
31419200,0.99992803337556,0.014642686742875,0.0048808955809565,0.0048808955809563,0.0048808955809627,-0.00095667693006156,0.00095667682344546,6.0602901975885e-11,6.0592671553124e-11,1.0080909185144e-10,6.691603048179e-11,-0.0012417979202887,0.0012417981612735,-0.0012417979615082,0.0012417982024356,-0.0012417981288511,0.0012417982136461,-0.0012417981674068,0.0012417982521234,-0.00098737153680871,0.00098737193403787,-0.00098737157716295,0.00098737197442666,1.0081049763796e-10,6.6904785832659e-11,3.2005545016315e-09,-3.0793712552431e-09,-0.00095667693006135,0.00095667682344222,-0.0012417968413486,0.0012417992017653,-0.0012417990404267,0.0012417971619219,-0.0012417970485785,0.0012417992527714,-0.0012417992476938,0.0012417972129914,-0.00098736851298339,0.0009873750567415,-0.00098737460104049,0.00098736885170341,-0.00098737255301342,0.00098737091468357,-0.00098737259522999,0.0009873709389097,4.3502515722124e-10,4.3501580250702e-10,-0.00095667655776189,0.00095667719574502,-2.5423607521242e-09,3.5995900184517e-09,-0.0012417986966659,0.0012417975102888,-0.0012417966747594,0.0012417995654473,-0.0012417987133025,0.0012417975268785,-0.0012417967147807,0.0012417996054376,-0.00098737017748271,0.00098737338336249,-0.00098737012345171,0.00098737332933303,0.66479676253864,125301,3014,0.0039789374618439,0.0039789374618368,0.0039789374618438,28.438780692055,0.00014271024553644,0.00014271024553644,0.00014271024553644,3277323.4081431,0.012009817108526
32419200,0.99995002356517,0.01464308014946,0.0048810267164847,0.0048810267164845,0.0048810267164909,-0.00095480870904314,0.0009548101050417,6.3191541159441e-10,6.3190543419333e-10,6.5916839256396e-10,6.357940669718e-10,-0.0012465028446658,0.0012465043870101,-0.0012465027750277,0.0012465043173147,-0.0012465029492959,0.0012465043343721,-0.0012465028791112,0.0012465042641095,-0.00098590154952476,0.00098590317549196,-0.00098590160345122,0.00098590322945493,6.5916994348411e-10,6.3578257661142e-10,3.7791043831307e-09,-2.5152954644604e-09,-0.00095480870904291,0.00095481010503864,-0.0012465017549947,0.0012465054288006,-0.0012465038646771,0.0012465032755031,-0.0012465018593512,0.0012465053758548,-0.0012465039690705,0.0012465032226205,-0.00098589851413237,0.00098590629764577,-0.000985904638896,0.00098590010728192,-0.0009859025751823,0.00098590214007857,-0.00098590263276569,0.00098590219088965,9.7757115351935e-10,9.775620009166e-10,-0.00095480836496946,0.00095481044911508,-2.0247530041267e-09,4.1463433037347e-09,-0.0012465036568236,0.0012465037060204,-0.0012465015116841,0.0012465056628883,-0.0012465035626987,0.0012465036118488,-0.0012465014438978,0.0012465055950717,-0.00098590022772901,0.00098590461324185,-0.00098590015921402,0.0009859045447275,0.7835582016357,125301,3014,0.0039712386124549,0.0039712386124481,0.0039712386124543,29.295552963636,0.00014956442370909,0.00014956442370909,0.00014956442370909,3100982.5910071,0.011986527716371
33419200,0.99996530816985,0.014643364088995,0.0048811213629964,0.0048811213629962,0.0048811213630026,-0.00095049094484839,0.0009504932015766,9.532577501889e-10,9.5324785890284e-10,9.723581718606e-10,9.5577474195829e-10,-0.0012463603854995,0.0012463626584162,-0.0012463602535342,0.0012463625263944,-0.0012463604315964,0.0012463625466151,-0.0012463602998681,0.0012463624148092,-0.0009821576695745,0.00098215999309333,-0.00098215773479772,0.00098216005835342,9.7235939473852e-10,9.5576394789282e-10,4.1551189540228e-09,-2.2486258640479e-09,-0.00095049094484805,0.00095049320157324,-0.0012463592742294,0.0012463637181343,-0.0012463613647824,0.001246361466654,-0.0012463593204443,0.0012463636064174,-0.0012463614110342,0.001246361355,-0.00098215457885038,0.00098216316554366,-0.00098216082557363,0.0009821568858835,-0.00098215871777231,0.0009821589304002,-0.00098215878756662,0.00098215900124302,1.2938695896722e-09,1.2938605919176e-09,-0.00095049060569461,0.00095049354073008,-1.7703829036646e-09,4.5160286072642e-09,-0.0012463612241857,0.0012463619544324,-0.0012463589769944,0.0012463638883187,-0.0012463610675434,0.0012463617977435,-0.0012463588481233,0.0012463637594174,-0.00098215634531974,0.00098216145573511,-0.00098215626458096,0.0009821613749959,0.80945760226261,125301,3014,0.0039533508632403,0.0039533508632326,0.0039533508632397,29.317300401639,0.00014973840321311,0.00014973840321311,0.00014973840321311,2975646.8173253,0.01193226999603
34419200,0.99997687520951,0.01464355938123,0.0048811864604081,0.0048811864604079,0.0048811864604143,-0.00095242646560197,0.00095242654075836,1.2611227450364e-10,1.2610236907095e-10,1.6814612457484e-10,1.326935973311e-10,-0.0012489621373714,0.0012489625364566,-0.0012489621720903,0.0012489625711188,-0.0012489623388856,0.0012489625808319,-0.00124896237138,0.0012489626132489,-0.0009842915085631,0.00098429204970166,-0.00098429157701249,0.00098429211818822,1.6814726408016e-10,1.326826137659e-10,3.2589909967078e-09,-3.0067885822683e-09,-0.00095242646560165,0.0009524265407551,-0.0012489610597294,0.001248963574268,-0.0012489632497105,0.0012489615332856,-0.0012489612601312,0.0012489636174972,-0.0012489634501485,0.0012489615765771,-0.00098428849093462,0.00098429516424432,-0.00098429459469284,0.00098428900362621,-0.00098429252254204,0.00098429103724206,-0.00098429259113096,0.00098429108402847,4.6224521419659e-10,4.6223620679529e-10,-0.00095242613100671,0.00095242687535321,-2.5112010570021e-09,3.6193714012322e-09,-0.0012489629465731,0.001248961849427,-0.0012489609226883,0.0012489638964239,-0.0012489629581395,0.0012489618609472,-0.0012489609567524,0.0012489639304581,-0.00098429021728375,0.00098429348737274,-0.00098429013640583,0.00098429340649425,0.73398852679868,125301,3014,0.0039613799773144,0.003961379977307,0.0039613799773136,31.48272556294,0.00016706180450352,0.00016706180450352,0.00016706180450352,2924190.7973956,0.011956648321075
35419200,0.99998594709656,0.014643694980255,0.0048812316600832,0.0048812316600829,0.0048812316600894,-0.00096203497443972,0.00096203261595656,-7.9524536344708e-10,-7.9525538928786e-10,-7.261948789214e-10,-7.8401182271228e-10,-0.0012559156173794,0.0012559138999508,-0.0012559158404316,0.001255914122946,-0.001255915994611,0.0012559141204976,-0.0012559162128758,0.0012559143386846,-0.00099368756653771,0.00099368612504427,-0.00099368762149573,0.0009936861800389,-7.2619363962028e-10,-7.8402279682188e-10,2.1441672705335e-09,-3.7346803064752e-09,-0.00096203497443932,0.00096203261595329,-0.0012559146150048,0.0012559148745446,-0.0012559168427842,0.0012559131483307,-0.0012559149898425,0.0012559150926635,-0.0012559172176583,0.0012559133665121,-0.00099368474432335,0.00099368906012546,-0.00099369044376176,0.00099368324493848,-0.00099368850247694,0.00099368520953746,-0.00099368855310727,0.00099368521017526,-4.6751747425031e-10,-4.6752658903069e-10,-0.00096203464844981,0.00096203294194591,-3.2247942888951e-09,2.5001352718777e-09,-0.0012559163580877,0.0012559132668881,-0.0012559146629659,0.0012559153656322,-0.0012559165599092,0.0012559134686634,-0.0012559148813102,0.0012559155839463,-0.0009936863365373,0.0009936874757246,-0.00099368627297205,0.00099368741215933,0.64952121200817,125301,3014,0.0040012280816278,0.0040012280816201,0.0040012280816267,35.930598369299,0.00020264478695439,0.00020264478695439,0.00020264478695439,2953682.6947619,0.012077593469924
36419200,0.99999175479524,0.014643786060965,0.0048812620203196,0.0048812620203194,0.0048812620203258,-0.00096686217689939,0.00096686282109405,3.4313385684915e-10,3.4312373857002e-10,3.7623735379534e-10,3.4850300513418e-10,-0.0012582764287348,0.0012582773220589,-0.0012582764166589,0.001258277309926,-0.0012582765877328,0.0012582773245497,-0.001258276574769,0.001258277311508,-0.00099824916777071,0.00099825017811608,-0.00099824922330783,0.00099825023368941,3.7623864933937e-10,3.4849202601003e-10,3.2766443112806e-09,-2.5903988468351e-09,-0.00096686217689902,0.00096686282109089,-0.0012582754112393,0.0012582782928763,-0.0012582774341325,0.0012582763390872,-0.0012582755697931,0.001258278294889,-0.0012582775927227,0.0012582763411623,-0.00099824634227869,0.00099825309214345,-0.00099825204885169,0.00099824731964278,-0.00099825012116035,0.00099824922061048,-0.00099825017697886,0.00099824926603358,6.7788851623586e-10,6.7787932319317e-10,-0.00096686184408378,0.00096686315390933,-2.1087102134534e-09,3.633480330023e-09,-0.0012582771778399,0.0012582766996926,-0.0012582752346906,0.0012582785720918,-0.0012582771424754,0.0012582766642815,-0.001258275223761,0.0012582785611319,-0.00099824792989329,0.00099825153540463,-0.00099824786069936,0.00099825146621099,0.6811981079479,125301,3014,0.0040212481248432,0.0040212481248358,0.0040212481248425,37.480857761775,0.0002150468620942,0.0002150468620942,0.0002150468620942,3008315.9672987,0.012138352610755
37419200,0.99999518467219,0.014643837670865,0.0048812792236195,0.0048812792236193,0.0048812792236257,-0.00096642540847326,0.00096642748763399,8.8803141601452e-10,8.8802134285166e-10,9.0603624643519e-10,8.9071428489295e-10,-0.0012595717945136,0.0012595739357347,-0.0012595716730658,0.00125957381423,-0.0012595718512456,0.0012595738356106,-0.0012595717304814,0.0012595737147686,-0.00099787346318555,0.00099787564394295,-0.00099787352922962,0.00099787571002357,9.0603756407419e-10,8.9070323598049e-10,3.9050141510947e-09,-2.1289734571821e-09,-0.0009664254084729,0.00096642748763082,-0.0012595707425637,0.0012595749336521,-0.0012595727249939,0.0012595728162912,-0.0012595707996373,0.0012595748338356,-0.0012595727821039,0.0012595727165371,-0.00099787055226258,0.00099787863335378,-0.00099787644020435,0.00099787272059346,-0.00099787445198956,0.00099787464047634,-0.00099787452123884,0.00099787471453881,1.2236471435374e-09,1.2236380192867e-09,-0.00096642507469876,0.00096642782140813,-1.6603504711093e-09,4.2601734008034e-09,-0.0012595725774714,0.0012595732874352,-0.0012595704624934,0.0012595751110499,-0.0012595724318002,0.0012595731417176,-0.0012595703445915,0.0012595749931177,-0.00099787220591261,0.0009978770410817,-0.00099787212412779,0.00099787695929699,0.65495763090949,125301,3014,0.0040194523047832,0.0040194523047759,0.0040194523047825,37.680458792078,0.00021664367033662,0.00021664367033662,0.00021664367033662,2961476.8926543,0.012132924830603
38419200,0.99999715611432,0.014643870773848,0.0048812902579473,0.0048812902579471,0.0048812902579535,-0.00096542391990404,0.0009654267237445,1.1635251816926e-09,1.1635150983536e-09,1.1722825286029e-09,1.164692039193e-09,-0.001258237846054,0.0012582406223062,-0.0012582376681626,0.0012582404443578,-0.0012582378502853,0.0012582404698733,-0.0012582376736594,0.0012582402931696,-0.00099691754711246,0.00099692031923619,-0.0009969176157964,0.00099692038795652,1.1722838971268e-09,1.1646810055282e-09,4.286776710846e-09,-1.9597485371119e-09,-0.00096542391990364,0.00096542672374132,-0.001258236756154,0.001258241655344,-0.0012582387580406,0.0012582394112985,-0.0012582367610179,0.0012582415035097,-0.0012582387629409,0.0012582392595267,-0.00099691453064204,0.00099692341030831,-0.00099692063231858,0.00099691729686504,-0.00099691857578032,0.00099691926869478,-0.00099691864926868,0.00099691935737659,1.5118564702638e-09,1.5118473348958e-09,-0.00096542357347464,0.00096542707017353,-1.4837434009517e-09,4.6537066568384e-09,-0.001258238656305,0.0012582399519923,-0.0012582364108744,0.0012582417912259,-0.0012582384532169,0.0012582397488578,-0.0012582362375506,0.0012582416178718,-0.00099691624424453,0.00099692176705463,-0.00099691615820153,0.00099692168101174,0.72891346290552,125301,3014,0.0040152949235433,0.0040152949235358,0.0040152949235426,37.195835163013,0.0002127666813041,0.0002127666813041,0.0002127666813041,2971100.5618191,0.012120296376766
38880000,0.99999784455656,0.014643882591159,0.004881294197051,0.0048812941970508,0.0048812941970572,-0.00096335484873401,0.00096335717083526,9.7895986500693e-10,9.7895833902414e-10,9.9464758671369e-10,9.7998543677936e-10,-0.0012584292263623,0.0012584315682522,-0.0012584290677233,0.0012584314092818,-0.0012584292502505,0.0012584314320323,-0.0012584290932544,0.0012584312746103,-0.00099511454880161,0.00099511689917455,-0.00099511463605464,0.00099511698610356,9.9444364400861e-10,9.7985064918379e-10,4.1128505694345e-09,-2.1548111053834e-09,-0.0009633548482906,0.00096335717042446,-0.0012584281337338,0.0012584326040346,-0.0012584301596847,0.0012584303727488,-0.0012584281581835,0.0012584324689192,-0.0012584301839198,0.0012584302371979,-0.00099511152132356,0.00099512000061496,-0.00099511766146263,0.00099511388289281,-0.00099511557577312,0.00099511585158001,-0.00099511567015214,0.00099511595140007,1.3192371976798e-09,1.3192341458318e-09,-0.000963354509748,0.00096335750877138,-1.6814125914995e-09,4.4714525598554e-09,-0.0012584300459414,0.0012584308843133,-0.0012584278154454,0.0012584327496679,-0.0012584298625112,0.0012584307021838,-0.0012584276614304,0.0012584325946055,-0.00099511326891566,0.00099511836091296,-0.00099511316555071,0.00099511825797053,0.74537476942469,125301,3014,0.00400672039939,0.0040067203976147,0.0040067203972131,37.193642338389,0.00021274913870712,0.00021274913870712,0.00021274913870712,2890847.4797899,0.012094289911216
