time,ASR_ext,ASR_strain,ASR_strain_xx,ASR_strain_yy,ASR_strain_zz,disp_x_101,disp_x_102,disp_x_103,disp_x_104,disp_x_105,disp_x_106,disp_x_p1_neg,disp_x_p1_pos,disp_x_p2_neg,disp_x_p2_pos,disp_x_p3_neg,disp_x_p3_pos,disp_x_p4_neg,disp_x_p4_pos,disp_x_p5_neg,disp_x_p5_pos,disp_x_p6_neg,disp_x_p6_pos,disp_y_101,disp_y_102,disp_y_103,disp_y_104,disp_y_105,disp_y_106,disp_y_p1_neg,disp_y_p1_pos,disp_y_p2_neg,disp_y_p2_pos,disp_y_p3_neg,disp_y_p3_pos,disp_y_p4_neg,disp_y_p4_pos,disp_y_p5_neg,disp_y_p5_pos,disp_y_p6_neg,disp_y_p6_pos,disp_y_p7_neg,disp_y_p7_pos,disp_y_p8_neg,disp_y_p8_pos,disp_z_101,disp_z_102,disp_z_103,disp_z_104,disp_z_105,disp_z_106,disp_z_p1_neg,disp_z_p1_pos,disp_z_p2_neg,disp_z_p2_pos,disp_z_p3_neg,disp_z_p3_pos,disp_z_p4_neg,disp_z_p4_pos,disp_z_p5_neg,disp_z_p5_pos,disp_z_p6_neg,disp_z_p6_pos,humidity,ndof,nelem,strain_xx,strain_yy,strain_zz,temp,thermal_strain_xx,thermal_strain_yy,thermal_strain_zz,vonmises,vstrain
2419200,0,0,0,0,0,0,0,0,0,0,0,0,0,0,0,0,0,0,0,0,0,0,0,0,0,0,0,0,0,0,0,0,0,0,0,0,0,0,0,0,0,0,0,0,0,0,0,0,0,0,0,0,0,0,0,0,0,0,0,0,0,0,0,0,0,0,0,0,0,0,0,0,0,0,0
3419200,0.15846859841123,0.0027326334075974,0.00091087780253245,0.00091087780253245,0.00091087780253245,-0.00023400654435003,0.00023406559189493,2.0848460046453e-06,-2.0010780955428e-06,-3.7887664156126e-07,3.4695635013848e-07,-0.00024133114928262,0.00024274405381593,-0.00024272658824224,0.00024127555133945,-0.00024125804336174,0.00024283540027441,-0.00024255792107,0.00024144375007337,-0.00023313420106346,0.00023727770090479,-0.0002364757871636,0.00023335833428502,2.9566161193149e-06,2.2853831629482e-06,3.9623568571995e-06,1.2823069311e-06,-0.00027116340718489,0.00027636313697252,-0.0002749249141709,0.00028110054533465,-0.00027583639636505,0.00028030996672452,-0.00027506311095026,0.00028093387695136,-0.00027601938347862,0.00028003548087855,-0.00026301490369119,0.00027068775073718,-0.00026593020300133,0.00026829303462656,-0.00026426480317878,0.00026949419117795,-0.00026531887325862,0.00026885202297471,-2.6578787473885e-06,1.4444094101121e-06,-0.00023465767229297,0.00023341952032469,-2.0124011707199e-06,6.3220979139012e-07,-0.0002437958183258,0.0002403067531821,-0.0002428057548861,0.0002411548688863,-0.00024238310350251,0.00024172130646522,-0.00024144331428658,0.00024257528839104,-0.00023306980264502,0.00023670962571009,-0.00023695989439775,0.0002331875447388,0.78396790124782,131688,2924,0.00097467893057928,0.0011400231393973,0.00097468946836872,31.785376232738,0.00016948300986191,0.00016948300986191,0.00016948300986191,3026071.8566949,0.0030941723150864
4419200,0.34861526872002,0.005834332898611,0.0017951402708646,0.0022440204205851,0.0017951722071614,-0.00042622542438556,0.00042544467197493,2.7954496526528e-06,-3.5319093366815e-06,5.2339481394349e-07,-1.5332811910648e-06,-0.00045273652955498,0.00045523678261265,-0.00045491782230707,0.00045287936749568,-0.00045376029872814,0.00045421993050343,-0.00045570688130077,0.00045207855961988,-0.0004250898198392,0.0004295035945221,-0.00043010605948138,0.00042350096218175,4.8063869554668e-06,7.0351152396163e-06,9.055102419546e-06,2.8851754445782e-06,-0.0006053581511224,0.00061715482114855,-0.00063620231294143,0.00064901198041859,-0.00063833818208579,0.00064716325873131,-0.00063527819292465,0.00064991942356718,-0.00063754357956045,0.00064781316785749,-0.00056019145396185,0.00057903546076904,-0.00056680265971161,0.00057321177839296,-0.00056573349892406,0.00057361992242323,-0.0005641447735282,0.00057584412791539,-4.4064400934881e-06,1.9628510848841e-06,-0.00042707609488209,0.00042460821781567,-4.408730027794e-06,1.6665673665009e-06,-0.00045733456905302,0.00045067018042011,-0.00045508305516614,0.00045266020998843,-0.00045511203757551,0.00045290511818701,-0.00045295453007242,0.00045487994734791,-0.00042384394104483,0.00042961215575995,-0.00042989571328465,0.00042420052095723,0.77882048930088,131688,2924,0.0017728284510965,0.0025435889222885,0.0017728580977175,33.59860476388,0.00018398883811104,0.00018398883811104,0.00018398883811104,4668745.2233788,0.0061078844716623
5419200,0.54848839584642,0.0089900362206686,0.0026183276341408,0.0037533518863407,0.0026183567001871,-0.00059784083055357,0.00059719750784505,3.5221988633923e-06,-4.1520158037731e-06,8.0810720035841e-07,-1.6440377660538e-06,-0.00064937268197121,0.00065243416444596,-0.00065199978259523,0.00064970215119215,-0.00065037616986585,0.00065138282600072,-0.00065283375594379,0.00064882305254479,-0.00059073401415635,0.00059657040456836,-0.00059743811437121,0.0005893036427376,2.6410023176776e-06,5.2630375093822e-06,7.6623565443029e-06,3.7167751765746e-07,-0.00099354561386829,0.0010014120731461,-0.0010753582760624,0.0010844993664349,-0.0010778084077391,0.0010822132567991,-0.0010742782698441,0.0010854799270144,-0.0010768319541289,0.0010829824920813,-0.00089040167142427,0.0009066018331085,-0.00089787766391347,0.00089940725995263,-0.00089704645778081,0.00090003030586757,-0.00089479166756562,0.00090262137065508,-4.1711127577874e-06,3.5423062992948e-06,-0.00059781543335716,0.00059723661292188,-3.9914603093149e-06,3.2325492072689e-06,-0.00065368307816952,0.00064812391636273,-0.00065113592688181,0.00065051138457952,-0.00065106095402338,0.00065076193728015,-0.00064854782586057,0.00065316937876895,-0.00058860381690376,0.00059789332965592,-0.00059605514121504,0.00059096148935418,0.77319620107307,131688,2924,0.0024869583956066,0.0041473169442608,0.00248698705804,36.266592203841,0.00020533273763073,0.00020533273763073,0.00020533273763073,5511725.4034416,0.0091630943159779
6419200,0.7052037953455,0.01128434465889,0.0031653427602659,0.0049536336070354,0.0031653682915891,-0.00069657512968366,0.00069637881156876,3.9767833241017e-06,-4.1617914564668e-06,1.3011063151212e-06,-1.6992896270285e-06,-0.00077572431070602,0.00077964426641832,-0.00077851682477089,0.0007767463017284,-0.00077696694001013,0.00077837694570678,-0.00077958011140072,0.00077565745627717,-0.00068008008584997,0.00068658296403839,-0.00068704937135001,0.0006788203947695,3.528730498937e-06,6.6603547190055e-06,1.0339662040707e-05,-6.1875582669176e-08,-0.0013012256175262,0.0013113496222938,-0.001434734641289,0.0014470098095812,-0.0014382061877507,0.0014436830754797,-0.0014335270673893,0.0014481535948371,-0.0014371043838391,0.0014446110455232,-0.0011359527864808,0.0011576125698043,-0.00114650655257,0.0011474196261212,-0.0011449022625477,0.0011486857793645,-0.0011422222810041,0.0011517767958004,-4.4090031692989e-06,3.7693046120786e-06,-0.00069679290624853,0.0006961727793915,-5.5393171872442e-06,4.7585977212063e-06,-0.00078108525469623,0.00077429724095908,-0.00077748813245399,0.00077770273624839,-0.00077829716233188,0.00077711196462374,-0.00077476641688166,0.0007805297203288,-0.00067746543585142,0.00068823867921096,-0.00068532302305701,0.00068094916273811,0.7291435704181,131688,2924,0.0028986534198354,0.0054276864722829,0.0028986781063519,36.738372753188,0.00020910698202551,0.00020910698202551,0.00020910698202551,5529470.6783449,0.011288473251817
7419200,0.83112937146787,0.013070122540886,0.0035890294727742,0.0058920393679982,0.0035890537001132,-0.00076375980280008,0.0007637267596868,4.5382681796539e-06,-4.5555595441745e-06,2.7313289437005e-07,-4.8827332367567e-07,-0.00086796303918328,0.00087159913471755,-0.00087108081011027,0.00086840934402774,-0.00086847871741468,0.00087109612325303,-0.00087140983100589,0.00086807590235719,-0.00073869500836306,0.00074707980288868,-0.00074663318205643,0.00073837425089297,3.6957680046757e-06,4.596359993282e-06,8.5609176701203e-06,-1.6846474943377e-07,-0.0015568166201213,0.0015650548864767,-0.0017407939762405,0.0017513664937079,-0.0017437006488308,0.0017485497710928,-0.0017402948457481,0.001751766346044,-0.0017433012976504,0.0017487475000415,-0.0013354581535059,0.001352826456225,-0.0013443244501815,0.0013443045086405,-0.0013418192312213,0.0013464177569157,-0.0013412953541536,0.0013473398391963,-4.9075116447135e-06,4.226090922318e-06,-0.00076407751695486,0.00076342736470639,-4.7313167634277e-06,3.9121740905732e-06,-0.00087309448692071,0.00086650645480147,-0.00087006291708598,0.00086938365345528,-0.00087000191188176,0.0008696504978242,-0.00086701091563865,0.00087252359741569,-0.00073686690040105,0.00074801849633219,-0.00074569508039037,0.0007397876429423,0.71234622080881,131688,2924,0.0031786841415722,0.0064822168185213,0.0031787224114039,40.760780698047,0.00024128624558437,0.00024128624558437,0.00024128624558437,5312237.4077427,0.012922753529316
8419200,0.90722989014843,0.014131814132237,0.0038463853600254,0.0064390136037101,0.0038464151685012,-0.00078870544134157,0.0007888768186164,4.6240798045026e-06,-4.4357476426948e-06,-1.2094659566096e-07,1.4426965169601e-07,-0.00091175255179781,0.00091523559164026,-0.00091486612136733,0.00091205360298025,-0.0009119387687759,0.00091507362292582,-0.00091485824350156,0.00091205855440534,-0.00075897794800606,0.00076786148923184,-0.00076691823701093,0.00075923367286294,3.8813695505236e-06,3.7520467658905e-06,8.5201862392195e-06,-7.7620192561989e-07,-0.0017100736718645,0.0017176561763961,-0.0019258783903188,0.0019363118782913,-0.001928978702749,0.001933319322643,-0.0019257018165505,0.0019363602010323,-0.001928910613035,0.0019331779754566,-0.0014512954109544,0.0014682352801544,-0.0014607057511172,0.0014591154257672,-0.0014573956368129,0.0014621834507999,-0.0014578580301738,0.0014620412359274,-4.853484228041e-06,4.2467765536087e-06,-0.00078908108727687,0.00078851661779756,-4.9615858310814e-06,4.2459256503371e-06,-0.00091685283503753,0.00091017040319728,-0.00091363962203621,0.00091324625949381,-0.00091377495447828,0.00091330594978551,-0.0009106039807801,0.0009163625035696,-0.00075728308639879,0.00076860985368373,-0.00076606753741697,0.00076042693485754,0.69848786959379,131688,2924,0.0032832335574117,0.007114899605258,0.0032832659717759,41.433084670058,0.00024666467736047,0.00024666467736047,0.00024666467736047,4807953.1173084,0.013775881496666
9419200,0.94937637494347,0.014709754844302,0.0039916703562875,0.0067263838587457,0.0039917006292688,-0.00079421161605455,0.00079428865635394,4.5993237661667e-06,-4.5056561322975e-06,7.3719653601318e-08,-1.4305258844459e-07,-0.00092936486043946,0.00093291988849148,-0.00093249001257901,0.00092972365781735,-0.00092969752572866,0.00093259636980228,-0.00093263254385926,0.0009295670866731,-0.00076179673659469,0.00077046573433516,-0.00076976286720109,0.00076177390708133,3.6379499418743e-06,3.9859338372253e-06,8.7495120867963e-06,-1.0087015301692e-06,-0.0017935218960047,0.0018010977483219,-0.0020278510520816,0.0020382717653074,-0.0020310973280534,0.0020351255417075,-0.002027522033927,0.0020384877815877,-0.0020308772845574,0.002035145401833,-0.0015124645477517,0.0015300186321183,-0.0015223296755081,0.0015204325855293,-0.0015191928771319,0.0015233263172775,-0.0015191725132924,0.0015236582226081,-4.8418155133386e-06,4.3038041272942e-06,-0.00079450856131154,0.00079400697428506,-5.1561660761775e-06,4.5127723471236e-06,-0.00093455334716254,0.00092776255507614,-0.00093118928338847,0.00093098910179833,-0.00093145663106815,0.0009309055189986,-0.00092813650361654,0.00093412061029433,-0.00075985991924754,0.00077147241122409,-0.00076868786036727,0.00076323583725656,0.67994985079151,131688,2924,0.0033062679333233,0.0074599004894454,0.0033062999930345,41.145479030227,0.00024436383224182,0.00024436383224182,0.00024436383224182,4342212.9593781,0.014172494664239
10419200,0.97046281435911,0.01500779126987,0.0040698638572084,0.0068680331895229,0.0040698942231388,-0.00079022651728598,0.00079009238026585,4.5179926757251e-06,-4.6362338189759e-06,6.0572644241691e-07,-9.1048203430094e-07,-0.00093085185024978,0.00093464129566406,-0.00093398749403506,0.00093142368467274,-0.00093159566278741,0.00093388749529839,-0.00093454995593791,0.00093084736080708,-0.00075688025652486,0.00076495426201556,-0.0007649151437747,0.0007562288639656,3.2556458505782e-06,4.8993866898242e-06,8.7398537625032e-06,-4.8867901656748e-07,-0.0018291622551719,0.001837255006128,-0.0020735269848852,0.0020838720898287,-0.0020766068595974,0.0020809090322401,-0.0020727890611974,0.0020845199831348,-0.0020759755285155,0.0020813512545717,-0.0015368226355871,0.001554809838702,-0.0015461697390487,0.0015457133419939,-0.0015440397142821,0.0015476020400003,-0.0015427563433856,0.0015492291594143,-4.8999315505784e-06,4.2941961352876e-06,-0.0007904510001139,0.00078988170699377,-4.9301862559033e-06,4.2157479859802e-06,-0.00093610078588582,0.00092940663497505,-0.000932918146596,0.00093245409941682,-0.000932986457489,0.00093255833223265,-0.00092984878422231,0.00093560243469323,-0.00075476498284958,0.00076617409440627,-0.00076364317686342,0.00075787786326761,0.69329668247982,131688,2924,0.0032894781076397,0.0076082766474167,0.0032895071132409,38.100583853093,0.00022000467082475,0.00022000467082475,0.00022000467082475,4009278.8687998,0.014288955465174
11419200,0.98263969364463,0.015177413226288,0.0041154104567771,0.006946561996241,0.00411544077327,-0.00078823464235137,0.0007880959235845,4.5569429112157e-06,-4.6796551881569e-06,6.0457980057881e-07,-9.1396353044872e-07,-0.00093454126038733,0.00093835491478967,-0.00093770516785548,0.00093510989414929,-0.00093528686964857,0.00093760019558562,-0.00093826772952726,0.00093453236967108,-0.00075400956301524,0.00076215644332897,-0.00076212028924574,0.00075334979830867,3.2492403864263e-06,4.8937344667967e-06,8.7419616569804e-06,-5.0532504121835e-07,-0.0018559023601229,0.001863980990713,-0.0021043652968277,0.0021147031721971,-0.0021074530847142,0.0021117324594974,-0.0021036280889647,0.0021153503229966,-0.0021068226294213,0.00211217684778,-0.0015579697500283,0.0015759540015548,-0.0015673278427827,0.0015668429496041,-0.0015651921660794,0.0015687346116676,-0.0015639078600681,0.0015703640907173,-4.9344996073135e-06,4.3418099461722e-06,-0.0007884506952398,0.00078789350798871,-4.9325323822234e-06,4.2323662822303e-06,-0.00093981618158247,0.00093309677677874,-0.00093662461964442,0.00093615255135894,-0.00093667345254076,0.00093627675432158,-0.00093352924552582,0.00093932624591394,-0.00075187873955678,0.00076338528270605,-0.00076083348378897,0.00075501262175869,0.67906583966731,131688,2924,0.0032813460962189,0.0077187027100814,0.0032813747462074,37.628197151476,0.00021622557721181,0.00021622557721181,0.00021622557721181,3738079.6590166,0.014384508165306
12419200,0.98962384745389,0.01527740633525,0.0041428314752644,0.0069917130952703,0.0041428617647155,-0.00078499758286073,0.00078488890527893,4.5350186122487e-06,-4.6347135705231e-06,5.8509258571487e-07,-8.474812852131e-07,-0.00093349056252788,0.00093727003528338,-0.00093662798820443,0.00093404087406504,-0.00093419629364371,0.00093654955264754,-0.00093716148054942,0.00093352689774231,-0.00075064444724091,0.0007587620830729,-0.0007586852324744,0.0007500565971208,3.3464477368294e-06,4.9029391402807e-06,8.8438003730674e-06,-5.1422480476806e-07,-0.0018682518068096,0.001876429967717,-0.0021201818210801,0.0021307047151647,-0.0021233039601265,0.0021277036419084,-0.0021194822587625,0.0021313115342526,-0.0021227134130128,0.0021280649753315,-0.0015663826465338,0.0015845336425729,-0.0015758340734624,0.0015752595469996,-0.0015736398272578,0.0015773391724448,-0.0015724149286101,0.0015788556518399,-4.8940772522994e-06,4.3146052847511e-06,-0.00078522254588461,0.00078467543995571,-4.9798433672588e-06,4.293509868175e-06,-0.00093873377416138,0.0009320153538493,-0.00093551845095477,0.00093511238095535,-0.00093561381088797,0.00093516517992973,-0.00093245226525353,0.00093827703734299,-0.00074852087171416,0.00076000095142871,-0.00075739000219773,0.0007516858175501,0.69355173696185,131688,2924,0.0032680425023584,0.0077699311442587,0.0032680667573632,36.804267166657,0.00020963413733326,0.00020963413733326,0.00020963413733326,3586550.801481,0.014409488619282
13419200,0.99352459009053,0.015331926913115,0.004157904006516,0.0070160886666541,0.004157934239945,-0.00078054820952469,0.00078042490614802,4.4620033640092e-06,-4.5711902815962e-06,5.4968462743716e-07,-8.3718029676919e-07,-0.00093156686197359,0.00093528218117581,-0.00093466433598358,0.00093210528803892,-0.00093226932135376,0.00093457200764107,-0.00093518253298794,0.00093157509355879,-0.00074569609545689,0.0007536953880955,-0.00075360414789358,0.00074509433433393,3.2961376358505e-06,4.8091303124422e-06,8.7895940649253e-06,-5.9068169426705e-07,-0.0018747003905021,0.0018827420159068,-0.0021275679823504,0.0021379555501362,-0.0021306965828091,0.0021349411511159,-0.002126873676148,0.0021385586942492,-0.0021301083359451,0.0021353373971335,-0.0015710965519054,0.0015891289639071,-0.0015805853982415,0.0015798824898143,-0.001578328129373,0.0015819186241792,-0.0015771636112582,0.0015834137508538,-4.834496006905e-06,4.2385945684631e-06,-0.00078077403605179,0.00078021328056139,-5.00028362858e-06,4.2976482684469e-06,-0.0009367818476314,0.00093008212653148,-0.0009335470024633,0.00093318291305393,-0.00093370638845461,0.00093319454293564,-0.00093051940471621,0.00093628986972246,-0.00074357276955828,0.00075491790026231,-0.00075232203450817,0.00074674457894858,0.67550368773508,131688,2924,0.0032495938660755,0.0077962570407259,0.0032496237181945,34.794598025408,0.00019355678420327,0.00019355678420327,0.00019355678420327,3421330.7316336,0.014398792195544
14419200,0.9957769321309,0.015363025358877,0.0041665686743001,0.0070298577808797,0.0041665989036976,-0.00077535398560306,0.0007752214215416,4.4336451955856e-06,-4.5502011992207e-06,5.8134345966303e-07,-8.8226858504142e-07,-0.00092623667078153,0.00092995185839622,-0.00092931635086051,0.000926791173058,-0.00092696323636715,0.00092921655507081,-0.00092986095159664,0.00092623607732205,-0.00074045371860233,0.00074837614562012,-0.00074831856074566,0.00073982287940155,3.2597736380978e-06,4.8485183935593e-06,8.7676216009333e-06,-5.6536410276537e-07,-0.0018737413904536,0.0018817862277996,-0.0021288123744637,0.0021391645480088,-0.0021319266829051,0.0021361652402189,-0.0021280940251499,0.0021397924104197,-0.0021313133293996,0.0021365870985073,-0.0015679254378123,0.0015859403961021,-0.0015773667751315,0.0015767442537219,-0.0015751699731707,0.0015787026695689,-0.0015739365384593,0.0015802770669903,-4.8137851288089e-06,4.2099588507621e-06,-0.00077557808453532,0.00077501079075803,-4.9802204201821e-06,4.2708023687164e-06,-0.00093143832472971,0.00092476520667349,-0.00092822005751316,0.00092785051838403,-0.00092837870883366,0.00092786072036297,-0.0009252093124193,0.00093094144776734,-0.00073832954868326,0.0007496051346508,-0.00074703580441988,0.00074148031337609,0.66543916124777,131688,2924,0.0032280221761986,0.0077923134570421,0.0032280504830064,32.643906427213,0.0001763512514177,0.0001763512514177,0.0001763512514177,3339218.7091572,0.014351021162678
15419200,0.99694981792853,0.015380153315434,0.0041714138337162,0.0070372954228231,0.0041714440588943,-0.00076603400611956,0.00076587542884688,4.3380386139993e-06,-4.4765929470654e-06,6.3771485073913e-07,-9.7310515114114e-07,-0.00091634478257781,0.00092002674879528,-0.00091936473866939,0.00091692074724072,-0.00091711682155016,0.00091924075266844,-0.0009199546899026,0.00091631168305285,-0.0007310895021895,0.00073877500445171,-0.00073878810809749,0.00073037921057064,3.1960669037994e-06,4.9322075112266e-06,8.6991496414383e-06,-4.7938351110931e-07,-0.0018636711944267,0.0018717314656704,-0.0021195402140557,0.0021298052194632,-0.0021226094040435,0.0021268562444524,-0.002118778705704,0.0021304820691579,-0.0021219500512312,0.0021273403186683,-0.0015573083410867,0.0015752310305099,-0.0015666032683361,0.0015662254041984,-0.0015645347154569,0.0015679916790758,-0.0015631681060682,0.0015697200436346,-4.7352659862599e-06,4.119770398453e-06,-0.00076625254511719,0.00076567032326588,-4.9156760046033e-06,4.1831232604035e-06,-0.00092148227208129,0.00091490040482458,-0.00091831541027767,0.00091794249325745,-0.00091847821292564,0.00091794443535459,-0.00091536095491101,0.00092096871125183,-0.00072896278697264,0.00074000605645396,-0.00073750588641672,0.00073205322872245,0.70138893950411,131688,2924,0.003189251914992,0.0077507306781136,0.003189280099567,27.069722678281,0.00013175778142625,0.00013175778142625,0.00013175778142625,3229828.2683381,0.014230188216983
16419200,0.9977027695616,0.015390775247655,0.0041744297988314,0.0070418854274255,0.0041744600213978,-0.00076170299671863,0.00076153708360948,4.2538507723497e-06,-4.408418499534e-06,6.4326971405323e-07,-9.7882896055423e-07,-0.00091438416625522,0.00091801149047265,-0.00091734682449336,0.00091495391518964,-0.00091515697200473,0.00091722378765089,-0.00091795364378545,0.00091434882476865,-0.00072622431648359,0.00073373287054381,-0.00073375966109662,0.00072549874075898,3.1908354609744e-06,4.9385821788566e-06,8.6896203398713e-06,-4.7197161605172e-07,-0.0018640004826619,0.0018720620038049,-0.0021180635987677,0.0021283211100742,-0.0021211238361845,0.0021253768608988,-0.002117299653086,0.0021289999410317,-0.0021204550806989,0.0021258686728025,-0.0015589083533312,0.0015768200208233,-0.001568186498829,0.0015677986974384,-0.0015661468305866,0.0015695944921543,-0.0015647456671444,0.0015713396966003,-4.6558174447712e-06,4.0474128738701e-06,-0.0007619159658672,0.00076133148814029,-4.9100575810498e-06,4.1726190459166e-06,-0.00091944812480117,0.00091292820304637,-0.00091630827730467,0.00091596378404533,-0.00091649347722733,0.00091591821125881,-0.00091340343860522,0.00091894147041032,-0.00072408981544863,0.00073497219147157,-0.00073246973425372,0.00072717241935636,0.67697638756119,131688,2924,0.0031712744379772,0.0077520325017687,0.0031712900043793,24.418335321134,0.00011054668256907,0.00011054668256907,0.00011054668256907,3089247.7200226,0.01419505613962
17419200,0.99820842349996,0.015398110829026,0.0041765318230181,0.0070450169737999,0.0041765620322082,-0.00075636276912128,0.00075618933523599,4.2303713061808e-06,-4.3818372894393e-06,6.7539217807779e-07,-1.0283880571839e-06,-0.00090815449027538,0.00091178423137927,-0.00091110651351727,0.00090874374541077,-0.0009089543273053,0.00091096594299848,-0.00091172113225406,0.00090810187626231,-0.00072117555525585,0.00072861793706294,-0.00072867766023395,0.00072041581835276,3.1375863017757e-06,4.9674081820038e-06,8.6386957255955e-06,-4.4621969886688e-07,-0.00185809594481,0.0018661297460769,-0.0021133388322939,0.0021235136143213,-0.00211638029507,0.0021205979936204,-0.0021125498569679,0.0021242238172791,-0.0021156949784229,0.0021211164268178,-0.0015521667215273,0.0015700005218414,-0.0015613757361359,0.001561106267002,-0.0015593912004824,0.0015627641876895,-0.0015579375964238,0.0015645862677345,-4.643007308757e-06,4.0098690627244e-06,-0.00075658342592725,0.00075598326310011,-4.8813945694155e-06,4.1252395031064e-06,-0.00091322516274082,0.00090672311955151,-0.00091008774595836,0.00090973996272951,-0.00091028991449049,0.0009097027280427,-0.00090719854117791,0.00091269449029384,-0.00071904892656571,0.00072984572334749,-0.00072739797616421,0.00072209144553755,0.69394003830059,131688,2924,0.0031490685957255,0.0077275891052148,0.0031490991759522,21.980202011766,9.104161609413e-05,9.104161609413e-05,9.104161609413e-05,3047745.7021596,0.014125225953659
18419200,0.99852255989411,0.015402595477507,0.0041778203064375,0.0070469246553754,0.0041778505156936,-0.00074930169601501,0.0007491249821137,4.1683705502711e-06,-4.3297481248099e-06,7.070340022171e-07,-1.0584109677885e-06,-0.0009017920993885,0.00090540323944153,-0.00090470975169778,0.00090240397863708,-0.0009026170473913,0.00090456744176983,-0.0009053531518911,0.00090174979446067,-0.00071384262910737,0.0007211419444451,-0.00072122842010441,0.00071306534144884,3.1663668308641e-06,5.0554266267013e-06,8.6446553236621e-06,-3.3194251101889e-07,-0.0018509052023333,0.0018590605639592,-0.0021051414665286,0.0021153886558525,-0.0021081414906819,0.0021125095751084,-0.0021043270123197,0.0021161167423532,-0.0021074320311702,0.0021130309564238,-0.0015459111560754,0.0015637880773215,-0.0015550112697911,0.0015549439932238,-0.0015531145445331,0.0015565839096206,-0.0015515917100409,0.0015584554381836,-4.5984275758143e-06,3.9394533715147e-06,-0.00074953174233636,0.00074890835041246,-4.8349163561063e-06,4.0616866596427e-06,-0.00090682822902702,0.00090038172908118,-0.00090372782140274,0.00090334841480036,-0.00090392894496552,0.00090331393548554,-0.00090088040697024,0.00090627743730334,-0.00071173709176617,0.0007223630737507,-0.0007199623289623,0.00071471391883405,0.68267067340179,131688,2924,0.0031197315929511,0.0076980904482455,0.0031197597551691,17.477991088753,5.5023928710021e-05,5.5023928710021e-05,5.5023928710021e-05,2933559.0308407,0.014035817458786
19419200,0.99878267092412,0.015406534085667,0.0041789663789711,0.0070485711190953,0.004178996587601,-0.00074778572694812,0.00074761287745469,4.1617827349243e-06,-4.3183209426343e-06,6.9312243898145e-07,-1.0403820334786e-06,-0.00090014401335408,0.00090374116960262,-0.00090305418787457,0.00090074716540569,-0.00090095664488588,0.00090291607625168,-0.00090368657930039,0.00090010247908445,-0.00071245005947073,0.00071975025486218,-0.00071982285397057,0.00071168923861464,3.1722620041542e-06,5.0301968232472e-06,8.6388368387669e-06,-3.4612332823787e-07,-0.0018513675028878,0.0018595030666764,-0.0021065887563384,0.0021168286241191,-0.0021095925299201,0.0021139463806341,-0.0021057857683864,0.0021175468594143,-0.0021088943185039,0.002114460061,-0.0015453867974748,0.0015632413378109,-0.001554493491835,0.0015543927880962,-0.0015525794324074,0.0015560553174234,-0.0015510857528013,0.0015579006332102,-4.58697478093e-06,3.9331370474005e-06,-0.00074801506755548,0.00074739682999823,-4.8369075743264e-06,4.0689591592147e-06,-0.00090516786474067,0.00089872891445596,-0.00090206563329761,0.00090170050612197,-0.00090227573594507,0.00090165613649557,-0.00089922175752914,0.00090462244583105,-0.00071034469013641,0.00072096170307632,-0.00071855914850648,0.00071333016445764,0.72158242947204,131688,2924,0.0031134519451489,0.0076999683088719,0.0031134798730258,17.551568050536,5.5612544404289e-05,5.5612544404289e-05,5.5612544404289e-05,2908708.6627926,0.014024981396551
20419200,0.99900903949004,0.015409999007066,0.0041799770642231,0.0070500146708615,0.0041800072719814,-0.00074875362020105,0.00074859367829842,4.1474451430184e-06,-4.2912437047677e-06,6.4131551887619e-07,-9.7334212930835e-07,-0.00090365023406309,0.00090720750395916,-0.00090654659900296,0.00090422743136898,-0.00090442531908142,0.00090642200337766,-0.00090714172382254,0.00090362201121573,-0.00071305299030119,0.00072036523801939,-0.00072038525102013,0.00071234408467299,3.2033296641804e-06,4.9429295091179e-06,8.6469819366651e-06,-4.086908234085e-07,-0.001858310067992,0.0018663915145072,-0.0021117574159323,0.002122005370208,-0.0021147837062205,0.0021190998930707,-0.0021109920494268,0.0021226843301168,-0.0021141233284006,0.0021195740908783,-0.0015534695244681,0.0015713010530063,-0.0015626459804535,0.0015623806961178,-0.0015606325274665,0.0015641461661977,-0.0015592538100163,0.0015658727296486,-4.5631296525903e-06,3.9154821037336e-06,-0.0007489863788689,0.000748374125144,-4.868489991795e-06,4.1076951877418e-06,-0.00090865622283283,0.00090221387642492,-0.00090553078140748,0.00090520855944984,-0.00090577826483506,0.00090512717937425,-0.00090270097069814,0.00090811709272424,-0.00071095876252284,0.00072156531646469,-0.00071913236869315,0.00071397363831886,0.7291048058105,131688,2924,0.0031175313225059,0.0077284938546824,0.0031175590725811,18.597312354036,6.3978498832292e-05,6.3978498832292e-05,6.3978498832292e-05,2834353.9331047,0.01406220837658
21419200,0.99916304208079,0.015412294317221,0.0041806457752698,0.0070509725594852,0.0041806759824656,-0.00074280756513007,0.00074263887635481,4.1005599991291e-06,-4.2508660324788e-06,6.5816780552656e-07,-1.0034088027282e-06,-0.00089787876693273,0.00090141385170309,-0.00090074358147458,0.00089846234935687,-0.00089866801908476,0.00090061253211629,-0.0009013539052575,0.00089783720007746,-0.00070724043327978,0.00071444709862383,-0.00071448714711166,0.00070650215304405,3.1812678491857e-06,4.9683778074358e-06,8.6067469720131e-06,-3.6539280159386e-07,-0.0018516619499168,0.0018597448727242,-0.002104837514458,0.002115040827036,-0.0021078393899559,0.0021121617704704,-0.0021040594422343,0.0021157349977271,-0.0021071635187558,0.0021126629606519,-0.0015471607704496,0.0015649226029951,-0.0015562583347545,0.0015561133244886,-0.0015542909189169,0.0015577866581221,-0.0015528703092586,0.0015595671203399,-4.5221127774023e-06,3.8693408324201e-06,-0.00074303974594078,0.00074241941422647,-4.83436928572e-06,4.0595980313711e-06,-0.00090284797530881,0.0008964539275811,-0.0008997515039503,0.00089942539847598,-0.00089999849947461,0.00089934113931516,-0.00089695042900452,0.00090229936186263,-0.00070515306730579,0.00071564048260669,-0.00071324363184606,0.00070813698958928,0.70951084596029,131688,2924,0.0030928109381409,0.0077010040280317,0.0030928376346535,15.225615260312,3.7004922082496e-05,3.7004922082496e-05,3.7004922082496e-05,2756542.6075762,0.013984195429321
22419200,0.99929052644389,0.015414214763726,0.0041812084694076,0.0070517676184596,0.0041812386758585,-0.00074071869524733,0.00074055387111208,4.0935388391589e-06,-4.2419761594866e-06,6.6090537724585e-07,-9.9879033749383e-07,-0.00089526159643224,0.00089879421082755,-0.00089812332797731,0.00089584825087961,-0.00089605072783963,0.00089799374418706,-0.00089873264858424,0.0008952282505874,-0.00070539401032525,0.0007125855549937,-0.00071262534939209,0.0007046658109854,3.1914277556818e-06,4.975875326655e-06,8.6060650596263e-06,-3.4752666560194e-07,-0.001850121317978,0.0018582229204239,-0.0021044309483634,0.0021146510986613,-0.0021074248664108,0.0021117793651254,-0.0021036515834521,0.0021153446773035,-0.002106749932564,0.0021122686770818,-0.0015446253704702,0.0015623901875856,-0.0015537017764336,0.0015535742888765,-0.0015517500339678,0.0015552734901053,-0.0015503275424488,0.0015570459755666,-4.5174559880025e-06,3.8580234683023e-06,-0.00074095490120318,0.00074033088942196,-4.8247441572836e-06,4.050162769215e-06,-0.00090022677154486,0.00089384078905102,-0.00089713492661201,0.0008968024233515,-0.00089738278511994,0.0008967199716263,-0.00089433945583727,0.00089967626944132,-0.000703313355138,0.00071377301470143,-0.00071138604595075,0.0007062830394726,0.71604798217457,131688,2924,0.0030841441797414,0.0076946890026758,0.0030841719626403,14.858990533535,3.4071924268278e-05,3.4071924268278e-05,3.4071924268278e-05,2740706.3205534,0.013960207307836
23419200,0.99940373424666,0.015415891334467,0.0041816998095463,0.0070524615093101,0.0041817300156101,-0.00074087216020386,0.00074071076407039,4.086864263478e-06,-4.2348091990998e-06,6.4947497777374e-07,-9.8030078654515e-07,-0.00089621272608499,0.00089973390627491,-0.00089907020881193,0.00089679191057428,-0.00089699148353263,0.00089894371890009,-0.00089966986608743,0.0008961855638758,-0.00070553763485244,0.00071272244361912,-0.00071275059450265,0.0007048218567275,3.2021064233888e-06,4.9565786266477e-06,8.6281849223015e-06,-3.7932175976439e-07,-0.0018533927664556,0.0018614858512326,-0.0021076618205681,0.0021179015736138,-0.0021106713927662,0.0021150131102,-0.0021068915245499,0.0021185852647137,-0.0021100064050718,0.0021154872786594,-0.0015477013276706,0.001565502698022,-0.0015568300747952,0.0015566175560898,-0.0015548493126556,0.0015583754340569,-0.001553449788586,0.0015601157198099,-4.5048654305958e-06,3.8566719010301e-06,-0.00074110527725771,0.00074049106784399,-4.8457045135673e-06,4.0827444189866e-06,-0.00090117177391322,0.00089478285973241,-0.00089806452833189,0.00089776147648199,-0.00089833280509881,0.00089765578219352,-0.00089527390865639,0.00090063266879459,-0.00070344711440455,0.00071391980938488,-0.00071150101607513,0.00070644280385408,0.70404422431002,131688,2924,0.0030848060673235,0.0077081777505752,0.003084834282985,15.705719502773,4.0845756022186e-05,4.0845756022186e-05,4.0845756022186e-05,2710615.4856194,0.013975233836062
24419200,0.99951060160581,0.015417501314273,0.0041821731001164,0.0070531249083152,0.0041822033058415,-0.00074250790990323,0.00074235147951568,4.1012388155423e-06,-4.2410331434052e-06,6.3437770814134e-07,-9.6241734249271e-07,-0.0008979844252805,0.0009015067002781,-0.00090084903751692,0.00089855837761809,-0.00089875322337409,0.00090072680735824,-0.00090143663014826,0.00089795794559367,-0.00070732721205981,0.00071455466595166,-0.00071456593523665,0.00070662742241094,3.2125580027032e-06,4.9347197723895e-06,8.6489579337687e-06,-4.0987609983389e-07,-0.0018582237288818,0.0018663056685406,-0.0021135143457358,0.0021237685593453,-0.0021165419748584,0.0021208616623477,-0.0021127549428895,0.0021244420615142,-0.0021158879442154,0.0021213318518018,-0.0015513750381041,0.0015692040139933,-0.0015605539481681,0.0015602842039523,-0.0015585304088672,0.0015620611459255,-0.0015571688755208,0.0015637717639913,-4.5138026031848e-06,3.8684697959226e-06,-0.00074274142926042,0.00074213158961617,-4.869061161637e-06,4.1108084599548e-06,-0.0009029568143111,0.00089654660283895,-0.0008998296991628,0.00089954350370052,-0.00090011125408885,0.00089942852104017,-0.00089703077186981,0.0009024187466046,-0.00070523404832396,0.00071574888126001,-0.00071331503646582,0.00070825226395433,0.7154940479516,131688,2924,0.0030916288998894,0.0077281284281751,0.0030916575453574,17.881578703146,5.8252629625171e-05,5.8252629625171e-05,5.8252629625171e-05,2716252.3886628,0.014009298749707
25419200,0.99960803328923,0.015419042686296,0.0041826282198034,0.0070537560412666,0.0041826584252255,-0.00074445905891609,0.00074431156909265,4.1066620916553e-06,-4.2397067059719e-06,6.0261276586329e-07,-9.1797793839409e-07,-0.00090112589152173,0.00090463263017685,-0.00090399212240219,0.00090168341410058,-0.00090186970983702,0.00090387871939379,-0.00090455587039408,0.0009011105037123,-0.00070922703723954,0.00071648868012899,-0.00071646733827212,0.00070856104878715,3.2313835637328e-06,4.8770587950602e-06,8.6552929009297e-06,-4.5434122550319e-07,-0.0018645471718927,0.0018725919908385,-0.0021196440969905,0.0021299042745123,-0.0021226864146902,0.0021269811544337,-0.0021189083697116,0.0021305519443034,-0.0021220560806872,0.0021274219294075,-0.001557553547758,0.001575371482773,-0.0015667798396381,0.0015663865349344,-0.0015646958528354,0.0015682454354297,-0.0015634030202257,0.0015698767613168,-4.5122103785766e-06,3.8740419091349e-06,-0.00074469350255177,0.00074409063764963,-4.8893472006159e-06,4.1408766315094e-06,-0.00090609506145246,0.00089967429263231,-0.00090295303367185,0.00090268652806817,-0.00090324841373065,0.00090255630538086,-0.00090015345899985,0.00090556485522998,-0.00070713997683619,0.00071768148690847,-0.0007152203292482,0.00071017971557201,0.75065157257205,131688,2924,0.0030997769823919,0.0077541655229281,0.0030998053930035,19.926560985447,7.4612487883573e-05,7.4612487883573e-05,7.4612487883573e-05,2695339.6916691,0.014052237002362
26419200,0.9996879195199,0.015420334493625,0.0041830101537899,0.0070542839808391,0.0041830403589955,-0.00074449907734457,0.00074435820368725,4.0810451267425e-06,-4.2115746874487e-06,5.6890629949793e-07,-8.7319081442817e-07,-0.0009029238212854,0.0009063929728557,-0.00090577026069121,0.00090346189149986,-0.0009036413526601,0.00090566620862386,-0.00090631310040275,0.0009029176197602,-0.00070916128920316,0.0007163956431354,-0.00071634254209563,0.00070852483649278,3.2503342823403e-06,4.8170070378717e-06,8.6540513372173e-06,-4.9340325717879e-07,-0.0018683262171702,0.0018763314899586,-0.0021222732017809,0.002132532756591,-0.0021253255128829,0.0021295970576,-0.0021215627592285,0.0021331529904359,-0.0021247177004598,0.0021300104814118,-0.0015620521839406,0.0015798427098512,-0.0015713125629059,0.0015708030679503,-0.0015691720113651,0.0015727417004287,-0.001567944073352,0.0015742924412219,-4.4803300627033e-06,3.8522586984446e-06,-0.00074473252277493,0.00074413680415036,-4.9037816630595e-06,4.1641471798245e-06,-0.00090786305562535,0.00090145708518948,-0.00090471508075963,0.0009044800371851,-0.00090503412063913,0.0009043198108466,-0.00090193385488469,0.00090734201492243,-0.00070708188259905,0.00071758971271172,-0.00071510133614908,0.00071014019732814,0.76692112585528,131688,2924,0.0030999803580678,0.0077696599336787,0.0031000057106239,20.393280622158,7.8346244977262e-05,7.8346244977262e-05,7.8346244977262e-05,2638200.454819,0.014068377026731
27419200,0.99975758210563,0.015421418432954,0.0041833299559175,0.007054728316443,0.0041833601605934,-0.00074572783713694,0.00074558874935908,4.0840588292711e-06,-4.20699497373e-06,5.5394336937745e-07,-8.6136278093916e-07,-0.00090542951835225,0.00090889200693516,-0.0009082768806173,0.00090596132031738,-0.00090614052593133,0.00090817303181616,-0.00090880802487352,0.00090542243966737,-0.00071068418178796,0.00071793888737749,-0.00071787219684104,0.00071006273313904,3.2619886157889e-06,4.8028816596778e-06,8.6616452221926e-06,-5.0241610133052e-07,-0.0018734729296953,0.0018814754596532,-0.0021271472017884,0.0021374174435966,-0.0021302080108924,0.0021344755123866,-0.0021264453386457,0.0021380299331157,-0.0021296108902972,0.0021348834260126,-0.0015672009278614,0.0015849937344431,-0.0015764815396568,0.0015759654995693,-0.0015743058390902,0.0015778982948163,-0.0015731197202821,0.0015794264686971,-4.4843471967463e-06,3.8465834143923e-06,-0.00074596605001622,0.00074536366633108,-4.9167084006665e-06,4.1679198489782e-06,-0.00091037733857799,0.00090395729854065,-0.00090721620824628,0.00090698838891457,-0.00090754862250032,0.00090682164281369,-0.0009044358795123,0.0009098478980103,-0.00070861098552313,0.00071911865385955,-0.0007166395752527,0.00071167155524747,0.73788855872311,131688,2924,0.0031051121083867,0.0077908960794494,0.0031051397088922,22.249487837461,9.3195902699688e-05,9.3195902699688e-05,9.3195902699688e-05,2613690.0989857,0.014100328866247
28419200,0.99981484255367,0.015422355792366,0.0041836080381606,0.0070551095115976,0.004183638242608,-0.00074594219484299,0.00074580588452136,4.0943349684587e-06,-4.2148106944503e-06,5.6537085468041e-07,-8.6744391391376e-07,-0.0009051351190023,0.0009086096462053,-0.00090799047986035,0.000905673316517,-0.00090585109406011,0.00090788552747054,-0.00090852300344886,0.00090513445643006,-0.00071123792225756,0.00071850716923629,-0.00071845062079077,0.00071061834850435,3.2848094467116e-06,4.8436683864751e-06,8.6985236673249e-06,-4.7723979225542e-07,-0.0018748705904649,0.0018829353610655,-0.0021297869462509,0.0021401208844549,-0.0021328511682521,0.002137178898738,-0.0021290782863587,0.002140738571989,-0.0021322534065846,0.002137574776683,-0.0015674897722247,0.0015853639967994,-0.0015767818990428,0.0015763161310577,-0.0015746191489449,0.0015782557444077,-0.0015734168290872,0.001579789743009,-4.4969705083167e-06,3.8514135319848e-06,-0.00074618475175912,0.00074557870013257,-4.9235606305622e-06,4.1726648298013e-06,-0.00091009879266456,0.00090366486496196,-0.00090692860227991,0.00090670003757947,-0.0009072657677583,0.00090653331912432,-0.00090414436816311,0.00090956979688863,-0.00070916623671033,0.00071969313889247,-0.00071721260980374,0.00071221993781771,0.77520834847692,131688,2924,0.0031060142267201,0.0077968172652466,0.0031060465191777,23.439579031657,0.00010271663225326,0.00010271663225326,0.00010271663225326,2626589.0072374,0.01410815594497
29419200,0.99986137085323,0.015423030981626,0.0041838062710984,0.007055388234778,0.0041838364757499,-0.00074728789527441,0.0007471508026125,4.0894540142247e-06,-4.2109331209862e-06,5.4462668004282e-07,-8.4881198167702e-07,-0.00090830504702341,0.00091176539478837,-0.00091115598923854,0.00090883185145093,-0.00090900916865474,0.00091105359417632,-0.00091167959704416,0.00090829957850616,-0.00071239843642123,0.00071966967839873,-0.00071959468997211,0.00071178474378782,3.2691001719206e-06,4.7881745715583e-06,8.6790976909946e-06,-5.2718106244175e-07,-0.0018806212408735,0.0018886165646815,-0.0021345543550079,0.0021448377221995,-0.0021376282138934,0.0021418820190543,-0.0021338592383437,0.0021454434987861,-0.0021370383928892,0.00214228317381,-0.0015736763531886,0.0015914978112609,-0.0015829985853513,0.0015824230975791,-0.0015807960575314,0.0015843888807138,-0.0015796301227156,0.0015858945034586,-4.4866692697373e-06,3.8535743967895e-06,-0.00074752492818126,0.00074692721687306,-4.9348295809551e-06,4.1919224422054e-06,-0.00091325837887752,0.00090682566248691,-0.00091008337220051,0.00090987036121433,-0.00091042691085749,0.0009096929799793,-0.00090729940910658,0.00091273263200211,-0.00071032004515023,0.0007208546330805,-0.00071835658383377,0.00071339826808567,0.68889126615762,131688,2924,0.0031116319850737,0.007820399101277,0.0031116602545055,24.778337395782,0.00011342669916626,0.00011342669916626,0.00011342669916626,2580932.9096588,0.014143482110784
30419200,0.99989838450169,0.015423558844798,0.0041839611731617,0.0070556062939132,0.0041839913777234,-0.0007474036798768,0.00074726455761472,4.1121032451069e-06,-4.2349580099929e-06,5.7923497205689e-07,-8.8676832843417e-07,-0.00090520737506183,0.00090870400095549,-0.00090807343201259,0.00090575485059468,-0.00090593376859777,0.0009079683258433,-0.00090861983125271,0.00090519955539172,-0.00071292714021482,0.00072021961717913,-0.0007201704145391,0.00071228939998082,3.2482788920653e-06,4.8390984114562e-06,8.6892833410244e-06,-5.0834971843521e-07,-0.0018790177209417,0.0018870415558109,-0.0021370667541467,0.0021473526439345,-0.0021401379809649,0.0021443991117579,-0.0021363485748822,0.0021479814588303,-0.0021395245631873,0.0021448232132551,-0.0015684696821181,0.0015863334804203,-0.0015777812092446,0.001577270220508,-0.0015756286212348,0.0015791827396566,-0.0015743931174492,0.0015807600627561,-4.5072836881457e-06,3.8796585743896e-06,-0.00074763675122617,0.00074704470440036,-4.9274213105076e-06,4.1905633687719e-06,-0.00091018193333916,0.00090374182365629,-0.00090701045165908,0.00090678414940604,-0.00090733457233219,0.00090662479722015,-0.00090421127824872,0.00090966192803113,-0.00071083513560906,0.00072141822837829,-0.00071891898715951,0.00071391663611473,0.67663456807766,131688,2924,0.0031120981025341,0.0078139237438506,0.0031121258909452,26.129009144291,0.00012423207315433,0.00012423207315433,0.00012423207315433,2662536.00777,0.014137822153716
31419200,0.99992834757527,0.015424017631203,0.0041840967053786,0.0070557940159958,0.0041841269098286,-0.000749729623677,0.00074959470072889,4.1323316177649e-06,-4.2510657412677e-06,5.6834313319192e-07,-8.7088406809683e-07,-0.00090754241800834,0.00091104623028692,-0.00091042060448476,0.00090808501012465,-0.00090826006602095,0.00091031948331349,-0.00091095820058828,0.0009075384771576,-0.00071528984309012,0.00072263090946891,-0.00072256896642048,0.00071466499957278,3.2553270397197e-06,4.8192502586158e-06,8.6909284455443e-06,-5.2254807677298e-07,-0.0018841917135864,0.0018922029732831,-0.0021431773973671,0.0021534646606555,-0.0021462536798759,0.0021505058580334,-0.0021424676778198,0.0021540845262058,-0.0021456489632432,0.0021509211099634,-0.0015725435700983,0.0015904017452224,-0.001581870537374,0.0015813220202524,-0.0015796957553707,0.0015832586167441,-0.0015784861453496,0.0015848084525922,-4.5240228927477e-06,3.8992783085325e-06,-0.0007499633599086,0.00074937420397118,-4.9336002168604e-06,4.2001466917829e-06,-0.00091252790159409,0.00090607319684544,-0.00090935133879372,0.00090912073886006,-0.00090966861618647,0.00090896830021254,-0.00090653989852021,0.00091201055451066,-0.00071319998632261,0.00072382677449863,-0.0007213195866813,0.00071628925891585,0.72615477792254,131688,2924,0.0031217854146546,0.0078352903687255,0.0031218132503345,28.436007460712,0.00014268805968569,0.00014268805968569,0.00014268805968569,2678830.7774729,0.014179140461878
32419200,0.99995024080806,0.015424369612681,0.0041842009744624,0.0070559374593962,0.004184231178822,-0.00075102329500696,0.00075089303354515,4.1196560786488e-06,-4.2347409192533e-06,5.3145606155698e-07,-8.2710962176885e-07,-0.00091167312715839,0.00091514632822129,-0.0009145426803615,0.00091219532421411,-0.00091236594934089,0.00091444584437494,-0.00091505360567286,0.00091167318838075,-0.00071610916014407,0.00072344999304014,-0.00072335677220228,0.00071551114299763,3.2806775894879e-06,4.7648302556413e-06,8.6912717161968e-06,-5.5003719029884e-07,-0.0018904909270511,0.0018984751709609,-0.0021470564085405,0.0021573498758729,-0.0021501408887039,0.0021543830748872,-0.0021463715692829,0.0021579447984601,-0.0021495619679824,0.0021547740752784,-0.0015806849726788,0.0015985208949548,-0.0015900423312147,0.0015894073372804,-0.0015878057991877,0.0015914105362168,-0.0015866731061061,0.0015928802402483,-4.5097031351805e-06,3.8844910358333e-06,-0.00075126018641896,0.00075067020067469,-4.9477471932727e-06,4.2139313967381e-06,-0.00091664446693831,0.00091018951175918,-0.00091345808573684,0.00091324534484658,-0.00091379576812261,0.00091307501799051,-0.0009106555154744,0.00091612423456709,-0.00071403004189607,0.00072463591311876,-0.00072211840028472,0.00071712701050922,0.76213985038991,131688,2924,0.0031271969689934,0.0078611976947925,0.0031272265186089,29.29448690667,0.00014955589525336,0.00014955589525336,0.00014955589525336,2607046.2724572,0.014216427650766
33419200,0.99996545895245,0.015424617155715,0.0041842744092401,0.0070560381328894,0.0041843046135852,-0.00075031484900654,0.00075016198109136,4.0997265751733e-06,-4.2362570483889e-06,6.0134508303141e-07,-9.2460455226207e-07,-0.00091251999954878,0.00091602038866182,-0.00091538197712281,0.00091307446177692,-0.00091326649926181,0.00091526460031945,-0.00091594885190348,0.00091249915301689,-0.00071549673690254,0.00072274503610707,-0.00072272881044656,0.00071482503802772,3.2231956163739e-06,4.8742553951496e-06,8.6082309613179e-06,-4.1803886369928e-07,-0.0018924009552536,0.0019004346129432,-0.0021478531339399,0.0021580730984009,-0.0021508699225461,0.0021551774300044,-0.0021471162903998,0.0021587223942413,-0.0021502377960987,0.0021556220416296,-0.0015835807578526,0.0016013058782261,-0.0015927281860593,0.0015924150038267,-0.0015906674991422,0.0015942290336033,-0.001589374421125,0.0015958680046056,-4.5153779820992e-06,3.8604965918317e-06,-0.0007505547814447,0.00074993519436667,-4.8584298316279e-06,4.0899025111376e-06,-0.00091747954295687,0.00091107334094422,-0.00091436363630062,0.00091405935221452,-0.00091463560265044,0.00091395233764021,-0.00091156825744987,0.00091693357426324,-0.00071342979159498,0.00072391886438628,-0.00072150261464121,0.00071642811686875,0.7702815986228,131688,2924,0.0031242238433291,0.0078691504760175,0.0031242514731718,29.317262035562,0.00014973809628449,0.00014973809628449,0.00014973809628449,2553229.6310146,0.014218474265689
34419200,0.99997697454666,0.01542479755564,0.0041843278451905,0.0070561116609551,0.0041843580494947,-0.00075206031335029,0.00075190981001723,4.1031586155044e-06,-4.2483544698447e-06,5.8758406625834e-07,-8.9634095853946e-07,-0.00091513574592905,0.00091862829233048,-0.0009180021325325,0.00091567868969681,-0.00091586869273636,0.00091788867005332,-0.00091856417937343,0.00091513347314682,-0.00071755352482936,0.00072481599580981,-0.00072479890274395,0.00071690588909988,3.2853294051086e-06,4.8935128745054e-06,8.6685271730352e-06,-3.961204348926e-07,-0.0018974876893659,0.0019056053212297,-0.0021530864598839,0.002163425035965,-0.0021561075573869,0.0021605219829566,-0.0021523555989901,0.002164055549406,-0.0021554879222582,0.0021609190555158,-0.0015883740898679,0.0016062214498604,-0.0015975536416577,0.0015972181563666,-0.0015954786235309,0.0015991508752291,-0.0015942073785498,0.0016007223017851,-4.5208465658865e-06,3.8701988823355e-06,-0.00075229737722869,0.00075168349458651,-4.8692912967987e-06,4.1156901169089e-06,-0.00092008944784964,0.00091367750053036,-0.00091696964088238,0.00091666656384846,-0.00091724138315921,0.00091655282494232,-0.00091417341216155,0.00091956049675647,-0.00071549307209062,0.00072601316962071,-0.00072356219406714,0.00071849276480021,0.74169710815792,131688,2924,0.0031315006373207,0.0078903266357427,0.0031315232952917,31.480106692884,0.00016704085354307,0.00016704085354307,0.00016704085354307,2545326.491533,0.014254709881796
35419200,0.99998600575523,0.015424934162382,0.0041843682094684,0.0070561675392359,0.0041843984136782,-0.00075692611888196,0.00075678340331024,4.138569040084e-06,-4.2766106064151e-06,5.9417110490578e-07,-8.8997524737163e-07,-0.00092001844741749,0.0009235397943945,-0.00092291310340522,0.00092057033372373,-0.00092075641173065,0.00092279991006718,-0.00092346994216428,0.00092003228143521,-0.00072275822666799,0.0007300866448297,-0.00073007194473981,0.00072212953344916,3.4259497549603e-06,5.0376325553804e-06,8.8414799386043e-06,-2.7735093706953e-07,-0.001906301948598,0.0019147071158645,-0.0021632979870327,0.0021739391132614,-0.0021663308188016,0.0021710263517231,-0.0021625576218955,0.0021745742650205,-0.0021657153712213,0.0021713958531214,-0.0015956845759691,0.0016139002359451,-0.0016049213964063,0.001604798691507,-0.0016028414509903,0.0016067932780239,-0.0016015751547429,0.00160833987083,-4.5603420722498e-06,3.8933802018461e-06,-0.00075717297932883,0.00075655152721038,-4.8955475184604e-06,4.1414721816202e-06,-0.00092501795232365,0.00091856042812709,-0.00092187075595163,0.00092155917286479,-0.00092215270882461,0.00092145137770975,-0.00091905483249958,0.00092448516890576,-0.00072069762194023,0.00073129093761181,-0.00072883055091519,0.00072369587281973,0.71641844428978,131688,2924,0.0031517507106894,0.0079273582016623,0.0031517822459126,35.92510681354,0.00020260085450832,0.00020260085450832,0.00020260085450832,2595540.4730082,0.014333353015713
36419200,0.99999178883427,0.015425023353756,0.0041843945695856,0.0070562040103434,0.0041844247738272,-0.00075821165198707,0.00075806366129782,4.1526966498142e-06,-4.2842572349226e-06,5.9604834889763e-07,-9.136455174916e-07,-0.00092055895818392,0.00092409193807203,-0.00092345472624189,0.00092111250098189,-0.0009213001964174,0.00092334164825458,-0.0009240162538123,0.00092054266382659,-0.00072402541615852,0.00073138326936028,-0.0007313582083772,0.00072336484504218,3.2450795586712e-06,4.8797853480852e-06,8.6796018906685e-06,-4.6103954195697e-07,-0.0019092213716159,0.0019172821317851,-0.0021678716556316,0.0021781612538521,-0.0021709252916332,0.0021752267656481,-0.002167139862346,0.0021788048900342,-0.0021702987180358,0.002175665494403,-0.0015968025661235,0.0016146630111735,-0.0016060594961364,0.0016056574027972,-0.0016039547160175,0.0016075221978002,-0.0016026775858191,0.0016091431057592,-4.5578071926334e-06,3.9190225408775e-06,-0.00075844578892508,0.00075784268678079,-4.9056133579073e-06,4.156393998753e-06,-0.00092556299980005,0.00091910075020051,-0.00092240934641821,0.00092212448058092,-0.0009226855209524,0.00092201321398985,-0.00091957997167725,0.00092503241707655,-0.0007219354906529,0.00073257753461503,-0.00073010823597955,0.00072498692336524,0.73065039201283,131688,2924,0.0031570915078365,0.0079387407531761,0.0031571191848197,37.478875580643,0.00021503100464515,0.00021503100464515,0.00021503100464515,2619706.9811678,0.014355722864916
37419200,0.99999520452139,0.015425075210916,0.004184409871147,0.0070562252643927,0.0041844400753766,-0.00075811182113689,0.00075796427596698,4.1423550480066e-06,-4.2759798660644e-06,5.9124125789382e-07,-9.0565231377863e-07,-0.00092137162246631,0.00092489472504248,-0.00092426197175516,0.00092192167992621,-0.00092210848914789,0.00092414854117074,-0.00092481866044202,0.0009213567422321,-0.00072377232714155,0.00073110957944898,-0.00073108036135198,0.00072311266764534,3.2362270483188e-06,4.8577284925506e-06,8.6696302802056e-06,-4.8263262153343e-07,-0.0019111546828502,0.0019191853945003,-0.0021692290637826,0.0021794959855054,-0.0021722843161645,0.0021765586439705,-0.0021685005822439,0.0021801357931094,-0.0021716609612911,0.0021769927381598,-0.0015991038959544,0.0016169427070615,-0.0016083726446585,0.0016079145952397,-0.0016062567600441,0.0016098021317518,-0.0016049875206299,0.0016114092884736,-4.5464147930351e-06,3.9118480946562e-06,-0.00075834506697426,0.00075774488732558,-4.9095915075968e-06,4.1640865290855e-06,-0.00092636722725435,0.00091991070345132,-0.00092321148098875,0.00092293731273178,-0.00092349631036856,0.00092281660103831,-0.00092038835494007,0.00092583916396715,-0.00072168179455129,0.00073231038324472,-0.00072982981600382,0.00072473894276209,0.71959281467939,131688,2924,0.0031566898739447,0.0079466459423031,0.003156719001748,37.680188805301,0.00021664151044241,0.00021664151044241,0.00021664151044241,2587697.0511212,0.014362939360499
38419200,0.99999716787613,0.015425106139142,0.0041844190351141,0.0070562378646871,0.0041844492393412,-0.00075678953135863,0.00075664040906529,4.1359174792913e-06,-4.2690134604614e-06,5.9596444298104e-07,-9.1441963157384e-07,-0.00091975005426891,0.0009232711643247,-0.00092263537695913,0.00092030263756229,-0.00092049115071799,0.00092252089733779,-0.00092319673506283,0.00091973362139464,-0.00072248374600119,0.00072980761489963,-0.00072978335143245,0.00072182168183322,3.2263760298682e-06,4.8611823132438e-06,8.6533468724911e-06,-4.7331717099272e-07,-0.0019098975597079,0.0019179210845978,-0.0021684127738854,0.0021786612947511,-0.0021714611565707,0.0021757319233148,-0.0021676805746027,0.0021793047186285,-0.0021708340611777,0.0021761692234335,-0.0015974699403187,0.0016152783355882,-0.0016067136050421,0.00160628448787,-0.0016046114188034,0.0016081459301701,-0.001603333130865,0.0016097668425801,-4.5435189628211e-06,3.901290150035e-06,-0.00075702484073279,0.00075641820899246,-4.9006328654891e-06,4.1476129723387e-06,-0.0009247418890841,0.00091829181814045,-0.00092159326264344,0.00092131086264976,-0.00092187493868783,0.00092119346363122,-0.00091877518961958,0.00092420863092262,-0.00072039843904589,0.00073100093100916,-0.00072853811943205,0.00072344216706358,0.74583042897699,131688,2924,0.0031511934491137,0.007941444025198,0.0031512210095503,37.196433269656,0.00021277146615725,0.00021277146615725,0.00021277146615725,2576630.6369423,0.014346506307064
38880000,0.99999785347171,0.015425117001689,0.0041844222576573,0.0070562422821497,0.0041844524618819,-0.00075671941323723,0.00075657006561846,4.125469699199e-06,-4.258816100245e-06,5.9075833823391e-07,-9.0935607647572e-07,-0.00092083890644345,0.00092434984778882,-0.00092371680007103,0.00092138774698102,-0.00092157677019985,0.00092360273625869,-0.00092427533899425,0.00092082177465671,-0.00072231569852315,0.00072962273793238,-0.00072959538386634,0.00072165646187187,3.2311938306552e-06,4.8560395210088e-06,8.5708586900107e-06,-3.9069838782397e-07,-0.0019114229677956,0.0019194465973373,-0.002168922224391,0.0021791198034761,-0.0021719180092836,0.0021762460459389,-0.0021681933682507,0.0021797601874806,-0.0021712942517204,0.0021766806410018,-0.0015999200776515,0.0016175638959608,-0.001609004916887,0.001608734468657,-0.0016069488253713,0.0016105477178308,-0.0016056804066763,0.0016121590771642,-4.5434620644679e-06,3.8806887089242e-06,-0.00075696499002653,0.00075633762182506,-4.830745639621e-06,4.053639704602e-06,-0.00092580461729562,0.00091939627988543,-0.00092271033815709,0.00092236089195084,-0.00092294472029649,0.00092229100704352,-0.0009198989516109,0.00092525162002064,-0.00072026968941083,0.00073077680296794,-0.0007283893571618,0.00072323803244555,0.74998939251922,131688,2924,0.00315091159958,0.0079477167913337,0.0031509392038994,37.193663116545,0.00021274930493236,0.00021274930493236,0.00021274930493236,2542860.1123641,0.014352310244073
