time,ASR_ext,ASR_strain,ASR_strain_xx,ASR_strain_yy,ASR_strain_zz,disp_x_101,disp_x_102,disp_x_103,disp_x_104,disp_x_105,disp_x_106,disp_x_p1_neg,disp_x_p1_pos,disp_x_p2_neg,disp_x_p2_pos,disp_x_p3_neg,disp_x_p3_pos,disp_x_p4_neg,disp_x_p4_pos,disp_x_p5_neg,disp_x_p5_pos,disp_x_p6_neg,disp_x_p6_pos,disp_y_101,disp_y_102,disp_y_103,disp_y_104,disp_y_105,disp_y_106,disp_y_p1_neg,disp_y_p1_pos,disp_y_p2_neg,disp_y_p2_pos,disp_y_p3_neg,disp_y_p3_pos,disp_y_p4_neg,disp_y_p4_pos,disp_y_p5_neg,disp_y_p5_pos,disp_y_p6_neg,disp_y_p6_pos,disp_y_p7_neg,disp_y_p7_pos,disp_y_p8_neg,disp_y_p8_pos,disp_z_101,disp_z_102,disp_z_103,disp_z_104,disp_z_105,disp_z_106,disp_z_p1_neg,disp_z_p1_pos,disp_z_p2_neg,disp_z_p2_pos,disp_z_p3_neg,disp_z_p3_pos,disp_z_p4_neg,disp_z_p4_pos,disp_z_p5_neg,disp_z_p5_pos,disp_z_p6_neg,disp_z_p6_pos,humidity,ndof,nelem,strain_xx,strain_yy,strain_zz,temp,thermal_strain_xx,thermal_strain_yy,thermal_strain_zz,vonmises,vstrain
2419200,0,0,0,0,0,0,0,0,0,0,0,0,0,0,0,0,0,0,0,0,0,0,0,0,0,0,0,0,0,0,0,0,0,0,0,0,0,0,0,0,0,0,0,0,0,0,0,0,0,0,0,0,0,0,0,0,0,0,0,0,0,0,0,0,0,0,0,0,0,0,0,0,0,0,0
3419200,0.15879380572757,0.0030064138961711,0.0010021379653904,0.0010021379653904,0.0010021379653904,-0.0002570189895676,0.00025700718354052,-4.5178314593133e-09,-4.5178312110534e-09,-3.7965170965083e-09,-5.2116841917798e-09,-0.00026559210544165,0.00026558254390315,-0.00026559304231005,0.00026558348077585,-0.00026559258767323,0.00026558206299291,-0.00026559350754222,0.00026558298287678,-0.00025826929934974,0.00025825931902011,-0.00025826969184154,0.00025825971150205,-4.2266844373976e-10,8.8656899891094e-10,-4.8391621561826e-10,9.2932798857963e-10,-0.00029516304119326,0.00029516348818397,-0.0003003192083648,0.00030031864609189,-0.00030031967645268,0.00030032015453561,-0.00030031971166815,0.00030032011809506,-0.00030032017974122,0.000300321626548,-0.00028761193021927,0.00028761146384385,-0.00028761114512714,0.00028761340879204,-0.00028761185947807,0.00028761153587647,-0.00028761116843562,0.00028761338473035,-4.525363779651e-09,-4.5253640059382e-09,-0.00025701899712376,0.00025700717598079,-3.7601834610867e-09,-5.2646388686723e-09,-0.00026559209029381,0.00026558254960255,-0.00026559261737516,0.0002655820425788,-0.00026559302842418,0.00026558348772463,-0.00026559353615709,0.00026558296135732,-0.00025826971602846,0.0002582596889799,-0.00025826932613269,0.00025825929907839,0.75746877217741,122718,2924,0.0010703185004625,0.0012290841421115,0.0010703185004551,31.80820394044,0.00016966563152352,0.00016966563152352,0.00016966563152352,2885292.0170348,0.0033754091568016
4419200,0.34909709526435,0.006369009458592,0.0019706927598048,0.0024276239389986,0.0019706927597887,-0.00046672983792151,0.00046670496014563,-1.0337408834393e-08,-1.0337404532104e-08,-9.4434816295275e-09,-1.1490472494762e-08,-0.00049573298673962,0.00049571026889356,-0.0004957352913846,0.00049571257355758,-0.0004957337211274,0.00049570956653231,-0.00049573598003924,0.00049571182546902,-0.00046822651797846,0.00046820439444455,-0.00046822699611868,0.00046820487254464,-2.1562906050375e-10,1.504243159132e-09,-2.1887003493538e-10,1.4741088155758e-09,-0.00065627955677765,0.00065628081777547,-0.00069145796109462,0.00069145795955425,-0.00069146155374984,0.00069146280092034,-0.00069146155426935,0.0006914628042786,-0.00069146514705879,0.00069146764580237,-0.00061202747013466,0.00061202768366443,-0.00061202829269842,0.00061203180151406,-0.00061202746510844,0.00061202768592945,-0.00061202826918623,0.00061203182689871,-1.0329738403281e-08,-1.0329734403528e-08,-0.00046672983001541,0.00046670496804717,-9.4629519392992e-09,-1.14542687626e-08,-0.0004957329860193,0.00049571026577286,-0.00049573370646418,0.00049570958533588,-0.00049573529062104,0.0004957125703572,-0.00049573596515199,0.00049571184399773,-0.00046822697961428,0.00046820489067508,-0.00046822650300137,0.00046820441402129,0.73992840791513,122718,2924,0.0019428642472044,0.0027306973681013,0.001942864247195,33.600814455329,0.00018400651564263,0.00018400651564263,0.00018400651564263,4909974.9735251,0.0066383998183739
5419200,0.54887799490976,0.0097252175283929,0.0028329042467266,0.0040594090349385,0.0028329042467278,-0.00064778793931217,0.0006477830668305,-1.8099794410745e-09,-1.8099707638282e-09,-2.1497858849195e-09,-1.1482395920686e-10,-0.000704361097515,0.00070435588932054,-0.0007043622456289,0.00070435703739497,-0.00070436043036963,0.0007043565793993,-0.00070436158675814,0.00070435773579506,-0.00064432137313949,0.00064431749002276,-0.00064432122179345,0.00064431733872817,6.3352424016639e-10,-1.4545635473027e-09,7.4709454948022e-10,-1.5399144367886e-09,-0.0010721622371002,0.0010721614390531,-0.0011602511838708,0.0011602520197051,-0.0011602526721226,0.0011602518052487,-0.0011602526028476,0.0011602518732833,-0.0011602540912744,0.0011602516589761,-0.00096923325988299,0.00096923394851336,-0.00096923332585934,0.00096922962820097,-0.00096923338671688,0.00096923381892358,-0.00096923327928852,0.00096922967671584,-1.7939286157857e-09,-1.7939198614061e-09,-0.00064778792302851,0.00064778308311758,-2.2209673467956e-09,-6.6804185115501e-12,-0.00070436112656459,0.00070435587912207,-0.0007043603702492,0.00070435662202678,-0.00070436227135826,0.00070435702389539,-0.00070436152860732,0.00070435778032931,-0.00064432117198386,0.00064431738638594,-0.00064432131707524,0.00064431753126616,0.72499638738019,122718,2924,0.00269590105957,0.0044571561197723,0.0026959010595772,36.269537360848,0.00020535629888678,0.00020535629888678,0.00020535629888678,5696012.3059591,0.0098977499210841
6419200,0.70547086892439,0.011857817534092,0.0033256714366009,0.0052064746608824,0.0033256714366085,-0.00073547096622059,0.00073546120981777,-3.9618242263313e-09,-3.9619108096118e-09,-4.7790700236619e-09,-4.3769295119843e-09,-0.00081818904955356,0.0008181796541178,-0.00081818940567997,0.00081818000999414,-0.00081818891822414,0.00081817979580186,-0.00081818927077742,0.00081818014813417,-0.00072176249009282,0.00072175448369223,-0.00072176101879427,0.00072175301227752,-1.2787838278554e-10,-5.7102477745266e-10,-4.4049958127546e-11,-6.4009254631797e-10,-0.0013675253237321,0.001367524636098,-0.0015122005915932,0.001512200150474,-0.0015122020549273,0.0015122013170633,-0.0015122019985307,0.001512201370552,-0.0015122034620928,0.0015122025373614,-0.0012042801343539,0.0012042798864271,-0.0012042825004045,0.0012042811002171,-0.001204280245111,0.0012042797771475,-0.0012042824591143,0.0012042811403095,-3.966769844463e-09,-3.9668558983341e-09,-0.00073547097162098,0.00073546120442048,-4.8544045060098e-09,-4.3112606259188e-09,-0.00081818907853243,0.00081817962529485,-0.00081818889999848,0.00081817981305077,-0.0008181894354984,0.00081817998201995,-0.00081818925253861,0.00081818016531355,-0.00072176100082595,0.00072175303199659,-0.00072176247031438,0.00072175450144279,0.59839168540088,122718,2924,0.0030606607187385,0.0056814860915275,0.003060660718745,36.738919804767,0.00020911135843814,0.00020911135843814,0.00020911135843814,5655296.2874048,0.011872979917629
7419200,0.83131608179611,0.013362155520055,0.0036815702080584,0.005999015103933,0.0036815702080635,-0.00079547864201796,0.00079546957574235,-3.5482470920881e-09,-3.5483028166853e-09,-4.0011604051619e-09,-3.759473590486e-09,-0.00089644543279883,0.00089643725392857,-0.00089644601242075,0.00089643783335354,-0.00089644535565448,0.00089643733846923,-0.00089644592804344,0.0008964379106905,-0.00077329418386961,0.00077328682755925,-0.00077329334156723,0.00077328598518577,-7.1681959959445e-11,-3.6829613377651e-10,-1.0444819800278e-11,-4.1873701475399e-10,-0.0015837240908918,0.0015837236601903,-0.0017758524848172,0.0017758522461636,-0.0017758536910375,0.001775853225518,-0.0017758536513186,0.0017758532640523,-0.0017758548578096,0.0017758542436641,-0.0013718764801503,0.0013718763312935,-0.0013718780944253,0.0013718771867253,-0.0013718765588508,0.0013718762527108,-0.0013718780652202,0.0013718772157165,-3.5482532966798e-09,-3.5483085585357e-09,-0.00079547864206991,0.00079546957569088,-4.0519287497404e-09,-3.7076429548846e-09,-0.00089644544867395,0.0008964372368129,-0.00089644534011066,0.00089643735543367,-0.00089644602836256,0.0008964378163179,-0.00089644591224844,0.00089643792735173,-0.00077329332391422,0.0007732860032541,-0.00077329416449164,0.00077328684375049,0.52694121020036,122718,2924,0.0033103798891419,0.0065767317349375,0.003310379889143,40.765245579196,0.00024132196463357,0.00024132196463357,0.00024132196463357,5380134.0399783,0.013285317707608
8419200,0.90734021490788,0.014180110912248,0.0038801952474639,0.0064197204173161,0.003880195247468,-0.00081487434664229,0.00081486846403483,-2.3778631103241e-09,-2.3779227981224e-09,-2.959107415046e-09,-2.4187706691281e-09,-0.00092932621103599,0.00092932069389938,-0.00092932656135553,0.00092932104401048,-0.00092932603020054,0.00092932088038019,-0.0009293263769254,0.00092932122692363,-0.0007883356942843,0.00078833096852774,-0.00078833496073326,0.00078833023489812,2.502482930276e-11,-5.4172586108798e-10,8.5528562161135e-11,-5.8821956159028e-10,-0.0017028870818252,0.0017028865778049,-0.0019211575166831,0.0019211574171059,-0.0019211585432061,0.0019211580068852,-0.0019211585049233,0.0019211580438233,-0.0019211595317051,0.0019211586338517,-0.0014634454291707,0.001463445366765,-0.0014634472052319,0.0014634458758039,-0.0014634455049662,0.0014634452912827,-0.0014634471793232,0.0014634459013171,-2.3786487167086e-09,-2.3787076360704e-09,-0.00081487434746929,0.00081486846321598,-3.0071022582666e-09,-2.3715062743299e-09,-0.00092932622757432,0.00092932067733597,-0.00092932601538983,0.00092932089530114,-0.00092932657780771,0.00092932102738346,-0.00092932636212928,0.00092932124181616,-0.00078833494468534,0.00078833025108142,-0.00078833567588729,0.00078833098220933,0.47156008474719,122718,2924,0.0033913028185731,0.0070697529611113,0.0033913028185901,41.433880228603,0.00024667104182882,0.00024667104182882,0.00024667104182882,4907002.6396089,0.013949191165358
9419200,0.94943773853906,0.014573618704197,0.0039788396530198,0.0066159393981519,0.0039788396530252,-0.00081660306293117,0.00081659860274864,-1.843914585881e-09,-1.8439752653707e-09,-2.6008886004125e-09,-1.658743617874e-09,-0.00093970282849783,0.00093969845598294,-0.0009397030940354,0.00093969872131151,-0.00093970251493614,0.00093969877794889,-0.00093970277778966,0.00093969904062002,-0.00078782195739003,0.00078781851360879,-0.00078782131809228,0.00078781787423108,1.4407695507733e-10,-8.0880328405603e-10,2.2987873506832e-10,-8.7545552114065e-10,-0.0017615728232464,0.0017615721760834,-0.0019933416860992,0.0019933417271269,-0.0019933426871445,0.0019933419937642,-0.0019933426337829,0.0019933420464412,-0.0019933436350866,0.0019933423133265,-0.0015074562968141,0.0015074563828511,-0.0015074584212051,0.0015074563978292,-0.0015074564031209,0.001507456276136,-0.0015074583837925,0.0015074564353194,-1.8423383116822e-09,-1.8423981853089e-09,-0.00081660306138765,0.00081659860429632,-2.6666806436192e-09,-1.5881510084279e-09,-0.00093970285154212,0.00093969843508407,-0.0009397024891795,0.00093969880172931,-0.00093970311664717,0.00093969869999717,-0.0009397027523002,0.00093969906462221,-0.00078782129240802,0.00078781789981202,-0.00078782192863662,0.00078781853596861,0.40621133923259,122718,2924,0.0033987234121177,0.007312422972003,0.0033987234121264,41.145168416698,0.00024436134733358,0.00024436134733358,0.00024436134733358,4491207.9042606,0.014210385125747
10419200,0.97049670723832,0.014787495309809,0.0040350224160438,0.0067174504777155,0.0040350224160493,-0.00081155167945839,0.00081155054270968,-5.7505930050958e-10,-5.7512039489672e-10,-1.6621009659454e-09,-1.2995548583147e-12,-0.00093871440754389,0.00093871273790879,-0.00093871444182267,0.00093871277197697,-0.00093871385473775,0.00093871330288392,-0.00093871388944558,0.00093871333740746,-0.00078222508941934,0.00078222458647215,-0.00078222453919668,0.00078222403616885,3.5074862539967e-10,-1.2851745505055e-09,4.9812603165048e-10,-1.4042650498431e-09,-0.0017869614170659,0.0017869605087694,-0.0020248638111468,0.002024864111591,-0.0020248647504716,0.0020248637602438,-0.0020248646596449,0.0020248638520772,-0.0020248655992263,0.0020248635009761,-0.0015258070453618,0.0015258074163093,-0.0015258098053907,0.0015258065135192,-0.0015258072274605,0.0015258072318669,-0.001525809736826,0.0015258065834947,-5.6763042519191e-10,-5.6769062004418e-10,-0.00081155167206058,0.00081155055011195,-1.7739267321678e-09,1.2921166865292e-10,-0.00093871444618636,0.00093871270551397,-0.00093871380256577,0.0009387133492997,-0.0009387144793214,0.00093871273845532,-0.00093871383792858,0.00093871338443433,-0.0007822244893012,0.00078222408551044,-0.0007822250352351,0.00078222463137375,0.43665130715676,122718,2924,0.0033778853866669,0.0074173712756878,0.0033778853866763,38.097238524197,0.00021997790819358,0.00021997790819358,0.00021997790819358,4287847.2058638,0.014274586781286
11419200,0.98265947380601,0.014902281224939,0.0040654892952547,0.0067713026344235,0.0040654892952603,-0.00080776479510194,0.00080776099029985,-1.6021531558815e-09,-1.6022142401119e-09,-2.7277279631122e-09,-9.7891433610369e-10,-0.00094108613316099,0.00094108207145366,-0.00094108638225314,0.00094108232033551,-0.00094108556021549,0.00094108266258686,-0.00094108580491583,0.00094108290710281,-0.00077823381616652,0.00077823116604223,-0.00077823326711478,0.00077823061691038,3.9825934224459e-10,-1.3537792207388e-09,6.1059698815173e-10,-1.5362771583756e-09,-0.0018062910491714,0.0018062901211226,-0.002045777508593,0.002045777876873,-0.0020457787433545,0.0020457776914712,-0.002045778611324,0.0020457778265476,-0.0020457798463437,0.0020457776413935,-0.0015424002225211,0.001542400786241,-0.0015424032874953,0.0015423996964306,-0.0015424004880743,0.0015424005159403,-0.0015424031792039,0.0015423998078283,-1.5889168367401e-09,-1.5889770534447e-09,-0.00080776478186855,0.00080776100353765,-2.8957644064734e-09,-7.7800403266618e-10,-0.00094108618822148,0.00094108202361841,-0.00094108548097309,0.00094108273550834,-0.00094108643579091,0.00094108227099383,-0.00094108572629521,0.00094108298060203,-0.00077823319022339,0.0007782306933666,-0.00077823373477954,0.00077823123785209,0.40445605707229,122718,2924,0.0033622749695504,0.0074971826758651,0.0033622749695596,37.62764362509,0.00021622114900072,0.00021622114900072,0.00021622114900072,3996237.896418,0.014323909024973
12419200,0.98963548372753,0.014976556472905,0.0040857583182218,0.0068050398364559,0.0040857583182274,-0.00080536398773095,0.00080536064672731,-1.429455173497e-09,-1.4295163412794e-09,-2.612446596524e-09,-7.3602204573761e-10,-0.00094025020905355,0.0009402465149303,-0.00094025042816041,0.0009402467338267,-0.0009402495941318,0.0009402471490915,-0.00094024980895285,0.00094024736372777,-0.00077581832179055,0.00077581608932625,-0.00077581779185007,0.00077581555930558,4.3436590377274e-10,-1.4401154743431e-09,7.0969361987648e-10,-1.6838448335785e-09,-0.0018156796957374,0.0018156787191161,-0.0020572642819957,0.0020572647275166,-0.0020572655458297,0.002057264405147,-0.002057265374069,0.0020572645820207,-0.0020572666381607,0.0020572642598978,-0.0015491631468238,0.0015491638625439,-0.0015491664265589,0.0015491625041795,-0.0015491634932435,0.0015491635089307,-0.0015491662796657,0.0015491626559121,-1.4101495108857e-09,-1.4102098365428e-09,-0.00080536396840909,0.00080536066605357,-2.8339891008724e-09,-4.6684453597264e-10,-0.00094025027933168,0.00094024645280875,-0.00094024948856447,0.00094024724782182,-0.00094025049652612,0.00094024666980961,-0.00094024970398083,0.00094024746301014,-0.00077581768851952,0.00077581566215896,-0.00077581821372663,0.00077581618729501,0.45322610794666,122718,2924,0.0033523614095849,0.0075359802010361,0.0033523614095941,36.803360831467,0.00020962688665174,0.00020962688665174,0.00020962688665174,3894030.3938193,0.014343160761359
13419200,0.99353155362548,0.015014575673674,0.0040961393513838,0.0068222969709006,0.0040961393513894,-0.00079795968163953,0.00079795769182467,-9.2654320791747e-10,-9.2660427843198e-10,-2.2097730116922e-09,-8.8500824801728e-11,-0.00093706478526731,0.00093706215095636,-0.00093706491843827,0.00093706228391695,-0.00093706408879215,0.0009370628679502,-0.00093706421856462,0.00093706299753831,-0.0007684899265407,0.00076848885486085,-0.00076848944326243,0.00076848837150298,5.2075562236143e-10,-1.5859326790512e-09,8.5750252570998e-10,-1.8881463531309e-09,-0.0018205694043427,0.0018205683710056,-0.0020618629592551,0.0020618635524778,-0.0020618642045387,0.0020618629683086,-0.0020618639941263,0.0020618631855773,-0.0020618652396681,0.0020618626016556,-0.0015535494116683,0.001553550335393,-0.0015535529514988,0.0015535485504372,-0.0015535498361642,0.0015535499016509,-0.0015535527680411,0.0015535487401802,-9.0296215814059e-10,-9.0302244356362e-10,-0.00079795965800032,0.00079795771546835,-2.4843580870658e-09,2.4450566127724e-10,-0.00093706487221143,0.00093706207362804,-0.00093706395873949,0.00093706299003848,-0.0009370650030881,0.0009370622043112,-0.00093706408915809,0.00093706312022908,-0.00076848931595425,0.00076848849821969,-0.00076848979418511,0.00076848897637864,0.4150894025916,122718,2924,0.0033216885697637,0.0075561005542487,0.003321688569773,34.79240862278,0.00019353926898224,0.00019353926898224,0.00019353926898224,3711719.3405436,0.01430136986624
14419200,0.99578127689797,0.015034892466717,0.0041017352849613,0.0068314218967887,0.0041017352849669,-0.00079244964290517,0.00079244787379464,-8.4116250893591e-10,-8.412236675056e-10,-2.2234789860208e-09,9.8146698773958e-11,-0.00093122418828423,0.00093122170384162,-0.00093122430486515,0.00093122182021231,-0.00093122342726948,0.00093122248783428,-0.00093122354021618,0.00093122260059651,-0.00076291601749387,0.00076291519570428,-0.00076291554339023,0.00076291472152056,5.7756976440486e-10,-1.7260162302125e-09,9.7783223054363e-10,-2.0888223597931e-09,-0.0018193421242367,0.0018193410103602,-0.00206237785626,0.0020623785412662,-0.0020623791806793,0.0020623778239518,-0.0020623789305173,0.0020623780831433,-0.0020623802551943,0.0020623773660758,-0.0015504864185207,0.0015504875116499,-0.0015504902684691,0.0015504854063169,-0.0015504869240646,0.0015504869943314,-0.0015504900471678,0.0015504856356818,-8.1109826221073e-10,-8.1115862199914e-10,-0.00079244961277325,0.00079244790393105,-2.5506088991195e-09,4.9938486130072e-10,-0.00093122429041714,0.00093122161287203,-0.00093122327017778,0.00093122263583488,-0.00093122440423702,0.00093122172649842,-0.00093122338381644,0.00093122274924558,-0.00076291538929997,0.00076291487491928,-0.00076291585792461,0.00076291534347252,0.38312450045663,122718,2924,0.0032988222604011,0.0075510405050469,0.0032988222604105,32.641569365194,0.00017633255492155,0.00017633255492155,0.00017633255492155,3699828.3382302,0.014249849995387
15419200,0.99695265540535,0.015049044386268,0.004105698802383,0.0068376467814959,0.0041056988023886,-0.00078035558217387,0.00078035759222131,5.9631012492177e-10,5.9624894348108e-10,-1.0834544376298e-09,1.8907482338805e-09,-0.00091918906212397,0.00091918966426016,-0.00091918890751548,0.00091918950944127,-0.00091918808236788,0.00091919066961393,-0.00091918792784351,0.00091919051490515,-0.0007508205882961,0.00075082304442889,-0.00075082018992497,0.00075082264597807,7.7001618506352e-10,-2.1474632019733e-09,1.2574177391041e-09,-2.5891682486285e-09,-0.0018110686766401,0.0018110673414652,-0.0020550768717884,0.0020550778319562,-0.0020550781004868,0.0020550764695984,-0.0020550777964874,0.0020550767852355,-0.0020550790254426,0.0020550754231245,-0.0015411258047943,0.0015411272268515,-0.0015411302591668,0.0015411242081026,-0.0015411264194674,0.0015411265973855,-0.0015411299895653,0.0015411244878837,6.3448482174775e-10,6.3442441907831e-10,-0.00078035554392173,0.00078035763047857,-1.4799325221656e-09,2.3808735516394e-09,-0.00091918918621874,0.00091918955526021,-0.00091918788843325,0.00091919085103291,-0.00091918902804754,0.00091918939689538,-0.0009191877348968,0.00091919069726824,-0.0007508200007431,0.00075082283404974,-0.00075082039254803,0.00075082322578293,0.51103778709309,122718,2924,0.0032486181504657,0.0075168279412175,0.0032486181504764,27.06382231628,0.00013171057853024,0.00013171057853024,0.00013171057853024,3720410.1238011,0.014113322768538
16419200,0.997704808081,0.015057304212495,0.0041079872147333,0.006841329783023,0.0041079872147389,-0.00076991162474598,0.00076991042073684,-6.3879810035505e-10,-6.3885909889606e-10,-2.3110036638417e-09,6.4774519694651e-10,-0.00091480292941673,0.00091480066961084,-0.0009148030270333,0.00091480076701752,-0.00091480196390141,0.00091480166575162,-0.00091480205650609,0.0009148017581723,-0.00074070719877178,0.00074070702407081,-0.00074070677369511,0.00074070659891491,8.1528303501586e-10,-2.1210149470964e-09,1.3761927850786e-09,-2.6363635677262e-09,-0.0018124487020551,0.0018124474382702,-0.0020540138663542,0.0020540149218061,-0.0020540154342803,0.0020540138260757,-0.0020540150828908,0.002054014190885,-0.0020540166510755,0.0020540130954025,-0.0015439023979965,0.0015439040608349,-0.0015439071065474,0.0015439009565711,-0.0015439031077318,0.0015439033341695,-0.0015439067901753,0.0015439012846248,-5.9843195027058e-10,-5.9849214557872e-10,-0.00076991158418665,0.00076991046130066,-2.7778295133034e-09,1.2149005946226e-09,-0.00091480307627481,0.00091480053810259,-0.00091480174320557,0.0009148018739857,-0.00091480317011821,0.00091480063175254,-0.00091480183669871,0.00091480196725089,-0.00074070655769537,0.00074070681394236,-0.00074070697638069,0.00074070723255529,0.46538451425637,122718,2924,0.0032053198056292,0.0075223780989928,0.0032053198056386,24.415510256775,0.0001105240820542,0.0001105240820542,0.0001105240820542,3485450.79765,0.014031171428807
17419200,0.99820995076759,0.015063594962453,0.0041097629710187,0.0068440690204097,0.0041097629710243,-0.0007637146407572,0.00076371324666474,-7.0795436731092e-10,-7.080154623881e-10,-2.3774220840104e-09,5.5945091557032e-10,-0.00090695495328761,0.00090695257359137,-0.00090695505872979,0.00090695267882371,-0.00090695399556189,0.000906953562529,-0.00090695409565562,0.00090695366243868,-0.00073446381881729,0.00073446349470321,-0.00073446338341882,0.0007344630592253,7.8910609555633e-10,-2.1255221346696e-09,1.4160806998831e-09,-2.7065623179673e-09,-0.0018080907053744,0.0018080894113254,-0.002051899054757,0.0020519001077648,-0.0020519006712537,0.0020518989902387,-0.0020519002783736,0.0020518993993262,-0.0020519018951285,0.0020518982820471,-0.0015373638509599,0.0015373655999012,-0.0015373686868637,0.0015373624051364,-0.0015373646462381,0.0015373647844792,-0.0015373683287284,0.0015373627772167,-6.5921385982203e-10,-6.5927420386091e-10,-0.00076371459182808,0.00076371329559836,-2.8990915780364e-09,1.2015897879829e-09,-0.00090695511402495,0.00090695242868991,-0.00090695374574388,0.0009069537999298,-0.00090695521527077,0.00090695252974252,-0.00090695384661864,0.00090695390057716,-0.00073446313750885,0.00073446330417912,-0.0007344635663478,0.00073446373294594,0.52521873377382,122718,2924,0.0031795801961552,0.0075044048084171,0.0031795801961646,21.977654558863,9.1021236470905e-05,9.1021236470905e-05,9.1021236470905e-05,3513781.7339704,0.013960735707663
18419200,0.99852387566799,0.015067350529641,0.0041108174001294,0.0068457157293768,0.004110817400135,-0.00075106976732667,0.00075107056800348,1.1241500689797e-10,1.1235396260293e-10,-1.6496881860094e-09,1.5266630838143e-09,-0.00089714798006967,0.0008971473824943,-0.0008971479369588,0.00089714733917383,-0.00089714694026153,0.00089714845327275,-0.00089714689383294,0.00089714840666031,-0.00072191679192866,0.00072191830648005,-0.00072191641548438,0.00072191792995643,8.7554914451581e-10,-2.2583541125085e-09,1.5636890075507e-09,-2.8980295442455e-09,-0.001803060530687,0.0018030591926021,-0.0020463045548013,0.0020463057683043,-0.0020463060738785,0.0020463043098965,-0.0020463056422805,0.00204630475922,-0.0020463071616155,0.00204630330106,-0.0015323982156568,0.0015324001735856,-0.0015324032641522,0.0015323965337863,-0.0015323990888526,0.0015323992784466,-0.0015324028691144,0.0015323969440466,1.639707006753e-10,1.6391045423637e-10,-0.00075106971552195,0.00075107061981197,-2.2261796852681e-09,2.2312182441001e-09,-0.00089714815871364,0.0008971472208909,-0.0008971466674146,0.00089714871276858,-0.00089714811109522,0.00089714717307974,-0.00089714662180655,0.00089714866693284,-0.00072191614701381,0.00072191819732923,-0.0007219165166939,0.00072191856693666,0.50516361584657,122718,2924,0.0031271109822065,0.0074835302364253,0.0031271109822145,17.481377151232,5.5051017209854e-05,5.5051017209854e-05,5.5051017209854e-05,3407120.9232603,0.013833192908156
19419200,0.99878375467405,0.015071385045639,0.0041119674110721,0.0068474502234892,0.0041119674110777,-0.00075019230984327,0.0007501888097259,-1.5158118302133e-09,-1.5158728939779e-09,-3.2252896443083e-09,-1.1227670211206e-10,-0.0008958050738049,0.00089580073835614,-0.00089580502640008,0.00089580069074158,-0.00089580405724425,0.00089580178621465,-0.000895804006525,0.00089580173531136,-0.00072114756611755,0.00072114533789034,-0.00072114718550674,0.00072114495720007,8.7233458263024e-10,-2.279838760579e-09,1.5662390890004e-09,-2.9248839012751e-09,-0.0018034471542018,0.0018034457918263,-0.0020471078235579,0.0020471090290327,-0.0020471093457303,0.0020471075540304,-0.0020471089106784,0.0020471080071645,-0.0020471104331088,0.0020471065324095,-0.0015324280926807,0.0015324300492136,-0.0015324331815528,0.0015324263919525,-0.0015324289732768,0.0015324291464159,-0.0015324327831886,0.0015324268057211,-1.4625297857337e-09,-1.4625900586277e-09,-0.00075019225634486,0.00075018886322874,-3.8050255931682e-09,5.9941436198928e-10,-0.00089580525274069,0.0008958005766795,-0.00089580378096215,0.00089580204897413,-0.00089580520077098,0.00089580052451677,-0.00089580373107446,0.00089580199885887,-0.00072114691359881,0.00072114522802088,-0.00072114728736067,0.00072114560171048,0.65325215552171,122718,2924,0.0031234547351599,0.0074851392221853,0.0031234547351692,17.551542315392,5.5612338523139e-05,5.5612338523139e-05,5.5612338523139e-05,3391036.7124016,0.013827405677059
20419200,0.99900991242938,0.015075146718626,0.0041130379778152,0.0068490707629898,0.0041130379778208,-0.00074743903311703,0.00074743407648143,-2.079460975685e-09,-2.0795218944259e-09,-3.7711734414771e-09,-6.9578211695158e-10,-0.00089668125462819,0.00089667565646617,-0.00089668146872831,0.00089667587035657,-0.00089668025310312,0.00089667669182249,-0.00089668046065265,0.00089667689918826,-0.00071865174376373,0.00071864825882977,-0.00071865151836953,0.00071864803335666,8.8094226825959e-10,-2.2170580943382e-09,1.5783591399764e-09,-2.8664198153128e-09,-0.0018090823792288,0.0018090810873588,-0.0020524424802704,0.0020524436968466,-0.002052444282247,0.0020524425580236,-0.002052443844528,0.002052443013639,-0.0020524456467629,0.0020524418750639,-0.0015382061389766,0.0015382081428217,-0.0015382114381524,0.0015382047832868,-0.0015382070242119,0.0015382072351747,-0.0015382110369584,0.0015382052000194,-2.0301167762672e-09,-2.0301769189299e-09,-0.00074743898348089,0.0007474341261217,-4.3598654155455e-09,1.6793465411417e-11,-0.00089668143866072,0.00089667548922145,-0.00089667997918562,0.0008966769526604,-0.00089668164828093,0.00089667569864865,-0.00089668018750965,0.00089667716075697,-0.00071865124875094,0.00071864830199863,-0.00071865146744508,0.00071864852062011,0.700127793059,122718,2924,0.0031120730894329,0.0075083438228158,0.0031120730894416,18.596523934309,6.3972191474468e-05,6.3972191474468e-05,6.3972191474468e-05,3142315.2876299,0.01382787491637
21419200,0.99916380090056,0.015077528280309,0.0041137201635395,0.0068500879532243,0.0041137201635451,-0.00073725885752377,0.00073725799243489,-5.3647864300453e-10,-5.3653963155573e-10,-2.2851811933401e-09,8.3159586728767e-10,-0.00088781800907307,0.0008878160403224,-0.00088781833684686,0.00088781636788665,-0.0008878169942566,0.00088781709046792,-0.0008878173135615,0.00088781740958906,-0.00070882267278507,0.00070882282118985,-0.00070882245610102,0.00070882260442671,8.6641817043139e-10,-2.1822813577143e-09,1.5673964158801e-09,-2.8357130365603e-09,-0.0018052842230193,0.0018052829509353,-0.002048520873915,0.0020485220654801,-0.0020485228040174,0.0020485210970374,-0.0020485223639341,0.0020485215551516,-0.002048524294295,0.0020485205869569,-0.0015342695798175,0.0015342715833716,-0.0015342749087069,0.0015342683307236,-0.0015342704700413,0.0015342706707419,-0.0015342745048495,0.0015342687501283,-4.8702824341559e-10,-4.8708847163448e-10,-0.00073725880778836,0.00073725804217614,-2.87755103385e-09,1.5482938473264e-09,-0.0008878181942117,0.00088781587173109,-0.00088781671910519,0.00088781735276241,-0.00088781851756676,0.00088781619489346,-0.00088781703914296,0.00088781767257272,-0.00070882218513765,0.00070882287449131,-0.00070882239522076,0.00070882308450148,0.64990944923704,122718,2924,0.003069831180958,0.0074925907560939,0.0030698311809702,15.228151615005,3.7025212920041e-05,3.7025212920041e-05,3.7025212920041e-05,3058840.4578223,0.013726263648855
22419200,0.99929117182131,0.015079553204306,0.0041143042871332,0.0068509446300343,0.0041143042871388,-0.00073516732320989,0.00073516416303835,-1.4072645355363e-09,-1.4073255665201e-09,-3.1147766038728e-09,-6.1136911956365e-11,-0.00088484236274123,0.00088483840647159,-0.0008848424730338,0.00088483851655462,-0.00088484136957057,0.00088483943293784,-0.00088484147353181,0.00088483953671525,-0.00070648806235679,0.00070648624307513,-0.00070648765626238,0.00070648583690172,8.570661144244e-10,-2.2172294729263e-09,1.5627059199951e-09,-2.8749537397249e-09,-0.0018049767525133,0.0018049754365952,-0.0020490513052994,0.0020490524908418,-0.002049052999007,0.0020490512456037,-0.0020490525562518,0.0020490517068028,-0.0020490542502172,0.002049050461812,-0.0015330246533291,0.0015330266374267,-0.0015330297622085,0.0015330230967261,-0.001533025549616,0.0015330257185565,-0.001533029355667,0.0015330235189422,-1.3551322316111e-09,-1.3551924979906e-09,-0.00073516727085211,0.00073516421540092,-3.707938155564e-09,6.6218749078709e-10,-0.00088484254666251,0.0008848382391865,-0.00088484109070919,0.00088483969890575,-0.00088484265249185,0.00088483834482309,-0.00088484119539433,0.00088483980336356,-0.00070648738145309,0.00070648611083013,-0.00070648778089832,0.00070648651020276,0.66642562144509,122718,2924,0.003061131993454,0.0074913547098937,0.003061131993464,14.859289246904,3.4074313975236e-05,3.4074313975236e-05,3.4074313975236e-05,3094353.486362,0.013707367411189
23419200,0.99940427272997,0.015081248146994,0.0041147914904111,0.0068516651661659,0.0041147914904167,-0.00073528651553918,0.00073528185376498,-1.9689039340974e-09,-1.9689649584622e-09,-3.6490599392512e-09,-6.3529903416824e-10,-0.00088530579818274,0.00088530052145346,-0.00088530603020744,0.00088530075326847,-0.00088530481942713,0.00088530153454248,-0.00088530504378323,0.0008853017587148,-0.00070650182113189,0.0007064986837509,-0.00070650149612411,0.00070649835866418,8.4348489808594e-10,-2.1917419506702e-09,1.5521356128519e-09,-2.8530880799411e-09,-0.0018076658667967,0.0018076645621977,-0.0020523396364753,0.002052340798347,-0.0020523414524613,0.0020523397080671,-0.0020523410076361,0.0020523401714955,-0.00205234282388,0.0020523390814629,-0.00153505041962,0.0015350523981265,-0.0015350556212704,0.0015350490116959,-0.0015350513200539,0.0015350514748203,-0.0015350552123629,0.0015350494364767,-1.916703072728e-09,-1.9167633332694e-09,-0.00073528646311973,0.00073528190618891,-4.2457801676244e-09,9.1864057126223e-11,-0.00088530598313821,0.00088530035297571,-0.00088530453949473,0.00088530180178777,-0.0008853062106835,0.00088530058032815,-0.00088530476454251,0.00088530202660819,-0.00070650122004564,0.00070649863390581,-0.00070650153843667,0.00070649895222415,0.6287572963922,122718,2924,0.0030616327951242,0.0075024741141651,0.0030616327951336,15.70508342865,4.0840667429201e-05,4.0840667429201e-05,4.0840667429201e-05,3036621.2201595,0.013719657845797
24419200,0.99951103435116,0.015082936261583,0.0041152793406369,0.0068523775803039,0.0041152793406426,-0.00073971826891252,0.00073971195199485,-2.5850637762452e-09,-2.5851248507678e-09,-4.0128934653132e-09,-1.6051468958936e-09,-0.00088820477925212,0.00088819830436777,-0.00088820524723806,0.00088819877214371,-0.00088820400314246,0.00088819911203661,-0.00088820445987098,0.00088819956858124,-0.00071047742265225,0.00071047291716153,-0.00071047695006917,0.00071047244449953,6.3677087996907e-10,-1.7979987093148e-09,1.3548997119203e-09,-2.4769042930976e-09,-0.0018119357863989,0.0018119346613622,-0.0020586578677361,0.0020586587868926,-0.0020586598169476,0.0020586582422071,-0.0020586593647337,0.0020586587139668,-0.0020586613142027,0.0020586581695279,-0.0015370341707919,0.0015370359788181,-0.0015370389192797,0.0015370332486056,-0.0015370350872265,0.0015370350382209,-0.0015370384972571,0.0015370336874885,-2.5299215217518e-09,-2.5299818364533e-09,-0.00073971821357429,0.00073971200733805,-4.6224405438202e-09,-8.5815624167507e-10,-0.0008882049636854,0.00088819813298172,-0.00088820371851743,0.00088819938766248,-0.0008882054274191,0.00088819859652227,-0.00088820417545403,0.00088819984437157,-0.00071047666637966,0.00071047272787787,-0.00071047713325181,0.00071047319467782,0.66255127740754,122718,2924,0.0030800368096728,0.0075201853046284,0.0030800368096833,17.879932137538,5.8239457100303e-05,5.8239457100303e-05,5.8239457100303e-05,3045926.2868912,0.013774919999206
25419200,0.99960837224571,0.015084749549386,0.004115805561241,0.0068531384268986,0.0041158055612467,-0.00074268058043796,0.00074267436051423,-2.5555069941993e-09,-2.5555680142468e-09,-3.7928092469556e-09,-1.766803024998e-09,-0.00089248170232074,0.00089247542942274,-0.00089248216165483,0.00089247588854684,-0.0008924810474211,0.00089247611052179,-0.00089248149648689,0.00089247655940397,-0.00071345763249175,0.00071345306681475,-0.00071345716974575,0.00071345260398918,5.1455452627125e-10,-1.537664364468e-09,1.212373585878e-09,-2.2017238220839e-09,-0.0018172114310437,0.001817210439097,-0.0020632926000407,0.0020632933922832,-0.0020632944017336,0.0020632929706877,-0.0020632939612387,0.0020632934299734,-0.0020632957631894,0.002063293008625,-0.0015427746117996,0.0015427762676531,-0.0015427789459169,0.0015427739451844,-0.0015427755043735,0.0015427753517071,-0.0015427785317155,0.001542774375732,-2.503379511489e-09,-2.503439783883e-09,-0.00074268052809227,0.00074267441286447,-4.390458883789e-09,-1.0386544236981e-09,-0.0008924818822149,0.00089247526000988,-0.00089248077287529,0.00089247637850334,-0.00089248233768567,0.00089247571528778,-0.00089248122189071,0.00089247682729101,-0.00071345689463686,0.00071345287898093,-0.00071345735245183,0.00071345333672322,0.77991302017261,122718,2924,0.0030923581118824,0.0075419667995409,0.003092358111892,19.92500847571,7.4600067805678e-05,7.4600067805678e-05,7.4600067805678e-05,2966742.9169624,0.013821992634904
26419200,0.99968819131329,0.01508633211469,0.0041162662777435,0.006853799559197,0.0041162662777491,-0.00074013520848921,0.00074013049460482,-1.9870796807875e-09,-1.9871406211086e-09,-3.2324398120613e-09,-1.2032525124029e-09,-0.00089240766544455,0.0008924027103936,-0.00089240812864836,0.0008924031733878,-0.00089240700822555,0.00089240339327897,-0.00089240746124667,0.00089240384611666,-0.00071116415905818,0.00071116089532542,-0.00071116370703632,0.00071116044322496,5.1276072939404e-10,-1.5132976787653e-09,1.2080991426946e-09,-2.1752749411378e-09,-0.0018200818484698,0.0018200808787089,-0.0020658064167685,0.0020658072128078,-0.0020658082075395,0.0020658068000003,-0.0020658077683902,0.0020658072576539,-0.0020658095594194,0.002065806845094,-0.0015458763246564,0.0015458779811712,-0.0015458806217484,0.0015458756820318,-0.0015458772141141,0.0015458770684399,-0.001545880208743,0.0015458761113126,-1.9377855795836e-09,-1.9378457751859e-09,-0.000740135158931,0.00074013054416762,-3.8312066666191e-09,-4.7996673038721e-10,-0.00089240784718402,0.00089240253880507,-0.00089240673715428,0.00089240365804944,-0.00089240830661576,0.00089240299804426,-0.00089240719010041,0.00089240411076827,-0.00071116343541205,0.00071116071478983,-0.00071116388258932,0.0007111611618938,0.82922923068302,122718,2924,0.0030818271979346,0.0075537649537958,0.0030818271979442,20.393758758408,7.8350070067263e-05,7.8350070067263e-05,7.8350070067263e-05,2796849.3871678,0.013812614797269
27419200,0.99975779972734,0.015087577337973,0.0041166298772815,0.006854317583404,0.0041166298772872,-0.00074159077222145,0.00074158472622784,-2.4995414615458e-09,-2.4996024011816e-09,-3.6054246307984e-09,-1.8306981363698e-09,-0.00089547788459355,0.00089547183727971,-0.00089547833689231,0.00089547228936916,-0.00089547730920683,0.00089547243514728,-0.00089547775204099,0.0008954728777979,-0.00071258499516784,0.00071258047220935,-0.00071258455777295,0.00071258003473629,4.3640351943675e-10,-1.3624341994528e-09,1.1006507303463e-09,-1.9964884985292e-09,-0.0018261998737682,0.0018261989756326,-0.0020713536887965,0.0020713543901884,-0.0020713553679889,0.0020713540509465,-0.0020713549480535,0.0020713544884494,-0.002071356627504,0.0020713541494549,-0.0015518943377861,0.0015518958584994,-0.0015518983483451,0.0015518938367548,-0.0015518951884933,0.0015518949858249,-0.0015518979521651,0.0015518942482841,-2.4531163523764e-09,-2.4531765424641e-09,-0.00074159072554442,0.00074158477290942,-4.1793538252565e-09,-1.1391718521545e-09,-0.00089547805832507,0.00089547167213164,-0.00089547705139025,0.00089547268799909,-0.00089547850719507,0.00089547212080895,-0.00089547749403769,0.00089547313041945,-0.0007125842986827,0.00071258029380728,-0.0007125847317294,0.00071258072678068,0.74718867332313,122718,2924,0.0030879011694615,0.0075790284150195,0.0030879011694711,22.251419354167,9.3211354833337e-05,9.3211354833337e-05,9.3211354833337e-05,2720418.6302322,0.013850551517784
28419200,0.99981501221029,0.015088743565064,0.0041169738951445,0.0068547957747693,0.0041169738951501,-0.00074406899308141,0.00074406358861389,-2.255183881265e-09,-2.2552449467095e-09,-3.3624686864724e-09,-1.5943214837201e-09,-0.00089611124615477,0.00089610576910242,-0.00089611169755832,0.00089610622029639,-0.00089611067260789,0.00089610636499417,-0.00089611111454688,0.00089610680674917,-0.00071499482393633,0.00071499085775382,-0.00071499438375261,0.00071499041749123,4.2456833034659e-10,-1.3563942774682e-09,1.0857518571437e-09,-1.9875730969474e-09,-0.0018272762994458,0.001827275395367,-0.0020731077946695,0.0020731084762617,-0.0020731094681724,0.0020731081472486,-0.0020731090503805,0.0020731085827996,-0.0020731107241407,0.0020731082540331,-0.0015524228941206,0.0015524243912437,-0.001552426883287,0.0015524223950382,-0.0015524237410111,0.0015524235224471,-0.001552426488914,0.0015524228047189,-2.2065672709139e-09,-2.206627586689e-09,-0.00074406894427357,0.00074406363742608,-3.9308726783026e-09,-9.0373251026771e-10,-0.00089611141669492,0.0008961056071017,-0.00089611041394392,0.00089610661876012,-0.00089611186465371,0.00089610605486758,-0.00089611085568926,0.00089610706027798,-0.00071499412359157,0.00071499067763522,-0.00071499455942521,0.00071499111339612,0.8493285419621,122718,2924,0.0030981710674856,0.0075835315865391,0.0030981710674948,23.440852624203,0.00010272682099362,0.00010272682099362,0.00010272682099362,2772468.7080588,0.013875928704964
29419200,0.99986150088817,0.015089420853853,0.0041171708294252,0.006855079194997,0.0041171708294308,-0.00074416275284871,0.00074415729137952,-2.2789186616157e-09,-2.2789796133469e-09,-3.3769880418701e-09,-1.6230383238815e-09,-0.00089784017964443,0.00089783464757605,-0.00089784059818271,0.00089783506590487,-0.00089783961018582,0.00089783523867239,-0.00089784001970224,0.00089783564800524,-0.00071519226050565,0.00071518823391128,-0.00071519180701847,0.00071518778034577,4.2552030938193e-10,-1.3487903037938e-09,1.0837361450753e-09,-1.9771641327576e-09,-0.001831161666735,0.0018311607710558,-0.0020771294378355,0.0020771301253676,-0.0020771310635266,0.0020771297527802,-0.0020771306474719,0.0020771301863611,-0.0020771322734209,0.002077129814021,-0.0015562533742571,0.0015562548692321,-0.0015562573120364,0.0015562528464799,-0.0015562542172525,0.001556254004289,-0.0015562569194157,0.0015562532544329,-2.2325888103708e-09,-2.2326490151934e-09,-0.00074416270629774,0.00074415733793524,-3.9453189955952e-09,-9.3741439490209e-10,-0.00089784035137653,0.00089783448418179,-0.00089783935464946,0.0008978354894864,-0.00089784076651481,0.00089783489912743,-0.00089783976395389,0.00089783589856358,-0.00071519155001132,0.00071518803741023,-0.00071519199915877,0.00071518848648439,0.6088157864604,122718,2924,0.0030985848064895,0.0075995531595221,0.0030985848064994,24.779751481744,0.00011343801185395,0.00011343801185395,0.00011343801185395,2627759.8554854,0.013893022627126
30419200,0.99989848217704,0.015089877451474,0.0041173043256146,0.0068552688002395,0.0041173043256202,-0.00075064255409896,0.00075063705516189,-2.287297867736e-09,-2.2873590746174e-09,-3.3247619069273e-09,-1.7070270364076e-09,-0.00089728412081176,0.00089727862047555,-0.00089728452710839,0.00089727902656223,-0.0008972835943306,0.00089727916661979,-0.00089728399210971,0.00089727956421432,-0.00072114420078628,0.00072114008649179,-0.00072114375392874,0.00072113963955509,3.6693127732488e-10,-1.2709139063643e-09,9.7949824223635e-10,-1.8552860464613e-09,-0.0018299588555577,0.0018299579777075,-0.0020804748201212,0.0020804754086287,-0.0020804763708268,0.002080475107396,-0.0020804759843208,0.0020804755110129,-0.0020804775352818,0.0020804752100256,-0.001551263610304,0.00155126494423,-0.0015512673666307,0.0015512631861788,-0.0015512643946465,0.0015512641384672,-0.0015512670019504,0.0015512635658689,-2.2381193260644e-09,-2.2381797946877e-09,-0.00075064250486543,0.00075063710439999,-3.8460471305178e-09,-1.0633143862906e-09,-0.00089728427433214,0.00089727847446143,-0.00089728335194201,0.00089727940512733,-0.00089728467730505,0.00089727887724149,-0.0008972837494228,0.0008972798023807,-0.00072114350911732,0.0007211398845955,-0.00072114395160885,0.00072114032701488,0.51512748248588,122718,2924,0.0031254281711054,0.0075947759396004,0.003125428171115,26.130444606368,0.00012424355685094,0.00012424355685094,0.00012424355685094,2860781.89332,0.013942572754171
31419200,0.99992841956155,0.01509035398972,0.0041174438771453,0.0068554662354239,0.0041174438771509,-0.00075834973292394,0.00075834311050529,-2.7125488169405e-09,-2.7126100100883e-09,-3.6406387141132e-09,-2.263273504548e-09,-0.00090338996979106,0.00090338355944451,-0.00090339045458232,0.00090338404402557,-0.00090338952315857,0.00090338402425895,-0.0009033899985098,0.00090338449942576,-0.00072859936518606,0.00072859426211736,-0.00072859888652753,0.00072859378337945,2.9613374422915e-10,-1.113558134181e-09,8.5858335098563e-10,-1.6509824172087e-09,-0.0018325988418048,0.0018325980475396,-0.0020830269496611,0.0020830274287194,-0.0020830285024903,0.0020830273536966,-0.0020830281470086,0.0020830277244338,-0.0020830297000938,0.0020830276496563,-0.0015545057446511,0.0015545069218259,-0.0015545092305329,0.0015545055281281,-0.0015545064656206,0.0015545061815319,-0.0015545088949355,0.0015545058772967,-2.6677426864833e-09,-2.6678031744296e-09,-0.00075834968808705,0.00075834315534682,-4.1206169255108e-09,-1.6718968856831e-09,-0.00090339011053042,0.00090338342465669,-0.00090338930145147,0.00090338424334545,-0.00090339059237728,0.0009033839063101,-0.00090338977641946,0.00090338471808558,-0.00072859866191272,0.00072859400837303,-0.00072859913661024,0.00072859448299905,0.66479676253865,122718,2924,0.0031574014397199,0.0076057328273565,0.0031574014397296,28.43847840907,0.00014270782727256,0.00014270782727256,0.00014270782727256,2938918.5921016,0.014018517069733
32419200,0.99995029165661,0.015090763960171,0.0041175636528558,0.0068556366544533,0.0041175636528615,-0.00075750392921656,0.00075749893282463,-2.1052948955978e-09,-2.1053558729419e-09,-3.0341856119844e-09,-1.6087825101516e-09,-0.00090856461339749,0.00090855958480003,-0.0009085649877859,0.00090855995897864,-0.00090856414658573,0.00090856006768254,-0.00090856451387168,0.00090856043478438,-0.00072809977937036,0.00072809598681922,-0.0007280993610231,0.00072809556839356,3.1052116890909e-10,-1.1299288634194e-09,8.3429482780687e-10,-1.6285287170362e-09,-0.001838171452894,0.0018381706568172,-0.0020846473493496,0.002084647839339,-0.0020846487296009,0.0020846476040795,-0.0020846483981568,0.0020846479486388,-0.0020846497786654,0.0020846477136263,-0.0015631849758676,0.0015631860888745,-0.0015631883282554,0.0015631846609034,-0.0015631856469057,0.0015631854009772,-0.0015631880170462,0.0015631849839223,-2.0689604557665e-09,-2.0690207254547e-09,-0.00075750389276543,0.00075749896928039,-3.4856744856842e-09,-1.0653978952741e-09,-0.00090856474932718,0.00090855945456781,-0.00090856394506367,0.00090856026636659,-0.00090856512113312,0.0009085598261811,-0.00090856431207579,0.00090856063315153,-0.00072809915751253,0.00072809577210031,-0.00072809957209874,0.00072809618661301,0.7835582016357,122718,2924,0.0031539563447306,0.0076286095796702,0.0031539563447403,29.29543816305,0.0001495635053044,0.0001495635053044,0.0001495635053044,2738411.591552,0.014034762657399
33419200,0.99996549427153,0.015091059178198,0.0041176506171663,0.0068557579438596,0.004117650617172,-0.00075421911924203,0.00075421494935789,-1.7956221854086e-09,-1.7956830962746e-09,-2.7361756923248e-09,-1.2923807726251e-09,-0.00090759302721149,0.00090758871158374,-0.00090759340542654,0.00090758908958923,-0.00090759255395023,0.00090758920095708,-0.00090759292501473,0.00090758957183786,-0.0007251145300741,0.00072511145537338,-0.00072511412138652,0.00072511104660759,3.130901261645e-10,-1.1299059405609e-09,8.343654761192e-10,-1.6259642022038e-09,-0.0018398569237651,0.0018398561303176,-0.0020860649857291,0.0020860654782076,-0.0020860663639557,0.002086065242691,-0.0020860660340784,0.0020860655855547,-0.0020860674125627,0.0020860653502856,-0.001565009579809,0.0015650106921512,-0.0015650129245238,0.0015650092614495,-0.0015650102475653,0.0015650100076282,-0.00156501261494,0.0015650095827666,-1.7607589499345e-09,-1.7608191553305e-09,-0.00075421908423998,0.00075421498436454,-3.186731239754e-09,-7.5301304196846e-10,-0.00090759316372066,0.00090758858071657,-0.00090759235461784,0.00090758939745129,-0.00090759353940052,0.0009075889562039,-0.00090759272541683,0.00090758976802318,-0.00072511392016882,0.00072511124804475,-0.00072511432510338,0.00072511165290574,0.80945760226251,122718,2924,0.0031403525073156,0.0076355102838907,0.0031403525073252,29.317296510537,0.00014973837208429,0.00014973837208429,0.00014973837208429,2587337.9000931,0.014014181330622
34419200,0.99997699913736,0.015091262038163,0.0041177105735677,0.0068558408910218,0.0041177105735733,-0.00075696463986143,0.00075695816455063,-2.6686352872977e-09,-2.6686962295495e-09,-3.5421357196098e-09,-2.2442148936284e-09,-0.00091111651100924,0.00091111024900998,-0.0009111169947053,0.00091111073249644,-0.00091111608868833,0.00091111068786886,-0.00091111656369066,0.00091111116268736,-0.00072780683985887,0.00072780180438216,-0.00072780640472994,0.00072780136917523,2.7464815506974e-10,-1.0521790412114e-09,7.6353822401961e-10,-1.5173610538378e-09,-0.0018455859709385,0.0018455852153612,-0.002091648418961,0.0020916488372309,-0.0020916498744171,0.0020916488114847,-0.0020916495649781,0.0020916491330768,-0.0020916510206919,0.002091649107578,-0.0015702901882214,0.0015702912057587,-0.0015702934267327,0.0015702900156155,-0.0015702908147441,0.0015702905635675,-0.0015702931365631,0.001570290316713,-2.6362366529857e-09,-2.636296886528e-09,-0.00075696460733824,0.00075695819707853,-3.9648683839336e-09,-1.7387084087536e-09,-0.00091111663899371,0.00091111012589759,-0.00091111590239712,0.00091111087189392,-0.00091111712037799,0.000911110607089,-0.00091111637710855,0.00091111134637814,-0.00072780621634745,0.00072780155783508,-0.00072780664793979,0.00072780198935426,0.73398852679862,122718,2924,0.003151772007877,0.0076591875173698,0.0031517720078869,31.48243975648,0.00016705951805184,0.00016705951805184,0.00016705951805184,2541705.1387613,0.014061353311268
35419200,0.9999860222251,0.015091402916887,0.0041177522556288,0.0068558984056237,0.0041177522556344,-0.00076678810712114,0.00076677892526503,-3.6876005716776e-09,-3.6876615951596e-09,-4.3737887430135e-09,-3.5084758557945e-09,-0.00091828858522064,0.0009182801204028,-0.00091828925958646,0.00091828079455898,-0.0009182883083502,0.0009182804122516,-0.00091828897138262,0.0009182810751001,-0.00073737594953325,0.00073736859429428,-0.00073737543930007,0.00073736808398276,1.4222123370952e-10,-7.8001987266361e-10,5.8040889614193e-10,-1.199886220182e-09,-0.0018524110531653,0.0018524104322841,-0.0021002265017173,0.0021002267295481,-0.0021002280526862,0.0021002271550239,-0.0021002277746606,0.0021002274440056,-0.0021002293258865,0.0021002278697276,-0.0015757844925728,0.0015757852961293,-0.0015757873686498,0.0015757847165201,-0.0015757850558303,0.0015757847185899,-0.0015757871061738,0.0015757849889652,-3.657959122698e-09,-3.6580194575312e-09,-0.00076678807739919,0.00076677895499165,-4.7544293896516e-09,-3.0521490881684e-09,-0.00091828869846828,0.00091828000953835,-0.00091828814189402,0.00091828057872482,-0.00091828937094198,0.00091828068181947,-0.00091828880442158,0.00091828124102524,-0.00073737526932264,0.00073736825455359,-0.00073737577664003,0.00073736876179808,0.64952121200813,122718,2924,0.0031925360248413,0.0076874834278852,0.0031925360248511,35.929998192051,0.00020263998553641,0.00020263998553641,0.00020263998553641,2573281.4120782,0.014172711023764
36419200,0.99999179883522,0.015091497516854,0.004117780305827,0.0068559369051946,0.0041177803058326,-0.00077130241685612,0.00077129655058796,-2.4384520638879e-09,-2.4385131568354e-09,-3.1450221577595e-09,-2.1944164770535e-09,-0.00092068641265749,0.00092068079088582,-0.00092068684577059,0.0009206812237891,-0.00092068609954814,0.00092068111476794,-0.00092068652568409,0.00092068154071976,-0.00074169693053565,0.00074169228157369,-0.00074169648667916,0.00074169183763865,1.5914200870323e-10,-8.1555264530886e-10,5.5323736521354e-10,-1.1907561966273e-09,-0.001853886634193,0.0018538859953087,-0.0021027950128006,0.0021027952634133,-0.0021027962426311,0.0021027953561521,-0.0021027959928811,0.0021027956153878,-0.0021027972229681,0.0021027957083727,-0.0015765610956009,0.0015765618158512,-0.0015765637936331,0.0015765611431701,-0.0015765616013458,0.0015765612975374,-0.0015765635595932,0.0015765613859775,-2.4121862581303e-09,-2.4122466503883e-09,-0.00077130239054811,0.00077129657690064,-3.4854609592661e-09,-1.7868547315617e-09,-0.00092068651425978,0.00092068069152967,-0.00092068595089994,0.00092068126330309,-0.00092068694567156,0.00092068112274859,-0.00092068637660735,0.00092068168878316,-0.00074169633484307,0.00074169198995291,-0.00074169677574567,0.00074169243078285,0.68119810794787,122718,2924,0.0032112631049484,0.0076936426010315,0.0032112631049582,37.480642607036,0.00021504514085629,0.00021504514085629,0.00021504514085629,2633396.076607,0.014216932213188
37419200,0.99999521038914,0.015091551176039,0.0041177961515894,0.0068559588728545,0.0041177961515951,-0.00077112044977507,0.00077111617640276,-1.8377855619843e-09,-1.8378465933823e-09,-2.6409888309313e-09,-1.4612844330283e-09,-0.00092208743833947,0.0009220831205947,-0.00092208776100651,0.00092208344305188,-0.00092208704775872,0.00092208352248885,-0.00092208736515993,0.00092208383970596,-0.00074156383947832,0.00074156054697399,-0.00074156344353791,0.00074156015095516,2.2629016522608e-10,-9.6147081693241e-10,5.9639634555985e-10,-1.3098491820654e-09,-0.0018553308285427,0.001855330113554,-0.0021031345248508,0.0021031348389818,-0.0021031356577134,0.0021031347121331,-0.0021031354236419,0.0021031349546005,-0.0021031365567616,0.0021031348279983,-0.0015789305181691,0.0015789312454654,-0.0015789333016229,0.0015789303461488,-0.0015789309916359,0.0015789307607172,-0.0015789330853212,0.0015789305702943,-1.8145290997492e-09,-1.8145894234063e-09,-0.00077112042648325,0.00077111619969925,-2.9588012320945e-09,-1.0836742932681e-09,-0.00092208753508965,0.00092208302716404,-0.00092208690942528,0.00092208365941487,-0.00092208785608555,0.00092208334796717,-0.00092208722658859,0.00092208397635083,-0.00074156330321058,0.00074156029157592,-0.00074156369587468,0.00074156068416706,0.65495763090947,122718,2924,0.0032105260081156,0.0076995696034621,0.0032105260081254,37.680429778921,0.00021664343823137,0.00021664343823137,0.00021664343823137,2581601.8568668,0.014221458602335
38419200,0.9999971713067,0.01509158554408,0.0041178063595081,0.0068559728250583,0.0041178063595137,-0.00077007337017506,0.000770069920029,-1.5245213175085e-09,-1.5245823682818e-09,-2.4529318339453e-09,-1.0067331219942e-09,-0.00092070752762887,0.00092070384322818,-0.00092070779205392,0.00092070410744343,-0.00092070704960226,0.00092070433458547,-0.00092070730942195,0.00092070459422114,-0.00074054430203366,0.00074054176384408,-0.00074054392767673,0.00074054138940864,3.0963778833693e-10,-1.1359714980564e-09,6.7342042752702e-10,-1.474556151557e-09,-0.0018542496636233,0.0018542488607033,-0.002102356977075,0.0021023573756447,-0.0021023581119304,0.0021023570841966,-0.002102357882532,0.0021023573216548,-0.0021023590176443,0.002102357030453,-0.0015775576514584,0.001577558440308,-0.0015775606392316,0.0015775572735278,-0.0015775581151792,0.001577557965736,-0.0015775604301187,0.0015775574901544,-1.5019168929258e-09,-1.5019772366264e-09,-0.00077007334754944,0.00077006994265927,-2.7622866868614e-09,-6.3927984052885e-10,-0.00092070762325013,0.00092070375236946,-0.00092070691357819,0.00092070446768315,-0.00092070788588852,0.00092070401481507,-0.00092070717335153,0.00092070472722913,-0.00074054379080128,0.00074054152641585,-0.00074054416143693,0.00074054189697863,0.7289134629055,122718,2924,0.0032061773498946,0.0076951081851052,0.0032061773499044,37.195900333028,0.00021276720266422,0.00021276720266422,0.00021276720266422,2592275.8491731,0.014208110377424
38880000,0.99999785607127,0.015091597814678,0.0041178100021884,0.0068559778102954,0.004117810002194,-0.00076864732645291,0.00076864332344313,-1.7383327967439e-09,-1.7383909299618e-09,-2.6733586182403e-09,-1.2033098108289e-09,-0.00092109786089188,0.00092109367051213,-0.00092109815696097,0.00092109396640244,-0.00092109737605191,0.00092109416961072,-0.00092109766701819,0.00092109446042709,-0.00073917047246993,0.0007391674602566,-0.00073917011966643,0.00073916710744153,3.2171593712249e-10,-1.1535915173651e-09,6.8585433926778e-10,-1.492104113773e-09,-0.0018557775800508,0.0018557767719365,-0.0021032326597843,0.0021032330693047,-0.0021032338353134,0.0021032328023338,-0.0021032336057457,0.0021032330399158,-0.0021032347815838,0.0021032327731816,-0.0015795211279819,0.0015795219318269,-0.0015795241686751,0.0015795207586816,-0.0015795215920329,0.0015795214571239,-0.0015795239597657,0.0015795209751771,-1.7162571707274e-09,-1.7163149831083e-09,-0.00076864730431693,0.00076864334551883,-2.9833376643175e-09,-8.3633742468543e-10,-0.00092109795726598,0.00092109357917198,-0.00092109724032024,0.00092109430227703,-0.00092109825146249,0.00092109387320476,-0.00092109753109736,0.00092109459284004,-0.00073916998316877,0.00073916724389107,-0.00073917033226959,0.00073916759285846,0.74537476942468,122718,2924,0.0032002808906834,0.007701374884648,0.0032002808905587,37.193644280923,0.00021274915424738,0.00021274915424738,0.00021274915424738,2512300.8112116,0.014202517493554
