time,ASR_ext,ASR_strain,ASR_strain_xx,ASR_strain_yy,ASR_strain_zz,disp_x_101,disp_x_102,disp_x_103,disp_x_104,disp_x_105,disp_x_106,disp_x_p1_neg,disp_x_p1_pos,disp_x_p2_neg,disp_x_p2_pos,disp_x_p3_neg,disp_x_p3_pos,disp_x_p4_neg,disp_x_p4_pos,disp_x_p5_neg,disp_x_p5_pos,disp_x_p6_neg,disp_x_p6_pos,disp_y_101,disp_y_102,disp_y_103,disp_y_104,disp_y_105,disp_y_106,disp_y_p1_neg,disp_y_p1_pos,disp_y_p2_neg,disp_y_p2_pos,disp_y_p3_neg,disp_y_p3_pos,disp_y_p4_neg,disp_y_p4_pos,disp_y_p5_neg,disp_y_p5_pos,disp_y_p6_neg,disp_y_p6_pos,disp_y_p7_neg,disp_y_p7_pos,disp_y_p8_neg,disp_y_p8_pos,disp_z_101,disp_z_102,disp_z_103,disp_z_104,disp_z_105,disp_z_106,disp_z_p1_neg,disp_z_p1_pos,disp_z_p2_neg,disp_z_p2_pos,disp_z_p3_neg,disp_z_p3_pos,disp_z_p4_neg,disp_z_p4_pos,disp_z_p5_neg,disp_z_p5_pos,disp_z_p6_neg,disp_z_p6_pos,humidity,ndof,nelem,strain_xx,strain_yy,strain_zz,temp,thermal_strain_xx,thermal_strain_yy,thermal_strain_zz,vonmises,vstrain
2419200,0,0,0,0,0,0,0,0,0,0,0,0,0,0,0,0,0,0,0,0,0,0,0,0,0,0,0,0,0,0,0,0,0,0,0,0,0,0,0,0,0,0,0,0,0,0,0,0,0,0,0,0,0,0,0,0,0,0,0,0,0,0,0,0,0,0,0,0,0,0,0,0,0,0,0
3419200,0.15879380572751,0.00300641389617,0.00100213796539,0.00100213796539,0.00100213796539,-0.00025701904900474,0.00025700724267435,-4.5179818794938e-09,-4.5179822809645e-09,-3.7957647612421e-09,-5.2127711359568e-09,-0.00026559213949016,0.00026558257826529,-0.00026559307635957,0.00026558351513599,-0.00026559262230349,0.00026558209674433,-0.00026559354217475,0.00026558301661704,-0.00025826931751777,0.00025825933628699,-0.00025826970998977,0.00025825972876056,-4.2327649537744e-10,8.8780425138439e-10,-4.8468173786443e-10,9.3068796181279e-10,-0.00029516296173184,0.00029516340932052,-0.00030031925524117,0.00030031869226848,-0.00030031972266104,0.00030032020142598,-0.00030031975797225,0.00030032016490193,-0.00030032022537496,0.00030032167406939,-0.00028761165367252,0.00028761118640938,-0.00028761086653305,0.00028761313343902,-0.000287611582711,0.00028761125861296,-0.00028761088986312,0.0002876131092984,-4.5255256895135e-09,-4.5255252683316e-09,-0.00025701905657567,0.00025700723510708,-3.7593150333592e-09,-5.2658712660386e-09,-0.0002655921243021,0.00026558258397754,-0.00026559265208592,0.00026558207626264,-0.00026559306242123,0.0002655835221105,-0.00026559357086056,0.0002655829950568,-0.00025826973422179,0.00025825970616051,-0.00025826934435185,0.0002582593162817,0.75746877217741,122718,2924,0.0010703187472567,0.0012290838127442,0.0010703187472643,31.808203940436,0.00016966563152348,0.00016966563152348,0.00016966563152348,2885289.8351463,0.0033754093216
4419200,0.3490970975366,0.0063690096751067,0.0019706931852415,0.0024276233046029,0.0019706931852622,-0.00046672986704646,0.00046670498916671,-1.0337443449669e-08,-1.0337439751111e-08,-9.4430480423248e-09,-1.1491076075852e-08,-0.00049573324084744,0.00049571052329625,-0.0004957355454636,0.00049571282790137,-0.0004957339755758,0.0004957098205658,-0.00049573623444898,0.0004957120794385,-0.00046822659822699,0.0004682044742501,-0.00046822707626176,0.00046820495229312,-2.1552600201976e-10,1.5053742926502e-09,-2.1903055550217e-10,1.4754653287823e-09,-0.0006562795185379,0.00065628078073891,-0.00069145776955716,0.00069145776831318,-0.00069146136181991,0.0006914626103326,-0.00069146136250609,0.00069146261354194,-0.00069146495490556,0.000691467455722,-0.00061202769502989,0.0006120279086159,-0.00061202851613885,0.00061203202794298,-0.00061202768966688,0.00061202791122095,-0.00061202849271778,0.00061203205316628,-1.0329778996953e-08,-1.0329774656365e-08,-0.00046672985915565,0.00046670499706795,-9.4623071917752e-09,-1.1455121030088e-08,-0.00049573324005977,0.00049571052021378,-0.00049573396100898,0.0004957098392684,-0.00049573554462269,0.00049571282479115,-0.00049573621964676,0.00049571209792758,-0.00046822705982878,0.00046820497030609,-0.00046822658329581,0.00046820449373076,0.73992840791513,122718,2924,0.0019428643680131,0.0027306972111684,0.0019428643680348,33.60081445533,0.00018400651564264,0.00018400651564264,0.00018400651564264,4909977.3421953,0.0066383999037123
5419200,0.5488779954816,0.0097252174887876,0.0028329043143169,0.0040594088601327,0.002832904314338,-0.00064778877398062,0.00064778388804968,-1.8165790330645e-09,-1.8165732419658e-09,-2.1065437617436e-09,-1.7343532681688e-10,-0.00070436324097025,0.00070435805296108,-0.00070436438889496,0.00070435920084144,-0.00070436260618914,0.00070435870904629,-0.00070436376267539,0.00070435986550285,-0.00064432280923843,0.00064431887951305,-0.0006443226574819,0.00064431872786184,6.0003022100333e-10,-1.3861062717137e-09,7.0596256782815e-10,-1.4653382620396e-09,-0.0010721605252816,0.0010721597608276,-0.0011602486654313,0.0011602494636386,-0.0011602501165767,0.0011602492875512,-0.0011602500518717,0.0011602493508432,-0.0011602515031702,0.001160249174896,-0.00096923137386615,0.00096923201600529,-0.00096923132871188,0.0009692278118147,-0.00096923149144742,0.00096923189581291,-0.00096923128559898,0.00096922785668947,-1.8014338572116e-09,-1.8014275472867e-09,-0.00064778875860362,0.00064778390343231,-2.172427848144e-09,-7.2629578881661e-11,-0.00070436326811559,0.0007043580438304,-0.00070436254967827,0.00070435874881819,-0.00070436441287269,0.00070435918856283,-0.00070436370804042,0.00070435990717159,-0.00064432261084314,0.00064431877240897,-0.00064432275648827,0.00064431891790653,0.72499638738019,122718,2924,0.002695904495364,0.0044571490787664,0.0026959044953757,36.269537360837,0.0002053562988867,0.0002053562988867,0.0002053562988867,5695957.8237595,0.0098977497498078
6419200,0.70547086866231,0.011857817242492,0.0033256761365898,0.0052064649693024,0.0033256761366,-0.0007354727287651,0.00073546296200095,-3.9669781826866e-09,-3.9670670906271e-09,-4.7465105197441e-09,-4.4219194334849e-09,-0.00081819124858749,0.00081818186887401,-0.00081819160439837,0.00081818222442784,-0.00081819114212598,0.00081818198457177,-0.00081819149463768,0.00081818233683393,-0.00072176480526338,0.00072175676269404,-0.00072176333397753,0.0007217552913571,-1.352305535053e-10,-5.0067088246586e-10,-5.771735612733e-11,-5.6495041556437e-10,-0.0013675209615408,0.0013675203356302,-0.0015121958380198,0.0015121954030806,-0.0015121972719417,0.0015121965992356,-0.0015121972195515,0.0015121966487485,-0.0015121986536903,0.001512197845127,-0.0012042736341597,0.0012042733862845,-0.0012042759144837,0.0012042746885987,-0.0012042737367574,0.0012042732852572,-0.0012042758758715,0.0012042747258975,-3.9726016718488e-09,-3.9726899139177e-09,-0.00073547273483252,0.00073546295593423,-4.8177696246215e-09,-4.3619099719951e-09,-0.00081819127634106,0.00081818184094173,-0.00081819112635798,0.00081818199961513,-0.00081819163306533,0.0008181821974369,-0.00081819147882667,0.00081818235185763,-0.00072176331837367,0.00072175530869591,-0.00072176478793667,0.00072175677827874,0.59839168540088,122718,2924,0.0030606680123363,0.0056814681423306,0.0030606680123376,36.738919804763,0.0002091113584381,0.0002091113584381,0.0002091113584381,5655243.9314661,0.011872976513884
7419200,0.83131608083466,0.013362154589015,0.0036815749799168,0.0059990046291765,0.0036815749799217,-0.00079547882113869,0.00079546974866741,-3.551332208055e-09,-3.5513899554124e-09,-3.9671611546907e-09,-3.8015452496668e-09,-0.0008964516724187,0.00089644351294517,-0.00089645225192249,0.00089644409224346,-0.00089645161980765,0.00089644357208358,-0.00089645219225738,0.00089644414433829,-0.00077329698509009,0.00077328959755349,-0.00077329614256127,0.00077328875500902,-8.3308567451038e-11,-3.0386155050292e-10,-2.8003339340735e-11,-3.4979686288713e-10,-0.0015837231800093,0.0015837228008525,-0.0017758431202688,0.0017758428789111,-0.0017758442976028,0.0017758438867718,-0.0017758442616529,0.0017758439215913,-0.001775845439245,0.0017758449297094,-0.0013718874823332,0.0013718873251278,-0.0013718890131325,0.0013718882668803,-0.0013718875534077,0.0013718872542054,-0.0013718889864405,0.0013718882932739,-3.5517501442652e-09,-3.5518076667433e-09,-0.0007954788215886,0.00079546974821977,-4.0138510498115e-09,-3.7547947478157e-09,-0.00089645168690923,0.00089644349693122,-0.00089645160635995,0.00089644358718369,-0.00089645226653365,0.00089644407638273,-0.00089645217853597,0.00089644415918441,-0.0007732961269012,0.00077328877105072,-0.00077329696779135,0.00077328961190907,0.52694121020036,122718,2924,0.0033103805574317,0.0065767279301568,0.0033103805574363,40.765245579191,0.00024132196463353,0.00024132196463353,0.00024132196463353,5380151.8446318,0.013285315203665
8419200,0.90734021417429,0.014180109763306,0.0038802007144448,0.006419708334411,0.0038802007144501,-0.00081487876296553,0.00081487287874628,-2.3790237781239e-09,-2.3790842384092e-09,-2.9446529492983e-09,-2.4360921157345e-09,-0.00092929530414125,0.00092928979700132,-0.00092929565444705,0.00092929014709099,-0.00092929513374119,0.00092928997286046,-0.00092929548052174,0.00092929031943564,-0.00078832364643079,0.00078831890718007,-0.00078832291446102,0.00078831817519826,2.6737279959156e-11,-5.0831895802829e-10,8.2831516848136e-11,-5.5120479130728e-10,-0.0017028796618392,0.0017028791922325,-0.0019212127771853,0.001921212687629,-0.0019212137896868,0.0019212132902083,-0.0019212137543125,0.0019212133243102,-0.001921214767063,0.001921213927138,-0.0014633376117495,0.0014633375551692,-0.0014633393502024,0.0014633381045408,-0.0014633376816252,0.0014633374856119,-0.0014633393264148,0.0014633381278852,-2.3800856436938e-09,-2.3801479188943e-09,-0.00081487876405023,0.00081487287765993,-2.9893992538754e-09,-2.3927684208227e-09,-0.0009292953197615,0.00092928978138932,-0.00092929512029082,0.00092928998632284,-0.00092929566999208,0.00092929013143627,-0.00092929546709018,0.00092929033293811,-0.00078832289989221,0.00078831818983594,-0.00078832362950366,0.00078831891943011,0.47156008474719,122718,2924,0.0033913216607639,0.0070697234312874,0.0033913216607604,41.433880228612,0.0002466710418289,0.0002466710418289,0.0002466710418289,4907138.7377973,0.013949199457516
9419200,0.94943773851069,0.014573618342976,0.0039788400645784,0.006615938213815,0.003978840064583,-0.0008166032789976,0.00081659881502046,-1.8457915264241e-09,-1.8458529469011e-09,-2.5744578623497e-09,-1.6903546862364e-09,-0.00093970843286527,0.00093970407610448,-0.00093970869840035,0.00093970434142342,-0.00093970813813588,0.00093970437870215,-0.00093970840110174,0.00093970464146255,-0.00078782677772477,0.00078782331113561,-0.00078782613809405,0.00078782267148842,1.3681453570397e-10,-7.581048466232e-10,2.1835787484622e-10,-8.2166103387825e-10,-0.0017615702668554,0.0017615696620854,-0.0019933253035635,0.0019933253455994,-0.00199332628261,0.0019933256337783,-0.0019933262319896,0.0019933256838081,-0.0019933272112848,0.0019933259722357,-0.0015074742538742,0.0015074743372846,-0.0015074763148588,0.0015074744170432,-0.0015074743546337,0.0015074742361009,-0.0015074762791332,0.0015074744528183,-1.8444433620067e-09,-1.8445067126155e-09,-0.00081660327766589,0.00081659881635213,-2.6373927189922e-09,-1.6231898932769e-09,-0.00093970845493449,0.00093970405603877,-0.00093970811371155,0.0009397044012379,-0.0009397087200686,0.00093970432098317,-0.00093970837693508,0.00093970466427226,-0.00078782611372272,0.00078782269570241,-0.00078782675033778,0.00078782333229915,0.40621133923259,122718,2924,0.0033987241657134,0.0073124122506036,0.0033987241657132,41.145168416702,0.00024436134733361,0.00024436134733361,0.00024436134733361,4491109.9732663,0.01421037576947
10419200,0.97049670717225,0.014787494772875,0.0040350232751103,0.0067174482226498,0.0040350232751147,-0.00081155244758623,0.00081155130922259,-5.7611296357825e-10,-5.7617484091039e-10,-1.6461574214711e-09,-1.9921499000116e-11,-0.00093870766044837,0.0009387060013456,-0.00093870769465718,0.00093870603533669,-0.0009387071189668,0.00093870655479237,-0.00093870715366274,0.00093870658928169,-0.00078222232998027,0.0007822218128494,-0.00078222178094625,0.00078222126379986,3.505971572328e-10,-1.2508733777652e-09,4.9740535613721e-10,-1.3702321630539e-09,-0.0017869609120272,0.0017869600371348,-0.0020248787315663,0.0020248790418047,-0.0020248796583304,0.0020248787014054,-0.0020248795679556,0.0020248787929916,-0.0020248804949685,0.0020248784528407,-0.0015257819877622,0.0015257823693177,-0.0015257847147059,0.0015257815016298,-0.0015257821689553,0.0015257821856387,-0.0015257846457721,0.0015257815720385,-5.6854032148344e-10,-5.686039715978e-10,-0.00081155244002775,0.00081155131678018,-1.7580624536929e-09,1.1098316355984e-10,-0.00093870769902873,0.00093870596904217,-0.00093870706652805,0.00093870660141087,-0.00093870773209126,0.00093870600191291,-0.00093870710188289,0.00093870663657637,-0.00078222173084088,0.00078222131328284,-0.00078222227559136,0.0007822218580165,0.43665130715676,122718,2924,0.0033778887038113,0.0074173695373529,0.0033778887038094,38.097238524173,0.00021997790819339,0.00021997790819339,0.00021997790819339,4287878.7506902,0.014274591755455
11419200,0.98265947377828,0.014902280753479,0.0040654900522668,0.0067713006489408,0.0040654900522711,-0.00080776535530656,0.00080776154898448,-1.6027804112432e-09,-1.6028422796662e-09,-2.7101129336767e-09,-9.9874280438701e-10,-0.00094108219704314,0.00094107814614009,-0.00094108244626038,0.0009410783951404,-0.00094108163637382,0.0009410787247695,-0.00094108188123873,0.00094107896942774,-0.00077823293413027,0.00077823027075518,-0.0007782323841082,0.0007782297207177,3.974199854746e-10,-1.3172599544067e-09,6.1693211420621e-10,-1.5078119852612e-09,-0.0018062901029565,0.0018062892098004,-0.0020457845725385,0.0020457849552211,-0.0020457857990284,0.0020457847768537,-0.0020457856625082,0.0020457849168781,-0.0020457868892462,0.0020457847387597,-0.0015423860622021,0.0015423866515059,-0.0015423891049247,0.0015423855826721,-0.0015423863368949,0.0015423863716184,-0.0015423889912865,0.0015423856996964,-1.5886870103347e-09,-1.5887506653166e-09,-0.00080776534119481,0.00080776156309543,-2.8850724629872e-09,-7.8884924776866e-10,-0.00094108225392697,0.00094107809652703,-0.00094108155367176,0.00094107880112538,-0.00094108250158069,0.00094107834398978,-0.00094108179914666,0.0009410790464104,-0.00077823230373014,0.0007782298005974,-0.0007782328492689,0.00077823034611819,0.40445605707229,122718,2924,0.0033622773539342,0.0074971789851253,0.0033622773539324,37.627643625089,0.00021622114900071,0.00021622114900071,0.00021622114900071,3996239.2021277,0.014323910120922
12419200,0.98963548371222,0.014976556015164,0.0040857590655786,0.0068050378840028,0.0040857590655828,-0.00080536419670682,0.00080536085245579,-1.4311038114594e-09,-1.4311657739662e-09,-2.5893260826909e-09,-7.6363363672246e-10,-0.00094024984680995,0.00094024616660911,-0.00094025006594619,0.0009402463855286,-0.00094024924839989,0.00094024678386053,-0.00094024946331935,0.00094024699857348,-0.00077581917020197,0.00077581691767555,-0.00077581864016536,0.00077581638762346,4.2918501851582e-10,-1.3946682613714e-09,7.0872200032349e-10,-1.6436645404118e-09,-0.0018156788348594,0.0018156778975534,-0.0020572638467822,0.0020572643005593,-0.0020572650962606,0.0020572639915652,-0.0020572649218677,0.0020572641714385,-0.0020572661715944,0.0020572638626928,-0.0015491615358008,0.0015491622671458,-0.0015491647755656,0.0015491609495083,-0.0015491618875975,0.001549161907812,-0.0015491646250527,0.0015491611050687,-1.4112187980432e-09,-1.4112825528456e-09,-0.00080536417678587,0.00080536087237589,-2.8153390371191e-09,-4.8859014667846e-10,-0.00094024991817093,0.00094024610335507,-0.00094024914062845,0.00094024688484691,-0.00094025013537767,0.00094024632037071,-0.00094024935612653,0.0009402471001551,-0.00077581853456797,0.00077581649268659,-0.00077581905990699,0.00077581701800753,0.45322610794666,122718,2924,0.0033523622592102,0.0075359767278789,0.0033523622592084,36.803360831469,0.00020962688665175,0.00020962688665175,0.00020962688665175,3894012.4417488,0.01434315896063
13419200,0.99353155361565,0.015014575212774,0.0040961401066287,0.0068222949995119,0.0040961401066329,-0.00079796009642675,0.00079795810277361,-9.2853845198987e-10,-9.2860032686285e-10,-2.1850210841388e-09,-1.1844629084124e-10,-0.00093706320172966,0.00093706058213925,-0.0009370633348859,0.00093706071507895,-0.00093706252302052,0.00093706128091167,-0.00093706265285978,0.00093706141054443,-0.000768489902126,0.00076848880819575,-0.00076848941908272,0.00076848832513733,5.1438141753019e-10,-1.5377218656525e-09,8.5470212596616e-10,-1.8446209734484e-09,-0.0018205686052399,0.0018205676127383,-0.0020618661294031,0.0020618667294373,-0.0020618673586443,0.0020618661603086,-0.0020618671459883,0.0020618663801617,-0.0020618683754781,0.0020618658112826,-0.0015535413887056,0.0015535423257763,-0.0015535448837452,0.0015535405869211,-0.0015535418177832,0.0015535418871397,-0.0015535446970199,0.0015535407801177,-9.0449904214572e-10,-9.0456274965539e-10,-0.00079796007230857,0.00079795812689087,-2.4636321614933e-09,2.1970791252721e-10,-0.00093706328965281,0.00093706050375207,-0.00093706239109146,0.00093706140495221,-0.00093706342050497,0.00093706063441333,-0.00093706252155816,0.00093706153522923,-0.00076848928982561,0.00076848845374668,-0.00076848976786619,0.0007684889317686,0.4150894025916,122718,2924,0.0033216903133234,0.0075560974102558,0.0033216903133214,34.792408622778,0.00019353926898222,0.00019353926898222,0.00019353926898222,3711715.3404371,0.014301370216292
14419200,0.99578127689162,0.015034892007329,0.0041017360424769,0.0068314199223713,0.0041017360424811,-0.00079245082435973,0.00079244905210943,-8.428387763282e-10,-8.4290071776558e-10,-2.2020465248009e-09,7.2300411624995e-11,-0.00093121541016761,0.00093121293876409,-0.00093121552672912,0.00093121305510886,-0.00093121466455702,0.00093121370700842,-0.00093121477754155,0.00093121381978644,-0.00076291222135969,0.00076291138032864,-0.00076291174766465,0.00076291090661855,5.735473950796e-10,-1.682876165553e-09,9.802827146242e-10,-2.0531610978672e-09,-0.0018193412120509,0.0018193401363878,-0.0020623977037978,0.0020623983997182,-0.0020623990162754,0.002062397692979,-0.00206239876205,0.0020623979566745,-0.0020624000747757,0.0020623972501837,-0.0015504544846936,0.0015504555989879,-0.0015504583027473,0.0015504535268702,-0.001550454998524,0.0015504550729517,-0.0015504580764296,0.0015504537615218,-8.1202137473087e-10,-8.1208518545796e-10,-0.00079245079345345,0.00079244908301478,-2.5356253984434e-09,4.8182406284827e-10,-0.00093121551397594,0.000931212846103,-0.00093121450435412,0.00093121385815216,-0.00093121562774595,0.00093121295968196,-0.00093121461801303,0.0009312139716211,-0.00076291159039751,0.00076291106313402,-0.00076291205864248,0.00076291153136078,0.38312450045663,122718,2924,0.0032988273422214,0.0075510371923577,0.0032988273422194,32.641569365174,0.00017633255492139,0.00017633255492139,0.00017633255492139,3699864.8148761,0.014249856953975
15419200,0.99695265540109,0.015049043935688,0.0041056995614175,0.0068376448128484,0.0041056995614217,-0.00078035609034825,0.00078035810221701,5.9699403031386e-10,5.9693202381203e-10,-1.0857311292861e-09,1.8945394705608e-09,-0.00091918641160754,0.00091918701429009,-0.00091918625719584,0.00091918685966166,-0.00091918543025104,0.00091918802163486,-0.00091918527584267,0.00091918786702008,-0.00075082010649348,0.00075082256562779,-0.00075081970895817,0.00075082216807716,7.8316556106499e-10,-2.1404619982964e-09,1.2869386423196e-09,-2.5988089337004e-09,-0.0018110678073252,0.0018110664920727,-0.0020550819957303,0.0020550829896236,-0.0020550832355899,0.0020550816137202,-0.0020550829213618,0.0020550819403309,-0.0020550841614691,0.002055080564676,-0.0015411150098728,0.0015411164883816,-0.0015411195023586,0.0015411134305484,-0.0015411156453288,0.0015411158373507,-0.0015411192221041,0.0015411137214983,6.3684035130265e-10,6.3677653507572e-10,-0.00078035605040047,0.00078035814216384,-1.496736079299e-09,2.4032478481191e-09,-0.00091918653988596,0.00091918690147265,-0.00091918522900936,0.00091918821006879,-0.00091918638179709,0.00091918674319289,-0.0009191850755963,0.00091918805646574,-0.00075081951256135,0.0007508223632744,-0.00075081990345807,0.00075082275415263,0.51103778709309,122718,2924,0.0032486203112677,0.0075168245009884,0.0032486203112656,27.063822316272,0.00013171057853018,0.00013171057853018,0.00013171057853018,3720408.3233577,0.014113323664866
16419200,0.99770480807782,0.015057303762798,0.0041079879738515,0.0068413278150908,0.0041079879738557,-0.00076991102575391,0.00076990982218807,-6.381472160553e-10,-6.3820900157367e-10,-2.3032193703708e-09,6.4044645377105e-10,-0.00091480647538385,0.00091480422036354,-0.00091480657336432,0.00091480431812758,-0.00091480551505627,0.00091480521141789,-0.00091480560797316,0.00091480530412869,-0.00074070975985338,0.00074070958310851,-0.00074070933153324,0.00074070915477414,8.2241881308156e-10,-2.098816853674e-09,1.4068717914443e-09,-2.6382846017458e-09,-0.0018124492030419,0.001812447968079,-0.0020540056814284,0.0020540067703304,-0.0020540072587745,0.0020540056636445,-0.0020540068925059,0.0020540060442866,-0.0020540084701008,0.0020540049378508,-0.0015439108966692,0.0015439126256205,-0.0015439156341724,0.0015439094857489,-0.0015439116366184,0.0015439118677129,-0.001543915302276,0.0015439098300155,-5.9572032044725e-10,-5.9578395679732e-10,-0.00076991098310093,0.00076990986484002,-2.7914515377775e-09,1.2341029372129e-09,-0.00091480662839943,0.00091480408294845,-0.00091480528436757,0.00091480542950765,-0.000914806722479,0.00091480417683769,-0.00091480537815446,0.00091480552310532,-0.00074070910549166,0.00074070937976871,-0.00074070952739394,0.0007407098016523,0.46538451425637,122718,2924,0.0032053172349577,0.0075223800941065,0.0032053172349555,24.415510256785,0.00011052408205428,0.00011052408205428,0.00011052408205428,3485422.5091156,0.0140311682349
17419200,0.99820995076507,0.015063594510934,0.0041097637307801,0.0068440670493694,0.0041097637307843,-0.0007637149872551,0.00076371359157026,-7.0879749662375e-10,-7.0885940354917e-10,-2.3635353079956e-09,5.4313370272644e-10,-0.00090695246441218,0.00090695009350037,-0.00090695257000948,0.00090695019888118,-0.00090695151667479,0.00090695107237973,-0.00090695161689658,0.00090695117239552,-0.00073446336437075,0.0007344630285626,-0.00073446292894159,0.00073446259311882,7.9080351549543e-10,-2.0936972055758e-09,1.4397938821087e-09,-2.6975212103434e-09,-0.0018080901432555,0.0018080888820422,-0.0020519042074587,0.0020519052872015,-0.0020519058273354,0.0020519041643361,-0.0020519054205469,0.0020519045882813,-0.0020519070406718,0.0020519034656648,-0.0015373544054057,0.0015373562116327,-0.0015373592553341,0.0015373530018075,-0.0015373552289909,0.0015373553668771,-0.0015373588824813,0.0015373533892964,-6.5796699773634e-10,-6.5803077087635e-10,-0.00076371493620583,0.00076371364261846,-2.9052219084943e-09,1.2104348533393e-09,-0.00090695263074981,0.00090694994316394,-0.00090695125737574,0.00090695131920901,-0.00090695273203339,0.00090695004425676,-0.00090695135835095,0.00090695141999448,-0.00073446267343495,0.00073446284760264,-0.00073446310229957,0.00073446327644877,0.52521873377382,122718,2924,0.0031795816712662,0.007504402656531,0.0031795816712639,21.977654558859,9.1021236470873e-05,9.1021236470873e-05,9.1021236470873e-05,3513781.6329795,0.013960736518976
18419200,0.99852387566592,0.015067350078478,0.0041108181596521,0.0068457137591694,0.0041108181596563,-0.00075107027488509,0.00075107107218556,1.110326088609e-10,1.1097077265649e-10,-1.6246630188162e-09,1.4971722244457e-09,-0.00089714509403788,0.00089714451093001,-0.00089714505105949,0.0008971444677351,-0.00089714407199219,0.0008971455635342,-0.00089714402573746,0.00089714551707356,-0.00072191605683443,0.00072191755165712,-0.00072191567824629,0.00072191717305431,8.6924872263644e-10,-2.2102471163795e-09,1.572329744288e-09,-2.865967798004e-09,-0.0018030597641937,0.0018030584669196,-0.0020463108302091,0.002046312057961,-0.0020463123407176,0.002046310607187,-0.0020463118996402,0.0020463110666999,-0.0020463134103976,0.0020463096161757,-0.0015323883473518,0.0015323903411864,-0.0015323933719405,0.0015323867231794,-0.0015323892398517,0.0015323894259906,-0.0015323929663862,0.0015323871444565,1.6395877233382e-10,1.6389508107366e-10,-0.00075107022168209,0.0007510711253876,-2.2153169561465e-09,2.2193016348584e-09,-0.00089714527657388,0.00089714434541081,-0.00089714379269631,0.00089714582957204,-0.00089714522902329,0.00089714429766942,-0.00089714374722612,0.00089714578391258,-0.00072191540316347,0.00072191744698561,-0.00072191577503031,0.00072191781883416,0.50516361584657,122718,2924,0.0031271131322893,0.0074835272691832,0.0031271131322873,17.481377151221,5.5051017209771e-05,5.5051017209771e-05,5.5051017209771e-05,3407123.1075531,0.013833194262062
19419200,0.99878375467235,0.01507138459496,0.0041119681706815,0.0068474482535925,0.0041119681706857,-0.00075019278093751,0.00075018927736602,-1.5173597784632e-09,-1.5174216335596e-09,-3.200205195678e-09,-1.4200499540369e-10,-0.00089580256538452,0.00089579824461455,-0.00089580251809857,0.00089579819711223,-0.00089580156667047,0.0008957992742116,-0.00089580151611359,0.00089579922344881,-0.00072114708339224,0.00072114483463032,-0.00072114670138924,0.0007211444526129,8.6590755505975e-10,-2.2315818927638e-09,1.5744941836952e-09,-2.8924174759845e-09,-0.0018034463668787,0.0018034450453337,-0.002047113047103,0.0020471142665225,-0.0020471145604032,0.0020471127993433,-0.0020471141160409,0.0020471132624959,-0.0020471156295896,0.002047111795566,-0.0015324186947044,0.0015324206864368,-0.0015324237593424,0.0015324170522454,-0.0015324195942703,0.0015324197639256,-0.0015324233506234,0.0015324174768623,-1.4626874519612e-09,-1.4627511675e-09,-0.00075019272602205,0.00075018933228032,-3.7938218516996e-09,5.8701420668143e-10,-0.00089580274810505,0.00089579807912641,-0.00089580128400981,0.00089579954344234,-0.00089580269619106,0.00089579802702185,-0.00089580123424929,0.00089579949349246,-0.00072114642293728,0.00072114472992322,-0.00072114679813448,0.00072114510510178,0.65325215552176,122718,2924,0.0031234567268865,0.0074851361565062,0.003123456726884,17.551542315392,5.5612338523139e-05,5.5612338523139e-05,5.5612338523139e-05,3391035.9606775,0.013827406609626
20419200,0.999009912428,0.015075146268274,0.0041130387374891,0.006849068793292,0.0041130387374933,-0.00074743948958618,0.00074743452918305,-2.0812295335741e-09,-2.0812912486937e-09,-3.7461502618924e-09,-7.2581046490028e-10,-0.00089667896045266,0.00089667337686648,-0.00089667917464819,0.00089667359084598,-0.00089667797683895,0.00089667439389002,-0.00089667818453116,0.00089667460137673,-0.00071865138900071,0.00071864788280016,-0.00071865116262284,0.00071864765640864,8.744971625649e-10,-2.1685783895658e-09,1.5863674469752e-09,-2.8335055958785e-09,-0.0018090815542313,0.0018090803033932,-0.0020524471252513,0.0020524483556899,-0.0020524489181105,0.0020524472248713,-0.0020524484712159,0.0020524476903517,-0.0020524502643241,0.0020524465597831,-0.0015381970282351,0.0015381990668585,-0.0015382023027251,0.00153819573133,-0.0015381979321445,0.0015381981398014,-0.0015382018913168,0.001538196158764,-2.030657060703e-09,-2.0307206425548e-09,-0.00074743943869276,0.00074743458007484,-4.3486845130555e-09,3.7085611067391e-12,-0.00089667914835058,0.00089667320572439,-0.00089667769676657,0.00089667466097645,-0.00089667935800648,0.00089667341519013,-0.0008966779051987,0.00089667486921956,-0.00071865088669127,0.00071864793130811,-0.00071865110641258,0.00071864815100997,0.70012779305902,122718,2924,0.0031120750159952,0.0075083405944882,0.0031120750159917,18.59652393431,6.3972191474477e-05,6.3972191474477e-05,6.3972191474477e-05,3142313.5575908,0.013827875551628
21419200,0.99916380089807,0.015077527830107,0.0041137209232416,0.0068500859836201,0.0041137209232457,-0.00073672447214924,0.00073672411267038,-3.482497054054e-10,-3.4831150534099e-10,-2.0596288456772e-09,1.033761867814e-09,-0.00088806306843316,0.00088806145918646,-0.00088806311404463,0.00088806150458175,-0.00088806205842702,0.00088806250101556,-0.00088806209902825,0.00088806254141132,-0.00070784277153614,0.00070784328374212,-0.00070784242182571,0.00070784293401811,8.815047296356e-10,-2.1816195593729e-09,1.639873522519e-09,-2.8928431974496e-09,-0.0018065770358543,0.0018065757792607,-0.0020499744515086,0.0020499757342178,-0.0020499760705412,0.0020499743413669,-0.0020499755941039,0.0020499748378802,-0.0020499772133853,0.0020499734452793,-0.0015345994409045,0.0015346015775159,-0.0015346045769993,0.0015345978811811,-0.0015346004050416,0.0015346005887602,-0.0015346041360402,0.0015345983392019,-2.941589504401e-10,-2.9422254543849e-10,-0.00073672441771636,0.0007367241671013,-2.7032762091498e-09,1.8133092502519e-09,-0.00088806326830298,0.00088806127616582,-0.00088806175997491,0.0008880627866014,-0.00088806330924135,0.00088806131691414,-0.00088806180123552,0.00088806282767265,-0.00070784212721723,0.00070784322757545,-0.00070784247036184,0.00070784357070099,0.64990944923705,122718,2924,0.003067628687243,0.00749794032529,0.0030676286872389,15.228151459005,3.702521167204e-05,3.702521167204e-05,3.702521167204e-05,3077546.9490993,0.013727227094688
22419200,0.99929117181941,0.015079552780447,0.0041143047816108,0.0068509432172213,0.004114304781615,-0.00073517396059644,0.00073517082214334,-1.3942663491679e-09,-1.3943282217182e-09,-3.0701738481769e-09,-2.3888272141448e-11,-0.00088512241800151,0.00088511841634669,-0.00088512245838939,0.00088511845651845,-0.00088512142504309,0.00088511944136454,-0.00088512146047085,0.00088511947658663,-0.00070636821376595,0.00070636631300797,-0.00070636786017838,0.0007063659594065,8.6653117968492e-10,-2.2015572107031e-09,1.628722571467e-09,-2.9163834583108e-09,-0.0018052983550298,0.0018052970637992,-0.0020493755394233,0.0020493767939711,-0.0020493771572571,0.0020493753912972,-0.0020493766786598,0.0020493758904045,-0.002049378296742,0.0020493744879798,-0.0015327817900027,0.0015327839024924,-0.0015327869498388,0.0015327802055444,-0.001532782759194,0.0015327829084814,-0.0015327865066411,0.0015327806659502,-1.3372603102919e-09,-1.3373239810821e-09,-0.00073517390331458,0.00073517087942384,-3.7138769854015e-09,7.6205223225847e-10,-0.00088512261636749,0.00088511823505094,-0.00088512112275087,0.00088511973063194,-0.00088512265201517,0.00088511827050845,-0.00088512115884397,0.0008851197665357,-0.00070636756163025,0.00070636625690823,-0.00070636790856943,0.0007063666038282,0.6664256214451,122718,2924,0.0030611664729428,0.0074926875301356,0.0030611664729399,14.859289245314,3.4074313962511e-05,3.4074313962511e-05,3.4074313962511e-05,3098543.9380892,0.01370879028344
23419200,0.99940427272885,0.015081247808642,0.0041147920548851,0.006851663698868,0.0041147920548893,-0.00073531314896221,0.00073530849271211,-1.9695824647915e-09,-1.9696443278827e-09,-3.6265535218124e-09,-6.2071019593547e-10,-0.00088544920099152,0.00088544390285497,-0.00088544940612535,0.00088544410777266,-0.00088544822338636,0.00088544491425277,-0.00088544842154454,0.00088544511220523,-0.00070646871822081,0.00070646550998999,-0.00070646845542009,0.0007064652471754,8.5259213724839e-10,-2.175103965361e-09,1.6172226292529e-09,-2.8929553723757e-09,-0.0018077311700764,0.0018077298907821,-0.0020524065684819,0.0020524077937208,-0.0020524083682529,0.0020524066122955,-0.002052407887953,0.0020524071132519,-0.0020524096879722,0.0020524059320757,-0.001534744594133,0.0015347467005534,-0.0015347498964109,0.0015347432119625,-0.0015347455667201,0.0015347457028374,-0.001534749451254,0.0015347436745413,-1.9125707122923e-09,-1.9126343725093e-09,-0.00073531309168311,0.00073530854998975,-4.273360648942e-09,1.6847816244326e-10,-0.00088544940028802,0.00088544372048528,-0.00088544792026167,0.00088544520454971,-0.00088544960065884,0.00088544392066586,-0.00088544811905422,0.00088544540315293,-0.00070646815584754,0.0007064655457702,-0.00070646841201235,0.00070646580191571,0.62875729639221,122718,2924,0.0030617469148817,0.0075027463698434,0.0030617469148786,15.705083428925,4.0840667431398e-05,4.0840667431398e-05,4.0840667431398e-05,3037623.0802706,0.01372016604138
24419200,0.99951103435038,0.015082935949961,0.0041152799555414,0.0068523760388739,0.0041152799555456,-0.00073971885045526,0.00073971253417449,-2.5855480347658e-09,-2.5856099383467e-09,-4.0178944249767e-09,-1.5966809581398e-09,-0.00088822605487823,0.00088821957431361,-0.00088822651780474,0.00088822003702441,-0.00088822527470033,0.00088822038655397,-0.00088822572625757,0.00088822083790531,-0.0007104686020893,0.00071046409449062,-0.00071046813401048,0.00071046362639778,6.5302285315891e-10,-1.796059211624e-09,1.420981975329e-09,-2.5249590815862e-09,-0.0018119608524059,0.0018119597454344,-0.0020586780307521,0.002058679009785,-0.0020586800062849,0.0020586784169216,-0.0020586795225881,0.0020586789220258,-0.0020586814983686,0.0020586783294103,-0.0015370358659678,0.0015370377992924,-0.001537040719195,0.0015370349495507,-0.0015370368464502,0.0015370367925596,-0.0015370402652542,0.0015370354217932,-2.5259839030874e-09,-2.5260476237585e-09,-0.00073971879065548,0.00073971259397317,-4.6716413359463e-09,-7.9454423208124e-10,-0.0008882262520261,0.00088821939077975,-0.00088822496924958,0.00088822068272324,-0.00088822671042187,0.0008882198489854,-0.00088822542097615,0.00088822113426043,-0.00071046782933553,0.00071046393067521,-0.00071046829160999,0.00071046439293044,0.66255127740754,122718,2924,0.0030800395581363,0.0075202891077503,0.003080039558134,17.879932137601,5.8239457100806e-05,5.8239457100806e-05,5.8239457100806e-05,3045708.5009875,0.013775030939629
25419200,0.99960837224532,0.015084749242416,0.0041158061831407,0.0068531368761306,0.0041158061831449,-0.00074247370413578,0.00074246749914994,-2.5452858590289e-09,-2.5453477271171e-09,-3.9580499066232e-09,-1.5771109446667e-09,-0.00089196391060418,0.0008919575374545,-0.00089196437513453,0.00089195800176883,-0.00089196314298876,0.00089195833637873,-0.00089196359626837,0.00089195878945265,-0.00071320000005946,0.00071319557368823,-0.0007131995346705,0.00071319510828561,6.4333208799925e-10,-1.763434117357e-09,1.4098317751953e-09,-2.4915675011467e-09,-0.0018168352557671,0.0018168341710725,-0.0020633977243221,0.0020633986974899,-0.002063399684869,0.0020633981183144,-0.0020633992018382,0.0020633986225547,-0.0020634011626333,0.0020633980436281,-0.0015419906419446,0.0015419925677673,-0.0015419954490502,0.001541989759383,-0.0015419916207879,0.0015419915627295,-0.0015419949954035,0.0015419902313013,-2.4872834054199e-09,-2.4873470798717e-09,-0.00074247364587238,0.00074246755741151,-4.6127800183838e-09,-7.7733056174209e-10,-0.00089196410868653,0.00089195735259996,-0.000891962839529,0.00089195863092318,-0.00089196456874968,0.00089195781247284,-0.00089196329293323,0.00089195908413826,-0.00071319923183347,0.00071319541076966,-0.00071319969153628,0.0007131958704531,0.77991302017262,122718,2924,0.003091496486696,0.0075404215655546,0.0030914964866921,19.925008522594,7.460006818075e-05,7.460006818075e-05,7.460006818075e-05,2964029.5689821,0.013818677633787
26419200,0.99968819131247,0.015086331604474,0.0041162667133983,0.0068537981776728,0.0041162667134024,-0.00074012585611593,0.00074012116973372,-1.9728202633643e-09,-1.9728820476989e-09,-3.3878556995177e-09,-1.0138434553078e-09,-0.0008922034520492,0.00089219840959072,-0.00089220391391842,0.00089219887124398,-0.00089220268513946,0.00089219920689591,-0.00089220313599661,0.0008921996575475,-0.0007111098248112,0.00071110670654833,-0.00071110936662101,0.00071110624834469,6.4216539519974e-10,-1.7287147612742e-09,1.4072350685229e-09,-2.4560094867725e-09,-0.0018200500909872,0.0018200490392744,-0.0020660901302008,0.0020660911131358,-0.002066092069139,0.0020660905360648,-0.0020660915866844,0.0020660910393816,-0.002066093525871,0.0020660904625599,-0.0015455552451854,0.0015455571783434,-0.0015455599997619,0.0015455543923966,-0.0015455562223562,0.0015455561751307,-0.0015455595464474,0.0015455548638867,-1.91804430921e-09,-1.9181079046349e-09,-0.00074012580102381,0.00074012122482433,-4.0453865017487e-09,-2.1806532614276e-10,-0.00089220365266665,0.00089219822172958,-0.00089220238518394,0.00089219949832773,-0.0008922041101894,0.00089219867906219,-0.00089220283612536,0.00089219994908004,-0.00071110906725141,0.00071110654743172,-0.00071110951989719,0.00071110700005763,0.82922923068302,122718,2924,0.0030817890020278,0.0075536393325213,0.0030817890020246,20.393758758728,7.8350070069821e-05,7.8350070069821e-05,7.8350070069821e-05,2796283.6811984,0.013812409543879
27419200,0.99975779972669,0.01508757682183,0.0041166302798877,0.0068543162620504,0.0041166302798919,-0.00074158952919661,0.00074158350401286,-2.4893414821279e-09,-2.4894032623133e-09,-3.7204388263793e-09,-1.6868972775343e-09,-0.00089548053067942,0.00089547441556358,-0.00089548097903995,0.00089547486370831,-0.00089547987291157,0.00089547509938052,-0.00089548031121779,0.00089547553748124,-0.00071256831674768,0.00071256389641761,-0.0007125678798762,0.00071256345953254,5.3741415760168e-10,-1.5203572341889e-09,1.2813016515258e-09,-2.2308788220657e-09,-0.0018262164378035,0.00182621548569,-0.0020713945403019,0.0020713954079215,-0.0020713963423304,0.0020713949206618,-0.00207139587249,0.0020713954107121,-0.002071397674767,0.0020713949237019,-0.0015518541998802,0.0015518559894203,-0.0015518586046113,0.0015518535454912,-0.0015518551517499,0.0015518550125918,-0.0015518581605874,0.0015518540069283,-2.4366932153272e-09,-2.4367568139873e-09,-0.00074158947624045,0.00074158355696761,-4.3630418463312e-09,-9.1113928463187e-10,-0.00089548072573954,0.00089547423121002,-0.00089547958237776,0.00089547538324432,-0.00089548117012861,0.00089547467540925,-0.00089548002058968,0.00089547582126734,-0.00071256758879686,0.00071256375039335,-0.00071256802080649,0.00071256418238291,0.74718867332313,122718,2924,0.0030878965033524,0.0075790974714345,0.0030878965033494,22.251419354226,9.3211354833805e-05,9.3211354833805e-05,9.3211354833805e-05,2720257.4519132,0.013850612177746
28419200,0.99981501220974,0.015088743051996,0.004116974301894,0.0068547944482042,0.0041169743018982,-0.00074409685904103,0.00074409155318805,-2.2182906340747e-09,-2.2183525399e-09,-3.3559505953346e-09,-1.5106694821725e-09,-0.00089518200950594,0.00089517658285069,-0.00089518240267463,0.00089517697580334,-0.00089518141014368,0.00089517720493065,-0.00089518179448174,0.0008951775890634,-0.00071484635060411,0.00071484245253344,-0.0007148459223249,0.00071484202424043,4.6173499125414e-10,-1.4018113841539e-09,1.1703869477763e-09,-2.0796206821921e-09,-0.0018272066894406,0.001827205777934,-0.0020746980716897,0.0020746988379326,-0.0020746997232139,0.0020746983643117,-0.0020746992758608,0.0020746988314602,-0.0020747009276328,0.0020746983580878,-0.0015509095054567,0.0015509111389501,-0.0015509136315589,0.0015509089349745,-0.0015509104126611,0.0015509102072985,-0.0015509132078098,0.0015509093757968,-2.1651368125566e-09,-2.1652005114047e-09,-0.00074409680567025,0.00074409160655738,-3.965174460495e-09,-7.6790091450895e-10,-0.00089518219194591,0.00089517640986918,-0.00089518113143581,0.00089517747817109,-0.0008951825813085,0.00089517679904184,-0.00089518151555924,0.0008951778621055,-0.00071484564207847,0.00071484230441897,-0.00071484606569839,0.00071484272801915,0.8493285419621,122718,2924,0.003098286695855,0.0075832733217167,0.0030982866958519,23.440852604768,0.00010272682083815,0.00010272682083815,0.00010272682083815,2768684.85607,0.013875897584808
29419200,0.99986150088776,0.01508942035234,0.0041171711234443,0.0068550781054469,0.0041171711234485,-0.00074447024392861,0.00074446475064614,-2.2952366853411e-09,-2.295298490017e-09,-3.3543152519329e-09,-1.6591491470736e-09,-0.00089845630144364,0.00089845075086309,-0.00089845671118242,0.00089845116038566,-0.00089845575016775,0.00089845132289569,-0.00089845615129235,0.00089845172381488,-0.0007152873921468,0.00071528327983183,-0.00071528697550456,0.00071528286317656,4.1858274823143e-10,-1.2965389573895e-09,1.0904291971365e-09,-1.9398143802963e-09,-0.0018322818275774,0.0018322809760852,-0.0020782623899417,0.0020782630942357,-0.0020782639844346,0.0020782627082665,-0.0020782635595933,0.0020782631511407,-0.0020782651543344,0.0020782627654208,-0.0015571108109461,0.0015571123378491,-0.0015571147218338,0.0015571103503036,-0.0015571116716797,0.0015571114546534,-0.0015571143193103,0.0015571107685239,-2.2481637881101e-09,-2.2482273841378e-09,-0.00074447019661077,0.00074446479796257,-3.9363543275479e-09,-9.5783518005193e-10,-0.00089845647722304,0.00089845058329587,-0.00089845548921081,0.00089845157928927,-0.00089845688354314,0.00089845098942575,-0.00089845589007562,0.000898451979965,-0.00071528671290612,0.00071528312575224,-0.00071528712529265,0.00071528353811886,0.60881578646039,122718,2924,0.0030998727112859,0.0076041801847655,0.0030998727112829,24.779751465844,0.00011343801172675,0.00011343801172675,0.00011343801172675,2636537.5675379,0.013900329230975
30419200,0.99989848217689,0.015089877077323,0.0041173046915122,0.0068552676942947,0.0041173046915163,-0.00075064515198549,0.00075063964771132,-2.2901317612857e-09,-2.2901938158328e-09,-3.2999721227694e-09,-1.7349675596379e-09,-0.00089728914487957,0.00089728365360512,-0.0008972895455312,0.00089728405404064,-0.00089728863541454,0.00089728418222134,-0.00089728902769886,0.00089728457430021,-0.00072112989847799,0.00072112575672642,-0.00072112945296318,0.00072112531119721,3.621323742516e-10,-1.2240188534466e-09,9.8657406101612e-10,-1.8213525319304e-09,-0.0018299916633919,0.0018299908266623,-0.0020805426315391,0.0020805432352892,-0.0020805441633596,0.0020805429327032,-0.0020805437693434,0.0020805433444565,-0.0020805453014105,0.0020805430421181,-0.0015512308567191,0.0015512322222319,-0.0015512345793901,0.0015512304833669,-0.0015512316563615,0.0015512314005151,-0.0015512342061756,0.0015512308720229,-2.2399566770376e-09,-2.2400205303369e-09,-0.00075064510173529,0.00075063969796013,-3.8327645726732e-09,-1.0771885910645e-09,-0.00089728930163838,0.00089728350430784,-0.0008972883879625,0.00089728442588488,-0.00089728969892059,0.00089728390139951,-0.00089728877991436,0.00089728481764684,-0.0007211292029406,0.0007211255614024,-0.0007211296441273,0.00072112600257056,0.51512748248588,122718,2924,0.0031254394753083,0.0075949124640198,0.0031254394753053,26.130444606289,0.00012424355685031,0.00012424355685031,0.00012424355685031,2860611.7151884,0.013942734223576
31419200,0.99992841956153,0.01509035361661,0.0041174442447447,0.0068554651271164,0.0041174442447489,-0.00075828226761427,0.00075827582653204,-2.6433312613091e-09,-2.6433933091128e-09,-3.6356874455806e-09,-2.0977319648755e-09,-0.00090363357604334,0.00090362727149711,-0.00090363397458403,0.00090362766982132,-0.00090363307581852,0.00090362779071399,-0.00090363346605345,0.0009036281807434,-0.0007283181568985,0.0007283131955691,-0.00072831770612428,0.00072831274478075,3.5813132351037e-10,-1.2191060398826e-09,9.7842737771523e-10,-1.8124993405658e-09,-0.001833651628205,0.0018336507921911,-0.0020842014022515,0.0020842019984561,-0.0020842029291079,0.0020842017017079,-0.0020842025375574,0.0020842021107287,-0.0020842040646605,0.0020842018142282,-0.0015549054712925,0.0015549068237325,-0.0015549091812158,0.0015549051055369,-0.0015549062656931,0.001554906007483,-0.0015549088104588,0.0015549054915952,-2.5930666585347e-09,-2.5931304981874e-09,-0.00075828221728062,0.00075827587686367,-4.1646421231889e-09,-1.4439435677266e-09,-0.00090363373131848,0.00090362712364223,-0.00090363282958881,0.00090362803320945,-0.00090363412648994,0.00090362751862297,-0.00090363321947783,0.00090362842290887,-0.00072831745730978,0.00072831299375011,-0.00072831790378918,0.00072831344021031,0.66479676253865,122718,2924,0.0031571307579253,0.0076100903545013,0.0031571307579211,28.438478477959,0.00014270782782367,0.00014270782782367,0.00014270782782367,2951122.0102969,0.014022389531528
32419200,0.99995029165662,0.015090763651318,0.0041175640300732,0.0068556355911669,0.0041175640300774,-0.00075727555844114,0.00075727038021931,-2.1711896416192e-09,-2.1712514980715e-09,-3.1756885316912e-09,-1.6262311337552e-09,-0.00090660287705336,0.00090659766683988,-0.00090660333700343,0.00090659812657376,-0.00090660237259784,0.00090659819068936,-0.00090660282359572,0.00090659864148164,-0.00072758849945462,0.00072758463263454,-0.00072758809176321,0.00072758422492971,3.5878359202519e-10,-1.1949123895702e-09,9.7517446132489e-10,-1.7847840869536e-09,-0.0018374437232038,0.0018374429116339,-0.0020867622471991,0.0020867628445504,-0.002086763828089,0.0020867626272174,-0.0020867634384773,0.0020867630336087,-0.0020867650196148,0.0020867628165243,-0.0015598343801424,0.001559835735521,-0.0015598381060491,0.0015598340931655,-0.0015598351696082,0.0015598349244792,-0.0015598377373977,0.0015598344769397,-2.1261678093123e-09,-2.1262314611325e-09,-0.00075727551324632,0.00075727042541252,-3.7073053810713e-09,-9.8102816279244e-10,-0.00090660303613567,0.00090659751492656,-0.00090660213226763,0.00090659842742676,-0.00090660349283579,0.00090659797143641,-0.00090660258290967,0.00090659887787946,-0.00072758784916399,0.0007275844677341,-0.00072758825264206,0.00072758487119235,0.78355820163569,122718,2924,0.003153005760278,0.0076256553005082,0.0031530057602746,29.295438167709,0.00014956350534167,0.00014956350534167,0.00014956350534167,2729993.3452204,0.014029832137734
33419200,0.99996549427153,0.015091058823562,0.0041176509167559,0.0068557569900464,0.0041176509167601,-0.0007542502005496,0.00075424615342758,-1.7523948090672e-09,-1.7524565748602e-09,-2.7638296730882e-09,-1.1393405340464e-09,-0.00090841608800772,0.00090841179398038,-0.00090841639642222,0.00090841210217899,-0.00090841555552762,0.000908412343998,-0.000908415857459,0.00090841264572369,-0.00072510096574895,0.00072509799617645,-0.0007251005787994,0.00072509760921379,3.8936593819668e-10,-1.2419097449215e-09,9.8063679516022e-10,-1.8058913266125e-09,-0.0018409712793017,0.0018409704520794,-0.0020863879633569,0.0020863885995267,-0.0020863893467386,0.0020863881468582,-0.0020863889728774,0.0020863885360085,-0.0020863903565076,0.0020863880835896,-0.001566333485166,0.0015663348189591,-0.0015663370885532,0.0015663330092017,-0.0015663342420831,0.0015663340427109,-0.0015663367361567,0.0015663333751012,-1.7123012762096e-09,-1.7123648630465e-09,-0.00075425016025553,0.00075424619372005,-3.2755650797353e-09,-5.2563646390949e-10,-0.00090841624338462,0.00090841164580661,-0.00090841532771459,0.00090841256775849,-0.00090841654883562,0.00090841195106816,-0.00090841562942868,0.00090841286928356,-0.00072510034955621,0.00072509783843359,-0.00072510073245431,0.00072509822131187,0.80945760226261,122718,2924,0.0031404949067172,0.0076401035662527,0.0031404949067139,29.317296510696,0.00014973837208557,0.00014973837208557,0.00014973837208557,2598163.9478865,0.014019133196896
34419200,0.99997699913737,0.015091261717341,0.0041177108997605,0.0068558399178158,0.0041177108997647,-0.00075696691023526,0.00075696044492444,-2.6639130534576e-09,-2.6639748529107e-09,-3.600079440309e-09,-2.1706749782518e-09,-0.0009111082425138,0.00091110194439839,-0.0009111087209423,0.00091110242261116,-0.00091110777845112,0.0009111024269497,-0.00091110824783816,0.00091110289613155,-0.00072778571499541,0.00072778072830101,-0.00072778528100528,0.00072778029429796,3.3171082766779e-10,-1.1272249303757e-09,8.9249178240044e-10,-1.6628709440812e-09,-0.0018456331653054,0.0018456323930821,-0.0020917640945722,0.0020917646289833,-0.0020917656267333,0.0020917645007788,-0.0020917652720235,0.0020917648701218,-0.0020917668044328,0.0020917647421665,-0.0015702307313555,0.0015702319584997,-0.0015702342271973,0.0015702304858698,-0.0015702314497858,0.0015702312215745,-0.0015702338925094,0.0015702308334418,-2.6257971226856e-09,-2.6258607408451e-09,-0.0007569668719431,0.00075696048321537,-4.085868644047e-09,-1.5877809049026e-09,-0.00091110838950951,0.00091110180359737,-0.00091110756271072,0.00091110263949596,-0.00091110886519193,0.00091110227909,-0.00091110803181413,0.00091110310841053,-0.00072778506336608,0.00072778051207764,-0.00072778549352948,0.00072778094222088,0.73398852679868,122718,2924,0.003151782215585,0.0076593840344819,0.0031517822155823,31.48243975655,0.0001670595180524,0.0001670595180524,0.0001670595180524,2541516.8790094,0.014061573407865
35419200,0.9999860222251,0.015091402596465,0.004117752582379,0.0068558974317033,0.0041177525823831,-0.00076679014080108,0.00076678096739987,-3.6836522288537e-09,-3.6837141196118e-09,-4.4171914175677e-09,-3.4512402569204e-09,-0.00091827943559559,0.00091827094288121,-0.00091828010452297,0.00091827161159259,-0.00091827912685188,0.00091827126821309,-0.00091827978414065,0.0009182719252965,-0.00073735395190241,0.0007373466330617,-0.00073735344344484,0.00073734612459085,1.8749277160688e-10,-8.361573767014e-10,6.9760211726358e-10,-1.3269157877512e-09,-0.0018524585591136,0.001852457928344,-0.0021003422843498,0.002100342615185,-0.002100343901887,0.0021003429477916,-0.0021003435785548,0.0021003432846479,-0.0021003451963395,0.002100343617503,-0.0015757247263759,0.00157572572662,-0.0015757278307525,0.0015757248950347,-0.0015757253817477,0.0015757250540382,-0.0015757275233873,0.001575725214404,-3.6478884817609e-09,-3.6479521862854e-09,-0.0007667901049127,0.00076678100328674,-4.8607646580057e-09,-2.9167416155393e-09,-0.00091827956743002,0.00091827081459568,-0.00091827893064528,0.00091827146368608,-0.00091828023403472,0.00091827148101036,-0.00091827958741174,0.00091827212026357,-0.00073735324374192,0.00073734632477613,-0.000737353749029,0.00073734683004376,0.64952121200817,122718,2924,0.0031925452528611,0.0076876812624255,0.0031925452528579,35.929998192201,0.00020263998553761,0.00020263998553761,0.00020263998553761,2573088.4201804,0.014172930493738
36419200,0.99999179883522,0.0150914971967,0.0041177806329495,0.0068559359307973,0.0041177806329537,-0.00077130443477057,0.00077129857450823,-2.4355314853357e-09,-2.4355934370758e-09,-3.1719507607121e-09,-2.1565738972066e-09,-0.00092067935580366,0.0009206737151124,-0.00092067978341701,0.00092067414250949,-0.00092067902228749,0.00092067406056056,-0.00092067944267926,0.0009206744807464,-0.00074167563508876,0.00074167100898336,-0.00074167519205363,0.00074167056593456,1.9189019870968e-10,-8.484371066229e-10,6.5536409807666e-10,-1.2924893231031e-09,-0.0018539339693054,0.0018539333308048,-0.0021029068821828,0.0021029072211327,-0.0021029081657341,0.0021029072345324,-0.0021029078722237,0.002102907540058,-0.0021029091560221,0.0021029075537056,-0.0015765040841347,0.001576504983474,-0.0015765069708451,0.0015765040985305,-0.0015765046789137,0.001576504373236,-0.0015765066930877,0.0015765043870701,-2.4030656301122e-09,-2.4031293973553e-09,-0.00077130440222556,0.00077129860705184,-3.5731543496462e-09,-1.6729042136847e-09,-0.00092067947501329,0.00092067359909493,-0.00092067884473047,0.00092067423747476,-0.00092067990051905,0.00092067402441028,-0.00092067926465103,0.00092067465720578,-0.00074167501116784,0.00074167074721618,-0.00074167545104987,0.00074167118707865,0.6811981079479,122718,2924,0.0032112722481605,0.0076938396974998,0.0032112722481575,37.48064260709,0.00021504514085672,0.00021504514085672,0.00021504514085672,2633193.6322988,0.014217150775164
37419200,0.99999521038914,0.015091550856038,0.0041177964789427,0.0068559578981487,0.0041177964789468,-0.00077112197521355,0.00077111770677914,-1.8362384740464e-09,-1.8363003563332e-09,-2.6711591423372e-09,-1.4214339824028e-09,-0.0009220893774534,0.0009220850390094,-0.00092208969399841,0.00092208535533821,-0.00092208896463479,0.0009220854642789,-0.0009220892757245,0.00092208577516281,-0.00074154632696876,0.00074154305307699,-0.00074154593743568,0.00074154266353041,2.6135792493009e-10,-9.9727064827213e-10,6.9261804452358e-10,-1.4062258258839e-09,-0.0018553785990144,0.0018553778838562,-0.0021032288601109,0.0021032292603929,-0.0021032300421405,0.002103229056652,-0.0021032297695003,0.0021032293398774,-0.0021032309517774,0.0021032291363848,-0.0015788954128945,0.0015788963056567,-0.0015788983770599,0.001578895208592,-0.0015788959647418,0.0015788957400334,-0.0015788981223093,0.0015788954729198,-1.8078034593158e-09,-1.8078671648403e-09,-0.00077112194670535,0.00077111773528583,-3.042797620092e-09,-9.7711152203412e-10,-0.000922089490055,0.00092208493064314,-0.00092208880100548,0.00092208562593451,-0.0009220898045712,0.00092208524496911,-0.0009220891118326,0.00092208593657224,-0.00074154577178481,0.00074154282937731,-0.00074154615784864,0.0007415432154214,0.65495763090949,122718,2924,0.0032105329649838,0.0076997681767818,0.0032105329649806,37.680429778927,0.00021664343823142,0.00021664343823142,0.00021664343823142,2581381.0561807,0.014221674227988
38419200,0.9999971713067,0.015091585224161,0.0041178066870131,0.0068559718501309,0.0041178066870173,-0.00077007560036589,0.00077007215500744,-1.5226040377087e-09,-1.5226659393296e-09,-2.478949297694e-09,-9.7136864138419e-10,-0.00092069795819507,0.0009206942553997,-0.00092069821681354,0.00092069451380196,-0.00092069746075136,0.00092069476721298,-0.00092069771458521,0.00092069502084108,-0.00074052193473849,0.00074051941493776,-0.00074052156369413,0.00074051904387984,3.4169255114476e-10,-1.1661646605289e-09,7.6296429049406e-10,-1.5617713798387e-09,-0.0018542970601347,0.0018542962595373,-0.0021024741835184,0.0021024746625577,-0.0021024753631315,0.0021024743003279,-0.0021024750974867,0.002102474576119,-0.0021024762773472,0.0021024742141375,-0.0015774943168493,0.00157749526107,-0.0015774974685954,0.0015774939107697,-0.0015774948542501,0.0015774947104414,-0.0015774972232791,0.0015774941652495,-1.4950789924072e-09,-1.4951427183427e-09,-0.00077007557278425,0.00077007218258765,-2.8388995155097e-09,-5.4107831375705e-10,-0.00092069806867927,0.00092069415052863,-0.00092069730089382,0.00092069492362382,-0.00092069832517419,0.00092069440683323,-0.00092069755465538,0.00092069517719596,-0.00074052140294572,0.00074051920466964,-0.00074052177008872,0.00074051957179291,0.72891346290552,122718,2924,0.0032061874121399,0.0076953056280803,0.0032061874121368,37.195900333011,0.00021276720266409,0.00021276720266409,0.00021276720266409,2592086.1284746,0.014208331152665
38880000,0.99999785607127,0.015091597494795,0.0041178103297426,0.0068559768353051,0.0041178103297468,-0.00076864971486882,0.00076864571581084,-1.7367323429161e-09,-1.7367938201071e-09,-2.6976124639104e-09,-1.1706759193307e-09,-0.00092108978255868,0.00092108557451553,-0.00092109007289336,0.00092108586459466,-0.00092108927971922,0.00092108609248935,-0.00092108956476978,0.0009210863773234,-0.00073914858466881,0.00073914558912939,-0.00073914823453249,0.00073914523901083,3.5299750572733e-10,-1.1800337018392e-09,7.7411280103236e-10,-1.5752164180432e-09,-0.00185582546676,0.0018558246638568,-0.0021033479911292,0.0021033484807741,-0.0021033492100527,0.0021033481451153,-0.0021033489444688,0.0021033484207263,-0.00210335016361,0.002103348085295,-0.0015794607364319,0.0015794616947722,-0.0015794639356588,0.0015794603431651,-0.0015794612735406,0.0015794611445606,-0.0015794636907328,0.0015794605972245,-1.7099733163566e-09,-1.7100366302901e-09,-0.00076864968799348,0.00076864574258262,-3.0580588281961e-09,-7.4152135888811e-10,-0.00092108989382859,0.00092108546889417,-0.00092108912048953,0.00092108624809797,-0.00092109018206883,0.0009210857569671,-0.00092108940551176,0.00092108653285846,-0.00073914807460644,0.00073914539889348,-0.00073914842085562,0.00073914574512754,0.74537476942469,122718,2924,0.0032002916011944,0.007701574314991,0.0032002916009794,37.193644280922,0.00021274915424738,0.00021274915424738,0.00021274915424738,2512121.5945075,0.014202741600524
