time,ASR_ext,ASR_strain,ASR_strain_xx,ASR_strain_yy,ASR_strain_zz,disp_x_101,disp_x_102,disp_x_103,disp_x_104,disp_x_105,disp_x_106,disp_x_p1_neg,disp_x_p1_pos,disp_x_p2_neg,disp_x_p2_pos,disp_x_p3_neg,disp_x_p3_pos,disp_x_p4_neg,disp_x_p4_pos,disp_x_p5_neg,disp_x_p5_pos,disp_x_p6_neg,disp_x_p6_pos,disp_y_101,disp_y_102,disp_y_103,disp_y_104,disp_y_105,disp_y_106,disp_y_p1_neg,disp_y_p1_pos,disp_y_p2_neg,disp_y_p2_pos,disp_y_p3_neg,disp_y_p3_pos,disp_y_p4_neg,disp_y_p4_pos,disp_y_p5_neg,disp_y_p5_pos,disp_y_p6_neg,disp_y_p6_pos,disp_y_p7_neg,disp_y_p7_pos,disp_y_p8_neg,disp_y_p8_pos,disp_z_101,disp_z_102,disp_z_103,disp_z_104,disp_z_105,disp_z_106,disp_z_p1_neg,disp_z_p1_pos,disp_z_p2_neg,disp_z_p2_pos,disp_z_p3_neg,disp_z_p3_pos,disp_z_p4_neg,disp_z_p4_pos,disp_z_p5_neg,disp_z_p5_pos,disp_z_p6_neg,disp_z_p6_pos,humidity,ndof,nelem,strain_xx,strain_yy,strain_zz,temp,thermal_strain_xx,thermal_strain_yy,thermal_strain_zz,vonmises,vstrain
2419200,0,0,0,0,0,0,0,0,0,0,0,0,0,0,0,0,0,0,0,0,0,0,0,0,0,0,0,0,0,0,0,0,0,0,0,0,0,0,0,0,0,0,0,0,0,0,0,0,0,0,0,0,0,0,0,0,0,0,0,0,0,0,0,0,0,0,0,0,0,0,0,0,0,0,0
2919200,0.076550563892164,0.0015987278189652,0.00053290927298839,0.00053290927298839,0.00053290927298839,-0.00015920000890003,0.00015917801040263,-8.4031266645803e-09,-8.403126649094e-09,-7.493267247351e-09,-9.2157854362353e-09,-0.00016068657324123,0.0001606685801055,-0.00016068834207548,0.00016067034894852,-0.00016068717937705,0.0001606679915261,-0.00016068891361686,0.00016066972576705,-0.0001619726796283,0.00016195438824945,-0.00016197359796429,0.0001619553065888,-4.869008916811e-10,1.036413987492e-09,-5.3844353415493e-10,1.0672215358941e-09,-0.00017589429496478,0.0001758948252122,-0.00017536946116661,0.00017536875083014,-0.0001753706547114,0.00017537120827612,-0.00017537068307864,0.00017537117914675,-0.00017537187662965,0.00017537363659694,-0.00017479652354941,0.0001747960535574,-0.00017479617322727,0.00017479877959476,-0.00017479646672581,0.00017479611113819,-0.00017479618896012,0.00017479876338737,-8.4090954095876e-09,-8.4090953291673e-09,-0.00015920001487561,0.00015917800442217,-7.4672727469066e-09,-9.2547801434904e-09,-0.00016068656014265,0.00016066858315162,-0.00016068720406816,0.00016066797680394,-0.00016068833024369,0.00016067035325381,-0.00016068893711538,0.00016066970984696,-0.00016197361668388,0.00016195528989523,-0.00016197270116952,0.00016195437436925,0.83502648770561,122718,2924,0.00066306774983548,0.00073262380070876,0.00066306774982531,32.427600493603,0.00017462080394882,0.00017462080394882,0.00017462080394882,1634914.1935266,0.0020608824169462
3419200,0.15555908234509,0.0031059269498393,0.0010076513850145,0.0010906241798239,0.0010076513850008,-0.00026072779415774,0.00026070913924821,-7.3579578961433e-09,-7.3580216528523e-09,-7.2060711932027e-09,-7.8867270742251e-09,-0.00027060521112822,0.00027058911192943,-0.00027060735695783,0.00027059125753754,-0.00027060544685971,0.00027058889172127,-0.00027060757435826,0.00027059101898579,-0.0002644928255535,0.00026447712458168,-0.00026449420464295,0.00026447850346189,-1.9937478293577e-10,2.8758253712075e-10,-2.1165654325848e-10,2.8592509714043e-10,-0.00031542802898258,0.00031542810519147,-0.00031874128655384,0.00031874100622605,-0.00031874409461013,0.00031874417159417,-0.00031874409996519,0.00031874416708101,-0.00031874690827313,0.00031874733267897,-0.00030805010172744,0.00030804989855382,-0.00030805291819943,0.00030805365384996,-0.00030805009194477,0.00030804990801643,-0.00030805291524567,0.00030805365696377,-7.3557859889159e-09,-7.3558497152816e-09,-0.00026072779193025,0.00026070914146926,-7.2044451140809e-09,-7.8839349053964e-09,-0.00027060520585586,0.00027058911300659,-0.00027060544767429,0.00027058889511546,-0.00027060735202721,0.00027059125894651,-0.00027060757480891,0.00027059102201201,-0.00026449420290031,0.00026447850602977,-0.00026449282530894,0.00026447712863758,0.77960726241633,122718,2924,0.0010857460457884,0.0013134095999237,0.001085746045775,31.910878415676,0.00017048702732541,0.00017048702732541,0.00017048702732541,2690690.7247209,0.0034909887779208
3919200,0.24219071319339,0.0046537007601487,0.0014573987081265,0.0017389033439088,0.0014573987081134,-0.00035874447759292,0.00035873640836539,-2.9593585048745e-09,-2.9594124695059e-09,-3.3714529230782e-09,-2.3847103962196e-09,-0.00037833913925698,0.00037833244747711,-0.00037834030597101,0.00037833361398134,-0.00037833880939615,0.00037833278910013,-0.00037833997818737,0.00037833395766405,-0.00036148152157932,0.00036147517124547,-0.00036148242742199,0.00036147607687884,2.3008216714773e-10,-8.1149082389471e-10,3.0196808736162e-10,-8.6978062001969e-10,-0.00047855495895542,0.00047855438966322,-0.00049625320939301,0.00049625340071046,-0.00049625491574949,0.00049625430660663,-0.00049625487167242,0.00049625435199,-0.00049625657822725,0.00049625525807551,-0.00045418466906652,0.00045418493101723,-0.00045418701634332,0.0004541849486299,-0.00045418476107348,0.00045418483740573,-0.0004541869818973,0.00045418498412477,-2.9473821286168e-09,-2.9474359721263e-09,-0.00035874446558534,0.00035873642036684,-3.4182570024038e-09,-2.3117753554596e-09,-0.000378339151811,0.00037833244118638,-0.00037833877356485,0.00037833281884986,-0.00037834031759031,0.0003783336067426,-0.00037833994310301,0.00037833398815849,-0.00036148239448037,0.0003614761087474,-0.00036148148689714,0.00036147520135852,0.74640349119053,122718,2924,0.0014936759841587,0.0019919584271946,0.001493675984146,32.49691395286,0.00017517531162288,0.00017517531162288,0.00017517531162288,3715981.1105415,0.0049917456621454
4419200,0.33711024198193,0.0063176325459438,0.0019174015674872,0.0024828294109803,0.0019174015674763,-0.00045921730410023,0.0004592141273422,-7.0911874243859e-10,-7.0917566180808e-10,-1.7176764515927e-09,-3.4502410848561e-10,-0.00048992409535581,0.00048992223210811,-0.0004899245420669,0.00048992267863023,-0.00048992362058069,0.00048992270127504,-0.00048992408222713,0.00048992316271681,-0.00046041373238626,0.00046041229533833,-0.00046041402652075,0.00046041258926493,1.1998542545408e-10,-1.2294031885544e-09,2.091173674315e-10,-1.2945412304187e-09,-0.00066648272892652,0.0006664816396777,-0.0007046904821443,0.00070469034404186,-0.00070469165209717,0.0007046905178601,-0.00070469159707962,0.00070469057296363,-0.00070469276724105,0.00070469074697518,-0.00061906592139758,0.00061906590535639,-0.000619069475297,0.00061906644575775,-0.00061906604137517,0.00061906578449979,-0.00061906943676725,0.00061906648489358,-7.0045905794189e-10,-7.0051589463204e-10,-0.00045921729553215,0.00045921413590684,-1.7748666191313e-09,-2.682053152893e-10,-0.00048992410880439,0.00048992222042436,-0.00048992359089466,0.0004899227294042,-0.00048992455512905,0.00048992266655278,-0.00048992405271397,0.00048992319101936,-0.00046041399523744,0.00046041261931001,-0.00046041369970355,0.00046041232398772,0.74424082049435,122718,2924,0.0019116853406161,0.0027730829018262,0.0019116853406089,33.599134661817,0.00018399307729454,0.00018399307729454,0.00018399307729454,4553360.4809442,0.0066182984222598
4919200,0.44029651597022,0.0081114185336168,0.0023866235722908,0.0033381713890403,0.0023866235722857,-0.00056098473082737,0.00056098377944373,2.2057402614432e-10,2.2051312327767e-10,-9.3318382876062e-10,6.6888916154232e-10,-0.00060548580948292,0.00060548617303927,-0.00060548595401403,0.00060548631735832,-0.00060548525657501,0.00060548671786993,-0.00060548541610643,0.00060548687717751,-0.00056003057887658,0.0005600311527684,-0.00056003088695047,0.000560031460629,1.9875091841352e-10,-1.3590546953267e-09,3.2107087097587e-10,-1.4525368836423e-09,-0.00088399190764562,0.00088399077279949,-0.00094795822425435,0.00094795818953076,-0.00094795900257558,0.00094795780605928,-0.00094795892736852,0.0009479578817982,-0.00094795970586413,0.00094795749848198,-0.0008073108779827,0.00080731101608826,-0.00080731461431269,0.00080731120206669,-0.00080731104176222,0.00080731085113755,-0.00080731455835035,0.00080731125882239,2.3106196503911e-10,2.3100107359783e-10,-0.00056098472051309,0.00056098378975427,-1.0166727291401e-09,7.7632408134048e-10,-0.00060548582987182,0.00060548615366656,-0.0006054852168241,0.00060548675684026,-0.0006054859740113,0.0006054862975924,-0.0006054853765088,0.00060548691629412,-0.00056003084433851,0.0005600315018024,-0.00056003053461721,0.00056003119231569,0.74696695512676,122718,2924,0.0023349689400029,0.00367637977402,0.0023349689399951,35.344330652433,0.00019795464521946,0.00019795464521946,0.00019795464521946,5139097.4882675,0.0083813290123599
5419200,0.54102614127341,0.0098114675504095,0.0028101943407507,0.0041910788689157,0.0028101943407432,-0.00064843432521178,0.00064843580493281,1.2434620031371e-09,1.2434092430476e-09,-1.7112687702409e-10,1.6724549136504e-09,-0.00070834000510775,0.00070834260325912,-0.00070833990282528,0.00070834250079327,-0.00070833936707886,0.00070834322828639,-0.00070833928221716,0.00070834314322232,-0.00064416775623606,0.00064417054038731,-0.00064416815494851,0.00064417093888261,1.9338235146367e-10,-1.5802626246351e-09,3.3364908489654e-10,-1.6876053009047e-09,-0.0011005250087752,0.0011005236513807,-0.0011934382575487,0.0011934381690069,-0.0011934389451692,0.0011934375168747,-0.0011934388584854,0.0011934376037534,-0.0011934395462774,0.0011934369517693,-0.00099120434968434,0.00099120443383464,-0.00099120863332927,0.0009912046850574,-0.00099120453738422,0.00099120424478542,-0.00099120856926559,0.00099120475002025,1.2540128528858e-09,1.2539600899388e-09,-0.00064843431483595,0.00064843581530536,-2.6774176614342e-10,1.7938244211977e-09,-0.00070834002851414,0.0007083425792468,-0.00070833932448558,0.0007083432719104,-0.0007083399257382,0.00070834247627933,-0.00070833923969592,0.00070834318691698,-0.00064416810760049,0.00064417098469848,-0.00064416770665507,0.00064417058398314,0.73229095938568,122718,2924,0.0026986548253578,0.0045747884726162,0.0026986548253509,36.273327712887,0.0002053866217031,0.0002053866217031,0.0002053866217031,5482221.5776409,0.010022131127648
5919200,0.6324223666947,0.011139059648742,0.0031260070463741,0.0048870455559992,0.0031260070463682,-0.00070864700040534,0.00070865069806038,2.1128554869652e-09,2.1127979595212e-09,5.4978457237047e-10,2.7725024585413e-09,-0.00078361016105614,0.00078361475822473,-0.00078360990635998,0.00078361450333301,-0.000783609394406,0.00078361551173023,-0.00078360915875948,0.00078361527586325,-0.00069787950920954,0.00069788424762647,-0.00069788004619582,0.00069788478438491,2.9689719164165e-10,-1.8273996256223e-09,4.7179702151308e-10,-1.9632952495013e-09,-0.00127865384198,0.0012786523470267,-0.0014045183971014,0.0014045184393728,-0.0014045188611262,0.0014045172762588,-0.001404518752989,0.0014045173849608,-0.001404519217169,0.0014045162219743,-0.001134149573266,0.0011341498038197,-0.0011341540047306,0.0011341493962317,-0.0011341498045261,0.0011341495706391,-0.0011341539237176,0.0011341494785184,2.1259148638484e-09,2.1258578735453e-09,-0.00070864698757549,0.00070865071088685,4.2736407582084e-10,2.925626472614e-09,-0.00078361019257689,0.00078361472705514,-0.0007836093392045,0.00078361556707139,-0.00078360993720556,0.00078361447146519,-0.0007836091037464,0.00078361533139671,-0.00069787998656289,0.00069788484243365,-0.00069787944675127,0.00069788430285016,0.6360792580923,122718,2924,0.0029491056274069,0.0053132584167645,0.0029491056273999,36.77929659506,0.00020943437276048,0.00020943437276048,0.00020943437276048,5599281.08564,0.01127475694832
6419200,0.70986826089735,0.012186253661597,0.0033740675804348,0.0054381185007338,0.0033740675804286,-0.00075317944281594,0.00075318438374823,2.5292577798613e-09,2.5291896360051e-09,3.46191114491e-09,5.4851884856687e-10,-0.00083916282634334,0.00083917030513526,-0.00083916239755667,0.00083916987608237,-0.00083916368176183,0.00083916934757012,-0.0008391632909639,0.00083916895661022,-0.00073711852346013,0.00073712249640666,-0.00073711915707534,0.00073712312968865,-1.3534068306739e-09,1.6904817137823e-09,-2.0486151091558e-09,2.3474780132169e-09,-0.0014180701292481,0.0014180704326741,-0.0015732039985211,0.0015732019312751,-0.0015732020265351,0.0015732027729293,-0.0015732024566084,0.0015732023159702,-0.0015732004848229,0.0015732031577242,-0.0012441259165246,0.0012441229289561,-0.0012441237561094,0.0012441293587927,-0.0012441250552573,0.001244123818585,-0.0012441241595851,0.0012441289355704,2.4302215012543e-09,2.4301736421575e-09,-0.00075317954269728,0.00075318428384394,4.0088704495243e-09,-2.2478341189147e-10,-0.00083916266455765,0.00083917042162587,-0.00083916403257147,0.00083916903751885,-0.00083916224400421,0.00083917000086403,-0.0008391636379264,0.00083916864268487,-0.00073711948237961,0.00073712280768725,-0.00073711885738869,0.00073712218282118,0.59525943091212,122718,2924,0.0031343432008264,0.0058908765682294,0.0031343432007786,36.741504283134,0.00020913203426507,0.00020913203426507,0.00020913203426507,5674499.4134498,0.012234045864077
6919200,0.77965371365103,0.013208390754714,0.0036223301358731,0.0059637304829959,0.0036223301358445,-0.00079852719833621,0.00079853009511187,1.7807782990685e-09,1.7807101403228e-09,2.2676805560719e-09,2.5113857406542e-10,-0.00089483687331387,0.00089484242251943,-0.00089483662348851,0.00089484217245632,-0.00089483745641313,0.00089484176133112,-0.00089483723969371,0.00089484154441685,-0.00077926601559041,0.00077926870569919,-0.00077926678294323,0.00077926947278338,-7.8969698571092e-10,1.3344202422599e-09,-1.5671186538361e-09,2.0820346757992e-09,-0.0015594780872,0.0015594786080829,-0.0017393321026519,0.0017393307494905,-0.0017393304224344,0.0017393314459759,-0.0017393309134338,0.0017393309314008,-0.0017393292333878,0.0017393316279971,-0.0013586550505815,0.0013586527271814,-0.0013586537252595,0.0013586585005001,-0.0013586540677287,0.0013586537392364,-0.001358654191376,0.0013586580137312,1.6810854598608e-09,1.6810382153776e-09,-0.00079852729877816,0.0007985299946636,2.8981358210871e-09,-6.1184377156335e-10,-0.00089483669470811,0.00089484256870263,-0.00089483782281499,0.00089484142082012,-0.00089483645280914,0.00089484232658327,-0.00089483760465359,0.00089484120247139,-0.00077926713546224,0.00077926912177835,-0.00077926637417825,0.00077926836068136,0.64378173705164,122718,2924,0.0033229778715257,0.0064763748665695,0.0033229778715125,38.625168724279,0.00022420134979423,0.00022420134979423,0.00022420134979423,5636834.8138003,0.013209132574942
7419200,0.8398049076817,0.013969873229135,0.0038026503424532,0.0063645725442514,0.0038026503424308,-0.00082498568080812,0.00082498795955602,1.5256068920379e-09,1.5255385933755e-09,1.8622349408262e-09,1.4347064904074e-10,-0.00093485757492796,0.00093486248755942,-0.00093485739354299,0.000934862305941,-0.00093485806877343,0.00093486192596656,-0.00093485791700755,0.00093486177400751,-0.00080185298899432,0.00080185525574663,-0.00080185382832501,0.00080185609480497,-6.4002694838077e-10,1.1765524854527e-09,-1.4341365107611e-09,1.9443694009671e-09,-0.00167344886152,0.0016734493775282,-0.0018743258427712,0.0018743246590863,-0.0018743243266187,0.0018743253586171,-0.0018743248327329,0.0018743248323787,-0.0018743233167455,0.0018743255320201,-0.0014496155845161,0.0014496134247674,-0.0014496145995617,0.0014496190030516,-0.001449614575013,0.0014496144622877,-0.0014496150803702,0.0014496185022541,1.4338863762702e-09,1.4338389846297e-09,-0.00082498577298953,0.00082498786736825,2.518881719569e-09,-7.3068121059591e-10,-0.00093485738565592,0.00093486264915276,-0.0009348584286589,0.00093486158684508,-0.00093485721171265,0.00093486247499526,-0.00093485827631751,0.00093486143431427,-0.00080185417811981,0.00080185574547092,-0.0008018533441162,0.00080185491165251,0.55664260548471,122718,2924,0.0034331669464154,0.0069479426819094,0.0034331669464021,40.764009885579,0.00024131207908463,0.00024131207908463,0.00024131207908463,5268773.1464708,0.013910540565689
7919200,0.88499554954015,0.014493743196419,0.0039292471215872,0.0066352489532646,0.003929247121567,-0.00083910470215764,0.00083911073663335,2.9522466372961e-09,2.9521780440637e-09,2.9528611608832e-09,1.92946403311e-09,-0.00095546264235521,0.00095547060446,-0.00095546219254083,0.00095547015441255,-0.00095546290602403,0.00095547027851509,-0.00095546248923718,0.00095546986153354,-0.00081286593700503,0.0008128714731954,-0.00081286682338161,0.00081287235929919,-4.0229747382362e-10,7.5482677888357e-10,-1.1696953674918e-09,1.5046559042067e-09,-0.0017468613591136,0.0017468616990203,-0.0019659333717988,0.0019659324969029,-0.0019659317888184,0.0019659326312764,-0.0019659322806834,0.0019659321209887,-0.001965930697863,0.0019659322554707,-0.0015040970317622,0.0015040951576835,-0.0015040966288184,0.0015040999481718,-0.0015040960514764,0.0015040961649605,-0.0015040971005311,0.0015040994570904,2.8630760820939e-09,2.8630283667575e-09,-0.00083910479148542,0.00083911064730044,3.5924278643535e-09,1.0775039587446e-09,-0.00095546246123181,0.00095547076341707,-0.00095546325150473,0.00095546994825033,-0.00095546201815829,0.0009554703201268,-0.00095546283488554,0.00095546953143985,-0.00081286716292235,0.00081287201904464,-0.00081286628091655,0.00081287113722511,0.5070717593097,122718,2924,0.0034920278350848,0.0072516347948217,0.003492027835074,40.956193977587,0.0002428495518207,0.0002428495518207,0.0002428495518207,5102399.3225592,0.014337948942913
8419200,0.91864625346979,0.014865490246094,0.0040210676352785,0.0068233549755561,0.0040210676352596,-0.00084730797340227,0.00084731386708197,2.9091309651415e-09,2.9090625422408e-09,2.6044246604692e-09,2.2148312766013e-09,-0.00096992876904606,0.00096993644660725,-0.00096992834950228,0.00096993602683209,-0.00096992883193817,0.00096993633238257,-0.00096992844281256,0.00096993594306503,-0.00081916798346577,0.00081917363355275,-0.00081916891788203,0.00081917456769606,-2.0432371046266e-10,3.1825521516869e-10,-8.7147251328939e-10,9.7702577318035e-10,-0.0018008820947086,0.0018008822043214,-0.0020314357621171,0.0020314351317176,-0.0020314344338106,0.0020314349849165,-0.0020314348644079,0.0020314345399784,-0.0020314335362612,0.002031434393285,-0.0015462863255614,0.0015462848251332,-0.0015462867285609,0.0015462887971479,-0.0015462854706032,0.0015462857029127,-0.0015462871449181,0.0015462883642564,2.8332048076556e-09,2.8331566068487e-09,-0.00084730804928919,0.0008473137911911,3.1674577012532e-09,1.4697784705266e-09,-0.0009699286098029,0.00096993658908258,-0.00096992913000437,0.0009699360447518,-0.00096992819588856,0.00096993617495089,-0.00096992874154834,0.00096993565610256,-0.00081916921273855,0.00081917427142226,-0.00081916828149688,0.0008191733403701,0.48138031764921,122718,2924,0.0035262704817584,0.0074750013544967,0.0035262704817501,41.432570278766,0.00024666056223012,0.00024666056223012,0.00024666056223012,4860572.8619656,0.014634070778926
8919200,0.94318006554118,0.01510877290093,0.0040819631384087,0.0069448466241304,0.0040819631383906,-0.00085058922627772,0.00085059530758259,2.9779617199882e-09,2.977894704719e-09,2.778756391861e-09,2.1789443413343e-09,-0.00097901136692114,0.00097901928859065,-0.00097901094455275,0.00097901886598416,-0.0009790114965479,0.0009790191049467,-0.00097901110496629,0.00097901871318828,-0.00082164222437731,0.00082164796524103,-0.00082164317843962,0.00082164891903383,-2.7464035763148e-10,4.6085970067014e-10,-1.0170325665297e-09,1.1919275414906e-09,-0.0018364282576421,0.0018364284367954,-0.0020730873281434,0.0020730865804077,-0.0020730858628622,0.0020730865312983,-0.0020730863410772,0.00207308603671,-0.0020730848759727,0.0020730859877116,-0.0015758196324035,0.0015758179170679,-0.0015758196715101,0.0015758222346101,-0.0015758186811484,0.0015758188937186,-0.0015758201331964,0.0015758217545114,2.8959282814965e-09,2.8958786270281e-09,-0.00085058930822792,0.00085059522562907,3.4062423946624e-09,1.354217267116e-09,-0.00097901118802308,0.00097901944908626,-0.0009790118250981,0.00097901878802244,-0.00097901077174335,0.00097901903260443,-0.00097901143416991,0.00097901839691616,-0.00082164350358595,0.00082164859247778,-0.00082164255317347,0.00082164764226578,0.43063171924148,122718,2924,0.0035400240462334,0.0076218957833623,0.0035400240462264,41.891585234213,0.0002503326818737,0.0002503326818737,0.0002503326818737,4568110.3544161,0.014811073732786
9419200,0.95997374608069,0.015267022288782,0.004122591638665,0.00702183901147,0.0041225916386475,-0.00084920906220443,0.00084921796268619,4.0585545942721e-09,4.058487373871e-09,3.5433477387875e-09,3.6189445766097e-09,-0.00097994487836893,0.00097995507840978,-0.00097994425412198,0.00097995445393061,-0.00097994478437134,0.00097995512340731,-0.00097994419331077,0.00097995453215449,-0.00081837596432923,0.0008183842160603,-0.00081837698656237,0.00081838523802446,-8.0100204229038e-11,1.0163311223701e-11,-7.3925938319212e-10,6.6690917644127e-10,-0.0018601651055362,0.0018601650367539,-0.0021057368640336,0.0021057363738988,-0.0021057353930052,0.0021057357634535,-0.0021057358201797,0.0021057353227031,-0.0021057343493076,0.002105734712364,-0.0015893116367045,0.0015893102391756,-0.0015893123490824,0.0015893136637737,-0.0015893107891748,0.0015893111090612,-0.0015893127656929,0.0015893132309203,3.9854708057938e-09,3.9854209640811e-09,-0.00084920913509038,0.00084921788979621,4.1066246605826e-09,2.87946890155e-09,-0.00097994471942302,0.00097995522355547,-0.00097994507595904,0.00097995483934063,-0.00097994410036811,0.00097995460428339,-0.00097994448595112,0.00097995424914,-0.00081837727707728,0.00081838494542097,-0.00081837625744679,0.00081838392598192,0.40723906797413,122718,2924,0.0035344301108795,0.0077200574839539,0.003534430110871,41.150847612824,0.00024440678090259,0.00024440678090259,0.00024440678090259,4466316.5844532,0.01489936402054
9919200,0.97126999269521,0.015373158275149,0.004150244063887,0.0070726701473923,0.0041502440638697,-0.00084621194184782,0.00084622237359924,4.6521076409777e-09,4.6520403618004e-09,3.8106164991622e-09,4.5747922694129e-09,-0.00097985750555268,0.00097986883623429,-0.00097985678219952,0.00097986811264877,-0.0009798571876618,0.00097986911239797,-0.0009798564975827,0.00097986842212672,-0.00081487192089586,0.00081488165778826,-0.0008148729849605,0.0008148827215839,1.2438418194274e-10,-4.578379233363e-10,-4.1872626743525e-10,9.2002592913351e-11,-0.0018740836372694,0.0018740833134064,-0.0021228726861195,0.0021228724694384,-0.0021228713585866,0.0021228714025652,-0.0021228717137807,0.0021228710375934,-0.0021228703864035,0.0021228699708252,-0.0015995803493598,0.0015995793498963,-0.001599581861813,0.0015995818203384,-0.0015995796480532,0.0015995800692595,-0.0015995822127334,0.0015995814561854,4.5918531992132e-09,4.5918032769148e-09,-0.00084621200185873,0.00084622231358463,4.2819057167784e-09,3.9575614953783e-09,-0.00097985737387657,0.00097986895885807,-0.0009798574281155,0.00097986887546815,-0.000979856654635,0.00097986823939882,-0.00097985673942048,0.00097986818658017,-0.00081487322625015,0.00081488247776658,-0.00081487216354704,0.00081488141525488,0.40432824355073,122718,2924,0.0035220698016696,0.0077775539665075,0.0035220698016617,39.827521774542,0.00023382017419634,0.00023382017419634,0.00023382017419634,4325074.9456432,0.014932649885323
10419200,0.97886098920047,0.015449039475347,0.0041703920456827,0.0071082553839989,0.0041703920456655,-0.00084195745329347,0.00084196895709068,5.0663149131784e-09,5.0662476187626e-09,3.9396068774991e-09,5.3088634481011e-09,-0.00097858924374109,0.00097860130649736,-0.00097858845612738,0.00097860051865098,-0.00097858873001173,0.0009786017852737,-0.00097858797512179,0.00097860103019124,-0.00081049131929833,0.00081050213671493,-0.00081049241371976,0.00081050323086774,3.1220948394987e-10,-8.6466220886893e-10,-9.35723013716e-11,-4.4418664234416e-10,-0.0018831671498649,0.0018831666143198,-0.002133370965855,0.0021333710237953,-0.0021333698130976,0.0021333695594475,-0.0021333700824351,0.0021333692847321,-0.002133368929833,0.0021333678204892,-0.0016066965972526,0.0016066960332652,-0.0016066988855379,0.0016066975902406,-0.0016066960702168,0.0016066965732919,-0.0016066991561527,0.0016066973099602,5.0203147210961e-09,5.0202647750778e-09,-0.00084195749901045,0.00084196891136993,4.2985535090527e-09,4.837929473002e-09,-0.00097858914494308,0.00097860140044931,-0.00097858891124229,0.00097860160424978,-0.00097858836033783,0.00097860061562664,-0.00097858815794939,0.00097860085076406,-0.0008104925970781,0.00081050304467467,-0.0008104915029304,0.00081050195071807,0.42845224819223,122718,2924,0.0035044763740789,0.0078150432176704,0.0035044763740709,38.099198349884,0.00021999358679907,0.00021999358679907,0.00021999358679907,4194488.73581,0.014935006834456
10919200,0.98442762331969,0.015500530820111,0.0041840855167655,0.007132359786597,0.0041840855167484,-0.0008401189946463,0.00084012754528714,3.9426039407975e-09,3.9425366285131e-09,2.8442535913177e-09,4.19432404925e-09,-0.00097968520276079,0.00097969465770357,-0.00097968441661171,0.00097969387132186,-0.00097968469713892,0.00097969512877539,-0.0009796839433745,0.00097969437481858,-0.00080893400144775,0.00080894225309372,-0.00080893509871781,0.00080894335009523,3.3366961623991e-10,-8.8251419494419e-10,-6.0562239923966e-11,-4.7313723751158e-10,-0.0018911166642598,0.0018911161326865,-0.002141526190813,0.0021415262850884,-0.0021415250467993,0.0021415247897233,-0.0021415253088811,0.0021415245226112,-0.0021415241650224,0.0021415230273508,-0.0016143638637508,0.0016143633516268,-0.0016143662032799,0.0016143648382929,-0.0016143633513846,0.0016143638765877,-0.0016143664669542,0.0016143645652326,3.8975718450761e-09,3.8975218831907e-09,-0.00084011903938662,0.00084012750054318,3.1931815463192e-09,3.7357696956623e-09,-0.00097968510685063,0.00097969474885482,-0.00097968487369518,0.00097969495241408,-0.00097968432364228,0.00097969396542903,-0.00097968412152035,0.00097969420004655,-0.00080893527733615,0.00080894316865059,-0.00080893418031439,0.00080894207181983,0.39597081456718,122718,2924,0.0034968893768893,0.0078478265685846,0.0034968893768816,37.946160438464,0.00021876928350771,0.00021876928350771,0.00021876928350771,4012128.7875837,0.014952896326779
11419200,0.98848363095862,0.015538029846773,0.0041941952099538,0.0071496394268821,0.0041941952099367,-0.00083888770905169,0.00083889616175909,3.8861919860778e-09,3.8861246235501e-09,2.7763094841473e-09,4.1352175580598e-09,-0.00097927608623027,0.00097928545769357,-0.00097927549185247,0.00097928486308313,-0.00097927558067548,0.0009792859319198,-0.00097927501580338,0.00097928536685523,-0.00080766626633814,0.00080767445574019,-0.00080766746740248,0.00080767565653575,3.232767084714e-10,-8.7557807257326e-10,-5.9825201381164e-11,-4.7725888848033e-10,-0.0018960343031609,0.0018960337681637,-0.002147319014194,0.0021473190814381,-0.0021473180891566,0.0021473178214096,-0.0021473183441342,0.0021473175618082,-0.0021473174192516,0.0021473163018844,-0.0016182942580466,0.0016182937572705,-0.001618296784355,0.0016182954171849,-0.0016182937601917,0.001618294267247,-0.001618297041089,0.0016182951513969,3.8424888619705e-09,3.8424388518659e-09,-0.00083888775245464,0.00083889611835264,3.1158365165097e-09,3.6892275848098e-09,-0.00097927599292347,0.00097928554650812,-0.00097927575215173,0.00097928576045922,-0.00097927540140398,0.00097928495477119,-0.00097927518886435,0.00097928519697918,-0.0008076676410175,0.00080767548009992,-0.00080766644015344,0.00080767427942705,0.39457194111805,122718,2924,0.0034918021133628,0.0078681401429607,0.0034918021133554,37.62839347624,0.00021622714780992,0.00021622714780992,0.00021622714780992,3983458.0405409,0.014963189638864
11919200,0.99142316362383,0.015567372103813,0.0042021946106597,0.0071629828825104,0.0042021946106427,-0.00083695723464611,0.00083696620999918,4.0958535305928e-09,4.0957861343241e-09,2.948909821638e-09,4.3524274240357e-09,-0.00097877750855283,0.00097878733310998,-0.00097877691311861,0.00097878673744316,-0.00097877699133987,0.00097878782068247,-0.00097877642400909,0.00097878725315916,-0.00080532941119616,0.00080533818123683,-0.00080533048844313,0.00080533925821485,3.3929892565073e-10,-8.9827232539706e-10,7.2888815943765e-11,-6.1606720456979e-10,-0.0019010845190424,0.0019010839778552,-0.0021538084018387,0.0021538085572773,-0.0021538075654688,0.0021538072155352,-0.0021538077462973,0.002153807034022,-0.0021538069100819,0.0021538056923843,-0.001620997564433,0.0016209973172538,-0.0016210002528597,0.0016209985985022,-0.0016209972174575,0.0016209976717189,-0.0016210004358236,0.0016209984097738,4.0635109195748e-09,4.0634608954707e-09,-0.00083695726662672,0.00083696617801506,3.1869571115302e-09,4.0355122148499e-09,-0.00097877744321259,0.00097878739471252,-0.00097877711396213,0.00097878769812373,-0.00097877685000701,0.00097878680128946,-0.00097877654804377,0.00097878713201267,-0.00080533061232732,0.00080533913158561,-0.00080532953520357,0.00080533805465306,0.4251629857673,122718,2924,0.0034838344282779,0.007889001128541,0.0034838344282704,37.104865429775,0.0002120389234382,0.0002120389234382,0.0002120389234382,3928756.9309392,0.014968201487191
12419200,0.9935873004251,0.015590105011148,0.0042084291316423,0.0071732467478805,0.0042084291316253,-0.00083482840050326,0.0008348368986497,3.9106817183395e-09,3.910614346882e-09,2.7850281999344e-09,4.149038694863e-09,-0.00097928308437057,0.00097929248775467,-0.00097928252828702,0.00097929193143851,-0.00097928258108823,0.00097929296173708,-0.00097928205206915,0.00097929243252556,-0.00080328565625223,0.00080329402175266,-0.00080328673142904,0.00080329509666081,3.3992489420429e-10,-8.6350283578698e-10,1.5688386554089e-10,-6.6527952869648e-10,-0.001905626542467,0.0019056260360527,-0.002157758312854,0.0021577585297064,-0.0021577575591609,0.0021577571891218,-0.0021577576866978,0.0021577570635308,-0.002157756933159,0.0021577557230505,-0.0016256608465275,0.0016256607782175,-0.0016256636694713,0.0016256619301848,-0.0016256606077298,0.001625661021438,-0.0016256637986933,0.0016256617973781,3.8852214273876e-09,3.8851714578553e-09,-0.00083482842554353,0.0008348368736058,2.9481993708271e-09,3.9240372017771e-09,-0.00097928304011005,0.00097929252830152,-0.00097928266999584,0.00097929287338724,-0.0009792824859002,0.00097929197387418,-0.00097928214222579,0.00097929234542456,-0.0008032868207146,0.00080329500469893,-0.00080328574577072,0.00080329392994596,0.44663644431852,122718,2924,0.0034750372401704,0.0079077088983159,0.0034750372401628,36.80233600208,0.00020961868801664,0.00020961868801664,0.00020961868801664,3817352.6946369,0.014969347715438
12919200,0.99516175144776,0.015605625063001,0.0042126860598716,0.0071802529432751,0.0042126860598547,-0.00083178572597202,0.00083179503574962,4.2142500055772e-09,4.2141826438658e-09,3.0604271642053e-09,4.4986214054982e-09,-0.00097802562943998,0.00097803569861504,-0.00097802501785602,0.00097803508679839,-0.00097802510050419,0.00097803619823678,-0.00097802451656858,0.00097803561410869,-0.00080034120205442,0.00080035024418826,-0.00080034229567425,0.00080035133753948,3.667634256291e-10,-9.0307012594519e-10,2.5874381573051e-10,-7.7893668148965e-10,-0.0019079727236757,0.001907972205384,-0.0021600546563684,0.0021600549616803,-0.0021600538949956,0.0021600534645125,-0.0021600539749528,0.0021600533888931,-0.0021600532137343,0.0021600518918295,-0.0016276577272188,0.0016276578341062,-0.0016276607147709,0.0016276587302314,-0.0016276575851026,0.001627657977839,-0.0016276607968926,0.0016276586465064,4.1949180818527e-09,4.1948681133351e-09,-0.00083178574482935,0.00083179501688876,3.1575801190948e-09,4.3548882236807e-09,-0.00097802560431336,0.00097803572069908,-0.00097802515904157,0.00097803614004414,-0.0009780249942145,0.00097803511038273,-0.0009780245762855,0.00097803555709543,-0.00080034235424188,0.00080035127623191,-0.00080034126076545,0.00080035018294649,0.41875849256558,122718,2924,0.003462439928224,0.0079173624424188,0.0034624399282165,36.136611122395,0.00020429288897916,0.00020429288897916,0.00020429288897916,3734224.7455291,0.014953583870176
13419200,0.99628349153255,0.015616439603373,0.0042156667314033,0.0071851061405835,0.0042156667313864,-0.000828407671416,0.0008284185214756,4.7984000425842e-09,4.7983326069657e-09,3.5210872175315e-09,5.2269443584378e-09,-0.00097397429056834,0.00097398562506482,-0.00097397356664809,0.00097398490091188,-0.00097397367239669,0.00097398621561455,-0.00097397297747757,0.00097398552050292,-0.0007969345683892,0.00079694494576481,-0.00079693569365246,0.00079694607075928,4.3933486629788e-10,-1.0816884921591e-09,4.0768220229445e-10,-1.0301668205225e-09,-0.0019065917729593,0.0019065911521403,-0.0021600670970687,0.0021600675297823,-0.0021600663208076,0.0021600657399324,-0.0021600663531585,0.0021600657146466,-0.0021600655770516,0.0021600639249008,-0.0016248499706565,0.001624850279943,-0.0016248532884202,0.0016248507255697,-0.0016248499257006,0.0016248503232977,-0.0016248533252117,0.0016248506894431,4.7871751568056e-09,4.7871251185107e-09,-0.00082840768214263,0.00082841851074549,3.5557514709686e-09,5.1653164380503e-09,-0.00097397428346143,0.00097398563121722,-0.00097397369806397,0.00097398618873804,-0.00097397356042313,0.00097398490796154,-0.00097397300439379,0.00097398549487516,-0.00079693571979234,0.0007969460416844,-0.00079693459414159,0.00079694491622493,0.40900439415344,122718,2924,0.0034484227035244,0.0079116765870641,0.003448422703517,34.795555490826,0.00019356444392661,0.00019356444392661,0.00019356444392661,3741632.4583313,0.014919355149364
13919200,0.99710952210157,0.015624236624664,0.0042178159413601,0.0071886047419604,0.0042178159413432,-0.00082583485683968,0.00082584491856334,4.5019910351539e-09,4.5019235791396e-09,3.1840578191365e-09,4.9632030104667e-09,-0.00097160042305112,0.0009716110571239,-0.00097159975808331,0.0009716103919235,-0.0009715997837871,0.00097161167127245,-0.00097159914630544,0.00097161103359828,-0.00079427790755825,0.00079428767520751,-0.00079427902270771,0.00079428879008812,4.6561091437676e-10,-1.1363405723402e-09,5.0501171635637e-10,-1.154731531215e-09,-0.0019061962932976,0.0019061956451351,-0.0021601574101864,0.0021601579060851,-0.0021601567761163,0.0021601561220151,-0.0021601567634557,0.0021601561441033,-0.0021601561295398,0.0021601543601374,-0.0016239313666494,0.0016239318431675,-0.0016239349343061,0.0016239320989644,-0.0016239314132428,0.001623931792216,-0.0016239349268837,0.0016239321090108,4.4974651088516e-09,4.4974150612923e-09,-0.00082583486083759,0.00082584491456197,3.157322470907e-09,4.9793016947714e-09,-0.00097160043339001,0.00097161104674784,-0.00097159977973335,0.00097161167366858,-0.00097159976888122,0.00097161038202161,-0.00097159914345455,0.00097161103719713,-0.00079427901892716,0.00079428879094066,-0.00079427790320806,0.0007942876754128,0.40047476240274,122718,2924,0.0034377470440195,0.0079100392701942,0.0034377470440122,33.828787364406,0.00018583029891525,0.00018583029891525,0.00018583029891525,3725337.2760715,0.014896026281637
14419200,0.99771871903022,0.015629722990764,0.0042193266935194,0.0071910696037418,0.0042193266935025,-0.00082282912160453,0.00082283967613747,4.6890291570544e-09,4.6889616957282e-09,3.3195984885853e-09,5.2108902767025e-09,-0.00096882355338599,0.00096883458005824,-0.00096882285414293,0.00096883388058264,-0.00096882287707427,0.00096883523214882,-0.00096882220553418,0.00096883456041624,-0.00079124627995738,0.00079125648372162,-0.0007912474062247,0.00079125760972014,4.9946518959307e-10,-1.2095998809657e-09,5.9969005305699e-10,-1.2873883860509e-09,-0.0019050674002243,0.0019050667139873,-0.0021593695199011,0.002159370092268,-0.002159368912753,0.0021593681815536,-0.0021593688616707,0.0021593682440532,-0.0021593682546767,0.0021593663334427,-0.0016224069863419,0.0016224076112021,-0.0016224107528603,0.001622407620817,-0.0016224071110467,0.0016224074797989,-0.0016224107079087,0.0016224076700556,4.6902102271353e-09,4.6901601686498e-09,-0.00082282911987143,0.00082283967786711,3.2407263951508e-09,5.2930310093723e-09,-0.00096882357865094,0.00096883455567905,-0.00096882284763712,0.00096883525940341,-0.0009688228794902,0.00096883385630085,-0.00096882217727862,0.00096883458885224,-0.00079124737697582,0.00079125763599097,-0.00079124624993962,0.00079125650914596,0.38210045494666,122718,2924,0.003425275750373,0.0079053681587166,0.0034252757503656,32.64259913966,0.00017634079311728,0.00017634079311728,0.00017634079311728,3712630.5155784,0.014865974042521
14919200,0.9981556795395,0.015633813262927,0.0042204591164408,0.0071928950300619,0.0042204591164239,-0.00081825571141393,0.00081826822164976,5.4329707318908e-09,5.4329032462991e-09,3.8871867019564e-09,6.1614024028565e-09,-0.00096403062841385,0.00096404323926209,-0.00096402978891798,0.00096404239953367,-0.0009640298246359,0.00096404402101268,-0.00096402901454987,0.00096404321073423,-0.00078666125033371,0.00078667316487613,-0.00078666241581243,0.00078667433008595,6.1142916061179e-10,-1.4603289789227e-09,7.8972944124884e-10,-1.611239632794e-09,-0.0019017444655377,0.0019017436451616,-0.0021566245198761,0.0021566252658327,-0.0021566238985791,0.0021566229847165,-0.0021566237988597,0.0021566230983884,-0.0021566231777167,0.0021566208173763,-0.0016184941307613,0.0016184949998521,-0.0016184983179871,0.0016184944277359,-0.0016184943543102,0.0016184947666373,-0.0016184982276594,0.0016184945244451,5.4419714910212e-09,5.4419214160068e-09,-0.00081825570184717,0.00081826823121311,3.7447083350544e-09,6.3259823290932e-09,-0.00096403067265893,0.00096404319846705,-0.00096402976187579,0.00096404407952978,-0.00096402983260578,0.00096404235819647,-0.00096402895310713,0.0009640432705685,-0.00078666235406604,0.00078667438861954,-0.00078666118713923,0.00078667322188401,0.39678962402155,122718,2924,0.0034062928780739,0.0078916389495508,0.0034062928780666,30.579151409633,0.00015983321127706,0.00015983321127706,0.00015983321127706,3724797.2588087,0.014813511450348
15419200,0.99845340827132,0.01563723578077,0.004221417533069,0.0071944007146493,0.0042214175330521,-0.00080991427500709,0.00080992992587512,6.6250708801672e-09,6.6250034485231e-09,4.8129970619604e-09,7.6790926798133e-09,-0.00095712969656418,0.00095714481859068,-0.00095712863841368,0.00095714376020725,-0.0009571286954627,0.00095714580042768,-0.00095712766942315,0.00095714477419551,-0.00077838268791678,0.00077839734128357,-0.00077838391352134,0.00077839856661933,8.0283238952159e-10,-1.8305319953864e-09,1.0674253947104e-09,-2.0605052259209e-09,-0.001896901091705,0.0018969000992205,-0.0021513443898513,0.0021513454171768,-0.0021513437176986,0.0021513425786485,-0.0021513435641684,0.002151342748341,-0.0021513428921694,0.0021513399099166,-0.0016138529788516,0.0016138541939335,-0.0016138577281902,0.0016138527674176,-0.001613853310855,0.0016138538497211,-0.0016138575891575,0.001613852914609,6.639929610223e-09,6.6398795609431e-09,-0.00080991425953433,0.0008099299413444,4.5983245158425e-09,7.9304214233688e-09,-0.00095712976462089,0.00095714475739757,-0.00095712859810474,0.00095714589054359,-0.00095712870523589,0.00095714369779524,-0.00095712757364468,0.00095714486589101,-0.00077838381883462,0.00077839865771716,-0.00077838259090761,0.00077839742998124,0.48651353790675,122718,2924,0.0033716839114148,0.0078715778457384,0.0033716839114073,27.070436429836,0.00013176349143869,0.00013176349143869,0.00013176349143869,3692879.3174998,0.01472292426451
15919200,0.99868220006847,0.015640461254024,0.0042223272981025,0.0071958066578355,0.0042223272980857,-0.00080352733703029,0.00080353908971656,5.1415257519819e-09,5.1414584672248e-09,3.3626426092107e-09,6.1325680126097e-09,-0.00095501916386502,0.00095503088062979,-0.00095501839964287,0.00095503011617501,-0.00095501820381001,0.00095503182566641,-0.00095501746609739,0.00095503108776137,-0.00077228035330207,0.0007722918151184,-0.00077228151633058,0.00077229297787878,8.2589050722957e-10,-1.7518094262775e-09,1.1737122560727e-09,-2.0663304138478e-09,-0.0018976148702729,0.0018976139781128,-0.0021498286283566,0.0021498297314215,-0.0021498283486088,0.0021498272541023,-0.0021498281408878,0.0021498274796413,-0.0021498278612937,0.0021498250024261,-0.0016160938377502,0.001616095296757,-0.0016160988313332,0.0016160938777256,-0.0016160942782725,0.001616094842099,-0.0016160986380448,0.0016160940805096,5.1574635259707e-09,5.1574135788789e-09,-0.00080352732033537,0.00080353910640782,3.0654986554439e-09,6.4706910287278e-09,-0.00095501925869091,0.00095503079221835,-0.0009550180776802,0.00095503194526838,-0.00095501849311502,0.00095503002642511,-0.00095501734140108,0.00095503120879669,-0.00077228139234314,0.00077229309841643,-0.00077228022734207,0.0007722919336062,0.59571470761932,122718,2924,0.0033452095226244,0.0078744091301796,0.0033452095226166,25.353837353471,0.00011803069882777,0.00011803069882777,0.00011803069882777,3542214.8842704,0.014672096649908
16419200,0.99886784783825,0.015642666928966,0.0042229439512526,0.007196779026478,0.0042229439512357,-0.00079780737363372,0.00079781738982629,4.4718080312423e-09,4.4717408191463e-09,2.8260080419273e-09,5.3144413146129e-09,-0.00095339646704718,0.00095340673901856,-0.00095339583038019,0.00095340610211889,-0.00095339560127002,0.00095340758843037,-0.00095339498918172,0.00095340697614969,-0.00076693588690504,0.00076694583818224,-0.00076693702204991,0.00076694697305949,7.649818436239e-10,-1.5482271143126e-09,1.1680734059828e-09,-1.9216802803983e-09,-0.0018997226097047,0.0018997218567295,-0.0021501906233989,0.0021501917114891,-0.0021501904473089,0.0021501894537988,-0.0021501902031968,0.0021501897169495,-0.0021501900272609,0.002150187459363,-0.0016191420456687,0.0016191435901736,-0.0016191469441228,0.001619142364051,-0.0016191425595288,0.0016191430607455,-0.0016191467120687,0.0016191426065755,4.4871528452225e-09,4.4871029851133e-09,-0.00079780735739562,0.00079781740606088,2.4705743154447e-09,5.7112709663194e-09,-0.00095339658041883,0.00095340663036231,-0.00095339545774931,0.000953407727266,-0.00095339594250278,0.00095340599222862,-0.00095339484684691,0.00095340711617088,-0.00076693687937993,0.00076694711239372,-0.00076693574292025,0.0007669459761242,0.50210013400473,122718,2924,0.003321514931492,0.0078830077361319,0.0033215149314846,24.412012836555,0.00011049610269244,0.00011049610269244,0.00011049610269244,3374580.3300349,0.014632760707765
16919200,0.99902213651034,0.015645058638609,0.0042236297508,0.0071977991370263,0.0042236297507831,-0.00079632880679715,0.00079633818788293,4.2332271234863e-09,4.2331596985794e-09,2.7138085006565e-09,4.9155969188295e-09,-0.00094768203233861,0.0009476919110612,-0.00094768142948003,0.00094769130797044,-0.00094768126137839,0.00094769266526999,-0.00094768068260293,0.00094769208630206,-0.00076531510752906,0.00076532445574839,-0.00076531623086859,0.00076532557881918,6.2521299114287e-10,-1.4053485983003e-09,1.0543326915071e-09,-1.8068096547935e-09,-0.0018961521390822,0.0018961513875325,-0.0021505277535463,0.0021505286705842,-0.0021505275541693,0.0021505265454163,-0.0021505272951411,0.0021505268269568,-0.002150527095918,0.0021505247018927,-0.0016120134011427,0.0016120148176946,-0.0016120181360492,0.0016120138746322,-0.0016120139491947,0.001612014250018,-0.0016120178861597,0.0016120141378461,4.2605420985987e-09,4.2604920472013e-09,-0.00079632877866406,0.00079633821601283,2.3459547533691e-09,5.3527875996078e-09,-0.00094768214273156,0.00094769180525192,-0.00094768109915476,0.0009476928235982,-0.0009476815381892,0.00094769120049209,-0.00094768052134271,0.00094769224559375,-0.00076531606786109,0.00076532573863271,-0.00076531494314867,0.00076532461411101,0.65164127745866,122718,2924,0.0033153439941612,0.0078683737971993,0.0033153439941544,23.779753005795,0.00010543802404636,0.00010543802404636,0.00010543802404636,3473540.4998996,0.01460535986346
17419200,0.99914316910396,0.015646744866652,0.0042241055510756,0.007198533764518,0.0042241055510588,-0.00078884431231019,0.00078885610877362,5.1299517259226e-09,5.1298845126107e-09,3.5970611849209e-09,5.893656881122e-09,-0.0009460226776415,0.00094603451875399,-0.00094602191419191,0.00094603375507156,-0.00094602186923738,0.00094603530645606,-0.00094602113250703,0.00094603456953339,-0.00075790825333814,0.00075791956085781,-0.00075790943497558,0.00075792074222811,6.9520175197545e-10,-1.411023690136e-09,1.1436358190637e-09,-1.8324980160317e-09,-0.0018980226054927,0.0018980219175573,-0.002149224181087,0.0021492252466269,-0.002149223795729,0.0021492228366025,-0.0021492235224231,0.0021492231306395,-0.0021492231372189,0.0021492207207188,-0.0016163546635327,0.0016163562228472,-0.0016163593592971,0.0016163550250277,-0.0016163552373626,0.0016163556315487,-0.0016163590956142,0.0016163553005568,5.1478852185961e-09,5.1478353595899e-09,-0.00078884429343025,0.00078885612764973,3.198031568419e-09,6.3412551199584e-09,-0.00094602280319101,0.00094603439681787,-0.00094602170897399,0.00094603546340174,-0.0009460220384427,0.00094603363185205,-0.00094602097321303,0.00094603472744847,-0.00075790927429141,0.00075792089960351,-0.00075790809176494,0.00075791971726679,0.58772740813402,122718,2924,0.003284336831389,0.0078759430936352,0.0032843368313809,21.982852953227,9.1062823625818e-05,9.1062823625818e-05,9.1062823625818e-05,3267499.4424717,0.014550162448214
17919200,0.9992356369449,0.015647823901044,0.0042244097822211,0.0071990043366191,0.0042244097822042,-0.00078266630460825,0.00078267964967877,5.7144177364717e-09,5.7143503754376e-09,4.0498404990387e-09,6.6228967698734e-09,-0.00093703314278856,0.00093704628605206,-0.0009370322599276,0.0009370454029585,-0.0009370322429612,0.00093704716788484,-0.00093703138833819,0.00093704631306959,-0.00075172851775931,0.00075174116638661,-0.00075172973716462,0.00075174238552362,7.4924926550807e-10,-1.6143982950638e-09,1.226975700264e-09,-2.0602299465658e-09,-0.0018920364213777,0.0018920355887911,-0.0021462958651763,0.0021462969905302,-0.002146295427859,0.0021462943082596,-0.0021462951384763,0.0021462946211545,-0.0021462947013125,0.0021462919389876,-0.0016074531606989,0.001607454790508,-0.001607458114094,0.0016074532446185,-0.0016074537697157,0.0016074541607965,-0.0016074578366442,0.0016074535361218,5.7419925388782e-09,5.7419425421703e-09,-0.00078266627615737,0.00078267967812631,3.6382617070434e-09,7.1056098652774e-09,-0.00093703326937658,0.00093704616574357,-0.00093703206420996,0.00093704734116093,-0.00093703238456437,0.00093704528071426,-0.00093703121070093,0.00093704648745927,-0.00075172955865494,0.00075174256053031,-0.00075172833748515,0.00075174133955104,0.4915601615792,122718,2924,0.003258671048975,0.0078512804681517,0.0032586710489679,19.502646167061,7.1221169336487e-05,7.1221169336487e-05,7.1221169336487e-05,3328837.3516429,0.014473043803146
18419200,0.99930914147943,0.015648721337305,0.0042246640040396,0.0071993933292424,0.0042246640040228,-0.00077932579816489,0.00077933829226026,5.4077042302301e-09,5.4076367104943e-09,3.6734577097911e-09,6.3528522547538e-09,-0.00092967586515591,0.00092968832876352,-0.00092967503456158,0.00092968749793695,-0.00092967493375611,0.00092968924574816,-0.00092967413021604,0.0009296884420156,-0.00074809300562914,0.00074810501949506,-0.00074809421416499,0.00074810622776211,7.4783421806033e-10,-1.7267977535434e-09,1.2533643346387e-09,-2.19818153671e-09,-0.0018859891145002,0.0018859881703128,-0.0021433496834846,0.0021433507807151,-0.0021433493751096,0.0021433481275372,-0.0021433490695145,0.0021433484589717,-0.0021433487612931,0.0021433458058979,-0.0015988490309002,0.0015988506770549,-0.0015988542223681,0.0015988490424382,-0.001598849674853,0.0015988500097465,-0.0015988539296951,0.0015988493510917,5.4459998221349e-09,5.445949719739e-09,-0.00077932575914146,0.00077933833128053,3.2490881466168e-09,6.8725151912663e-09,-0.00092967599114079,0.00092968821070721,-0.00092967473614134,0.00092968943676356,-0.00092967515804764,0.00092968737739672,-0.00092967393373913,0.000929688634169,-0.00074809401670387,0.00074810642183058,-0.00074809280575778,0.00074810521107559,0.51421839069127,122718,2924,0.0032447562154485,0.0078263976472917,0.0032447562154417,17.479387928852,5.5035103430819e-05,5.5035103430819e-05,5.5035103430819e-05,3453362.2831714,0.014419547883117
18919200,0.9993732914423,0.015649615908176,0.004224917678235,0.0071997805517225,0.0042249176782181,-0.00077750179413372,0.00077751122067233,4.2532705240363e-09,4.2532030814007e-09,2.6665004642798e-09,5.0102339238222e-09,-0.00092937581962026,0.00092938571020721,-0.00092937521829595,0.00092938510865037,-0.00092937500301263,0.00092938651190107,-0.00092937442510766,0.00092938593380371,-0.00074609958151708,0.0007461090158872,-0.00074610072607612,0.00074611016017792,6.6673706255217e-10,-1.5052484743688e-09,1.1851406834127e-09,-1.9946841524154e-09,-0.0018863423004809,0.0018863414918503,-0.0021427107954023,0.0021427118063093,-0.0021427106910661,0.0021427095674623,-0.0021427103751669,0.0021427099085499,-0.0021427102709841,0.0021427076698066,-0.0016001904117453,0.0016001920376748,-0.0016001954601788,0.0016001907816863,-0.0016001910750676,0.001600191351655,-0.0016001951544923,0.0016001911029859,4.2887273274123e-09,4.2886772960584e-09,-0.00077750175790282,0.00077751125689992,2.2209137619914e-09,5.544710105984e-09,-0.00092937595223069,0.00092938558322921,-0.00092937480388403,0.00092938670668294,-0.00092937534871141,0.00092938497949264,-0.00092937422685585,0.00092938612946217,-0.00074610052582225,0.00074611035736972,-0.00074609937962359,0.00074610921136175,0.5877987766322,122718,2924,0.0032371863668311,0.0078278156751749,0.0032371863668241,16.875005744205,5.020004595364e-05,5.020004595364e-05,5.020004595364e-05,3402733.6975401,0.014405642351016
19419200,0.99943379583224,0.015650559704014,0.0042251866060033,0.0072001864920242,0.0042251866059865,-0.0007770196591666,0.00077702628599936,3.1894176155951e-09,3.1893502672102e-09,1.8388518820284e-09,3.6689474463505e-09,-0.00093195693042,0.00093196454847777,-0.00093195653082291,0.00093196414864822,-0.00093195628423053,0.00093196517631792,-0.00093195590557603,0.00093196479747114,-0.00074582521505299,0.00074583220796077,-0.00074582630790206,0.0007458333005416,5.2608264518337e-10,-1.1600043339874e-09,1.0273905759231e-09,-1.6394907772704e-09,-0.0018901410726006,0.0018901404618562,-0.002144625297282,0.0021446261505171,-0.0021446252849016,0.0021446243663974,-0.0021446249775767,0.0021446246974064,-0.0021446249653497,0.0021446229133903,-0.0016054232548112,0.0016054247447068,-0.0016054279151667,0.0016054240980514,-0.0016054238995323,0.0016054240788925,-0.0016054276136626,0.0016054244140635,3.2178945455305e-09,3.2178446090119e-09,-0.00077701962982664,0.00077702631533606,1.3955551946585e-09,4.1854752442183e-09,-0.00093195706324374,0.00093196441778966,-0.00093195609763427,0.00093196536177726,-0.00093195666205699,0.0009319640163855,-0.00093195571953879,0.00093196498348908,-0.00074582611847215,0.00074583348718723,-0.00074582502508694,0.0007458323939921,0.65664642788028,122718,2924,0.0032352151332574,0.0078434314686569,0.0032352151332504,17.545804793765,5.5566438350124e-05,5.5566438350124e-05,5.5566438350124e-05,3281892.6723228,0.014417502809826
19919200,0.99949213896527,0.015651447055727,0.0042254398351504,0.0072005673854433,0.0042254398351336,-0.00077713312023486,0.00077713868788858,2.7836803978864e-09,2.7836131067071e-09,1.6844909748412e-09,2.9884746009758e-09,-0.00093433608450667,0.0009343429562726,-0.00093433575736959,0.00093434262890313,-0.00093433560870203,0.00093434340818558,-0.00093433530236623,0.00093434310165775,-0.00074617327177564,0.00074617922939378,-0.00074617434282177,0.00074618030017205,3.5908069739e-10,-8.1128111685994e-10,8.1274210305135e-10,-1.2501271693555e-09,-0.0018943554672777,0.0018943550317777,-0.0021478004954346,0.0021478011470225,-0.0021478003830067,0.0021477996674981,-0.0021478001044924,0.0021477999680569,-0.0021477999922181,0.0021477984886362,-0.0016102246559439,0.0016102259010982,-0.0016102287700831,0.0016102258917135,-0.0016102252422475,0.0016102252955595,-0.0016102284924165,0.0016102261825648,2.8054517625068e-09,2.8054018570166e-09,-0.00077713309756042,0.00077713871055975,1.2745865651377e-09,3.4561989479275e-09,-0.00093433620700668,0.00093434283243292,-0.00093433544477483,0.00093434357409514,-0.00093433587892238,0.00093434250413115,-0.00093433513871132,0.00093434326783917,-0.00074617417431556,0.0007461804661148,-0.00074617310374018,0.00074617939572951,0.63949909152815,122718,2924,0.0032357188428356,0.0078607890329529,0.0032357188428286,18.681890350559,6.4655122804473e-05,6.4655122804473e-05,6.4655122804473e-05,3171344.8287226,0.014436144492137
20419200,0.99954423494508,0.015652303886105,0.0042256865944699,0.0072009306971822,0.004225686594453,-0.00077593213145586,0.00077594000728836,3.658309742814e-09,3.6582424105381e-09,2.5424801638512e-09,3.8550899769122e-09,-0.00093256554444716,0.00093257444156365,-0.00093256521868819,0.00093257411557227,-0.0009325650647055,0.00093257489737635,-0.00093256475973133,0.00093257459221001,-0.00074509139613769,0.00074509935663213,-0.00074509247109154,0.0007451004313181,3.4093259030222e-10,-7.947465772729e-10,7.8992177160857e-10,-1.2291550207461e-09,-0.0018938675739678,0.0018938671366705,-0.0021477967268903,0.0021477973507185,-0.0021477966024649,0.0021477958883464,-0.0021477963272957,0.0021477961858977,-0.0021477962030239,0.0021477947236292,-0.0016093126595237,0.0016093138711062,-0.0016093167278454,0.0016093139021507,-0.0016093132398963,0.0016093132714792,-0.0016093164529784,0.0016093141902011,3.6822851591719e-09,3.6822352117125e-09,-0.00077593210663383,0.00077594003210717,2.1398911749111e-09,4.3202861421109e-09,-0.00093256566322263,0.00093257432140557,-0.00093256490046956,0.00093257506363362,-0.00093256533652015,0.00093257399448575,-0.00093256459576797,0.00093257475873958,-0.00074509230210165,0.00074510059778602,-0.00074509122759978,0.00074509952347443,0.69004788769246,122718,2924,0.0032307317297566,0.0078587858550151,0.0032307317297497,18.601902918991,6.4015223351927e-05,6.4015223351927e-05,6.4015223351927e-05,3167398.6229979,0.014423986668281
20919200,0.99958756384653,0.015652969045798,0.0042258772229289,0.0072012145999573,0.004225877222912,-0.00077115183151645,0.00077116268513938,4.7666084469776e-09,4.7665411575939e-09,3.5814735358261e-09,5.1520798222627e-09,-0.00092904697366842,0.00092905828215905,-0.00092904627354448,0.00092905758180275,-0.00092904639962685,0.00092905882832744,-0.00092904572632202,0.00092905815483041,-0.00074017281164105,0.00074018310998537,-0.00074017399971941,0.00074018429779586,4.2818740416872e-10,-9.5968555091223e-10,8.3916770129687e-10,-1.3529354943964e-09,-0.00189337858094,0.0018933780689691,-0.0021477651167025,0.002147765858729,-0.0021477645555359,0.0021477637931593,-0.0021477643052475,0.0021477640644096,-0.0021477637442341,0.0021477619989437,-0.0016080603040166,0.0016080615081442,-0.0016080642970527,0.0016080611457666,-0.0016080608333481,0.0016080609609375,-0.001608064049045,0.0016080614059768,4.7851331083947e-09,4.7850831702438e-09,-0.00077115181213438,0.00077116270451822,3.2129780810192e-09,5.5704905789349e-09,-0.00092904708511529,0.00092905817026236,-0.00092904625285287,0.0009290589759377,-0.00092904638411638,0.00092905746904613,-0.00092904558000466,0.00092905830289691,-0.00074017384934356,0.00074018444534321,-0.00074017266141564,0.00074018325760549,0.64466974006306,122718,2924,0.0032109154364375,0.0078567365565319,0.0032109154364307,17.277419292246,5.341935433797e-05,5.341935433797e-05,5.341935433797e-05,3097221.2907622,0.014381715671562
21419200,0.99962233725398,0.015653500390204,0.0042260300416742,0.0072014403068723,0.0042260300416573,-0.00076626451909985,0.00076627702316121,5.3917494444375e-09,5.3916820803319e-09,4.0138355415518e-09,5.9942659751714e-09,-0.00092232909118163,0.00092234172632442,-0.00092232826999999,0.00092234090491043,-0.00092232838213573,0.00092234241068753,-0.00092232758927909,0.00092234161763867,-0.00073522431838173,0.00073523608618573,-0.0007352255487042,0.00073523731624028,5.4479251246271e-10,-1.2342455327933e-09,9.4712626506038e-10,-1.613053671847e-09,-0.0018888273355828,0.0018888266710778,-0.0021451839858118,0.002145184842244,-0.0021451833865754,0.0021451824804737,-0.0021451831436417,0.0021451827448202,-0.0021451825445585,0.0021451803831534,-0.0016016634653357,0.001601664743701,-0.0016016677594345,0.0016016639652194,-0.0016016639805198,0.001601664210151,-0.001601667522496,0.0016016642146778,5.4133396612775e-09,5.4132896488788e-09,-0.00076626449673394,0.00076627704552379,3.6627824480987e-09,6.4018719480336e-09,-0.00092232919746395,0.00092234162225114,-0.00092232823502903,0.00092234255606016,-0.00092232837504393,0.00092234079961381,-0.00092232744290358,0.00092234176374217,-0.0007352253995567,0.00073523746235436,-0.00073522416850554,0.00073523623149355,0.64095610021346,122718,2924,0.003190611607498,0.0078379767792088,0.0031906116074909,15.231436916556,3.7051495332446e-05,3.7051495332446e-05,3.7051495332446e-05,3139497.1982104,0.014321484196609
21919200,0.99965190781609,0.015653939286045,0.0042261558575993,0.0072016275708633,0.0042261558575824,-0.00076301469673017,0.00076302550109319,4.7576438593451e-09,4.7575764872899e-09,3.3329300472013e-09,5.3819503632872e-09,-0.00091902492719543,0.00091903608429613,-0.00091902423081164,0.00091903538767996,-0.00091902420069909,0.00091903678949813,-0.00091902353026732,0.00091903611887419,-0.00073186157829672,0.00073187200778138,-0.00073186277462402,0.00073187320384085,5.7298478776687e-10,-1.2910813842323e-09,9.8020065401345e-10,-1.6736741432861e-09,-0.0018869472002988,0.0018869465081264,-0.0021437059196353,0.0021437067887305,-0.0021437055111208,0.0021437045745505,-0.002143705265102,0.0021437048419861,-0.0021437048567409,0.0021437026279097,-0.001599429156718,0.0015994304780665,-0.0015994336215641,0.0015994296788731,-0.0015994296778945,0.0015994299385388,-0.0015994333826593,0.001599429930305,4.7796963585572e-09,4.7796463450703e-09,-0.00076301467392517,0.0007630255238949,2.9782961778903e-09,5.7940654225093e-09,-0.00091902503494992,0.0009190359793453,-0.00091902405129575,0.00091903693659816,-0.00091902433724769,0.00091903528142589,-0.00091902338164971,0.00091903626675974,-0.0007318626235862,0.00073187335190125,-0.00073186142633542,0.00073187215484083,0.62311101531201,122718,2924,0.0031771126927244,0.007830207697262,0.0031771126927174,13.996066802108,2.7168534416861e-05,2.7168534416861e-05,2.7168534416861e-05,3132212.2659719,0.014286222035817
22419200,0.99968059768061,0.01565438438232,0.0042262838351891,0.0072018167119583,0.0042262838351723,-0.0007645846697906,0.0007645914913209,3.2492201663668e-09,3.2491527197848e-09,1.8800663650811e-09,3.8578756831637e-09,-0.00092015635670162,0.00092016404488654,-0.00092015565816645,0.00092016334611893,-0.00092015565574375,0.00092016472466685,-0.00092015498315678,0.00092016405188765,-0.00073340060269385,0.00073340755987434,-0.00073340179281205,0.00073340874972449,5.6980490688064e-10,-1.2992609632635e-09,9.7753405035871e-10,-1.682312164577e-09,-0.0018884199958827,0.001888419292418,-0.0021453572514221,0.0021453581130341,-0.0021453568418536,0.0021453558937263,-0.0021453565955616,0.0021453561615217,-0.0021453561861464,0.0021453539423175,-0.0016007465700213,0.001600747884297,-0.0016007510519947,0.001600747090486,-0.0016007470918784,0.001600747344051,-0.0016007508128295,0.0016007473422114,3.2722975910548e-09,3.2722475058496e-09,-0.00076458464598529,0.00076459151512294,1.52616372354e-09,4.2714240375628e-09,-0.00092015646366685,0.00092016394081152,-0.00092015550523328,0.00092016487281646,-0.00092015576378596,0.00092016324071337,-0.00092015483343059,0.00092016420082124,-0.00073340164064552,0.00073340889891799,-0.00073340044958057,0.00073340770804361,0.65096373206224,122718,2924,0.0031836186138469,0.0078363095345401,0.00318361861384,14.849967346172,3.3999738769376e-05,3.3999738769376e-05,3.3999738769376e-05,3134162.0200365,0.014305606207862
22919200,0.99970773128299,0.015654763915959,0.0042263923215422,0.0072019792728914,0.0042263923215254,-0.00076473821446165,0.00076474514543965,3.28591808221e-09,3.2858507250474e-09,1.913531647282e-09,3.8729449800717e-09,-0.00092102399830508,0.0009210318044923,-0.00092102353807535,0.00092103134403022,-0.00092102330533504,0.00092103247875358,-0.00092102286808771,0.00092103204131405,-0.00073358249314626,0.00073358956651712,-0.00073358380868382,0.00073359088178683,5.5626672163937e-10,-1.2510983555099e-09,9.6309593155098e-10,-1.6341627803311e-09,-0.0018901282512353,0.0018901275814694,-0.0021469889111838,0.0021469897412318,-0.002146988763515,0.0021469878490241,-0.0021469885173797,0.0021469881164588,-0.0021469883698641,0.0021469862243547,-0.0016025392077586,0.0016025405190413,-0.0016025438688009,0.0016025400233485,-0.0016025397288384,0.0016025399795783,-0.0016025436295108,0.0016025402752007,3.3073952326253e-09,3.3073452344322e-09,-0.00076473819223216,0.00076474516766594,1.5575562911068e-09,4.2851215292682e-09,-0.00092102410667415,0.00092103169874521,-0.00092102315642592,0.00092103262556649,-0.00092102364513327,0.00092103123698711,-0.0009210227199321,0.00092103218888018,-0.00073358365800296,0.00073359102953161,-0.00073358234161083,0.00073358971332988,0.58748017292925,122718,2924,0.0031842676579909,0.0078433506711202,0.0031842676579841,15.357426051552,3.8059408412416e-05,3.8059408412416e-05,3.8059408412416e-05,3077533.6060684,0.014314070581719
23419200,0.99973307801494,0.015655129250358,0.0042264973735469,0.0072021345032815,0.0042264973735301,-0.00076603182300238,0.00076603912278157,3.4228395725271e-09,3.4227721364497e-09,2.0500181383457e-09,3.975247797232e-09,-0.00092081364658415,0.00092082182845372,-0.00092081320311531,0.00092082138475247,-0.0009208129666069,0.00092082249053814,-0.00092081254530069,0.00092082206903964,-0.00073482824434656,0.00073483570159575,-0.00073482949395083,0.00073483695093183,5.302677276555e-10,-1.2415597102325e-09,9.3674345301287e-10,-1.6245240984333e-09,-0.0018898647592491,0.0018898640728402,-0.0021472470030491,0.0021472477870855,-0.002147246878974,0.0021472459481793,-0.0021472466332988,0.0021472462155228,-0.002147246509377,0.0021472443767202,-0.0016018233475419,0.0016018246214875,-0.0016018279579743,0.0016018241425113,-0.0016018238684707,0.0016018240821282,-0.0016018277187352,0.0016018243943635,3.4480301158262e-09,3.4479800402089e-09,-0.00076603179713701,0.00076603914864375,1.6986481780818e-09,4.3907406267665e-09,-0.00092081375124199,0.00092082172645555,-0.00092081281450398,0.00092082264055818,-0.00092081330642789,0.00092082128142418,-0.00092081239393442,0.00092082221979607,-0.00073482933988213,0.00073483710213628,-0.00073482808939366,0.00073483585183847,0.60459639632209,122718,2924,0.0031896211978198,0.0078423039682037,0.003189621197813,15.705736600871,4.084589280697e-05,4.084589280697e-05,4.084589280697e-05,3144028.4228062,0.014323857398766
23919200,0.99975805839396,0.015655553596096,0.0042266200221521,0.0072023135518089,0.0042266200221353,-0.00076837597064995,0.00076838122164958,2.6631668477684e-09,2.66309945077e-09,1.5343575812931e-09,2.8956953480242e-09,-0.0009234893676414,0.00092349594856688,-0.00092348906615229,0.0009234956468454,-0.00092348887519122,0.00092349641911369,-0.00092348859376357,0.00092349613749388,-0.00073703874108842,0.00073704446148771,-0.00073703981602742,0.00073704553615862,3.5962884758557e-10,-8.7232235256268e-10,7.3788343187354e-10,-1.2346351134507e-09,-0.0018928856524777,0.0018928851576183,-0.0021505167690919,0.0021505173480582,-0.0021505166548941,0.0021505159302903,-0.0021505164254919,0.0021505161804545,-0.0021505163114474,0.00215051476279,-0.0016046937154101,0.0016046947930406,-0.0016046977613995,0.001604694891878,-0.0016046942031914,0.0016046942875035,-0.0016046975334271,0.0016046951320499,2.684575536766e-09,2.6845254978682e-09,-0.00076837594854806,0.00076838124374838,1.1997247985839e-09,3.2857189986328e-09,-0.00092348946572515,0.0009234958496236,-0.00092348873673148,0.00092349655892584,-0.00092348916335655,0.00092349554703779,-0.00092348845565884,0.00092349627766075,-0.0007370396734181,0.00073704567639424,-0.00073703859853879,0.00073704460170542,0.71228945632067,122718,2924,0.0031993594100951,0.0078547848786561,0.0031993594100885,17.004492369318,5.1235938954544e-05,5.1235938954544e-05,5.1235938954544e-05,3097664.4887779,0.014356278483308
24419200,0.99978187941379,0.015655939237965,0.0042267311069719,0.0072024770240379,0.004226731106955,-0.00076806024241225,0.00076806636490032,2.9852691540159e-09,2.9852018735904e-09,1.996934065252e-09,3.0925498017852e-09,-0.00092700840138192,0.0009270158110302,-0.00092700803602178,0.00092701544543755,-0.00092700799048691,0.00092701619432596,-0.00092700764718188,0.00092701585082889,-0.00073695132771302,0.00073695765238546,-0.00073695242599026,0.00073695875039479,2.8197431379003e-10,-6.7555230175266e-10,6.2054057632311e-10,-1.0023555946658e-09,-0.0018974245117788,0.0018974241321741,-0.0021526306489353,0.0021526311490059,-0.0021526303375492,0.0021526297517887,-0.0021526301318072,0.0021526299759825,-0.002152629820574,0.0021526285788688,-0.0016111032778468,0.001611104214001,-0.0016111069342039,0.0016111046147542,-0.0016111037164502,0.0016111037603028,-0.0016111067272261,0.0016111048320629,2.9975638589964e-09,2.9975139351833e-09,-0.00076806022934827,0.00076806637796121,1.6871786397624e-09,3.4367306764152e-09,-0.00092700849427484,0.00092701571484214,-0.00092700787383671,0.00092701631427698,-0.00092700812864539,0.00092701534899488,-0.00092700753076405,0.0009270159710115,-0.00073695230450416,0.00073695886951711,-0.00073695120704694,0.00073695777224999,0.6789410524186,122718,2924,0.0031980952799603,0.0078734367313811,0.0031980952799537,17.881797574429,5.8254380595436e-05,5.8254380595436e-05,5.8254380595436e-05,2955727.2740083,0.01437265747441
24919200,0.99980394193124,0.015656259444916,0.0042268234931753,0.0072026124585825,0.0042268234931585,-0.00076843229381075,0.00076843928802211,3.3119938897976e-09,3.3119265312257e-09,2.3884015678411e-09,3.3625883820272e-09,-0.00092597158494816,0.00092597978954404,-0.00092597115521214,0.00092597935957562,-0.00092597121104274,0.00092598013349837,-0.00092597080469217,0.00092597972695569,-0.0007373792092082,0.0007373861953346,-0.00073738032750653,0.00073738731336506,2.3067476583836e-10,-5.975748564395e-10,5.1991314548088e-10,-8.7646767533768e-10,-0.0018976297198975,0.0018976293657084,-0.0021543134362765,0.0021543138542151,-0.002154312970763,0.0021543124423741,-0.0021543127969565,0.0021543126340223,-0.0021543123315962,0.0021543112222849,-0.0016098536327306,0.0016098544106877,-0.0016098570376474,0.0016098550092557,-0.0016098540076364,0.0016098540213926,-0.0016098568610752,0.0016098551956241,3.3233291055918e-09,3.3232791106632e-09,-0.00076843228176105,0.00076843930006872,2.1254803365347e-09,3.6571517930488e-09,-0.00092597166214834,0.00092597970834537,-0.00092597111195616,0.00092598023645895,-0.00092597123230956,0.00092597927828938,-0.00092597070580107,0.00092597983011138,-0.00073738022319914,0.00073738741535899,-0.00073737910583801,0.00073738629818793,0.60789483588396,122718,2924,0.0031996373876438,0.0078743272258048,0.0031996373876372,18.351964207212,6.2015713657694e-05,6.2015713657694e-05,6.2015713657694e-05,2971039.9952612,0.01437667675338
25419200,0.99982561125431,0.015656641454057,0.0042269348947152,0.0072027716646433,0.0042269348946984,-0.00077240288466165,0.00077240779188767,2.5226602411635e-09,2.5225927775576e-09,1.6327480485208e-09,2.5583663829573e-09,-0.00092812161318015,0.00092812800907452,-0.00092812118158737,0.00092812757724923,-0.00092812125653732,0.00092812833595952,-0.00092812084832026,0.00092812792755024,-0.00074117954536353,0.00074118470989857,-0.00074118065914943,0.00074118582341629,2.2096510093255e-10,-5.9876212411047e-10,5.0609560806775e-10,-8.7355162224463e-10,-0.001899383219356,0.0018993828542958,-0.002156733298227,0.0021567336971424,-0.0021567328268621,0.0021567322904676,-0.0021567326559864,0.0021567324794505,-0.0021567321847746,0.0021567310728792,-0.0016110597958427,0.0016110605492057,-0.0016110631945409,0.0016110611744769,-0.0016110601654649,0.0016110601652194,-0.0016110630206415,0.0016110613581576,2.5368734250965e-09,2.536823326274e-09,-0.00077240286980211,0.00077240780674367,1.3773467630313e-09,2.8514364986513e-09,-0.00092812168625751,0.00092812793212451,-0.00092812115622817,0.00092812844004987,-0.00092812125452365,0.00092812750017337,-0.00092812074821157,0.00092812803184072,-0.00074118055351841,0.00074118592675308,-0.0007411794406255,0.00074118481405068,0.7372586897946,122718,2924,0.0032160956540008,0.007881632533904,0.0032160956539933,19.920128401247,7.4561027209976e-05,7.4561027209976e-05,7.4561027209976e-05,3039978.6743721,0.014417464806468
25919200,0.99984577882186,0.015656992557186,0.0042270366563774,0.0072029192444485,0.0042270366563605,-0.00077198906294967,0.00077199528671452,3.0185765693428e-09,3.018509298218e-09,2.1849133866091e-09,2.9696693814624e-09,-0.00093150272730817,0.00093151032271212,-0.00093150235175124,0.00093150994692289,-0.00093150241530273,0.00093151060289523,-0.00093150206275143,0.000931510250152,-0.00074080509111966,0.00074081138534814,-0.00074080619814794,0.00074081249210917,1.7573527202572e-10,-4.7080227472544e-10,4.1383670145519e-10,-7.0129821429153e-10,-0.0019039710946868,0.0019039708097896,-0.0021594503383516,0.0021594506666363,-0.0021594498508574,0.002159449423577,-0.0021594497084425,0.0021594495814476,-0.0021594492211012,0.0021594483384917,-0.0016172754762776,0.0016172761095397,-0.001617278634531,0.0016172770116981,-0.001617275786618,0.0016172757876508,-0.0016172784878379,0.0016172771662217,3.0225027305869e-09,3.0224528028916e-09,-0.00077198905831124,0.00077199529134983,1.9611659867841e-09,3.2073007025631e-09,-0.00093150279423674,0.00093151025017788,-0.0009315023400165,0.0009315106832063,-0.00093150241907357,0.0009315098747977,-0.00093150198762156,0.00093151033061844,-0.00074080611742391,0.00074081257060752,-0.0007408050117596,0.00074081146513309,0.72914636768882,122718,2924,0.0032144265273528,0.0079004870379944,0.0032144265273461,20.734466331166,8.1075730649329e-05,8.1075730649329e-05,8.1075730649329e-05,2872261.0570493,0.014433233271825
26419200,0.99986328569721,0.015657324569755,0.0042271338831981,0.0072030568033751,0.0042271338831813,-0.00077024747694477,0.00077025621535654,3.964275316364e-09,3.9642079992407e-09,3.0635786140722e-09,4.0253933563491e-09,-0.00092924874311437,0.0009292584448843,-0.00092924818902308,0.00092925789056068,-0.00092924836831776,0.00092925878661834,-0.00092924784010812,0.00092925825821663,-0.00073919457416881,0.00073920295408197,-0.00073919573813465,0.00073920411778027,2.2256337322407e-10,-5.7703539308248e-10,4.2366788506046e-10,-7.6835148968353e-10,-0.0019033293022377,0.0019033289600096,-0.0021597311376988,0.0021597315098363,-0.002159730441086,0.0021597299819385,-0.002159730323146,0.0021597301145945,-0.0021597296266863,0.0021597285868001,-0.0016155989144049,0.0016155995060107,-0.0016156020364565,0.0016156002312835,-0.0016155991754513,0.0016155992342715,-0.0016156019154091,0.0016156003595111,3.9665839348042e-09,3.9665339570956e-09,-0.00077024747396071,0.00077025621833751,2.8767402687653e-09,4.2219446130076e-09,-0.00092924879939661,0.00092925838376672,-0.00092924830670137,0.00092925885232602,-0.00092924824571963,0.00092925782987254,-0.00092924777879,0.00092925832422221,-0.00073919567184032,0.00073920418169786,-0.0007391945089575,0.00073920301900518,0.79204195954471,122718,2924,0.003207204837919,0.0078978491308417,0.0032072048379124,20.398880726409,7.8391045811272e-05,7.8391045811272e-05,7.8391045811272e-05,2863699.8072026,0.014415898862389
26919200,0.99987958540557,0.015657615917759,0.0042272188890479,0.0072031781396798,0.004227218889031,-0.00077048503695378,0.00077049112988349,2.9686538463925e-09,2.9685865639548e-09,2.1330387325739e-09,2.9221596891744e-09,-0.00093118437441933,0.000931191860653,-0.00093118400878237,0.00093119149478369,-0.00093118406129088,0.00093119214210654,-0.00093118371866312,0.00093119179928678,-0.00073945711351318,0.00073946330081128,-0.00073945822752849,0.00073946441455914,1.7836075361317e-10,-4.7360979492822e-10,3.4886361286786e-10,-6.3630651333162e-10,-0.0019065667632863,0.0019065664783792,-0.0021621824717091,0.0021621827580275,-0.0021621819537849,0.0021621815708102,-0.0021621818546495,0.0021621816834255,-0.0021621813368782,0.0021621804963115,-0.0016193768571688,0.001619377361086,-0.001619379899448,0.0016193784026557,-0.0016193770797251,0.0016193771293257,-0.0016193797961942,0.0016193785120382,2.9667542056808e-09,2.966704269074e-09,-0.00077048503817198,0.00077049112866218,1.9696050157423e-09,3.0853412528874e-09,-0.0009311844244481,0.00093119180478193,-0.0009311840136328,0.00093119219460417,-0.00093118405951806,0.00093119143963457,-0.00093118367126948,0.00093119185204814,-0.00073945817501111,0.00073946446482024,-0.00073945706234816,0.00073946335234696,0.74688297492095,122718,2924,0.0032082092485332,0.0079111844536538,0.0032082092485266,21.287118468124,8.5496947744994e-05,8.5496947744994e-05,8.5496947744994e-05,2781927.4546536,0.014431475362936
27419200,0.9998947161499,0.015657879053192,0.0042272959123863,0.0072032872284364,0.0042272959123695,-0.00077217174298408,0.00077217762650504,2.8891136866703e-09,2.889046331393e-09,2.1317716350917e-09,2.7527537169988e-09,-0.00093101419509317,0.00093102155594202,-0.00093101384278658,0.00093102120340315,-0.00093101393663737,0.00093102178122086,-0.00093101360738737,0.00093102145177867,-0.00074106653826725,0.00074107250560385,-0.00074106763983854,0.00074107360690751,1.1778633894349e-10,-3.686751512272e-10,2.4624877762182e-10,-4.9138194326599e-10,-0.0019074784883598,0.0019074782459348,-0.0021648025793918,0.0021648027706059,-0.0021648020021369,0.0021648016883617,-0.0021648019298687,0.0021648017734362,-0.0021648013527671,0.0021648006912952,-0.0016187396239812,0.0016187399825154,-0.0016187424382153,0.0016187412815919,-0.0016187397927447,0.0016187398053025,-0.0016187423601447,0.0016187413652595,2.8861687474524e-09,2.886118732098e-09,-0.0007721717452966,0.00077217762418957,2.0070754542226e-09,2.8741872737649e-09,-0.00093101423194842,0.00093102151232358,-0.00093101390413984,0.00093102181936478,-0.00093101388053204,0.00093102116069,-0.00093101357508524,0.00093102149011776,-0.00074106760197878,0.00074107364263821,-0.00074106650195633,0.0007410725428061,0.72588280929977,122718,2924,0.0032152006915716,0.0079150095988955,0.0032152006915652,22.251088101776,9.3208704814209e-05,9.3208704814209e-05,9.3208704814209e-05,2807044.9967859,0.014449527036437
27919200,0.99990842994945,0.015658130513582,0.0042273696479102,0.0072033912177786,0.0042273696478933,-0.00077340434562382,0.00077341087323335,3.1306099741374e-09,3.130542605827e-09,2.3942815225875e-09,2.9814624859853e-09,-0.00093147243535962,0.00093148036374092,-0.00093147203616694,0.00093147996431606,-0.00093147218597303,0.00093148057851136,-0.00093147181081779,0.00093148020316405,-0.0007421441150076,0.00074215058910488,-0.00074214523134214,0.00074215170517175,1.0267363618501e-10,-3.4386317003972e-10,1.9452562496392e-10,-4.3055268749918e-10,-0.0019085207172076,0.0019085204839647,-0.0021665407627053,0.0021665409201578,-0.0021665400889744,0.002166539808053,-0.0021665400399456,0.0021665398687542,-0.0021665393663677,0.0021665387567528,-0.0016192463692502,0.0016192466369468,-0.0016192490470703,0.001619248023691,-0.0016192464908301,0.0016192465082455,-0.0016192489918015,0.0016192480836378,3.1251485756503e-09,3.1250985374143e-09,-0.00077340435048948,0.00077341086836467,2.3022822705335e-09,3.0637377516666e-09,-0.00093147246233465,0.00093148032958167,-0.00093147216796581,0.00093148060238874,-0.00093147206421427,0.00093147993124414,-0.00093147179302111,0.00093148022725153,-0.0007421452080198,0.00074215172638629,-0.00074214409330118,0.00074215061185791,0.76533978020323,122718,2924,0.0032203125281708,0.0079193425516549,0.0032203125281643,22.918635438547,9.8549083508378e-05,9.8549083508378e-05,9.8549083508378e-05,2812990.2326818,0.014464290737783
28419200,0.99992069511934,0.015658373163373,0.0042274409288833,0.0072034913056229,0.0042274409288665,-0.00077348240522451,0.00077348921965947,3.2392042440191e-09,3.2391369226836e-09,2.500455050355e-09,3.0906173699961e-09,-0.00093243558635749,0.00093244376361523,-0.00093243518787048,0.00093244336489599,-0.00093243533568376,0.00093244397952997,-0.00093243496124609,0.00093244360490029,-0.00074223124197738,0.00074223796489686,-0.00074223236054144,0.00074223908319342,1.0340643682787e-10,-3.4070314284109e-10,1.9238534405392e-10,-4.2461242191139e-10,-0.0019102458714167,0.0019102456419761,-0.002168034735429,0.00216803489322,-0.0021680340585389,0.002168033783181,-0.002168034011187,0.0021680338419581,-0.0021680333344498,0.0021680327320225,-0.001621161050337,0.0016211613146753,-0.0016211637176038,0.0016211627068179,-0.0016211611682442,0.0016211611898138,-0.0016211636640691,0.0016211627649173,3.2324517317302e-09,3.2324017390516e-09,-0.00077348241136555,0.00077348921351527,2.4096635887844e-09,3.1688036731182e-09,-0.00093243561359647,0.00093244372909505,-0.0009324353198052,0.00093244400134408,-0.00093243521621547,0.0009324433314969,-0.00093243494557584,0.00093244362692228,-0.00074223233937923,0.00074223910224127,-0.00074223122245804,0.00074223798551018,0.82558911402084,122718,2924,0.003220649863022,0.0079264485702769,0.0032206498630153,23.441509130907,0.00010273207304726,0.00010273207304726,0.00010273207304726,2753912.495988,0.014472191268148
28919200,0.99993162696188,0.015658573320144,0.0042274995920368,0.0072035741360874,0.0042274995920199,-0.00077327485674929,0.00077328166766097,3.2349653918312e-09,3.234898112594e-09,2.5020080535093e-09,3.0954508975705e-09,-0.00093430554759925,0.00093431370925845,-0.00093430513107814,0.00093431329250512,-0.00093430529509604,0.00093431392643192,-0.00093430490304684,0.00093431353419061,-0.00074213699359025,0.00074214369290545,-0.00074213812380148,0.00074214482284928,1.0775103380929e-10,-3.4238555247404e-10,1.6890585015987e-10,-3.9850350093277e-10,-0.0019130737648652,0.0019130735380593,-0.0021694554469905,0.002169455596125,-0.0021694547269272,0.0021694544722536,-0.002169454696993,0.0021694545122885,-0.0021694539770827,0.0021694533885202,-0.0016250360495492,0.0016250362646326,-0.001625038649379,0.0016250376883103,-0.0016250361316719,0.0016250361772478,-0.0016250386133638,0.0016250377276866,3.2244513812384e-09,3.2244014310878e-09,-0.00077327486665926,0.00077328165774788,2.4341743972607e-09,3.1415745746635e-09,-0.00093430556908113,0.00093431368019994,-0.00093430529179233,0.00093431393568227,-0.00093430515389129,0.00093431326479309,-0.0009343049000104,0.00093431354370805,-0.00074213811552658,0.00074214482896487,-0.00074213698702134,0.00074214370064952,0.7640056113105,122718,2924,0.0032198127233654,0.0079380772579455,0.0032198127233587,23.983785234441,0.00010707028187553,0.00010707028187553,0.00010707028187553,2683022.1416438,0.014482301637699
29419200,0.99994145289635,0.015658720295466,0.0042275424723728,0.0072036353507375,0.0042275424723559,-0.00077492446056056,0.00077493070295211,3.0219316514429e-09,3.0218642687146e-09,2.311859931948e-09,2.8431835020486e-09,-0.00093373696431116,0.00093374466479199,-0.00093373658644916,0.00093374428669777,-0.00093373673342983,0.00093374486063578,-0.00093373637947983,0.00093374450649373,-0.00074372452181015,0.00074373074577876,-0.0007437256365072,0.00074373186020823,8.525119928144e-11,-3.0825465367898e-10,1.1755867672195e-10,-3.3610546950274e-10,-0.0019133534010146,0.0019133531852994,-0.0021716047224402,0.002171604821096,-0.0021716040199641,0.0021716037950989,-0.0021716040086694,0.002171603816097,-0.0021716033063462,0.002171602790203,-0.0016236416372526,0.001623641772406,-0.0016236441614272,0.0016236433415262,-0.0016236416820408,0.001623641722778,-0.0016236441435425,0.0016236433624651,3.011110368101e-09,3.011060349482e-09,-0.00077492447081712,0.00077493069269257,2.2717847915634e-09,2.8603875953945e-09,-0.00093373697651895,0.00093374464480373,-0.00093373674001196,0.00093374486014446,-0.00093373660005439,0.00093374426812194,-0.00093373638632347,0.00093374450626341,-0.00074372563805124,0.00074373185657733,-0.00074372452507075,0.0007437307437868,0.62417410960896,122718,2924,0.0032266448727977,0.0079392993033093,0.0032266448727913,24.778612521351,0.0001134289001708,0.0001134289001708,0.0001134289001708,2724561.33488,0.014497387835881
29919200,0.9999501715384,0.015658863897069,0.0042275846543804,0.0072036945883248,0.0042275846543635,-0.00077823828408757,0.00077824475470626,3.1098758155315e-09,3.1098082852328e-09,2.403906107552e-09,2.9191691970613e-09,-0.00093230161176119,0.00093230952735661,-0.00093230121402685,0.0009323091293902,-0.00093230138579491,0.00093230971804075,-0.0009323010123654,0.00093230934441891,-0.00074678438182585,0.00074679078968646,-0.00074678549532896,0.00074679190292146,7.2821359357458e-11,-3.0245234005333e-10,7.57431101588e-11,-3.0103331128604e-10,-0.0019116630060132,0.0019116627835962,-0.0021730194175725,0.0021730194811043,-0.0021730186713962,0.0021730184591599,-0.0021730186792106,0.0021730184606718,-0.0021730179331872,0.0021730174388311,-0.0016194657839762,0.0016194658419803,-0.001619468238463,0.0016194674932409,-0.001619465790473,0.0016194658309952,-0.0016194682394755,0.0016194674950633,3.0999060660711e-09,3.0998559193089e-09,-0.0007782382935643,0.00077824474522662,2.3938302630404e-09,2.9075907189073e-09,-0.00093230161345749,0.00093230951792751,-0.00093230140138056,0.00093230970848418,-0.00093230121712814,0.00093230912138126,-0.0009323010282183,0.00093230933512972,-0.00074678550588254,0.00074679189035586,-0.0007467843940158,0.00074679077868,0.68688558505508,122718,2924,0.0032403546652555,0.0079324498252397,0.0032403546652493,25.46522725451,0.00011892181803608,0.00011892181803608,0.00011892181803608,2865505.8822592,0.014518228625528
30419200,0.99995784934572,0.015658967129652,0.0042276145084514,0.007203738112766,0.0042276145084346,-0.00077916070954801,0.00077916724004436,3.1316298534771e-09,3.1315624466191e-09,2.4327806837991e-09,2.9436219345175e-09,-0.00093625685816923,0.00093626481693297,-0.00093625645888808,0.00093626441741966,-0.00093625663287837,0.00093626500627805,-0.00093625625809628,0.00093626463130401,-0.00074755365641756,0.00074756010612673,-0.00074755477669201,0.00074756122613316,7.5733037495925e-11,-2.9462622598868e-10,5.7508929259334e-11,-2.7239549615163e-10,-0.0019148445711759,0.0019148443591897,-0.0021738345023472,0.0021738345599877,-0.0021738337343427,0.0021738335459424,-0.002173833754964,0.0021738335331915,-0.0021738329871126,0.0021738325192496,-0.0016249092026362,0.0016249092262237,-0.0016249115963952,0.0016249109096764,-0.001624909182284,0.0016249092438705,-0.0016249116103003,0.0016249108973609,3.1169357781633e-09,3.1168857656176e-09,-0.00077916072372967,0.00077916722585984,2.4374735012695e-09,2.9060563584969e-09,-0.00093625685719497,0.00093626480970244,-0.00093625665968067,0.00093626498569087,-0.00093625645956448,0.00093626441185489,-0.00093625628520673,0.00093626461102428,-0.00074755479871946,0.00074756120205655,-0.00074755368020445,0.00074756008373134,0.56251928746541,122718,2924,0.0032442064149131,0.0079455150357483,0.003244206414907,26.130535815267,0.00012424428652213,0.00012424428652213,0.00012424428652213,2777250.1843572,0.014539321919925
30919200,0.99996467747165,0.015659077784728,0.0042276469993283,0.0072037837860881,0.0042276469993115,-0.00078313754194431,0.0007831433171064,2.847612451012e-09,2.8475449332741e-09,2.1927762130503e-09,2.593610570448e-09,-0.00093608256707594,0.00093608991013168,-0.00093608221911304,0.00093608956193664,-0.0009360823795199,0.00093609006182698,-0.00093608205528412,0.00093608973739887,-0.00075156043568025,0.0007515662450438,-0.00075156153001195,0.00075156733910744,3.8984598429631e-11,-2.2954542322136e-10,-6.939055546028e-12,-1.8080518470219e-10,-0.0019138150208774,0.001913814836113,-0.0021752881978977,0.0021752881902209,-0.0021752874532533,0.0021752873097306,-0.0021752874916537,0.002175287278863,-0.0021752867471624,0.0021752863984764,-0.0016218208769315,0.0016218208108547,-0.0016218231630223,0.0016218226898532,-0.0016218208209527,0.0016218208643807,-0.0016218231938146,0.0016218226604758,2.8332634415261e-09,2.8332132637796e-09,-0.00078313755582651,0.00078314330322128,2.2242913468379e-09,2.529508753709e-09,-0.0009360825565633,0.00093608991202895,-0.00093608241526972,0.00093609003268433,-0.00093608221031631,0.00093608956556509,-0.00093608209129491,0.00093608970851726,-0.00075156156071422,0.00075156730647103,-0.00075156046822393,0.00075156621417167,0.67617106509292,122718,2924,0.0032606767186783,0.0079413749333865,0.0032606767186721,27.119724641353,0.00013215779713082,0.00013215779713082,0.00013215779713082,2905435.5872652,0.01456851385242
31419200,0.99997078622237,0.01565918000049,0.0042276768294526,0.0072038263416018,0.0042276768294357,-0.00078463736588589,0.00078464240142274,2.5646914951228e-09,2.564624147431e-09,1.9799264701771e-09,2.237329274097e-09,-0.00094234411090832,0.00094235085344311,-0.00094234381664593,0.00094235055894842,-0.00094234397028139,0.00094235095685065,-0.0009423436992716,0.00094235068564881,-0.00075306604763907,0.00075307120215857,-0.00075306713302456,0.00075307228727627,-1.1247958441414e-12,-1.3272770764199e-10,-7.2209972387852e-11,-6.0838727242174e-11,-0.0019192934963554,0.0019192933664242,-0.0021772328357378,0.002177232770324,-0.0021772320954664,0.0021772320220314,-0.0021772321489413,0.0021772319745823,-0.0021772314088231,0.0021772312263931,-0.0016304197158322,0.0016304195701421,-0.0016304218379389,0.0016304216469319,-0.0016304196286203,0.0016304196567983,-0.0016304218826473,0.0016304216022999,2.5449038237586e-09,2.5448538285359e-09,-0.00078463738517698,0.00078464238212873,2.0279522064227e-09,2.143968672056e-09,-0.00094234409686932,0.00094235085760445,-0.00094234401943481,0.00094235091523943,-0.00094234380468412,0.00094235056520196,-0.00094234374865259,0.00094235064426474,-0.00075306717688005,0.00075307224151803,-0.0007530660936762,0.00075307115850366,0.69952705654839,122718,2924,0.0032669453223999,0.0079638842687365,0.0032669453223937,28.436971333387,0.0001426957706671,0.0001426957706671,0.0001426957706671,2757252.0699006,0.014604103709286
31919200,0.9999760477637,0.01565927073072,0.0042277034930101,0.0072038637447164,0.0042277034929933,-0.00078555030384863,0.00078555641029607,2.9683904711517e-09,2.9683231246788e-09,2.3831983278571e-09,2.659190186624e-09,-0.00094406571538527,0.00094407337628899,-0.00094406534501679,0.00094407300568821,-0.00094406556597127,0.00094407348705188,-0.00094406522025536,0.00094407314114388,-0.00075421668472898,0.00075422271046132,-0.00075421779430169,0.00075422381976661,1.1443795988123e-12,-1.3882350218436e-10,-9.2230915997062e-11,-4.4571551546166e-11,-0.0019214044014419,0.0019214042677701,-0.0021789331178499,0.0021789330506257,-0.002178932266588,0.0021789322040558,-0.0021789323343384,0.0021789321416417,-0.0021789314832295,0.002178931295175,-0.0016326854878154,0.0016326852959651,-0.0016326875271075,0.0016326873657914,-0.0016326853716151,0.0016326854124091,-0.0016326875860419,0.0016326873063431,2.9464695596275e-09,2.9464195699341e-09,-0.00078555032527546,0.00078555638886632,2.4509373265177e-09,2.5409976174426e-09,-0.00094406569588903,0.00094407338577183,-0.00094406562449055,0.00094407343605994,-0.00094406532771331,0.00094407301737894,-0.00094406527903699,0.00094407309041395,-0.00075421784768705,0.00075422376442548,-0.00075421674031747,0.00075422265724586,0.71926751588325,122718,2924,0.0032707543449839,0.0079725843469507,0.0032707543449777,29.269218376343,0.00014935374701075,0.00014935374701075,0.00014935374701075,2716102.4935107,0.014620661610458
32419200,0.99998036794383,0.01565935254641,0.0042277276604272,0.0072038972255722,0.0042277276604104,-0.00078475848169403,0.00078476616919721,3.5677893192022e-09,3.5677219924656e-09,2.9589475986415e-09,3.2664944760124e-09,-0.00094375801164061,0.00094376705143162,-0.0009437576422527,0.00094376668181143,-0.0009437578510373,0.00094376717340351,-0.00094375750629238,0.0009437668284665,-0.00075349304554147,0.00075350045129681,-0.00075349415923215,0.00075350156472002,1.6988851002264e-12,-1.394447313827e-10,-9.3362882122156e-11,-4.3484996151452e-11,-0.0019217999194273,0.0019217997857051,-0.0021793226015644,0.0021793225339348,-0.0021793217503006,0.0021793216888292,-0.0021793218191371,0.0021793216252838,-0.0021793209680262,0.0021793207802815,-0.0016330626591184,0.0016330624646278,-0.0016330646923368,0.0016330645327801,-0.0016330625407198,0.0016330625833303,-0.0016330647523694,0.0016330644721877,3.5455767752839e-09,3.5455268023988e-09,-0.00078475850341068,0.00078476614747756,3.0280749363893e-09,3.1462677299563e-09,-0.0009437579918588,0.00094376706119526,-0.00094375791038837,0.0009437671215669,-0.00094375762467526,0.00094376669379457,-0.00094375756591168,0.00094376677689776,-0.00075349421347418,0.00075350150851889,-0.0007534931019841,0.0007535003972188,0.78912843059549,122718,2924,0.0032674781975933,0.0079742042652337,0.0032674781975869,29.299117507069,0.00014959294005655,0.00014959294005655,0.00014959294005655,2681865.405379,0.014615658814712
32919200,0.99998388762712,0.015659410879758,0.0042277447974736,0.0072039212848273,0.0042277447974568,-0.00078291366451994,0.00078292188541972,3.7693453731377e-09,3.7692780867252e-09,3.1541119527287e-09,3.4802092791425e-09,-0.00094338037680088,0.00094338986293226,-0.00094337991838253,0.00094338940428169,-0.00094338020902433,0.00094338999105545,-0.00094337977631563,0.00094338955815474,-0.00075174635528785,0.00075175421815887,-0.00075174742396368,0.00075175528656741,1.0288786272877e-11,-1.5683748236963e-10,-8.5919795620986e-11,-5.9434429024873e-11,-0.0019228104917093,0.0019228103494752,-0.0021800287863454,0.0021800287354469,-0.0021800278343603,0.0021800277652752,-0.002180027903963,0.0021800277008588,-0.0021800269521309,0.0021800267307904,-0.0016342613523829,0.0016342611621665,-0.0016342633109397,0.0016342631111657,-0.0016342612323509,0.0016342612825924,-0.0016342633719158,0.0016342630495629,3.7463413904598e-09,3.7462914577205e-09,-0.00078291368701762,0.00078292186291905,3.2237879702845e-09,3.3577158788357e-09,-0.00094338035731767,0.00094338987239943,-0.00094338026955488,0.00094338993800913,-0.00094337990112081,0.00094338941598544,-0.00094337983712543,0.00094338950538727,-0.00075174747944707,0.0007517552291078,-0.00075174641296012,0.00075175416281066,0.69092321609738,122718,2924,0.0032598421145183,0.0079783380379322,0.0032598421145119,29.174608892563,0.0001485968711405,0.0001485968711405,0.0001485968711405,2600961.0623535,0.014604367022038
33419200,0.99998679615952,0.015659465102245,0.0042277608845021,0.0072039433332572,0.0042277608844853,-0.0007838028847857,0.00078381064768824,3.5998893746724e-09,3.5998219591012e-09,2.9862077528699e-09,3.3272353525086e-09,-0.00094239384908378,0.00094240292614911,-0.00094239334713613,0.0009424024239692,-0.00094239367587419,0.00094240305934773,-0.00094239320037344,0.00094240258365485,-0.00075258084065061,0.00075258828256365,-0.00075258191445546,0.0007525893561008,1.7164380992884e-11,-1.7554275852452e-10,-8.0070668543098e-11,-7.6726367062153e-11,-0.0019219393404893,0.001921939186796,-0.0021797332579184,0.0021797332179347,-0.0021797322579462,0.0021797321783388,-0.0021797323284337,0.0021797321131626,-0.0021797313286143,0.0021797310736699,-0.0016328022984084,0.001632802109249,-0.0016328042548629,0.0016328040124428,-0.0016328021768464,0.0016328022311995,-0.001632804316836,0.0016328039498427,3.5780343390952e-09,3.5779842768599e-09,-0.00078380290615452,0.00078381062631647,3.0586874738443e-09,3.2043932095137e-09,-0.00094239382816986,0.00094240293725416,-0.00094239373567984,0.00094240300682891,-0.00094239332841485,0.000942402437282,-0.00094239326047746,0.00094240253143408,-0.00075258196931025,0.00075258929925412,-0.00075258089763851,0.00075258822777256,0.77567308772676,122718,2924,0.0032635107007017,0.0079747922542212,0.0032635107006954,29.316106527646,0.00014972885222116,0.00014972885222116,0.00014972885222116,2694385.6513951,0.014608197875422
33919200,0.99998926756453,0.015659510361727,0.0042277742418887,0.0072039618779661,0.0042277742418719,-0.00078406816222125,0.00078407447644152,3.0458420826206e-09,3.0457747657726e-09,2.426421825102e-09,2.7797733839489e-09,-0.00094461826148801,0.00094462607764143,-0.00094461787972871,0.00094462569564984,-0.00094461808675261,0.00094462621439429,-0.00094461772972951,0.000944625857179,-0.00075273019214215,0.00075273640913955,-0.00075273131589686,0.00075273753262696,2.7025575534277e-11,-1.8799409138014e-10,-8.2970518484084e-11,-7.6111032448439e-11,-0.001925143137956,0.001925142981919,-0.0021823772637762,0.0021823772140684,-0.0021823764063121,0.0021823763327313,-0.0021823764848196,0.0021823762589503,-0.0021823756275084,0.0021823753777163,-0.0016363545590793,0.0016363543593797,-0.0016363566281503,0.0016363563798523,-0.0016363544209258,0.0016363544985738,-0.0016363566985854,0.0016363563083206,3.0217814656211e-09,3.0217315029562e-09,-0.00078406818578812,0.00078407445287169,2.5089712180045e-09,2.6416909984704e-09,-0.00094461823860053,0.00094462609083426,-0.0009446181525871,0.00094462615561783,-0.00094461785909578,0.00094462571111228,-0.00094461779591511,0.00094462579875335,-0.00075273137709089,0.0007527374694071,-0.00075273025542945,0.00075273634793551,0.76303060755973,122718,2924,0.0032646358168128,0.0079879849100965,0.0032646358168065,30.069777667427,0.00015575822133941,0.00015575822133941,0.00015575822133941,2595181.7700535,0.014623883338202
34419200,0.99999141442512,0.015659547909386,0.0042277853454619,0.0072039772184795,0.0042277853454451,-0.0007866117763899,0.00078661657836594,2.476235770083e-09,2.4761684161417e-09,1.9211741868058e-09,2.1163213869814e-09,-0.00094651047390137,0.00094651703917711,-0.0009465101988221,0.00094651676386561,-0.00094651035377639,0.00094651712161343,-0.00094651010183817,0.00094651686948313,-0.00075531971961605,0.000755324666958,-0.00075532080592442,0.00075532575299898,-2.0347123762277e-11,-9.1966462811219e-11,-1.4738805516079e-10,3.512769440246e-11,-0.0019275143436958,0.0019275142345818,-0.0021853747487659,0.0021853746258152,-0.0021853739763157,0.0021853739599124,-0.0021853740653916,0.0021853738752052,-0.0021853732930943,0.0021853732094054,-0.001638103117568,0.0016381028451167,-0.0016381050860851,0.0016381051039416,-0.0016381029581413,0.0016381030059606,-0.0016381051658802,0.001638105022784,2.4512090199823e-09,2.4511590190539e-09,-0.00078661180092806,0.00078661655382477,2.0178326537446e-09,1.9617343911486e-09,-0.00094651044616753,0.00094651705644753,-0.00094651042623652,0.00094651705691867,-0.00094651017347432,0.00094651678353718,-0.00094651017457935,0.00094651680506905,-0.00075532087333221,0.00075532568368114,-0.00075531978932938,0.00075532459986826,0.72790058071019,122718,2924,0.0032751937474497,0.0079978048831635,0.0032751937474433,31.47939081209,0.00016703512649672,0.00016703512649672,0.00016703512649672,2588900.1557756,0.014655265630648
34919200,0.99999330409403,0.015659582343386,0.0042277955567357,0.0072039912299317,0.0042277955567189,-0.00079119841938438,0.00079120159924548,1.8636628890508e-09,1.8635954962271e-09,1.4582430652342e-09,1.3205140018802e-09,-0.00094983402938506,0.00094983929406669,-0.000949833868911,0.00094983913336037,-0.00094983402005409,0.00094983926396801,-0.0009498338812695,0.00094983912499139,-0.0007597909251753,0.00075979445524197,-0.00075979196810785,0.00075979549790708,-1.2321497227894e-10,1.2112566637051e-10,-2.8475247141923e-10,2.784728563748e-10,-0.001930718738726,0.0019307187358807,-0.0021894486130293,0.0021894483510804,-0.002189447871071,0.0021894479814362,-0.0021894479813569,0.0021894478746465,-0.0021894472395515,0.0021894475051056,-0.001640616493556,0.0016406160633072,-0.0016406181638667,0.001640618765703,-0.001640616291321,0.0016406162679254,-0.0016406182619373,0.00164061866561,1.8362836685885e-09,1.8362336215292e-09,-0.000791198446285,0.00079120157234194,1.5825237440741e-09,1.13247675522e-09,-0.00094983399204716,0.00094983931904655,-0.00094983410642824,0.000949839187106,-0.00094983383427753,0.00094983916105981,-0.00094983396775426,0.00094983904823966,-0.00075979204838818,0.00075979541593138,-0.00075979100829346,0.00075979437602689,0.75808686568768,122718,2924,0.0032942238655894,0.008011087939727,0.0032942238655832,33.572768467778,0.00018378214774223,0.00018378214774223,0.00018378214774223,2603629.5258077,0.014707354531532
35419200,0.99999493786705,0.01565960878135,0.0042278033533166,0.0072040020747336,0.0042278033532998,-0.00079570968717216,0.00079571220550071,1.6110320759179e-09,1.6109647123509e-09,1.3519468631848e-09,9.0542026676765e-10,-0.0009552022167284,0.00095520701317287,-0.00095520210012368,0.00095520689633593,-0.00095520230740586,0.00095520687989573,-0.00095520221245181,0.00095520678474963,-0.00076425437161512,0.00076425725982087,-0.00076425539992976,0.00076425828786794,-2.2490993777343e-10,3.2210949345255e-10,-4.3575776101716e-10,5.2471036769374e-10,-0.0019357812775644,0.0019357813702673,-0.0021938000143644,0.0021937996128391,-0.0021937992035744,0.002193799439789,-0.0021937993444369,0.0021937993008653,-0.0021937985337997,0.0021937991279184,-0.0016463582002839,0.001646357577015,-0.0016463595118782,0.0016463606993873,-0.0016463579361221,0.0016463578453914,-0.0016463596376434,0.0016463605703224,1.5793099556796e-09,1.5792599481044e-09,-0.00079570971843119,0.00079571217423872,1.5163244643579e-09,6.6663557053228e-10,-0.00095520216662512,0.00095520704888996,-0.00095520241447917,0.00095520678406796,-0.00095520205315347,0.00095520693520116,-0.00095520231950183,0.00095520668889815,-0.000764255500002,0.00076425818625032,-0.00076425447505356,0.0007642571614917,0.67379056419234,122718,2924,0.0033129623812073,0.0080319886990463,0.003312962381201,35.928733241945,0.00020262986593556,0.00020262986593556,0.00020262986593556,2555237.7109746,0.01476659854622
35919200,0.99999625933833,0.015659631719542,0.0042278101637539,0.007204011392051,0.0042278101637371,-0.00079997547858728,0.00079997965440259,2.2332046913098e-09,2.233137235702e-09,1.9932559016872e-09,1.5312613725162e-09,-0.00095678682812422,0.00095679304895927,-0.00095678659259096,0.00095679281319383,-0.00095678691963518,0.00095679291212748,-0.00095678670794764,0.00095679270024771,-0.00076844014302933,0.00076844436332663,-0.00076844120423126,0.00076844542426085,-2.2861511037707e-10,3.4873643092965e-10,-4.8235855092443e-10,5.9359697190232e-10,-0.0019370398578481,0.0019370399729007,-0.0021968207140549,0.0021968203040623,-0.0021968197141501,0.0021968200004069,-0.0021968198822692,0.0021968198328909,-0.0021968188825172,0.0021968195293388,-0.0016461718443503,0.0016461711337289,-0.0016461729735277,0.0016461743074913,-0.0016461715246261,0.0016461714591441,-0.0016461731260782,0.0016461741506037,2.197961350716e-09,2.1979112664372e-09,-0.0007999755133796,0.00079997961960739,2.1954219085736e-09,1.2460001639106e-09,-0.00095678676700523,0.00095679309521683,-0.00095678704414389,0.00095679279910126,-0.00095678653482388,0.00095679286281837,-0.00095678683245273,0.00095679258721769,-0.00076844132188837,0.0007684453050383,-0.00076844026419586,0.00076844424753611,0.72183945217265,122718,2924,0.0033306518804734,0.0080372681403965,0.0033306518804673,37.535857665577,0.00021548686132461,0.00021548686132461,0.00021548686132461,2621443.7053816,0.014807840241893
36419200,0.99999723392925,0.015659648210942,0.0042278150394546,0.0072040181320499,0.0042278150394378,-0.00079923198917482,0.00079923951168423,3.5028611404635e-09,3.5027937863332e-09,3.2143643698823e-09,2.8160419996146e-09,-0.00095729949915802,0.00095730864346853,-0.00095729926411171,0.00095730840819003,-0.00095729956790175,0.00095730852941466,-0.00095729935673812,0.00095730831805892,-0.00076764680903705,0.00076765395007801,-0.00076764787713162,0.00076765501790506,-2.3359960089842e-10,3.4497296901848e-10,-4.9060069325029e-10,5.9316939649387e-10,-0.0019379663915126,0.0019379664979184,-0.0021973279090141,0.0021973274876289,-0.0021973269058281,0.0021973271856493,-0.002197327076016,0.0021973270159289,-0.0021973260729827,0.0021973267140525,-0.0016474671893006,0.0016474664627003,-0.0016474682991816,0.001647469632675,-0.0016474668654175,0.0016474667924625,-0.0016474684538425,0.0016474694735461,3.4672781449886e-09,3.4672281589127e-09,-0.0007992320243116,0.00079923947654456,3.419486129546e-09,2.5269748924935e-09,-0.00095729943724694,0.0009573086905252,-0.00095729969382953,0.00095730841493177,-0.00095729920557284,0.00095730845863397,-0.00095729948267249,0.00095730820358232,-0.00076764799624685,0.00076765489720308,-0.00076764693164913,0.0007676538327955,0.70447270805608,122718,2924,0.0033275875008583,0.0080410632555653,0.0033275875008521,37.488415197548,0.00021510732158039,0.00021510732158039,0.00021510732158039,2560920.467484,0.014805483469875
36919200,0.99999793603613,0.015659659132035,0.0042278182654696,0.0072040226011128,0.0042278182654527,-0.0007978893261507,0.00079789852451685,4.1439730986741e-09,4.1439057186376e-09,3.831476588092e-09,3.485195914216e-09,-0.00095598641427234,0.00095599700508427,-0.00095598598362398,0.00095599657420365,-0.00095598646306754,0.00095599690870446,-0.00095598605879038,0.00095599650423511,-0.00076632820491288,0.00076633679340219,-0.0007663291768763,0.00076633776509792,-2.1653006806682e-10,3.0711181626835e-10,-4.7590198181525e-10,5.5833226656781e-10,-0.0019368749511327,0.0019368750373951,-0.0021960540375935,0.0021960536507148,-0.0021960528171464,0.0021960530787394,-0.0021960529889975,0.0021960529072277,-0.0021960517687032,0.0021960523353555,-0.0016464913958035,0.0016464906757959,-0.0016464923505224,0.0016464935968382,-0.0016464910685319,0.001646491009097,-0.0016464925071738,0.0016464934356148,4.1081066780874e-09,4.1080566651741e-09,-0.00079788936157324,0.00079789848909155,4.0393026404888e-09,3.1927129049107e-09,-0.00095598635167675,0.00095599705289528,-0.0009559865901907,0.00095599679293125,-0.00095598592440656,0.0009559966254079,-0.00095598618593948,0.00095599638848752,-0.00076632929727938,0.00076633764309115,-0.00076632832876495,0.00076633667476689,0.64727478642577,122718,2924,0.0033220167322094,0.0080365482256195,0.0033220167322035,36.86182759292,0.00021009462074336,0.00021009462074336,0.00021009462074336,2573278.5123891,0.014789594201943
37419200,0.99999847791174,0.015659667657758,0.0042278207890334,0.0072040260797077,0.0042278207890165,-0.00080021480574469,0.00080022090770385,2.9627312707533e-09,2.9626638225497e-09,2.5902669834287e-09,2.4260918738233e-09,-0.00095690140866151,0.00095690921706155,-0.0009569010375353,0.0009569088457032,-0.00095690139972801,0.00095690918145268,-0.00095690105455509,0.00095690883608761,-0.00076861805553763,0.00076862393137824,-0.00076861916855701,0.00076862504412995,-1.4065539272136e-10,1.5930837156213e-10,-4.217302790177e-10,4.3528060312342e-10,-0.0019373435308478,0.0019373435479808,-0.0021972160935609,0.0021972157687204,-0.0021972149873112,0.0021972151953347,-0.0021972151734978,0.002197215008615,-0.0021972140674009,0.0021972144353325,-0.0016464413594595,0.0016464406674011,-0.0016464426267253,0.0016464435569272,-0.0016464410026821,0.0016464410312384,-0.0016464428000233,0.0016464433783022,2.9246789395366e-09,2.9246288620076e-09,-0.00080021484336613,0.0008002208700795,2.819420591401e-09,2.1068555500156e-09,-0.00095690134143023,0.00095690927085562,-0.00095690153545044,0.00095690905555758,-0.00095690097364734,0.00095690890285566,-0.00095690119051322,0.00095690871042797,-0.00076861929883847,0.00076862491205243,-0.00076861818886841,0.0007686238022727,0.654624582255,122718,2924,0.0033316472165361,0.0080385269561828,0.0033316472165299,37.673746648073,0.00021658997318459,0.00021658997318459,0.00021658997318459,2619601.5751195,0.014811138401326
37919200,0.99999887756841,0.015659673518576,0.0042278225164471,0.0072040284856981,0.0042278225164303,-0.00080018305324002,0.00080019075930671,3.5698196565776e-09,3.5697522558609e-09,3.1679088964162e-09,3.0473422926083e-09,-0.00095730543655497,0.00095731463643325,-0.00095730506604559,0.00095731426569169,-0.00095730541257649,0.00095731461604184,-0.00095730506799559,0.00095731427126882,-0.0007685317953792,0.00076853907395886,-0.00076853291084613,0.00076854018915815,-1.3756230065438e-10,1.4943388416212e-10,-4.1972436935569e-10,4.2669664294575e-10,-0.0019377178181038,0.0019377178286524,-0.0021974014402765,0.0021974011164435,-0.0021974003374637,0.0021974005397248,-0.0021974005243808,0.0021974003522303,-0.0021973994217207,0.0021973997756149,-0.0016469914355813,0.0016469907430718,-0.0016469927067481,0.0016469936157414,-0.0016469910773363,0.0016469911084553,-0.001646992880916,0.0016469934361902,3.5317161717893e-09,3.5316661414648e-09,-0.00080018309091685,0.00080019072162697,3.3982713539369e-09,2.7267396296957e-09,-0.00095730536901695,0.0009573146906079,-0.0009573055487007,0.00095731448965857,-0.0009573050018505,0.00095731432322434,-0.00095730520436851,0.00095731414513397,-0.00076853304158921,0.00076854005660604,-0.00076853192914534,0.00076853894435239,0.61069305856351,122718,2924,0.0033315233471143,0.0080400628085955,0.0033315233471081,37.676472218597,0.00021661177774878,0.00021661177774878,0.00021661177774878,2602202.4729612,0.014812450420134
38419200,0.99999916650459,0.015659678360358,0.0042278239531985,0.0072040304539778,0.0042278239531817,-0.00079974432221334,0.00079975343786694,4.1050015015091e-09,4.104934060024e-09,3.5037482908047e-09,3.8479734477878e-09,-0.00095606284969419,0.00095607311950351,-0.00095606226415478,0.00095607253373187,-0.00095606267008564,0.00095607325632188,-0.00095606211363451,0.00095607269967862,-0.00076810041121548,0.00076810889343713,-0.00076810159301035,0.00076811007496422,9.888130218527e-12,-1.6712965883306e-10,-2.6369585339033e-10,1.0773963527516e-10,-0.0019361305744856,0.0019361304217097,-0.002196095509865,0.0021960953623144,-0.0021960942807277,0.002196094317063,-0.0021960944633468,0.0021960941338639,-0.0021960932343624,0.0021960930887159,-0.0016452405993447,0.0016452400463992,-0.001645242213566,0.0016452423404767,-0.0016452402494106,0.001645240403498,-0.0016452423877312,0.0016452421608796,4.0672269120538e-09,4.0671768408923e-09,-0.00079974435956979,0.00079975340050756,3.731423706273e-09,3.5307737606602e-09,-0.00095606278523415,0.00095607317322343,-0.0009560628025036,0.00095607313100849,-0.00095606220274376,0.00095607259051594,-0.00095606224660811,0.00095607257492059,-0.00076810172190141,0.00076810994393614,-0.00076810054235277,0.00076810876457778,0.69725492786584,122718,2924,0.0033296924116034,0.0080335233012518,0.0033296924115972,37.198126697344,0.00021278501357875,0.00021278501357875,0.00021278501357875,2642253.3460279,0.014802092046474
38880000,0.999999368276,0.015659681869919,0.0042278249928109,0.0072040318843137,0.004227824992794,-0.00079855397294244,0.00079856200867955,3.692208683107e-09,3.6921489126059e-09,3.0809183520004e-09,3.4605216891437e-09,-0.00095734733620178,0.00095735662702886,-0.00095734681086948,0.00095735610137483,-0.00095734714676915,0.00095735677517189,-0.00095734664943074,0.00095735627756312,-0.00076688150869784,0.00076688906881658,-0.00076688272328741,0.00076689028323419,2.7769616598451e-11,-1.9687674737404e-10,-2.4226859515484e-10,7.5014773408988e-11,-0.0019380821367238,0.0019380819726031,-0.0021969066672146,0.0021969065344125,-0.0021969055206562,0.002196905543537,-0.0021969057011278,0.0021969053626686,-0.0021969045547454,0.0021969043719665,-0.0016480531299896,0.0016480526041808,-0.0016480548475066,0.001648054894506,-0.0016480527843926,0.0016480529567935,-0.0016480550200187,0.0016480547167204,3.6547902772246e-09,3.6547467544218e-09,-0.00079855400999961,0.00079856197177568,3.3059605522038e-09,3.1468556351929e-09,-0.00095734727276019,0.00095735668015019,-0.00095734727784685,0.00095735665129321,-0.00095734675044304,0.00095735615753261,-0.00095734678086049,0.00095735615422588,-0.00076688285071942,0.00076689015349735,-0.00076688163832968,0.00076688894139604,0.72416034322614,122718,2924,0.0033247814637968,0.008041518305666,0.0033247814641145,37.193679086025,0.0002127494326882,0.0002127494326882,0.0002127494326882,2547671.7448162,0.014800256831486
