time,ASR_ext,ASR_strain,ASR_strain_xx,ASR_strain_yy,ASR_strain_zz,disp_x_101,disp_x_102,disp_x_103,disp_x_104,disp_x_105,disp_x_106,disp_x_p1_neg,disp_x_p1_pos,disp_x_p2_neg,disp_x_p2_pos,disp_x_p3_neg,disp_x_p3_pos,disp_x_p4_neg,disp_x_p4_pos,disp_x_p5_neg,disp_x_p5_pos,disp_x_p6_neg,disp_x_p6_pos,disp_y_101,disp_y_102,disp_y_103,disp_y_104,disp_y_105,disp_y_106,disp_y_p1_neg,disp_y_p1_pos,disp_y_p2_neg,disp_y_p2_pos,disp_y_p3_neg,disp_y_p3_pos,disp_y_p4_neg,disp_y_p4_pos,disp_y_p5_neg,disp_y_p5_pos,disp_y_p6_neg,disp_y_p6_pos,disp_y_p7_neg,disp_y_p7_pos,disp_y_p8_neg,disp_y_p8_pos,disp_z_101,disp_z_102,disp_z_103,disp_z_104,disp_z_105,disp_z_106,disp_z_p1_neg,disp_z_p1_pos,disp_z_p2_neg,disp_z_p2_pos,disp_z_p3_neg,disp_z_p3_pos,disp_z_p4_neg,disp_z_p4_pos,disp_z_p5_neg,disp_z_p5_pos,disp_z_p6_neg,disp_z_p6_pos,humidity,ndof,nelem,strain_xx,strain_yy,strain_zz,temp,thermal_strain_xx,thermal_strain_yy,thermal_strain_zz,vonmises,vstrain
2419200,0,0,0,0,0,0,0,0,0,0,0,0,0,0,0,0,0,0,0,0,0,0,0,0,0,0,0,0,0,0,0,0,0,0,0,0,0,0,0,0,0,0,0,0,0,0,0,0,0,0,0,0,0,0,0,0,0,0,0,0,0,0,0,0,0,0,0,0,0,0,0,0,0,0,0
3419200,0.15971950141214,0.00275450922535,0.00091816974178334,0.00091816974178334,0.00091816974178334,-0.00023913398898749,0.00023913397759844,-3.8870856428268e-12,-3.9037858703244e-12,-2.7462928264444e-12,-5.0838709338797e-12,-0.00024655944772133,0.00024655943955795,-0.00024655944904953,0.00024655944087503,-0.00024655944848992,0.00024655943877042,-0.00024655944980841,0.00024655944007778,-0.00023989737512427,0.00023989736566773,-0.00023989737543711,0.00023989736594786,-7.3432399337665e-13,1.5222192509232e-12,-1.0139388042773e-12,1.7687732740141e-12,-0.00027388002869982,0.00027388002945797,-0.00027822238188266,0.00027822238089691,-0.00027822238234123,0.00027822238326668,-0.00027822238251286,0.00027822238308723,-0.00027822238297143,0.00027822238545699,-0.00026658468653743,0.00026658468534033,-0.00026658468439046,0.00026658468862166,-0.00026658468619009,0.00026658468569624,-0.00026658468453966,0.00026658468846671,-3.9436100474789e-12,-3.9269098039834e-12,-0.0002391339890276,0.00023913397755832,-2.5419868955158e-12,-5.3772500830209e-12,-0.00024655944766857,0.0002465594395924,-0.00024655944863072,0.00024655943864667,-0.00024655944898879,0.00024655944092376,-0.00024655944993619,0.00024655943996327,-0.00023989737554669,0.00023989736584084,-0.00023989737527125,0.00023989736553269,0.78394575002955,131490,2924,0.00099589845433199,0.001140510392015,0.00099589845433199,31.872959357199,0.00017018367485759,0.00017018367485759,0.00017018367485759,2638471.4700602,0.0031372214457139
4419200,0.35016800880839,0.0058770315618993,0.001829107894548,0.0022188157728033,0.001829107894548,-0.00043527322663979,0.00043527320712931,-7.1223433529613e-12,-7.1390032666342e-12,-5.5268307896279e-12,-9.5892570547793e-12,-0.00046189202757659,0.00046189201170942,-0.00046189203070008,0.0004618920148218,-0.00046189202893514,0.00046189201033567,-0.00046189203203359,0.00046189201342303,-0.00043724518523917,0.0004372451684375,-0.00043724518540046,0.00043724516856617,-8.9484176613947e-13,2.9113186200381e-12,-1.184138531263e-12,3.1198549258677e-12,-0.00060449154568282,0.00060449154762948,-0.00063279945442735,0.00063279945359307,-0.00063279945828557,0.00063279946038317,-0.00063279945846595,0.00063279946020902,-0.00063279946232416,0.00063279946699913,-0.00056525135239,0.00056525135141025,-0.00056525135152366,0.00056525135895954,-0.00056525135202834,0.00056525135177681,-0.00056525135164144,0.00056525135883827,-7.1622650653657e-12,-7.1456053390148e-12,-0.00043527322666286,0.00043527320710623,-5.3412734012934e-12,-9.832242085338e-12,-0.00046189202751596,0.00046189201174744,-0.00046189202904856,0.00046189201024336,-0.00046189203063179,0.00046189201487438,-0.00046189203213395,0.00046189201333984,-0.00043724518548319,0.00043724516848732,-0.00043724518536468,0.00043724516833619,0.77879543344935,131490,2924,0.0018120735865849,0.0025154844996765,0.0018120735865849,33.606624220907,0.00018405299376726,0.00018405299376726,0.00018405299376726,4583794.4753668,0.006158546253808
5419200,0.54989419628273,0.0090348203705183,0.0026563732333102,0.0037220739038978,0.0026563732333102,-0.00060782683195274,0.00060782682969051,-3.1400789073036e-13,-3.3067792699725e-13,-8.0153163508227e-13,8.0951538750765e-13,-0.00065967612565944,0.00065967612324583,-0.00065967612717338,0.00065967612474866,-0.00065967612515338,0.00065967612378999,-0.00065967612667284,0.00065967612529833,-0.0006054501928929,0.00060545019172661,-0.00060545019196012,0.00060545019076118,6.1124291518381e-13,-1.0683963465191e-12,7.3336474326932e-13,-1.1895536599522e-12,-0.00098929240757815,0.00098929240711776,-0.0010662047587169,0.001066204759573,-0.0010662047603465,0.0010662047597899,-0.001066204760267,0.0010662047598745,-0.0010662047618965,0.0010662047600913,-0.00089392653065878,0.00089392653147892,-0.0008939265314716,0.00089392652859843,-0.00089392653078802,0.00089392653133847,-0.0008939265314017,0.00089392652867592,-2.9115403191477e-13,-2.7448465879973e-13,-0.00060782683191166,0.00060782682973159,-8.8091800032448e-13,9.7694330900472e-13,-0.00065967612568862,0.00065967612324374,-0.00065967612505435,0.00065967612386542,-0.00065967612718669,0.00065967612475295,-0.00065967612656392,0.0006596761253861,-0.00060545019185824,0.00060545019085975,-0.00060545019282313,0.00060545019179197,0.77316831870706,131490,2924,0.0025297778808134,0.0041133647168077,0.0025297778808133,36.277816651522,0.00020542253321218,0.00020542253321218,0.00020542253321218,5428222.257828,0.0092152184536214
6419200,0.70623817739088,0.011325090211406,0.0032059008852397,0.0049132884409264,0.0032059008852397,-0.00070731962325315,0.00070731962020302,-7.1928925782456e-13,-7.3572586168335e-13,-1.6632285792145e-12,-1.2053339719922e-12,-0.00078682951563828,0.00078682951323981,-0.00078682951609584,0.00078682951368643,-0.00078682951549358,0.00078682951340182,-0.00078682951595896,0.00078682951385623,-0.00069544357267702,0.00069544357113942,-0.00069544357138872,0.00069544356981891,-6.8212239692312e-14,-5.1269157291849e-13,1.0576459249371e-13,-6.6876645199689e-13,-0.0012959021613625,0.0012959021607933,-0.001423936585101,0.0014239365849464,-0.0014239365864833,0.0014239365858013,-0.0014239365863724,0.0014239365859171,-0.0014239365877546,0.001423936586772,-0.0011402319314381,0.0011402319314757,-0.0011402319340464,0.0011402319325815,-0.0011402319316543,0.0011402319312544,-0.0011402319339517,0.0011402319326793,-7.210851919306e-13,-7.0465137044315e-13,-0.00070731962323857,0.0007073196202176,-1.8037410145972e-12,-1.0301118033099e-12,-0.00078682951569148,0.00078682951319865,-0.00078682951542274,0.00078682951346139,-0.00078682951613666,0.00078682951365478,-0.00078682951587781,0.0007868295139274,-0.00069544357130464,0.00069544356990362,-0.00069544357262221,0.00069544357118896,0.72911593730326,131490,2924,0.0029436627965389,0.0053846737459097,0.0029436627965389,36.740412958643,0.00020912330366915,0.00020912330366915,0.00020912330366915,5485109.6678026,0.011335971992172
7419200,0.83183325707392,0.013107216104715,0.003630462051626,0.005846292001463,0.003630462051626,-0.00077763919318922,0.00077763918978636,-8.1008870087567e-13,-8.265307206708e-13,-1.5355915354238e-12,-8.5053104627213e-13,-0.00088102340085995,0.00088102339840964,-0.00088102340173358,0.0008810233992723,-0.0008810234006396,0.00088102339864794,-0.00088102340151674,0.00088102339951406,-0.00075776659819038,0.00075776659643138,-0.00075776659726162,0.00075776659547049,-3.2132312497557e-14,-7.0703460646045e-13,1.591760196348e-13,-8.8326589918602e-13,-0.0015476786746457,0.0015476786739183,-0.001725101148143,0.0017251011480116,-0.0017251011493241,0.0017251011484738,-0.0017251011492009,0.0017251011486025,-0.0017251011503819,0.0017251011490647,-0.001336011636304,0.0013360116363599,-0.0013360116383622,0.0013360116364026,-0.0013360116365435,0.0013360116361124,-0.0013360116382553,0.0013360116365149,-8.0313781763214e-13,-7.8669830514208e-13,-0.00077763919316546,0.00077763918981011,-1.683112346779e-12,-6.4671247775273e-13,-0.00088102340091007,0.00088102339837103,-0.00088102340055574,0.00088102339872296,-0.00088102340177038,0.00088102339924232,-0.00088102340142157,0.00088102339959977,-0.00075776659716261,0.00075776659556914,-0.00075776659812201,0.00075776659649636,0.7123167890012,131490,2924,0.0032363262122577,0.0064273784924464,0.0032363262122577,40.777855447372,0.00024142284357897,0.00024142284357897,0.00024142284357897,5170647.3717824,0.012983922011282
8419200,0.90763747418405,0.014166900639614,0.0038908460788337,0.0063852084819464,0.0038908460788337,-0.00080530673301688,0.00080530673281864,2.1290454370645e-13,1.9645426385231e-13,-8.2805405461997e-13,5.240485200892e-13,-0.00092669636674973,0.00092669636661745,-0.00092669636728555,0.00092669636714231,-0.00092669636630905,0.0009266963670804,-0.0009266963668501,0.00092669636761045,-0.00078059125243261,0.00078059125332702,-0.00078059125171977,0.00078059125258197,1.5469142134209e-13,-1.1589032433602e-12,4.207859688069e-13,-1.4015979468507e-12,-0.0016975468289164,0.0016975468279323,-0.0019058422005882,0.0019058422006936,-0.0019058422016366,0.0019058422004858,-0.0019058422014671,0.0019058422006623,-0.0019058422025155,0.0019058422004544,-0.0014500246074832,0.0014500246078292,-0.0014500246102799,0.0014500246070869,-0.0014500246078168,0.0014500246074854,-0.0014500246101328,0.0014500246072412,2.253026171597e-13,2.4175008528907e-13,-0.00080530673298778,0.00080530673284772,-1.034990440576e-12,8.0112080112561e-13,-0.00092669636682017,0.0009266963665618,-0.00092669636619549,0.00092669636718202,-0.00092669636734218,0.00092669636709477,-0.00092669636672555,0.00092669636772304,-0.0007805912515927,0.00078059125270853,-0.000780591252335,0.00078059125341862,0.69845760321034,131490,2924,0.0033517118282733,0.0070474441387291,0.0033517118282733,41.436038114683,0.00024668830491746,0.00024668830491746,0.00024668830491746,4658214.9795785,0.013846278573558
9419200,0.94960143822581,0.014743520044857,0.0040378077956293,0.0066679044535981,0.0040378077956293,-0.0008125613300587,0.00081256133124951,6.5092634626458e-13,6.3447982344755e-13,-6.0334103158093e-13,1.2499056397701e-12,-0.00094568054174823,0.00094568054260715,-0.0009456805421471,0.00094568054299501,-0.0009456805411435,0.00094568054323843,-0.00094568054154765,0.00094568054363158,-0.00078485806249366,0.00078485806459143,-0.00078485806194507,0.00078485806401061,2.8873647341658e-13,-1.5092124828299e-12,6.4868788891262e-13,-1.8388432363661e-12,-0.0017790743658134,0.0017790743646198,-0.0020052360684389,0.0020052360687244,-0.0020052360694331,0.0020052360680152,-0.002005236069205,0.002005236068253,-0.0020052360701992,0.0020052360675438,-0.0015105276375038,0.0015105276381303,-0.0015105276408597,0.0015105276366437,-0.0015105276379566,0.0015105276376638,-0.001510527640659,0.001510527636854,6.7209283567227e-13,6.885367303814e-13,-0.00081256133002088,0.00081256133128732,-8.8603249113912e-13,1.6244291514589e-12,-0.00094568054184167,0.00094568054253102,-0.00094568054099122,0.00094568054337664,-0.00094568054222605,0.00094568054292641,-0.0009456805413845,0.00094568054378089,-0.00078485806178002,0.00078485806417501,-0.00078485806235726,0.00078485806471998,0.67991952502826,131490,2924,0.0033821733339467,0.0073845474309773,0.0033821733339467,41.144274324715,0.00024435419459772,0.00024435419459772,0.00024435419459772,4199945.667677,0.014249968760947
10419200,0.97058654301015,0.015040709878674,0.0041167280353247,0.0068072538080248,0.0041167280353247,-0.00080738320500064,0.00080738320945619,1.7107011234461e-12,1.6940451649316e-12,9.9440634950979e-14,2.7691579041269e-12,-0.0009465014793792,0.00094650148263647,-0.00094650147941339,0.00094650148265955,-0.00094650147850566,0.0009465014835428,-0.00094650147854694,0.00094650148357295,-0.00077858637240172,0.000778586377221,-0.00077858637204775,0.00077858637683443,5.1324308548193e-13,-2.0676445113501e-12,1.0065223102579e-12,-2.5193053310691e-12,-0.001815120138684,0.0018151201371673,-0.0020510454123911,0.0020510454129805,-0.0020510454132016,0.0020510454113795,-0.0020510454128911,0.002051045411704,-0.0020510454137015,0.002051045410103,-0.0015352412051375,0.0015352412061933,-0.0015352412093491,0.0015352412035316,-0.0015352412057582,0.0015352412055536,-0.0015352412090734,0.0015352412038204,1.7450624836566e-12,1.761715842555e-12,-0.00080738320494947,0.00080738320950735,-2.887798250334e-13,3.2818162730965e-12,-0.00094650147950496,0.00094650148253303,-0.0009465014782971,0.0009465014837333,-0.0009465014795234,0.00094650148256258,-0.00094650147832764,0.00094650148377493,-0.00077858637182775,0.00077858637705338,-0.00077858637220902,0.00077858637740203,0.69326653990037,131490,2924,0.0033608700255829,0.007533535343921,0.0033608700255829,38.08776283428,0.00021990210267424,0.00021990210267424,0.00021990210267424,3917601.5456085,0.014357906804646
11419200,0.98271199796856,0.015209809841587,0.0041624788532935,0.0068848521349997,0.0041624788532935,-0.00080594709452677,0.00080594709636834,8.501312864257e-13,8.3350137218105e-13,-7.642732071252e-13,1.8933991285445e-12,-0.00095050726990986,0.00095050727106715,-0.00095050727026912,0.00095050727141535,-0.00095050726904638,0.00095050727196682,-0.00095050726940882,0.00095050727231815,-0.00077609169441362,0.00077609169726063,-0.00077609169401677,0.00077609169683121,5.2358756358287e-13,-2.0687925351022e-12,1.123105042853e-12,-2.6268260463851e-12,-0.0018413779124,0.0018413779108922,-0.0020813797412753,0.0020813797419249,-0.0020813797425039,0.0020813797406214,-0.0020813797421256,0.0020813797410172,-0.0020813797433542,0.0020813797397136,-0.0015560890575791,0.001556089058869,-0.0015560890620779,0.0015560890560448,-0.0015560890583375,0.0015560890580873,-0.0015560890617347,0.0015560890564043,8.9353998237865e-13,9.1016803322664e-13,-0.00080594709446657,0.00080594709642855,-1.2468026463291e-12,2.5229949573241e-12,-0.00095050727006238,0.00095050727093709,-0.00095050726879483,0.00095050727220085,-0.00095050727040545,0.00095050727129124,-0.00095050726914631,0.0009505072725634,-0.00077609169375271,0.0007760916970945,-0.00077609169417683,0.00077609169748598,0.6790370572871,131490,2924,0.0033550461834319,0.0076420112450755,0.0033550461834319,37.626140711102,0.00021620912568881,0.00021620912568881,0.00021620912568881,3651911.6347232,0.014456164733367
12419200,0.98966638825529,0.015309492781602,0.0041900032760364,0.0069294862295294,0.0041900032760364,-0.00080262406550631,0.00080262406783044,1.001045187139e-12,9.844290777346e-13,-6.4385009185106e-13,2.0919137699409e-12,-0.00094919928223957,0.00094919928377207,-0.0009491992825478,0.00094919928406923,-0.00094919928134983,0.0009491992846984,-0.00094919928166125,0.00094919928499872,-0.00077250113897847,0.00077250114220992,-0.00077250113862768,0.00077250114182659,5.3571851651999e-13,-2.129215983325e-12,1.2232626301663e-12,-2.7741645452951e-12,-0.0018538070531932,0.0018538070516384,-0.0020977181688349,0.0020977181695469,-0.002097718170058,0.0020977181680717,-0.0020977181696242,0.0020977181685262,-0.0020977181708472,0.002097718167051,-0.0015641091201381,0.0015641091215986,-0.0015641091248536,0.0015641091185062,-0.0015641091210099,0.0015641091206996,-0.0015641091244553,0.0015641091189234,1.0539654050215e-12,1.0705789710179e-12,-0.00080262406543665,0.0008026240679001,-1.200735818345e-12,2.8191408652332e-12,-0.00094919928241223,0.00094919928362249,-0.00094919928106111,0.00094919928496965,-0.00094919928270377,0.00094919928392511,-0.00094919928136142,0.00094919928528102,-0.00077250113832557,0.00077250114212804,-0.00077250113870334,0.00077250114247324,0.69352359006889,131490,2924,0.0033413258899491,0.0076933739014288,0.0033413258899491,36.800801299243,0.00020960641039394,0.00020960641039394,0.00020960641039394,3511667.6780658,0.014480443268474
13419200,0.99355002128116,0.015363823330079,0.0042051121536355,0.0069535990228083,0.0042051121536355,-0.00079690392349733,0.00079690392718434,1.4401714522801e-12,1.4235701314864e-12,-3.0761939287988e-13,2.6936111237938e-12,-0.00094638717161317,0.00094638717414464,-0.00094638717177679,0.00094638717429719,-0.00094638717063537,0.00094638717516055,-0.00094638717080287,0.00094638717531695,-0.0007662685503704,0.00076626855470658,-0.00076626855011305,0.00076626855441673,6.2372697498082e-13,-2.2949946247837e-12,1.3921678231698e-12,-3.0178032787696e-12,-0.0018607637074333,0.0018607637058035,-0.0021055288570656,0.0021055288579326,-0.0021055288582091,0.0021055288560964,-0.0021055288577241,0.0021055288566044,-0.0021055288588676,0.0021055288547681,-0.0015695347721225,0.0015695347738258,-0.0015695347771632,0.0015695347702521,-0.0015695347730977,0.0015695347728206,-0.001569534776716,0.0015695347707202,1.4986285561616e-12,1.5152274314303e-12,-0.00079690392342213,0.00079690392725955,-9.352497228806e-13,3.5055632300599e-12,-0.00094638717180784,0.00094638717397461,-0.00094638717031473,0.00094638717546266,-0.00094638717195431,0.00094638717413214,-0.00094638717047112,0.00094638717563011,-0.00076626854977936,0.00076626855474971,-0.00076626855006331,0.00076626855500111,0.67547695235963,131490,2924,0.0033176368901504,0.007722072727427,0.0033176368901504,34.786203339181,0.00019348962671345,0.00019348962671345,0.00019348962671345,3373967.579786,0.014461513641938
14419200,0.99579277508758,0.015394802166613,0.0042137768638079,0.0069672484389976,0.0042137768638079,-0.00079013446186976,0.00079013446577172,1.5094525269673e-12,1.4928479833573e-12,-3.1921257548082e-13,2.848142697078e-12,-0.00093994285081774,0.00093994285348826,-0.00093994285095794,0.0009399428536174,-0.00093994284978643,0.00093994285455979,-0.00093994284993019,0.00093994285469246,-0.00075954026791257,0.00075954027246702,-0.00075954026767422,0.00075954027219615,6.6147749819884e-13,-2.4197083148661e-12,1.4960458850604e-12,-3.206046645711e-12,-0.0018606784004471,0.0018606783987329,-0.0021078797584973,0.0021078797594309,-0.0021078797596962,0.0021078797574575,-0.0021078797591701,0.0021078797580093,-0.0021078797603691,0.0021078797560358,-0.0015668889582549,0.0015668889601068,-0.0015668889635744,0.001566888956238,-0.0015668889593146,0.001566888959014,-0.0015668889630875,0.001566888956748,1.5760322062391e-12,1.592634007889e-12,-0.00079013446178647,0.00079013446585501,-9.9997212800849e-13,3.7329223046169e-12,-0.00093994285102681,0.00093994285330514,-0.0009399428494368,0.00093994285489011,-0.00093994285114938,0.00093994285343877,-0.00093994284956945,0.00093994285503379,-0.00075954026731132,0.0007595402725583,-0.00075954026757581,0.00075954027279025,0.66541368792328,131490,2924,0.0032895569499781,0.0077217229734615,0.0032895569499781,32.634954748994,0.00017627963799195,0.00017627963799195,0.00017627963799195,3320538.2049281,0.014404188145885
15419200,0.9969601107468,0.015411852172928,0.0042186082084386,0.0069746357560508,0.0042186082084385,-0.00077615945981396,0.00077615946751282,2.7485202018739e-12,2.7327750090506e-12,5.4775748513483e-13,4.5668759262518e-12,-0.00092653971768634,0.00092653972315894,-0.00092653971739314,0.00092653972285524,-0.00092653971637421,0.00092653972451766,-0.00092653971608701,0.00092653972421992,-0.00074564146099078,0.00074564146868018,-0.00074564146093673,0.0007456414685953,9.0293226898016e-13,-2.9937781303684e-12,1.8709866661711e-12,-3.901992914442e-12,-0.0018532120432374,0.0018532120412015,-0.0021020610467222,0.0021020610479869,-0.0021020610476964,0.0021020610450549,-0.0021020610470881,0.0021020610456935,-0.0021020610480623,0.0021020610427614,-0.0015575642293619,0.0015575642316642,-0.001557564235564,0.0015575642265852,-0.0015575642305893,0.0015575642303984,-0.0015575642350025,0.0015575642271735,2.8297017751414e-12,2.8454442206911e-12,-0.00077615945971697,0.00077615946760981,-2.3819195869328e-13,5.590131006585e-12,-0.0009265397179274,0.00092653972294928,-0.00092653971596713,0.00092653972490082,-0.00092653971761594,0.00092653972264832,-0.00092653971566971,0.00092653972461388,-0.00074564146051956,0.0007456414690113,-0.00074564146059642,0.00074564146905729,0.70136297395326,131490,2924,0.0032315507915727,0.0076908444470987,0.0032315507915727,27.046974622188,0.0001315757969775,0.0001315757969775,0.0001315757969775,3290579.0441343,0.014255195193181
16419200,0.99771014949174,0.015422421101895,0.0042215971358411,0.0069792268302124,0.0042215971358411,-0.0007697090230136,0.0007697090275067,1.7023340647158e-12,1.6866256529954e-12,-4.1226920509113e-13,3.3889445877162e-12,-0.00092309030823124,0.00092309031115972,-0.00092309030832696,0.00092309031124498,-0.00092309030699641,0.00092309031244233,-0.0009230903070942,0.00092309031252961,-0.00073851189746417,0.00073851190267221,-0.00073851189730125,0.00073851190247855,8.8144377837997e-13,-2.829147277375e-12,1.9543575310131e-12,-3.846174090257e-12,-0.0018547170523969,0.0018547170505002,-0.0021018589963276,0.0021018589976476,-0.0021018589977815,0.002101858995208,-0.0021018589971046,0.0021018589959176,-0.0021018589985585,0.002101858993478,-0.0015601100667979,0.0015601100693384,-0.0015601100731358,0.0015601100643299,-0.001560110068163,0.0015601100679321,-0.0015601100725038,0.0015601100649909,1.78740685183e-12,1.8031122249828e-12,-0.00076970902291265,0.00076970902760765,-1.301422654196e-12,4.5259486195676e-12,-0.00092309030850368,0.00092309031091761,-0.0009230903065509,0.00092309031286549,-0.00092309030858099,0.00092309031100538,-0.00092309030663818,0.00092309031296323,-0.00073851189684447,0.00073851190293454,-0.00073851189703077,0.00073851190309005,0.67695251042705,131490,2924,0.003204802449797,0.0076969888540695,0.003204802449797,24.407506125992,0.00011046004900794,0.00011046004900794,0.00011046004900794,3184000.4122747,0.01420719418731
17419200,0.9982139398122,0.015429718529761,0.0042236754750707,0.0069823675796197,0.0042236754750707,-0.00076233734250781,0.00076233734679869,1.6328913056297e-12,1.6171752233601e-12,-4.2158434331417e-13,3.2403048050301e-12,-0.00091511849772721,0.0009151185005568,-0.00091511849784053,0.00091511850065964,-0.00091511849653747,0.00091511850179327,-0.00091511849665266,0.00091511850189796,-0.00073148251942253,0.0007314825244312,-0.0007314825192451,0.00073148252422299,8.1677640098279e-13,-2.754747256127e-12,1.9398275631289e-12,-3.8231119712595e-12,-0.0018499976412776,0.0018499976393897,-0.0020991861292279,0.0020991861304977,-0.0020991861306946,0.0020991861280971,-0.0020991861299865,0.0020991861288407,-0.0020991861314532,0.0020991861264401,-0.00155345609792,0.0015534561004786,-0.0015534561042363,0.0015534560955217,-0.0015534560993502,0.0015534560990038,-0.0015534561035715,0.0015534560962178,1.7268230849754e-12,1.7425364872947e-12,-0.00076233734239805,0.00076233734690846,-1.3502722795205e-12,4.4381573162375e-12,-0.00091511849800755,0.00091511850030644,-0.00091511849606815,0.00091511850224114,-0.00091511849810212,0.00091511850041148,-0.00091511849617262,0.00091511850235608,-0.00073148251876295,0.00073148252470447,-0.00073148251896377,0.0007314825248745,0.69391687943712,131490,2924,0.003174196872019,0.0076774970635155,0.003174196872019,21.970371095309,9.096296876247e-05,9.096296876247e-05,9.096296876247e-05,3175055.3114324,0.014125339684063
18419200,0.99852690773166,0.015434177219496,0.0042249457159695,0.006984285787557,0.0042249457159695,-0.00075144131367008,0.00075144132191634,2.9226022201848e-12,2.9069344304714e-12,6.3193132912285e-13,4.8931515175799e-12,-0.00090595482546864,0.00090595483126737,-0.00090595482513926,0.00090595483092756,-0.00090595482407817,0.00090595483270681,-0.0009059548237538,0.00090595483237197,-0.00072032213575224,0.00072032214393,-0.0007203221357861,0.00072032214393318,1.0089209428636e-12,-3.1286495395512e-12,2.1987200070836e-12,-4.256796722488e-12,-0.0018450212805402,0.001845021278477,-0.0020937474538693,0.0020937474554109,-0.0020937474549719,0.0020937474521586,-0.002093747454222,0.0020937474529451,-0.0020937474553246,0.0020937474496928,-0.0015485331831415,0.0015485331860068,-0.0015485331899591,0.0015485331802033,-0.0015485331846552,0.0015485331844471,-0.0015485331892578,0.0015485331809369,3.0189212446165e-12,3.0345863248826e-12,-0.00075144131355795,0.00075144132202847,-3.5410724109038e-13,6.1545525534162e-12,-0.00090595482576969,0.00090595483099945,-0.00090595482358384,0.00090595483317676,-0.0009059548254211,0.0009059548306613,-0.00090595482324905,0.0009059548328524,-0.00072032213528099,0.00072032214443733,-0.00072032213526962,0.00072032214439526,0.6826489351198,131490,2924,0.0031289713708733,0.0076568766433172,0.0031289713708733,17.465812497584,5.4926499980676e-05,5.4926499980676e-05,5.4926499980676e-05,3121304.3556941,0.014012719676097
19419200,0.9987862560076,0.015438093775038,0.0042260719407185,0.0069859498936008,0.0042260719407185,-0.00075004376847823,0.00075004377008989,7.5671171937346e-13,7.3943250393396e-13,-1.2228732339739e-12,2.2313622745907e-12,-0.00090438441374282,0.0009043844144857,-0.00090438441417293,0.0009043844149043,-0.00090438441262571,0.00090438441565042,-0.00090438441305466,0.00090438441606782,-0.00071907672887492,0.00071907673180032,-0.00071907672859562,0.00071907673148718,7.6468902162824e-13,-2.6227859639245e-12,1.9664483381178e-12,-3.7726284546727e-12,-0.0018454538819206,0.0018454538801099,-0.0020951849353194,0.0020951849365733,-0.0020951849371684,0.0020951849345954,-0.0020951849364096,0.0020951849353923,-0.0020951849382586,0.0020951849334143,-0.0015479939090663,0.0015479939117479,-0.0015479939154613,0.0015479939069072,-0.0015479939105997,0.0015479939101669,-0.001547993914744,0.0015479939076582,8.55142905383e-13,8.724193628932e-13,-0.0007500437683624,0.00075004377020572,-2.2246242451387e-12,3.5176228065011e-12,-0.00090438441404401,0.00090438441421363,-0.00090438441212574,0.00090438441613029,-0.00090438441445411,0.00090438441463524,-0.00090438441254264,0.00090438441655869,-0.00071907672807931,0.00071907673200315,-0.00071907672838536,0.00071907673227535,0.7215612732931,131490,2924,0.0031231746124601,0.0076586729901936,0.0031231746124601,17.551723109428,5.5613784875425e-05,5.5613784875425e-05,5.5613784875425e-05,3091241.2867254,0.014002781510291
20419200,0.99901199137856,0.015441540119726,0.0042270658362698,0.0069874084471863,0.0042270658362698,-0.00075195145459574,0.00075195145474271,2.630332016486e-13,2.4577008977849e-13,-1.3874308208231e-12,1.3805955002257e-12,-0.00090854565164982,0.00090854565141976,-0.00090854565224664,0.00090854565200508,-0.00090854565075429,0.00090854565235495,-0.00090854565135007,0.00090854565293919,-0.00072035869062912,0.0007203586922003,-0.00072035869030033,0.00072035869183771,5.7201529003142e-13,-2.1427717162655e-12,1.7026143980636e-12,-3.2315461020142e-12,-0.0018518069309402,0.0018518069294075,-0.0020996608985299,0.0020996608995664,-0.0020996609003246,0.0020996608980704,-0.0020996608996078,0.0020996608988216,-0.0020996609014025,0.0020996608973256,-0.0015557305334068,0.001555730535801,-0.0015557305390568,0.0015557305317932,-0.0015557305348531,0.0015557305343114,-0.0015557305383752,0.0015557305325055,3.4838703348586e-13,3.656453003753e-13,-0.00075195145449293,0.00075195145484551,-2.3437184598334e-12,2.590464877782e-12,-0.00090854565193895,0.00090854565115491,-0.00090854565029021,0.0009085456528031,-0.00090854565251679,0.00090854565174425,-0.00090854565087359,0.00090854565339797,-0.00072035868981815,0.00072035869231994,-0.00072035869017518,0.00072035869264314,0.72908504895665,131490,2924,0.0031311218094613,0.0076848816614242,0.0031311218094613,18.600134567101,6.4001076536807e-05,6.4001076536807e-05,6.4001076536807e-05,2996510.6948154,0.014045496612516
21419200,0.9991654585739,0.015443821920053,0.0042277238521968,0.0069883742156595,0.0042277238521967,-0.00074310591222987,0.00074310591889601,2.407181085432e-12,2.3899383692221e-12,-1.0092325877549e-14,4.4980563521719e-12,-0.00090065007265588,0.00090065007707243,-0.0009006500725298,0.00090065007693486,-0.00090065007118993,0.00090065007859173,-0.00090065007106644,0.00090065007845671,-0.00071171543296364,0.00071171544003853,-0.00071171543295383,0.00071171543999495,1.1213330087522e-12,-3.2801801162785e-12,2.3321036381876e-12,-4.4269047022766e-12,-0.0018467546690853,0.0018467546669852,-0.0020947988630048,0.0020947988646794,-0.0020947988644401,0.0020947988615765,-0.0020947988636762,0.0020947988623764,-0.0020947988651114,0.0020947988592735,-0.0015503217272852,0.0015503217303301,-0.0015503217344406,0.0015503217242616,-0.0015503217288252,0.0015503217287448,-0.001550321733728,0.0015503217250061,2.4978728534636e-12,2.5151147679115e-12,-0.00074310591212176,0.00074310591900412,-1.020072190436e-12,5.7745484711036e-12,-0.00090065007296897,0.00090065007679349,-0.00090065007069216,0.00090065007906399,-0.00090065007282263,0.00090065007665864,-0.00090065007055732,0.00090065007894062,-0.00071171543244451,0.00071171544050341,-0.00071171543247973,0.00071171544050483,0.70949276287728,131490,2924,0.0030944014258554,0.0076639662266796,0.0030944014258554,15.216529428704,3.6932235429633e-05,3.6932235429633e-05,3.6932235429633e-05,2962064.0592624,0.013949823655313
22419200,0.9992925678283,0.015445730959586,0.0042282760540943,0.0069891788513973,0.0042282760540943,-0.00074073709841344,0.00074073710071245,9.767401906694e-13,9.594901249598e-13,-1.1402144962739e-12,2.6332920841462e-12,-0.00089779945633855,0.00089779945751598,-0.00089779945670299,0.00089779945786893,-0.00089779945511753,0.00089779945878719,-0.00089779945548092,0.00089779945913905,-0.00070966070947533,0.00070966071301693,-0.00070966070925248,0.00070966071276029,8.7927063888554e-13,-2.8214211898723e-12,2.1284690355555e-12,-4.0151348109759e-12,-0.0018454341782259,0.0018454341763345,-0.0020947227860415,0.0020947227874556,-0.0020947227879155,0.0020947227852319,-0.0020947227871263,0.0020947227860596,-0.0020947227890002,0.002094722783836,-0.0015478751651633,0.0015478751680567,-0.0015478751719058,0.0015478751627702,-0.0015478751667568,0.0015478751664149,-0.0015478751711613,0.0015478751635489,1.0746378911383e-12,1.0918852171855e-12,-0.00074073709829813,0.00074073710082776,-2.186594436335e-12,3.963780364194e-12,-0.00089779945665657,0.00089779945722864,-0.00089779945460187,0.00089779945928132,-0.00089779945700081,0.00089779945758437,-0.00089779945495333,0.00089779945964426,-0.00070966070872166,0.00070966071329067,-0.00070966070897087,0.00070966071350608,0.71603060868601,131490,2924,0.0030845666901658,0.0076585207244293,0.0030845666901658,14.857969006384,3.406375205107e-05,3.406375205107e-05,3.406375205107e-05,2948116.8156602,0.013924350627437
23419200,0.99940546409303,0.015447397739883,0.0042287581595315,0.0069898814208201,0.0042287581595315,-0.00074164550591226,0.00074164550641108,3.7853107216499e-13,3.6129010779729e-13,-1.426966265616e-12,1.6701148909012e-12,-0.00089929947100466,0.00089929947095414,-0.000899299471569,0.000899299471507,-0.00089929947000345,0.00089929947199892,-0.00089929947056614,0.00089929947255009,-0.0007104746719064,0.00071047467385538,-0.00071047467160668,0.00071047467352191,6.7112579168539e-13,-2.3692401801623e-12,1.877325001951e-12,-3.529087365274e-12,-0.001848273312942,0.0018482733112861,-0.0020974118866586,0.0020974118878355,-0.0020974118885527,0.0020974118861283,-0.002097411887789,0.0020974118869292,-0.0020974118896831,0.0020974118852221,-0.001550733995482,0.0015507339981092,-0.0015507340015785,0.0015507339936202,-0.0015507339970239,0.0015507339965205,-0.0015507340008531,0.0015507339943789,4.7171445709419e-13,4.8895141581105e-13,-0.00074164550580166,0.00074164550652166,-2.4443564442356e-12,2.9604613972526e-12,-0.00089929947131197,0.00089929947067333,-0.00089929946950725,0.00089929947247758,-0.00089929947185672,0.00089929947122959,-0.0008992994700576,0.00089929947303943,-0.00071047467109286,0.00071047467403573,-0.0007104746714201,0.00071047467432919,0.70402771110773,131490,2924,0.0030883503004571,0.0076702447864198,0.0030883503004571,15.708000066484,4.0864000531876e-05,4.0864000531876e-05,4.0864000531876e-05,2901717.1028358,0.013943915107701
24419200,0.99951205445189,0.015448999097887,0.0042292234029803,0.0069905522919266,0.0042292234029803,-0.00074518838320491,0.00074518838162056,-3.278055850291e-13,-3.4510310988169e-13,-1.2619478564475e-12,8.8550236027543e-16,-0.00090246943196887,0.00090246943083261,-0.00090246943274585,0.00090246943159806,-0.00090246943155711,0.00090246943126581,-0.00090246943233507,0.0009024694320322,-0.00071414847971205,0.00071414847945212,-0.00071414847932209,0.00071414847902829,8.5407655560631e-14,-1.1393321647727e-12,8.2341996273242e-13,-1.8556119005655e-12,-0.0018520464527974,0.0018520464517629,-0.0021019001304193,0.0021019001307143,-0.0021019001317296,0.0021019001302209,-0.0021019001312595,0.0021019001307137,-0.0021019001325698,0.0021019001302203,-0.0015538769958142,0.0015538769969853,-0.0015538769993599,0.0015538769953026,-0.0015538769967605,0.001553876996009,-0.0015538769989105,0.0015538769957732,-2.7541679208841e-13,-2.5811783526555e-13,-0.00074518838313518,0.00074518838169029,-1.885961002833e-12,7.9820705557972e-13,-0.00090246943215637,0.00090246943065852,-0.00090246943125512,0.00090246943156047,-0.00090246943291713,0.00090246943143082,-0.00090246943202014,0.00090246943233701,-0.00071414847899837,0.00071414847935281,-0.00071414847941934,0.00071414847973988,0.71547766069876,131490,2924,0.0031030670114812,0.0076858570714934,0.0031030670114812,17.887456910259,5.8299655282072e-05,5.8299655282072e-05,5.8299655282072e-05,2873193.8488243,0.013989584681354
25419200,0.99960922420976,0.015450533120041,0.0042296722264905,0.0069911886670603,0.0042296722264905,-0.00074893892248378,0.00074893892110325,-2.6101667685499e-13,-2.7833505906672e-13,-1.2652665381522e-12,1.5225846625543e-13,-0.00090692027442186,0.00090692027339826,-0.0009069202751791,0.00090692027414396,-0.00090692027395993,0.00090692027388285,-0.00090692027471862,0.00090692027462996,-0.00071771954649546,0.00071771954643913,-0.00071771954611896,0.0007177195460287,1.3494223054866e-13,-1.2443131635576e-12,7.3610698302519e-13,-1.8215927633562e-12,-0.0018573269285858,0.0018573269274979,-0.0021066926189108,0.0021066926191658,-0.0021066926201524,0.0021066926186804,-0.0021066926197694,0.0021066926190811,-0.002106692621011,0.0021066926185957,-0.0015595003507235,0.0015595003516702,-0.0015595003541355,0.001559500350093,-0.0015595003514919,0.0015595003508777,-0.0015595003537753,0.0015595003504702,-2.2232706100207e-13,-2.0501160468326e-13,-0.00074893892242778,0.00074893892115926,-1.7682080706925e-12,7.9500969553628e-13,-0.00090692027457702,0.00090692027325671,-0.00090692027371522,0.00090692027411908,-0.00090692027531868,0.00090692027400991,-0.00090692027446128,0.00090692027487667,-0.0007177195458545,0.00071771954629379,-0.00071771954626188,0.00071771954666723,0.7506351506808,131490,2924,0.0031186536756115,0.0077076715133929,0.0031186536756115,19.932102694787,7.4656821558299e-05,7.4656821558299e-05,7.4656821558299e-05,2819842.1863117,0.014043321159948
26419200,0.99968887533845,0.015451819123563,0.0042300497909578,0.0069917195416477,0.0042300497909578,-0.00074942133927618,0.00074942134038166,5.5196176662338e-13,5.3464923990257e-13,-6.3683751563928e-13,1.2374989305512e-12,-0.00090905559865696,0.00090905559946221,-0.00090905559914103,0.00090905559993475,-0.00090905559804356,0.00090905560010083,-0.000909055598531,0.0009090556005767,-0.00071796311160648,0.00071796311357025,-0.000717963111358,0.00071796311328786,2.7857078397142e-13,-1.5370940134212e-12,8.5075301007952e-13,-2.0796639382825e-12,-0.0018608097689792,0.0018608097677474,-0.0021088637058178,0.0021088637062152,-0.002108863706815,0.0021088637052207,-0.0021088637064514,0.0021088637056007,-0.0021088637074486,0.0021088637046063,-0.0015639505284214,0.0015639505294391,-0.0015639505320779,0.0015639505273825,-0.0015639505291497,0.0015639505286883,-0.0015639505317414,0.0015639505277348,5.8664104910687e-13,6.0395069677961e-13,-0.0007494213392242,0.00074942134043364,-1.1109328852923e-12,1.8416070545069e-12,-0.00090905559880689,0.00090905559932816,-0.00090905559781135,0.00090905560032199,-0.00090905559927533,0.00090905559980814,-0.00090905559828652,0.00090905560080868,-0.0007179631111083,0.00071796311353791,-0.00071796311138697,0.00071796311378266,0.76690557153198,131490,2924,0.0031206751528946,0.0077220257501399,0.0031206751528946,20.395176074318,7.8361408594541e-05,7.8361408594541e-05,7.8361408594541e-05,2752780.2137097,0.014061991330703
27419200,0.99975834964293,0.015452898450976,0.0042303661413434,0.006992166168289,0.0042303661413434,-0.00075235120880521,0.00075235120843394,6.9907787159207e-14,5.2757367044055e-14,-1.141577110897e-12,7.4330188087306e-13,-0.00091272890030284,0.00091272889993315,-0.00091272890095638,0.00091272890057527,-0.00091272889968934,0.00091272890057379,-0.00091272890034469,0.00091272890121768,-0.00072106479533696,0.00072106479619223,-0.00072106479502201,0.00072106479584369,2.87184667882e-13,-1.5502297297812e-12,8.5829030923197e-13,-2.0913924035153e-12,-0.0018650096240698,0.0018650096228338,-0.0021126540645049,0.0021126540648988,-0.0021126540657239,0.0021126540641261,-0.0021126540653609,0.0021126540645054,-0.0021126540665799,0.0021126540637328,-0.0015684759009143,0.0015684759019442,-0.0015684759046493,0.0015684758999229,-0.0015684759016411,0.001568475901195,-0.0015684759043139,0.0015684759002741,1.0446458809031e-13,1.2161228482818e-13,-0.00075235120875351,0.00075235120848564,-1.6146891135324e-12,1.345786421156e-12,-0.00091272890045276,0.00091272889979931,-0.00091272889945755,0.00091272890079431,-0.00091272890109078,0.00091272890044876,-0.00091272890010076,0.00091272890144894,-0.00072106479477315,0.00072106479609292,-0.00072106479511794,0.0007210647964041,0.73787290475455,131490,2924,0.003132853583253,0.0077393671385556,0.003132853583253,22.256951372519,9.3255610980152e-05,9.3255610980152e-05,9.3255610980152e-05,2698997.809245,0.014104278589081
28419200,0.99981544185541,0.015453832168099,0.0042306419091481,0.0069925483498029,0.0042306419091481,-0.00075365274981779,0.00075365275016942,3.0838685472857e-13,2.9131376276006e-13,-9.6875655956385e-13,1.0595365142397e-12,-0.00091312471395783,0.00091312471411919,-0.00091312471452893,0.00091312471467891,-0.00091312471329694,0.00091312471480814,-0.00091312471387029,0.00091312471537008,-0.00072268744543512,0.00072268744688902,-0.00072268744514799,0.00072268744656844,3.2764557888776e-13,-1.6470446250938e-12,9.1029430878078e-13,-2.1978589157423e-12,-0.0018658496642271,0.0018658496629366,-0.0021148236611736,0.0021148236616159,-0.002114823662342,0.0021148236606831,-0.0021148236619722,0.0021148236610697,-0.0021148236631406,0.002114823660137,-0.0015681826111695,0.0015681826122532,-0.0015681826150386,0.0015681826100567,-0.0015681826119103,0.0015681826114894,-0.0015681826146976,0.0015681826104139,3.4470746942343e-13,3.6177650679958e-13,-0.00075365274976442,0.00075365275022278,-1.4495280414427e-12,1.6736991766243e-12,-0.00091312471411008,0.00091312471398383,-0.00091312471305973,0.00091312471503335,-0.00091312471466555,0.00091312471455068,-0.00091312471362108,0.00091312471560605,-0.00072268744489417,0.00072268744682256,-0.00072268744521071,0.00072268744710565,0.77519218307064,131490,2924,0.0031382579844016,0.0077428651854235,0.0031382579844016,23.444426246814,0.00010275540997452,0.00010275540997452,0.00010275540997452,2693558.1764027,0.014118775627631
29419200,0.99986183112535,0.015454504627257,0.0042308385848526,0.0069928274575513,0.0042308385848526,-0.000756218158215,0.00075621815840224,2.5312377091902e-13,2.345020628865e-13,-1.0381826923196e-12,1.0277881900116e-12,-0.00091725713105692,0.00091725713107029,-0.00091725713165256,0.00091725713165351,-0.00091725713038434,0.00091725713177158,-0.00091725713098195,0.00091725713235674,-0.00072496363174406,0.0007249636330815,-0.000724963631462,0.00072496363276297,3.4623574626503e-13,-1.6675790860154e-12,9.3792552348966e-13,-2.2270730820931e-12,-0.001870847563633,0.0018708475623408,-0.0021183939801462,0.0021183939806167,-0.0021183939813531,0.0021183939796867,-0.0021183939809774,0.0021183939800793,-0.0021183939821843,0.0021183939791493,-0.001574262409434,0.0015742624105596,-0.0015742624133503,0.001574262408298,-0.0015742624101864,0.0015742624097842,-0.0015742624130038,0.0015742624086607,2.8762591910796e-13,3.0624479149066e-13,-0.00075621815816189,0.00075621815845536,-1.5280098203489e-12,1.6505250206083e-12,-0.00091725713121309,0.00091725713093123,-0.00091725713014471,0.00091725713199899,-0.00091725713179203,0.00091725713152259,-0.00091725713072929,0.00091725713259596,-0.00072496363120397,0.00072496363302132,-0.00072496363151846,0.00072496363329933,0.68887568164608,131490,2924,0.0031489285539692,0.0077634848853623,0.0031489285539692,24.783779185905,0.00011347023348724,0.00011347023348724,0.00011347023348724,2626944.699711,0.014161344385972
30419200,0.99989873093032,0.015455030441786,0.0042309925086139,0.0069930454245581,0.0042309925086139,-0.0007575133780082,0.00075751337818702,2.563583467373e-13,2.3769611325968e-13,-1.0562254867129e-12,1.0211330697915e-12,-0.0009151789089056,0.00091517890892453,-0.00091517890949418,0.00091517890950068,-0.00091517890822948,0.00091517890962963,-0.00091517890881992,0.0009151789102076,-0.00072689960372005,0.00072689960507159,-0.00072689960341959,0.00072689960473458,3.3539743030932e-13,-1.689278540759e-12,9.4075673111586e-13,-2.2619320171766e-12,-0.0018686277000708,0.0018686276987467,-0.0021199840496124,0.0021199840500668,-0.0021199840508406,0.0021199840491339,-0.0021199840504567,0.0021199840495356,-0.002119984051685,0.0021199840486027,-0.0015688454121776,0.0015688454133049,-0.0015688454161655,0.0015688454110403,-0.0015688454129475,0.0015688454125108,-0.0015688454158108,0.0015688454114119,2.946476457755e-13,3.1330714926989e-13,-0.0007575133779513,0.00075751337824392,-1.5542989878211e-12,1.6610999705288e-12,-0.00091517890906252,0.00091517890878491,-0.00091517890798227,0.00091517890986464,-0.00091517890963423,0.00091517890936907,-0.00091517890855963,0.00091517891045443,-0.00072689960315343,0.00072689960500101,-0.00072689960348622,0.00072689960529723,0.67661895266454,131490,2924,0.0031542878697472,0.0077544037883401,0.0031542878697472,26.134524924275,0.0001242761993942,0.0001242761993942,0.0001242761993942,2687483.6393902,0.014162972878606
31419200,0.99992860376467,0.015455487737726,0.004231127467618,0.0069932328024899,0.004231127467618,-0.00076188556288682,0.00076188556197402,-1.0305830200726e-13,-1.237269289244e-13,-1.2280737092941e-12,4.3461281111225e-13,-0.00091906216334061,0.00091906216261892,-0.00091906216405012,0.00091906216331466,-0.00091906216279923,0.00091906216318513,-0.00091906216351027,0.00091906216388236,-0.00073126058762874,0.00073126058801985,-0.00073126058728347,0.0007312605876341,2.0922160842348e-13,-1.4106137302482e-12,7.6945137614157e-13,-1.9438476756114e-12,-0.0018726505935905,0.0018726505924136,-0.0021245683239692,0.0021245683242684,-0.0021245683251981,0.0021245683236653,-0.0021245683248419,0.0021245683240381,-0.0021245683260708,0.002124568323435,-0.0015723341464076,0.0015723341473377,-0.0015723341499717,0.001572334145608,-0.0015723341471216,0.0015723341466011,-0.0015723341496407,0.001572334145955,-7.0658400257903e-14,-4.9992487469706e-14,-0.00076188556283382,0.00076188556202703,-1.691075162344e-12,1.0300804554624e-12,-0.0009190621634863,0.00091906216248784,-0.00091906216257172,0.00091906216340288,-0.00091906216417808,0.0009190621631934,-0.00091906216326811,0.00091906216411304,-0.00073126058703294,0.00073126058788516,-0.00073126058741522,0.00073126058822695,0.7261376159351,131490,2924,0.0031724460748759,0.0077710507184958,0.003172446074876,28.445480598574,0.00014276384478859,0.00014276384478859,0.00014276384478859,2669188.8256515,0.014216684468677
32419200,0.99995042194314,0.015455838652434,0.004231231541167,0.0069933755701003,0.004231231541167,-0.00076398364308986,0.0007639836437712,4.1386069139879e-13,3.9316825971714e-13,-8.1803988628124e-13,1.1283241775297e-12,-0.0009236256894288,0.00092362568987898,-0.00092362568996633,0.00092362569040274,-0.00092362568879316,0.00092362569054105,-0.0009236256893335,0.00092362569106758,-0.00073265642920269,0.00073265643087532,-0.00073265642894602,0.0007326564305781,3.0039970534815e-13,-1.5898616072898e-12,8.5743686471588e-13,-2.11629705446e-12,-0.0018784432708452,0.0018784432695835,-0.0021279003078567,0.0021279003082593,-0.0021279003089295,0.0021279003073156,-0.0021279003085757,0.0021279003076853,-0.0021279003096485,0.0021279003067416,-0.0015801020108835,0.0015801020118906,-0.0015801020146033,0.0015801020098104,-0.0015801020115918,0.0015801020111604,-0.0015801020142775,0.0015801020101517,4.4405740493933e-13,4.6474853754531e-13,-0.00076398364303901,0.00076398364382205,-1.2774748269621e-12,1.7150846788698e-12,-0.00092362568957594,0.00092362568974799,-0.00092362568856811,0.00092362569075469,-0.00092362569009564,0.00092362569028149,-0.00092362568909399,0.00092362569129436,-0.00073265642869937,0.0007326564308251,-0.00073265642899273,0.00073265643107791,0.76212228763359,131490,2924,0.0031811797793483,0.0077949320635857,0.0031811797793483,29.298069041299,0.00014958455233039,0.00014958455233039,0.00014958455233039,2585943.0061626,0.014258646453646
33419200,0.99996558476167,0.015456085443664,0.0042313048938995,0.0069934756558654,0.0042313048938995,-0.00076337977101467,0.00076337977262313,7.1764158389516e-13,6.969310777427e-13,-6.3778027360337e-13,1.5971391790826e-12,-0.0009244931434157,0.00092449314450123,-0.00092449314385639,0.00092449314492813,-0.00092449314268595,0.00092449314525997,-0.00092449314312976,0.00092449314568994,-0.00073201677627417,0.00073201677873983,-0.00073201677606877,0.00073201677849385,3.966979105629e-13,-1.7747284303235e-12,9.8277297696016e-13,-2.3266177469543e-12,-0.0018802980559355,0.0018802980545885,-0.0021286226718044,0.0021286226723311,-0.002128622672851,0.0021286226711344,-0.0021286226724792,0.0021286226715227,-0.0021286226735257,0.0021286226703261,-0.0015828392867599,0.0015828392879162,-0.0015828392907563,0.0015828392854559,-0.0015828392875041,0.0015828392871492,-0.0015828392904151,0.001582839285813,7.4949851509955e-13,7.7020542663526e-13,-0.00076337977096213,0.00076337977267567,-1.1208974044125e-12,2.2117900774711e-12,-0.00092449314357138,0.00092449314436342,-0.0009244931424493,0.00092449314548363,-0.00092449314399394,0.00092449314479979,-0.00092449314287878,0.0009244931459269,-0.00073201677581154,0.00073201677875129,-0.00073201677605324,0.0007320167789524,0.77026491248952,131490,2924,0.0031786860400427,0.0078025586251807,0.0031786860400427,29.317375135483,0.00014973900108386,0.00014973900108386,0.00014973900108386,2531754.8229822,0.014261333579811
34419200,0.99997706241428,0.015456265337633,0.0042313582863065,0.0069935487650204,0.0042313582863065,-0.00076712790022234,0.00076712789947727,-5.3351542941103e-14,-7.3884151696178e-14,-1.3092702655598e-12,6.5996766197036e-13,-0.00092855237607009,0.00092855237538014,-0.00092855237677373,0.00092855237607011,-0.00092855237543045,0.00092855237604842,-0.00092855237613517,0.00092855237673943,-0.00073596846356479,0.0007359684641675,-0.00073596846325255,0.00073596846381501,3.1536830689117e-13,-1.6088187634558e-12,9.1864111261518e-13,-2.1810548996817e-12,-0.0018843704018514,0.001884370400586,-0.0021325596423252,0.0021325596427638,-0.002132559643644,0.0021325596419964,-0.0021325596432607,0.002132559642397,-0.0021325596445796,0.0021325596416295,-0.0015870516611397,0.0015870516622604,-0.0015870516650344,0.0015870516601024,-0.0015870516619077,0.0015870516614688,-0.0015870516646796,0.0015870516604739,-1.96112832417e-14,9.1833959241465e-16,-0.00076712790016808,0.00076712789953153,-1.810093673469e-12,1.2966270828665e-12,-0.00092855237622953,0.00092855237523733,-0.00092855237518682,0.00092855237628044,-0.00092855237691522,0.0009285523759367,-0.00092855237587714,0.00092855237698443,-0.00073596846298745,0.00073596846408052,-0.00073596846333602,0.00073596846438885,0.74167920846554,131490,2924,0.0031942567904007,0.0078193836392117,0.0031942567904007,31.489046351822,0.00016711237081458,0.00016711237081458,0.00016711237081458,2492895.814572,0.014309983360768
35419200,0.99998606496015,0.015456401631404,0.0042313987182194,0.0069936041949653,0.0042313987182194,-0.00077594368756174,0.00077594368420962,-9.0952808218847e-13,-9.3020331497573e-13,-1.8794546390979e-12,-5.7035254670944e-13,-0.00093624316926812,0.00093624316672426,-0.00093624317025705,0.00093624316769941,-0.00093624316884514,0.00093624316717074,-0.00093624316983366,0.00093624316814546,-0.00074495669183153,0.00074495669024966,-0.00074495669140215,0.00074495668977976,1.0587505970725e-13,-1.1805786106044e-12,6.4577844838227e-13,-1.6979307176174e-12,-0.0018911450110573,0.0018911450100029,-0.0021403480920489,0.0021403480922196,-0.002140348093501,0.0021403480921017,-0.0021403480931566,0.0021403480924618,-0.0021403480946088,0.0021403480923439,-0.0015930460983425,0.0015930460991491,-0.0015930461016297,0.0015930460978611,-0.0015930460990322,0.0015930460984376,-0.0015930461013076,0.0015930460981986,-8.8034441490595e-13,-8.5967176702939e-13,-0.00077594368751192,0.00077594368425944,-2.3301294043815e-12,5.3298096044457e-15,-0.00093624316940981,0.00093624316659525,-0.00093624316862746,0.00093624316738044,-0.00093624317038134,0.00093624316758055,-0.00093624316960115,0.00093624316836788,-0.00074495669116053,0.00074495669002216,-0.00074495669162757,0.00074495669044868,0.71639793499484,131490,2924,0.0032308603838159,0.0078474218785535,0.0032308603838159,35.943766259223,0.00020275013007378,0.00020275013007378,0.00020275013007378,2479058.3966614,0.014412670943289
36419200,0.9999918248368,0.015456490633896,0.0042314252291403,0.0069936401756152,0.0042314252291403,-0.0007786004324708,0.00077860043234164,1.4467106569237e-13,1.2401931170876e-13,-9.6386532112018e-13,7.0503199116839e-13,-0.00093803131564372,0.0009380313155384,-0.00093803131626994,0.00093803131615087,-0.00093803131509834,0.00093803131610747,-0.00093803131572715,0.0009380313167225,-0.00074770347541199,0.00074770347638003,-0.00074770347511979,0.00074770347604735,2.1119634221436e-13,-1.4083975626565e-12,7.1471169546007e-13,-1.8849963558317e-12,-0.0018930165340064,0.0018930165328335,-0.0021432376865799,0.0021432376868536,-0.0021432376876503,0.0021432376861586,-0.00214323768733,0.0021432376864933,-0.0021432376884004,0.0021432376857983,-0.0015940210433379,0.0015940210441578,-0.0015940210467378,0.0015940210424903,-0.0015940210439785,0.0015940210434971,-0.0015940210464428,0.0015940210427995,1.7052539350746e-13,1.9117490973774e-13,-0.00077860043242437,0.00077860043238808,-1.3786721472181e-12,1.2364610468167e-12,-0.00093803131577678,0.00093803131541958,-0.00093803131489541,0.0009380313163006,-0.00093803131638563,0.00093803131604219,-0.00093803131550968,0.00093803131692861,-0.0007477034748945,0.00074770347627315,-0.00074770347522378,0.00074770347656197,0.73062862472892,131490,2924,0.0032418902933294,0.0078551844396841,0.0032418902933294,37.485517568866,0.00021508414055093,0.00021508414055093,0.00021508414055093,2478665.3484511,0.014442916073067
37419200,0.99999522564638,0.015456542378125,0.0042314406409665,0.0069936610961923,0.0042314406409665,-0.00077874377670138,0.00077874377809732,6.4479979813231e-13,6.2414948637256e-13,-6.1999283537975e-13,1.4152332655952e-12,-0.00093895840732932,0.00093895840831642,-0.00093895840778977,0.00093895840876312,-0.00093895840666359,0.00093895840900862,-0.00093895840712755,0.00093895840945881,-0.0007476420820341,0.00074764208427186,-0.00074764208181631,0.00074764208401359,3.2586225101427e-13,-1.6469936560626e-12,8.4816167747825e-13,-2.1376212853723e-12,-0.0018947769177202,0.0018947769164278,-0.0021443874883268,0.0021443874887362,-0.0021443874892998,0.0021443874876785,-0.0021443874889683,0.0021443874880247,-0.0021443874899413,0.002144387486967,-0.0015962153158222,0.001596215316781,-0.0015962153195227,0.0015962153146603,-0.001596215316485,0.0015962153160976,-0.00159621531922,0.0015962153149775,6.7178737441567e-13,6.9243462600925e-13,-0.00077874377665381,0.00077874377814489,-1.0479196926551e-12,1.9625326718931e-12,-0.00093895840746805,0.00093895840819405,-0.0009389584064529,0.00093895840920746,-0.00093895840791085,0.00093895840865061,-0.00093895840690254,0.00093895840967084,-0.00074764208158465,0.00074764208424553,-0.00074764208183894,0.00074764208445935,0.71957119093693,131490,2924,0.0032424942198888,0.0078624411719404,0.0032424942198888,37.681073175543,0.00021664858540434,0.00021664858540434,0.00021664858540434,2445213.4245032,0.01445151068604
38419200,0.99999718021989,0.015456573239662,0.0042314498700198,0.006993673499622,0.0042314498700197,-0.00077706637225097,0.00077706637448081,9.2826328006163e-13,9.0761245924115e-13,-7.1354674391618e-13,2.1096111704739e-12,-0.00093709600320509,0.00093709600461084,-0.00093709600358117,0.00093709600497317,-0.00093709600228626,0.00093709600556568,-0.00093709600266468,0.00093709600593032,-0.000746018482767,0.00074601848590919,-0.00074601848258392,0.00074601848568565,5.7498225821611e-13,-2.1780369036441e-12,1.2877615421218e-12,-2.8484392174313e-12,-0.0018937127920587,0.0018937127904944,-0.0021438316179611,0.0021438316187369,-0.0021438316191882,0.0021438316171756,-0.0021438316187375,0.002143831617647,-0.0021438316199646,0.0021438316160856,-0.0015946610993767,0.0015946611009353,-0.0015946611041591,0.0015946610976366,-0.0015946611002815,0.0015946611000029,-0.0015946611037447,0.0015946610980704,9.7234858953568e-13,9.9300684079323e-13,-0.00077706637218626,0.00077706637454553,-1.3001758099332e-12,2.8574560522673e-12,-0.00093709600339207,0.00093709600444577,-0.00093709600199612,0.00093709600583957,-0.00093709600374908,0.00093709600481655,-0.00093709600236047,0.00093709600621767,-0.00074601848227455,0.00074601848599496,-0.00074601848249266,0.00074601848617258,0.74580972050654,131490,2924,0.0032355304970546,0.0078580484650039,0.0032355304970546,37.194402235639,0.00021275521788511,0.00021275521788511,0.00021275521788511,2440757.3129661,0.014432923772968
38880000,0.99999786282588,0.015456584079065,0.0042314531140596,0.0069936778509457,0.0042314531140596,-0.00077705171418044,0.00077705171586307,7.4746879034154e-13,7.268084429279e-13,-8.5410270738092e-13,1.8830945609891e-12,-0.00093812236954733,0.0009381223705373,-0.00093812236998869,0.00093812237096493,-0.00093812236865722,0.00093812237146303,-0.0009381223691003,0.00093812237189235,-0.00074583125523945,0.00074583125793692,-0.00074583125504011,0.00074583125769706,5.5741844183747e-13,-2.114193736362e-12,1.3160966176811e-12,-2.8319285453504e-12,-0.0018952154769858,0.0018952154754663,-0.0021443519057065,0.0021443519064991,-0.0021443519070149,0.0021443519050164,-0.0021443519065346,0.0021443519055189,-0.0021443519078431,0.0021443519040362,-0.0015969499629818,0.0015969499646254,-0.0015969499677901,0.0015969499613277,-0.0015969499639465,0.0015969499636314,-0.0015969499673452,0.0015969499617933,7.9447028830157e-13,8.1512821603959e-13,-0.00077705171411275,0.00077705171593076,-1.4840630452456e-12,2.6817714487231e-12,-0.00093812236974677,0.00093812237035942,-0.00093812236834922,0.0009381223717554,-0.00093812237016893,0.00093812237079533,-0.00093812236877809,0.000938122372198,-0.00074583125471219,0.00074583125802491,-0.00074583125494684,0.00074583125821905,0.74996903551254,131490,2924,0.0032354780908212,0.0078642316376713,0.0032354780908212,37.193613676132,0.00021274890940906,0.00021274890940906,0.00021274890940906,2408880.7229839,0.014439099216655
