time,ASR_ext,ASR_strain,ASR_strain_xx,ASR_strain_yy,ASR_strain_zz,disp_x_101,disp_x_102,disp_x_103,disp_x_104,disp_x_105,disp_x_106,disp_x_p1_neg,disp_x_p1_pos,disp_x_p2_neg,disp_x_p2_pos,disp_x_p3_neg,disp_x_p3_pos,disp_x_p4_neg,disp_x_p4_pos,disp_x_p5_neg,disp_x_p5_pos,disp_x_p6_neg,disp_x_p6_pos,disp_y_101,disp_y_102,disp_y_103,disp_y_104,disp_y_105,disp_y_106,disp_y_p1_neg,disp_y_p1_pos,disp_y_p2_neg,disp_y_p2_pos,disp_y_p3_neg,disp_y_p3_pos,disp_y_p4_neg,disp_y_p4_pos,disp_y_p5_neg,disp_y_p5_pos,disp_y_p6_neg,disp_y_p6_pos,disp_y_p7_neg,disp_y_p7_pos,disp_y_p8_neg,disp_y_p8_pos,disp_z_101,disp_z_102,disp_z_103,disp_z_104,disp_z_105,disp_z_106,disp_z_p1_neg,disp_z_p1_pos,disp_z_p2_neg,disp_z_p2_pos,disp_z_p3_neg,disp_z_p3_pos,disp_z_p4_neg,disp_z_p4_pos,disp_z_p5_neg,disp_z_p5_pos,disp_z_p6_neg,disp_z_p6_pos,humidity,ndof,nelem,strain_xx,strain_yy,strain_zz,temp,thermal_strain_xx,thermal_strain_yy,thermal_strain_zz,vonmises,vstrain
2419200,0,0,0,0,0,0,0,0,0,0,0,0,0,0,0,0,0,0,0,0,0,0,0,0,0,0,0,0,0,0,0,0,0,0,0,0,0,0,0,0,0,0,0,0,0,0,0,0,0,0,0,0,0,0,0,0,0,0,0,0,0,0,0,0,0,0,0,0,0,0,0,0,0,0,0
3419200,0.15971932813928,0.0026614135266323,0.00088713784221078,0.00088713784221078,0.00088713784221078,-0.0002449185611977,0.00024491855214585,-2.3612975882442e-12,-4.9465650133619e-12,5.4758216209009e-12,-1.3093893733182e-11,-0.00024928959465701,0.00024928959384518,-0.00024928959606037,0.00024928959352325,-0.00024928960053653,0.00024928958761794,-0.00024928960201569,0.0002492895873757,-0.00024484324562561,0.00024484323430569,-0.00024484324843355,0.00024484323205178,-6.0961641560755e-12,1.2482083776497e-11,-1.5439952805334e-11,2.1533536282895e-11,-0.00025895518565886,0.00025895519178805,-0.00026181671426133,0.00026181670212091,-0.00026181670304941,0.00026181671515929,-0.00026181670895388,0.00026181670896357,-0.00026181669773969,0.00026181672200382,-0.00025530812215899,0.00025530809812029,-0.00025530808672804,0.00025530813525294,-0.00025530811017285,0.00025530811040255,-0.00025530809242053,0.00025530812934094,-6.844843376351e-12,-4.2597179053067e-12,-0.0002449185631136,0.00024491855023378,1.2429953288165e-11,-2.4166607771298e-11,-0.00024928959425497,0.00024928959405698,-0.00024928960639773,0.00024928958192769,-0.00024928959399074,0.00024928959551428,-0.00024928960613645,0.00024928958339173,-0.00024484325083629,0.00024484322967771,-0.00024484325312251,0.00024484322689906,0.75746877217741,122718,2924,0.001019972797939,0.0010783956999764,0.0010199727979469,31.872947273627,0.00017018357818901,0.00017018357818901,0.00017018357818901,1102263.5566732,0.003123210099227
4419200,0.351271105372,0.005722010329409,0.0018638062390042,0.0019943978513776,0.0018638062390273,-0.00046953665700014,0.00046953663733688,-7.0749069399788e-12,-9.6629044373127e-12,5.6142510068679e-12,-2.321901316038e-11,-0.00048387254507808,0.00048387253761819,-0.00048387254764067,0.0004838725384514,-0.00048387255426129,0.00048387252790229,-0.00048387255698928,0.00048387252891019,-0.00047062010946684,0.00047062008493421,-0.00047062011322996,0.00047062008363202,-6.8807734294478e-12,2.20747078093e-11,-1.2618144289059e-11,2.7312200557491e-11,-0.00053600709643769,0.00053600711121603,-0.00054951221051894,0.00054951220251135,-0.00054951219994921,0.00054951221822538,-0.00054951220348012,0.00054951221446737,-0.00054951219290462,0.0005495122301865,-0.00051975115711376,0.00051975114229808,-0.00051975112042754,0.00051975118382482,-0.00051975114987993,0.00051975114987823,-0.000519751123603,0.00051975118038637,-1.2245249438094e-11,-9.6574970730348e-12,-0.00046953665958725,0.00046953663476011,7.9355345454551e-12,-3.1168328568387e-11,-0.00048387254660065,0.00048387253587376,-0.00048387255945816,0.00048387252291473,-0.00048387254751914,0.00048387253851232,-0.00048387256044086,0.00048387252562684,-0.0004706201150013,0.00047062008184349,-0.00047062011640196,0.00047062007817219,0.73992840791513,122718,2924,0.0019545017407518,0.0022308556422865,0.0019545017407733,33.606623196848,0.00018405298557478,0.00018405298557478,0.00018405298557478,2174450.1843171,0.0061587598340578
5419200,0.55150441320326,0.0088088254996749,0.0028018718773304,0.0032050817449962,0.0028018718773482,-0.00068094286799098,0.00068094285640641,-3.5803541299919e-12,-6.1709403705646e-12,7.6100423070342e-12,-1.7645181245943e-11,-0.00070932258387326,0.0007093225822656,-0.0007093225861115,0.00070932258277323,-0.00070932259193296,0.00070932257378011,-0.00070932259431777,0.00070932257444276,-0.00068258465563269,0.00068258463922775,-0.00068258465906846,0.00068258463759285,-7.0035683105014e-12,1.8477947746674e-11,-1.2107740999177e-11,2.3209615079838e-11,-0.00084348088225612,0.00084348089338792,-0.00087643643741343,0.00087643642845733,-0.0008764364273904,0.00087643644157508,-0.00087643643049757,0.00087643643825877,-0.00087643642046803,0.00087643645138254,-0.00080408766858446,0.00080408765352645,-0.00080408763442548,0.00080408768857594,-0.00080408766207205,0.000804087660245,-0.00080408763736142,0.00080408768549615,-7.4537722629621e-12,-4.8634020881693e-12,-0.00068094286923988,0.00068094285516521,1.0770558349189e-11,-2.3713888989414e-11,-0.00070932258427187,0.00070932258171464,-0.00070932259558028,0.00070932257030199,-0.00070932258483042,0.00070932258399525,-0.00070932259620945,0.00070932257266187,-0.00068258465933265,0.00068258463724654,-0.00068258466111117,0.00068258463394831,0.72499638738019,122718,2924,0.0028333178514723,0.0035082727590874,0.0028333178514882,36.277814904154,0.00020542251923324,0.00020542251923324,0.00020542251923324,2954891.3812188,0.0092171689596801
6419200,0.70768055767735,0.010768404225464,0.0033650538008102,0.0040382966238289,0.0033650538008249,-0.00079479906624635,0.00079479905718858,-2.5218760852549e-12,-5.1138058592321e-12,8.723978030739e-12,-1.7119918027668e-11,-0.00084027173084002,0.00084027173174505,-0.00084027173263794,0.00084027173181149,-0.00084027173911592,0.00084027172305456,-0.00084027174107833,0.00084027172329395,-0.0007914415958081,0.00079144158159548,-0.00079144159869931,0.00079144157941357,-5.8692727271588e-12,2.0190410623285e-11,-1.1278582829389e-11,2.5193289303482e-11,-0.0010577526083649,0.0010577526223257,-0.0011180387186599,0.0011180387119326,-0.0011180387080686,0.0011180387252999,-0.001118038711399,0.0011180387217684,-0.0011180387008012,0.0011180387351416,-0.00098888137625365,0.00098888136308617,-0.00098888134155665,0.00098888139983975,-0.00098888136934893,0.00098888137023289,-0.00098888134464393,0.00098888139658081,-6.7941036359741e-12,-4.2023986049014e-12,-0.00079479906790763,0.0007947990555334,1.1711742978997e-11,-2.3887027466237e-11,-0.0008402717315623,0.00084027173084229,-0.0008402717432309,0.00084027171906301,-0.00084027173172335,0.00084027173272631,-0.00084027174346203,0.00084027172102569,-0.00079144159947431,0.00079144157859284,-0.0007914416017794,0.00079144157581837,0.59839168540088,122718,2924,0.0033063825701959,0.0043974782085789,0.0033063825702086,36.740412350384,0.00020912329880307,0.00020912329880307,0.00020912329880307,3289035.2151305,0.011071179147891
7419200,0.83279351059905,0.012138095580855,0.0037519124277138,0.0046342707254148,0.0037519124277269,-0.00086979774186359,0.00086979773273426,-2.4247594399694e-12,-5.0175805406349e-12,8.6470032223401e-12,-1.6887833882385e-11,-0.00092852191499189,0.00092852191600445,-0.0009285219168051,0.00092852191608569,-0.00092852192317677,0.00092852190743129,-0.00092852192514092,0.00092852190767189,-0.00086167210066478,0.00086167208669339,-0.0008616721035078,0.00086167208446161,-6.1383726533996e-12,1.9603768118341e-11,-1.1553343817983e-11,2.4620106049131e-11,-0.0012225446263562,0.0012225446394623,-0.0013099042034446,0.0013099041960508,-0.0013099041929111,0.0013099042092976,-0.0013099041962789,0.0013099042057795,-0.0013099041857389,0.0013099042190322,-0.001125870921671,0.001125870907834,-0.001125870887262,0.0011258709443105,-0.0011258709147419,0.0011258709149719,-0.0011258708903729,0.0011258709410522,-6.3625067327279e-12,-3.7699122729443e-12,-0.00086979774317963,0.00086979773142335,1.1994352816049e-11,-2.3319478635347e-11,-0.00092852191537209,0.00092852191546206,-0.00092852192694847,0.00092852190377868,-0.00092852191553352,0.00092852191734701,-0.00092852192717766,0.00092852190573996,-0.00086167210394303,0.00086167208396547,-0.00086167210630688,0.00086167208124816,0.52694121020036,122718,2924,0.0036179457172609,0.0050807976305815,0.0036179457172716,40.777849910875,0.000241422799287,0.000241422799287,0.000241422799287,3395693.1059168,0.01239301475465
8419200,0.90820228129018,0.012875931039909,0.0039591960069221,0.004957539026052,0.0039591960069345,-0.00089555200510878,0.0008955519983805,-1.571615686749e-12,-4.164671092297e-12,9.0868118894283e-12,-1.5638336847779e-11,-0.00096439276259413,0.00096439276531524,-0.00096439276413176,0.00096439276512078,-0.00096439277052077,0.00096439275702178,-0.0009643927722057,0.00096439275698302,-0.00088491708247783,0.00088491707065981,-0.00088491708524855,0.00088491706835532,-5.9682850259304e-12,1.8974224291649e-11,-1.1302720415532e-11,2.3922356188439e-11,-0.0013157633113211,0.0013157633239769,-0.0014202267179399,0.0014202267106842,-0.0014202267074557,0.0014202267233448,-0.001420226710779,0.0014202267198797,-0.0014202267002882,0.0014202267325463,-0.0012008704520606,0.0012008704384328,-0.001200870418512,0.0012008704739235,-0.0012008704452285,0.0012008704454684,-0.0012008704215835,0.0012008704707084,-5.445927115959e-12,-2.8530979133466e-12,-0.00089555200635953,0.00089555199713436,1.2429273235411e-11,-2.1934820711431e-11,-0.00096439276293946,0.00096439276481876,-0.00096439277419505,0.00096439275345364,-0.00096439276282271,0.00096439276642565,-0.00096439277414753,0.0009643927551383,-0.00088491708559532,0.00088491706794596,-0.00088491708802871,0.00088491706529782,0.47156008474719,122718,2924,0.0037250051963026,0.0054670930871756,0.0037250051963122,41.436037207658,0.00024668829766126,0.00024668829766126,0.00024668829766126,3307614.4271821,0.013001100916435
9419200,0.94991946417944,0.013228243823617,0.0040582299414349,0.0051117839407354,0.0040582299414469,-0.0008986752521668,0.00089867524664473,-1.1351973186629e-12,-3.7281615545467e-12,9.2966516186745e-12,-1.4971778475386e-11,-0.00097452742940851,0.00097452743299694,-0.00097452743080609,0.00097452743266255,-0.00097452743719033,0.00097452742486202,-0.0009745274387322,0.00097452742468031,-0.00088664823301778,0.00088664822231096,-0.0008866482357695,0.00088664821998766,-5.8777058812964e-12,1.8612828184993e-11,-1.1130943780838e-11,2.3486975253734e-11,-0.0013636105212176,0.0013636105336081,-0.0014781178835769,0.0014781178764111,-0.0014781178731321,0.0014781178887061,-0.0014781178764069,0.0014781178852946,-0.0014781178659556,0.0014781178975954,-0.0012376719898941,0.001237671976444,-0.0012376719568907,0.0012376720112963,-0.0012376719831634,0.0012376719833746,-0.001237671959917,0.0012376720081291,-4.9710725047943e-12,-2.3783340788206e-12,-0.00089867525337839,0.00089867524543744,1.2604281594908e-11,-2.1153854402136e-11,-0.00097452742974401,0.00097452743251718,-0.00097452744079577,0.00097452742135507,-0.0009745274294855,0.00097452743398221,-0.0009745274406068,0.00097452742289817,-0.00088664823605238,0.00088664821964121,-0.00088664823850269,0.00088664821701021,0.40621133923259,122718,2924,0.0037380806250093,0.0056652878069865,0.0037380806250182,41.14427471976,0.00024435419775808,0.00024435419775808,0.00024435419775808,3179379.0555338,0.01322842036368
10419200,0.97077503174879,0.013418611251467,0.0041126636088366,0.0051932840337817,0.0041126636088486,-0.00089370703699341,0.00089370703383821,-3.1007099077937e-13,-2.9028555633788e-12,9.8051052512063e-12,-1.3811791441605e-11,-0.00097283633732204,0.00097283634264231,-0.00097283633844327,0.00097283634203175,-0.0009728363448927,0.00097283633472947,-0.0009728363461579,0.00097283633427122,-0.00088144736132967,0.00088144735267469,-0.000881447364071,0.00088144735034134,-5.7089086555829e-12,1.8146684807706e-11,-1.084812765597e-11,2.2916258100516e-11,-0.0013839718725275,0.0013839718846286,-0.0015033722563895,0.0015033722494417,-0.0015033722459169,0.0015033722611314,-0.0015033722491217,0.0015033722577946,-0.0015033722386426,0.0015033722694902,-0.0012523558603058,0.0012523558471881,-0.0012523558280415,0.0012523558811132,-0.0012523558537183,0.001252355853971,-0.0012523558310038,0.0012523558780133,-4.1173580410675e-12,-1.5248008154406e-12,-0.00089370703817614,0.00089370703265964,1.3038398127064e-11,-1.9858341469976e-11,-0.00097283633766882,0.00097283634215815,-0.00097283634843,0.0009728363312839,-0.00097283633713241,0.00097283634334512,-0.00097283634796553,0.00097283633255132,-0.00088144736428972,0.00088144735005802,-0.00088144736674833,0.00088144734743568,0.43665130715676,122718,2924,0.0037175233367722,0.0057496076621796,0.0037175233367808,38.087766249746,0.00021990212999797,0.00021990212999797,0.00021990212999797,3113366.8827106,0.013272209813222
11419200,0.98282369015128,0.013520579530042,0.0041418460974005,0.0052368873352294,0.0041418460974124,-0.00088854608369382,0.00088854607895957,-8.4104079575159e-13,-3.4336803012064e-12,9.2142725360343e-12,-1.4282866962336e-11,-0.00097305084145934,0.00097305084544161,-0.00097305084277868,0.00097305084502923,-0.0009730508489982,0.00097305083757007,-0.00097305085045624,0.00097305083730478,-0.00087634020205433,0.00087634019225044,-0.0008763402047897,0.00087634018991143,-5.6695046240549e-12,1.8049092406734e-11,-1.0692587642905e-11,2.2705612653237e-11,-0.0014010796271571,0.0014010796392024,-0.0015222587185011,0.001522258711646,-0.0015222587083413,0.0015222587234256,-0.0015222587114734,0.001522258720166,-0.0015222587013071,0.0015222587319516,-0.0012665454507996,0.0012665454379456,-0.0012665454189318,0.0012665454715445,-0.0012665454443612,0.0012665454445754,-0.0012665454218226,0.0012665454685189,-4.6280657481212e-12,-2.0356535033593e-12,-0.00088854608485614,0.00088854607780132,1.235685562419e-11,-2.0194198207026e-11,-0.00097305084182582,0.00097305084494124,-0.0009730508524761,0.00097305083418075,-0.00097305084148632,0.00097305084632501,-0.00097305085220519,0.00097305083564164,-0.00087634020495036,0.00087634018968584,-0.00087634020741353,0.00087634018706835,0.40445605707229,122718,2924,0.0036961695461061,0.005820409790053,0.0036961695461146,37.62614127246,0.00021620913017968,0.00021620913017968,0.00021620913017968,2995581.1201394,0.013300699049586
12419200,0.98973344996802,0.013586362703803,0.0041609123380875,0.0052645380276163,0.0041609123380993,-0.00088554569008017,0.00088554568573987,-7.0671414566208e-13,-3.2992760333709e-12,9.2905940426999e-12,-1.4086377759064e-11,-0.00097149781831685,0.00097149782258339,-0.00097149781958771,0.00097149782212262,-0.00097149782581785,0.0009714978147536,-0.00097149782722647,0.00097149781443896,-0.00087337691872322,0.00087337690926274,-0.00087337692145832,0.00087337690692359,-5.6418411750366e-12,1.7958726343826e-11,-1.0580813998689e-11,2.2533236154515e-11,-0.0014092719974801,0.0014092720094644,-0.0015323316377899,0.0015323316310087,-0.0015323316276659,0.0015323316426352,-0.0015323316307453,0.0015323316394317,-0.0015323316206147,0.0015323316510642,-0.0012723690938834,0.0012723690812072,-0.0012723690622747,0.0012723691145093,-0.0012723690875524,0.0012723690877256,-0.0012723690651137,0.0012723691115379,-4.4789619649041e-12,-1.8866264236813e-12,-0.00088554569122752,0.00088554568459652,1.2368225070979e-11,-1.9899729965696e-11,-0.00097149781869726,0.00097149782207144,-0.00097149782925296,0.00097149781140522,-0.00097149781830845,0.00097149782340582,-0.00097149782893296,0.00097149781281695,-0.00087337692157688,0.00087337690673959,-0.00087337692403976,0.00087337690412196,0.45322610794666,122718,2924,0.0036837463321177,0.0058543268889937,0.003683746332126,36.800802159216,0.00020960641727373,0.00020960641727373,0.00020960641727373,2956479.2026748,0.013309893850418
13419200,0.99359198684576,0.013619996640307,0.0041706370778026,0.0052787224846901,0.0041706370778144,-0.00087680044183463,0.0008768004385265,-3.5841440178899e-13,-2.9507367015735e-12,9.5438897789537e-12,-1.3628201079577e-11,-0.00096666417477543,0.00096666417975777,-0.00096666417593273,0.00096666417918358,-0.00096666418221031,0.00096666417199844,-0.00096666418350468,0.00096666417156968,-0.00086482633301701,0.00086482632441459,-0.00086482633574249,0.00086482632206635,-5.5715491753501e-12,1.7829667462957e-11,-1.0427769850554e-11,2.2325056337795e-11,-0.0014137643247028,0.0014137643366315,-0.0015370107025835,0.0015370106959377,-0.0015370106924434,0.0015370107073048,-0.0015370106954711,0.0015370107041559,-0.0015370106853245,0.0015370107155289,-0.001275836249182,0.0012758362367363,-0.0012758362178653,0.0012758362696252,-0.0012758362429568,0.0012758362431465,-0.0012758362206546,0.0012758362667054,-4.1215487953958e-12,-1.5294537615316e-12,-0.00087680044297291,0.00087680043739219,1.255257132168e-11,-1.9351944761739e-11,-0.00096666417517517,0.00096666417922914,-0.00096666418560851,0.00096666416868441,-0.00096666417467208,0.00096666418044912,-0.00096666418517486,0.00096666416998232,-0.0008648263358257,0.00086482632191753,-0.00086482633829685,0.00086482631930874,0.4150894025916,122718,2924,0.0036474888083156,0.0058728803692249,0.0036474888083239,34.786205539327,0.00019348964431462,0.00019348964431462,0.00019348964431462,2877080.9779318,0.013255231387648
14419200,0.99582019092729,0.01363794134781,0.0041758366643872,0.0052862680190233,0.0041758366643991,-0.00087133567269504,0.00087133566955818,-2.9910413830918e-13,-2.8913215483177e-12,9.5253458877363e-12,-1.3487659255386e-11,-0.00096094753810955,0.0009609475432038,-0.00096094753924282,0.00096094754260566,-0.00096094754549398,0.0009609475354983,-0.00096094754676367,0.00096094753504496,-0.000859267549944,0.00085926754152613,-0.00085926755267752,0.00085926753918609,-5.5300471490909e-12,1.7713878882571e-11,-1.0309015831349e-11,2.213443480821e-11,-0.0014122944948244,0.0014122945066809,-0.0015370404703898,0.0015370404638266,-0.001537040460322,0.0015370404750619,-0.0015370404633012,0.0015370404719643,-0.0015370404532268,0.0015370404832055,-0.0012727945102982,0.0012727944980318,-0.0012727944792817,0.0012727945306139,-0.0012727945041717,0.00127279450434,-0.0012727944820241,0.0012727945277435,-4.0493366926024e-12,-1.457345684972e-12,-0.00087133567382034,0.0008713356684368,1.2474306477323e-11,-1.9122649086417e-11,-0.00096094753852278,0.00096094754266373,-0.00096094754885391,0.00096094753222102,-0.00096094753799502,0.00096094754385895,-0.00096094754839576,0.00096094753349438,-0.00085926755272292,0.00085926753907459,-0.00085926755518558,0.00085926753645745,0.38312450045663,122718,2924,0.0036248104727726,0.0058667969697355,0.0036248104727807,32.634956999041,0.00017627965599233,0.00017627965599233,0.00017627965599233,2875351.9581154,0.013203107999275
15419200,0.99697993824192,0.013650435150197,0.0041795019232097,0.005291431303766,0.0041795019232215,-0.00085972994120338,0.00085972994068478,5.9214768970631e-13,-1.9998501077557e-12,1.0172810473946e-11,-1.2325406408471e-11,-0.0009492905602157,0.00094929056724379,-0.00094929056104334,0.0009492905663402,-0.00094929056743033,0.00094929055971226,-0.00094929056839636,0.00094929055895542,-0.00084766835218735,0.0008476683459419,-0.00084766835492476,0.00084766834360618,-5.3781569951132e-12,1.7371749922611e-11,-1.0055667570964e-11,2.1697820322954e-11,-0.001403511998293,0.0014035120099655,-0.0015290177840059,0.0015290177776691,-0.0015290177738242,0.0015290177883172,-0.0015290177767402,0.001529017785286,-0.0015290177665519,0.00152901779594,-0.0012631958568302,0.0012631958448868,-0.001263195826379,0.0012631958766875,-0.0012631958508319,0.0012631958510631,-0.0012631958290629,0.0012631958738781,-3.1434936743084e-12,-5.5172229232151e-13,-0.00085972994231421,0.00085972993957786,1.3043680877444e-11,-1.7849649104369e-11,-0.00094929056064945,0.00094929056668732,-0.00094929057074216,0.00094929055647963,-0.00094929055981525,0.00094929056757593,-0.00094929056998081,0.00094929055744963,-0.00084766835492391,0.00084766834354035,-0.0008476683573813,0.00084766834091837,0.51103778709309,122718,2924,0.0035766338348244,0.0058304172253866,0.0035766338348326,27.046978035692,0.00013157582428554,0.00013157582428554,0.00013157582428554,2888834.9944237,0.013068631309904
16419200,0.99772509422706,0.013657732253536,0.0041816253145338,0.0052944816244566,0.0041816253145456,-0.00084718524641915,0.0008471852438309,-1.1232849123582e-13,-2.7040675731984e-12,9.5012086618767e-12,-1.3067939989286e-11,-0.00094256456267812,0.00094256456799555,-0.00094256456376639,0.00094256456735275,-0.00094256456992173,0.00094256456043996,-0.00094256457114377,0.0009425645599393,-0.00083559659294203,0.0008355965851,-0.00083559659566429,0.00083559658274965,-5.3641877159827e-12,1.7436456828213e-11,-9.9571973438678e-12,2.1678277272922e-11,-0.0014053231935325,0.0014053232052837,-0.0015293687252962,0.0015293687190399,-0.0015293687154224,0.0015293687299388,-0.0015293687182845,0.0015293687269639,-0.0015293687084042,0.0015293687378688,-0.0012653036099036,0.0012653035981783,-0.0012653035796207,0.0012653036299094,-0.001265303604015,0.0012653036042432,-0.0012653035822504,0.0012653036271553,-3.8465281235591e-12,-1.2549996459164e-12,-0.0008471852475286,0.00084718524272533,1.2289786584868e-11,-1.8505191820636e-11,-0.00094256456313912,0.00094256456741271,-0.00094256457320377,0.00094256455723636,-0.00094256456256518,0.00094256456856142,-0.00094256457269893,0.00094256455846271,-0.00083559659563389,0.00083559658271296,-0.00083559659810546,0.00083559658010563,0.46538451425637,122718,2924,0.0035246104242402,0.0058378326400176,0.0035246104242483,24.407508046773,0.00011046006437418,0.00011046006437418,0.00011046006437418,2779506.2202256,0.012970767184925
17419200,0.99822560169167,0.01366327935408,0.0041832549452388,0.005296769463591,0.0041832549452506,-0.00084140314729281,0.00084140314457298,-1.5933536219347e-13,-2.7509865115827e-12,9.4725703474193e-12,-1.313765980057e-11,-0.00093529686333768,0.00093529686861035,-0.00093529686442959,0.00093529686797126,-0.00093529687059519,0.00093529686104157,-0.00093529687182061,0.00093529686054435,-0.0008296715475396,0.0008296715395777,-0.00082967155027547,0.00082967153724108,-5.3953489110884e-12,1.7446416965114e-11,-9.9339156433431e-12,2.1633488229431e-11,-0.001400982610957,0.0014009826226867,-0.0015269163032251,0.0015269162969562,-0.0015269162933796,0.001526916307839,-0.0015269162962076,0.0015269163049009,-0.0015269162863555,0.0015269163157896,-0.0012591773940983,0.0012591773824321,-0.0012591773639013,0.0012591774141152,-0.0012591773882799,0.0012591773884234,-0.0012591773664964,0.0012591774113981,-3.8808185907148e-12,-1.2893933746234e-12,-0.00084140314838947,0.00084140314348017,1.2221883335736e-11,-1.8507137339327e-11,-0.00093529686380423,0.00093529686802249,-0.00093529687384727,0.00093529685786791,-0.00093529686323348,0.00093529686917434,-0.00093529687334575,0.00093529685909747,-0.00082967155021492,0.00082967153723472,-0.00082967155267295,0.00082967153461403,0.52521873377382,122718,2924,0.0035006004843246,0.0058198756473852,0.0035006004843326,21.970372473322,9.0962979786576e-05,9.0962979786576e-05,9.0962979786576e-05,2796925.9475465,0.012903927385915
18419200,0.99853656578082,0.013666590665418,0.0041842238199668,0.0052981430254722,0.0041842238199787,-0.00082786311829696,0.00082786311720538,3.8526720645424e-13,-2.2061167318885e-12,9.9315653456578e-12,-1.2484552487844e-11,-0.00092450406055104,0.00092450406700282,-0.00092450406145986,0.00092450406618086,-0.00092450406774386,0.00092450405950063,-0.00092450406878688,0.0009245040588212,-0.00081630177196357,0.0008163017653043,-0.00081630177469603,0.00081630176296484,-5.326055469132e-12,1.7332089398919e-11,-9.8110173389784e-12,2.146848768185e-11,-0.0013961381648998,0.001396138176587,-0.0015219063037339,0.0015219062975897,-0.0015219062937719,0.0015219063081552,-0.0015219062965663,0.0015219063052521,-0.0015219062865978,0.0015219063158236,-0.0012539502196872,0.001253950208196,-0.0012539501896847,0.001253950239514,-0.0012539502139371,0.0012539502141177,-0.0012539501922481,0.0012539502368297,-3.3332285839195e-12,-7.4207037437709e-13,-0.0008278631193908,0.00082786311611537,1.2633285414744e-11,-1.7799537813544e-11,-0.00092450406103309,0.00092450406640134,-0.0009245040709749,0.00092450405634625,-0.00092450406027898,0.00092450406736958,-0.00092450407029148,0.00092450405739372,-0.00081630177461558,0.00081630176297792,-0.00081630177707584,0.00081630176036001,0.50516361584657,122718,2924,0.0034444133424478,0.0057997652633813,0.0034444133424558,17.468055197384,5.4944441579069e-05,5.4944441579069e-05,5.4944441579069e-05,2747545.5954717,0.012769754503134
19419200,0.99879421512713,0.013670147692734,0.0041852748733684,0.0052995979459852,0.0041852748733802,-0.00082679322424432,0.00082679321975107,-7.5518282674185e-13,-3.3465513848674e-12,8.9197647021641e-12,-1.3790566501777e-11,-0.00092278815549027,0.00092278815939711,-0.00092278815679207,0.00092278815896813,-0.00092278816278473,0.00092278815179496,-0.00092278816421662,0.00092278815150443,-0.0008151394274367,0.00081513941809605,-0.00081513943017572,0.00081513941576325,-5.4246502218358e-12,1.7502449135722e-11,-9.8889291941188e-12,2.1614529455668e-11,-0.0013969871728265,0.0013969871845821,-0.0015238959546422,0.0015238959483768,-0.0015238959450442,0.0015238959594806,-0.0015238959478248,0.0015238959565924,-0.0015238959382203,0.0015238959677022,-0.0012536846534466,0.0012536846419026,-0.0012536846233878,0.0012536846735934,-0.0012536846477246,0.0012536846477944,-0.0012536846259349,0.0012536846709263,-4.4668013658138e-12,-1.8756615380628e-12,-0.00082679322533121,0.00082679321866796,1.1605704865448e-11,-1.9074489733204e-11,-0.00092278815597216,0.00092278815879458,-0.00092278816600269,0.00092278814865513,-0.00092278815561088,0.00092278816015563,-0.0009227881657079,0.0009227881500913,-0.00081513943008112,0.00081513941579098,-0.00081513943253522,0.00081513941316697,0.65325215552177,122718,2924,0.0034399728628029,0.005803292396443,0.0034399728628108,17.551688956141,5.5613511649125e-05,5.5613511649125e-05,5.5613511649125e-05,2742289.0241734,0.012764327817821
20419200,0.99901846550071,0.013673464381662,0.0041862531040201,0.0053009581736099,0.0041862531040319,-0.00082134426468483,0.00082134425947491,-1.0037818480212e-12,-3.5949554084274e-12,8.8403874377468e-12,-1.4219469369677e-11,-0.00092261687981446,0.00092261688323254,-0.00092261688119934,0.00092261688288673,-0.00092261688722265,0.00092261687551457,-0.0009226168887364,0.00092261687530601,-0.00081005819129082,0.0008100581812814,-0.00081005819401888,0.00081005817893793,-5.5230096287882e-12,1.7745906433563e-11,-9.9963336188697e-12,2.186289163308e-11,-0.0014050364384945,0.0014050364503914,-0.0015307294774258,0.0015307294710672,-0.0015307294678032,0.0015307294823848,-0.0015307294705886,0.0015307294794913,-0.0015307294609595,0.0015307294908149,-0.001261928479708,0.0012619284680704,-0.0012619284493227,0.0012619285001324,-0.0012619284739767,0.0012619284739732,-0.0012619284518711,0.0012619284974628,-4.7245967844584e-12,-2.1336513772386e-12,-0.000821344265781,0.00082134425838252,1.1520988188778e-11,-1.9518114923406e-11,-0.00092261688030196,0.0009226168826226,-0.00092261689045242,0.00092261687236433,-0.00092261688002404,0.00092261688406694,-0.00092261689023976,0.00092261687388244,-0.00081005819393541,0.00081005817895425,-0.0008100581964004,0.00081005817634147,0.70012779305903,122718,2924,0.0034174056604212,0.005836552832772,0.0034174056604291,18.599612989575,6.3996903916603e-05,6.3996903916603e-05,6.3996903916603e-05,2624848.2044103,0.012752325484309
21419200,0.99917094195463,0.013675559305332,0.004186871514735,0.0053018162758504,0.0041868715147468,-0.00080953663662476,0.0008095366349015,1.555732638877e-13,-2.4353327186691e-12,9.8776366971851e-12,-1.2892541965222e-11,-0.0009120668936351,0.00091206689965903,-0.0009120668946146,0.00091206689890802,-0.00091206690094454,0.00091206689204088,-0.00091206690205589,0.0009120668914301,-0.00079828700433118,0.0007982869970588,-0.00079828700706795,0.00079828699472455,-5.4384105073509e-12,1.7565849992987e-11,-9.9136825555677e-12,2.1688932535646e-11,-0.0014015293449328,0.0014015293567378,-0.0015284611121626,0.0015284611059116,-0.0015284611021647,0.0015284611166581,-0.0015284611049527,0.0015284611137622,-0.0015284610949484,0.0015284611245147,-0.0012567660167044,0.001256766005129,-0.0012567659864004,0.0012567660367803,-0.0012567660109682,0.0012567660110364,-0.0012567659889537,0.0012567660341061,-3.5633823175868e-12,-9.7271500481254e-13,-0.00080953663771922,0.00080953663381077,1.256568192116e-11,-1.8195177456804e-11,-0.00091206689412075,0.00091206689905342,-0.00091206690417252,0.00091206688888996,-0.00091206689343714,0.00091206690009188,-0.000912066903558,0.000912066890006,-0.00079828700698453,0.0007982869947402,-0.0007982870094396,0.00079828699211806,0.64990944923706,122718,2924,0.0033684022992175,0.0058220049889591,0.0033684022992252,15.218210660037,3.6945685280296e-05,3.6945685280296e-05,3.6945685280296e-05,2585900.099115,0.012638345003273
22419200,0.99929721788312,0.013677339843653,0.0041873987479006,0.0053025423478401,0.0041873987479124,-0.00080815536136077,0.00080815535734205,-6.0605543395192e-13,-3.1969530444931e-12,9.1675460021007e-12,-1.3735974228357e-11,-0.00090864852420384,0.00090864852853242,-0.00090864852544436,0.00090864852804248,-0.00090864853156079,0.00090864852086869,-0.00090864853293059,0.00090864852051638,-0.00079662379208998,0.00079662378303524,-0.0007966237948343,0.00079662378070857,-5.4933335059616e-12,1.7627718926463e-11,-9.9710427444297e-12,2.1751469860468e-11,-0.001400549236381,0.0014005492481914,-0.0015295227324662,0.0015295227261247,-0.0015295227227267,0.0015295227372259,-0.0015295227255161,0.0015295227343292,-0.00152952271577,0.0015295227454364,-0.0012540389910833,0.0012540389794406,-0.0012540389607875,0.0012540390113286,-0.0012540389853444,0.0012540389853496,-0.0012540389633413,0.0012540390086547,-4.3177254199816e-12,-1.7270534455851e-12,-0.00080815536244791,0.00080815535625861,1.1864676601098e-11,-1.9032367002561e-11,-0.00090864852468136,0.00090864852793452,-0.00090864853478263,0.00090864851772436,-0.00090864852425868,0.0009086485292339,-0.00090864853442647,0.00090864851909876,-0.00079662379474448,0.00079662378073103,-0.00079662379719231,0.00079662377810164,0.66642562144511,122718,2924,0.0033626572655422,0.0058179778490549,0.0033626572655499,14.858153797116,3.4065230376931e-05,3.4065230376931e-05,3.4065230376931e-05,2598786.2102713,0.012622621144653
23419200,0.99940936989426,0.0136788307419,0.0041878389418333,0.0053031528582217,0.0041878389418452,-0.00080771989037646,0.00080771988542583,-9.1854639859686e-13,-3.5094295318977e-12,8.9564775695818e-12,-1.4163527137498e-11,-0.00090887539941738,0.00090887540308157,-0.00090887540076628,0.00090887540270001,-0.00090887540684546,0.00090887539534545,-0.00090887540832264,0.00090887539510054,-0.00079614097939917,0.00079614096956483,-0.0007961409821387,0.0007961409672334,-5.5656733842633e-12,1.7764283548626e-11,-1.0064343952965e-11,2.1905960023252e-11,-0.0014036776671144,0.0014036776789862,-0.0015329732168705,0.0015329732104332,-0.0015329732071736,0.0015329732217465,-0.0015329732099755,0.0015329732188364,-0.0015329732002721,0.0015329732301556,-0.0012567531071907,0.0012567530954375,-0.0012567530766953,0.0012567531276103,-0.0012567531014263,0.0012567531013731,-0.0012567530792597,0.0012567531249252,-4.6315394949418e-12,-2.0408833141804e-12,-0.00080771989146495,0.00080771988434102,1.1669773525841e-11,-1.9479773205013e-11,-0.00090887539988892,0.00090887540248831,-0.00090887541007559,0.00090887539219402,-0.00090887539957479,0.00090887540389622,-0.00090887540982674,0.00090887539367572,-0.00079614098205644,0.00079614096724841,-0.00079614098450931,0.0007961409646241,0.62875729639221,122718,2924,0.0033608606043217,0.0058309260611815,0.0033608606043294,15.707577897846,4.0860623182768e-05,4.0860623182768e-05,4.0860623182768e-05,2568277.6696284,0.012632097426513
24419200,0.99951525428841,0.01368031543309,0.0041882789589394,0.0053037575151999,0.0041882789589512,-0.00081207593629661,0.00081207593029278,-1.2738099168638e-12,-3.8647707676893e-12,8.7328678087947e-12,-1.4666986315989e-11,-0.00091206333383137,0.00091206333676256,-0.00091206333529954,0.00091206333650022,-0.00091206334135086,0.00091206332893249,-0.00091206334294669,0.00091206332880618,-0.000800355188346,0.00080035517761566,-0.00080035519108274,0.0008003551752813,-5.6623385782668e-12,1.7939325495332e-11,-1.0205040007739e-11,2.212090557446e-11,-0.0014075740475445,0.0014075740594909,-0.001537799536158,0.0015377995295812,-0.0015377995264832,0.0015377995411575,-0.0015377995293124,0.0015377995382189,-0.0015377995196311,0.0015377995498012,-0.001259907492891,0.0012599074809555,-0.0012599074620996,0.0012599075135278,-0.0012599074870712,0.0012599074869475,-0.0012599074646886,0.0012599075108175,-4.987700070363e-12,-2.3969663331474e-12,-0.00081207593738596,0.0008120759292071,1.148503411068e-11,-2.0025062145156e-11,-0.00091206333428853,0.00091206333618164,-0.00091206334459673,0.00091206332576719,-0.00091206333409395,0.00091206333770914,-0.00091206334446627,0.00091206332736732,-0.0008003551910151,0.00080035517528202,-0.0008003551934715,0.0008003551726611,0.66255127740754,122718,2924,0.0033789426992931,0.0058470848104274,0.0033789426993008,17.886371122464,5.8290968979715e-05,5.8290968979715e-05,5.8290968979715e-05,2569162.7804312,0.012685076730101
25419200,0.99961178207246,0.013681910032499,0.0041887534017445,0.005304403228998,0.0041887534017563,-0.00081388110513193,0.0008138810992254,-1.2435015780568e-12,-3.8344564064617e-12,8.8301144243744e-12,-1.4705521168187e-11,-0.00091533823947772,0.00091533824252196,-0.00091533824093292,0.00091533824224664,-0.00091533824704037,0.0009153382346471,-0.0009153382486235,0.00091533823450808,-0.00080221826821118,0.00080221825750659,-0.00080221827094546,0.00080221825516981,-5.7067544566863e-12,1.8030900109555e-11,-1.0296154106618e-11,2.2257437109398e-11,-0.0014133170175992,0.0014133170295912,-0.0015432376994203,0.0015432376927711,-0.0015432376896587,0.0015432377044083,-0.0015432376925172,0.0015432377014387,-0.0015432376827491,0.0015432377130818,-0.0012657081901885,0.0012657081781192,-0.00126570815917,0.0012657082109125,-0.0012657081843092,0.0012657081841729,-0.001265708161787,0.0012657082081727,-4.9640724539352e-12,-2.3733429812952e-12,-0.00081388110622799,0.000813881098133,1.1619070574781e-11,-2.0115957870192e-11,-0.00091533823992562,0.00091533824194928,-0.00091533825030798,0.00091533823146063,-0.00091533823971836,0.00091533824346412,-0.00091533825016487,0.00091533823304809,-0.00080221827089956,0.00080221825514902,-0.00080221827335844,0.00080221825253062,0.77991302017261,122718,2924,0.0033864557652476,0.0058708499144903,0.0033864557652553,19.931081930845,7.464865544676e-05,7.464865544676e-05,7.464865544676e-05,2526848.0832199,0.012724367418582
26419200,0.99969091196372,0.013683300522185,0.0041891676020746,0.0053049653180237,0.0041891676020864,-0.0008090373836911,0.00080903737906231,-8.172300452125e-13,-3.4080308714e-12,9.2193571601142e-12,-1.422522889961e-11,-0.00091431613526089,0.00091431613925471,-0.00091431613657053,0.00091431613883394,-0.00091431614279256,0.00091431613141199,-0.00091431614423077,0.00091431613112815,-0.00079764693156046,0.0007976469218564,-0.0007976469342943,0.00079764691951944,-5.6748439609418e-12,1.7979994370573e-11,-1.0297881877366e-11,2.2242083872546e-11,-0.00141844946874,0.0014184494807146,-0.0015475830765727,0.0015475830699484,-0.0015475830666491,0.0015475830814044,-0.0015475830695295,0.0015475830784116,-0.0015475830595994,0.0015475830898736,-0.00127086295798,0.0012708629458755,-0.0012708629269093,0.0012708629785948,-0.0012708629520565,0.0012708629519754,-0.0012708629295489,0.0012708629758308,-4.5455260343587e-12,-1.954950483487e-12,-0.00080903738479499,0.00080903737796206,1.2034060132429e-11,-1.9679009067024e-11,-0.00091431613570552,0.0009143161386864,-0.00091431614607805,0.00091431612820624,-0.00091431613535271,0.00091431614005558,-0.00091431614579049,0.00091431612964919,-0.00079764693426745,0.000797646919479,-0.00079764693672595,0.00079764691686048,0.82922923068302,122718,2924,0.0033663870820843,0.005892046667702,0.0033663870820919,20.395173347779,7.8361386782229e-05,7.8361386782229e-05,7.8361386782229e-05,2442959.9679368,0.012705202454561
27419200,0.99975993157782,0.013684393638197,0.004189493051017,0.0053054075361516,0.0041894930510288,-0.00080885708932028,0.00080885708359415,-1.184431764952e-12,-3.7751977296413e-12,8.8905102116775e-12,-1.4645604028027e-11,-0.00091518602031214,0.00091518602348491,-0.00091518602174681,0.00091518602318924,-0.00091518602787603,0.00091518601561171,-0.00091518602943762,0.00091518601545131,-0.00079745305388672,0.00079745304331857,-0.00079745305661651,0.00079745304097758,-5.7041932996337e-12,1.8033615879531e-11,-1.035195310788e-11,2.2319715677419e-11,-0.001424222171409,0.0014242221834071,-0.0015541193303384,0.0015541193236584,-0.0015541193205146,0.0015541193353092,-0.0015541193234108,0.0015541193323002,-0.0015541193135805,0.0015541193439568,-0.0012755679106398,0.0012755678984601,-0.0012755678794942,0.0012755679313601,-0.0012755679046846,0.0012755679045924,-0.001275567882149,0.0012755679285805,-4.9141575082143e-12,-2.3236226325706e-12,-0.00080885709042556,0.0008088570824925,1.1727288680557e-11,-2.0125058766799e-11,-0.0009151860207499,0.00091518602292346,-0.00091518603117065,0.00091518601239654,-0.00091518602052211,0.00091518602441768,-0.00091518603100668,0.00091518601396303,-0.00079745305659934,0.00079745304092785,-0.00079745305906186,0.00079745303831346,0.74718867332314,122718,2924,0.0033656599570113,0.0059159405794338,0.0033656599570189,22.256950457229,9.3255603657829e-05,9.3255603657829e-05,9.3255603657829e-05,2395431.5506861,0.012727929889421
28419200,0.99981665010149,0.013685416486537,0.0041897997117044,0.0053058170631162,0.0041897997117162,-0.00081205834762996,0.00081205834244706,-1.0035151447718e-12,-3.5943919246649e-12,9.0609315348348e-12,-1.4448895449103e-11,-0.00091552253468123,0.00091552253829004,-0.00091552253604835,0.00091552253792673,-0.0009155225422354,0.00091552253042596,-0.00091552254373035,0.00091552253019883,-0.00080032997395647,0.00080032996380759,-0.00080032997669612,0.0008003299614763,-5.7060803596324e-12,1.8010147684704e-11,-1.0378299891239e-11,2.2320493653652e-11,-0.001425163921762,0.0014251639337345,-0.001557132100321,0.0015571320936186,-0.0015571320904154,0.0015571321052002,-0.0015571320933273,0.001557132102175,-0.0015571320834151,0.0015571321137626,-0.0012748933073202,0.0012748932950792,-0.0012748932761315,0.0012748933279915,-0.0012748933013329,0.0012748933012437,-0.0012748932788022,0.0012748933251961,-4.7300438386429e-12,-2.1393928930157e-12,-0.00081205834873192,0.00081205834134868,1.1925380952504e-11,-1.994982156227e-11,-0.00091552253510757,0.00091552253774002,-0.00091552254553486,0.00091552252720596,-0.00091552253481217,0.00091552253916664,-0.00091552254530408,0.00091552252870569,-0.00080032997668367,0.00080032996142156,-0.00080032997913672,0.00080032995879746,0.8493285419621,122718,2924,0.0033789329332423,0.0059198890489536,0.0033789329332498,23.444427179106,0.00010275541743285,0.00010275541743285,0.00010275541743285,2422556.5655973,0.012758798599466
29419200,0.99986273570507,0.013686010439403,0.0041899754510621,0.0053060595372665,0.0041899754510739,-0.00081026746908995,0.00081026746380819,-1.0353651901571e-12,-3.6261860252404e-12,9.0316257775321e-12,-1.4483542655361e-11,-0.00091700684135388,0.00091700684487031,-0.00091700684273663,0.00091700684452264,-0.00091700684891057,0.00091700683700511,-0.00091700685042032,0.00091700683679281,-0.00079869265487413,0.00079869264465118,-0.00079869265760719,0.0007986926423134,-5.7045167603405e-12,1.8014993683721e-11,-1.0391605249475e-11,2.234074415266e-11,-0.0014311228661409,0.0014311228781203,-0.0015621519873734,0.0015621519806648,-0.0015621519774723,0.0015621519922739,-0.0015621519803936,0.0015621519892384,-0.0015621519704858,0.0015621520008535,-0.0012812669314233,0.0012812669191576,-0.0012812669002002,0.0012812669521016,-0.0012812669254169,0.0012812669253425,-0.0012812669028804,0.0012812669492956,-4.7662508207797e-12,-2.1756585351252e-12,-0.00081026747019632,0.00081026746270538,1.1905754052092e-11,-2.0004192187131e-11,-0.00091700684177979,0.00091700684432121,-0.00091700685221873,0.0009170068337758,-0.00091700684149998,0.00091700684576339,-0.00091700685200303,0.00091700683529058,-0.00079869265760376,0.00079869264224918,-0.00079869266006285,0.00079869263963123,0.60881578646039,122718,2924,0.00337153227097,0.0059445160409543,0.0033715322709774,24.783777898859,0.00011347022319088,0.00011347022319088,0.00011347022319088,2348434.3250994,0.01276876533998
30419200,0.99989939394696,0.013686410538348,0.0041900941569687,0.0053062222243988,0.0041900941569805,-0.00081980481957699,0.00081980481426081,-1.0461729188119e-12,-3.6372231866266e-12,9.0110144494734e-12,-1.4487593031625e-11,-0.00091879237311389,0.00091879237664566,-0.00091879237449201,0.00091879237629326,-0.00091879238066424,0.00091879236878493,-0.0009187923821706,0.00091879236856912,-0.00080768935612511,0.00080768934587969,-0.0008076893588735,0.0008076893435568,-5.7158512670203e-12,1.7989152326098e-11,-1.0419541866619e-11,2.2330207709835e-11,-0.0014277690950721,0.0014277691070132,-0.0015623467283855,0.0015623467216382,-0.0015623467184811,0.0015623467332543,-0.0015623467214126,0.0015623467302084,-0.0015623467115016,0.0015623467418305,-0.0012756196194916,0.0012756196071655,-0.0012756195882714,0.0012756196401459,-0.0012756196134634,0.0012756196133711,-0.0012756195909622,0.0012756196373307,-4.7678290960939e-12,-2.177005170457e-12,-0.00081980482067395,0.0008198048131674,1.1911376350923e-11,-2.0014989190929e-11,-0.00091879237352475,0.00091879237611081,-0.00091879238396933,0.00091879236555964,-0.00091879237324033,0.00091879237754852,-0.00091879238374966,0.00091879236707058,-0.00080768935886644,0.00080768934349685,-0.00080768936131143,0.00080768934086436,0.51512748248588,122718,2924,0.0034110647568136,0.0059307517572073,0.003411064756821,26.134523740908,0.00012427618992726,0.00012427618992726,0.00012427618992726,2471602.5474738,0.012834865509577
31419200,0.99992907121111,0.013686828869922,0.0041902190574182,0.0053063907550733,0.00419021905743,-0.00082862536958367,0.00082862536347009,-1.3130261030274e-12,-3.904272069597e-12,8.7985993761081e-12,-1.4817710564408e-11,-0.000925814191911,0.00092581419483909,-0.00092581419338583,0.00092581419458327,-0.00092581419949993,0.00092581418693774,-0.00092581420110277,0.00092581418681828,-0.0008162910386773,0.00081629102778875,-0.00081629104141967,0.00081629102545946,-5.7534982934e-12,1.8062811075873e-11,-1.0477234927665e-11,2.2421725561087e-11,-0.0014297864250448,0.0014297864370201,-0.0015640246647148,0.001564024657909,-0.0015640246548705,0.0015640246696897,-0.0015640246578139,0.0015640246666308,-0.0015640246479631,0.0015640246784175,-0.0012785629451145,0.001278562932715,-0.0012785629137808,0.0012785629658721,-0.0012785629390616,0.0012785629389464,-0.0012785629164823,0.0012785629630452,-5.035815071071e-12,-2.4447963572671e-12,-0.00082862537068172,0.0008286253623756,1.171538824999e-11,-2.0364577587531e-11,-0.00092581419231591,0.00092581419430865,-0.0009258142028131,0.00092581418370582,-0.00092581419212849,0.00092581419584347,-0.00092581420268953,0.000925814185313,-0.00081629104141964,0.00081629102539292,-0.00081629104387139,0.0008162910227668,0.66479676253864,122718,2924,0.0034476629598636,0.0059391355935405,0.003447662959871,28.445480069927,0.00014276384055942,0.00014276384055942,0.00014276384055942,2508964.3228385,0.012917491112474
32419200,0.9999507465466,0.013687188932052,0.004190326573001,0.0053065357860378,0.0041903265730128,-0.00082497502323848,0.00082497501831465,-9.1121932280165e-13,-3.5023307328489e-12,9.1608014103493e-12,-1.4362313211778e-11,-0.0009284279472797,0.00092842795109196,-0.00092842794862175,0.00092842795070341,-0.0009284279548369,0.00092842794322341,-0.00092842795630741,0.0009284279429717,-0.00081315559994697,0.00081315558999732,-0.00081315560268397,0.00081315558766292,-5.7157456820105e-12,1.8015284116025e-11,-1.0447378192709e-11,2.2384468581615e-11,-0.0014362054829632,0.0014362054949308,-0.0015674229474674,0.0015674229407138,-0.0015674229374917,0.0015674229523098,-0.0015674229404406,0.0015674229492448,-0.0015674229304583,0.0015674229608468,-0.001286945718355,0.0012869457059823,-0.0012869456870247,0.0012869457390154,-0.0012869457122915,0.0012869457122261,-0.0012869456897324,0.0012869457361806,-4.6435950972396e-12,-2.0527093058456e-12,-0.00082497502434626,0.00082497501721046,1.207612720025e-11,-1.9928567741891e-11,-0.00092842794769183,0.00092842795055542,-0.00092842795816142,0.00092842793997873,-0.00092842794737161,0.00092842795195739,-0.00092842795790607,0.00092842794145407,-0.00081315560269626,0.00081315558758359,-0.00081315560515223,0.00081315558496194,0.7835582016357,122718,2924,0.0034325617661276,0.0059656211057694,0.0034325617661351,29.298069701955,0.00014958455761564,0.00014958455761564,0.00014958455761564,2401234.6491448,0.012913755319395
33419200,0.99996581009148,0.013687447782441,0.0041904041290526,0.0053066395243244,0.0041904041290644,-0.00081937226729684,0.00081937226309205,-6.7314990632067e-13,-3.2641245370273e-12,9.3472977994097e-12,-1.4060041063632e-11,-0.00092649028486026,0.00092649028917359,-0.00092649028612235,0.0009264902887052,-0.00092649029238012,0.00092649028134502,-0.0009264902937704,0.00092649028101315,-0.00080788184399294,0.00080788183462729,-0.0008078818467282,0.00080788183229139,-5.6719446671603e-12,1.7947848411433e-11,-1.0398950848601e-11,2.2314882589772e-11,-0.0014400669987186,0.0014400670106647,-0.0015705885801947,0.0015705885735004,-0.0015705885701626,0.0015705885849576,-0.0015705885731094,0.001570588581895,-0.0015705885630707,0.0015705885933581,-0.0012906623792853,0.0012906623669684,-0.0012906623480276,0.0012906623998449,-0.0012906623732266,0.0012906623732073,-0.0012906623507343,0.0012906623970111,-4.4083882385301e-12,-1.8176373988957e-12,-0.00081937226840748,0.00081937226198497,1.2256921618282e-11,-1.9626429371827e-11,-0.00092649028527714,0.00092649028863386,-0.00092649029570524,0.00092649027809804,-0.00092649028487672,0.0009264902899555,-0.00092649029537011,0.00092649027949349,-0.00080788184674233,0.00080788183220982,-0.00080788184919923,0.00080788182958939,0.80945760226261,122718,2924,0.0034093419096725,0.0059815540692761,0.0034093419096799,29.317375146495,0.00014973900117196,0.00014973900117196,0.00014973900117196,2326191.4722832,0.012882869374237
34419200,0.99997721259626,0.013687625513571,0.0041904573821646,0.0053067107492295,0.0041904573821764,-0.00082098832116003,0.00082098831519636,-1.2627076273546e-12,-3.8536934171873e-12,8.818270258632e-12,-1.4733732365178e-11,-0.00092835501368775,0.00092835501668539,-0.00092835501514941,0.00092835501641657,-0.00092835502125812,0.00092835500880798,-0.0009283550228457,0.00092835500867341,-0.00080940453767718,0.00080940452692551,-0.00080940454040681,0.00080940452458393,-5.7167195052021e-12,1.8034198038217e-11,-1.0444005119283e-11,2.2400004401124e-11,-0.0014454634339263,0.0014454634459125,-0.0015769393554536,0.0015769393486993,-0.0015769393456062,0.0015769393604407,-0.0015769393485531,0.0015769393573784,-0.0015769393386992,0.0015769393691258,-0.0012949576584632,0.001294957646107,-0.0012949576271638,0.0012949576791923,-0.0012949576524047,0.0012949576523453,-0.0012949576298696,0.0012949576763598,-4.9965983426446e-12,-2.4058339593063e-12,-0.0008209883222692,0.00082098831409071,1.1728493643746e-11,-2.0297629533483e-11,-0.00092835501410308,0.00092835501614693,-0.00092835502458185,0.00092835500556265,-0.00092835501390209,0.00092835501766799,-0.000928355024444,0.0009283550071554,-0.00080940454041931,0.00080940452450395,-0.00080940454288204,0.00080940452188926,0.73398852679868,122718,2924,0.0034160644048867,0.0060039012834794,0.0034160644048941,31.489045061008,0.00016711236048806,0.00016711236048806,0.00016711236048806,2295504.6774407,0.012919121981279
35419200,0.99998615619824,0.013687748865191,0.0041904943109302,0.0053067602433191,0.004190494310942,-0.00083119524906976,0.0008311952411503,-1.9197769477203e-12,-4.5109479609846e-12,8.3201295536945e-12,-1.5577664201287e-11,-0.00093588187801946,0.00093588187959093,-0.00093588187970635,0.00093588187954722,-0.00093588188570436,0.00093588187159675,-0.00093588188751563,0.00093588187168577,-0.00081927686273948,0.00081927685038549,-0.00081927686545753,0.00081927684803214,-5.8302221260102e-12,1.825120776166e-11,-1.0585232804874e-11,2.2639645021444e-11,-0.0014523839178294,0.0014523839299144,-0.001585483969008,0.0015854839621029,-0.0015854839592956,0.0015854839742445,-0.0015854839622592,0.001585483971165,-0.0015854839525402,0.0015854839833125,-0.0013007326083104,0.0013007325957934,-0.0013007325767292,0.001300732629339,-0.0013007326022179,0.0013007326020659,-0.0013007325794485,0.0013007326264929,-5.6524772618761e-12,-3.0615318987726e-12,-0.00083119525017759,0.00083119524004598,1.1254818937713e-11,-2.1163943402748e-11,-0.00093588187842376,0.0009358818790612,-0.00093588188903653,0.00093588186834536,-0.00093588187844823,0.0009358818808079,-0.00093588188912195,0.00093588187016152,-0.0008192768654768,0.00081927684794563,-0.00081927686795216,0.00081927684534328,0.64952121200817,122718,2924,0.0034584242568319,0.006032608801681,0.0034584242568392,35.943761939583,0.00020275009551666,0.00020275009551666,0.00020275009551666,2312814.435929,0.013034007607688
36419200,0.99999187836285,0.013687831675109,0.0041905191699457,0.0053067933352061,0.0041905191699575,-0.00083663966834669,0.00083663966283325,-1.1164971528078e-12,-3.7077906472798e-12,9.0727490966105e-12,-1.469719633427e-11,-0.00093902588145784,0.00093902588489801,-0.00093902588285831,0.0009390258845678,-0.00093902588909592,0.00093902587694788,-0.00093902589062417,0.0009390258767538,-0.00082449324668702,0.0008244932361973,-0.00082449324942658,0.00082449323386512,-5.7994764182116e-12,1.8173942974988e-11,-1.0580015905424e-11,2.2588754223182e-11,-0.0014534958787326,0.001453495890772,-0.0015874667109758,0.0015874667041001,-0.001587466700962,0.0015874667158822,-0.0015874667039418,0.0015874667127854,-0.0015874666939214,0.0015874667245735,-0.0013014554988118,0.001301455486261,-0.0013014554671867,0.0013014555196604,-0.0013014554926857,0.001301455492568,-0.001301455469923,0.0013014555167967,-4.8494667491785e-12,-2.2583997868485e-12,-0.00083663966945471,0.00083663966172875,1.2033187982602e-11,-2.0310448047217e-11,-0.00093902588185369,0.00093902588437677,-0.00093902589243663,0.0009390258736877,-0.00093902588159183,0.00093902588583716,-0.00093902589223891,0.00093902587522075,-0.0008244932494548,0.00082449323376995,-0.00082449325190909,0.0008244932311463,0.6811981079479,122718,2924,0.0034810068334018,0.0060372518305198,0.0034810068334092,37.485516754555,0.00021508413403644,0.00021508413403644,0.00021508413403644,2345172.8123281,0.013084456609212
37419200,0.99999525690602,0.013687878652589,0.0041905332363314,0.0053068121799148,0.0041905332363432,-0.00083567625134511,0.00083567624698357,-7.2545635802682e-13,-3.3167053065252e-12,9.3581255642171e-12,-1.4184037010935e-11,-0.00093975571690929,0.00093975572118111,-0.00093975571818042,0.00093975572072157,-0.00093975572447234,0.00093975571330795,-0.00093975572587199,0.00093975571298528,-0.00082364517395321,0.00082364516442056,-0.00082364517669714,0.00082364516209282,-5.7278590766605e-12,1.8025889644974e-11,-1.0508902783763e-11,2.2444630861346e-11,-0.0014551511987655,0.0014551512107316,-0.0015882325990737,0.0015882325922766,-0.0015882325889815,0.0015882326038305,-0.0015882325919622,0.0015882326007324,-0.0015882325818636,0.0015882326122922,-0.0013037682725317,0.0013037682600433,-0.0013037682410639,0.001303768293181,-0.0013037682664039,0.0013037682663529,-0.0013037682438034,0.0013037682903137,-4.4602493453853e-12,-1.8692243670669e-12,-0.00083567625245503,0.00083567624587718,1.2319646819717e-11,-1.980260781874e-11,-0.00093975571730724,0.00093975572065937,-0.00093975572781453,0.00093975571004456,-0.00093975571691587,0.00093975572199025,-0.00093975572748851,0.00093975571144929,-0.00082364517672795,0.0008236451619948,-0.00082364517917713,0.00082364515936613,0.65495763090949,122718,2924,0.00347702124638,0.0060440791314623,0.0034770212463873,37.681073039505,0.00021664858431604,0.00021664858431604,0.00021664858431604,2315600.255471,0.013083306434212
38419200,0.99999719868214,0.01368790873458,0.0041905422853208,0.0053068241639269,0.0041905422853326,-0.00083478227287533,0.00083478226910403,-5.2386888587102e-13,-3.1151066060818e-12,9.4522703094833e-12,-1.3865304483289e-11,-0.00093849643707671,0.00093849644175158,-0.00093849643828071,0.00093849644122493,-0.00093849644456683,0.00093849643395366,-0.00093849644589966,0.00093849643356418,-0.00082275319514751,0.00082275318614221,-0.00082275319789664,0.00082275318381974,-5.6578795380168e-12,1.7876544942647e-11,-1.0419266522089e-11,2.227868016632e-11,-0.0014540401715871,0.0014540401834766,-0.0015873995756935,0.0015873995689805,-0.0015873995656078,0.0015873995803687,-0.0015873995685766,0.0015873995772831,-0.0015873995584843,0.0015873995886773,-0.001302396827859,0.0013023968154711,-0.0013023967966163,0.0013023968483336,-0.0013023968217552,0.0013023968217559,-0.0013023967993461,0.0013023968454765,-4.2559192051779e-12,-1.6649075646873e-12,-0.00083478227398249,0.00083478226800036,1.2400043569534e-11,-1.9463889537675e-11,-0.00093849643747893,0.00093849644122713,-0.0009384964478995,0.00093849643069831,-0.00093849643702014,0.00093849644249058,-0.00093849644750678,0.00093849643203631,-0.00082275319791884,0.00082275318373013,-0.00082275320036234,0.00082275318109585,0.72891346290552,122718,2924,0.0034733073384513,0.0060394835740576,0.0034733073384585,37.194402189676,0.00021275521751741,0.00021275521751741,0.00021275521751741,2322064.2525193,0.013071123702912
38880000,0.99999787681884,0.013687919476551,0.0041905455157245,0.0053068284450902,0.0041905455157363,-0.00083209582183342,0.000832095817693,-6.4704419831742e-13,-3.2381968312551e-12,9.2917357008377e-12,-1.3950845840648e-11,-0.0009382533662544,0.00093825337059071,-0.00093825336750775,0.00093825337011345,-0.00093825337372211,0.00093825336281791,-0.00093825337510296,0.00093825336247651,-0.00082025171867262,0.00082025170941513,-0.00082025172141404,0.00082025170708508,-5.6253362380746e-12,1.7829693226875e-11,-1.0359521170798e-11,2.2206304847924e-11,-0.0014561460999242,0.0014561461118008,-0.0015885673019187,0.0015885672952583,-0.0015885672919262,0.0015885673066573,-0.0015885672948781,0.0015885673035895,-0.001588567284879,0.0015885673149946,-0.0013050040427957,0.0013050040305,-0.0013050040116881,0.0013050040632368,-0.0013050040367265,0.0013050040367496,-0.0013050040144017,0.0013050040603961,-4.378570311212e-12,-1.7876440798769e-12,-0.0008320958229401,0.00083209581658983,1.2214482532414e-11,-1.9522751433418e-11,-0.00093825336666554,0.00093825337005845,-0.00093825337704505,0.00093825335957132,-0.0009382533662559,0.00093825337137101,-0.00093825337670062,0.00093825336095758,-0.00082025172142701,0.00082025170700449,-0.00082025172387767,0.00082025170437749,0.74537476942469,122718,2924,0.0034621775923656,0.006048164689511,0.003462177592373,37.193613676963,0.0002127489094157,0.0002127489094157,0.0002127489094157,2277847.4874169,0.013057379205766
