time,ASR_ext,ASR_strain,ASR_strain_xx,ASR_strain_yy,ASR_strain_zz,disp_x_101,disp_x_102,disp_x_103,disp_x_104,disp_x_105,disp_x_106,disp_x_p10_neg,disp_x_p10_pos,disp_x_p11_neg,disp_x_p11_pos,disp_x_p12_neg,disp_x_p12_pos,disp_x_p13_neg,disp_x_p13_pos,disp_x_p14_neg,disp_x_p14_pos,disp_x_p15_neg,disp_x_p15_pos,disp_x_p16_neg,disp_x_p16_pos,disp_x_p1_neg,disp_x_p1_pos,disp_x_p2_neg,disp_x_p2_pos,disp_x_p3_neg,disp_x_p3_pos,disp_x_p4_neg,disp_x_p4_pos,disp_x_p5_neg,disp_x_p5_pos,disp_x_p6_neg,disp_x_p6_pos,disp_x_p7_neg,disp_x_p7_pos,disp_x_p8_neg,disp_x_p8_pos,disp_x_p9_neg,disp_x_p9_pos,disp_y_101,disp_y_102,disp_y_103,disp_y_104,disp_y_105,disp_y_106,disp_y_p10_neg,disp_y_p10_pos,disp_y_p11_neg,disp_y_p11_pos,disp_y_p12_neg,disp_y_p12_pos,disp_y_p1_neg,disp_y_p1_pos,disp_y_p2_neg,disp_y_p2_pos,disp_y_p3_neg,disp_y_p3_pos,disp_y_p4_neg,disp_y_p4_pos,disp_y_p5_neg,disp_y_p5_pos,disp_y_p6_neg,disp_y_p6_pos,disp_y_p7_neg,disp_y_p7_pos,disp_y_p8_neg,disp_y_p8_pos,disp_y_p9_neg,disp_y_p9_pos,disp_z_101,disp_z_102,disp_z_103,disp_z_104,disp_z_105,disp_z_106,disp_z_p10_neg,disp_z_p10_pos,disp_z_p11_neg,disp_z_p11_pos,disp_z_p12_neg,disp_z_p12_pos,disp_z_p13_neg,disp_z_p13_pos,disp_z_p14_neg,disp_z_p14_pos,disp_z_p15_neg,disp_z_p15_pos,disp_z_p16_neg,disp_z_p16_pos,disp_z_p1_neg,disp_z_p1_pos,disp_z_p2_neg,disp_z_p2_pos,disp_z_p3_neg,disp_z_p3_pos,disp_z_p4_neg,disp_z_p4_pos,disp_z_p5_neg,disp_z_p5_pos,disp_z_p6_neg,disp_z_p6_pos,disp_z_p7_neg,disp_z_p7_pos,disp_z_p8_neg,disp_z_p8_pos,disp_z_p9_neg,disp_z_p9_pos,humidity,ndof,nelem,strain_xx,strain_yy,strain_zz,temp,thermal_strain_xx,thermal_strain_yy,thermal_strain_zz,vonmises,vstrain
14391759,0,0,0,0,0,0,0,0,0,0,0,0,0,0,0,0,0,0,0,0,0,0,0,0,0,0,0,0,0,0,0,0,0,0,0,0,0,0,0,0,0,0,0,0,0,0,0,0,0,0,0,0,0,0,0,0,0,0,0,0,0,0,0,0,0,0,0,0,0,0,0,0,0,0,0,0,0,0,0,0,0,0,0,0,0,0,0,0,0,0,0,0,0,0,0,0,0,0,0,0,0,0,0,0,0,0,0,0,0,0,0,0,0,0,0,0,0,0,0,0,0,0,0
15391759,0.10003771796401,0.001751036962096,0.00058367898736533,0.00058367898736533,0.00058367898736533,-0.00016794470555306,0.00016794397788326,-1.9316308210338e-10,-1.9316304855661e-10,-3.0197701946375e-10,-1.7630296236699e-10,-0.00014967924398425,0.00014967766116331,-0.00016443196180987,0.0001644312654468,-0.00016443253614261,0.0001644318397795,-0.00014967868138426,0.00014967687051714,-0.0001496793543692,0.00014967754350742,-0.00016443208152471,0.00016443114632575,-0.00016443265289819,0.00016443171769609,-0.00017474342358816,0.00017474312024943,-0.00017474365568135,0.00017474335234136,-0.00017474338120451,0.00017474316278941,-0.00017474361463959,0.00017474339623064,-0.00016689637919811,0.00016689612412906,-0.00016689659710545,0.00016689634203643,-0.00016689642104057,0.00016689608460666,-0.00016689663607989,0.00016689629965055,-0.000149678565155,0.00014967698233156,3.7981794491074e-11,-7.9548784111309e-11,4.6733768723533e-11,-8.6620499578932e-11,-0.00017498170505701,0.00017498166501555,-0.00017270106113153,0.00017270093272446,-0.00017370406728655,0.0001737041862769,-0.00017370450671865,0.0001737043968698,-0.00017581357568427,0.000175813626915,-0.00017581373290457,0.00017581368776632,-0.00017581360124454,0.00017581356713878,-0.00017581375847403,0.00017581362798402,-0.00017270037966091,0.00017270042862574,-0.00017270101392784,0.00017270080452102,-0.00017370398625519,0.00017370401392726,-0.00017370442569286,0.00017370422452801,-0.0001727004268595,0.00017270055682925,-3.1238145557822e-10,-3.1238148888549e-10,-0.0001649756907189,0.00016497403004869,-4.5234457992669e-10,-3.1204188523488e-10,-0.00015967658730367,0.00015967536015393,-0.00015879916983893,0.00015879722820168,-0.00015879902944384,0.00015879708780352,-0.00015967715016426,0.00015967566730971,-0.00015967671883831,0.00015967523599639,-0.00015879930180193,0.00015879709328906,-0.00015879916469386,0.00015879695618964,-0.00017146693868878,0.0001714663385281,-0.00017146688996601,0.00017146638564068,-0.00017146698935418,0.00017146638919108,-0.00017146694214374,0.00017146643781615,-0.00016721470611752,0.00016721427992069,-0.00016721463104592,0.00016721420484001,-0.00016721467858607,0.00016721416085749,-0.00016721475036445,0.00016721423262543,-0.00015967702556688,0.00015967579842039,0.70055894083924,122718,2924,0.00069952339283408,0.00072882323375279,0.00068715863801648,27.14105725356,0.00013232845802848,0.00013232845802848,0.00013232845802848,1217946.6658664,0.0021177486508245
16391759,0.18880376448405,0.0034051179517682,0.0011334201141464,0.0011575080348279,0.0011141898027939,-0.00029104636825071,0.00029104576781246,-2.0027476191262e-10,-2.002746976462e-10,-2.6102155304426e-10,-1.7072672131291e-10,-0.00024567206361615,0.00024567072644597,-0.00028676713901034,0.00028676671909344,-0.00028676784539004,0.00028676742549152,-0.00024567170813624,0.00024567020929299,-0.00024567214003492,0.00024567064118252,-0.00028676722791351,0.00028676663142042,-0.00028676793002365,0.00028676733354959,-0.0003057445253214,0.00030574414192135,-0.00030574483215498,0.00030574444875372,-0.00030574449454819,0.00030574417290392,-0.00030574480281446,0.00030574448117274,-0.00029157416408571,0.00029157385423629,-0.00029157462369504,0.00029157431384346,-0.00029157419356375,0.00029157382636975,-0.00029157465089816,0.00029157428369954,-0.00024567162482903,0.00024567028767632,7.1359284728717e-12,-7.538187262083e-11,2.2854538456597e-11,-8.9441882707467e-11,-0.00031055125480361,0.00031055118803162,-0.00030659953459857,0.00030659938639686,-0.00030889904577425,0.00030889909706961,-0.0003088991417994,0.00030889903058382,-0.00031035436611755,0.00031035436707008,-0.00031035488047314,0.00031035480352068,-0.00031035456355124,0.00031035450817517,-0.00031035507791595,0.00031035494462549,-0.00030659866781908,0.00030659868331279,-0.00030659964918154,0.00030659944505455,-0.00030889906958192,0.00030889904447102,-0.00030889916559926,0.00030889897798184,-0.00030659855326906,0.00030659862469183,-3.70814968325e-10,-3.7081497277808e-10,-0.00028017445088089,0.00028017288326966,-4.1819428107172e-10,-2.9860267829113e-10,-0.0002748718739727,0.00027487093263675,-0.00026791196514872,0.00026791052874035,-0.00026791181370936,0.00026791037732395,-0.00027487232032982,0.00027487116278274,-0.00027487198556423,0.00027487082804055,-0.00026791207989832,0.00026791041060712,-0.00026791193205849,0.00026791026279776,-0.00029393068623489,0.00029392989271109,-0.00029393064471953,0.00029392993297356,-0.00029393073900514,0.00029392994548092,-0.00029393069875659,0.00029392998701005,-0.00029136652532894,0.00029136584146698,-0.00029136647738151,0.00029136579351398,-0.00029136651760578,0.00029136575660676,-0.00029136656251026,0.00029136580150931,-0.00027487221520418,0.00027487127386536,0.7587163515091,122718,2924,0.0012119638785826,0.0012931217599541,0.0011667117972213,24.45228827207,0.00011081830617656,0.00011081830617656,0.00011081830617656,1712144.9533055,0.0036785551666371
17391759,0.26794739240607,0.0047197234526016,0.0015646948552835,0.001641091212244,0.001513937385074,-0.0003864835596636,0.00038648330624052,-8.5310805100229e-11,-8.5310470610447e-11,-9.5938854516203e-11,-6.0440538730089e-11,-0.00029823287094622,0.0002982324075523,-0.00037936445186158,0.00037936442496036,-0.00037936491522441,0.00037936488833911,-0.00029823282899453,0.00029823230155112,-0.00029823290060662,0.00029823237316347,-0.00037936448825623,0.00037936438884603,-0.00037936494930356,0.00037936484990835,-0.00041354146836949,0.00041354123456288,-0.00041354164134623,0.00041354140753942,-0.00041354145618995,0.00041354124694975,-0.00041354162988758,0.00041354142064942,-0.00038705131957675,0.00038705115089071,-0.00038705153829234,0.00038705136960715,-0.00038705133091071,0.00038705114005919,-0.00038705154866778,0.00038705135781368,-0.00029823279573529,0.00029823233235093,-9.8442133836855e-12,-4.2124254794696e-11,1.3837428959867e-11,-6.510318242923e-11,-0.00042553761748471,0.00042553756619576,-0.00042017900952299,0.0004201788912771,-0.0004211787084166,0.00042117871473234,-0.00042117868444738,0.00042117862677264,-0.00042457767025753,0.00042457765657669,-0.00042457800482136,0.00042457793712006,-0.00042457777238848,0.00042457773844263,-0.00042457810696285,0.00042457801898778,-0.00042017903416417,0.00042017905014545,-0.00042017909752701,0.00042017895849009,-0.00042117874854581,0.00042117870194985,-0.00042117872457496,0.00042117861398899,-0.00042017894617784,0.00042017898295423,-1.8795267184537e-10,-1.8795242003461e-10,-0.00036484926548516,0.00036484845791562,-1.7189903545173e-10,-8.8141128980446e-11,-0.00035573804670567,0.00035573770597391,-0.00034076697430557,0.00034076664007203,-0.00034076690466869,0.00034076657044886,-0.0003557380681517,0.00035573757500935,-0.00035573812367928,0.00035573763053851,-0.00034076705641311,0.00034076655663015,-0.00034076698792735,0.00034076648816555,-0.00039024514524771,0.00039024454535527,-0.0003902451165674,0.00039024457380453,-0.00039024516013594,0.00039024456024618,-0.0003902451317999,0.0003902445890375,-0.00038669780447855,0.00038669740552765,-0.00038669782248014,0.00038669742352693,-0.00038669784972785,0.00038669739714748,-0.00038669783097517,0.00038669737839364,-0.0003557379926456,0.00035573765192969,0.68097528185715,122718,2924,0.0016090797227975,0.0017714869251897,0.0015190616104749,22.118068808232,9.2144550465853e-05,9.2144550465853e-05,9.2144550465853e-05,2291776.611427,0.0049116752229167
18391759,0.32493521592338,0.00555199658411,0.001838906790186,0.0019529063954957,0.0017601833984283,-0.0004413986398199,0.00044139864962023,-2.9023344312636e-12,-2.9020631527863e-12,2.6193087083875e-11,-2.1380211996258e-12,-0.00032391641530276,0.00032391651932982,-0.00043242017069792,0.00043242038782425,-0.00043242040911282,0.00043242062625469,-0.00032391665383467,0.0003239168128133,-0.00032391638716863,0.00032391654615145,-0.00043242014564491,0.00043242041344734,-0.00043242038310548,0.00043242065092601,-0.00047797988102263,0.00047797979161421,-0.00047797995757313,0.00047797986816415,-0.00047797989006853,0.00047797978231814,-0.00047797996684587,0.00047797985909502,-0.00044042065065258,0.00044042060113229,-0.00044042074561616,0.00044042069609285,-0.00044042064087878,0.00044042061068922,-0.00044042073591287,0.00044042070572302,-0.00032391668076153,0.00032391678479699,-2.5458160388322e-11,2.5563815072409e-12,-6.8906131729681e-13,-2.2542026760968e-11,-0.0004929431304714,0.00049294310736589,-0.00048398819601262,0.00048398814077869,-0.0004846176100208,0.00048461756674413,-0.00048461747107988,0.00048461748191262,-0.00049440839015632,0.00049440836356661,-0.00049440861649651,0.00049440857586776,-0.00049440843684794,0.00049440843165599,-0.00049440866319752,0.00049440864395957,-0.00048398847587024,0.00048398848466751,-0.00048398827185677,0.00048398823680832,-0.00048461766918077,0.00048461761186769,-0.00048461753023546,0.00048461752703567,-0.00048398840004431,0.00048398838865937,-6.2485211366467e-11,-6.2485023153008e-11,-0.00041112541670355,0.00041112514729034,-2.2668147982499e-11,1.5614479633586e-12,-0.00039913665703798,0.00039913673909092,-0.00037917297033683,0.00037917320819288,-0.0003791729590377,0.00037917319690643,-0.00039913643380327,0.00039913647410595,-0.00039913667703286,0.00039913671733853,-0.00037917299585363,0.00037917318265278,-0.00037917298411269,0.00037917317093376,-0.00044497427672914,0.00044497392270365,-0.00044497426861405,0.00044497393122483,-0.00044497426809298,0.00044497391406923,-0.00044497425971311,0.00044497392232595,-0.0004399940330067,0.00043999381651951,-0.00043999409142489,0.00043999387493378,-0.00043999409844502,0.00043999386732557,-0.00043999404065231,0.00043999380952852,-0.00039913641223824,0.00039913649430419,0.60484717275765,122718,2924,0.0018375195005924,0.002051792357458,0.0017115790662933,17.518342946386,5.5346743571088e-05,5.5346743571088e-05,5.5346743571088e-05,2724907.5433616,0.0056166477334906
19391759,0.38361417901984,0.0065816480653461,0.0021763265488195,0.002344442923991,0.0020608785925355,-0.00052030988444561,0.00052030989697255,3.9017008057186e-12,3.9018825060502e-12,4.4834111186914e-11,2.1130317130375e-12,-0.00036633011681863,0.00036633033443119,-0.00051383492663654,0.00051383518822524,-0.00051383509930543,0.00051383536091093,-0.00036633046669352,0.00036633076706161,-0.0003663300753247,0.00036633037569531,-0.00051383488793669,0.00051383522848811,-0.00051383506002803,0.00051383540059629,-0.00056539029336066,0.00056539021879565,-0.00056539035309034,0.00056539027852345,-0.00056539030690621,0.00056539020449869,-0.000565390366821,0.00056539026441245,-0.00052102005903352,0.00052102001642727,-0.0005210200971675,0.00052102005456116,-0.00052102004484559,0.00052102003074077,-0.00052102008296191,0.00052102006885555,-0.00036633050723112,0.0003663307248498,-2.265776490907e-11,1.9143282685854e-11,3.7485979093776e-12,-8.168730450892e-12,-0.00058881355097504,0.00058881354684814,-0.00057954616715847,0.00057954613604659,-0.00057713732728974,0.00057713728648796,-0.00057713721419678,0.00057713725489786,-0.00058911821421134,0.00058911820011255,-0.0005891183657986,0.00058911834285591,-0.00058911818835423,0.00058911820308743,-0.00058911833995175,0.00058911834583278,-0.00057954658243686,0.00057954660460855,-0.00057954619003174,0.00057954618809425,-0.00057713739707119,0.0005771373488448,-0.00057713728397493,0.00057713731725408,-0.00057954655958069,0.00057954655258311,-6.0778498826639e-11,-6.0778377835807e-11,-0.00047892739084554,0.00047892706605902,-3.0260622686966e-11,-1.5783500107075e-11,-0.00046896575546598,0.00046896583337233,-0.00043974493548869,0.00043974513108241,-0.00043974492963091,0.00043974512523779,-0.00046896546829265,0.00046896552387599,-0.00046896576558746,0.00046896582116688,-0.00043974495135343,0.00043974511534994,-0.00043974494473391,0.00043974510874932,-0.00052048352347423,0.00052048317102236,-0.00052048351851481,0.0005204831764368,-0.00052048350741817,0.00052048315496721,-0.00052048350213809,0.00052048316006329,-0.00052019129415877,0.00052019107505794,-0.00052019136664906,0.00052019114754677,-0.00052019137045595,0.00052019114304815,-0.00052019129869284,0.00052019107128356,-0.00046896545641585,0.00046896553433866,0.73021614767059,122718,2924,0.002165697794673,0.0024503306401425,0.0019935830894021,17.480341486898,5.5042731895186e-05,5.5042731895186e-05,5.5042731895186e-05,2905656.3605292,0.0066315536803882
20391759,0.44806213203412,0.0077612236777537,0.0025566522546507,0.0028112263648253,0.0023933450582777,-0.0006091216809481,0.00060912171135285,4.8109523963537e-12,4.8110895171648e-12,4.4741022339538e-11,2.8232202084429e-12,-0.0003971361976633,0.00039713648262538,-0.00060089507569858,0.00060089538149502,-0.00060089526361501,0.00060089556942957,-0.00039713654837318,0.00039713691435587,-0.00039713615718195,0.00039713652317365,-0.00060089503803424,0.00060089542145389,-0.00060089522538673,0.00060089560882001,-0.00066834966132457,0.00066834958037151,-0.00066834972530668,0.00066834964435222,-0.00066834967445026,0.00066834956631824,-0.00066834973863954,0.00066834963050773,-0.0006133417774498,0.00061334173674801,-0.00061334180624541,0.00061334176554313,-0.00061334176381753,0.00061334175072813,-0.00061334179255702,0.00061334177946602,-0.00039713658780872,0.00039713687277718,-1.8081820701025e-11,2.2506838108016e-11,7.3639020231421e-12,-4.1193366717982e-12,-0.00070798676088606,0.00070798676453032,-0.00070062632906707,0.00070062630666384,-0.00069450973590599,0.00069450970398694,-0.00069450961775963,0.0006945096653415,-0.00070324032247497,0.00070324031692076,-0.00070324046719419,0.00070324045271048,-0.00070324027875041,0.00070324030039669,-0.00070324042347902,0.00070324043618874,-0.00070062669692601,0.00070062672570208,-0.00070062633719049,0.00070062634289129,-0.00069450979102625,0.00069450975189776,-0.00069450967287728,0.00069450971325021,-0.00070062668881579,0.00070062668949492,-7.5422875716803e-11,-7.5422774781223e-11,-0.0005521196172217,0.00055211925212585,-4.8056276132501e-11,-3.3975571690011e-11,-0.00053889174150736,0.00053889176797307,-0.00049816542445819,0.00049816555888304,-0.00049816541789031,0.00049816555232563,-0.00053889144419733,0.00053889144928094,-0.00053889175120363,0.00053889175628533,-0.00049816543987482,0.00049816554354716,-0.00049816543262808,0.00049816553631756,-0.00060783210441413,0.00060783173924441,-0.000607832099512,0.00060783174454034,-0.00060783208165125,0.00060783171648094,-0.0006078320764679,0.00060783172149776,-0.00061141444388738,0.00061141420619203,-0.00061141453943829,0.00061141430174229,-0.0006114145431425,0.00061141429733073,-0.00061141444830817,0.00061141420249282,-0.00053889143282829,0.00053889145931748,0.76377140340812,122718,2924,0.0025349634400633,0.0029455038558308,0.0022979400571019,18.60019805306,6.4001584424479e-05,6.4001584424479e-05,6.4001584424479e-05,3057988.3690668,0.0078088120691932
21391759,0.49823902781128,0.0085904770886397,0.0028240921169121,0.0031452613700608,0.0026211236016668,-0.00066362128644232,0.00066362160127648,7.9024087530135e-11,7.9024174983346e-11,1.6518534470111e-10,6.8901008650893e-11,-0.00040908178347392,0.00040908266850188,-0.00065228357363951,0.00065228415725935,-0.0006522835599237,0.00065228414356158,-0.00040908228728759,0.00040908335214571,-0.00040908169495337,0.00040908275983253,-0.00065228348422968,0.00065228424910631,-0.00065228347102224,0.0006522842359148,-0.0007350538721073,0.00073505391203663,-0.00073505385196039,0.00073505389188922,-0.00073505390350397,0.00073505387954799,-0.0007350538830627,0.00073505385910794,-0.00066842539211172,0.00066842545169901,-0.00066842534541014,0.00066842540500182,-0.00066842536049913,0.00066842548284578,-0.00066842531484076,0.00066842543718772,-0.00040908237686423,0.00040908326189397,-3.2558760087523e-11,5.8782758256497e-11,-1.0734556140208e-11,3.4965916903475e-11,-0.00078513538596082,0.00078513541067815,-0.00077623431957991,0.00077623435611713,-0.00076886398651661,0.00076886390727736,-0.00076886370421784,0.0007688638033695,-0.00077920449861749,0.00077920447500595,-0.00077920458743029,0.00077920459599546,-0.0007792044396708,0.00077920447995937,-0.00077920452849397,0.00077920460095081,-0.00077623491993789,0.00077623493158085,-0.00077623433886058,0.00077623443828268,-0.00076886405967111,0.00076886401222705,-0.00076886377736934,0.00076886390831543,-0.00077623490066706,0.00077623484943646,3.4207393071277e-11,3.4207495740001e-11,-0.00059375010856939,0.00059375035787174,1.1818397735014e-10,7.2267465216044e-11,-0.0005764289391838,0.00057642939539981,-0.00052808862879982,0.00052808947040222,-0.00052808867227701,0.00052808951389189,-0.00057642845565166,0.00057642900032411,-0.00057642889251223,0.00057642943718458,-0.00052808858759817,0.00052808951281783,-0.00052808862917247,0.00052808955440784,-0.00066114622629708,0.00066114608382677,-0.00066114624214583,0.00066114606896346,-0.00066114618420636,0.0006611460417357,-0.00066114619919049,0.00066114602601236,-0.00066536351263617,0.00066536342432048,-0.00066536364168226,0.00066536355336615,-0.0006653636250673,0.0006653635678474,-0.00066536349805998,0.00066536344083096,-0.0005764284979373,0.00057642895416616,0.6908403174145,122718,2924,0.0027615239212358,0.0032659159233414,0.0024710317927923,15.321662924279,3.7773303394229e-05,3.7773303394229e-05,3.7773303394229e-05,3258508.5874854,0.0085347880419205
22391759,0.54555639070407,0.0093705605720501,0.0030752828791734,0.0034621430025992,0.0028331346902776,-0.00072085997794621,0.00072086022048678,5.9582467399461e-11,5.9582527338807e-11,1.4037979393483e-10,3.9439082163112e-11,-0.00043035719693165,0.0004303579038656,-0.00070765620741955,0.00070765671409333,-0.00070765625214153,0.00070765675883391,-0.00043035761852109,0.00043035851690377,-0.00043035710237846,0.00043035800077558,-0.00070765611325197,0.00070765681155861,-0.00070765615818664,0.00070765685650842,-0.00080269649551695,0.00080269651255133,-0.00080269648869681,0.00080269650573292,-0.00080269652804189,0.00080269647858635,-0.00080269652112457,0.00080269647167114,-0.00072590864399936,0.00072590867678738,-0.0007259086046186,0.00072590863740432,-0.00072590861117293,0.00072590870973772,-0.00072590857235914,0.00072590867092482,-0.00043035771341342,0.0004303584203414,-2.9749439616217e-11,6.6633950084447e-11,-1.1876332730305e-11,4.6503334355057e-11,-0.00086181365494468,0.00086181369011832,-0.000850845098958,0.00085084515705978,-0.00084210906831889,0.00084210899058824,-0.00084210884409874,0.0008421089552186,-0.00085610905662353,0.00085610903960069,-0.00085610910251406,0.00085610912406939,-0.00085610895534664,0.00085610900334164,-0.00085610900124434,0.00085610908781156,-0.00085084569772122,0.00085084570852515,-0.00085084508197162,0.0008508452057929,-0.00084210910339305,0.00084210906543504,-0.00084210887916763,0.00084210903005975,-0.00085084571472042,0.0008508456598101,-6.7667369037932e-12,-6.7665850832646e-12,-0.00063905625053808,0.00063905629848667,6.9668629884415e-11,1.1826497959525e-11,-0.00062027151551452,0.00062027177327045,-0.00056424516106503,0.00056424572531322,-0.00056424519179502,0.00056424575605448,-0.00062027106357282,0.00062027143587762,-0.00062027145608653,0.00062027182839246,-0.00056424510745762,0.00056424577983813,-0.00056424513659152,0.00056424580899129,-0.00071586549698979,0.00071586530601821,-0.00071586551639446,0.00071586528733763,-0.00071586545474297,0.00071586526377414,-0.00071586547351317,0.0007158652444611,-0.00072172627655797,0.00072172612644296,-0.00072172641106134,0.00072172626094333,-0.0007217263906307,0.00072172627961336,-0.00072172625778981,0.00072172614677108,-0.00062027111925067,0.00062027137701797,0.69163756941875,122718,2924,0.0029994098205681,0.0035842661825373,0.0026593664598696,14.812486243632,3.3699889949055e-05,3.3699889949055e-05,3.3699889949055e-05,3462754.3301932,0.0092860155252674
23391759,0.59378901068472,0.010130310271299,0.003319907470383,0.0037731060630668,0.0030372967378495,-0.00077778910911341,0.00077778931070019,4.6987490446773e-11,4.6987593958317e-11,1.2004168566184e-10,2.767696742882e-11,-0.00044465859565651,0.00044465920645359,-0.0007614715376525,0.00076147200258724,-0.00076147163629939,0.00076147210125367,-0.00044465896350328,0.00044465975017468,-0.00044465850858859,0.00044465929526762,-0.0007614714517592,0.00076147209213873,-0.00076147155035803,0.00076147219075157,-0.00087193027097351,0.00087193026768251,-0.00087193028212567,0.00087193027883475,-0.00087193030057195,0.00087193023660757,-0.0008719303117513,0.00087193024778742,-0.00078348859543319,0.00078348861569337,-0.00078348856872727,0.00078348858898717,-0.00078348856558725,0.00078348864594716,-0.00078348853918698,0.00078348861954449,-0.00044465905036827,0.00044465966116,-2.3908499935268e-11,6.4251970558169e-11,-8.3382470075716e-12,4.6439747282892e-11,-0.0009414013974358,0.00094140143609991,-0.00092869178569041,0.00092869184674444,-0.00091862512890217,0.00091862506404275,-0.00091862495124255,0.00091862505923688,-0.0009350745716914,0.00093507456282276,-0.00093507461859236,0.00093507464519138,-0.00093507445883248,0.00093507450870006,-0.00093507450574256,0.00093507459106794,-0.00092869233147377,0.00092869234627266,-0.00092869175706835,0.00092869187805269,-0.00091862514580349,0.00091862511807036,-0.00091862496813678,0.00091862511326593,-0.00092869236010636,0.00092869231498344,-3.5865539148575e-11,-3.5865342051655e-11,-0.00068294190861666,0.00068294181863678,2.9172984908498e-11,-2.4556118342147e-11,-0.00066010880364874,0.00066010894290849,-0.00059668292244896,0.00059668329874338,-0.00059668294214259,0.00059668331844754,-0.00066010840329279,0.00066010865053181,-0.00066010874782646,0.00066010899505769,-0.00059668287245053,0.00059668334943705,-0.0005966828908615,0.00059668336786629,-0.0007713591088132,0.00077135887330799,-0.00077135912663821,0.0007713588560245,-0.00077135906833715,0.00077135883283378,-0.00077135908567027,0.00077135881505885,-0.00077789057827807,0.00077789038777049,-0.0007778907174753,0.00077789052696946,-0.00077789069853265,0.00077789054447286,-0.00077789056070846,0.00077789040664368,-0.00066010845593718,0.00066010859521797,0.66282300645257,122718,2924,0.0032359813542659,0.0039145789891163,0.0028417792308121,15.63273891819,4.0261911345522e-05,4.0261911345522e-05,4.0261911345522e-05,3583614.9498569,0.010042588466951
24391759,0.64646517717859,0.010996674333281,0.0035979084219072,0.0041306423186212,0.0032681235927528,-0.00084520051616441,0.00084520064574213,2.5409319615669e-11,2.5409412201075e-11,8.4049985036534e-11,9.3141380477114e-12,-0.0004646288792213,0.00046462932307895,-0.00082636043526487,0.00082636082402575,-0.00082636062651723,0.00082636101529672,-0.00046462917112682,0.00046462975831876,-0.00046462880791965,0.00046462939513147,-0.0008263603663146,0.00082636089685869,-0.00082636055711428,0.00082636108767255,-0.00095255587843535,0.00095255584010667,-0.00095255592607533,0.00095255588774705,-0.00095255590211902,0.00095255581497715,-0.00095255594996652,0.00095255586282411,-0.00085229069500221,0.0008522906922609,-0.00085229069740581,0.00085229069466491,-0.00085229067109807,0.00085229071690572,-0.00085229067344268,0.00085229071924847,-0.00046462924144476,0.0004646296852996,-1.6048702723148e-11,5.5332317606267e-11,-5.1126082250929e-13,3.7742460081987e-11,-0.0010348915274874,0.0010348915652635,-0.0010206408194345,0.0010206408694125,-0.0010085788450811,0.001008578801339,-0.0010085787340756,0.0010085788303981,-0.0010275107558885,0.0010275107580112,-0.0010275108349784,0.0010275108607791,-0.0010275106446207,0.0010275106935217,-0.0010275107237193,0.0010275107962904,-0.001020641246072,0.0010206412702393,-0.00102064078532,0.0010206408836615,-0.0010085788464729,0.0010085788285327,-0.0010085787354589,0.0010085788575871,-0.0010206412801972,0.0010206412560101,-7.9819941874385e-11,-7.9819744943935e-11,-0.000735116569026,0.00073511625619495,-3.7861057321974e-11,-7.417604786236e-11,-0.00070908286653513,0.00070908283146705,-0.00063675859494322,0.00063675867867089,-0.00063675859547411,0.00063675867921591,-0.000709082559859,0.00070908260099755,-0.00070908282708859,0.00070908286822367,-0.00063675856135024,0.00063675871262016,-0.00063675856106777,0.00063675871235513,-0.00083602713872426,0.00083602682278138,-0.00083602715047391,0.00083602681132499,-0.00083602710410341,0.00083602678816271,-0.0008360271155596,0.00083602677641299,-0.00084473174588543,0.00084473149826572,-0.00084473188463454,0.00084473163701407,-0.0008447318716337,0.00084473164906122,-0.00084473173381535,0.00084473151123879,-0.00070908259701732,0.00070908256196602,0.69344629843763,122718,2924,0.0035160515738667,0.004302438959831,0.0030586083507674,17.85218525728,5.801748205824e-05,5.801748205824e-05,5.801748205824e-05,3692459.2067831,0.010936666292739
25391759,0.70100475155256,0.011980884310345,0.0039118403397448,0.0045417290670064,0.0035273149035938,-0.00091884297113318,0.0009188431154182,2.7344111759097e-11,2.7344203021015e-11,8.2919322783372e-11,1.4895402308625e-11,-0.00047733823921646,0.00047733869877157,-0.00089680130081014,0.00089680169568639,-0.00089680153014567,0.00089680192503757,-0.00047733849271254,0.00047733908224718,-0.00047733817443439,0.00047733876399201,-0.00089680123836622,0.00089680176191335,-0.00089680146717276,0.00089680199073415,-0.0010421716093433,0.001042171573942,-0.001042171672721,0.0010421716373193,-0.0010421716309185,0.0010421715510325,-0.0010421716945105,0.0010421716146267,-0.00092945753492458,0.00092945754148424,-0.00092945755274975,0.00092945755930718,-0.00092945751323064,0.00092945756387015,-0.00092945753102186,0.00092945758166308,-0.00047733855644361,0.00047733901599388,-1.2683703992138e-11,5.1939388581449e-11,3.5259306087696e-12,3.3797292015928e-11,-0.0011431478816273,0.001143147919463,-0.0011293090626773,0.0011293091072251,-0.0011141705945711,0.0011141705602284,-0.0011141705010598,0.0011141705933596,-0.0011315900594479,0.001131590066041,-0.0011315901742489,0.0011315901996937,-0.0011315899606779,0.0011315900100402,-0.0011315900754894,0.0011315901436927,-0.0011293094124231,0.0011293094422269,-0.0011293090366514,0.0011293091249903,-0.0011141705933792,0.0011141705795106,-0.0011141704998636,0.0011141706126401,-0.0011293094384595,0.0011293094244801,-8.7326319273978e-11,-8.7326138250096e-11,-0.00078982833097154,0.00078982798585164,-5.5854274774804e-11,-8.4164910384099e-11,-0.00075842808530698,0.00075842800887833,-0.00067571348389627,0.00067571349895626,-0.00067571347775091,0.00067571349282217,-0.00075842781925636,0.00075842780334504,-0.00075842805382481,0.00075842803791289,-0.0006757134581047,0.00067571352508221,-0.00067571345127652,0.00067571351827195,-0.00090679262439906,0.00090679229835024,-0.00090679263351257,0.00090679228948747,-0.00090679259244176,0.00090679226639493,-0.00090679260127151,0.00090679225725031,-0.00091875642506985,0.00091875617603871,-0.00091875656726467,0.00091875631822993,-0.00091875655695362,0.00091875632766252,-0.00091875641563141,0.00091875618633797,-0.00075842784861331,0.00075842777219697,0.76207065498803,122718,2924,0.0038219774893677,0.0047513496840788,0.0032859654350324,19.834688377058,7.3877507016466e-05,7.3877507016466e-05,7.3877507016466e-05,3720792.1202622,0.011930146033794
26391759,0.75099062792718,0.012955135723805,0.0042214854441609,0.0049528917094888,0.0037807585701552,-0.00098725118384495,0.00098725143787209,5.3918487062526e-11,5.3918684380027e-11,1.2557189054141e-10,4.3923005152931e-11,-0.00047979869341202,0.00047979938238798,-0.00096088472980698,0.0009608852331769,-0.00096088490441354,0.00096088540779736,-0.00047979896063074,0.00047979980333567,-0.00047979861707562,0.00047979945980507,-0.00096088465441082,0.00096088531210218,-0.00096088482883401,0.00096088548654578,-0.0011277969119171,0.0011277969218855,-0.0011277969530945,0.0011277969630608,-0.0011277969382036,0.0011277968943383,-0.0011277969794141,0.0011277969355485,-0.0010023518926899,0.0010023519384404,-0.0010023519010029,0.0010023519467516,-0.0010023518664236,0.0010023519649923,-0.0010023518751396,0.0010023519737095,-0.00047979903665866,0.00047979972562228,-1.6217956081986e-11,6.0738127315432e-11,-5.3554311011383e-13,4.2997993234939e-11,-0.0012502164857943,0.0012502165287565,-0.0012374508078952,0.0012374508660518,-0.0012195271693594,0.0012195271237613,-0.0012195270264441,0.0012195271312883,-0.0012327980107705,0.001232798012513,-0.0012327981259539,0.0012327981568385,-0.0012327979153036,0.0012327979693622,-0.0012327980304951,0.0012327981136886,-0.0012374512045613,0.0012374512310005,-0.0012374507905744,0.0012374509010205,-0.0012195271762017,0.0012195271602461,-0.0012195270332728,0.0012195271677716,-0.0012374512218906,0.0012374511960499,-5.0670858168971e-11,-5.0670726248139e-11,-0.00083735219768344,0.0008373520748315,-1.0937293805167e-12,-4.3789834280033e-11,-0.00079824476493275,0.00079824482703262,-0.00070560587440432,0.0007056061438066,-0.00070560588156773,0.00070560615098193,-0.00079824447344344,0.00079824462117946,-0.00079824472054146,0.0007982448682689,-0.00070560583527984,0.00070560618359472,-0.00070560584146985,0.00070560618979686,-0.00097236417331879,0.00097236392891333,-0.00097236418751816,0.00097236391512435,-0.00097236413719146,0.00097236389278808,-0.00097236415093501,0.0009723638785427,-0.00098726994816136,0.00098726975436646,-0.00098727009788591,0.00098726990408767,-0.00098727008271952,0.0009872699179726,-0.00098726993425345,0.00098726976950393,-0.00079824451499338,0.00079824457710878,0.82335182229769,122718,2924,0.0041061470397007,0.0051951089890319,0.0034834600301741,20.411742741384,7.8493941931071e-05,7.8493941931071e-05,7.8493941931071e-05,3699371.0397747,0.012867119132837
27391759,0.79879141120937,0.013797517920231,0.0044912367190184,0.0053075666912822,0.0039987145099301,-0.0010477491852171,0.0010477493576483,2.9076554142995e-11,2.9076689050638e-11,9.1477701242549e-11,1.7740407836836e-11,-0.0004780870854703,0.00047808758122922,-0.0010147498731917,0.001014750284953,-0.0010147501430903,0.0010147505548653,-0.00047808727522076,0.00047808791192883,-0.00047808701502694,0.00047808765175608,-0.0010147498051028,0.0010147503567764,-0.0010147500744181,0.0010147506261094,-0.0012063203489182,0.0012063203235288,-0.0012063204269817,0.0012063204015949,-0.0012063203723612,0.0012063202987345,-0.0012063204506664,0.001206320377039,-0.001065157924034,0.0010651579352015,-0.0010651579611408,0.001065157972308,-0.0010651579004944,0.0010651579594501,-0.0010651579375423,0.0010651579964968,-0.00047808734457742,0.00047808784032462,-1.3260195616008e-11,5.6762544472642e-11,3.180655744915e-12,3.8371941851751e-11,-0.0013465984993429,0.0013465985413755,-0.0013318686816985,0.001331868733519,-0.001313940104334,0.001313940067384,-0.0013139400154336,0.0013139401156491,-0.0013258623535846,0.0013258623608319,-0.0013258624921636,0.0013258625215977,-0.0013258622520375,0.0013258623057048,-0.0013258623906214,0.00132586246647,-0.0013318689950277,0.0013318690259903,-0.0013318686530833,0.0013318687521697,-0.0013139400942748,0.0013139400810186,-0.0013139400053668,0.0013139401292787,-0.001331869023649,0.0013318690073596,-9.5561128757944e-11,-9.5560994684561e-11,-0.00087706742092616,0.00087706706656847,-6.4049655780106e-11,-9.7324911099596e-11,-0.00082750447214794,0.00082750433995956,-0.00072733595663956,0.00072733591900707,-0.00072733594476062,0.00072733590713718,-0.0008275042560715,0.00082750419418134,-0.00082750443590891,0.00082750437400914,-0.00072733592593678,0.00072733594999048,-0.00072733591351497,0.00072733593758405,-0.0010305593519119,0.0010305590258065,-0.0010305593626218,0.0010305590152693,-0.0010305593219366,0.0010305589958341,-0.0010305593324085,0.0010305589850592,-0.001045510077632,0.0010455098224844,-0.0010455102199672,0.0010455099648149,-0.001045510208058,0.0010455099759313,-0.0010455100665055,0.0010455098343801,-0.00082750429039532,0.00082750415822147,0.74366212196709,122718,2924,0.0043574414337498,0.0055943868838914,0.0036485176111784,22.213589670181,9.2908717361447e-05,9.2908717361447e-05,9.2908717361447e-05,3649201.9171872,0.013693670065036
28391759,0.84126761955737,0.014648658488715,0.0047625541287779,0.0056662015878257,0.0042199027721117,-0.0011098170501381,0.0011098172799002,4.3403668283022e-11,4.3403790308706e-11,1.1205465595424e-10,3.3958230569954e-11,-0.00049037075277016,0.00049037136379275,-0.0010735581218044,0.0010735585941807,-0.0010735583672673,0.0010735588396606,-0.0004903709463145,0.00049037170518035,-0.0004903706790336,0.00049037143792251,-0.0010735580496298,0.0010735586698884,-0.0010735582946876,0.0010735589149615,-0.0012823539051908,0.0012823539052137,-0.0012823539739593,0.0012823539739814,-0.0012823539302414,0.0012823538789158,-0.0012823539991519,0.0012823539478239,-0.001129828954869,0.0011298289890419,-0.0011298289929234,0.0011298290270941,-0.001129828929839,0.0011298290145276,-0.0011298289680869,0.0011298290527762,-0.00049037101935367,0.00049037163036709,-1.3835854912365e-11,5.9854744596286e-11,2.616313838114e-12,4.1430344949048e-11,-0.001439213344581,0.0014392133890899,-0.0014224684886048,0.001422468545018,-0.0014041713697371,0.001404171330529,-0.0014041712625496,0.0014041713674496,-0.0014162651053,0.0014162651117244,-0.0014162652501952,0.0014162652821296,-0.0014162650065182,0.0014162650625827,-0.0014162651514201,0.0014162652329856,-0.0014224688025472,0.001422468833895,-0.0014224684654871,0.0014224685717541,-0.0014041713656689,0.001404171352762,-0.0014041712584706,0.0014041713896776,-0.0014224688256731,0.0014224688071769,-7.6930484157743e-11,-7.6930327423216e-11,-0.00092005471969719,0.00092005447943646,-3.7929697305033e-11,-7.5468265961352e-11,-0.00086728019742427,0.00086728013751979,-0.00075800681096523,0.00075800690509231,-0.00075800680596624,0.00075800690010441,-0.00086727997802648,0.00086727999500066,-0.00086728015772955,0.00086728017469565,-0.00075800677650391,0.00075800694000076,-0.0007580067708386,0.00075800693434855,-0.0010869861783883,0.0010869858966932,-0.001086986190683,0.0010869858846403,-0.0010869861465271,0.0010869858648346,-0.0010869861585019,0.0010869858524621,-0.0011056058288164,0.0011056056035568,-0.0011056059740868,0.0011056057488241,-0.001105605960737,0.001105605761187,-0.0011056058164408,0.0011056056168859,-0.00086728001545764,0.00086727995557217,0.84556057744222,122718,2924,0.0046151539507709,0.005977886239303,0.0038271098645136,23.413611708463,0.00010250889366771,0.00010250889366771,0.00010250889366771,3682619.9511144,0.014525108317186
29391759,0.87799057662553,0.015208865708826,0.0049438818749023,0.0058997766906488,0.0043652071432746,-0.0011462793442421,0.0011462795671954,3.9067851018675e-11,3.9067940883576e-11,1.097061646108e-10,3.0744513187991e-11,-0.00046792882273617,0.00046792941415199,-0.0011012309978466,0.0011012314612021,-0.0011012312643571,0.0011012317277258,-0.00046792899327589,0.00046792973463817,-0.00046792874780754,0.00046792948919489,-0.0011012309247258,0.0011012315378369,-0.0011012311907482,0.0011012318038738,-0.001336615732753,0.0013366157291171,-0.0013366158102021,0.0013366158065661,-0.0013366157580492,0.0013366157025536,-0.0013366158356796,0.001336615780184,-0.00116822906572,0.0011682290924781,-0.0011682291125278,0.0011682291392834,-0.0011682290404093,0.001168229118303,-0.0011682290873332,0.0011682291652273,-0.00046792906737495,0.00046792965878024,-1.4015805415001e-11,6.0642310830795e-11,2.5917383535841e-12,4.207837041702e-11,-0.0015082875507659,0.0015082875958879,-0.0014897806304423,0.0014897806878843,-0.0014731687638629,0.0014731687240946,-0.0014731686605493,0.0014731687668406,-0.0014815917534545,0.0014815917601164,-0.0014815919073599,0.001481591939807,-0.001481591653114,0.0014815917098883,-0.0014815918070256,0.001481591889576,-0.0014897809265057,0.0014897809580654,-0.0014897806051509,0.001489780712998,-0.0014731687568136,0.0014731687437279,-0.0014731686534934,0.0014731687864737,-0.0014897809518018,0.0014897809329698,-8.4317044629533e-11,-8.4316881151423e-11,-0.00093762903791484,0.00093762876676632,-4.64223888959e-11,-8.4480387108634e-11,-0.00086868273551362,0.00086868264200975,-0.00075624754018635,0.0007562475865705,-0.00075624753128392,0.00075624757767901,-0.00086868253752401,0.00086868252237281,-0.00086868269521831,0.00086868268005906,-0.00075624750507412,0.00075624762202248,-0.00075624749562146,0.00075624761258768,-0.0011237192459621,0.0011237189536548,-0.0011237192583663,0.001123718941437,-0.001123719216008,0.0011237189237016,-0.0011237192281411,0.0011237189112132,-0.0011390388606134,0.0011390386256268,-0.0011390390011542,0.0011390387661644,-0.0011390389876605,0.0011390387787746,-0.0011390388479917,0.0011390386391014,-0.00086868257580376,0.00086868248232241,0.64299206939106,122718,2924,0.0047667040203693,0.0062637948778286,0.0039002563586559,24.734899706637,0.00011307919765309,0.00011307919765309,0.00011307919765309,3495513.2957266,0.015043383075401
30391759,0.90868376465177,0.015615029165079,0.0050764075454119,0.0060662264507039,0.0044723951689629,-0.0011784254735893,0.0011784257012224,4.0974065946882e-11,4.0974153635379e-11,1.1070576933827e-10,3.0457954206877e-11,-0.00048528956312811,0.00048529015197552,-0.0011306085560934,0.0011306090226795,-0.001130608829062,0.0011306092956639,-0.00048528973230362,0.00048529047353689,-0.00048528948698092,0.00048529022823868,-0.0011306084817209,0.0011306091005774,-0.0011306087541913,0.0011306093730638,-0.0013762255636782,0.0013762255651561,-0.0013762256443977,0.0013762256458753,-0.0013762255894188,0.0013762255381602,-0.0013762256703241,0.0013762256190651,-0.0011974284638001,0.0011974284950408,-0.001197428514314,0.0011974285455529,-0.0011974284380691,0.0011974285212824,-0.001197428488704,0.0011974285719169,-0.00048528980761499,0.00048529039645226,-1.3696114357814e-11,6.2180151144947e-11,3.0655942011426e-12,4.3454540699492e-11,-0.0015491846639099,0.0015491847108734,-0.0015224247768774,0.001522424836635,-0.001510405062621,0.0015104050232473,-0.0015104049640704,0.0015104050731066,-0.0015284196931439,0.0015284197008883,-0.0015284198541692,0.0015284198883416,-0.0015284195926006,0.0015284196512967,-0.0015284197536328,0.0015284198387492,-0.0015224250597294,0.0015224250926688,-0.0015224247515842,0.0015224248625592,-0.0015104050560202,0.0015104050439304,-0.0015104049574615,0.001510405093787,-0.0015224250850307,0.0015224250667626,-8.463949966713e-11,-8.4639343715854e-11,-0.00095999578161926,0.00095999550644237,-4.75330374544e-11,-8.6509211743405e-11,-0.00089406587585479,0.00089406578051634,-0.00077627033669306,0.00077627037420101,-0.00077627032802105,0.00077627036553972,-0.00089406567916074,0.0008940656639578,-0.00089406583464244,0.00089406581943186,-0.00077627030069247,0.00077627041055712,-0.00077627029147351,0.00077627040135278,-0.0011501235412808,0.0011501232504785,-0.0011501235539857,0.0011501232379486,-0.0011501235110628,0.0011501232202628,-0.0011501235234994,0.0011501232074655,-0.0011667655493112,0.0011667653147949,-0.0011667656912132,0.0011667654566945,-0.0011667656774163,0.0011667654696083,-0.0011667655363835,0.0011667653285727,-0.00089406571832384,0.00089406562300379,0.55654009761524,122718,2924,0.0049000837417417,0.0064330176900378,0.0039931394540188,26.074834495001,0.00012379867596001,0.00012379867596001,0.00012379867596001,3596434.7250864,0.015444910787831
31391759,0.93452649738088,0.016039167484123,0.0052121153267153,0.0062429907914736,0.0045840613659343,-0.0012109421673052,0.0012109422998301,1.3792976751675e-11,1.379307707214e-11,6.9094043665571e-11,4.6973701162144e-12,-0.00048582658283078,0.00048582697721816,-0.0011599983741332,0.0011599987401331,-0.0011599987453706,0.0011599991113866,-0.00048582672040582,0.00048582723880985,-0.00048582652041368,0.00048582703884038,-0.0011599983148689,0.001159998803009,-0.0011599986852225,0.0011599991733788,-0.0014176767068948,0.0014176766611196,-0.0014176768288119,0.0014176767830365,-0.0014176767272304,0.0014176766395264,-0.0014176768495333,0.0014176767618291,-0.0012317678626369,0.0012317678553228,-0.0012317679343588,0.0012317679270435,-0.0012317678422126,0.0012317678766419,-0.0012317679136069,0.0012317679480365,-0.00048582678126743,0.00048582717564359,-8.9944970478187e-12,5.2298280970474e-11,1.0002178499136e-11,3.1550012933468e-11,-0.0016000224997036,0.0016000225416778,-0.0015729375695603,0.0015729376111724,-0.0015612904567688,0.0015612904328867,-0.0015612904126305,0.0015612905088057,-0.0015768081625025,0.0015768081776168,-0.0015768083652867,0.0015768083930019,-0.0015768080658224,0.001576808121098,-0.0015768082686143,0.0015768083364823,-0.0015729377572777,0.0015729377984656,-0.0015729375404818,0.0015729376232922,-0.0015612904432234,0.0015612904337597,-0.001561290399078,0.0015612905096757,-0.0015729377863629,0.0015729377863645,-1.2897314852899e-10,-1.2897299779433e-10,-0.00098096350052565,0.00098096297151777,-1.176393586579e-10,-1.364968662284e-10,-0.00091066249143264,0.00091066222969561,-0.00078846203717043,0.0007884617599132,-0.00078846201041774,0.00078846173317041,-0.00091066236277109,0.00091066214489917,-0.00091066246881227,0.00091066225093246,-0.00078846202013748,0.00078846177697039,-0.00078846199320297,0.00078846175005032,-0.0011798095929878,0.0011798091964987,-0.0011798095986608,0.0011798091908033,-0.0011798095691346,0.0011798091726481,-0.0011798095747281,0.0011798091668742,-0.0011981169738462,0.001198116678655,-0.0011981171097729,0.0011981168145793,-0.0011981171027655,0.0011981168211827,-0.0011981169672544,0.0011981166856695,-0.00091066238420607,0.00091066212248532,0.69215549466537,122718,2924,0.0050350979623078,0.0066433555109272,0.0040802656774969,28.358504370175,0.0001420680349614,0.0001420680349614,0.0001420680349614,3529343.6808659,0.015884224772268
32391759,0.95402591023565,0.016406217975812,0.0053291729441562,0.0063963730252278,0.0046806720064277,-0.0012311554434323,0.0012311557189861,5.1331435139304e-11,5.1331368229583e-11,1.2664142798542e-10,4.95950862571e-11,-0.00045065273237159,0.00045065343055569,-0.0011736090229681,0.001173609551077,-0.0011736092765053,0.0011736098046277,-0.00045065290511283,0.00045065374796739,-0.0004506526601074,0.00045065350298608,-0.0011736089517794,0.0011736096253885,-0.0011736092049561,0.0011736098785807,-0.0014516377418633,0.0014516377619438,-0.0014516378140052,0.001451637834082,-0.0014516377667477,0.0014516377359952,-0.0014516378389826,0.001451637808229,-0.001257695734672,0.0012576957835883,-0.001257695787074,0.0012576958359861,-0.0012576957099188,0.0012576958085619,-0.0012576957626859,0.0012576958613285,-0.00045065297685147,0.0004506536750227,-1.2553144804161e-11,5.9609750610096e-11,5.6925164504711e-12,3.9500992654142e-11,-0.0016515714320133,0.0016515714776266,-0.0016302703804921,0.0016302704335336,-0.0016165925744398,0.0016165925395068,-0.0016165924596955,0.0016165925656511,-0.0016181415662042,0.0016181415752576,-0.0016181417323823,0.0016181417643923,-0.0016181414690792,0.0016181415272826,-0.0016181416352613,0.0016181417164166,-0.001630270656086,0.0016302706931081,-0.0016302703615136,0.0016302704633622,-0.0016165925738112,0.0016165925619558,-0.0016165924590578,0.001616592588098,-0.0016302706750714,0.0016302706632911,-6.6868175359706e-11,-6.6867847935351e-11,-0.00098505975530525,0.00098505958490515,-2.7590719347647e-11,-6.0632851847702e-11,-0.00089558411345533,0.00089558409631083,-0.00077287479051616,0.00077287495887673,-0.00077287478667659,0.00077287495504417,-0.00089558393658458,0.00089558398610684,-0.00089558407897451,0.00089558412848909,-0.00077287476067871,0.00077287498910726,-0.00077287475628271,0.0007728749847253,-0.0012020204300253,0.0012020201797046,-0.0012020204409049,0.0012020201690306,-0.0012020203996341,0.001202020149316,-0.0012020204102069,0.0012020201383381,-0.001218644458692,0.001218644257342,-0.0012186445963431,0.0012186443949856,-0.0012186445845565,0.0012186444057873,-0.0012186444478804,0.0012186442691063,-0.0008955839689692,0.00089558395183924,0.79325035118638,122718,2924,0.0051192779462045,0.0068565712863639,0.0040974936813941,29.292985441446,0.00014954388353156,0.00014954388353156,0.00014954388353156,3221403.7301401,0.016204043695838
33391759,0.96781567779688,0.016673897924506,0.0054154767636743,0.006506014021071,0.0047524071397611,-0.0012442233390789,0.0012442237207916,7.6662851605448e-11,7.6662734814898e-11,1.7569889428409e-10,7.5013250220226e-11,-0.00042731487236802,0.00042731579852934,-0.0011822146640941,0.0011822153062699,-0.0011822148136809,0.0011822154558723,-0.00042731504581912,0.00042731615986508,-0.00042731477883715,0.00042731589291061,-0.0011822145702663,0.0011822154031557,-0.0011822147198425,0.0011822155527469,-0.0014745993526001,0.0014745994198625,-0.0014745993825127,0.0014745994497737,-0.0014745993854215,0.0014745993859299,-0.0014745994152307,0.0014745994157382,-0.0012740081026526,0.0012740081819461,-0.0012740081439365,0.0012740082232264,-0.0012740080700052,0.0012740082144004,-0.0012740081121327,0.0012740082565269,-0.00042731513944963,0.00042731606559746,-1.9990159961394e-11,7.4311286370623e-11,-4.9715054180397e-12,5.7152334358946e-11,-0.0016864930368589,0.0016864930894763,-0.001666653738768,0.0016666538186384,-0.0016532852508683,0.0016532851919116,-0.0016532850638059,0.0016532851889075,-0.0016478559804433,0.0016478559782327,-0.0016478561063048,0.0016478561475003,-0.0016478558768256,0.001647855939717,-0.0016478560026932,0.0016478561089842,-0.0016666541206795,0.0016666541447882,-0.001666653721081,0.0016666538647942,-0.0016532852562757,0.0016532852396161,-0.0016532850692049,0.0016532852366095,-0.0016666541383732,0.0016666540986482,-2.2566423455205e-11,-2.2566034755481e-11,-0.00098505431467511,0.00098505443824776,5.631353128987e-11,-6.5633860132832e-12,-0.00088341671177459,0.00088341688071268,-0.00076008583849088,0.00076008638542798,-0.00076008585330734,0.00076008640025431,-0.00088341647462809,0.00088341676475727,-0.00088341664968677,0.00088341693981062,-0.00076008578027222,0.00076008644427707,-0.0007600857942651,0.00076008645828268,-0.0012146048772346,0.0012146047379923,-0.0012146048983932,0.0012146047172134,-0.0012146048415001,0.0012146047022592,-0.0012146048621847,0.0012146046810075,-0.0012304905336952,0.0012304903855661,-0.0012304906718557,0.0012304905237219,-0.0012304906500813,0.0012304905440619,-0.0012304905133084,0.0012304904072867,-0.00088341653396229,0.00088341670292078,0.81381076464073,122718,2924,0.0051737245372877,0.0070009567523655,0.0040976463118802,29.275811764467,0.00014940649411574,0.00014940649411574,0.00014940649411574,3013199.6314487,0.016406377605336
34391759,0.9783910712984,0.016858623805445,0.0054756586202181,0.0065802827211372,0.0048026824640895,-0.0012580203254679,0.0012580204686579,1.2882529712266e-11,1.2882431068221e-11,8.1061027200085e-11,-7.3485290368939e-13,-0.00042130731967374,0.00042130771361975,-0.0011929861714209,0.0011929865363702,-0.0011929865587858,0.001192986923751,-0.00042130745337727,0.0004213080059473,-0.00042130723989171,0.00042130779248742,-0.0011929860950649,0.0011929866164669,-0.0011929864815088,0.0011929870029255,-0.0014946777592477,0.0014946777226949,-0.0014946778869783,0.0014946778504251,-0.0014946777851761,0.0014946776953014,-0.0014946779133193,0.001494677823445,-0.0012887076017965,0.0012887075857444,-0.0012887076804068,0.0012887076643513,-0.0012887075755959,0.001288707612906,-0.0012887076538364,0.001288707691145,-0.00042130753162397,0.00042130792555682,-1.4726913220557e-11,6.3785726860417e-11,2.0656222201885e-12,4.5054223506751e-11,-0.0017123671638707,0.0017123672114156,-0.0016908990658775,0.0016908991283505,-0.0016796798017313,0.0016796797594574,-0.0016796797340325,0.00167967984577,-0.0016726049081054,0.001672604916025,-0.0016726051147125,0.0016726051493366,-0.001672604805887,0.0016726048653049,-0.0016726050124997,0.0016726050986164,-0.001690899240106,0.0016908992715218,-0.0016908990343321,0.0016908991493806,-0.0016796797813833,0.0016796797677195,-0.0016796797136762,0.0016796798540288,-0.0016908992716587,0.0016908992505083,-1.310340620572e-10,-1.3103369769063e-10,-0.00099008952839281,0.0009900889880054,-1.1534890735204e-10,-1.555947407077e-10,-0.00088339271233726,0.00088339241500259,-0.00075871415163169,0.00075871380795028,-0.0007587141260972,0.00075871378242478,-0.00088339258318774,0.00088339237225608,-0.00088339266849679,0.00088339245755742,-0.0007587141135035,0.00075871384603356,-0.00075871408782345,0.00075871382036524,-0.0012263738452546,0.0012263734594483,-0.0012263738580324,0.0012263734466513,-0.0012263738227881,0.001226373436984,-0.0012263738354885,0.0012263734241103,-0.001242448948283,0.0012424486448729,-0.0012424490759784,0.0012424487725637,-0.0012424490617919,0.001242448786328,-0.001242448934504,0.0012424486590386,-0.00088339262594248,0.0008833923286251,0.7296115327816,122718,2924,0.0052310688302513,0.0071079238256375,0.0041186404239538,31.392270396167,0.00016633816316934,0.00016633816316934,0.00016633816316934,2897133.4992027,0.016594797052903
35391759,0.98679209106279,0.016990815064626,0.0055189258737303,0.0066328333648944,0.0048390558260017,-0.001275542751158,0.0012755426197334,-5.8659098401868e-11,-5.8659194251881e-11,-4.5299385576042e-11,-6.9291187878244e-11,-0.00043487964319317,0.00043487947340508,-0.0012095069737685,0.0012095070494001,-0.0012095076463576,0.0012095077220041,-0.00043487978033321,0.00043487966362908,-0.00043487961513198,0.00043487949845279,-0.0012095069527926,0.0012095070742272,-0.0012095076234932,0.0012095077449429,-0.0015145923294635,0.0015145921603617,-0.0015145925747485,0.0015145924056465,-0.0015145923359162,0.0015145921525554,-0.0015145925821526,0.0015145923987914,-0.0013053247726975,0.0013053246630092,-0.0013053248805409,0.0013053247708503,-0.0013053247658005,0.0013053246719426,-0.0013053248720067,0.001305324778148,-0.00043487980511271,0.00043487963531278,2.8544426810884e-12,2.7419730757812e-11,2.849064248337e-11,5.6066369563837e-13,-0.0017326226829377,0.0017326227123624,-0.001707231374438,0.0017072313686286,-0.00169915654214,0.0016991565579498,-0.0016991566474511,0.0016991567120973,-0.0016951390405801,0.0016951390757182,-0.0016951393731806,0.0016951393837333,-0.0016951389552774,0.0016951390028828,-0.0016951392878843,0.0016951393108972,-0.0017072312830802,0.0017072313467884,-0.0017072313382901,0.0017072313483789,-0.0016991565086777,0.00169915650499,-0.0016991566139815,0.001699156659135,-0.0017072313192356,0.001707231367055,-2.4984177219234e-10,-2.4984140793928e-10,-0.001003558609003,0.0010035573052112,-3.3076362841015e-10,-2.9610190788556e-10,-0.00089952415688772,0.00089952340702209,-0.00077254087189454,0.00077253957109144,-0.00077254079756766,0.00077253949677421,-0.00089952419244607,0.00089952339196344,-0.00089952418260422,0.00089952338211418,-0.00077254090505539,0.00077253953717707,-0.0007725408313702,0.00077253946350488,-0.0012404664733822,0.0012404657741865,-0.0012404664602721,0.0012404657867994,-0.0012404664658832,0.00124046576669,-0.0012404664531579,0.0012404657796883,-0.0012581023527118,0.0012581019003419,-0.0012581024737613,0.0012581020213882,-0.0012581024847004,0.0012581020112802,-0.0012581023628931,0.0012581018894707,-0.00089952416763089,0.00089952341778252,0.65593630488581,122718,2924,0.0053037248158758,0.0071916714681903,0.0041745453983971,35.838038753857,0.00020190431003086,0.00020190431003086,0.00020190431003086,2887868.3640343,0.016810653579734
36391759,0.99224080210887,0.017080593170059,0.0055481577030412,0.0066686191818986,0.0048638162851195,-0.001285144883675,0.0012851450907857,3.4673700168731e-11,3.4673606950991e-11,8.0863511087008e-11,4.6576851315046e-11,-0.00044115735466324,0.00044115791595422,-0.0012185428652342,0.0012185433469438,-0.001218543222645,0.0012185437043699,-0.00044115755738382,0.0004411581809265,-0.00044115732321885,0.000441157946787,-0.0012185428353513,0.0012185433793426,-0.0012185431921923,0.0012185437361991,-0.0015255579524851,0.0015255579383856,-0.0015255580655434,0.0015255580514435,-0.0015255579634507,0.0015255579268092,-0.0015255580767153,0.0015255580400733,-0.0013145831499586,0.0013145831909353,-0.0013145832116741,0.0013145832526484,-0.0013145831393536,0.0013145832018136,-0.0013145832012088,0.0013145832636679,-0.00044115758794329,0.00044115814922212,9.6285435016642e-13,3.1478923869896e-11,2.8453459736925e-11,2.7056562852342e-12,-0.0017439742028458,0.0017439742343699,-0.0017170071644438,0.0017170071593699,-0.001710333057575,0.0017103330689964,-0.0017103330238823,0.0017103330944106,-0.0017072037519733,0.0017072037813567,-0.0017072039792517,0.0017072039912792,-0.0017072036677276,0.001707203718013,-0.0017072038950123,0.001707203927935,-0.0017170073058517,0.0017170073730416,-0.0017170071521708,0.0017170071679516,-0.0017103330617536,0.0017103330564376,-0.0017103330280533,0.0017103330818492,-0.0017170073181324,0.0017170073644765,-9.6391466522591e-11,-9.6391101266551e-11,-0.001010876349437,0.0010108759508823,-1.0980736204227e-10,-8.2386192116104e-11,-0.00090815788837247,0.00090815778535571,-0.00077970406284136,0.00077970396620067,-0.00077970404313063,0.00077970394649921,-0.00090815781014825,0.00090815765719955,-0.00090815791259913,0.00090815775964359,-0.00077970409172127,0.00077970393748227,-0.00077970407176931,0.00077970391754348,-0.0012481205019083,0.0012481201595904,-0.0012481204924213,0.0012481201690972,-0.0012481204764998,0.0012481201341843,-0.0012481204668723,0.0012481201435512,-0.0012668562447678,0.0012668560302346,-0.001266856377763,0.0012668561632265,-0.0012668563863028,0.0012668561541565,-0.0012668562538868,0.0012668560217381,-0.00090815778455097,0.00090815768155209,0.68699515304475,122718,2924,0.0053435463699406,0.0072386072532662,0.0042049211963402,37.524855503491,0.00021539884402793,0.00021539884402793,0.00021539884402793,2892140.8268768,0.016929766801335
37391759,0.99545769753101,0.017133061521334,0.0055652289119833,0.0066895534825146,0.0048782791268365,-0.0012870430620455,0.0012870434566357,8.3460980647861e-11,8.3460894856364e-11,1.640315349492e-10,9.7856186178331e-11,-0.00042939884780052,0.00042939980598022,-0.0012184822974219,0.0012184829856332,-0.0012184824646785,0.0012184831529052,-0.00042939905735441,0.00042940013481188,-0.00042939878851837,0.00042939986600062,-0.0012184822371266,0.0012184830482141,-0.0012184824044712,0.0012184832155741,-0.0015307115712358,0.001530711645113,-0.0015307116061465,0.0015307116800236,-0.0015307115930703,0.0015307116227013,-0.0015307116278114,0.0015307116574421,-0.0013178876724915,0.0013178877794295,-0.0013178877151916,0.0013178878221268,-0.0013178876511867,0.0013178878002085,-0.0013178876949242,0.001317887843945,-0.00042939911693859,0.0004294000751057,-8.2655560811707e-12,5.1589938845134e-11,1.673229898681e-11,2.4928847970218e-11,-0.0017530675858245,0.0017530676278739,-0.0017283941882001,0.0017283942162199,-0.0017208683487761,0.0017208683308286,-0.0017208682027837,0.0017208683009474,-0.0017131123681428,0.0017131123843306,-0.0017131125196598,0.0017131125440177,-0.0017131122758313,0.0017131123346413,-0.0017131124273547,0.0017131124943278,-0.00172839449742,0.0017283945524415,-0.0017283941818013,0.0017283942507267,-0.0017208683675672,0.0017208683561334,-0.0017208682215672,0.0017208683262497,-0.001728394503826,0.0017283945179512,-1.4254033336872e-11,-1.4253668703588e-11,-0.0010090358444133,0.0010090359648998,3.1311077006693e-11,2.2044657545329e-11,-0.00089962373185233,0.00089962396104481,-0.00077200128071085,0.00077200185368526,-0.00077200129358386,0.00077200186656757,-0.00089962355751291,0.00089962380164356,-0.00089962372299082,0.00089962396711413,-0.00077200127513666,0.00077200185987642,-0.00077200128727554,0.00077200187202792,-0.0012511508598317,0.0012511507254774,-0.0012511508632095,0.0012511507224259,-0.0012511508246986,0.0012511506903468,-0.0012511508276358,0.0012511506868553,-0.0012687365152289,0.0012687364086859,-0.0012687366515231,0.0012687365449768,-0.0012687366477671,0.0012687365473926,-0.0012687365128111,0.0012687364124342,-0.00089962356375767,0.00089962379296715,0.68009907945379,122718,2924,0.0053515250014494,0.0072762030451245,0.0041973554027215,37.635433025503,0.00021628346420402,0.00021628346420402,0.00021628346420402,2800663.5455992,0.016968468450207
38391759,0.99731527825236,0.017165042169809,0.0055756399992046,0.006702260064113,0.0048871421064916,-0.0012874994325936,0.001287499889725,9.752678582952e-11,9.7526680979782e-11,1.8733705189342e-10,1.0611824795449e-10,-0.00042663965569688,0.0004266407223758,-0.0012185811774131,0.0012185819186218,-0.0012185813151939,0.0012185820564176,-0.00042663986784611,0.00042664108208042,-0.00042663958242215,0.0004266407966825,-0.00121858110259,0.0012185819958019,-0.0012185812406039,0.0012185821338316,-0.0015321661399767,0.0015321662522252,-0.0015321661629569,0.001532166275205,-0.001532166166716,0.0015321662247728,-0.0015321661894986,0.0015321662475546,-0.0013187782402346,0.0013187783747973,-0.0013187782751445,0.0013187784097044,-0.0013187782140162,0.0013187784004569,-0.0013187782500414,0.0013187784364815,-0.00042663994163582,0.00042664100830156,-1.2789128124444e-11,6.1068089294144e-11,1.0163839707556e-11,3.6268646488334e-11,-0.0017559693003157,0.0017559693471502,-0.0017312081976277,0.0017312082432273,-0.0017238059706944,0.0017238059379162,-0.00172380579762,0.0017238059084966,-0.0017159113668564,0.0017159113769801,-0.0017159115000734,0.0017159115305121,-0.0017159112692247,0.001715911331432,-0.0017159114024479,0.0017159114849636,-0.0017312085445532,0.0017312085914964,-0.0017312081869126,0.0017312082827543,-0.0017238059814766,0.0017238059671295,-0.0017238058083937,0.0017238059377072,-0.0017312085552757,0.0017312085519859,7.0412881312165e-12,7.0416724185059e-12,-0.0010078071232639,0.0010078074092046,6.5799188097801e-11,3.7339327316534e-11,-0.00089704887484903,0.00089704921266644,-0.00076964349275701,0.00076964426292814,-0.00076964351229866,0.00076964428247861,-0.00089704867083036,0.00089704905944911,-0.00089704884791587,0.00089704923652815,-0.0007696434686848,0.00076964428773098,-0.00076964348735192,0.00076964430641092,-0.001251231506939,0.0012512314556602,-0.0012512315167757,0.0012512314461965,-0.0012512314700196,0.0012512314187437,-0.0012512314793743,0.0012512314087985,-0.0012686942660578,0.0012686942097559,-0.0012686944041939,0.0012686943478883,-0.0012686943941066,0.0012686943565092,-0.0012686942574177,0.0012686942198171,-0.00089704869488887,0.00089704903272237,0.71704436579938,122718,2924,0.0053534459340577,0.0072881815098135,0.00419227356327,37.196098189767,0.00021276878551813,0.00021276878551813,0.00021276878551813,2769092.6273333,0.016977447270046
38880000,0.99799338367655,0.017177152726346,0.0055795790224586,0.0067070693658677,0.0048905043380194,-0.0012870765851911,0.001287076992908,8.5512324054257e-11,8.5553209069954e-11,1.7948560160278e-10,9.4605257080218e-11,-0.00042092026330264,0.00042092124738078,-0.001217766577486,0.0012177672719555,-0.0012177667082317,0.0012177674025069,-0.00042092045752695,0.00042092159567443,-0.00042092018592562,0.00042092132372473,-0.001217766498833,0.0012177673531218,-0.0012177666312741,0.0012177674847628,-0.0015330926369693,0.0015330927161024,-0.0015330926561006,0.001533092734939,-0.0015330926650223,0.0015330926874578,-0.001533092683333,0.0015330927057946,-0.0013190405800917,0.0013190406785108,-0.0013190406187171,0.0013190407172406,-0.0013190405521771,0.0013190407048833,-0.0013190405923782,0.0013190407453267,-0.00042092053727582,0.00042092152058637,-1.4392940070266e-11,6.4037402054266e-11,7.9339425940881e-12,3.9722058165448e-11,-0.0017592232093577,0.0017592232575313,-0.0017347312990561,0.0017347313493497,-0.0017273780060739,0.0017273779674013,-0.0017273778253391,0.001727377939305,-0.0017183733206425,0.0017183733291065,-0.0017183734516275,0.0017183734834218,-0.0017183732227005,0.0017183732859934,-0.0017183733525737,0.001718373439283,-0.0017347316535856,0.0017347316989058,-0.0017347312879651,0.0017347313920313,-0.0017273780206714,0.0017273780054486,-0.0017273778406284,0.0017273779785613,-0.0017347316647106,0.0017347316548244,-6.8776943895777e-12,-6.8729328233847e-12,-0.0010055074888472,0.0010055076619197,5.835492291297e-11,2.5434664867124e-11,-0.00089204871019704,0.00089204895208748,-0.00076551898588484,0.00076551961907707,-0.000765519004102,0.00076551963868227,-0.00089204850752563,0.00089204881031176,-0.00089204867953207,0.00089204898220576,-0.00076551895632957,0.000765519647877,-0.00076551897552235,0.00076551966633884,-0.0012510568059675,0.001251056687601,-0.0012510568173446,0.0012510566768868,-0.0012510567686599,0.0012510566503201,-0.0012510567796566,0.0012510566391824,-0.0012678956865412,0.0012678955715894,-0.0012678958222198,0.0012678957072019,-0.0012678958109617,0.00126789571744,-0.0012678956767089,0.0012678955833443,-0.00089204853579222,0.00089204877806102,0.74364572121898,122718,2924,0.0053517421088649,0.0073016197895814,0.0041827593099378,37.193652950058,0.00021274922360046,0.00021274922360046,0.00021274922360046,2713493.1517952,0.016979727722348
