time,ASR_ext,ASR_strain,ASR_strain_xx,ASR_strain_yy,ASR_strain_zz,disp_x_101,disp_x_102,disp_x_103,disp_x_104,disp_x_105,disp_x_106,disp_x_p10_neg,disp_x_p10_pos,disp_x_p11_neg,disp_x_p11_pos,disp_x_p12_neg,disp_x_p12_pos,disp_x_p13_neg,disp_x_p13_pos,disp_x_p14_neg,disp_x_p14_pos,disp_x_p15_neg,disp_x_p15_pos,disp_x_p16_neg,disp_x_p16_pos,disp_x_p1_neg,disp_x_p1_pos,disp_x_p2_neg,disp_x_p2_pos,disp_x_p3_neg,disp_x_p3_pos,disp_x_p4_neg,disp_x_p4_pos,disp_x_p5_neg,disp_x_p5_pos,disp_x_p6_neg,disp_x_p6_pos,disp_x_p7_neg,disp_x_p7_pos,disp_x_p8_neg,disp_x_p8_pos,disp_x_p9_neg,disp_x_p9_pos,disp_y_101,disp_y_102,disp_y_103,disp_y_104,disp_y_105,disp_y_106,disp_y_p10_neg,disp_y_p10_pos,disp_y_p11_neg,disp_y_p11_pos,disp_y_p12_neg,disp_y_p12_pos,disp_y_p1_neg,disp_y_p1_pos,disp_y_p2_neg,disp_y_p2_pos,disp_y_p3_neg,disp_y_p3_pos,disp_y_p4_neg,disp_y_p4_pos,disp_y_p5_neg,disp_y_p5_pos,disp_y_p6_neg,disp_y_p6_pos,disp_y_p7_neg,disp_y_p7_pos,disp_y_p8_neg,disp_y_p8_pos,disp_y_p9_neg,disp_y_p9_pos,disp_z_101,disp_z_102,disp_z_103,disp_z_104,disp_z_105,disp_z_106,disp_z_p10_neg,disp_z_p10_pos,disp_z_p11_neg,disp_z_p11_pos,disp_z_p12_neg,disp_z_p12_pos,disp_z_p13_neg,disp_z_p13_pos,disp_z_p14_neg,disp_z_p14_pos,disp_z_p15_neg,disp_z_p15_pos,disp_z_p16_neg,disp_z_p16_pos,disp_z_p1_neg,disp_z_p1_pos,disp_z_p2_neg,disp_z_p2_pos,disp_z_p3_neg,disp_z_p3_pos,disp_z_p4_neg,disp_z_p4_pos,disp_z_p5_neg,disp_z_p5_pos,disp_z_p6_neg,disp_z_p6_pos,disp_z_p7_neg,disp_z_p7_pos,disp_z_p8_neg,disp_z_p8_pos,disp_z_p9_neg,disp_z_p9_pos,humidity,ndof,nelem,strain_xx,strain_yy,strain_zz,temp,thermal_strain_xx,thermal_strain_yy,thermal_strain_zz,vonmises,vstrain
14391759,0,0,0,0,0,0,0,0,0,0,0,0,0,0,0,0,0,0,0,0,0,0,0,0,0,0,0,0,0,0,0,0,0,0,0,0,0,0,0,0,0,0,0,0,0,0,0,0,0,0,0,0,0,0,0,0,0,0,0,0,0,0,0,0,0,0,0,0,0,0,0,0,0,0,0,0,0,0,0,0,0,0,0,0,0,0,0,0,0,0,0,0,0,0,0,0,0,0,0,0,0,0,0,0,0,0,0,0,0,0,0,0,0,0,0,0,0,0,0,0,0,0,0
14891759,0.063426408223622,0.0010178178342464,0.00033927261141547,0.00033927261141547,0.00033927261141547,-0.00011767363805022,0.00011767194007771,-4.4940403545638e-10,-4.494040066374e-10,-7.0576850672717e-10,-4.0567619723094e-10,-0.00010475278207333,0.00010474908389949,-0.00011375097921182,0.00011374936941521,-0.00011375231188062,0.00011375070208999,-0.00010475145467932,0.00010474721048424,-0.00010475304657163,0.00010474880237293,-0.00011375126522276,0.00011374908457288,-0.00011375259103906,0.00011375041039181,-0.00012330170027766,0.00012330099579549,-0.00012330223891013,0.00012330153442149,-0.000123301599229,0.00012330109734391,-0.00012330214096221,0.00012330163907127,-0.00011490782287307,0.00011490723342564,-0.00011490833714205,0.00011490774768712,-0.00011490792275219,0.00011490713886405,-0.00011490843039967,0.00011490764651085,-0.00010475117663778,0.00010474747845975,9.0936600261784e-11,-1.9026281048777e-10,1.1184956727103e-10,-2.071396528916e-10,-0.00012107916901757,0.00012107907334629,-0.00011779306652858,0.00011779275931085,-0.0001183111210114,0.0001183114058073,-0.00011831215521809,0.00011831189226354,-0.00012387636492456,0.00012387648697151,-0.00012387672806641,0.00012387662027774,-0.00012387642623637,0.00012387634468658,-0.00012387678937828,0.00012387647798984,-0.00011779146662537,0.00011779158405621,-0.00011779295700676,0.00011779245613411,-0.00011831093325637,0.00011831099982683,-0.00011831196745797,0.00011831148628037,-0.00011779157614063,0.00011779188723398,-7.2718708521046e-10,-7.2718710852813e-10,-0.00011618134835917,0.00011617748595749,-1.0544757571513e-09,-7.1950251006376e-10,-0.00010944098663271,0.0001094381314993,-0.00011089514877633,0.00011089065235466,-0.00011089482153318,0.00011089032510986,-0.00010944231958156,0.000109438852352,-0.00010944130132099,0.0001094378340965,-0.00011089546425616,0.00011089033004756,-0.00011089514471021,0.00011089001050285,-0.00012163031121529,0.00012162891974902,-0.00012163019505924,0.00012162903215957,-0.00012163042976305,0.00012162903829188,-0.00012163031712573,0.00012162915422462,-0.00011509909586843,0.00011509810676139,-0.00011509891796334,0.00011509792884761,-0.00011509903144846,0.00011509782364868,-0.00011509920165047,0.00011509799385564,-0.00010944202107048,0.00010943916595895,0.64373504832551,122718,2924,0.00049018213913526,0.00050436753779793,0.00048396264853602,30.453758372882,0.00015883006698306,0.00015883006698306,0.00015883006698306,1266786.5303974,0.0014796117768284
15391759,0.11459171260411,0.0018521301533899,0.00061741233892146,0.00062250534321072,0.0006122124712577,-0.00017608835773976,0.00017608787150093,-1.7405347021611e-10,-1.7405143192911e-10,-2.3432791852382e-10,-8.3320904963841e-11,-0.00015208956072926,0.00015208913210948,-0.00017001593635744,0.00017001562539729,-0.00017001673338186,0.00017001642249694,-0.00015208904891908,0.00015208832287417,-0.00015208970457031,0.00015208897843146,-0.00017001608762808,0.00017001547428331,-0.00017001688039091,0.00017001626712137,-0.00018707479422052,0.0001870744097825,-0.00018707517991967,0.0001870747954933,-0.00018707474437871,0.00018707446071072,-0.00018707513170004,0.00018707484804237,-0.00017214085129064,0.00017214054967333,-0.00017214142143591,0.00017214111982706,-0.00017214090174594,0.00017214050082876,-0.0001721414693823,0.00017214106847405,-0.00015208889816645,0.00015208846963946,1.8200195937684e-11,-1.2762613967522e-10,8.5222577946243e-11,-1.9208812230663e-10,-0.00018362891123827,0.00018362880420475,-0.00017776890137148,0.00017776857151225,-0.00017950152557207,0.00017950165302892,-0.0001795017394678,0.00017950157914387,-0.00018880156214654,0.000188801598125,-0.00018880224279367,0.00018880209009872,-0.00018880175052714,0.00018880169111176,-0.00018880243118335,0.00018880218309499,-0.00017776810711241,0.00017776822401562,-0.00017776898214028,0.00017776855622748,-0.0001795016499631,0.00017950159190236,-0.00017950186389829,0.00017950151805773,-0.00017776802639374,0.00017776823935263,-4.8700109726662e-10,-4.8699919829187e-10,-0.00017190974021004,0.00017190813940317,-5.4378857634596e-10,-2.584594199255e-10,-0.00016197810529488,0.00016197718299819,-0.00016298957936642,0.00016298826012455,-0.00016298943871758,0.00016298811945959,-0.00016197858656596,0.00016197711617104,-0.00016197838177477,0.00016197691138754,-0.0001629898581809,0.00016298798042611,-0.00016298971863346,0.00016298784086691,-0.00018227778883372,0.00018227668411458,-0.0001822776921664,0.00018227678018868,-0.00018227786033013,0.00018227675560529,-0.00018227776430704,0.00018227685232556,-0.00017237021621847,0.00017236932365876,-0.00017237011593027,0.00017236922335968,-0.00017237021089236,0.00017236913039687,-0.00017237030957247,0.00017236922908898,-0.0001619783141339,0.00016197739183493,0.66498198186136,122718,2924,0.00073343033567078,0.00076482388386859,0.00071602910352817,27.265661802316,0.00013332529441853,0.00013332529441853,0.00013332529441853,1673581.5476345,0.0022167502686857
15891759,0.16091315428586,0.00269398392768,0.00089730312502684,0.00091458787042493,0.00088209293222826,-0.00023811091338604,0.00023811065256162,-9.3973168662144e-11,-9.3969982564625e-11,-1.0769833958818e-10,-1.454203431701e-11,-0.00020101790378631,0.00020101820824368,-0.00023176199831568,0.00023176190521572,-0.00023176247422466,0.00023176238127562,-0.00020101783688535,0.0002010179533848,-0.00020101799539864,0.00020101811182097,-0.00023176209136751,0.00023176181144362,-0.00023176256555911,0.00023176228578604,-0.00025293680001076,0.00025293649847119,-0.00025293704895151,0.00025293674738869,-0.00025293676944001,0.00025293653005707,-0.00025293701905502,0.00025293677964675,-0.00023553089316167,0.00023553067335328,-0.00023553124417576,0.0002355310243918,-0.00023553092431112,0.0002355306425751,-0.00023553127438032,0.00023553099266879,-0.00020101774223492,0.00020101804677021,-2.1317750448533e-12,-9.2423890337122e-11,6.4881488120957e-11,-1.5808611444904e-10,-0.00025233819578436,0.00025233810265725,-0.00024623633322746,0.00024623605144165,-0.00024868156086962,0.00024868162863348,-0.00024868156563624,0.00024868145685407,-0.00025662441832453,0.00025662443022508,-0.00025662497631744,0.00025662483854505,-0.00025662455579646,0.00025662450884607,-0.00025662511372689,0.00025662491710357,-0.00024623619811299,0.00024623629403106,-0.00024623640360527,0.00024623606280396,-0.000248681759288,0.00024868167905303,-0.00024868176419224,0.00024868150741235,-0.00024623612776455,0.00024623628270173,-3.3283343948696e-10,-3.3283056429655e-10,-0.00022989064070857,0.00022988961473827,-3.2621959676786e-10,-9.824171118895e-11,-0.00022048597873556,0.00022048567103357,-0.00021789681536236,0.00021789639643608,-0.00021789675403974,0.00021789633508284,-0.00022048606445486,0.00022048531322928,-0.00022048620130184,0.00022048544999548,-0.00021789703985115,0.0002178961717365,-0.00021789697839099,0.0002178961102475,-0.00024381730932322,0.00024381636111813,-0.00024381723261985,0.00024381643798179,-0.00024381734241981,0.000243816394207,-0.00024381726577928,0.00024381647113511,-0.00023536632369178,0.00023536560380703,-0.00023536629423678,0.00023536557436837,-0.00023536636977374,0.00023536549921,-0.0002353663990378,0.00023536552845951,-0.00022048584314541,0.00022048553552967,0.7444907159995,122718,2924,0.00099163870805145,0.0010508510170409,0.00095741701661491,25.413175887604,0.00011850540710083,0.00011850540710083,0.00011850540710083,1539211.7588563,0.0030044253537782
16391759,0.20609256929633,0.003524696309064,0.0011714507730345,0.0012116882207987,0.0011415573152308,-0.00029989147986114,0.00029989131501311,-6.4040505400637e-11,-6.4035246263506e-11,-4.8825790170332e-11,9.8860288121353e-12,-0.00024167186903706,0.00024167242925264,-0.00029346118127584,0.0002934611919825,-0.00029346153037152,0.00029346154127808,-0.00024167200539333,0.00024167244296763,-0.00024167192908732,0.00024167236661724,-0.00029346124029335,0.00029346113226973,-0.0002934615889238,0.00029346148110058,-0.00031979661841228,0.00031979636321038,-0.00031979679772701,0.00031979654248787,-0.00031979659933342,0.00031979638302217,-0.00031979677894449,0.00031979656259327,-0.00029877544112848,0.00029877525210401,-0.00029877559030713,0.00029877540130135,-0.00029877546074659,0.00029877523245325,-0.00029877560954865,0.00029877538127234,-0.00024167194385202,0.00024167250411231,-1.1461182295219e-11,-6.8653579062638e-11,5.231806002065e-11,-1.3185461867456e-10,-0.00032403771108486,0.00032403763180014,-0.00031778280275088,0.00031778256124182,-0.00032005682547265,0.00032005686160837,-0.0003200567902063,0.00032005671524751,-0.00032679704629447,0.00032679704802573,-0.00032679750652396,0.00032679738475192,-0.00032679713230823,0.00032679709676635,-0.0003267975924477,0.00032679743340325,-0.00031778277448314,0.00031778285727799,-0.0003177828425059,0.00031778256426669,-0.00032005700048588,0.00032005691516663,-0.00032005696523334,0.00032005676882187,-0.00031778273476354,0.00031778285429059,-2.3274244571571e-10,-2.3273779495578e-10,-0.00028625023003372,0.00028624949410247,-2.2836235919541e-10,-4.0654976513779e-11,-0.00027697346210353,0.00027697337781391,-0.00026960748708333,0.00026960731707282,-0.00026960744673456,0.00026960727670708,-0.00027697342697841,0.00027697297450279,-0.00027697364631377,0.00027697319378156,-0.00026960767282363,0.00026960713138593,-0.00026960763176899,0.00026960709031743,-0.00030511688670782,0.00030511605035689,-0.00030511682379468,0.00030511611367289,-0.00030511690616648,0.00030511606981102,-0.00030511684313773,0.00030511613301218,-0.00029802766438232,0.00029802712228464,-0.00029802765876303,0.00029802711667135,-0.00029802772078421,0.00029802705450075,-0.00029802772674573,0.00029802706045906,-0.00027697324288483,0.00027697315865781,0.7519798507018,122718,2924,0.0012487776500454,0.0013492367276102,0.001192000616513,24.448517272239,0.00011078813817792,0.00011078813817792,0.00011078813817792,1719236.0229607,0.0037972233457655
16891759,0.25085292380538,0.0043991095016436,0.0014580187585992,0.0015334192455971,0.0014076714974473,-0.00036536971852931,0.00036536960283563,-5.062258672796e-11,-5.0614311899867e-11,-2.7683386482722e-11,1.5527418103918e-11,-0.00028277520628481,0.00028277590112641,-0.00035982514824451,0.00035982518362477,-0.00035982541696946,0.00035982545255978,-0.00028277545516264,0.00028277605699234,-0.00028277525209814,0.00028277585389984,-0.00035982519221817,0.00035982513915398,-0.00035982546099784,0.00035982540814485,-0.00039066620379776,0.00039066596972505,-0.00039066634797262,0.00039066611388153,-0.00039066618972356,0.00039066598423935,-0.0003906663341028,0.00039066612859775,-0.0003661883487174,0.00036618817539134,-0.00036618841786375,0.00036618824455102,-0.00036618836335366,0.00036618816078721,-0.00036618843222566,0.00036618822967406,-0.0002827754085183,0.00028277610339016,-1.3582586017203e-11,-5.6063647191121e-11,4.6835479539132e-11,-1.163507625126e-10,-0.00040187382422866,0.00040187375506945,-0.00039666660044622,0.0003966663845221,-0.00039743895407071,0.00039743897899949,-0.00039743895056013,0.00039743889340696,-0.00040192359837053,0.00040192359862436,-0.00040192400043383,0.00040192389085636,-0.00040192365733085,0.00040192362967406,-0.00040192405931458,0.00040192392182762,-0.00039666670128475,0.00039666677844691,-0.00039666662533001,0.00039666638247528,-0.00039743911212337,0.0003974390297848,-0.00039743910852654,0.00039743894410974,-0.00039666667644243,0.00039666678054046,-2.0131006013503e-10,-2.0130274578874e-10,-0.00034485994342781,0.00034485935693915,-1.8366066305063e-10,-1.757413168576e-11,-0.00033662266613916,0.00033662266065817,-0.00032284220324829,0.00032284220030545,-0.00032284218118363,0.00032284217823964,-0.00033662255499942,0.00033662222232804,-0.00033662282961037,0.00033662249691136,-0.00032284236812097,0.00032284203554813,-0.0003228423451236,0.00032284201255316,-0.00036898496011207,0.00036898418564415,-0.00036898490444836,0.00036898424177432,-0.00036898496975388,0.00036898419528448,-0.00036898491391803,0.00036898425124251,-0.00036524829844852,0.0003652478173,-0.0003652483126609,0.00036524783149593,-0.00036524836749093,0.00036524777630601,-0.00036524835378159,0.00036524776261554,-0.00033662239133046,0.00033662238588494,0.80138220899585,122718,2924,0.0015212406343734,0.0016730574306815,0.001435894418064,23.815442694836,0.00010572354155869,0.00010572354155869,0.00010572354155869,1994184.8054974,0.0046409473107514
17391759,0.29112303054785,0.005094924568625,0.0016854486382114,0.0017953989831888,0.0016140769472249,-0.0004146179449597,0.00041461797670692,-1.1614002450197e-11,-1.1603439228779e-11,3.2827381322505e-11,4.5394924627978e-11,-0.0003060144213138,0.00030601543521287,-0.00040690062508269,0.00040690079087012,-0.00040690075704824,0.00040690092305307,-0.00030601482186335,0.00030601579909198,-0.00030601443993025,0.00030601541713759,-0.00040690063978612,0.00040690077587705,-0.0004069007725284,0.00040690090883979,-0.00044726351910425,0.00044726334860883,-0.0004472636000548,0.00044726342955222,-0.00044726351524048,0.00044726335274932,-0.0004472635961116,0.00044726343361185,-0.00041547688845556,0.00041547676688881,-0.00041547687593563,0.00041547675438281,-0.0004154768930196,0.0004154767619897,-0.00041547688080058,0.00041547674978626,-0.00030601480377979,0.00030601581769967,-2.0746485503227e-11,-3.4539853978229e-11,3.3504133707008e-11,-8.9226409466497e-11,-0.0004635875718609,0.00046358751658512,-0.00045761375450156,0.00045761358182882,-0.00045779237250066,0.00045779236991498,-0.00045779229929544,0.00045779227067696,-0.00046261370325154,0.000462613693057,-0.00046261404437421,0.00046261395258042,-0.00046261374080364,0.00046261372286829,-0.00046261408184568,0.00046261398231187,-0.00045761401267629,0.00045761407405743,-0.00045761377719058,0.00045761359714417,-0.00045779252844556,0.00045779244607302,-0.00045779245511489,0.0004577923467144,-0.00045761399003186,0.00045761405879146,-1.2863706474114e-10,-1.2862783581581e-10,-0.00038721104659779,0.00038721082446815,-8.2922168044337e-11,4.0998423864529e-11,-0.00037596029934179,0.000375960545521,-0.00035776504101047,0.00035776544369409,-0.00035776505042206,0.00035776545311197,-0.00037596005783587,0.00037596005494337,-0.00037596042296821,0.00037596042005617,-0.00035776516581183,0.00035776531955659,-0.00035776517364563,0.00035776532739755,-0.00041843443553833,0.00041843380697397,-0.00041843439429605,0.00041843384895868,-0.00041843443116762,0.00041843380260215,-0.00041843438947892,0.00041843384414109,-0.00041431120379996,0.00041431082885775,-0.00041431124301758,0.00041431086804957,-0.00041431128369551,0.00041431082627565,-0.00041431124564387,0.00041431078825237,-0.00037595993257843,0.00037596017878211,0.7107781577386,122718,2924,0.0017261277747912,0.0019297255878678,0.0016120987552174,22.12369559164,9.2189564733116e-05,9.2189564733116e-05,9.2189564733116e-05,2245066.4570527,0.005281881732804
17891759,0.32487922107791,0.0055786277847078,0.001844596672329,0.0019784700805863,0.0017555610317925,-0.00044714999309114,0.00044715015038911,2.415139807372e-11,2.4163524416504e-11,8.9590362752386e-11,6.4096419913075e-11,-0.00032257990633542,0.00032258112221438,-0.00043720000332111,0.00043720027385021,-0.00043720001410643,0.00043720028485319,-0.00032258038928124,0.0003225816403473,-0.00032257988994099,0.00032258114099306,-0.00043719998133454,0.00043720029596283,-0.00043719999352783,0.00043720030837515,-0.00048593110324944,0.00048593100412347,-0.0004859311258088,0.00048593102668589,-0.00048593111192391,0.00048593099537793,-0.00048593113415739,0.00048593101761219,-0.00044586672530832,0.00044586665464592,-0.00044586665184422,0.00044586658119778,-0.00044586671735009,0.00044586666200457,-0.00044586664468374,0.00044586658935524,-0.0003225804073979,0.00032258162329223,-2.8804019277571e-11,-6.4453517901036e-12,1.6659433330453e-11,-5.3009837049101e-11,-0.00050298391581868,0.00050298387999852,-0.00049338987430159,0.00049338976047877,-0.00049406910807588,0.0004940690721788,-0.00049406897917631,0.00049406898808977,-0.00050483070034479,0.00050483067891607,-0.00050483096458137,0.00050483089784063,-0.00050483071027471,0.0005048307058172,-0.00050483097443043,0.0005048309246621,-0.0004933902436771,0.00049339028479163,-0.00049338988848773,0.00049338979171257,-0.00049406924961107,0.00049406916957335,-0.00049406912057532,0.00049406908535172,-0.00049339022953702,0.00049339025360806,-7.0851935453877e-11,-7.0841324933467e-11,-0.00041452268978885,0.00041452275619338,-2.732066642938e-13,6.9047293631436e-11,-0.00040055947054258,0.00040055984851778,-0.00038021498829906,0.0003802156537795,-0.00038021502608921,0.00038021569157935,-0.00040055911419031,0.00040055934686785,-0.00040055954146746,0.00040055977413059,-0.00038021506043098,0.00038021558282721,-0.00038021509600642,0.00038021561841438,-0.00045105846594422,0.00045105798996564,-0.00045105844321888,0.00045105801369203,-0.00045105844919282,0.00045105797321361,-0.00045105842576001,0.00045105799623329,-0.00044454894731195,0.00044454865777552,-0.00044454900567445,0.00044454871610465,-0.00044454902804193,0.0004445486919121,-0.00044454897148717,0.00044454863539276,-0.00040055904019418,0.00040055941819031,0.59260256382937,122718,2924,0.0018614470091456,0.0020935366243569,0.0017257143700219,19.640238196606,7.2321905572852e-05,7.2321905572852e-05,7.2321905572852e-05,2592331.478246,0.0056969071488447
18391759,0.35389134131332,0.0059924559054109,0.001980880748738,0.0021353298633223,0.0018762452933507,-0.00047529654340233,0.00047529671734584,3.0925527062553e-11,3.0938957527261e-11,1.0540013221596e-10,5.684590858769e-11,-0.00033863949738303,0.00033864069984139,-0.00046501656816942,0.00046501683958922,-0.00046501653606132,0.00046501680770305,-0.00033863998798974,0.00033864127100962,-0.00033863945864584,0.00033864074165435,-0.00046501652378516,0.0004650168848028,-0.0004650164932141,0.00046501685445513,-0.000518494126168,0.00051849405244517,-0.00051849412601862,0.00051849405230621,-0.00051849414226139,0.00051849403588558,-0.0005184941417544,0.00051849403538681,-0.00047264566102985,0.00047264559937353,-0.00047264556406606,0.00047264550242718,-0.00047264564556795,0.00047264561440801,-0.00047264554940383,0.00047264551826253,-0.00033864002861034,0.00033864123108201,-3.1144331767925e-11,1.3689750522813e-11,4.7485955071962e-12,-2.3761902649008e-11,-0.00053614947724003,0.00053614945882522,-0.00052392949777066,0.00052392943409702,-0.00052442961528197,0.00052442956139141,-0.00052442948500088,0.00052442952013313,-0.00054050194706223,0.00054050192210022,-0.0005405021533396,0.00054050211018785,-0.00054050192809639,0.00054050193455366,-0.00054050213429276,0.00054050212256107,-0.00052392989861251,0.0005239299241291,-0.00052392949341146,0.00052392946167895,-0.00052442973910007,0.00052442966840609,-0.00052442960867184,0.00052442962700371,-0.00052392990301828,0.00052392989659735,-6.365368900386e-11,-6.364192534169e-11,-0.00043836588390431,0.000438365976913,1.4237796083706e-11,4.2116378691556e-11,-0.00042412437343579,0.00042412469230564,-0.00040123119796528,0.0004012318183424,-0.00040123124269721,0.00040123186308602,-0.00042412397444621,0.00042412422923605,-0.00042412440351716,0.00042412465829418,-0.00040123122944083,0.00040123178809455,-0.00040123127182895,0.00040123183049678,-0.00047843155806652,0.00047843113863464,-0.00047843154916331,0.00047843114855797,-0.00047843153701419,0.00047843111758306,-0.0004784315273676,0.00047843112676386,-0.00047122415859574,0.00047122387589671,-0.0004712242228633,0.00047122394012517,-0.00047122423141652,0.00047122392960071,-0.00047122416906374,0.00047122386728825,-0.00042412394095875,0.00042412425984741,0.59387052420227,122718,2924,0.0019785093065072,0.0022314177939085,0.0018248899966945,17.51650174067,5.5332013925358e-05,5.5332013925358e-05,5.5332013925358e-05,2851612.936354,0.0060531162451476
18891759,0.38192844578908,0.0064298954541437,0.0021244424054293,0.0023022308501268,0.0020032221985875,-0.00050741364420947,0.00050741372476184,5.2053704574468e-12,5.2199040869838e-12,7.291837470253e-11,3.1188601077293e-11,-0.00035199229702434,0.00035199332010045,-0.00049745552930629,0.0004974557131831,-0.00049745553868973,0.00049745572279667,-0.00035199273925746,0.00035199383206136,-0.00035199226332726,0.00035199335612177,-0.00049745549141298,0.00049745575258346,-0.00049745550192377,0.00049745576332762,-0.00055549958094894,0.00055549946682624,-0.0005554995991298,0.00055549948502097,-0.00055549959454429,0.00055549945255301,-0.00055549961256131,0.00055549947058154,-0.00050525316204931,0.00050525306197244,-0.00050525307634408,0.00050525297628735,-0.0005052531490294,0.00050525307510154,-0.00050525306364048,0.00050525298973279,-0.00035199277393664,0.00035199379702277,-2.6258168683912e-11,1.2661262413007e-11,2.4939038864776e-12,-1.7679909023268e-11,-0.00057673975973688,0.00057673974519324,-0.0005641710431725,0.00056417099386444,-0.00056350797195384,0.00056350792509837,-0.00056350789391595,0.00056350792473396,-0.00058079478231881,0.0005807947618092,-0.0005807949748651,0.0005807949403239,-0.00058079474520981,0.00058079475074332,-0.00058079493767447,0.00058079492917618,-0.0005641714098888,0.00056417142869199,-0.00056417101734519,0.00056417099558363,-0.00056350808144921,0.00056350802296597,-0.0005635080032472,0.00056350802244104,-0.00056417143576418,0.00056417142702503,-1.05255857489e-10,-1.0524332864315e-10,-0.00046539200744195,0.00046539188767717,-3.5065437451426e-11,-1.4544588829964e-11,-0.00045084624322594,0.00045084638403119,-0.00042397899407156,0.00042397935056747,-0.00042397902317917,0.0004239793796881,-0.00045084588680578,0.00045084598053396,-0.00045084626529603,0.00045084635901155,-0.00042397901758406,0.00042397932781739,-0.00042397904482746,0.00042397935507716,-0.0005099129931907,0.00050991250136072,-0.0005099129864321,0.00050991250889677,-0.00050991297672847,0.00050991248490015,-0.0005099129694436,0.00050991249191147,-0.0005037278989019,0.00050372754686197,-0.00050372795771331,0.00050372760563133,-0.00050372796396209,0.00050372759791141,-0.00050372790659116,0.00050372754058331,-0.00045084586230434,0.00045084600312641,0.65137566946256,122718,2924,0.0021120774030672,0.0024001402603815,0.0019372967877614,16.908611138483,5.0468889107866e-05,5.0468889107866e-05,5.0468889107866e-05,2913653.8812006,0.00647041929273
19391759,0.41147274069526,0.0069368803542763,0.0022894792640514,0.0024988498330226,0.0021485512572023,-0.00054622193264959,0.00054622191228895,-2.3369444858913e-11,-2.3354004360021e-11,2.6523111693026e-11,7.7556970834837e-12,-0.00036665679477461,0.00036665759467392,-0.0005365907389745,0.0005365908315563,-0.00053659081975476,0.00053659091257455,-0.00036665716909681,0.00036665799637222,-0.00036665678173689,0.00036665760900944,-0.00053659072316489,0.00053659084920247,-0.00053659080462025,0.00053659093089735,-0.00059994897075939,0.00059994881020026,-0.00059994901879437,0.00059994885825395,-0.00059994897661183,0.00059994880365031,-0.00059994902468628,0.00059994885174167,-0.000545688576073,0.00054568844186225,-0.00054568851328472,0.00054568837909321,-0.00054568857079211,0.00054568844769076,-0.00054568850786294,0.00054568838478258,-0.00036665718220811,0.00036665798211181,-1.7174892789403e-11,-1.2565427899509e-13,7.6459556565972e-12,-2.6321763388196e-11,-0.00062742066643453,0.00062742064840896,-0.00061564880413761,0.00061564874558697,-0.00061321808827097,0.00061321806399132,-0.00061321808306607,0.00061321809373191,-0.00062952097782407,0.00062952096688336,-0.00062952118001796,0.00062952114472671,-0.00062952093938968,0.00062952093877801,-0.00062952114149913,0.00062952111653756,-0.00061564905464302,0.00061564907576626,-0.00061564876851013,0.00061564872244358,-0.00061321818090002,0.00061321813541241,-0.00061321817551318,0.00061321816497421,-0.00061564909031747,0.00061564909896127,-1.5194008520337e-10,-1.5192700333728e-10,-0.00049780522849294,0.00049780486976116,-1.015500908091e-10,-6.6285763744278e-11,-0.00048268038194495,0.00048268033178515,-0.00045077924210622,0.00045077930074924,-0.00045077925092829,0.00045077930958695,-0.00048268011374709,0.00048267999028891,-0.00048268041771609,0.00048268029424582,-0.00045077927927394,0.00045077926388119,-0.00045077928680197,0.00045077927142477,-0.00054787143653309,0.00054787086249841,-0.00054787142455398,0.00054787087497778,-0.00054787142685627,0.00054787085282439,-0.00054787141459197,0.00054787086501825,-0.00054387568827994,0.00054387527297955,-0.00054387574120993,0.00054387532586434,-0.00054387575255126,0.0005438753136266,-0.00054387570052737,0.00054387526164902,-0.00048268007663039,0.00048268002648781,0.71635337683096,122718,2924,0.0022734565796043,0.0026107649256237,0.0020720968896143,17.474036238114,5.4992289904908e-05,5.4992289904908e-05,5.4992289904908e-05,2932794.0193415,0.0069806399802392
19891759,0.44390001636103,0.0074546103337955,0.0024576817587607,0.0027025352645682,0.0022943933104666,-0.00058670256033252,0.00058670245810672,-4.6087268646461e-11,-4.6070950711139e-11,-1.7078113745936e-11,-9.5185307595367e-12,-0.00038078806613432,0.00038078866983452,-0.00057564807643035,0.00057564809166046,-0.00057564823452712,0.00057564824999778,-0.00038078837883317,0.00038078896034165,-0.00038078807740171,0.00038078865891167,-0.00057564808595079,0.00057564808394603,-0.00057564824434673,0.00057564824258551,-0.00064750856668886,0.0006475083688188,-0.00064750864557416,0.00064750844772708,-0.0006475085638273,0.00064750837111096,-0.00064750864290476,0.00064750845020992,-0.00058682805575082,0.00058682789980997,-0.00058682801979616,0.00058682786387669,-0.00058682805922182,0.00058682789713811,-0.00058682802280524,0.000586827860744,-0.00038078836695984,0.00038078897065966,-7.5140586271374e-12,-1.5814271090756e-11,1.5650026681839e-11,-4.002381357938e-11,-0.00068110241096707,0.0006811023872118,-0.00066875923953778,0.00066875916284407,-0.00066530458065713,0.00066530458269997,-0.00066530464284986,0.00066530463011761,-0.00068220109570707,0.00068220109534196,-0.00068220132567471,0.00068220128591427,-0.00068220107038216,0.00068220106289563,-0.000682201300266,0.00068220125338278,-0.00066875934406111,0.00066875937199896,-0.00066875920556889,0.00066875912409636,-0.00066530466120033,0.00066530462728745,-0.00066530472319416,0.00066530467451091,-0.00066875937807667,0.00066875941079757,-1.9184908787291e-10,-1.9183558550491e-10,-0.00053096500490796,0.00053096443730554,-1.670603546906e-10,-1.093609022291e-10,-0.0005131875635651,0.00051318734876968,-0.00047687730011073,0.00047687708877707,-0.00047687729049985,0.00047687707918272,-0.00051318738439311,0.00051318705437401,-0.00051318762081544,0.0005131872907816,-0.00047687735865471,0.00047687703018614,-0.00047687734824287,0.0004768770197905,-0.00058797148029273,0.00058797083675834,-0.00058797146061392,0.00058797085669979,-0.00058797147736451,0.00058797083383142,-0.00058797145759384,0.00058797085368243,-0.00058449723742856,0.00058449677491301,-0.00058449728525637,0.00058449682269534,-0.0005844973042306,0.00058449680332463,-0.00058449725685027,0.00058449675599335,-0.00051318732671838,0.0005131871119371,0.66678161365177,122718,2924,0.002441768085238,0.0028338083614283,0.0022099871700343,18.684104408675,6.4672835269398e-05,6.4672835269398e-05,6.4672835269398e-05,3015880.0041638,0.007513736094464
20391759,0.47597940624644,0.0080155405512609,0.0026388185320247,0.0029255033383017,0.0024512186809344,-0.0006288541868464,0.00062885420085243,-1.621899722665e-11,-1.6201969232138e-11,2.2599411015271e-11,2.2640877086746e-11,-0.00040086884010145,0.00040086968113668,-0.00061820376666157,0.00061820389654673,-0.00061820384788886,0.00061820397801114,-0.00040086923242512,0.00040087006286589,-0.0004008688460546,0.00040086967649672,-0.00061820376924553,0.00061820389541848,-0.00061820385120678,0.00061820397762152,-0.00069521568188314,0.0006952155301861,-0.00069521573033993,0.00069521557867107,-0.00069521568178591,0.00069521552986568,-0.00069521573021297,0.00069521557831756,-0.00062991869627353,0.00062991858758562,-0.00062991863451999,0.00062991852585267,-0.00062991869716909,0.00062991858703507,-0.00062991863545213,0.00062991852534333,-0.00040086922679326,0.00040087006782907,-8.9132642647186e-12,-1.0928149446653e-11,1.1550819262753e-11,-3.2498378667428e-11,-0.00073519340281153,0.00073519338246872,-0.00072247216147963,0.00072247209703232,-0.00071744508270801,0.00071744507824882,-0.00071744508877384,0.00071744508131739,-0.00073566755478319,0.00073566755015982,-0.00073566778215564,0.00073566774759413,-0.00073566754355605,0.00073566753761021,-0.00073566777084027,0.00073566773496064,-0.00072247229284925,0.00072247231538108,-0.00072247214681331,0.00072247208215826,-0.00071744517691147,0.00071744514465904,-0.00071744518276963,0.0007174451475277,-0.00072247230756423,0.00072247233030343,-1.4503273674956e-10,-1.4501887924889e-10,-0.00056570607720358,0.00056570576529003,-1.0687338510983e-10,-6.206880391969e-11,-0.00054859952346442,0.00054859949506519,-0.00050673074820291,0.00050673081901613,-0.00050673075722204,0.00050673082805093,-0.00054859929462839,0.00054859917277496,-0.00054859956935272,0.00054859944748902,-0.00050673079505298,0.00050673077255325,-0.00050673080289045,0.00050673078040897,-0.00062783511143043,0.00062783456322231,-0.00062783509639371,0.00062783457871845,-0.00062783510307192,0.00062783455486737,-0.00062783508772841,0.00062783457005604,-0.00062700649573995,0.00062700610527836,-0.00062700655494913,0.00062700616443649,-0.00062700656955259,0.00062700614896327,-0.00062700651124076,0.00062700609070199,-0.00054859924737001,0.00054859921898424,0.7310461920672,122718,2924,0.0026169954481085,0.0030584984334391,0.0023544327503908,18.606971569311,6.4055772554487e-05,6.4055772554487e-05,6.4055772554487e-05,3151079.330675,0.0080623447041663
20891759,0.50508990998233,0.0084912239781892,0.0027924612162072,0.0031164260286411,0.0025823367333409,-0.00066091487265373,0.00066091502244783,1.8499013809003e-11,1.8516697283491e-11,8.0918427968159e-11,5.3497261989486e-11,-0.00040533414560741,0.00040533527739138,-0.00064830505977837,0.00064830532042765,-0.00064830503045399,0.00064830529134404,-0.00040533461616314,0.00040533578777873,-0.00040533412695729,0.00040533529858108,-0.00064830503608576,0.00064830534555979,-0.00064830500800256,0.00064830531771891,-0.0007347159278592,0.00073471583255521,-0.0007347159299769,0.00073471583470326,-0.00073471593695971,0.00073471582296304,-0.0007347159388088,0.00073471582483932,-0.00066289203012158,0.00066289196624384,-0.00066289192965986,0.00066289186580476,-0.0006628920219177,0.00066289197441628,-0.00066289192198858,0.00066289187451093,-0.00040533463612446,0.00040533576790408,-1.7063329491703e-11,6.7754528380961e-12,-1.1816557247581e-12,-1.056425991617e-11,-0.0007815284592534,0.00078152844813698,-0.00076864517757131,0.00076864514711125,-0.00076260020303006,0.00076260017105262,-0.00076260012415795,0.00076260013960583,-0.00078045578670608,0.00078045576975468,-0.0007804559754796,0.00078045595305122,-0.00078045576784873,0.00078045576802399,-0.00078045595653243,0.00078045595123423,-0.00076864544505697,0.0007686454519315,-0.00076864516798245,0.00076864515496304,-0.00076260030491993,0.00076260026867415,-0.00076260022583094,0.00076260023701608,-0.00076864545469363,0.00076864544413143,-8.9387459839401e-11,-8.937345760663e-11,-0.00059023284932821,0.00059023285730226,-1.6951127007647e-11,-8.2084069538756e-12,-0.00056993656397253,0.0005699367558787,-0.00052360742300421,0.00052360786689967,-0.00052360745800043,0.00052360790191554,-0.00056993623302586,0.00056993639836596,-0.00056993657581646,0.00056993674114715,-0.00052360743555913,0.00052360785522217,-0.00052360746885782,0.00052360788854249,-0.00065973012559184,0.00065972969483139,-0.00065973012291528,0.00065972969822282,-0.00065973010792646,0.00065972967716825,-0.00065973010469357,0.00065972968000427,-0.00065928456859222,0.00065928425040671,-0.00065928464230568,0.00065928432406735,-0.00065928464478258,0.00065928432010599,-0.0006592845725319,0.00065928424790904,-0.00056993621867243,0.00056993641059178,0.68432815189094,122718,2924,0.0027502766377839,0.0032509250535105,0.0024564107954187,17.403698748489,5.4429589987908e-05,5.4429589987908e-05,5.4429589987908e-05,3210358.0397584,0.0084935898939791
21391759,0.52985881857171,0.0088870693834131,0.002920319919642,0.0032761184442816,0.0026906310194896,-0.0006866261553396,0.00068662642737964,5.0264123994926e-11,5.0282422222693e-11,1.3966778556855e-10,7.2448789092165e-11,-0.00041409179052219,0.00041409315763474,-0.00067326004141029,0.00067326040745192,-0.00067325990335527,0.00067326026963958,-0.00041409231827543,0.00041409380049961,-0.00041409173491886,0.00041409321715388,-0.00067325997939805,0.00067326047130672,-0.00067325984305016,0.00067326033520357,-0.00076550599897755,0.00076550596355211,-0.00076550595288183,0.0007655059174896,-0.00076550602116558,0.00076550594055829,-0.00076550597459951,0.00076550589402313,-0.00068841395506224,0.00068841392904427,-0.00068841381685096,0.00068841379085562,-0.00068841393375325,0.00068841395011131,-0.00068841379648187,0.00068841381286553,-0.00041409237607329,0.00041409374317996,-2.8151245587006e-11,3.3807831252785e-11,-1.9965649386646e-11,2.3575065121473e-11,-0.00081636044292852,0.00081636044722432,-0.00080189497339647,0.00080189499694327,-0.00079535478305796,0.00079535471175606,-0.00079535462310435,0.00079535467394158,-0.00081594937270541,0.00081594933982762,-0.00081594950067455,0.00081594949851,-0.00081594933266422,0.00081594934307537,-0.00081594946054461,0.00081594950166968,-0.00080189538890691,0.0008018953723569,-0.00080189495774015,0.00080189502448948,-0.0007953548799388,0.00079535483993279,-0.00079535471976488,0.00079535480190372,-0.00080189540461147,0.00080189534486071,-4.0334312759069e-11,-4.031999732345e-11,-0.00060994001727866,0.00060994031546774,7.1769650190496e-11,2.6320484302272e-11,-0.00058913465346411,0.0005891350035983,-0.00053909349822758,0.0005390942544327,-0.0005390935584854,0.00053909431471011,-0.00058913420560245,0.00058913463236692,-0.00058913461302781,0.00058913503978076,-0.0005390934585172,0.00053909429547837,-0.00053909351652647,0.00053909435350936,-0.00068394784571515,0.00068394753967108,-0.0006839478613834,0.00068394752497544,-0.00068394781797552,0.00068394751193377,-0.00068394783284497,0.00068394749644055,-0.00068427020166944,0.00068426994222851,-0.00068427028936189,0.00068427002986738,-0.00068427027363586,0.00068427004344906,-0.00068427018798688,0.0006842699578541,-0.000589134242306,0.00058913459245603,0.67004884739747,122718,2924,0.002857142493174,0.003395551262,0.0025383395113781,15.326405173533,3.7811241388266e-05,3.7811241388266e-05,3.7811241388266e-05,3339227.6018892,0.0088299087308738
21891759,0.55200611543762,0.0092299062230784,0.0030310576872781,0.00341497822137,0.0027838703144303,-0.00070926897919504,0.00070926919727702,3.4571850736044e-11,3.4590683704827e-11,1.2590420753641e-10,4.6936077723279e-11,-0.00041903153674134,0.00041903277195863,-0.00069474221555937,0.00069474251265943,-0.00069474210814263,0.00069474240548716,-0.00041903200850716,0.00041903338383886,-0.00041903146842749,0.00041903284376725,-0.00069474214196345,0.00069474258881204,-0.00069474203595133,0.0006947424830457,-0.0007933111250743,0.00079331107141739,-0.00079331108721062,0.0007933110335888,-0.0007933111508153,0.0007933110445297,-0.00079331111263219,0.00079331100637871,-0.00071112190809687,0.0007111218539229,-0.00071112177797955,0.00071112172382998,-0.00071112188306164,0.000711121879162,-0.00071112175352758,0.00071112174965304,-0.00041903207838827,0.00041903331359666,-3.0526433203126e-11,4.3589599926467e-11,-3.0111122493524e-11,4.0887021694259e-11,-0.00084824155100708,0.00084824156250598,-0.00083274745818212,0.00083274751198384,-0.00082570740126788,0.0008257073162491,-0.00082570726089141,0.00082570732225251,-0.00084789911092272,0.00084789907316993,-0.00084789921200497,0.00084789922206805,-0.00084789905145424,0.00084789906389654,-0.00084789915244763,0.00084789921270732,-0.00083274787979988,0.00083274784727069,-0.00083274742311005,0.0008327475279365,-0.00082570747347016,0.00082570743772165,-0.00082570733287381,0.00082570744350759,-0.00083274791492107,0.000832747831369,-6.7888373521001e-11,-6.7873802312592e-11,-0.00062706370209977,0.00062706387935689,5.2083348599011e-11,-2.0164075208145e-11,-0.00060488229786277,0.00060488251031822,-0.00055153423672187,0.00055153481640529,-0.00055153428906228,0.00055153486876646,-0.00060488184898337,0.00060488219269241,-0.00060488223033275,0.00060488257402846,-0.00055153417019938,0.00055153488399559,-0.00055153422052973,0.00055153493435155,-0.0007058194094088,0.00070581907247608,-0.00070581943377182,0.00070581904895565,-0.00070581938293718,0.00070581904600924,-0.00070581940663123,0.00070581902182031,-0.00070647284154783,0.0007064725300899,-0.00070647292793959,0.00070647261642754,-0.00070647290332175,0.00070647263912585,-0.00070647281872773,0.0007064725545887,-0.00060488191326201,0.00060488212572938,0.65030596713663,122718,2924,0.0029512526919607,0.0035279056601993,0.0026095259582058,13.951855026846,2.681484021477e-05,2.681484021477e-05,2.681484021477e-05,3418912.4621092,0.0091302459532047
22391759,0.57513680569806,0.0095977700691762,0.0031494975739155,0.0035648255845979,0.0028834469106628,-0.00073808960175697,0.00073808957516613,-3.1647273623985e-11,-3.1627893686617e-11,2.172435104187e-11,-1.6028347021471e-11,-0.00042933964092233,0.00042934034693164,-0.0007227433038022,0.00072274335766363,-0.00072274339548109,0.00072274344958714,-0.00042933994783356,0.00042934071967938,-0.00042933960851746,0.00042934038037186,-0.00072274326952672,0.0007227433949533,-0.00072274336156268,0.0007227434872359,-0.00082732153245238,0.00082732137215483,-0.00082732157291984,0.00082732141265919,-0.00082732154420375,0.00082732135923041,-0.0008273215848429,0.00082732139990494,-0.00074030631789326,0.00074030617596689,-0.00074030625125267,0.00074030610935292,-0.00074030630668815,0.00074030618832724,-0.00074030623954413,0.00074030612121135,-0.00042933997973453,0.00042934068573317,-1.6399694088838e-11,1.9300048926165e-11,-1.8882342436812e-11,1.9974082540783e-11,-0.00088697751682604,0.00088697751861039,-0.00087076512113463,0.00087076514760481,-0.0008628827323464,0.00086288268587843,-0.00086288274541383,0.0008628827705757,-0.00088645977170574,0.0008864597507212,-0.00088645991295698,0.00088645991539144,-0.00088645971182704,0.00088645971267588,-0.00088645985298878,0.00088645987725677,-0.00087076533750532,0.00087076531303176,-0.00087076506444129,0.00087076511541984,-0.00086288276954062,0.00086288275003639,-0.0008628827823841,0.00086288283451086,-0.00087076539424886,0.00087076534526743,-1.7866347753171e-10,-1.7864870640833e-10,-0.00064999350187766,0.00064999309583797,-1.0414587970071e-10,-1.4164888399956e-10,-0.0006268486954241,0.00062684846707653,-0.00056978751876938,0.00056978739103219,-0.00056978752426226,0.0005697873965454,-0.00062684841303008,0.00062684825495681,-0.00062684865962152,0.00062684850153245,-0.0005697874843666,0.00056978742553702,-0.0005697874889486,0.00056978743014309,-0.00073354587956263,0.00073354533138427,-0.00073354589159036,0.0007335453196334,-0.00073354586839247,0.00073354532021798,-0.00073354588027411,0.00073354530832128,-0.00073506659668392,0.00073506612890913,-0.00073506666457997,0.00073506619675105,-0.00073506665182784,0.0007350662088236,-0.00073506658457074,0.00073506614162146,-0.00062684844791451,0.00062684821958182,0.66901198509521,122718,2924,0.0030710210063984,0.0036886957004747,0.0027048360982726,14.800676519623,3.3605412156982e-05,3.3605412156982e-05,3.3605412156982e-05,3483769.9468416,0.0095096299034266
22891759,0.59864383644211,0.0099291454238375,0.003256894463218,0.0036996671674965,0.002972583793123,-0.0007629918105306,0.0007629918143495,-2.2768850677241e-11,-2.2748953049806e-11,2.2513795689584e-11,3.8542013450298e-12,-0.00043358510016079,0.00043358587853001,-0.00074552565367092,0.00074552575497,-0.00074552573480767,0.00074552583635381,-0.00043358543458359,0.00043358624007736,-0.0004335850871035,0.0004335858926112,-0.00074552563807626,0.00074552577303023,-0.0007455257196836,0.00074552585488522,-0.00085850820263285,0.00085850805065883,-0.00085850823947115,0.00085850808753529,-0.00085850820838613,0.00085850804408193,-0.0008585082453262,0.00085850808105921,-0.00076510789702915,0.0007651077780558,-0.00076510782762263,0.00076510770867482,-0.00076510789207144,0.00076510778391266,-0.00076510782233593,0.00076510771420557,-0.00043358544741204,0.00043358622577021,-9.4177827637894e-12,6.9720686551472e-12,-1.286837623288e-11,8.9036967481761e-12,-0.00092245729507725,0.00092245729176809,-0.00090482866162413,0.00090482867263108,-0.0008967804961788,0.0008967804691955,-0.00089678051950225,0.000896780525874,-0.00092204804300481,0.00092204802835514,-0.00092204819656467,0.00092204819470146,-0.00092204799657569,0.00092204799164767,-0.00092204815004438,0.00092204815790451,-0.00090482885642295,0.00090482883736248,-0.00090482861686884,0.00090482863961736,-0.00089678054271975,0.0008967805314726,-0.00089678056581541,0.00089678058792733,-0.00090482890122581,0.00090482887042685,-1.6764313333762e-10,-1.6762819573545e-10,-0.00066879952023058,0.0006687991682539,-1.0057258186434e-10,-1.2139489419082e-10,-0.00064254136865917,0.00064254119936082,-0.00058266405640693,0.00058266400427613,-0.00058266406451629,0.00058266401240859,-0.00064254110219655,0.00064254096923748,-0.00064254134980807,0.00064254121683482,-0.00058266403867208,0.0005826640222677,-0.00058266404583849,0.00058266402945791,-0.00075832832734828,0.00075832779678398,-0.00075832833392379,0.00075832779048915,-0.00075832831566887,0.00075832778510704,-0.00075832832206015,0.0007583277786279,-0.00075921362587214,0.00075921318402672,-0.00075921369657592,0.00075921325467281,-0.000759213689422,0.00075921326112247,-0.00075921361941663,0.00075921319117398,-0.00064254112000681,0.00064254095072611,0.59348875359801,122718,2924,0.0031745080082545,0.0038359428601095,0.0027830085734404,15.340943078989,3.7927544631912e-05,3.7927544631912e-05,3.7927544631912e-05,3530932.2870643,0.009841740333794
23391759,0.62200621825472,0.010276087374456,0.0033688194943445,0.0038413782384725,0.0030658896416389,-0.00078988350175751,0.00078988353417437,-1.4885620563333e-11,-1.4865320712891e-11,2.8251783986216e-11,1.6295880319101e-11,-0.00044688219430328,0.00044688303417723,-0.00077216856903596,0.00077216870647531,-0.00077216863564168,0.00077216877332788,-0.00044688254884999,0.00044688340169635,-0.00044688218839655,0.00044688304125914,-0.00077216856006018,0.00077216871762735,-0.00077216862724825,0.00077216878506301,-0.00088970925114178,0.00088970910968446,-0.00088970928253724,0.00088970914112059,-0.00088970925485672,0.00088970910532673,-0.00088970928629247,0.00088970913680107,-0.00079155767723286,0.00079155757475137,-0.00079155760491428,0.00079155750245939,-0.0007915576744531,0.00079155757825564,-0.00079155760195282,0.00079155750578361,-0.00044688255478935,0.00044688339464938,-6.719779127125e-12,2.6986038830332e-12,-1.0818954194258e-11,5.3992614092113e-12,-0.00095679081658264,0.00095679081179324,-0.00093725182576775,0.0009372518320792,-0.00092874793183365,0.00092874791205983,-0.00092874795393466,0.00092874795357995,-0.00095780646381755,0.00095780645131229,-0.00095780662273177,0.00095780661989999,-0.00095780642516785,0.00095780641827412,-0.00095780658399096,0.00095780658677121,-0.00093725201153275,0.00093725199427935,-0.0009372517882611,0.00093725180176561,-0.00092874798395829,0.00092874797635354,-0.00092874800582976,0.00092874801764778,-0.00093725204908638,0.00093725202464247,-1.5742926815214e-10,-1.5741418227574e-10,-0.00069023094265427,0.00069023064783052,-9.1622754410539e-11,-1.0727218613813e-10,-0.00066451917989587,0.00066451905939142,-0.00060112761473005,0.00060112763333827,-0.00060112762654991,0.00060112764518058,-0.00066451891564062,0.00066451882022641,-0.0006645191665977,0.00066451907116949,-0.00060112760235288,0.0006011276460978,-0.00060112761316719,0.00060112765693582,-0.00078325393974641,0.00078325343092536,-0.00078325394468825,0.00078325342628728,-0.00078325392710078,0.00078325341828217,-0.000783253931815,0.00078325341341701,-0.0007851390744296,0.00078513865236695,-0.00078513914802794,0.0007851387259086,-0.00078513914261298,0.00078513873054557,-0.00078513906979582,0.00078513865778571,-0.00066451892772069,0.00066451880723249,0.62584069172871,122718,2924,0.0032862309482631,0.0039784101464972,0.0028720745914485,15.633964688479,4.0271717507835e-05,4.0271717507835e-05,4.0271717507835e-05,3641330.1676985,0.01018844215769
23891759,0.64671319446601,0.010697682666487,0.0035034988645994,0.0040154573162041,0.0031787264856833,-0.00082228303671508,0.00082228293721635,-5.1194459235588e-11,-5.1173533021928e-11,-3.0528373614436e-11,-1.620556713693e-11,-0.00045197214970906,0.00045197268987115,-0.00080365781100467,0.0008036578142755,-0.00080365799771466,0.00080365800123153,-0.00045197240861402,0.00045197291382228,-0.00045197216705021,0.00045197267227796,-0.00080365782707204,0.00080365780041829,-0.00080365801379981,0.00080365798739475,-0.0009287382320182,0.0009287380321229,-0.00092873831175787,0.00092873811190466,-0.00092873822689458,0.00092873803666835,-0.00092873830693075,0.00092873811674361,-0.0008260784163589,0.00082607826813447,-0.00082607838373947,0.0008260782355434,-0.0008260784223364,0.00082607826333381,-0.00082607838897142,0.00082607822999974,-0.00045197239023157,0.00045197293037779,1.378953815084e-12,-1.3848957129748e-11,-1.2615273435585e-12,-1.223548317027e-11,-0.0010041261295875,0.0010041261166752,-0.00098597027647558,0.00098597025687412,-0.00097554545088529,0.00097554545608046,-0.00097554555891749,0.00097554553548116,-0.0010023828878298,0.0010023828859056,-0.0010023830862494,0.0010023830744683,-0.0010023828581892,0.001002382844163,-0.001002383056516,0.0010023830326332,-0.00098597031793977,0.00098597031051575,-0.00098597023354665,0.00098597020421102,-0.00097554548773144,0.00097554548651129,-0.00097554559552915,0.0009755455656829,-0.00098597036091635,0.00098597036322993,-2.1796167860814e-10,-2.1794655011963e-10,-0.00071509165453421,0.00071509103383881,-1.8356872433677e-10,-1.7061632831954e-10,-0.00068722077534245,0.00068722041376798,-0.00061899579351704,0.00061899541602578,-0.00061899577811946,0.0006189954006515,-0.00068722062786032,0.00068722023914997,-0.00068722078888089,0.00068722040015403,-0.00061899580811098,0.0006189954012861,-0.00061899579233787,0.00061899538553845,-0.00081491095416471,0.00081491032640379,-0.00081491094918309,0.00081491033137744,-0.00081491095120723,0.0008149103234491,-0.00081491094628478,0.00081491032848211,-0.00081862775900587,0.00081862725759726,-0.00081862782152401,0.00081862732005741,-0.00081862782580755,0.00081862731569524,-0.0008186277634184,0.0008186272533637,-0.00068722061443449,0.00068722025287936,0.72029407872103,122718,2924,0.0034208566114183,0.00417479554454,0.0029754000139995,16.930508402663,5.06440672213e-05,5.06440672213e-05,5.06440672213e-05,3617679.7028895,0.01062731958719
24391759,0.67197029124316,0.011114813419174,0.0036370101875726,0.0041885684587816,0.0032892347728197,-0.00085237548695638,0.00085237541965505,-4.1611864580218e-11,-4.1590221403167e-11,-2.557855035755e-11,-1.34485303331e-13,-0.00044984709073923,0.00044984768602107,-0.00083120557682396,0.00083120561832852,-0.000831205757381,0.0008312057991339,-0.00044984736392,0.00044984790142247,-0.00044984711953323,0.00044984765705007,-0.00083120560371882,0.00083120559316163,-0.00083120578441042,0.00083120577410461,-0.00096720561281539,0.00096720542685526,-0.00096720569034184,0.00096720550442296,-0.00096720560425801,0.00096720543508861,-0.00096720568199931,0.00096720551287049,-0.00085819751640942,0.00085819739031839,-0.00085819748346896,0.00085819735740825,-0.00085819752596947,0.00085819738166799,-0.00085819749248185,0.00085819734821069,-0.00044984733440573,0.00044984792967323,5.1692003197726e-12,-2.1397570318915e-11,4.1554286427427e-12,-2.1193810955388e-11,-0.0010518993384636,0.0010518993219649,-0.0010346264727248,0.0010346264391825,-0.0010228340152132,0.001022834032671,-0.0010228341256914,0.0010228340919776,-0.0010470622396075,0.0010470622419211,-0.0010470624561331,0.0010470624398023,-0.0010470622254861,0.0010470622089143,-0.001047062441915,0.0010470624067028,-0.001034626479517,0.0010346264789917,-0.0010346264424937,0.0010346263917488,-0.0010228340612027,0.0010228340628189,-0.0010228341714433,0.0010228341218926,-0.001034626509797,0.0010346265264741,-2.0541868109497e-10,-2.054036433244e-10,-0.00073636143914101,0.0007363608708648,-1.8000935124597e-10,-1.5308683448244e-10,-0.00070321742944302,0.00070321711501206,-0.00063106639463773,0.00063106607904673,-0.00063106638134586,0.0006310660657834,-0.00070321730473184,0.00070321693464864,-0.00070321745719245,0.00070321708708634,-0.00063106642318492,0.00063106605048255,-0.00063106640947672,0.00063106603680034,-0.00084514375392985,0.00084514315061744,-0.00084514374442583,0.00084514316014349,-0.000845143750961,0.00084514314764936,-0.00084514374146455,0.00084514315718414,-0.00084928267194022,0.00084928220063389,-0.00084928273613491,0.00084928226477599,-0.00084928274508303,0.00084928225566975,-0.00084928268111187,0.00084928219175163,-0.00070321727692708,0.00070321696252838,0.6966732932835,122718,2924,0.0035459089052911,0.0043729505613052,0.0030638131930175,17.85414716453,5.8033177316241e-05,5.8033177316241e-05,5.8033177316241e-05,3571120.7684707,0.011043433351194
24891759,0.6968307029139,0.01147683259482,0.0037539759972191,0.0043380388828047,0.0033848177147967,-0.00087949970029243,0.00087949968791711,-2.7053848111746e-11,-2.7031838357658e-11,-5.7885491637965e-12,1.7425402754142e-11,-0.00045748190523834,0.00045748262521648,-0.00085641688164643,0.00085641698352691,-0.00085641702532294,0.00085641712745098,-0.00045748221012888,0.00045748287508419,-0.00045748193283714,0.00045748259781345,-0.00085641690651997,0.0008564169600714,-0.0008564170505451,0.00085641710434524,-0.0010007226361812,0.0010007224719996,-0.0010007227003961,0.0010007225362586,-0.0010007226285425,0.0010007224794593,-0.0010007226928634,0.0010007225438223,-0.00088479540338112,0.00088479529942227,-0.00088479536209106,0.00088479525816362,-0.00088479541213666,0.00088479529131199,-0.0008847953705512,0.00088479524976006,-0.0004574821822535,0.00045748290221397,4.114107199202e-12,-2.0761506691398e-11,3.8739117723016e-12,-2.1294893543855e-11,-0.0010899450531943,0.0010899450362912,-0.0010698845378538,0.001069884503305,-0.0010584812595285,0.0010584812748515,-0.0010584813442702,0.0010584813114859,-0.0010863230304129,0.0010863230308701,-0.0010863232510655,0.0010863232338681,-0.0010863230241244,0.0010863230076159,-0.0010863232446823,0.0010863232105195,-0.0010698845725248,0.0010698845722482,-0.0010698845159903,0.0010698844655539,-0.0010584813166953,0.0010584813165179,-0.0010584814011985,0.0010584813529178,-0.0010698845944348,0.0010698846100491,-1.8246734651107e-10,-1.8245234535683e-10,-0.00075611679328701,0.00075611635181263,-1.4979402152047e-10,-1.2369022303793e-10,-0.00072088317316521,0.00072088296342001,-0.00064553720290947,0.00064553705217395,-0.00064553719826173,0.00064553704755175,-0.00072088302882492,0.00072088276316035,-0.00072088320086522,0.00072088293518098,-0.00064553723113598,0.00064553702412143,-0.00064553722590461,0.00064553701891566,-0.00087073197786676,0.00087073141841579,-0.00087073196880638,0.00087073142759084,-0.0008707319725232,0.00087073141307411,-0.00087073196337454,0.0008707314221613,-0.00087477795000648,0.0008747775142854,-0.0008747780178942,0.00087477758211731,-0.00087477802654858,0.00087477757310066,-0.00087477795908413,0.00087477750569286,-0.00072088300069866,0.00072088279097354,0.61363158009264,122718,2924,0.0036585851216687,0.0045307223747711,0.0031459112616898,18.325510942276,6.1804087538207e-05,6.1804087538207e-05,6.1804087538207e-05,3637937.2115961,0.011399956105755
25391759,0.72276090704338,0.011916963780196,0.0038945539572108,0.00452111801735,0.0035012918056348,-0.00091522508362016,0.00091522492195177,-6.7963152169412e-11,-6.7940844792063e-11,-7.0295309997121e-11,-2.093977062791e-11,-0.00047480121304016,0.00047480161338519,-0.00089225125092217,0.00089225119963989,-0.00089225153072022,0.00089225147968345,-0.00047480142672075,0.00047480172491218,-0.00047480126344668,0.00047480156166154,-0.00089225130066912,0.00089225115138089,-0.00089225158019157,0.00089225143114809,-0.0010415920297207,0.0010415917977577,-0.0010415921503981,0.0010415919184798,-0.0010415920132421,0.001041591814105,-0.0010415921343208,0.0010415919352272,-0.00092104682111817,0.00092104666192239,-0.00092104682232613,0.00092104666316298,-0.00092104683859305,0.00092104664563019,-0.00092104683885264,0.0009210466459234,-0.00047480137484155,0.00047480177516444,1.1256937696516e-11,-3.782834078192e-11,1.404461277025e-11,-4.0999529374874e-11,-0.0011367990784666,0.0011367990519804,-0.0011154433711732,0.00111544330653,-0.0011030958924603,0.0011030959317222,-0.0011030960668231,0.0011030960108496,-0.0011335944614537,0.0011335944720735,-0.0011335947338024,0.0011335947051327,-0.0011335944656141,0.0011335944415991,-0.001133594737869,0.0011335946745639,-0.0011154432588389,0.0011154432696619,-0.0011154433431459,0.0011154432459585,-0.0011030959367907,0.001103095940143,-0.0011030961109131,0.0011030960190328,-0.0011154432869126,0.0011154433302823,-2.4988435251108e-10,-2.4986937507939e-10,-0.00078429062333758,0.00078428981458775,-2.5171998891113e-10,-1.9405111914357e-10,-0.0007505696273871,0.00075056916111732,-0.00067000409025244,0.00067000350144663,-0.00067000405554289,0.00067000346676131,-0.00075056959950329,0.00075056901985743,-0.00075056968459147,0.00075056910492351,-0.0006700041482459,0.00067000344303666,-0.00067000411361835,0.00067000340843731,-0.0009032069698222,0.00090320626930428,-0.0009032069497821,0.00090320628912474,-0.00090320697523803,0.00090320627472229,-0.00090320695542791,0.00090320629477129,-0.00090990601789694,0.00090990549134724,-0.00090990607354594,0.00090990554694081,-0.00090990609288707,0.00090990552800513,-0.00090990603693714,0.00090990547211279,-0.0007505695433344,0.00075056907708588,0.71638642109267,122718,2924,0.0038069512717914,0.0047249912949788,0.0032629630204119,19.829227642406,7.3833821139245e-05,7.3833821139245e-05,7.3833821139245e-05,3723896.1876597,0.011864998531429
25891759,0.74850067094945,0.012360071045271,0.0040357453482589,0.0047068563893421,0.0036174693076699,-0.00094602607374945,0.00094602598004819,-4.8499773262277e-11,-4.847677702362e-11,-4.9243166096254e-11,3.2253162629198e-12,-0.00046638602085104,0.00046638654120399,-0.00091961628494772,0.00091961630619815,-0.00091961652954475,0.00091961655104178,-0.00046638626439073,0.00046638667447342,-0.00046638607556546,0.00046638648567339,-0.00091961633782316,0.00091961625428602,-0.00091961658242786,0.00091961649913755,-0.0010822846723956,0.0010822844730251,-0.0010822847786454,0.0010822845793201,-0.0010822846551591,0.0010822844903496,-0.001082284761655,0.0010822845968897,-0.00095490836300432,0.00095490823909129,-0.00095490835514948,0.00095490823127078,-0.00095490838139523,0.00095490822148359,-0.00095490837295266,0.00095490821307667,-0.00046638620885067,0.00046638672917848,1.2620108523171e-11,-4.027112839173e-11,1.761731800891e-11,-4.5538383274826e-11,-0.0011892659616866,0.0011892659341949,-0.0011701188232711,0.001170118750739,-0.0011560351619325,0.0011560352065874,-0.0011560353177589,0.0011560352593622,-0.0011811480803874,0.0011811480927793,-0.0011811483625997,0.0011811483315341,-0.0011811480982576,0.0011811480746584,-0.001181148380372,0.0011811483133182,-0.0011701187010321,0.0011701187178282,-0.0011701188096846,0.0011701187022954,-0.0011560352188292,0.0011560352224447,-0.0011560353744114,0.0011560352749772,-0.0011701187146636,0.0011701187663177,-2.2105492475356e-10,-2.2104009848518e-10,-0.00080474907496873,0.00080474840458327,-2.2525248805048e-10,-1.60295705681e-10,-0.00076367529849028,0.00076367493187561,-0.00067892779675941,0.00067892737033306,-0.00067892777087,0.00067892734446917,-0.00076367527061268,0.00076367477412708,-0.00076367536368639,0.00076367486717664,-0.00067892786242639,0.00067892730452497,-0.00067892783639408,0.00067892727851829,-0.00093461301004139,0.00093461237057438,-0.00093461298782487,0.00093461239269883,-0.00093461301320146,0.00093461237373487,-0.00093461299107674,0.00093461239595336,-0.00094162774064607,0.00094162726925242,-0.0009416277996389,0.00094162732819088,-0.00094162782136739,0.00094162730657232,-0.00094162776236329,0.00094162724762322,-0.0007636752059102,0.00076367483931677,0.72745708413827,122718,2924,0.0039349441904933,0.0049424823105445,0.0033480083915094,20.750851998879,8.1206815991035e-05,8.1206815991035e-05,8.1206815991035e-05,3621562.5551498,0.012300779598583
26391759,0.77193603254463,0.012796966486777,0.00417479339518,0.0048902425761154,0.0037319305154812,-0.00097558145512437,0.00097558154807609,8.8010970148805e-13,9.0353198595333e-13,2.9660404600882e-11,5.2946317849863e-11,-0.00046822799700339,0.00046822891926063,-0.00094775453361175,0.00094775474938677,-0.00094775462276986,0.00094775483878872,-0.00046822832785166,0.0004682291917648,-0.00046822802656631,0.00046822889050577,-0.00094775455869083,0.00094775472486763,-0.00094775464859066,0.00094775481501255,-0.0011191183103458,0.0011191181927347,-0.0011191183547515,0.0011191182371867,-0.001119118303092,0.0011191182001614,-0.0011191183473774,0.0011191182444913,-0.00098641859557353,0.00098641853857582,-0.00098641854991801,0.00098641849295509,-0.00098641860417367,0.00098641853002018,-0.00098641855875495,0.00098641848463806,-0.00046822829891106,0.00046822922114487,3.1678021669947e-12,-2.2778285609599e-11,7.1121438465345e-12,-2.7293716989799e-11,-0.0012355389315208,0.0012355389117728,-0.0012165586330593,0.0012165585866241,-0.001201339430204,0.0012013394467105,-0.0012013394763551,0.001201339442103,-0.0012251907850366,0.0012251907841974,-0.0012251910310527,0.0012251910084021,-0.0012251908039444,0.0012251907872634,-0.0012251910498616,0.001225191011371,-0.0012165586694831,0.001216558675597,-0.0012165586333286,0.0012165585706248,-0.0012013395098384,0.0012013395051411,-0.0012013395557438,0.0012013395002938,-0.0012165586692589,0.001216558691645,-1.4003969653097e-10,-1.4002513268309e-10,-0.00082474920531821,0.00082474899549254,-1.0158740243304e-10,-6.7581225487745e-11,-0.00078104516325935,0.00078104512770742,-0.00069174969075173,0.00069174984056475,-0.00069174969894815,0.00069174984878838,-0.00078104502864193,0.000781044917873,-0.00078104520031289,0.00078104508952156,-0.00069174972762205,0.00069174980421763,-0.00069174973497581,0.00069174981159822,-0.00096216413026103,0.00096216366157123,-0.000962164118936,0.00096216367317631,-0.00096216412261436,0.00096216365392642,-0.00096216411102351,0.00096216366526605,-0.00097111256819293,0.00097111220919827,-0.00097111263911656,0.00097111228006633,-0.00097111265037132,0.00097111226804618,-0.00097111258025563,0.00097111219798677,-0.0007810449905179,0.00078104495499003,0.78667634666428,122718,2924,0.0040577186713785,0.0051342442877429,0.0034311276253883,20.418395031995,7.8547160255961e-05,7.8547160255961e-05,7.8547160255961e-05,3622122.2450652,0.012703435660593
26891759,0.79471768819732,0.013202240646771,0.0043043196563188,0.0050602716547505,0.0038376493357018,-0.0010039191620037,0.0010039190769828,-4.8150149707743e-11,-4.8126252202501e-11,-3.8772388088982e-11,-4.5658580161717e-12,-0.0004641031330317,0.00046410364063484,-0.00097300259298335,0.00097300260656322,-0.00097300283917629,0.00097300285299831,-0.0004641033537269,0.00046410378722326,-0.00046410316968956,0.00046410360321159,-0.00097300262797323,0.00097300257272964,-0.00097300287414581,0.00097300281914639,-0.001156204836009,0.0011562046453978,-0.0011562049428613,0.0011562047522967,-0.0011562048246358,0.0011562046566548,-0.0011562049317535,0.0011562047638176,-0.001016685426355,0.0010166852966842,-0.0010166854245067,0.0010166852948722,-0.00101668543873,0.0010166852851833,-0.0010166854362446,0.0010166852827347,-0.00046410331622489,0.0004641038238015,5.9864080605195e-12,-2.8725987676089e-11,1.0671562961665e-11,-3.3850286102878e-11,-0.0012825632681511,0.001282563245391,-0.001263829289595,0.001263829233994,-0.0012479743803962,0.0012479744057644,-0.0012479745177697,0.001247974475942,-0.0012692679760487,0.0012692679809926,-0.0012692682592406,0.0012692682330285,-0.0012692679921054,0.0012692679730263,-0.0012692682751982,0.0012692682249633,-0.0012638291801192,0.0012638291894208,-0.0012638292724764,0.0012638291940941,-0.0012479744338224,0.0012479744305283,-0.0012479745709495,0.001247974500463,-0.0012638291972817,0.0012638292293683,-2.2106322965735e-10,-2.2104892557213e-10,-0.00084291067111535,0.00084291001663322,-2.15588535648e-10,-1.6929995286846e-10,-0.00079323042886027,0.00079323004381532,-0.00070038395208231,0.00070038353099416,-0.00070038392751885,0.00070038350646007,-0.0007932304007799,0.0007932299225663,-0.00079323047569055,0.00079322999745206,-0.0007003839994297,0.00070038348347512,-0.00070038397472605,0.00070038345879976,-0.00098980159405897,0.00098980097078411,-0.00098980157803805,0.00098980098672552,-0.00098980159731213,0.00098980097403858,-0.00098980158138446,0.00098980099007415,-0.0009990327907959,0.00099903231481986,-0.00099903284854248,0.00099903237251152,-0.00099903286403213,0.00099903235708457,-0.00099903280628514,0.00099903229939395,-0.00079323035445204,0.00079322996942816,0.750276560455,122718,2924,0.0041754523910836,0.0053290823648268,0.0035066210610176,21.226102106562,8.5008816852495e-05,8.5008816852495e-05,8.5008816852495e-05,3565645.6064419,0.013096552583519
27391759,0.81687494026236,0.013583269859643,0.0044266063717813,0.0052193667332994,0.0039372967545623,-0.0010326480699658,0.001032647950777,-5.6930765715951e-11,-5.6906668349168e-11,-5.7125680026159e-11,-1.0047979394068e-11,-0.00047130995455516,0.00047131039046347,-0.0009998452954302,0.00099984527722372,-0.00099984558374216,0.00099984556577752,-0.00047131016361903,0.00047131050107206,-0.00047131000318423,0.00047131034066429,-0.00099984534279959,0.00099984523085916,-0.00099984563094066,0.00099984551924266,-0.0011916332141232,0.0011916330071722,-0.0011916333390319,0.0011916331321278,-0.0011916331985288,0.001191633022767,-0.0011916333237699,0.0011916331480533,-0.0010456638048567,0.0010456636665958,-0.0010456638137904,0.0010456636755666,-0.0010456638214802,0.00104566365092,-0.0010456638296417,0.0010456636591193,-0.000471310113899,0.00047131054977951,9.752934348668e-12,-3.7274913688738e-11,1.5974685660789e-11,-4.3731393800644e-11,-0.0013243320982067,0.0013243320708416,-0.0013032312992642,0.0013032312284747,-0.0012879753320751,0.0012879753698895,-0.0012879754990976,0.0012879754455577,-0.0013113413727765,0.0013113413825828,-0.0013113416832276,0.0013113416514639,-0.0013113413979103,0.0013113413752712,-0.0013113417082612,0.0013113416440536,-0.0013032311382687,0.001303231153643,-0.0013032312847064,0.0013032311828205,-0.0012879753868126,0.0012879753857554,-0.0012879755535878,0.0012879754611792,-0.0013032311528695,0.0013032311993441,-2.3646425104121e-10,-2.3645018413124e-10,-0.00086286541881556,0.00086286466891714,-2.456635754828e-10,-1.8375851827032e-10,-0.00081153104583173,0.00081153060640028,-0.0007148176102311,0.00071481707896528,-0.00071481757721861,0.0007148170459806,-0.00081153105785238,0.00081153049565361,-0.00081153110766932,0.00081153054544383,-0.00071481767262056,0.00071481701627485,-0.00071481763963869,0.00071481698331983,-0.0010159509110032,0.0010159502507218,-0.0010159508896801,0.0010159502718844,-0.0010159509173389,0.0010159502570596,-0.0010159508961841,0.0010159502783908,-0.0010261592532048,0.0010261587622216,-0.0010261593083584,0.0010261588173217,-0.0010261593291018,0.0010261587968435,-0.0010261592737646,0.0010261587415615,-0.00081153099688942,0.00081153055748124,0.72451637575547,122718,2924,0.0042947515466881,0.0055021058715144,0.0035895321045056,22.212651463406,9.2901211707245e-05,9.2901211707245e-05,9.2901211707245e-05,3591815.6205388,0.01347679760638
27891759,0.8377873207365,0.013961605858081,0.0045475092357007,0.0053778053984112,0.0040362912239694,-0.0010600902165183,0.0010600901481294,-4.2939165782078e-11,-4.2914847083821e-11,-3.9576561992609e-11,7.837906086761e-12,-0.00047468390634853,0.00047468444827109,-0.0010253574057835,0.0010253574470193,-0.0010253576598945,0.0010253577013706,-0.00047468413966732,0.00047468458085756,-0.00047468395630447,0.00047468439752481,-0.0010253574536233,0.0010253573998732,-0.0010253577077682,0.0010253576542577,-0.0012259081840794,0.0012259079994358,-0.0012259082960111,0.0012259081114151,-0.0012259081685626,0.0012259080151043,-0.0012259082807159,0.0012259081273025,-0.0010741919212396,0.0010741918060795,-0.0010741919241226,0.0010741918089996,-0.0010741919379104,0.0010741917900812,-0.0010741919402805,0.0010741917924912,-0.00047468408905415,0.00047468463094817,9.7309003159102e-12,-3.8183549459951e-11,1.6965065523011e-11,-4.5605280613511e-11,-0.0013660785066165,0.0013660784783522,-0.0013440743910806,0.0013440743166813,-0.0013288070300339,0.0013288070687467,-0.0013288071780008,0.001328807123379,-0.001351962808322,0.0013519628176494,-0.0013519631218168,0.0013519630885495,-0.0013519628402991,0.001351962817388,-0.0013519631536933,0.0013519630881887,-0.0013440742503899,0.0013440742676161,-0.0013440743844444,0.0013440742785394,-0.0013288070949678,0.0013288070931177,-0.0013288072426879,0.0013288071475048,-0.0013440742570676,0.0013440743058041,-2.142850871383e-10,-2.1427128987425e-10,-0.0008814919598895,0.00088149132924916,-2.1828458095479e-10,-1.541574710142e-10,-0.00082786234022316,0.0008278619955003,-0.00072712529557938,0.00072712492328136,-0.00072712527037651,0.00072712489810434,-0.00082786234407612,0.00082786187040423,-0.00082786240496424,0.00082786193126567,-0.00072712536058351,0.00072712485816042,-0.00072712533524416,0.00072712483284838,-0.0010412006478787,0.0010412000329108,-0.0010412006259925,0.0010412000547286,-0.0010412006520855,0.0010412000371182,-0.0010412006302737,0.0010412000590108,-0.0010526729705603,0.0010526725166842,-0.0010526730279604,0.001052672574031,-0.0010526730494228,0.0010526725526202,-0.0010526729920491,0.0010526724952999,-0.00082786227982748,0.0008278619351296,0.76282598426134,122718,2924,0.0044087156001739,0.0056750064354052,0.0036669304280972,22.880942235312,9.8247537882498e-05,9.8247537882498e-05,9.8247537882498e-05,3590422.1884669,0.013846068928031
28391759,0.85719123826566,0.014339898020588,0.0046679242226149,0.0055368266355931,0.0041351471623803,-0.0010855623300796,0.0010855622831163,-3.7378999700158e-11,-3.7354315130726e-11,-3.1114756406726e-11,1.3582331127931e-11,-0.00046825725053257,0.00046825782657121,-0.0010480578533753,0.0010480579169812,-0.001048058095489,0.0010480581593324,-0.00046825748857636,0.00046825796862321,-0.0004682572981956,0.0004682577782731,-0.001048057898612,0.0010480578723534,-0.0010480581408277,0.0010480581148071,-0.0012595998998199,0.0012595997261987,-0.0012596000071301,0.0012595998335569,-0.0012595998852419,0.0012595997409474,-0.0012595999927326,0.001259599848484,-0.0011022764165108,0.0011022763098886,-0.0011022764194794,0.001102276312897,-0.0011022764322594,0.0011022762947161,-0.0011022764348142,0.0011022762973117,-0.00046825744042004,0.00046825801642661,8.8880245945967e-12,-3.6547976837336e-11,1.6631708795066e-11,-4.4491283204191e-11,-0.0014102009177068,0.0014102008902138,-0.0013895609862773,0.0013895609131642,-0.0013733481985584,0.0013733482351247,-0.0013733483373541,0.0013733482853831,-0.0013921871729263,0.001392187181374,-0.0013921874892524,0.0013921874564363,-0.0013921872080868,0.0013921871862575,-0.0013921875243119,0.0013921874612187,-0.0013895608492235,0.001389560866718,-0.0013895609826381,0.0013895608797336,-0.0013733482674681,0.0013733482645174,-0.0013733484060142,0.0013733483145304,-0.0013895608529053,0.0013895609001942,-2.0569707182425e-10,-2.0568365167107e-10,-0.00089689803864566,0.00089689745641511,-2.0709093620155e-10,-1.4468120985122e-10,-0.00083729778331304,0.00083729746973689,-0.00073318265533957,0.00073318234485019,-0.00073318263346974,0.0007331823230072,-0.00083729778945263,0.00083729734955848,-0.00083729784666443,0.00083729740674309,-0.0007331827188311,0.00073318228130564,-0.00073318269676237,0.00073318225926503,-0.0010657795385775,0.0010657789459288,-0.0010657795173328,0.0010657789671441,-0.0010657795420665,0.0010657789494188,-0.0010657795208591,0.0010657789706718,-0.0010780261640539,0.0010780257246483,-0.0010780262217332,0.0010780257822762,-0.0010780262426128,0.0010780257613522,-0.0010780261850451,0.0010780257038378,-0.00083729772644978,0.00083729741290053,0.82233028262121,122718,2924,0.0045145450847537,0.0058577114415596,0.0037309810441991,23.414339210267,0.00010251471368214,0.00010251471368214,0.00010251471368214,3513026.3343552,0.014203651920727
28891759,0.8750381582247,0.014678851639384,0.0047764127511864,0.0056785636955541,0.0042238751926439,-0.0011076212848295,0.0011076212376508,-3.7728932333486e-11,-3.7703910083193e-11,-3.0639499337268e-11,1.2127416956913e-11,-0.00045839951784634,0.00045840008249372,-0.0010666580253784,0.0010666580865629,-0.0010666582728743,0.0010666583342933,-0.00045839975214675,0.0004584002246842,-0.00045839956355566,0.00045840003613007,-0.0010666580687109,0.0010666580438564,-0.0010666583162866,0.0010666582916666,-0.0012902335751947,0.0012902334029868,-0.0012902336850242,0.0012902335128635,-0.0012902335612297,0.0012902334170982,-0.0012902336712476,0.0012902335271615,-0.0011265415875755,0.0011265414800784,-0.0011265415941617,0.0011265414867049,-0.0011265416026832,0.0011265414655559,-0.0011265416088457,0.0011265414717598,-0.00045839970593077,0.0004584002705414,8.2430155932966e-12,-3.523885024202e-11,1.631552818946e-11,-4.3520342865752e-11,-0.0014507277056518,0.0014507276788079,-0.0014309536537055,0.0014309535818629,-0.0014143210817044,0.0014143211165662,-0.0014143212207435,0.0014143211709296,-0.001429061042022,0.0014290610500224,-0.0014290613646488,0.0014290613322651,-0.0014290610793026,0.001429061058333,-0.0014290614018263,0.0014290613404738,-0.0014309535078111,0.0014309535253376,-0.0014309536506378,0.0014309535502962,-0.0014143211516525,0.0014143211478517,-0.0014143212904414,0.0014143212019699,-0.0014309535109212,0.0014309535569499,-2.06625976908e-10,-2.0661291922008e-10,-0.00090868026441696,0.00090867967737507,-2.0873669612692e-10,-1.4760012205913e-10,-0.00084152342356037,0.00084152310199847,-0.00073496261308309,0.00073496229548112,-0.00073496259101812,0.0007349622734442,-0.000841523438561,0.00084152299319973,-0.0008415234856622,0.00084152304027931,-0.00073496267531254,0.0007349622331846,-0.00073496265306145,0.0007349622109612,-0.0010873250378896,0.0010873244472964,-0.0010873250170639,0.0010873244680917,-0.0010873250417421,0.0010873244511498,-0.0010873250209564,0.0010873244719856,-0.0010995263543371,0.0010995259144923,-0.0010995264112005,0.0010995259713044,-0.0010995264316575,0.001099525950805,-0.0010995263748988,0.0010995258940983,-0.00084152337683693,0.00084152305529854,0.79975737494462,122718,2924,0.0046062184325709,0.0060254893196673,0.0037799946955218,23.939255990561,0.00010671404792449,0.00010671404792449,0.00010671404792449,3417438.6652637,0.014516606296999
29391759,0.89156106096003,0.014940324759411,0.0048613603532001,0.0057862502991022,0.004292714107109,-0.0011264047412005,0.001126404641952,-5.154007201559e-11,-5.1515018516252e-11,-5.2288720291958e-11,-2.8744832453335e-12,-0.00045869480599132,0.0004586952543473,-0.0010826403868861,0.0010826403905387,-0.0010826406875188,0.0010826406914028,-0.00045869502260163,0.00045869536748362,-0.00045869485715643,0.00045869520207126,-0.001082640436477,0.001082640341663,-0.0010826407369694,0.001082640642388,-0.0013154536944024,0.0013154534998915,-0.0013154538267369,0.0013154536322737,-0.0013154536781301,0.0013154535162808,-0.001315453810767,0.0013154536489635,-0.0011449725697185,0.0011449724428177,-0.0011449725890433,0.001144972462182,-0.0011449725870593,0.0011449724262901,-0.0011449726057046,0.0011449724449766,-0.00045869497053225,0.00045869541885751,9.9468998349202e-12,-3.9459213783399e-11,1.9152766484366e-11,-4.8777753255473e-11,-0.0014803590990305,0.0014803590697562,-0.0014574561171711,0.0014574560372014,-0.0014426781907005,0.0014426782315807,-0.0014426783593828,0.0014426783041473,-0.0014595252928946,0.0014595253038387,-0.0014595256385553,0.001459525602982,-0.001459525333677,0.0014595253110893,-0.0014595256792351,0.0014595256101305,-0.0014574559189867,0.0014574559398178,-0.0014574561121051,0.0014574559995165,-0.0014426782571918,0.0014426782538249,-0.0014426784256255,0.0014426783261461,-0.0014574559240937,0.0014574559775491,-2.3006614660403e-10,-2.3005339318117e-10,-0.00091961062508384,0.00091960989750493,-2.4639228633331e-10,-1.7644896883122e-10,-0.00084929575767175,0.00084929533949483,-0.00074050383755727,0.00074050334238714,-0.00074050380573408,0.00074050331059188,-0.00084929580583435,0.00084929524849703,-0.00084929582768691,0.00084929527032536,-0.00074050390796299,0.00074050327173228,-0.00074050387614536,0.0007405032399426,-0.0011042453025882,0.001104244661082,-0.0011042452786519,0.001104244684888,-0.0011042453098678,0.0011042446683622,-0.0011042452860727,0.0011042446923092,-0.0011161174473812,0.001116116976279,-0.0011161175009141,0.0011161170297601,-0.0011161175243414,0.0011161170065411,-0.001116117470672,0.0011161169529253,-0.00084929573664518,0.00084929531849254,0.66449988364994,122718,2924,0.0046842272897374,0.0061481323840741,0.0038254325814802,24.733452854426,0.0001130676228354,0.0001130676228354,0.0001130676228354,3398906.9319767,0.014766332514706
29891759,0.9066176027786,0.015185700710226,0.0049407089991045,0.0058872061157209,0.0043577855954002,-0.0011465487413854,0.0011465486615703,-4.6108233263359e-11,-4.608347497559e-11,-4.6292530647906e-11,5.4238184531281e-12,-0.00047541724724262,0.00047541774551041,-0.0011026893769523,0.0011026894067304,-0.0011026896655902,0.0011026896955971,-0.00047541747319873,0.00047541786281165,-0.00047541730105363,0.00047541769069673,-0.0011026894288457,0.0011026893553831,-0.001102689717419,0.0011026896441861,-0.0013382650349928,0.0013382648476881,-0.001338265163514,0.0013382649762567,-0.0013382650180595,0.0013382648648403,-0.0013382651468416,0.0013382649936678,-0.0011633938472292,0.0011633937296609,-0.0011633938648341,0.0011633937473055,-0.001163393865305,0.0011633937122796,-0.0011633938823327,0.0011633937293484,-0.00047541741863697,0.0004754179168751,1.0064145429618e-11,-4.1814333718455e-11,2.0399205847676e-11,-5.2205435571543e-11,-0.0015035327353518,0.0015035327038889,-0.0014754381389765,0.001475438052987,-0.0014632478880122,0.0014632479306456,-0.0014632480504071,0.0014632479919677,-0.0014867611607692,0.0014867611715836,-0.0014867615122145,0.0014867614737582,-0.0014867612055007,0.0014867611814578,-0.001486761556843,0.0014867614835305,-0.0014754379530847,0.0014754379755894,-0.0014754381372199,0.0014754380170339,-0.0014632479599709,0.001463247955335,-0.0014632481221174,0.0014632480164126,-0.0014754379548818,0.0014754380115869,-2.2108337484291e-10,-2.21070905465e-10,-0.00093491195594354,0.00093491127676313,-2.3512564102803e-10,-1.6075598658297e-10,-0.00086971276991627,0.00086971240025545,-0.00075703843904694,0.00075703802083193,-0.00075703840970376,0.00075703799151559,-0.00086971281590837,0.00086971229763935,-0.00086971284460922,0.00086971232631452,-0.00075703851396407,0.0007570379457228,-0.00075703848457883,0.00075703791636488,-0.0011197980302156,0.0011197974033894,-0.001119798004873,0.0011197974286339,-0.0011197980368354,0.0011197974100099,-0.0011197980116038,0.0011197974353659,-0.0011338530293285,0.0011338525742809,-0.0011338530836792,0.00113385262858,-0.0011338531085852,0.0011338526038184,-0.001133853054164,0.0011338525494497,-0.00086971274193677,0.00086971237230066,0.68461390406998,122718,2924,0.0047677824396746,0.0062440341808979,0.0038889552791902,25.429472239012,0.0001186357779121,0.0001186357779121,0.0001186357779121,3497520.0933599,0.015012921348001
30391759,0.92016944124952,0.015376292269523,0.0050026677068855,0.0059654109515326,0.0044082136111046,-0.0011586469367466,0.0011586468660333,-4.3503248608558e-11,-4.3478341942969e-11,-4.3547700265296e-11,8.6294033482394e-12,-0.00046230514360741,0.00046230565414007,-0.0011107097780911,0.00111070981861,-0.0011107100633833,0.0011107101041297,-0.00046230537524634,0.00046230577596306,-0.00046230519803718,0.00046230559878357,-0.0011107098304544,0.0011107097667462,-0.0011107101157113,0.0011107100522317,-0.0013574313959355,0.0013574312139005,-0.0013574315230985,0.0013574313411108,-0.001357431378873,0.0013574312312014,-0.0013574315062778,0.0013574313586513,-0.001176633085734,0.0011766329732622,-0.0011766331037817,0.0011766329913496,-0.001176633103952,0.0011766329556865,-0.001176633121473,0.001176632973249,-0.00046230532014828,0.00046230583065145,1.0411148299507e-11,-4.2028888575716e-11,2.1570654531311e-11,-5.3241232163962e-11,-0.0015285229418525,0.0015285229105216,-0.0015012067534731,0.0015012066656103,-0.0014893465404096,0.0014893465844547,-0.0014893467014909,0.0014893466433327,-0.001508902081542,0.0015089020932361,-0.0015089024361509,0.0015089023973013,-0.0015089021282697,0.0015089021048838,-0.0015089024827762,0.001508902408847,-0.001501206560167,0.0015012065848141,-0.0015012067536752,0.0015012066312709,-0.001489346615075,0.0014893466104208,-0.0014893467759057,0.0014893466690524,-0.0015012065600046,0.0015012066191969,-2.1710752531121e-10,-2.1709535948505e-10,-0.00094004353196621,0.00094004287111307,-2.3266340688638e-10,-1.5621053938076e-10,-0.00086677680326309,0.00086677644637997,-0.00075320077208535,0.00075320037661413,-0.0007532007443769,0.00075320034893232,-0.00086677685384171,0.00086677634392103,-0.00086677688013607,0.00086677637018691,-0.00075320084911731,0.00075320029941946,-0.00075320082133742,0.00075320027166713,-0.0011328247275946,0.0011328241115713,-0.00113282470159,0.0011328241374931,-0.0011328247338839,0.0011328241178613,-0.0011328247079742,0.0011328241438784,-0.0011452037832988,0.001145203336933,-0.0011452038378968,0.0011452033914806,-0.0011452038634989,0.0011452033659819,-0.0011452038088677,0.0011452033114024,-0.00086677677762403,0.00086677642076865,0.59098872163378,122718,2924,0.0048181002432292,0.0063474613672845,0.0039103421091236,26.075098481783,0.00012380078785427,0.00012380078785427,0.00012380078785427,3392953.5756483,0.015190758411494
30891759,0.93247340191917,0.01557742272627,0.0050673870058759,0.0060482552450407,0.0044617804753529,-0.0011752048407836,0.0011752046992355,-6.2922151580284e-11,-6.289749818637e-11,-7.4182534539197e-11,-1.0000214617955e-11,-0.00047307373412454,0.00047307410296346,-0.0011271017874676,0.0011271017543892,-0.0011271021412643,0.0011271021084098,-0.0004730739473263,0.0004730741848003,-0.00047307379901874,0.00047307403652293,-0.0011271018512949,0.001127101691128,-0.0011271022047811,0.0011271020448391,-0.0013765903096535,0.0013765900926799,-0.0013765904664533,0.0013765902495266,-0.0013765902885028,0.0013765901140696,-0.0013765904456884,0.0013765902712998,-0.0011926336805275,0.0011926335402504,-0.0011926337129037,0.0011926335726664,-0.0011926337027622,0.0011926335189418,-0.0011926337342828,0.0011926335505038,-0.00047307388124362,0.000473074250054,1.3309407994957e-11,-5.0165304484383e-11,2.685397774706e-11,-6.360157701548e-11,-0.0015493415479406,0.00154934151152,-0.00151918515645,0.0015191850521679,-0.0015086824569301,0.0015086825118247,-0.0015086826564735,0.0015086825877098,-0.0015316479628288,0.0015316479792214,-0.0015316483498313,0.0015316483043114,-0.0015316480146874,0.0015316479878847,-0.0015316484015865,0.0015316483128723,-0.0015191849027695,0.001519184933716,-0.0015191851547807,0.0015191850084055,-0.0015086825289904,0.0015086825245434,-0.0015086827282848,0.0015086826001837,-0.0015191849044786,0.0015191849775219,-2.4842423937643e-10,-2.4841239684826e-10,-0.00095209080955723,0.00095208996476992,-2.8258233442222e-10,-1.8953386048096e-10,-0.00088151148831538,0.0008815110186788,-0.00076510649874174,0.00076510588627463,-0.00076510645810586,0.00076510584566501,-0.00088151158282203,0.00088151092993894,-0.00088151158060499,0.00088151092769636,-0.00076510659149691,0.00076510579312932,-0.00076510655103439,0.00076510575269384,-0.00114604121585,0.0011460405222535,-0.0011460411840844,0.001146040553807,-0.0011460412266103,0.0011460405330147,-0.0011460411950687,0.0011460405647927,-0.0011603116149149,0.0011603111259386,-0.0011603116656858,0.0011603111766586,-0.0011603116968694,0.0011603111459132,-0.0011603116457493,0.0011603110948449,-0.00088151149178338,0.00088151102217161,0.68714590328657,122718,2924,0.0048867946586623,0.0064335984488823,0.003960362360146,27.063499771671,0.00013170799817336,0.00013170799817336,0.00013170799817336,3437249.9606289,0.015398743905711
31391759,0.94367356799015,0.015768098471914,0.0051284849672735,0.0061272552637184,0.0045123582409226,-0.0011866525890311,0.0011866523836518,-7.8535780212294e-11,-7.8510890516775e-11,-1.0707127719304e-10,-2.3682213877563e-11,-0.00044955375561987,0.00044955396901384,-0.0011338760104173,0.0011338759120191,-0.0011338764390589,0.0011338763408839,-0.00044955397081448,0.00044955401695604,-0.00044955383822494,0.0004495538844005,-0.0011338760926734,0.0011338758302423,-0.001133876520795,0.0011338762585862,-0.0013963923837457,0.0013963921406438,-0.0013963925695602,0.001396392326504,-0.0013963923562095,0.0013963921685051,-0.0013963925425211,0.0013963923548612,-0.0012076205695461,0.0012076204141779,-0.00120762061224,0.0012076204569125,-0.001207620598165,0.0012076203866739,-0.0012076206397509,0.0012076204283024,-0.00044955388668383,0.00044955410004532,1.9964575095935e-11,-6.1851977170437e-11,3.7429102154857e-11,-7.8978080479736e-11,-0.001579304954708,0.0015793049134624,-0.0015540174199169,0.0015540172918535,-0.0015417455752494,0.0015417456518532,-0.0015417458286957,0.0015417457457901,-0.0015543630046504,0.0015543630316976,-0.0015543634243892,0.0015543633714817,-0.0015543630634684,0.0015543630345053,-0.001554363483103,0.001554363374186,-0.0015540170638846,0.0015540171090488,-0.00155401742009,0.0015540172375296,-0.0015417456441897,0.0015417456439695,-0.0015417458973867,0.0015417457376596,-0.0015540170637492,0.0015540171634147,-2.7615974757329e-10,-2.7614832386929e-10,-0.00095487109542737,0.00095487006039295,-3.4376590930509e-10,-2.239411540033e-10,-0.00087091664826108,0.00087091605423502,-0.00075464607818894,0.00075464521426415,-0.00075464602579658,0.0007546451618987,-0.00087091680545093,0.00087091597786453,-0.00087091676594087,0.00087091593832997,-0.00075464619666081,0.00075464509524836,-0.00075464614462937,0.00075464504324227,-0.0011601017839236,0.0011601010267445,-0.0011601017430415,0.0011601010672977,-0.0011601017984543,0.0011601010412755,-0.0011601017579033,0.0011601010821599,-0.0011724294274591,0.0011724289133605,-0.0011724294758063,0.0011724289616577,-0.0011724295159771,0.00117242892221,-0.0011724294670174,0.0011724288733009,-0.0008709166894643,0.00087091609546212,0.71628541114011,122718,2924,0.0049344872658349,0.006557584421411,0.0039720345158162,28.356831318817,0.00014205465055053,0.00014205465055053,0.00014205465055053,3234329.7923656,0.015585027870311
31891759,0.9535123926996,0.015938529124003,0.0051834679036713,0.0061970146990003,0.0045580465213309,-0.0011977119626532,0.0011977118386339,-5.5151017821322e-11,-5.5126181418292e-11,-7.8420735888584e-11,6.4995129149301e-12,-0.0004414718381722,0.00044147223384777,-0.0011426823166265,0.0011426823181227,-0.0011426826782135,0.0011426826799302,-0.00044147209132553,0.00044147231409796,-0.00044147192390812,0.00044147214671299,-0.0011426824006434,0.0011426822341634,-0.0011426827620334,0.0011426825957741,-0.0014128812492953,0.0014128810424895,-0.0014128814074224,0.0014128812006627,-0.0014128812215621,0.0014128810707863,-0.001412881380004,0.0014128812292721,-0.0012201532714904,0.0012201531547388,-0.0012201533012529,0.0012201531845422,-0.0012201533005212,0.0012201531263719,-0.0012201533296126,0.0012201531555056,-0.00044147200470098,0.00044147240034622,2.084329260466e-11,-6.3435011927459e-11,4.0788912485546e-11,-8.2987589962562e-11,-0.001601919570627,0.0016019195287203,-0.0015769892773964,0.0015769891419243,-0.0015648933168968,0.0015648933976961,-0.0015648935408287,0.0015648934568921,-0.0015747162557634,0.0015747162841842,-0.0015747166637349,0.0015747166086818,-0.0015747163193831,0.0015747162912666,-0.001574716727251,0.0015747166156606,-0.0015769889637775,0.0015769890150659,-0.0015769892870584,0.0015769890957083,-0.0015648934003153,0.0015648933997237,-0.0015648936239965,0.0015648934586737,-0.0015769889541544,0.0015769890613249,-2.388389473555e-10,-2.3882792393777e-10,-0.0009588536351735,0.00095885280210306,-2.9812575854912e-10,-1.7204892613186e-10,-0.00086912510395572,0.00086912467121669,-0.00075221098314236,0.00075221039074933,-0.00075221094434794,0.00075221035198097,-0.00086912523891203,0.00086912455717664,-0.00086912522906878,0.00086912454730754,-0.00075221110845009,0.00075221026515062,-0.00075221106977933,0.00075221022650614,-0.0011706225711949,0.0011706218924424,-0.0011706225285214,0.0011706219349186,-0.0011706225813709,0.0011706219026192,-0.0011706225388944,0.0011706219452922,-0.0011827525072276,0.0011827520544476,-0.0011827525595807,0.0011827521067517,-0.0011827526018293,0.0011827520648976,-0.0011827525491897,0.001182752012308,-0.00086912511492096,0.00086912468220795,0.72644232686627,122718,2924,0.0049804764404076,0.0066511243284867,0.0039886464224273,29.26561132551,0.00014932489060408,0.00014932489060408,0.00014932489060408,3137932.2679889,0.015743662394786
32391759,0.96169000097238,0.016093175132925,0.0052333009998394,0.0062600804832144,0.0045997936498712,-0.0012065410914472,0.0012065411568678,-4.9768288730589e-12,-4.9521355244825e-12,3.8645554110732e-12,5.9056090641675e-11,-0.00043508830063562,0.00043508910430919,-0.0011498754420382,0.0011498756521603,-0.0011498756207371,0.0011498758310762,-0.00043508858719621,0.0004350892706422,-0.00043508836076314,0.00043508904424034,-0.0011498754977746,0.0011498755961877,-0.0011498756769651,0.0011498757755967,-0.0014260129152715,0.001426012795438,-0.0014260129994717,0.0014260128796834,-0.0014260128977266,0.0014260128136268,-0.001426012981863,0.0014260128978059,-0.0012301635002677,0.001230163452319,-0.00123016350535,0.0012301634574421,-0.0012301635193198,0.0012301634331328,-0.0012301635246228,0.0012301634384779,-0.00043508852745232,0.00043508933109659,1.1884842220346e-11,-4.5148713796608e-11,2.9973815349928e-11,-6.3186143236109e-11,-0.0016201022256543,0.0016201021927544,-0.0015950317039141,0.0015950315974552,-0.0015835161009867,0.001583516154023,-0.0015835162138908,0.0015835161550607,-0.0015912829451781,0.0015912829607072,-0.0015912832904617,0.001591283245765,-0.0015912830038251,0.0015912829831958,-0.0015912833490047,0.0015912832681505,-0.0015950315605538,0.0015950316007342,-0.001595031722197,0.0015950315785752,-0.0015835162034809,0.0015835161962026,-0.0015835163161342,0.0015835161969938,-0.0015950315423088,0.001595031619656,-1.5589595699961e-10,-1.5588530970418e-10,-0.00096164354466753,0.00096164322053514,-1.6006053030754e-10,-6.7219638210459e-11,-0.00086843032329407,0.00086843023418858,-0.00075030540436878,0.00075030547417394,-0.00075030539955366,0.00075030546938418,-0.00086843035612282,0.0008684300762375,-0.00086843041858571,0.00086843013867305,-0.00075030549865971,0.00075030538012497,-0.0007503054933987,0.00075030537489033,-0.0011783171482573,0.001178316666614,-0.0011783171172949,0.0011783166977109,-0.0011783171479763,0.0011783166663332,-0.0011783171168883,0.0011783166973053,-0.0011909154544874,0.0011909151126747,-0.0011909155137704,0.0011909151719079,-0.0011909155448486,0.0011909151403878,-0.0011909154860677,0.0011909150816565,-0.00086843026058901,0.00086843017150943,0.79219730183482,122718,2924,0.005017190886616,0.0067263220539126,0.0040002938148027,29.297781396887,0.0001495822511751,0.0001495822511751,0.0001495822511751,3070402.8052747,0.015869212034597
32891759,0.96842125695805,0.01620091753652,0.0052684127808669,0.0063035290628962,0.0046289756927568,-0.001210750247715,0.0012107503414994,4.9294764667012e-13,5.1758079120329e-13,2.5166724350317e-11,5.6617761366254e-11,-0.00041936115126791,0.00041936200959034,-0.0011511407168374,0.0011511409438769,-0.0011511408578878,0.0011511410851423,-0.00041936142318284,0.00041936220731457,-0.00041936118850079,0.00041936197266508,-0.0011511407495878,0.0011511409112297,-0.0011511408911804,0.0011511410530382,-0.0014355665465117,0.0014355664412183,-0.0014355666164104,0.001435566511162,-0.0014355665366625,0.0014355664514576,-0.0014355666064655,0.0014355665213037,-0.0012359128429707,0.0012359127933085,-0.0012359128471511,0.0012359127975296,-0.0012359128541755,0.0012359127819768,-0.0012359128586526,0.001235912786496,-0.00041936138641577,0.00041936224470954,4.2681355525651e-12,-2.9533886818854e-11,1.9254613608301e-11,-4.4776387288575e-11,-0.0016354564076227,0.0016354563824382,-0.0016117070529649,0.00161170697482,-0.0016001366770256,0.0016001367054004,-0.0016001367493101,0.00160013671149,-0.0016034746932535,0.0016034746987459,-0.0016034750186571,0.0016034749836313,-0.0016034747453045,0.0016034747302864,-0.0016034750706036,0.0016034750150689,-0.0016117069621096,0.0016117069892897,-0.0016117070670585,0.0016117069672963,-0.0016001367774421,0.0016001367649662,-0.0016001368494755,0.0016001367708087,-0.0016117069480536,0.0016117069968547,-1.455618114795e-10,-1.4555148573732e-10,-0.00095953559736653,0.00095953536322443,-1.256237196566e-10,-6.2294391313077e-11,-0.00085829092413937,0.00085829086965778,-0.00074043259984815,0.00074043277615448,-0.00074043260225586,0.00074043277858761,-0.00085829091528459,0.00085829072699711,-0.00085829099080915,0.00085829080249466,-0.00074043266542947,0.00074043271086527,-0.00074043266729212,0.00074043271275307,-0.0011832337313314,0.0011832332855064,-0.0011832337102771,0.0011832333067637,-0.001183233729163,0.0011832332833388,-0.0011832337079259,0.0011832333044134,-0.0011945140505782,0.0011945137092114,-0.0011945141101512,0.0011945137687353,-0.0011945141313362,0.0011945137469357,-0.0011945140724026,0.0011945136880518,-0.00085829084815356,0.00085829079369856,0.66888370250489,122718,2924,0.0050347873511794,0.0067898209671855,0.0039916391205587,29.182826621534,0.00014866261297227,0.00014866261297227,0.00014866261297227,2949135.137664,0.01594286565465
33391759,0.974015382857,0.016303672727088,0.0053017382492718,0.0063448158868771,0.0046571185909395,-0.0012194441710771,0.0012194442193114,-1.1956423445353e-11,-1.1932156201407e-11,1.4385250746347e-11,3.2551443928673e-11,-0.00043643545622768,0.00043643619190019,-0.0011612939098189,0.0011612940666065,-0.0011612940955155,0.0011612942525156,-0.00043643570336785,0.00043643639291525,-0.00043643547930695,0.00043643616888646,-0.0011612939293928,0.0011612940475894,-0.0011612941154321,0.0011612942338425,-0.001443681864465,0.0014436817453724,-0.0014436819519502,0.001443681832902,-0.0014436818587065,0.0014436817512177,-0.0014436819462199,0.0014436818387732,-0.0012427712917101,0.0012427712183751,-0.0012427713025109,0.0012427712292157,-0.0012427712985892,0.0012427712117136,-0.001242771309392,0.0012427712225577,-0.00043643568040391,0.00043643641604702,-3.9004949602034e-13,-2.0427461249198e-11,1.1688129200382e-11,-3.2947164222043e-11,-0.0016412591321714,0.0016412591112665,-0.0016115873478625,0.0016115872886481,-0.001603553618734,0.0016035536314929,-0.0016035536992468,0.0016035536732021,-0.0016143508973019,0.0016143508968976,-0.0016143512273682,0.0016143511983367,-0.0016143509433786,0.0016143509308373,-0.0016143512733409,0.0016143512321736,-0.0016115872348068,0.0016115872515379,-0.0016115873532882,0.0016115872814407,-0.0016035537040147,0.0016035536885593,-0.0016035537842774,0.0016035537300218,-0.001611587229419,0.0016115872587871,-1.677005209026e-10,-1.6769049857479e-10,-0.0009669338143639,0.00096693345177204,-1.4960407676065e-10,-1.0494951330559e-10,-0.00087482645524649,0.00087482627944038,-0.00075377998999462,0.00075377996585584,-0.00075377998514187,0.00075377996102875,-0.00087482644189384,0.00087482617137486,-0.0008748265024676,0.0008748262319241,-0.00075378003673825,0.00075377991927531,-0.00075378003143387,0.00075377991399692,-0.0011870997670504,0.0011870992847878,-0.0011870997520364,0.001187099299952,-0.0011870997670566,0.0011870992847949,-0.0011870997519217,0.0011870992998388,-0.0012014955788331,0.0012014951998899,-0.0012014956367879,0.001201495257796,-0.0012014956516995,0.0012014952424038,-0.0012014955942307,0.0012014951849846,-0.00087482639443661,0.00087482621865463,0.76703045550565,122718,2924,0.0050707701107487,0.0068137902528216,0.0040223043289253,29.274726242946,0.00014939780994357,0.00014939780994357,0.00014939780994357,3046158.5791986,0.016034890997607
33641759,0.97659608803098,0.016352310063147,0.0053174187189362,0.0063645346239068,0.0046703567203042,-0.0012207308282863,0.0012207307272332,-5.2056694336074e-11,-5.2032380020036e-11,-4.6396759287322e-11,-1.3802462403072e-11,-0.00041638235612379,0.00041638276876246,-0.001159438845392,0.001159438829759,-0.0011594391770531,0.0011594391616317,-0.00041638258225696,0.00041638292510502,-0.0004163823904737,0.00041638273335409,-0.0011594388785127,0.0011594387976008,-0.0011594392099354,0.0011594391292367,-0.0014493303598774,0.0014493301726982,-0.0014493305065639,0.001449330319429,-0.0014493303489673,0.001449330183513,-0.0014493304959944,0.0014493303305823,-0.0012465828962408,0.0012465827637099,-0.0012465829249247,0.0012465827924347,-0.0012465829080113,0.0012465827528423,-0.0012465829359678,0.0012465827808409,-0.00041638254698758,0.00041638295959741,3.6444773107787e-12,-2.8869945278283e-11,1.5605430176585e-11,-4.1111899765565e-11,-0.001652950644611,0.0016529506194501,-0.0016285170864073,0.0016285170159495,-0.0016181898541752,0.001618189878841,-0.0016181900114422,0.001618189973378,-0.0016199527742197,0.0016199527798497,-0.0016199531567387,0.0016199531233786,-0.001619952823826,0.0016199528071872,-0.0016199532062407,0.0016199531506137,-0.0016285168422008,0.0016285168617087,-0.0016285170841417,0.0016285169922967,-0.0016181899238041,0.0016181899116626,-0.0016181900808211,0.001618190005953,-0.0016285168445039,0.0016285168854024,-2.3411874938551e-10,-2.3410886805022e-10,-0.0009640087033927,0.0009640079364202,-2.5510893504108e-10,-1.962248017023e-10,-0.00086079422411063,0.00086079376818469,-0.00074112097786398,0.00074112041999272,-0.00074112094782672,0.00074112038998068,-0.00086079427894292,0.00086079370601484,-0.00086079428302091,0.00086079371006755,-0.00074112103734026,0.00074112036026301,-0.00074112100727341,0.00074112033022233,-0.0011913699794026,0.0011913693403888,-0.0011913699591332,0.0011913693605644,-0.0011913699873398,0.0011913693483265,-0.0011913699671921,0.001191369368624,-0.0012036348991209,0.0012036344260455,-0.0012036349527328,0.0012036344796085,-0.0012036349724282,0.0012036344600642,-0.0012036349186972,0.0012036344063823,-0.0008607942208533,0.00086079376495333,0.78835444430144,122718,2924,0.0050762574580575,0.0068621706624395,0.004010259453084,29.647213932869,0.00015237771146295,0.00015237771146295,0.00015237771146295,2900492.3621914,0.016077458022837
34141759,0.98103282164974,0.016431738149963,0.0053432581878327,0.0063963372301234,0.0046921427320065,-0.0012264434300796,0.0012264432864533,-6.2138944771421e-11,-6.211478112725e-11,-6.9602760095221e-11,-2.0467841603842e-11,-0.00041162859806665,0.00041162892553822,-0.0011637757962226,0.0011637757410185,-0.0011637761788663,0.0011637761238717,-0.00041162883540099,0.00041162906177369,-0.00041162864789507,0.00041162887429964,-0.0011637758452893,0.0011637756927963,-0.0011637762275499,0.0011637760752665,-0.0014580417035993,0.0014580414960547,-0.0014580418706223,0.0014580416631214,-0.0014580416872382,0.0014580415124323,-0.0014580418546827,0.0014580416799183,-0.0012530712983883,0.0012530711565882,-0.0012530713310633,0.0012530711893034,-0.0012530713156546,0.0012530711403555,-0.0012530713474151,0.0012530711721579,-0.00041162878440809,0.00041162911185099,8.9602824459925e-12,-3.9436975227477e-11,2.2426333714429e-11,-5.2973902771868e-11,-0.0016649388242368,0.001664938794018,-0.00164082909202,0.0016408290037334,-0.0016306340757265,0.0016306341170541,-0.0016306342702748,0.0016306342177499,-0.0016305424751564,0.0016305424878009,-0.0016305428819581,0.0016305428425684,-0.0016305425302257,0.0016305425096034,-0.0016305429369227,0.0016305428642679,-0.0016408287919712,0.0016408288192686,-0.0016408290917379,0.0016408289713695,-0.0016306341445005,0.0016306341364453,-0.0016306343387982,0.001630634236894,-0.0016408287922908,0.0016408288516742,-2.5282369846493e-10,-2.5281407378814e-10,-0.00096563593613457,0.00096563503923924,-2.9584642829322e-10,-2.1764488115159e-10,-0.00085856501418111,0.00085856448513133,-0.00073888516513584,0.00073888444122003,-0.00073888512704909,0.00073888440315877,-0.00085856510239052,0.00085856442002619,-0.00085856509142005,0.00085856440903194,-0.00073888524319501,0.0007388843628051,-0.00073888520520824,0.00073888432484419,-0.001196772159747,0.0011967714707826,-0.001196772132899,0.0011967714974541,-0.0011967721701063,0.0011967714811427,-0.0011967721434563,0.0011967715080128,-0.0012087778874621,0.0012087773963648,-0.0012087779403321,0.0012087774491864,-0.0012087779665059,0.0012087774233765,-0.0012087779133262,0.0012087773702465,-0.00085856502628966,0.00085856449726551,0.74672486197566,122718,2924,0.0051000230896889,0.0069117405145151,0.0040170649212879,30.587662514845,0.00015990130011876,0.00015990130011876,0.00015990130011876,2834160.9458162,0.016158922030803
34641759,0.98491863235708,0.016504457440205,0.005366907697942,0.0064253453851221,0.0047122043571409,-0.0012343995599369,0.0012343992653446,-1.0071623057064e-10,-1.006923103161e-10,-1.4161165468469e-10,-5.3671080120638e-11,-0.00041926422529431,0.00041926424893916,-0.0011717822438252,0.0011717820367197,-0.0011717827840642,0.001171782577166,-0.00041926446885103,0.00041926431951333,-0.00041926431047563,0.00041926416116894,-0.0011717823301657,0.0011717819511441,-0.0011717828695047,0.0011717824906911,-0.0014669507894258,0.0014669505084618,-0.0014669510216601,0.0014669507407396,-0.0014669507601066,0.0014669505379543,-0.0014669509930513,0.0014669507709403,-0.0012605556863291,0.00126055549658,-0.0012605557369385,0.0012605555472294,-0.0012605557165214,0.0012605554679724,-0.0012605557655344,0.0012605555170269,-0.00041926438157229,0.00041926440518868,2.0682294228932e-11,-6.4333181724282e-11,4.0323467822208e-11,-8.3552903222042e-11,-0.0016741464583464,0.00167414641541,-0.0016472452744648,0.0016472451389295,-0.0016390229193686,0.0016390229998181,-0.0016390232156252,0.0016390231306813,-0.0016415434109966,0.00164154344131,-0.001641543889798,0.001641543833607,-0.0016415434778856,0.0016415434488813,-0.0016415439565825,0.0016415438410749,-0.0016472448217527,0.0016472448710396,-0.0016472452739697,0.0016472450815491,-0.0016390229841636,0.0016390229824752,-0.0016390232801701,0.0016390231130923,-0.0016472448222852,0.0016472449284612,-3.1766825900102e-10,-3.1765887664378e-10,-0.00097138717783841,0.00097138585765609,-4.1858148160376e-10,-2.8973130691848e-10,-0.00086703687120672,0.00086703609820428,-0.00074596507582909,0.00074596382999269,-0.00074596501064145,0.00074596376482983,-0.00086703705916835,0.00086703603888179,-0.00086703699603095,0.00086703597572038,-0.00074596520235878,0.00074596370271634,-0.00074596513771801,0.00074596363810087,-0.0012024353759591,0.0012024345141708,-0.0012024353317325,0.0012024345579504,-0.00120243539476,0.0012024345329728,-0.0012024353509919,0.0012024345772113,-0.0012156838357956,0.0012156832669533,-0.0012156838842291,0.0012156833153385,-0.0012156839273917,0.0012156832732533,-0.0012156838779928,0.0012156832239034,-0.00086703693660887,0.00086703616363054,0.77997818559261,122718,2924,0.0051330092327171,0.006949803646906,0.004040934986975,32.192057430718,0.00017273645944574,0.00017273645944574,0.00017273645944574,2839333.3286188,0.016255373411642
35141759,0.98838740962878,0.016565380119806,0.0053867645524327,0.006449599296197,0.0047290162711764,-0.001241985805705,0.0012419853028308,-1.5212469326857e-10,-1.5210096337586e-10,-2.4568948944298e-10,-9.6085256220202e-11,-0.00041559640684869,0.0004155959904142,-0.0011776443969331,0.0011776439823671,-0.0011776451670754,0.0011776447527146,-0.0004155966778151,0.00041559597327304,-0.00041559654883568,0.00041559584432433,-0.0011776445425326,0.0011776438372711,-0.0011776453111167,0.0011776446060611,-0.0014773409304745,0.0014773405524506,-0.0014773412554736,0.0014773408774926,-0.001477340880669,0.001477340602739,-0.0014773412067586,0.0014773409288693,-0.0012691045536873,0.0012691043068958,-0.0012691046269323,0.0012691043801804,-0.0012691046043962,0.0012691042584703,-0.001269104675145,0.0012691043292605,-0.00041559653257732,0.00041559611611393,4.0250941302549e-11,-1.0340384249536e-10,7.1974075535515e-11,-1.3394317765728e-10,-0.0016877413263619,0.0016877412646283,-0.0016621146475127,0.0016621144334601,-0.0016536715911444,0.001653671737298,-0.0016536720448512,0.0016536719109548,-0.001652947343576,0.0016529474047166,-0.0016529479252295,0.0016529478422726,-0.0016529474279799,0.0016529473885212,-0.0016529480095289,0.0016529478259738,-0.0016621139429325,0.0016621140334159,-0.0016621146495926,0.001662114339031,-0.001653671650545,0.001653671659284,-0.0016536721040016,0.0016536718326942,-0.0016621139408898,0.0016621141278853,-4.0634167272218e-10,-4.0633251149716e-10,-0.00097551500957079,0.00097551308365968,-6.0338179472167e-10,-3.8950760230277e-10,-0.00086631226095885,0.00086631113780714,-0.00074545583449364,0.00074545382113929,-0.00074545573190896,0.00074545371857845,-0.0008663126080814,0.00086631107841273,-0.00086631246617459,0.00086631093648126,-0.00074545604269366,0.00074545361170309,-0.00074545594123331,0.00074545351026782,-0.0012104001527,0.0012103990560025,-0.001210400079466,0.0012103991284177,-0.0012104001830345,0.0012103990863379,-0.0012104001106114,0.0012103991595646,-0.0012229543483009,0.0012229536859292,-0.001222954391547,0.0012229537291273,-0.0012229544632131,0.0012229536595058,-0.0012229544181194,0.0012229536144608,-0.00086631240657776,0.00086631128345067,0.73169957610928,122718,2924,0.0051645420792204,0.0070060361585866,0.004058118770154,34.715371223543,0.00019292296978835,0.00019292296978835,0.00019292296978835,2757586.606671,0.016362071284246
35641759,0.9912941622737,0.016610116026233,0.0054014617323732,0.0064672160629013,0.0047414382309585,-0.0012490093556245,0.0012490089989874,-1.107990810906e-10,-1.1077556635308e-10,-2.0461461795799e-10,-2.7061662578902e-11,-0.00042455669410839,0.00042455664359301,-0.0011847649882262,0.001184764783289,-0.0011847656248959,0.0011847654201625,-0.00042455702010836,0.00042455662099344,-0.00042455686678162,0.00042455646769687,-0.0011847651616104,0.0011847646091809,-0.0011847657973589,0.0011847652451339,-0.0014847197847838,0.0014847194617108,-0.001484720056612,0.0014847197335814,-0.0014847197265759,0.0014847195212048,-0.0014847199991235,0.0014847197937929,-0.0012753147073537,0.0012753145365285,-0.0012753147619568,0.0012753145911709,-0.0012753147671187,0.0012753144780423,-0.0012753148201168,0.0012753145310813,-0.00042455684530445,0.00042455679476083,4.9057823023064e-11,-1.2414084387655e-10,9.1863739184649e-11,-1.6533605159712e-10,-0.0016943108226738,0.0016943107493991,-0.0016659443339592,0.0016659440673024,-0.0016593564870701,0.0016593566675606,-0.0016593569066041,0.0016593567481047,-0.0016616198022188,0.0016616198762024,-0.0016616203652109,0.0016616202639427,-0.0016616198996139,0.001661619855608,-0.0016616204625015,0.0016616202432449,-0.0016659437092196,0.0016659438294092,-0.0016659443567776,0.0016659439744302,-0.0016593565847273,0.0016593565944077,-0.0016593570040115,0.0016593566747059,-0.0016659436864382,0.0016659439223223,-3.3594293983176e-10,-3.3593397246612e-10,-0.00098143078996388,0.00098142925993856,-5.2392316777249e-10,-2.6105581548653e-10,-0.00087522465270157,0.00087522388603135,-0.0007532623179469,0.00075326090563959,-0.00075326223718373,0.00075326082490069,-0.00087522499733052,0.00087522372101624,-0.0008752249091153,0.00087522363277767,-0.00075326257560152,0.0007532606471313,-0.00075326249565666,0.00075326056721125,-0.0012154438593834,0.0012154428936166,-0.0012154437704012,0.0012154429819661,-0.0012154438827505,0.001215442916985,-0.0012154437943812,0.0012154430059478,-0.0012289878786351,0.0012289873400531,-0.0012289879266568,0.0012289873880269,-0.0012289880147801,0.0012289873014789,-0.001228987965418,0.0012289872521656,-0.0008752247438382,0.00087522397719125,0.63981235459812,122718,2924,0.0051936425563502,0.0070331938452619,0.0040826595057169,36.641345942346,0.00020833076753877,0.00020833076753877,0.00020833076753877,2773299.2176163,0.016444183303185
36141759,0.99359754842433,0.016649162889815,0.0054141884546933,0.0064826782610833,0.0047522961740388,-0.0012556965879435,0.0012556963846922,-6.9452572492173e-11,-6.9429275203889e-11,-1.4593994866416e-10,2.7224565455272e-11,-0.00043899321987464,0.00043899351508134,-0.0011925575899092,0.0011925575757265,-0.001192558075232,0.0011925580612515,-0.00043899356544716,0.00043899351563565,-0.00043899339128953,0.0004389933415075,-0.0011925577595185,0.0011925574047142,-0.0011925582445514,0.0011925578899501,-0.0014901569563665,0.0014901567000751,-0.0014901571683976,0.0014901569121486,-0.0014901569001301,0.0014901567579766,-0.0014901571125287,0.0014901569704155,-0.0012806151782648,0.0012806150715509,-0.0012806152204437,0.001280615113769,-0.0012806152364215,0.0012806150138389,-0.0012806152778308,0.0012806150552887,-0.00043899339300853,0.00043899368818803,4.6633145624706e-11,-1.2410821416748e-10,9.6965074489416e-11,-1.7283695203799e-10,-0.0016971840398801,0.001697183964206,-0.0016652768600599,0.001665276577123,-0.0016608239749254,0.0016608241547615,-0.0016608243229487,0.0016608241680001,-0.0016677963421327,0.0016677964147079,-0.001667796863065,0.0016677967547558,-0.0016677964408175,0.0016677963990775,-0.0016677969616452,0.001667796739022,-0.0016652763505041,0.0016652764821898,-0.0016652768944267,0.0016652764978918,-0.001660824099833,0.0016608241011126,-0.0016608244476068,0.0016608241141056,-0.0016652763161742,0.0016652765614621,-2.6485078312568e-10,-2.6484198735835e-10,-0.00098873997784751,0.00098873887411797,-4.2069984873928e-10,-1.4761015163876e-10,-0.00088909864755932,0.00088909820651756,-0.00076522271168654,0.00076522190365479,-0.00076522265619139,0.00076522184818369,-0.00088909895138589,0.00088909797412413,-0.00088909891678841,0.00088909793950397,-0.00076522298069014,0.000765221634184,-0.00076522292563832,0.00076522157915633,-0.0012193099674438,0.0012193091589398,-0.0012193098756315,0.001219309250354,-0.0012193099833218,0.0012193091748193,-0.0012193098918923,0.0012193092666166,-0.0012347921663845,0.0012347917358641,-0.0012347922173403,0.0012347917867723,-0.0012347923089043,0.0012347916961931,-0.0012347922571919,0.0012347916445294,-0.00088909868412377,0.00088909824310431,0.7056738635493,122718,2924,0.0052213001818751,0.0070450734285584,0.0041129490373942,37.942962172198,0.00021874369737759,0.00021874369737759,0.00021874369737759,2845683.2325339,0.016515127135296
36641759,0.99523618976954,0.016672754735293,0.005421920256623,0.006492004240559,0.0047588302381109,-0.0012536242549912,0.0012536245592902,6.5581203009853e-11,6.5604449784974e-11,7.2224923901681e-11,1.6792640031668e-10,-0.00042017306224788,0.00042017442353297,-0.0011878686332252,0.0011878691749689,-0.0011878686138923,0.0011878691558367,-0.00042017344087388,0.00042017459386384,-0.0004201731671834,0.00042017432020474,-0.0011878687291948,0.0011878690769387,-0.0011878687113564,0.0011878690593016,-0.0014914831577558,0.0014914831420268,-0.0014914831585491,0.0014914831428623,-0.0014914831280872,0.0014914831735344,-0.0014914831282154,0.0014914831737025,-0.0012804655570778,0.0012804656416072,-0.0012804655354132,0.0012804656199812,-0.0012804655892184,0.0012804656076987,-0.0012804655692535,0.0012804655877748,-0.0004201733381691,0.00042017469942586,2.5818629552707e-11,-7.4354663751356e-11,6.9856914948612e-11,-1.1775438739018e-10,-0.001702894066371,0.0017028940187259,-0.0016755774880062,0.001675577287649,-0.0016689796898202,0.0016689798016331,-0.001668979758455,0.0016689796723284,-0.0016684329861185,0.0016684330285746,-0.0016684333062689,0.001668433230595,-0.0016684330658429,0.0016684330469893,-0.0016684333858889,0.0016684332489061,-0.0016755774027816,0.0016755775076273,-0.001675577539775,0.001675577274243,-0.0016689798514539,0.0016689798412188,-0.0016689799198392,0.0016689797116684,-0.0016755773510496,0.0016755775210737,-4.0894933756571e-11,-4.0886263415953e-11,-0.00098360103201482,0.00098360132144023,-5.029886751258e-11,1.3320239370316e-10,-0.00087426259896295,0.00087426305331346,-0.0007518951651981,0.00075189614332134,-0.000751895196451,0.00075189617459743,-0.00087426264791364,0.00087426272244814,-0.00087426278813943,0.00087426286265153,-0.00075189535051246,0.00075189595883681,-0.00075189538083408,0.00075189598918256,-0.0012200436460628,0.0012200433999147,-0.0012200435858479,0.0012200434605603,-0.0012200436342576,0.0012200433881111,-0.001220043573601,0.0012200434483149,-0.0012333894127601,0.0012333892905704,-0.001233389479985,0.0012333893577478,-0.0012333895415142,0.0012333892949784,-0.0012333894756271,0.0012333892291392,-0.00087426245718393,0.0008742629115571,0.59899960060296,122718,2924,0.0052128388820846,0.007068703000026,0.0040917068950036,37.120377156124,0.00021216301724899,0.00021216301724899,0.00021216301724899,2734940.0351435,0.016509015366391
36891759,0.99592547814832,0.016682733424912,0.0054251961554136,0.0064959244345622,0.004761612834936,-0.0012558563703271,0.0012558566161311,4.7584301405785e-11,4.7607441345934e-11,7.3746693677365e-11,1.2129550277036e-10,-0.00043686018159644,0.0004368613532903,-0.0011922059004236,0.001192206328137,-0.0011922059251869,0.001192206353101,-0.00043686050361742,0.00043686156486379,-0.00043686023754203,0.00043686129881804,-0.001192205949104,0.0011922062784718,-0.0011922059751065,0.0011922063046756,-0.0014911044633918,0.0014911044369702,-0.001491104484454,0.0014911044580745,-0.0014911044489538,0.0014911044524564,-0.0014911044695379,0.0014911044730805,-0.0012806447793644,0.0012806448171994,-0.0012806447768325,0.0012806448147062,-0.0012806447956805,0.0012806447997527,-0.0012806447943775,0.0012806447984904,-0.00043686044945372,0.00043686162112142,9.4296018144903e-12,-4.2181657261678e-11,4.7502407422296e-11,-8.0245656609097e-11,-0.0016981811051286,0.0016981810726924,-0.001666255989769,0.0016662558473606,-0.0016618912802729,0.0016618913399338,-0.0016618913207894,0.0016618912786024,-0.0016686806537246,0.0016686806766527,-0.0016686809622521,0.0016686809052209,-0.0016686807150305,0.0016686807076531,-0.0016686810234534,0.0016686809361181,-0.0016662559074634,0.0016662559845282,-0.0016662560231902,0.0016662558476851,-0.0016618914166491,0.0016618913936733,-0.0016618914569164,0.0016618913320962,-0.0016662558740793,0.0016662559842448,-7.2185350238969e-11,-7.2176707455543e-11,-0.00098796910150538,0.00098796923280505,-6.3421328352835e-11,6.1187276693492e-11,-0.0008878732964633,0.00088787355471826,-0.00076359168597009,0.00076359238199524,-0.00076359171180351,0.00076359240785235,-0.00088787330395965,0.00088787330187007,-0.00088787342593339,0.00088787342382208,-0.00076359181276743,0.0007635922558899,-0.00076359183770546,0.00076359228085164,-0.001219072384717,0.0012190721057683,-0.0012190723438664,0.0012190721470234,-0.0012190723757318,0.0012190720967845,-0.0012190723344907,0.0012190721376495,-0.0012347648542449,0.0012347646592912,-0.001234764916684,0.0012347647216822,-0.0012347649584177,0.0012347646787979,-0.0012347648971655,0.0012347646175944,-0.00088787317306967,0.00088787343134719,0.60165460052487,122718,2924,0.0052219806112846,0.0070491923218567,0.004109760990835,36.817521964293,0.00020974017571435,0.00020974017571435,0.00020974017571435,2853718.7071121,0.016516769911801
37391759,0.99699146584497,0.016699249875125,0.0054305683843377,0.0065024943811687,0.0047661871096183,-0.0012581226120032,0.0012581224972983,-5.3821883543109e-11,-5.3798828776828e-11,-6.2051618865638e-11,-4.1273918521885e-12,-0.00043390054026662,0.00043390095299647,-0.0011936632971696,0.0011936632912938,-0.0011936636575724,0.0011936636518964,-0.00043390079807137,0.00043390109122948,-0.00043390059950888,0.00043390089269657,-0.0011936633548774,0.0011936632340099,-0.0011936637151334,0.0011936635944665,-0.0014943394857908,0.0014943392875956,-0.0014943396470355,0.0014943394488819,-0.0014943394667457,0.0014943393069151,-0.0014943396282823,0.0014943394684912,-0.0012834597698515,0.001283459642916,-0.0012834598060405,0.0012834596791439,-0.0012834597899077,0.0012834596235448,-0.0012834598254986,0.0012834596591762,-0.00043390073808178,0.0004339011507844,1.1136568138429e-11,-4.6304338904819e-11,4.8370695484927e-11,-8.3477696931307e-11,-0.0017027018191057,0.0017027017843138,-0.0016719506627764,0.0016719505174673,-0.0016672746913187,0.0016672747556082,-0.001667274876261,0.0016672748287145,-0.0016717084601655,0.001671708489245,-0.0016717088910475,0.0016717088316237,-0.0016717085227399,0.0016717085130839,-0.0016717089535174,0.0016717088553593,-0.0016719503352012,0.0016719504104346,-0.001671950670814,0.0016719504875326,-0.0016672747880095,0.0016672747656375,-0.0016672749727025,0.0016672748384983,-0.0016719503272006,0.0016719504404102,-2.3337824524494e-10,-2.333696952785e-10,-0.00098937648562021,0.00098937567147542,-2.9530450264096e-10,-1.61293359503e-10,-0.00088690151611738,0.00088690111897328,-0.00076273872558551,0.00076273818314023,-0.00076273869313594,0.00076273815071411,-0.00088690164328939,0.00088690098096763,-0.00088690164921957,0.00088690098687566,-0.00076273885878041,0.00076273804968119,-0.00076273882635665,0.00076273801728148,-0.00122197058781,0.0012219699184189,-0.0012219705425662,0.0012219699635321,-0.0012219705972293,0.0012219699278396,-0.0012219705521379,0.0012219699731057,-0.00123718436521,0.0012371839227293,-0.0012371844178687,0.0012371839753403,-0.0012371844627314,0.0012371839307479,-0.0012371844098621,0.0012371838779271,-0.00088690151117915,0.00088690111405713,0.64569470810554,122718,2924,0.0052314097976887,0.007067902658863,0.004115621161937,37.62697136084,0.00021621577088672,0.00021621577088672,0.00021621577088672,2819892.8687752,0.0165513505677
37891759,0.99778157198686,0.016710524349335,0.0054342537599621,0.0065069578049967,0.0047693127843765,-0.0012576846370752,0.0012576846955988,-7.238123203834e-12,-7.2151315826828e-12,1.2206962085687e-11,4.442693043483e-11,-0.00042323232086105,0.00042323310068502,-0.0011917277916866,0.0011917279748276,-0.0011917279834335,0.0011917281667744,-0.00042323259288936,0.0004232332984765,-0.00042323235804019,0.00042323306365624,-0.0011917278249579,0.0011917279417516,-0.0011917280171311,0.0011917281341263,-0.0014959890103143,0.0014959888943817,-0.0014959891008107,0.001495988984918,-0.001495989000107,0.0014959889049339,-0.0014959890905598,0.0014959889954252,-0.0012843101074993,0.0012843100472095,-0.0012843101210198,0.001284310060769,-0.001284310118927,0.0012843100357405,-0.0012843101326555,0.00128431004951,-0.00042323255602243,0.00042323333581806,3.9379967557258e-12,-3.0090234881626e-11,3.47622821832e-11,-6.1156085782382e-11,-0.0017072573104085,0.0017072572843475,-0.0016796769060731,0.0016796767960744,-0.0016732365323123,0.0016732365705751,-0.0016732366233005,0.0016732365951214,-0.0016729968224491,0.0016729968381096,-0.0016729971846312,0.0016729971383112,-0.0016729968791466,0.0016729968736874,-0.0016729972412238,0.001672997173787,-0.0016796767293548,0.001679676786642,-0.0016796769204147,0.0016796767885082,-0.0016732366393243,0.0016732366154231,-0.0016732367300609,0.0016732366397238,-0.0016796767150515,0.0016796767942494,-1.5874016847373e-10,-1.5873161114133e-10,-0.00098700307606118,0.00098700272906231,-1.6811141608645e-10,-7.2447470299733e-11,-0.00087795229816349,0.00087795219397634,-0.00075512830351629,0.00075512834858539,-0.00075512830007612,0.00075512834516831,-0.00087795232910388,0.00087795202868757,-0.00087795239617706,0.00087795209573903,-0.00075512840048341,0.00075512825178848,-0.00075512839661027,0.00075512824794099,-0.0012235018103494,0.0012235013307368,-0.0012235017784624,0.0012235013627709,-0.0012235018104471,0.001223501330837,-0.0012235017784375,0.0012235013627474,-0.0012372420096804,0.0012372416671852,-0.0012372420684663,0.0012372417259232,-0.0012372421004689,0.0012372416934476,-0.0012372420421761,0.0012372416352026,-0.00087795223090691,0.00087795212674193,0.59392842268672,122718,2924,0.0052296764291435,0.0070867480647385,0.0041058246940521,37.709243661552,0.00021687394929242,0.00021687394929242,0.00021687394929242,2744790.7117259,0.016558825946756
38391759,0.99835217193062,0.016719693499767,0.0054372389405713,0.0065105883846722,0.0047718661745234,-0.0012580722659981,0.0012580724636813,2.9068229632597e-11,2.909117140233e-11,8.0858119192903e-11,7.2199619204134e-11,-0.00042987866994447,0.00042987971884468,-0.0011931703355002,0.0011931706522555,-0.001193170385775,0.0011931707027297,-0.00042987893195913,0.00042987998322233,-0.0004298786693634,0.000429879720656,-0.0011931703293866,0.001193170658738,-0.0011931703805378,0.0011931707100892,-0.0014953805638653,0.0014953805198357,-0.0014953805950931,0.0014953805511049,-0.0014953805672354,0.0014953805165916,-0.0014953805981746,0.0014953805475702,-0.0012838168124492,0.0012838167967741,-0.0012838168092697,0.0012838167936332,-0.0012838168102839,0.001283816798456,-0.0012838168078892,0.0012838167961014,-0.00042987893367416,0.00042987998254727,-8.3315702409541e-12,-3.4857319838688e-12,1.2811388326763e-11,-2.5378557173087e-11,-0.0017050153593499,0.0017050153471512,-0.0016749406626673,0.0016749406094785,-0.0016697758338703,0.0016697758288859,-0.0016697758288358,0.0016697758334695,-0.0016731872871067,0.0016731872827346,-0.0016731875794853,0.0016731875533642,-0.0016731873313986,0.0016731873332043,-0.0016731876236727,0.0016731876037303,-0.0016749406334885,0.001674940661509,-0.0016749406753148,0.0016749406264555,-0.0016697759385123,0.0016697759101642,-0.0016697759332284,0.0016697759145023,-0.0016749406208777,0.0016749406445727,-1.0016041917648e-10,-1.0015190179579e-10,-0.00098801287949341,0.00098801291266438,-5.2005029796743e-11,-1.5989051218255e-11,-0.00088331601111681,0.00088331610955197,-0.00075963233580494,0.00075963283181001,-0.00075963235696173,0.00075963285299013,-0.00088331593625203,0.00088331595105331,-0.00088331605226999,0.00088331606704939,-0.00075963237527492,0.00075963279286533,-0.00075963239558545,0.00075963281319994,-0.001222305832663,0.0012223055172705,-0.0012223058210862,0.0012223055292452,-0.001222305824917,0.0012223055095261,-0.0012223058129777,0.0012223055211386,-0.0012371174222364,0.0012371171470057,-0.0012371174851126,0.0012371172098342,-0.0012371174971064,0.0012371171967083,-0.0012371174353227,0.0012371171349731,-0.00088331589386529,0.0008833159923224,0.66890676255335,122718,2924,0.0052312370857987,0.0070774590008353,0.0041099861169509,37.199367703756,0.00021279494163005,0.00021279494163005,0.00021279494163005,2795460.4233525,0.016555174513599
38880000,0.99876855219256,0.01672678432642,0.0054395384188315,0.0065134136112128,0.0047738322963758,-0.0012566036325143,0.0012566036969626,-9.786088424069e-12,-9.7864921617351e-12,3.7586179944474e-11,1.8674371804878e-11,-0.00041470644744554,0.00041470721273885,-0.0011896878200918,0.0011896879664771,-0.0011896879861647,0.0011896881327348,-0.00041470667247808,0.00041470746467996,-0.00041470643413533,0.00041470722630962,-0.0011896878036136,0.0011896879841117,-0.0011896879699926,0.0011896881506766,-0.0014965803366956,0.0014965802300138,-0.0014965804174005,0.0014965803107443,-0.0014965803428813,0.0014965802234816,-0.0014965804236109,0.0014965803042353,-0.0012841527427184,0.0012841526572638,-0.0012841527564341,0.0012841526709794,-0.001284152737298,0.0012841526629837,-0.0012841527510625,0.001284152676733,-0.0004147066858992,0.00041470745119821,-1.2729693057792e-11,3.953776567781e-12,3.0807088276365e-13,-9.985027023102e-12,-0.001710276373073,0.001710276363783,-0.0016844080152395,0.0016844079888698,-0.0016770343919285,0.0016770343689737,-0.001677034421829,0.0016770344323902,-0.0016740152153197,0.0016740152026545,-0.0016740155419551,0.0016740155237743,-0.0016740152562066,0.001674015255831,-0.0016740155827378,0.001674015576847,-0.0016844079250418,0.0016844079319856,-0.0016844080150215,0.0016844080004845,-0.0016770344755326,0.001677034447254,-0.0016770345051821,0.0016770345104235,-0.0016844079252976,0.0016844079204138,-1.6324592268495e-10,-1.6321406544807e-10,-0.00098409190021885,0.00098409158965224,-1.2392695124446e-10,-1.1378680653087e-10,-0.00087074780997249,0.00087074763902564,-0.00074871519974794,0.00074871522739715,-0.00074871520101531,0.00074871522867639,-0.00087074774860698,0.00087074755019502,-0.00087074782350554,0.00087074762501365,-0.0007487152127805,0.00074871521452086,-0.00074871521353116,0.0007487152152818,-0.0012235276184526,0.0012235271623687,-0.0012235276150055,0.0012235271660325,-0.0012235276173613,0.0012235271612949,-0.0012235276137437,0.0012235271647878,-0.0012363525240812,0.0012363521368757,-0.0012363525827918,0.0012363521954996,-0.0012363525861056,0.0012363521915473,-0.0012363525279812,0.0012363521335269,-0.00087074773472976,0.00087074756383576,0.70967021185914,122718,2924,0.0052252564606692,0.0070992280514911,0.0040937848227661,37.19371134871,0.00021274969078968,0.00021274969078968,0.00021274969078968,2691847.1676367,0.016554808191421
