time,ASR_ext,ASR_strain,ASR_strain_xx,ASR_strain_yy,ASR_strain_zz,disp_x_101,disp_x_102,disp_x_103,disp_x_104,disp_x_105,disp_x_106,disp_x_p10_neg,disp_x_p10_pos,disp_x_p11_neg,disp_x_p11_pos,disp_x_p12_neg,disp_x_p12_pos,disp_x_p13_neg,disp_x_p13_pos,disp_x_p14_neg,disp_x_p14_pos,disp_x_p15_neg,disp_x_p15_pos,disp_x_p16_neg,disp_x_p16_pos,disp_x_p1_neg,disp_x_p1_pos,disp_x_p2_neg,disp_x_p2_pos,disp_x_p3_neg,disp_x_p3_pos,disp_x_p4_neg,disp_x_p4_pos,disp_x_p5_neg,disp_x_p5_pos,disp_x_p6_neg,disp_x_p6_pos,disp_x_p7_neg,disp_x_p7_pos,disp_x_p8_neg,disp_x_p8_pos,disp_x_p9_neg,disp_x_p9_pos,disp_y_101,disp_y_102,disp_y_103,disp_y_104,disp_y_105,disp_y_106,disp_y_p10_neg,disp_y_p10_pos,disp_y_p11_neg,disp_y_p11_pos,disp_y_p12_neg,disp_y_p12_pos,disp_y_p1_neg,disp_y_p1_pos,disp_y_p2_neg,disp_y_p2_pos,disp_y_p3_neg,disp_y_p3_pos,disp_y_p4_neg,disp_y_p4_pos,disp_y_p5_neg,disp_y_p5_pos,disp_y_p6_neg,disp_y_p6_pos,disp_y_p7_neg,disp_y_p7_pos,disp_y_p8_neg,disp_y_p8_pos,disp_y_p9_neg,disp_y_p9_pos,disp_z_101,disp_z_102,disp_z_103,disp_z_104,disp_z_105,disp_z_106,disp_z_p10_neg,disp_z_p10_pos,disp_z_p11_neg,disp_z_p11_pos,disp_z_p12_neg,disp_z_p12_pos,disp_z_p13_neg,disp_z_p13_pos,disp_z_p14_neg,disp_z_p14_pos,disp_z_p15_neg,disp_z_p15_pos,disp_z_p16_neg,disp_z_p16_pos,disp_z_p1_neg,disp_z_p1_pos,disp_z_p2_neg,disp_z_p2_pos,disp_z_p3_neg,disp_z_p3_pos,disp_z_p4_neg,disp_z_p4_pos,disp_z_p5_neg,disp_z_p5_pos,disp_z_p6_neg,disp_z_p6_pos,disp_z_p7_neg,disp_z_p7_pos,disp_z_p8_neg,disp_z_p8_pos,disp_z_p9_neg,disp_z_p9_pos,humidity,ndof,nelem,strain_xx,strain_yy,strain_zz,temp,thermal_strain_xx,thermal_strain_yy,thermal_strain_zz,vonmises,vstrain
14391759,0,0,0,0,0,0,0,0,0,0,0,0,0,0,0,0,0,0,0,0,0,0,0,0,0,0,0,0,0,0,0,0,0,0,0,0,0,0,0,0,0,0,0,0,0,0,0,0,0,0,0,0,0,0,0,0,0,0,0,0,0,0,0,0,0,0,0,0,0,0,0,0,0,0,0,0,0,0,0,0,0,0,0,0,0,0,0,0,0,0,0,0,0,0,0,0,0,0,0,0,0,0,0,0,0,0,0,0,0,0,0,0,0,0,0,0,0,0,0,0,0,0,0
15391759,0.10003771796399,0.0017510369620957,0.00058367898736522,0.00058367898736522,0.00058367898736522,-0.00016794469876071,0.00016794397149865,-1.9295296762517e-10,-1.9295292668524e-10,-3.0235872454557e-10,-1.7549492089769e-10,-0.00014967993113668,0.00014967834997439,-0.00016443213343771,0.00016443143865558,-0.00016443270776951,0.0001644320129869,-0.00014967936971259,0.00014967755814104,-0.00014968004270149,0.00014967823112371,-0.00016443225431462,0.0001644313183444,-0.00016443282568812,0.00016443188972331,-0.00017474331338074,0.00017474301003954,-0.00017474354548273,0.00017474324214693,-0.00017474327061545,0.00017474305297828,-0.00017474350405731,0.00017474328642765,-0.0001668962630889,0.00016689600884874,-0.00016689648095927,0.00016689622671605,-0.00016689630532373,0.00016689596892393,-0.00016689652032883,0.00016689618392993,-0.00014967925232893,0.00014967767115703,3.8371950976473e-11,-8.0348457703888e-11,4.726095353384e-11,-8.7536930612005e-11,-0.00017498171121887,0.00017498167078376,-0.00017270120115974,0.00017270107134643,-0.00017370388155214,0.00017370400179124,-0.00017370432215801,0.00017370421120227,-0.0001758137367024,0.00017581378841141,-0.00017581389437943,0.00017581384877262,-0.00017581376264975,0.00017581372823513,-0.00017581392033686,0.00017581378859499,-0.00017270051862593,0.00017270056821784,-0.0001727011543378,0.00017270094273448,-0.00017370380099997,0.00017370382896114,-0.00017370424160013,0.00017370403837883,-0.00017270056544056,0.00017270069683086,-3.1213252398551e-10,-3.1213256506072e-10,-0.00016497569057439,0.00016497403038893,-4.5281323515555e-10,-3.1108063259221e-10,-0.00015967631257757,0.000159675087336,-0.00015879910508183,0.00015879716528997,-0.00015879896467385,0.00015879702488128,-0.00015967687682937,0.00015967539304955,-0.00015967644553278,0.00015967496176574,-0.00015879923845892,0.00015879702897714,-0.00015879910134212,0.00015879689186175,-0.00017146693681546,0.00017146633665548,-0.00017146688762028,0.00017146638424056,-0.00017146698748363,0.00017146638732625,-0.00017146693979958,0.00017146643641923,-0.00016721472455248,0.00016721429935945,-0.00016721464950537,0.00016721422430105,-0.00016721469752703,0.00016721417983799,-0.00016721476927674,0.00016721425158519,-0.00015967675080002,0.00015967552555441,0.70055894083924,122718,2924,0.00069952336535741,0.00072882325856035,0.0006871586384004,27.141057253559,0.00013232845802847,0.00013232845802847,0.00013232845802847,1217942.9861356,0.0021177486485232
16391759,0.18880376584136,0.0034051180195579,0.0011334198995854,0.0011575083481193,0.0011141897718533,-0.00029104632417824,0.00029104572437628,-1.9995114737235e-10,-1.9995090851567e-10,-2.6112477719965e-10,-1.6996034741629e-10,-0.0002456729524576,0.00024567161686508,-0.00028676746046625,0.00028676704205171,-0.00028676816684097,0.00028676774844246,-0.00024567259784294,0.00024567109883091,-0.00024567302975395,0.00024567153072133,-0.00028676755020302,0.00028676695350596,-0.00028676825231444,0.00028676765563768,-0.00030574441999131,0.00030574403691999,-0.00030574472682639,0.00030574434375949,-0.00030574438894293,0.00030574406819721,-0.00030574469720859,0.00030574437646717,-0.00029157393605776,0.00029157362712618,-0.0002915743956621,0.00029157408672695,-0.00029157396582279,0.00029157359895833,-0.00029157442315363,0.00029157405628628,-0.00024567251370189,0.00024567117810644,7.2258507552195e-12,-7.6160518804312e-11,2.3137901094181e-11,-9.039392665259e-11,-0.00031055131872219,0.000310551251278,-0.00030659973251629,0.00030659958272865,-0.00030889869548529,0.00030889874735307,-0.00030889879235223,0.0003088986800062,-0.00031035456113822,0.00031035456211936,-0.00031035507589958,0.00031035499816187,-0.00031035475886321,0.00031035470293999,-0.0003103552736336,0.0003103551389856,-0.00030659886481579,0.00030659888055976,-0.00030659984739647,0.00030659964110331,-0.0003088987197074,0.00030889869434942,-0.00030889881656342,0.00030889862699808,-0.00030659874996965,0.00030659882222298,-3.7039857286032e-10,-3.7039842152365e-10,-0.00028017445777151,0.00028017289097806,-4.1838188266737e-10,-2.9757145132565e-10,-0.00027487147727325,0.00027487053795678,-0.00026791175873967,0.00026791032434098,-0.00026791160730823,0.00026791017293428,-0.0002748719248202,0.00027487076685982,-0.00027487159008363,0.00027487043214713,-0.00026791187469183,0.00026791020501797,-0.00026791172685825,0.0002679100572121,-0.00029393079509452,0.00029393000195596,-0.00029393075317486,0.00029393004261963,-0.00029393084786469,0.0002939300547279,-0.00029393080721187,0.00029393009665596,-0.00029136672292981,0.00029136604028692,-0.00029136667497576,0.00029136599232712,-0.0002913667156133,0.00029136595501102,-0.0002913667605207,0.00029136599992022,-0.00027487181847268,0.00027487087913086,0.7587163515091,122718,2924,0.0012119636964643,0.001293122024521,0.0011667118276502,24.45228827207,0.00011081830617656,0.00011081830617656,0.00011081830617656,1712153.8016437,0.0036785552799737
17391759,0.26794739431295,0.0047197235572855,0.0015646947475725,0.0016410913796209,0.0015139374300921,-0.00038648351910677,0.00038648326602186,-8.5138225732704e-11,-8.5137659345595e-11,-9.5764357258739e-11,-6.0261222266907e-11,-0.00029823526360021,0.00029823480058747,-0.00037936555665211,0.00037936553010764,-0.0003793660199835,0.00037936599345227,-0.00029823522166469,0.00029823469457782,-0.00029823529328077,0.00029823476618295,-0.00037936559303859,0.00037936549398384,-0.00037936605405482,0.00037936595501878,-0.0004135413186721,0.00041354108518541,-0.00041354149164156,0.00041354125815626,-0.00041354130649296,0.00041354109757749,-0.00041354148018277,0.00041354127126871,-0.00038705010043328,0.00038704993207249,-0.00038705031918739,0.00038705015082397,-0.00038705011177292,0.00038704992123119,-0.00038705032956359,0.00038705013902355,-0.0002982351884203,0.00029823472539827,-1.0049779353786e-11,-4.2333703028549e-11,1.3968539417768e-11,-6.56453172865e-11,-0.00042553764440667,0.00042553759270623,-0.00042018028943789,0.0004201801701283,-0.00042117743750667,0.00042117744362932,-0.00042117741353686,0.00042117735566999,-0.00042457795456161,0.0004245779407004,-0.00042457828936011,0.00042457822103107,-0.00042457805670783,0.00042457802257331,-0.00042457839151515,0.00042457830290815,-0.00042018031346579,0.00042018032969037,-0.0004201803774701,0.00042018023736169,-0.00042117747789864,0.00042117743065673,-0.00042117745392273,0.00042117734269586,-0.00042018022545475,0.00042018026247993,-1.8763438492696e-10,-1.8763393742671e-10,-0.00036484930708183,0.00036484850014965,-1.7189338321631e-10,-8.7473129925962e-11,-0.00035573666127401,0.00035573632182491,-0.00034076559998763,0.00034076526706835,-0.00034076553036793,0.00034076519746434,-0.00035573668336316,0.00035573619017676,-0.00035573673890669,0.00035573624572821,-0.00034076568274455,0.00034076518298086,-0.00034076561427609,0.00034076511453171,-0.000390245471817,0.00039024487231465,-0.00039024544291683,0.00039024490098161,-0.00039024548670038,0.00039024488720157,-0.0003902454581452,0.00039024491620951,-0.00038669906287145,0.00038669866472559,-0.00038669908086313,0.00038669868271253,-0.00038669910833553,0.00038669865610883,-0.00038669908959351,0.00038669863736699,-0.00035573660719628,0.00035573626773987,0.68097528185715,122718,2924,0.0016090795546123,0.0017714870361792,0.0015190617852702,22.118068808231,9.2144550465846e-05,9.2144550465846e-05,9.2144550465846e-05,2291782.0673728,0.0049116753411806
18391759,0.32493521812854,0.0055519967073101,0.0018389066452383,0.0019529066771955,0.0017601833848763,-0.00044139861624408,0.00044139862640943,-2.7149043997695e-12,-2.7143993343165e-12,2.6262991889508e-11,-1.8269992599561e-12,-0.00032391784149069,0.00032391794617883,-0.00043242072689292,0.0004324209446273,-0.00043242096529068,0.00043242118303855,-0.00032391808027113,0.00032391823941708,-0.00032391781361481,0.00032391797275268,-0.0004324207020653,0.00043242097000767,-0.00043242093951287,0.00043242120747391,-0.00047797972764464,0.00047797963850429,-0.00047797980419209,0.00047797971505436,-0.00047797973661275,0.00047797962929024,-0.00047797981338767,0.00047797970606621,-0.00044042044511077,0.00044042039603545,-0.00044042054006772,0.00044042049098826,-0.00044042043541733,0.00044042040550545,-0.00044042053044707,0.00044042050053328,-0.00032391810698323,0.00032391821165815,-2.5523095889882e-11,2.2491038061285e-12,-4.5657930181574e-13,-2.314171027193e-11,-0.00049294311368037,0.00049294309020788,-0.00048398852684059,0.00048398847050913,-0.00048461698768884,0.00048461694454967,-0.00048461684898671,0.00048461685948757,-0.00049440852189377,0.00049440849529694,-0.00049440874851854,0.00049440870733464,-0.00049440856867424,0.00049440856331179,-0.00049440879530978,0.00049440877535495,-0.00048398880595257,0.00048398881511267,-0.00048398860278072,0.00048398856646991,-0.00048461704714407,0.00048461698941745,-0.0004846169084391,0.000484616904354,-0.00048398873002895,0.0004839887191751,-6.2153997123162e-11,-6.2153610254466e-11,-0.00041112549177291,0.00041112522301101,-2.2740674321098e-11,2.3089816451001e-12,-0.00039913608634597,0.00039913616984884,-0.00037917256971658,0.00037917280901393,-0.00037917255842607,0.00037917279773763,-0.00039913586390391,0.00039913590401396,-0.00039913610715825,0.00039913614726992,-0.00037917259603756,0.00037917278267518,-0.00037917258430741,0.00037917277096047,-0.00044497453987814,0.00044497418621244,-0.00044497453149185,0.00044497419500399,-0.00044497453124236,0.00044497417757821,-0.00044497452258984,0.00044497418610269,-0.00043999429690229,0.00043999408133953,-0.00043999435532502,0.00043999413975613,-0.0004399943626242,0.00043999413187012,-0.00043999430482374,0.00043999407407151,-0.0003991358415211,0.00039913592501738,0.60484717275765,122718,2924,0.0018375194031579,0.0020517922867549,0.0017115793800691,17.518342946386,5.5346743571088e-05,5.5346743571088e-05,5.5346743571088e-05,2724901.1464578,0.0056166478800146
19391759,0.38361418162493,0.0065816482175344,0.002176326459767,0.0023444429425109,0.0020608788152565,-0.00052030983286183,0.00052030984566641,4.0464558394341e-12,4.0469200017248e-12,4.4982301674502e-11,2.2485506024402e-12,-0.00036633258521341,0.00036633280314685,-0.00051383642939944,0.00051383669124485,-0.00051383660205948,0.00051383686392022,-0.00036633293507782,0.00036633323577692,-0.00036633254373122,0.00036633284442229,-0.00051383639068092,0.00051383673152283,-0.00051383656276604,0.00051383690362615,-0.00056539025547874,0.00056539018118029,-0.00056539031520597,0.00056539024090668,-0.00056539026902713,0.00056539016687866,-0.00056539032893952,0.00056539022679404,-0.00052101746985771,0.0005210174275344,-0.00052101750797818,0.00052101746565409,-0.00052101745566855,0.00052101744184683,-0.00052101749376994,0.00052101747994767,-0.00036633297564466,0.00036633319356084,-2.2783315661816e-11,1.9028169261314e-11,3.9435331601219e-12,-8.6053567887277e-12,-0.00058881355281526,0.00058881354844835,-0.00057954894324653,0.00057954891127368,-0.00057713564512198,0.00057713560427359,-0.0005771355320343,0.00057713557271682,-0.00058911831400962,0.00058911829988213,-0.00058911846581617,0.00058911844242831,-0.00058911828816253,0.00058911830286703,-0.00058911843998074,0.00058911844541743,-0.00057954935786668,0.00057954938041727,-0.00057954896612559,0.00057954896332656,-0.00057713571512343,0.00057713566643203,-0.0005771356020322,0.00057713563487318,-0.00057954933500331,0.00057954932838058,-6.0482775017493e-11,-6.0482417050919e-11,-0.00047892748408215,0.00047892715987552,-3.0273564495187e-11,-1.5174944959966e-11,-0.00046896393539425,0.00046896401447521,-0.00043974207363458,0.00043974227039272,-0.00043974206778334,0.00043974226454773,-0.00046896364881526,0.0004689637043255,-0.00046896394613635,0.00046896400163694,-0.00043974209010715,0.00043974225405153,-0.00043974208349236,0.00043974224744894,-0.00052048388358272,0.0005204835314892,-0.0005204838784178,0.00052048353710676,-0.00052048386752489,0.0005204835154323,-0.00052048386204055,0.00052048352073132,-0.00052019399251108,0.00052019377420452,-0.00052019406501616,0.00052019384670436,-0.00052019406903247,0.00052019384199336,-0.00052019399725485,0.00052019377021845,-0.00046896363631796,0.00046896371539607,0.73021614767059,122718,2924,0.0021656975805895,0.0024503306472443,0.0019935834794861,17.480341486898,5.5042731895186e-05,5.5042731895186e-05,5.5042731895186e-05,2905653.9969757,0.0066315538648093
20391759,0.44806213459038,0.0077612238211125,0.0025566522303114,0.002811226707827,0.0023933448829741,-0.00060912139327149,0.00060912142399471,4.9764440612852e-12,4.9769266862472e-12,4.4870332609786e-11,3.0158975281654e-12,-0.00039714196051287,0.00039714224590593,-0.00060089675446751,0.00060089706063178,-0.00060089694239719,0.00060089724857827,-0.00039714231127734,0.00039714267753898,-0.00039714192012285,0.00039714228638992,-0.00060089671685993,0.00060089710053084,-0.00060089690422879,0.00060089728791613,-0.0006683492836143,0.00066834920294446,-0.00066834934759302,0.00066834926692095,-0.00066834929671772,0.00066834918891127,-0.0006683493609024,0.0006683492530993,-0.00061333313527569,0.00061333309492424,-0.00061333316399996,0.00061333312365091,-0.00061333312166628,0.00061333310887867,-0.00061333315033614,0.00061333313755186,-0.00039714235066796,0.000397142636036,-1.8159300657595e-11,2.2361734011435e-11,7.5567184856727e-12,-4.5351584393169e-12,-0.00070798762404337,0.00070798762746625,-0.00070063783202938,0.00070063780883707,-0.00069450804556445,0.00069450801368804,-0.00069450792750538,0.00069450797500329,-0.00070324199109079,0.00070324198554188,-0.00070324213602232,0.00070324212114789,-0.00070324194739739,0.00070324196900029,-0.00070324209234268,0.00070324210460936,-0.00070063819920345,0.00070063822833257,-0.00070063784017501,0.00070063784502727,-0.00069450810087505,0.00069450806138476,-0.00069450798281139,0.00069450802269525,-0.00070063819106832,0.00070063819214215,-7.5113357991607e-11,-7.5113058445051e-11,-0.00055211907355381,0.00055211870904593,-4.806538423477e-11,-3.3385955274998e-11,-0.00053888135403664,0.00053888138165028,-0.00049815406029903,0.00049815419581861,-0.00049815405373363,0.00049815418924213,-0.00053888105730778,0.00053888106233048,-0.00053888136434005,0.00053888136934881,-0.00049815407630854,0.00049815417989658,-0.00049815406905737,0.00049815417265224,-0.00060783205488965,0.00060783169009373,-0.00060783204978853,0.00060783169558683,-0.0006078320321236,0.00060783166732906,-0.00060783202674246,0.00060783167254032,-0.00061142241295881,0.00061142217611098,-0.00061142250852838,0.00061142227168118,-0.00061142251243492,0.00061142226706281,-0.00061142241758294,0.00061142217220474,-0.00053888104534076,0.00053888107295098,0.76377140340812,122718,2924,0.0025349622430604,0.0029455074407718,0.0022979377982332,18.60019805306,6.4001584424482e-05,6.4001584424482e-05,6.4001584424482e-05,3057983.0316871,0.0078088121986035
21391759,0.49823903031358,0.0085904772503572,0.0028240914832689,0.0031452641254095,0.0026211216416788,-0.00066362109029187,0.00066362140561578,7.9277733546129e-11,7.9278258552149e-11,1.6514379685272e-10,6.9444167293064e-11,-0.00040908416404404,0.00040908505021667,-0.00065228458815911,0.00065228517283266,-0.00065228457445516,0.00065228515914248,-0.00040908466842731,0.00040908573324752,-0.0004090840761312,0.00040908514095944,-0.00065228449931558,0.00065228526410014,-0.00065228448612453,0.00065228525092503,-0.00073505368308674,0.000735053723296,-0.00073505366293726,0.00073505370314535,-0.00073505371429373,0.00073505369100203,-0.0007350536938534,0.00073505367056033,-0.000668421947237,0.00066842200752993,-0.00066842190046763,0.00066842196075929,-0.00066842191581694,0.00066842203847316,-0.00066842187009429,0.00066842199274891,-0.00040908475744812,0.00040908564358857,-3.245052204118e-11,5.8301701628918e-11,-1.0309483140602e-11,3.4175144855136e-11,-0.00078513613371559,0.00078513615806753,-0.00077624065488832,0.00077624069007635,-0.00076886291594882,0.00076886283732233,-0.00076886263424545,0.00076886273285597,-0.00077920542949863,0.00077920540611843,-0.00077920551871423,0.00077920552671608,-0.00077920537074927,0.00077920541087691,-0.00077920545997871,0.00077920553147857,-0.00077624125413678,0.00077624126641273,-0.00077624067436008,0.00077624077202605,-0.00076886298949528,0.00076886294185844,-0.0007688627077918,0.00076886283738708,-0.00077624123467301,0.00077624118446918,3.4611079402396e-11,3.4611275842296e-11,-0.00059374964246812,0.00059374989254671,1.1797449828175e-10,7.3258793684397e-11,-0.00057642432461364,0.00057642478277426,-0.00052808224243891,0.00052808308591362,-0.00052808228591177,0.00052808312938373,-0.00057642384224924,0.0005764243864652,-0.00057642427914821,0.0005764248233572,-0.00052808220242551,0.00052808312715238,-0.00052808224399237,0.00052808316872826,-0.0006611462538449,0.00066114611173357,-0.00066114626929688,0.00066114609726734,-0.00066114621175356,0.00066114606964605,-0.00066114622634486,0.00066114605431627,-0.00066536657982205,0.00066536649274573,-0.00066536670889329,0.00066536662181669,-0.00066536669268799,0.00066536663589032,-0.0006653665656494,0.00066536650885407,-0.00057642388333603,0.00057642434149496,0.6908403174145,122718,2924,0.0027615231072791,0.0032659190284341,0.0024710298573233,15.321662924277,3.7773303394213e-05,3.7773303394213e-05,3.7773303394213e-05,3258518.568837,0.0085347884005473
22391759,0.5455563932666,0.0093705607528153,0.0030752822605115,0.0034621457626259,0.0028331327296779,-0.0007208597878008,0.00072086003081634,5.9826404726755e-11,5.9826901608634e-11,1.4037309346306e-10,3.9932724465032e-11,-0.00043035931965247,0.00043036002762228,-0.00070765721123925,0.00070765771887683,-0.00070765725596682,0.00070765776361765,-0.00043035974173083,0.00043036064012857,-0.00043035922562134,0.00043036012402034,-0.00070765711755462,0.00070765781584486,-0.00070765716250125,0.00070765786080818,-0.00080269628083854,0.00080269629816849,-0.00080269627401439,0.0008026962913434,-0.00080269631320208,0.00080269626437222,-0.00080269630627951,0.0008026962574513,-0.00072590507033661,0.00072590510377041,-0.00072590503090937,0.0007259050643409,-0.00072590503767422,0.00072590513654813,-0.00072590499881658,0.00072590509769174,-0.00043035983614587,0.00043036054408436,-2.9685682652184e-11,6.6193754532119e-11,-1.1486528770901e-11,4.5744048433073e-11,-0.00086181438455692,0.00086181441936101,-0.00085085149574717,0.00085085155253005,-0.00084210805087761,0.00084210797364837,-0.00084210782716905,0.00084210793779845,-0.00085610993883652,0.00085610992199198,-0.00085610998511,0.00085611000609371,-0.00085610983773098,0.00085610988556965,-0.00085610988401934,0.00085610996967451,-0.00085085209345866,0.00085085210485221,-0.00085085147892847,0.00085085160108202,-0.00084210808632499,0.00084210804810593,-0.00084210786261338,0.00084210801225336,-0.00085085211028778,0.00085085205630592,-6.3691335509346e-12,-6.3689406244122e-12,-0.00063905578349194,0.00063905583220973,6.9492266657301e-11,1.278501834926e-11,-0.00062026698231258,0.00062026724193763,-0.00056423881608707,0.00056423938216433,-0.00056423884681887,0.00056423941289106,-0.00062026653148231,0.00062026690339081,-0.00062026692402484,0.00062026729592751,-0.00056423876360301,0.00056423943557654,-0.00056423879273573,0.00056423946471738,-0.00071586541354102,0.0007158652229433,-0.00071586543256977,0.0007158652046371,-0.00071586537129421,0.0007158651806989,-0.0007158653896895,0.0007158651617602,-0.00072172945540298,0.0007217293064725,-0.00072172958991657,0.00072172944098255,-0.00072172956987129,0.00072172945926839,-0.00072172943702114,0.00072172932641906,-0.00062026658601895,0.0006202668456448,0.69163756941875,122718,2924,0.0029994090315258,0.003584269211041,0.0026593645204136,14.812486243632,3.3699889949052e-05,3.3699889949052e-05,3.3699889949052e-05,3462753.5551159,0.0092860158277331
23391759,0.59378901319439,0.010130310463762,0.0033199068784762,0.0037731088394018,0.0030372947458843,-0.00077778887616607,0.00077778907816302,4.7198308271139e-11,4.7198913723231e-11,1.2009595426868e-10,2.804752893195e-11,-0.00044466275717078,0.0004446633687615,-0.00076147254242114,0.00076147300808014,-0.00076147264106689,0.00076147310674034,-0.00044466312533205,0.00044466391213393,-0.0004446626704438,0.00044466345726131,-0.00076147245683439,0.0007614730973198,-0.00076147255543223,0.00076147319593351,-0.00087192951809375,0.0008719295150943,-0.00087192952924625,0.00087192952624128,-0.00087192954758984,0.00087192948412523,-0.00087192955877011,0.00087192949530322,-0.00078348651088382,0.00078348653165824,-0.00078348648414876,0.00078348650492351,-0.00078348648114432,0.00078348656180481,-0.00078348645471583,0.0007834865353773,-0.00044466321189613,0.00044466382345142,-2.3913717511169e-11,6.3927340916558e-11,-7.9724014780191e-12,4.5747960269452e-11,-0.00094140227302868,0.00094140231136814,-0.00092869672451112,0.00092869678431895,-0.00091862425901338,0.0009186241944906,-0.00091862408167579,0.00091862418938584,-0.00093507630971857,0.00093507630098757,-0.00093507635697566,0.00093507638301445,-0.00093507619697196,0.00093507624676096,-0.00093507624424271,0.00093507632879153,-0.00092869726929838,0.00092869728469889,-0.00092869669600415,0.00092869681551219,-0.00091862427627867,0.00091862424817675,-0.0009186240989347,0.00091862424306637,-0.00092869729781466,0.00092869725351314,-3.5489555913873e-11,-3.5489432697192e-11,-0.00068294132490748,0.00068294123566054,2.9027189715382e-11,-2.3657331152419e-11,-0.00066010427735518,0.00066010441835934,-0.00059667829304086,0.00059667867105097,-0.00059667831273568,0.00059667869074344,-0.00066010387801615,0.00066010412491182,-0.00066010422257656,0.00066010446945874,-0.00059667824407286,0.00059667872071921,-0.00059667826248501,0.00059667873914118,-0.00077135888276505,0.00077135864762618,-0.00077135890024046,0.00077135863068783,-0.00077135884228831,0.00077135860715344,-0.00077135885927418,0.00077135858972125,-0.00077789176041073,0.00077789157101209,-0.00077789189961723,0.00077789171021406,-0.00077789188103014,0.0007778917273617,-0.00077789174319581,0.00077789158952565,-0.00066010392961714,0.00066010407062599,0.66282300645257,122718,2924,0.0032359803848685,0.003914582620329,0.0028417768033621,15.632738918191,4.0261911345524e-05,4.0261911345524e-05,4.0261911345524e-05,3583612.6885751,0.010042588702617
24391759,0.64646517977883,0.010996674589841,0.0035979075607003,0.0041306455540008,0.00326812147514,-0.00084520032462534,0.00084520045453285,2.5573254269342e-11,2.5571755403367e-11,8.4177852836143e-11,9.5378815948526e-12,-0.00046463465734881,0.00046463510172322,-0.00082636328254449,0.00082636367175488,-0.00082636347377843,0.00082636386302018,-0.00046463494933397,0.00046463553681327,-0.00046463458616881,0.00046463517367573,-0.00082636321368554,0.00082636374449281,-0.00082636340446827,0.00082636393531211,-0.00095255487886334,0.00095255484081662,-0.00095255492651454,0.00095255488846577,-0.00095255490251406,0.00095255481571932,-0.00095255495037346,0.00095255486357797,-0.00085229231454025,0.00085229231214816,-0.00085229231699247,0.00085229231459488,-0.0008522922906698,0.00085229233675727,-0.00085229229306064,0.00085229233914646,-0.00046463501957081,0.00046463546390023,-1.6122574642882e-11,5.5159370566151e-11,-2.2356437614412e-13,3.7209128698424e-11,-0.0010348921132401,0.0010348921507714,-0.0010206406378305,0.0010206406868042,-0.0010085757489914,0.0010085757053713,-0.0010085756380597,0.0010085757343123,-0.0010275126605408,0.0010275126627284,-0.0010275127399028,0.0010275127652271,-0.0010275125493102,0.0010275125982049,-0.0010275126286857,0.0010275127007076,-0.0010206410637173,0.0010206410884084,-0.0010206406037375,0.0010206407009908,-0.0010085757506849,0.0010085757323192,-0.0010085756397404,0.0010085757612508,-0.0010206410977916,0.0010206410742012,-7.951447691961e-11,-7.9516454757037e-11,-0.00073511632240358,0.00073511601020343,-3.793922563803e-11,-7.3443724102915e-11,-0.00070908203163167,0.00070908199797801,-0.00063675849367619,0.00063675857891015,-0.00063675849422033,0.00063675857939533,-0.00070908172573853,0.00070908176667264,-0.00070908199299565,0.00070908203392014,-0.00063675846088281,0.00063675861206519,-0.00063675846061286,0.00063675861174825,-0.00083602786816781,0.00083602755258452,-0.00083602787964936,0.0008360275413948,-0.00083602783355191,0.00083602751796757,-0.00083602784473979,0.00083602750648344,-0.00084472952366486,0.00084472927691402,-0.00084472966240094,0.00084472941564661,-0.00084472964967594,0.00084472942741948,-0.00084472951186865,0.00084472928960809,-0.0007090817620881,0.00070908172843922,0.69344629843763,122718,2924,0.0035160507767609,0.0043024413862446,0.0030586073280155,17.852185257283,5.8017482058265e-05,5.8017482058265e-05,5.8017482058265e-05,3692489.5147772,0.010936666906194
25391759,0.70100475429153,0.01198088466177,0.0039118392475236,0.0045417315912487,0.0035273138229981,-0.00091884299458627,0.00091884313917309,2.7496555837329e-11,2.7494563104088e-11,8.3076522716316e-11,1.5057018371366e-11,-0.00047733175709377,0.00047733221704311,-0.00089680086696934,0.0008968012621557,-0.0008968010962956,0.00089680149151829,-0.00047733201057405,0.00047733260046077,-0.00047733169234592,0.00047733228225509,-0.00089680080452592,0.00089680132837936,-0.00089680103332842,0.00089680155721901,-0.0010421728812148,0.0010421728460973,-0.0010421729445953,0.0010421729094764,-0.0010421729027856,0.0010421728231909,-0.0010421729663829,0.0010421728867869,-0.00092945706721416,0.00092945707407224,-0.00092945708505083,0.0009294570919025,-0.00092945704552208,0.00092945709645327,-0.00092945706332486,0.00092945711425234,-0.00047733207431711,0.00047733253422456,-1.2778613151552e-11,5.1836082031511e-11,3.7648301929042e-12,3.3358501008928e-11,-0.0011431479528668,0.0011431479905052,-0.0011293094342973,0.0011293094779959,-0.0011141711562886,0.0011141711219771,-0.0011141710627853,0.0011141711551069,-0.0011315884257886,0.0011315884324157,-0.0011315885408158,0.0011315885658489,-0.001131588327029,0.0011315883764141,-0.0011315884420677,0.0011315885098498,-0.0011293097833722,0.0011293098136329,-0.0011293094082564,0.0011293094957214,-0.0011141711553318,0.0011141711410456,-0.0011141710618198,0.0011141711741661,-0.0011293098093925,0.0011293097958837,-8.703108454795e-11,-8.7033465742511e-11,-0.00078982851668785,0.000789828172164,-5.5883493221355e-11,-8.3525666131322e-11,-0.00075843055738516,0.00075843048218099,-0.00067571204926777,0.00067571206563391,-0.00067571204312664,0.00067571205943627,-0.00075843029197509,0.00075843027596385,-0.00075843052657214,0.00075843051054116,-0.00067571202413136,0.00067571209110255,-0.00067571201731284,0.00067571208423812,-0.0009067932492867,0.00090679292359834,-0.00090679325817666,0.00090679291495438,-0.0009067932173309,0.00090679289163893,-0.00090679322594025,0.00090679288271131,-0.00091875815633654,0.0009187579081112,-0.00091875829852691,0.00091875805030066,-0.0009187582884428,0.00091875805950398,-0.00091875814712414,0.00091875791818012,-0.00075843032066649,0.00075843024547224,0.76207065498803,122718,2924,0.003821977600814,0.0047513499879443,0.0032859662195509,19.834688377061,7.3877507016486e-05,7.3877507016486e-05,7.3877507016486e-05,3720810.8746086,0.011930147251747
26391759,0.75099063024357,0.012955135994145,0.0042214850828031,0.0049528925610014,0.0037807583503407,-0.00098725112127557,0.00098725137534176,5.3919678820236e-11,5.3917454535245e-11,1.2603718873863e-10,4.3576667939177e-11,-0.0004797556697385,0.00047975635813073,-0.00096086783788715,0.00096086834069431,-0.00096086801239044,0.00096086851523027,-0.00047975593612674,0.00047975677983758,-0.00047975559261856,0.00047975643635324,-0.00096086776169319,0.00096086842042935,-0.00096086793601821,0.00096086859479482,-0.0011278055849627,0.0011278055952039,-0.0011278056261605,0.0011278056364037,-0.0011278056115056,0.0011278055673866,-0.0011278056527381,0.0011278056086233,-0.0010023274999848,0.0010023275454139,-0.0010023275085343,0.0010023275539518,-0.0010023274734573,0.0010023275722365,-0.0010023274824008,0.0010023275811767,-0.00047975601297434,0.00047975670132178,-1.6581533445535e-11,6.1181359774985e-11,-6.482574902963e-13,4.3177586660248e-11,-0.0012502178444466,0.0012502178874792,-0.0012374883277123,0.0012374883859617,-0.0012195425918067,0.0012195425453808,-0.0012195424478725,0.0012195425534935,-0.0012327872991311,0.0012327873005929,-0.0012327874142014,0.0012327874449905,-0.0012327872034066,0.0012327872577011,-0.0012327873184892,0.0012327874021056,-0.0012374887246223,0.0012374887511062,-0.0012374883101709,0.0012374884212252,-0.0012195425986641,0.0012195425820836,-0.0012195424547194,0.001219542590186,-0.0012374887421491,0.0012374887158195,-5.0591031622567e-11,-5.0593333059139e-11,-0.00083735174981833,0.00083735162721985,-7.9919893612404e-13,-4.3788771830873e-11,-0.00079822077724546,0.00079822083924691,-0.0007055643963483,0.00070556466590871,-0.00070556440357662,0.00070556467308411,-0.0007982204854034,0.00079822063362945,-0.00079822073255177,0.00079822088077702,-0.00070556435693644,0.00070556470598444,-0.0007055643631849,0.00070556471220153,-0.00097236595369976,0.00097236570967398,-0.00097236596799731,0.00097236569578616,-0.00097236591759289,0.00097236567355871,-0.00097236593143859,0.00097236565921424,-0.00098730184973557,0.00098730165590486,-0.00098730199936552,0.00098730180553132,-0.00098730198409802,0.0009873018195074,-0.00098730183573215,0.00098730167113457,-0.00079822052724267,0.00079822058925732,0.82335182229769,122718,2924,0.004106146851717,0.0051951147021476,0.0034834582235995,20.411742741385,7.8493941931083e-05,7.8493941931083e-05,7.8493941931083e-05,3699404.5443115,0.012867122915239
27391759,0.79879141248733,0.013797517848649,0.0044912385734223,0.0053075665051438,0.0039987127700833,-0.0010477424379789,0.0010477426101716,2.8898895643869e-11,2.8896611934223e-11,9.2553516641833e-11,1.6995322775144e-11,-0.00047853923341803,0.00047853972843816,-0.0010148907892318,0.0010148912001267,-0.0010148910578569,0.0010148914687868,-0.00047853942110151,0.0004785400606728,-0.00047853916118872,0.00047853980078167,-0.0010148907193702,0.0010148912737672,-0.001014890987412,0.0010148915418504,-0.0012062228252961,0.0012062228000276,-0.0012062229036021,0.0012062228783344,-0.0012062228493196,0.0012062227746204,-0.0012062229278726,0.0012062228531745,-0.0010652685234852,0.0010652685333247,-0.0010652685626021,0.001065268572432,-0.0010652684993482,0.0010652685581882,-0.0010652685383915,0.0010652685972256,-0.00047853949227128,0.00047853998725623,-1.3938457189701e-11,5.7900018900049e-11,2.6051054158178e-12,3.9378599510816e-11,-0.0013466079737422,0.0013466080162104,-0.0013317347216166,0.0013317347748194,-0.0013138178529524,0.0013138178141383,-0.0013138177609192,0.0013138178628509,-0.0013260024325,0.001326002439073,-0.00132600257049,0.0013260026002783,-0.0013260023303885,0.0013260023845633,-0.0013260024683884,0.0013260025457714,-0.0013317350382092,0.0013317350686554,-0.0013317346927914,0.0013317347944502,-0.0013138178436655,0.0013138178295969,-0.0013138177516188,0.0013138178782987,-0.0013317350670231,0.0013317350490061,-9.6068481739156e-11,-9.6070861237164e-11,-0.00087705497909527,0.00087705462444337,-6.2937950756638e-11,-9.7781471765952e-11,-0.00082751454400635,0.0008275144099965,-0.00072752566036658,0.0007275256226059,-0.00072752564881707,0.00072752561100873,-0.00082751432566313,0.000827514265078,-0.00082751450620819,0.00082751444560476,-0.00072752562811614,0.00072752565513175,-0.00072752561602452,0.00072752564301002,-0.00103052583409,0.001030525508107,-0.0010305258453197,0.0010305254970481,-0.001030525804254,0.001030525478265,-0.0010305258152486,0.0010305254669683,-0.0010453028346563,0.0010453025769005,-0.0010453029765175,0.0010453027187626,-0.0010453029640845,0.0010453027304066,-0.0010453028230039,0.0010453025893196,-0.00082751436154171,0.00082751422754112,0.74366212196709,122718,2924,0.0043574124734819,0.0055944251452168,0.0036484651030897,22.213589670112,9.2908717360898e-05,9.2908717360898e-05,9.2908717360898e-05,3648490.6568357,0.013693625993077
28391759,0.84126762444177,0.01464866237867,0.0047625382524361,0.0056662301667017,0.004219893959532,-0.0011098131256491,0.0011098133550967,4.3220705004777e-11,4.3218455647023e-11,1.1291746333136e-10,3.2972926052684e-11,-0.00049041854864885,0.00049041915793644,-0.001073560507783,0.0010735609784301,-0.0010735607528512,0.0010735612235339,-0.00049041874025023,0.00049041950104082,-0.00049041847310333,0.00049041923391052,-0.0010735604338105,0.0010735610559831,-0.0010735606784725,0.0010735613006832,-0.0012823427219819,0.0012823427222228,-0.0012823427908413,0.0012823427910793,-0.001282342747624,0.001282342695304,-0.0012823428166247,0.0012823427643054,-0.001129815951042,0.0011298159841061,-0.0011298159897197,0.0011298160227747,-0.0011298159254059,0.0011298160102147,-0.0011298159642668,0.0011298160490748,-0.00049041881513857,0.00049041942438206,-1.4464494943138e-11,6.1063366673711e-11,1.9992273367419e-12,4.2593927167116e-11,-0.0014392210726195,0.0014392211176813,-0.0014224754881891,0.0014224755462903,-0.0014041851099576,0.0014041850689197,-0.001404185000578,0.0014041851072772,-0.0014162825564605,0.001416282562249,-0.001416282700747,0.0014162827332144,-0.0014162824570977,0.0014162825137224,-0.0014162826013921,0.001416282684691,-0.0014224758040121,0.0014224758347623,-0.0014224754646187,0.0014224755737784,-0.0014041851056778,0.0014041850921235,-0.0014041849962892,0.0014041851304652,-0.0014224758275775,0.0014224758072606,-7.7204922512107e-11,-7.7207403175654e-11,-0.00092005109622858,0.00092005085567022,-3.707378641484e-11,-7.638291425293e-11,-0.00086725907367777,0.00086725901163452,-0.00075800812806277,0.00075800822070545,-0.00075800812320942,0.00075800821581156,-0.00086725885232618,0.00086725887067596,-0.00086725903222751,0.00086725905055596,-0.00075800809185481,0.00075800825735482,-0.00075800808632977,0.00075800825180264,-0.0010869781746054,0.0010869778931974,-0.0010869781874867,0.0010869778805545,-0.0010869781427918,0.0010869778613815,-0.0010869781553603,0.0010869778484196,-0.0011056012424068,0.0011056010157183,-0.0011056013875008,0.0011056011608148,-0.0011056013735622,0.001105601173764,-0.00110560122944,0.0011056010296376,-0.00086725889151283,0.00086725882948201,0.84556057744222,122718,2924,0.0046151375766264,0.0059779182043087,0.0038270946990231,23.413611708457,0.00010250889366765,0.00010250889366765,0.00010250889366765,3682641.7975888,0.014525108761301
29391759,0.87799058025976,0.015208869586421,0.0049438679258298,0.0058998052350571,0.0043651964255339,-0.0011462659971951,0.0011462662199483,3.8965388031201e-11,3.8963158805185e-11,1.1046561346898e-10,2.9958407497098e-11,-0.0004683339719283,0.0004683345620885,-0.0011013705640671,0.0011013710260356,-0.0011013708300717,0.0011013712920743,-0.00046833414079707,0.000468334883959,-0.00046833389548384,0.00046833463866278,-0.0011013704894429,0.0011013711042128,-0.0011013707549554,0.0011013713697649,-0.0013365163660728,0.0013365163626565,-0.001336516443613,0.0013365164401965,-0.001336516391863,0.0013365163355748,-0.0013365164695886,0.0013365164133002,-0.0011682847034332,0.0011682847293649,-0.0011682847509068,0.0011682847768303,-0.0011682846776159,0.0011682847557109,-0.0011682847251963,0.0011682848032882,-0.00046833421643815,0.00046833480656325,-1.4532499865634e-11,6.1659139296796e-11,2.0396872477782e-12,4.3105103492206e-11,-0.0015082966934294,0.0015082967390313,-0.0014896580633178,0.00148965812228,-0.001473060026866,0.001473059985556,-0.0014730599217387,0.0014730600295147,-0.0014817313788617,0.0014817313849808,-0.0014817315322364,0.0014817315651784,-0.0014817312780433,0.0014817313352752,-0.0014817314314268,0.0014817315154738,-0.0014896583612846,0.0014896583922812,-0.0014896580376658,0.0014896581480356,-0.0014730600197682,0.0014730600061916,-0.0014730599146303,0.0014730600501379,-0.0014896583869291,0.0014896583665116,-8.4543006342833e-11,-8.4545467554295e-11,-0.00093761768950282,0.00093761741816477,-4.5554421979708e-11,-8.5182572381621e-11,-0.00086872546096307,0.0008687253656994,-0.00075642641054076,0.00075642645588064,-0.00075642640176613,0.00075642644706421,-0.00086872526111074,0.00086872524731836,-0.00086872541910295,0.00086872540529585,-0.00075642637388321,0.0007564264928769,-0.00075642636455786,0.00075642648352827,-0.0011236710587166,0.0011236707666684,-0.0011236710716427,0.0011236707539249,-0.0011236710288107,0.0011236707367563,-0.0011236710414672,0.0011236707237415,-0.0011388750578271,0.0011388748214992,-0.0011388751982675,0.0011388749619419,-0.0011388751842496,0.0011388749750756,-0.001138875044678,0.0011388748354974,-0.00086872530094403,0.00086872520569388,0.64299206939106,122718,2924,0.00476664752413,0.0062638315328091,0.0039002081905132,24.734899706565,0.00011307919765252,0.00011307919765252,0.00011307919765252,3494890.3363839,0.015043313739793
30391759,0.9086837675956,0.015615032903384,0.0050763802801794,0.0060662737364468,0.0044723788867574,-0.0011784137324574,0.0011784139599527,4.0890055998622e-11,4.0887821890402e-11,1.1134044174358e-10,2.9853619874758e-11,-0.00048543905151701,0.000485439639378,-0.0011306395234215,0.0011306399889772,-0.001130639796014,0.0011306402616053,-0.0004854392193414,0.00048543996203338,-0.00048543897416398,0.00048543971687296,-0.0011306394478455,0.0011306400681152,-0.0011306397199386,0.0011306403402478,-0.001376176674915,0.0013761766765901,-0.0013761767557167,0.001376176757391,-0.0013761767010517,0.0013761766491769,-0.001376176782042,0.0013761767301679,-0.0011974742494992,0.0011974742800523,-0.0011974743005437,0.0011974743310877,-0.0011974742233614,0.0011974743067116,-0.0011974742745189,0.0011974743578646,-0.00048543929589318,0.00048543988371806,-1.4072114812434e-11,6.3030703396454e-11,2.6117172726536e-12,4.4359259355076e-11,-0.0015491980492902,0.00154919809671,-0.0015224487377066,0.0015224487988465,-0.0015103808255356,0.0015103807849727,-0.0015103807254991,0.0015103808357657,-0.0015284573992716,0.00152845740662,-0.0015284575598392,0.001528457594512,-0.0015284572983478,0.0015284573574485,-0.0015284574589257,0.001528457545344,-0.0015224490221513,0.0015224490546141,-0.001522448712136,0.0015224488252928,-0.0015103808188345,0.001510380806459,-0.0015103807187878,0.001510380857242,-0.001522449047716,0.0015224490281553,-8.484382931551e-11,-8.4846380931451e-11,-0.00095999262434813,0.00095999234898265,-4.6830789527077e-11,-8.7158981238981e-11,-0.00089399309067315,0.00089399299370585,-0.00077627477828801,0.0007762748147983,-0.00077627476973167,0.00077627480620351,-0.00089399289244588,0.00089399287829611,-0.00089399304811824,0.00089399303395121,-0.00077627474095607,0.00077627485248457,-0.00077627473185005,0.0007762748433553,-0.0011501355336703,0.0011501352431058,-0.0011501355468246,0.001150135230124,-0.0011501355034975,0.0011501352129276,-0.0011501355163852,0.0011501351996769,-0.0011666871741019,0.0011666869384714,-0.0011666873158761,0.0011666870802468,-0.0011666873016285,0.0011666870936106,-0.0011666871607225,0.0011666869526983,-0.00089399293294489,0.00089399283598889,0.55654009761524,122718,2924,0.0049000346089966,0.0064330729244293,0.0039931260619475,26.074834494989,0.00012379867595991,0.00012379867595991,0.00012379867595991,3596325.6405217,0.015444903367018
31391759,0.93452649943077,0.016039170988704,0.0052120853393103,0.0062430409848454,0.0045840446645479,-0.0012109339345181,0.0012109340668231,1.3663604189212e-11,1.3661406403412e-11,6.9819157984414e-11,3.8948995134934e-12,-0.00048592624462357,0.00048592663799672,-0.00116002778289,0.001160028147437,-0.001160028153813,0.0011600285183947,-0.00048592638056663,0.00048592690097714,-0.00048592618071266,0.00048592670113941,-0.0011600277221408,0.0011600282118404,-0.0011600280921771,0.001160028581916,-0.001417647097296,0.0014176470517172,-0.0014176472193044,0.0014176471737241,-0.0014176471181206,0.0014176470296102,-0.0014176472405185,0.0014176471520082,-0.0012317809776268,0.0012317809694268,-0.0012317810498653,0.0012317810416562,-0.0012317809567009,0.0012317809912614,-0.0012317810286014,0.0012317810631583,-0.00048592644295308,0.00048592683629111,-9.4492991539265e-12,5.3357718605382e-11,9.3838435064928e-12,3.2745807726287e-11,-0.0016000354215445,0.0016000354641018,-0.0015729151418459,0.0015729151853176,-0.0015612815308553,0.0015612815054794,-0.0015612814849978,0.0015612815826646,-0.0015768490186596,0.0015768490332615,-0.0015768492208393,0.0015768492492366,-0.0015768489214999,0.0015768489772497,-0.0015768491236898,0.0015768491932287,-0.0015729153315001,0.0015729153719867,-0.0015729151123928,0.0015729151980521,-0.0015612815170205,0.0015612815072676,-0.0015612814711522,0.0015612815844437,-0.0015729153609484,0.0015729153592412,-1.2926868181885e-10,-1.2927127141389e-10,-0.000980958199855,0.00098095767047229,-1.1682429761812e-10,-1.3748673554005e-10,-0.00091065975313578,0.00091065948910418,-0.00078850075163352,0.00078850047275068,-0.00078850072498951,0.00078850044606953,-0.00091065962153646,0.00091065940495209,-0.0009106597287236,0.0009106595121215,-0.00078850073282469,0.00078850049158393,-0.00078850070599538,0.00078850046473254,-0.0011797998826909,0.0011797994864369,-0.0011797998889624,0.0011797994801397,-0.0011797998588824,0.0011797994626242,-0.0011797998650768,0.0011797994562464,-0.0011980701297951,0.0011980698331893,-0.0011980702655947,0.0011980699689904,-0.0011980702579844,0.0011980699761964,-0.0011980701226,0.0011980698408049,-0.00091065964475689,0.00091065938073544,0.69215549466537,122718,2924,0.0050350635528256,0.0066434087852784,0.0040802434336738,28.358504370165,0.00014206803496132,0.00014206803496132,0.00014206803496132,3529392.2515987,0.015884221329596
32391759,0.95402591168982,0.01640622138958,0.0053291422598685,0.0063964243093892,0.0046806548203222,-0.0012311455873901,0.0012311458631071,5.1460045254471e-11,5.1457845468731e-11,1.2694667942491e-10,4.9442203721674e-11,-0.00045081921764014,0.00045081991595817,-0.0011736860831132,0.0011736866106993,-0.0011736863366363,0.0011736868642568,-0.00045081938980273,0.0004508202336754,-0.00045081914495044,0.00045081998884025,-0.0011736860114862,0.0011736866854739,-0.0011736862646476,0.0011736869386761,-0.0014515934828218,0.001451593503132,-0.001451593554934,0.0014515935752433,-0.0014515935078529,0.0014515934770271,-0.0014515935800601,0.0014515935492355,-0.001257726404891,0.0012577264538925,-0.0012577264569096,0.0012577265059034,-0.0012577263799838,0.0012577264790172,-0.0012577264323707,0.0012577265314007,-0.00045081946201176,0.00045082016029817,-1.2668984853562e-11,5.9938604034437e-11,5.4705391434902e-12,3.9922602480134e-11,-0.0016515836402972,0.0016515836861151,-0.0016301668986722,0.0016301669524033,-0.0016165455407085,0.0016165455053375,-0.0016165454258907,0.0016165455322848,-0.0016182110694088,0.0016182110782975,-0.0016182112354618,0.0016182112677465,-0.0016182109721773,0.0016182110305145,-0.0016182111382411,0.0016182112199665,-0.0016301671745124,0.001630167211247,-0.0016301668795326,0.001630166982353,-0.0016165455398312,0.0016165455279691,-0.0016165454250024,0.001616545554905,-0.0016301671936499,0.0016301671812876,-6.6662970949891e-11,-6.6665499859593e-11,-0.00098505449472188,0.00098505432456792,-2.7086915373623e-11,-6.077312274267e-11,-0.00089566541819551,0.00089566540052836,-0.00077299815647022,0.00077299832435084,-0.00077299815258192,0.00077299832042753,-0.00089566523963899,0.00089566528990458,-0.00089566538308227,0.00089566543332905,-0.00077299812599867,0.00077299835521692,-0.00077299812155275,0.00077299835075093,-0.0012019995677615,0.0012019993176926,-0.0012019995788571,0.001201999306801,-0.0012019995373682,0.0012019992872938,-0.0012019995481575,0.0012019992760939,-0.0012185613487224,0.0012185611476205,-0.0012185614865237,0.0012185612854224,-0.0012185614745274,0.0012185612964351,-0.0012185613376979,0.0012185611595986,-0.00089566527264676,0.0008956652549868,0.79325035118638,122718,2924,0.0051192366433541,0.0068566212375349,0.0040974714986398,29.292985441441,0.00014954388353152,0.00014954388353152,0.00014954388353152,3221462.7418035,0.016204029877277
32891759,0.9620697183572,0.016534573887047,0.0053708910838805,0.006448662032241,0.0047150207709252,-0.0012356675886931,0.0012356679884686,8.1642558949395e-11,8.1640340884803e-11,1.848092383811e-10,7.9111908685494e-11,-0.0004313111982664,0.00043131216446556,-0.0011746237511975,0.0011746244111391,-0.0011746238793708,0.0011746245393481,-0.0004313113757425,0.00043131253913756,-0.00043131110019269,0.000431312263602,-0.001174623652572,0.0011746245128594,-0.0011746237808085,0.0011746246411352,-0.0014629044576105,0.0014629045331347,-0.0014629044793629,0.0014629045548869,-0.0014629044921021,0.0014629044975025,-0.0014629045137155,0.001462904519117,-0.0012640991102306,0.0012640991951565,-0.0012640991475803,0.0012640992324968,-0.0012640990759153,0.0012640992292208,-0.0012640991141858,0.0012640992674869,-0.00043131147408662,0.00043131244025407,-2.1577023895555e-11,7.7484234674524e-11,-7.2543127386666e-12,6.0946727884005e-11,-0.0016702501857685,0.0016702502399087,-0.0016497745301226,0.0016497746157896,-0.0016364593326322,0.0016364592685373,-0.0016364591313119,0.0016364592605732,-0.0016335540924063,0.0016335540878716,-0.0016335542098642,0.0016335542530257,-0.001633553987836,0.0016335540517775,-0.0016335541053041,0.0016335542169356,-0.0016497749386178,0.0016497749599488,-0.0016497745129946,0.0016497746657298,-0.0016364593399552,0.0016364593222743,-0.0016364591386254,0.0016364593142993,-0.0016497749557421,0.001649774909998,-1.4048218250936e-11,-1.4050724010026e-11,-0.00098133637180548,0.00098133654743475,7.2560445921935e-11,3.3830233862519e-12,-0.00088227578272331,0.00088227598537547,-0.00076010149491954,0.00076010210891951,-0.00076010151344711,0.00076010212741116,-0.00088227552701542,0.0008822758626187,-0.00088227571466203,0.00088227605024857,-0.00076010143067946,0.00076010217385903,-0.0007601014483026,0.00076010219146212,-0.0012071515370055,0.0012071514168596,-0.0012071515603276,0.0012071513939564,-0.0012071515000646,0.001207151379913,-0.0012071515228747,0.0012071513564951,-0.0012221963774482,0.001222196238592,-0.001222196516957,0.0012221963781023,-0.0012221964930595,0.0012221964004681,-0.0012221963550281,0.0012221962624303,-0.00088227559214033,0.00088227579480468,0.66855895222188,122718,2924,0.0051381631922514,0.0069337941970903,0.0040821609797863,29.182744903853,0.00014866195923082,0.00014866195923082,0.00014866195923082,3063726.4860512,0.016286203809452
33891759,0.97384458177733,0.016744409121687,0.0054389660123688,0.0065334192722858,0.0047720238370321,-0.0012518777161072,0.0012518780038257,5.1919523408905e-11,5.1917286977226e-11,1.4479021458186e-10,3.5247163811576e-11,-0.000445087541117,0.00044508823199822,-0.0011908202419009,0.0011908207589653,-0.0011908204816611,0.0011908209987612,-0.00044508768517206,0.00044508858472529,-0.00044508743692998,0.00044508833649746,-0.0011908201390877,0.0011908208654878,-0.0011908203784511,0.0011908211048905,-0.0014817426051346,0.0014817426380293,-0.001481742672194,0.0014817427050882,-0.0014817426404576,0.0014817426012131,-0.0014817427076432,0.0014817426683994,-0.0012790859450771,0.0012790859830544,-0.0012790860022628,0.0012790860402311,-0.0012790859096225,0.0012790860189043,-0.0012790859671071,0.0012790860763842,-0.00044508778879642,0.00044508847964477,-2.243858569308e-11,8.1777299465518e-11,-9.8639714859714e-12,6.6894675737104e-11,-0.0016899519462289,0.0016899520037141,-0.0016630990843085,0.0016630991805257,-0.0016540967924132,0.0016540967238248,-0.0016540966413293,0.0016540967767684,-0.0016574288420202,0.0016574288380528,-0.0016574289884629,0.00165742903585,-0.0016574287325013,0.0016574287988346,-0.0016574288789544,0.001657428996635,-0.0016630993996152,0.0016630994170384,-0.001663099055814,0.001663099222158,-0.0016540967802255,0.0016540967632343,-0.0016540966291313,0.0016540968161677,-0.0016630994281066,0.0016630993753955,-6.7739193519252e-11,-6.7741725466934e-11,-0.00099190387826833,0.00099190373605054,-3.7274901323307e-12,-7.9808389426868e-11,-0.00089937591814995,0.0008993758725344,-0.00077316371963236,0.00077316388678692,-0.00077316372006305,0.00077316388718214,-0.00089937569487313,0.00089937580063379,-0.00089937584120621,0.00089937594694915,-0.00077316364756767,0.00077316395924353,-0.00077316364738381,0.00077316395904049,-0.0012176654025693,0.0012176651743386,-0.0012176654277703,0.0012176651493754,-0.0012176653711951,0.0012176651429585,-0.001217665396064,0.0012176651176605,-0.0012359236047156,0.0012359233835968,-0.0012359237408172,0.0012359235196998,-0.001235923714605,0.0012359235448114,-0.0012359235795454,0.0012359234097452,-0.00089937576956783,0.00089937572396431,0.74514432892262,122718,2924,0.0052053771085177,0.0070152270803709,0.0041260241405357,30.030385216977,0.00015544308173581,0.00015544308173581,0.00015544308173581,3108213.8726242,0.016481856106052
34891759,0.98315655392481,0.016916843372526,0.0054946457233566,0.0066034250872238,0.0048187725619461,-0.0012663947591755,0.001266394751207,-2.7465673707227e-11,-2.7467931255908e-11,1.9622145174581e-11,-4.7857126174116e-11,-0.00042876909466325,0.00042876916086545,-0.001201053146534,0.0012010533364697,-0.0012010536843004,0.0012010538742712,-0.0004287692111064,0.00042876941260807,-0.00042876902601352,0.00042876922752553,-0.001201053083588,0.0012010534035727,-0.0012010536198693,0.0012010539398928,-0.0015037398875583,0.0015037397825815,-0.0015037400773019,0.0015037399723247,-0.0015037399083679,0.0015037397601145,-0.0015037400988474,0.0015037399505949,-0.0012965798756641,0.0012965798001583,-0.0012965799727678,0.001296579897252,-0.0012965798543282,0.0012965798231753,-0.0012965799502974,0.0012965799191393,-0.00042876927723949,0.00042876934341088,-1.0524322253885e-11,5.56460701684e-11,6.924751982992e-12,3.6407030319626e-11,-0.0017210709025553,0.0017210709463082,-0.0016980424577852,0.0016980425080729,-0.0016880940725535,0.0016880940430142,-0.0016880940820441,0.001688094182855,-0.001682306094954,0.0016823061099102,-0.0016823063555625,0.0016823063857635,-0.0016823059948243,0.0016823060511587,-0.0016823062554421,0.001682306327015,-0.0016980425076551,0.001698042543716,-0.0016980424179359,0.0016980425121202,-0.0016880940362397,0.0016880940257514,-0.0016880940457209,0.0016880941655824,-0.0016980425475025,0.0016980425396586,-1.9872472906896e-10,-1.9872720833637e-10,-0.00099737630782005,0.00099737535155671,-2.2291465440536e-10,-2.4742340893617e-10,-0.00089230838432565,0.00089230780425078,-0.00076652576479309,0.00076652487110813,-0.00076652571369868,0.00076652481997764,-0.00089230831935836,0.00089230780077829,-0.00089230835346891,0.00089230783486761,-0.00076652574082053,0.00076652489464272,-0.00076652568998107,0.00076652484378352,-0.0012333630392642,0.0012333624920741,-0.0012333630462675,0.0012333624848033,-0.0012333630248597,0.0012333624776638,-0.001233363032031,0.0012333624705578,-0.0012500749949868,0.0012500745959456,-0.0012500751184768,0.0012500747194361,-0.0012500751095676,0.0012500747285617,-0.0012500749858715,0.0012500746048595,-0.00089230835014656,0.00089230777008584,0.77491537438297,122718,2924,0.0052657843022249,0.0071439218706256,0.0041488756386849,33.431356668283,0.00018265085334626,0.00018265085334626,0.00018265085334626,2907335.4948492,0.016697424833406
35891759,0.99007945970795,0.01704009685846,0.0055347703436515,0.006652699688296,0.0048526268265125,-0.0012802116204894,0.0012802115414729,-4.3515437353847e-11,-4.3517713284319e-11,-2.5631385096426e-11,-5.2338214368183e-11,-0.00042662276941524,0.00042662269743788,-0.0012124694612541,0.0012124695950126,-0.0012124700945991,0.0012124702283932,-0.00042662292484532,0.00042662290979626,-0.00042662273965923,0.00042662272462323,-0.0012124694377267,0.0012124696222022,-0.0012124700693986,0.001212470253913,-0.0015222101616136,0.0015222100207182,-0.0015222103880315,0.0015222102471355,-0.0015222101691217,0.0015222100119415,-0.0015222103963787,0.0015222102391995,-0.0013115189836602,0.0013115188998474,-0.0013115190811496,0.0013115189973277,-0.0013115189758175,0.0013115189094647,-0.001311519071935,0.0013115190055773,-0.00042662295179122,0.00042662287978171,2.586733447657e-12,2.9169446716955e-11,2.7125697063869e-11,3.3704527996864e-12,-0.0017443491535486,0.0017443491844225,-0.0017215088095495,0.0017215088084299,-0.0017122607411143,0.0017122607550365,-0.0017122608288004,0.0017122608953507,-0.0017036189061097,0.0017036189399075,-0.0017036192198824,0.0017036192326646,-0.0017036188195094,0.0017036188677634,-0.0017036191332917,0.0017036191605249,-0.001721508739279,0.0017215088011883,-0.001721508776637,0.0017215087928673,-0.0017122607075734,0.0017122607049319,-0.0017122607952507,0.0017122608452359,-0.0017215087721875,0.00172150881674,-2.2649078048787e-10,-2.2649324140092e-10,-0.0010047539343896,0.0010047527531433,-3.0215021023172e-10,-2.7239353555895e-10,-0.00089399572418311,0.00089399504922986,-0.00076805809952085,0.00076805693197252,-0.00076805803330627,0.00076805686572356,-0.00089399574146478,0.00089399502386461,-0.00089399574571223,0.00089399502809306,-0.00076805812820924,0.00076805690268672,-0.00076805806247834,0.00076805683693593,-0.0012463876247238,0.0012463869867431,-0.0012463876134337,0.0012463869976183,-0.0012463876144596,0.0012463869764733,-0.0012463876034686,0.0012463869876451,-0.0012627998770793,0.0012627994654587,-0.0012627999997149,0.0012627995880968,-0.0012628000090054,0.0012627995794121,-0.0012627998858305,0.0012627994562298,-0.00089399572042839,0.00089399504548762,0.74258283665401,122718,2924,0.0053231816493377,0.0072401623698789,0.0041795720357954,37.44053089851,0.00021472424718808,0.00021472424718808,0.00021472424718808,2790733.143437,0.016884904313335
36891759,0.99407960141997,0.017100967023956,0.0055547450540242,0.0066767075476433,0.0048695144222883,-0.0012823157111147,0.0012823161939444,1.0639393781176e-10,1.0639165194042e-10,2.0200420820422e-10,1.21393764445e-10,-0.000424334859953,0.00042433600304769,-0.0012136049158868,0.0012136056998918,-0.0012136049945935,0.001213605778634,-0.00042433506970965,0.00042433635761056,-0.00042433478823167,0.00042433607614564,-0.0012136048418615,0.0012136057761125,-0.0012136049209592,0.0012136058552494,-0.0015262313012355,0.0015262314159902,-0.0015262312987933,0.0015262314135475,-0.0015262313280168,0.0015262313886549,-0.0015262313252309,0.00152623138587,-0.0013133783536616,0.0013133784928125,-0.0013133783828666,0.0013133785220082,-0.0013133783275265,0.0013133785180476,-0.0013133783581861,0.0013133785487022,-0.00042433514231389,0.00042433628537705,-1.232990750626e-11,6.0698680579327e-11,7.0733696487067e-12,3.9449470110473e-11,-0.0017491747110522,0.0017491747579799,-0.0017244784136147,0.0017244784653713,-0.0017170031638974,0.0017170031299639,-0.0017170029685622,0.0017170030763026,-0.0017091470046832,0.0017091470120317,-0.0017091471168122,0.0017091471498042,-0.0017091469081526,0.0017091469679933,-0.0017091470202917,0.0017091471057693,-0.0017244788109501,0.0017244788519299,-0.0017244784089316,0.0017244785106083,-0.0017170031844935,0.0017170031734723,-0.0017170029891484,0.0017170031198011,-0.0017244788156303,0.0017244788066829,2.342555128429e-11,2.342309058772e-11,-0.0010040212892352,0.0010040216533914,1.0038637275695e-10,6.5659640407762e-11,-0.00089356154158224,0.00089356191557198,-0.00076653275286002,0.00076653363081053,-0.00076653278034944,0.00076653365826554,-0.00089356131192203,0.00089356174748999,-0.00089356150907747,0.00089356194462742,-0.00076653272303537,0.00076653366147707,-0.00076653274955057,0.00076653368797353,-0.0012468774330152,0.0012468773957899,-0.00124687744518,0.0012468773840943,-0.0012468773929883,0.0012468773557573,-0.0012468774045686,0.0012468773434745,-0.0012639697052101,0.0012639696475211,-0.0012639698446139,0.0012639697869265,-0.0012639698323304,0.001263969797479,-0.001263969694636,0.0012639696597781,-0.00089356134118182,0.00089356171518311,0.63318519148288,122718,2924,0.0053319387983091,0.0072600927894402,0.0041765577511187,36.814084449591,0.00020971267559673,0.00020971267559673,0.00020971267559673,2774932.7161507,0.016911021835404
37891759,0.99654086025555,0.017135883390419,0.0055661985724582,0.006690452997675,0.0048792318202861,-0.0012880149869959,0.0012880152804593,5.4171990788749e-11,5.4169705417389e-11,1.3849182143463e-10,4.9138701081706e-11,-0.00043773557188224,0.00043773628850704,-0.0012202388523792,0.0012202393989008,-0.0012202391045101,0.0012202396510671,-0.00043773573985532,0.00043773662507308,-0.0004377354876538,0.00043773637288488,-0.0012202387691694,0.0012202394853135,-0.0012202390209502,0.0012202397371337,-0.0015306688012165,0.0015306688344949,-0.0015306688741455,0.0015306689074234,-0.00153066883012,0.0015306688044252,-0.0015306689031436,0.0015306688774497,-0.001317603602484,0.0013176036516241,-0.00131760366635,0.0013176037154808,-0.0013176035736438,0.0013176036806666,-0.0013176036379075,0.0013176037449251,-0.00043773582362066,0.00043773654021241,-1.5836489911986e-11,6.8280303554184e-11,2.6753672105446e-12,4.7763174279576e-11,-0.0017507075475273,0.0017507075983889,-0.0017227160539319,0.0017227161192336,-0.0017172655363949,0.0017172654913288,-0.0017172654024987,0.0017172655217891,-0.0017138492222002,0.0017138492285915,-0.0017138493897559,0.0017138494267966,-0.0017138491204938,0.0017138491840733,-0.0017138492880598,0.0017138493822818,-0.0017227163303124,0.0017227163655331,-0.0017227160335536,0.0017227161555917,-0.0017172655357387,0.001717265521263,-0.0017172654018323,0.0017172655517138,-0.001722716350688,0.0017227163291652,-6.5040245222689e-11,-6.5042727728286e-11,-0.0010105924883262,0.001010592338393,-1.8482722782785e-11,-6.3033388968823e-11,-0.00090651224370306,0.00090651223583854,-0.0007775388323759,0.00077753901409463,-0.00077753883190211,0.00077753901358628,-0.00090651205950664,0.00090651214057123,-0.00090651219809492,0.00090651227914104,-0.00077753879127469,0.00077753905555708,-0.00077753879026572,0.00077753905452928,-0.0012499335876859,0.0012499333557967,-0.0012499336024243,0.0012499333412559,-0.0012499335575661,0.0012499333256711,-0.0012499335720006,0.001249933310824,-0.0012688892758606,0.0012688890715293,-0.0012688894079423,0.0012688892036124,-0.0012688893923237,0.0012688892182201,-0.0012688892612246,0.0012688890871144,-0.00090651210303333,0.00090651209517949,0.59016651981575,122718,2924,0.0053554939838752,0.0072664291832506,0.0042037769095669,37.705182275719,0.00021684145820575,0.00021684145820575,0.00021684145820575,2851032.7749164,0.016969065593394
38880000,0.99794599518771,0.017159787887181,0.0055739483162888,0.0066999969930922,0.0048858425777999,-0.0012890174181725,0.001289017878501,9.8830027516381e-11,9.8827744453775e-11,2.1440598304439e-10,8.9876284841192e-11,-0.00043714551479493,0.00043714657110632,-0.0012210951118959,0.0012210958288725,-0.0012210952000404,0.0012210959170525,-0.00043714568619966,0.00043714697550255,-0.00043714539899411,0.00043714668831022,-0.0012210949949592,0.0012210959489618,-0.0012210950833114,0.0012210960373532,-0.0015318870017863,0.0015318871178629,-0.0015318870046383,0.0015318871207145,-0.0015318870425434,0.0015318870758797,-0.001531887045168,0.0015318870785053,-0.001318681774102,0.0013186818840992,-0.0013186818128034,0.0013186819227913,-0.0013186817335048,0.0013186819242395,-0.0013186817733755,0.0013186819641051,-0.00043714580257909,0.00043714685885833,-2.6093552859872e-11,9.0919644173163e-11,-1.3629972025475e-11,7.602640135739e-11,-0.0017520600706479,0.0017520601334953,-0.0017245583381141,0.0017245584473197,-0.0017188570124811,0.0017188569324999,-0.0017188567797804,0.0017188569283045,-0.0017147031352745,0.001714703125625,-0.0017147032305405,0.0017147032836404,-0.0017147030238299,0.0017147030951015,-0.0017147031191061,0.0017147032531205,-0.0017245587641117,0.0017245587792542,-0.0017245583196137,0.001724558507887,-0.0017188570159767,0.00171885699677,-0.0017188567832661,0.0017188569925646,-0.0017245587826092,0.001724558718677,8.528744375436e-12,8.5262639843703e-12,-0.0010114305226981,0.0010114308282835,1.0954020169004e-10,1.8064254954558e-11,-0.00090704393937358,0.00090704420543882,-0.00077782984067982,0.00077783058235282,-0.0007778298681874,0.00077783060982595,-0.00090704365352534,0.00090704409472222,-0.00090704385003881,0.00090704429121729,-0.00077782975484298,0.00077783066896804,-0.00077782978135503,0.00077783069546128,-0.0012509152482269,0.0012509152069155,-0.0012509152791558,0.0012509151764658,-0.0012509152087363,0.0012509151674191,-0.0012509152390868,0.0012509151363884,-0.0012700043495791,0.0012700042430859,-0.0012700044881811,0.0012700043816894,-0.001270004456825,0.0012700044112852,-0.0012700043199027,0.0012700042743565,-0.00090704373959286,0.00090704400566974,0.70927916323616,122718,2924,0.005359659650845,0.0072720284272604,0.0042072582294715,37.196511536293,0.00021277209229034,0.00021277209229034,0.00021277209229034,2860757.2519123,0.016982540862128
