time,ASR_ext,ASR_strain,ASR_strain_xx,ASR_strain_yy,ASR_strain_zz,disp_x_101,disp_x_102,disp_x_103,disp_x_104,disp_x_105,disp_x_106,disp_x_p10_neg,disp_x_p10_pos,disp_x_p11_neg,disp_x_p11_pos,disp_x_p12_neg,disp_x_p12_pos,disp_x_p13_neg,disp_x_p13_pos,disp_x_p14_neg,disp_x_p14_pos,disp_x_p15_neg,disp_x_p15_pos,disp_x_p16_neg,disp_x_p16_pos,disp_x_p1_neg,disp_x_p1_pos,disp_x_p2_neg,disp_x_p2_pos,disp_x_p3_neg,disp_x_p3_pos,disp_x_p4_neg,disp_x_p4_pos,disp_x_p5_neg,disp_x_p5_pos,disp_x_p6_neg,disp_x_p6_pos,disp_x_p7_neg,disp_x_p7_pos,disp_x_p8_neg,disp_x_p8_pos,disp_x_p9_neg,disp_x_p9_pos,disp_y_101,disp_y_102,disp_y_103,disp_y_104,disp_y_105,disp_y_106,disp_y_p10_neg,disp_y_p10_pos,disp_y_p11_neg,disp_y_p11_pos,disp_y_p12_neg,disp_y_p12_pos,disp_y_p1_neg,disp_y_p1_pos,disp_y_p2_neg,disp_y_p2_pos,disp_y_p3_neg,disp_y_p3_pos,disp_y_p4_neg,disp_y_p4_pos,disp_y_p5_neg,disp_y_p5_pos,disp_y_p6_neg,disp_y_p6_pos,disp_y_p7_neg,disp_y_p7_pos,disp_y_p8_neg,disp_y_p8_pos,disp_y_p9_neg,disp_y_p9_pos,disp_z_101,disp_z_102,disp_z_103,disp_z_104,disp_z_105,disp_z_106,disp_z_p10_neg,disp_z_p10_pos,disp_z_p11_neg,disp_z_p11_pos,disp_z_p12_neg,disp_z_p12_pos,disp_z_p13_neg,disp_z_p13_pos,disp_z_p14_neg,disp_z_p14_pos,disp_z_p15_neg,disp_z_p15_pos,disp_z_p16_neg,disp_z_p16_pos,disp_z_p1_neg,disp_z_p1_pos,disp_z_p2_neg,disp_z_p2_pos,disp_z_p3_neg,disp_z_p3_pos,disp_z_p4_neg,disp_z_p4_pos,disp_z_p5_neg,disp_z_p5_pos,disp_z_p6_neg,disp_z_p6_pos,disp_z_p7_neg,disp_z_p7_pos,disp_z_p8_neg,disp_z_p8_pos,disp_z_p9_neg,disp_z_p9_pos,humidity,ndof,nelem,strain_xx,strain_yy,strain_zz,temp,thermal_strain_xx,thermal_strain_yy,thermal_strain_zz,vonmises,vstrain
14391759,0,0,0,0,0,0,0,0,0,0,0,0,0,0,0,0,0,0,0,0,0,0,0,0,0,0,0,0,0,0,0,0,0,0,0,0,0,0,0,0,0,0,0,0,0,0,0,0,0,0,0,0,0,0,0,0,0,0,0,0,0,0,0,0,0,0,0,0,0,0,0,0,0,0,0,0,0,0,0,0,0,0,0,0,0,0,0,0,0,0,0,0,0,0,0,0,0,0,0,0,0,0,0,0,0,0,0,0,0,0,0,0,0,0,0,0,0,0,0,0,0,0,0
15391759,0.10000914695643,0.0016820599779584,0.00056068665931947,0.00056068665931947,0.00056068665931947,-0.0001614938526861,0.00016151334660971,-1.625261757511e-07,1.8136406502596e-07,-8.0474822026016e-09,2.8692937439802e-08,-0.00013978405840615,0.00014017525448157,-0.00015774573845192,0.00015768884336006,-0.00015763161410293,0.00015780374095828,-0.00014015624072919,0.00013980419690888,-0.00013981888893862,0.00014013966039159,-0.00015778195744049,0.00015765288461726,-0.0001576667637,0.00015776655518322,-0.00016798101470293,0.00016787348855469,-0.00016786579271412,0.00016798756635775,-0.0001679690128974,0.00016788574209724,-0.00016785437601518,0.00016800048983624,-0.00016078769386843,0.00016048085231346,-0.00016045179282982,0.0001608184263391,-0.00016080091178146,0.00016047002698203,-0.0001604632614103,0.00016080575139106,-0.00014011837501697,0.00013983631603357,1.2544192501466e-08,-2.4058188145403e-08,-1.7895607649335e-07,1.6783652249421e-07,-0.00017019768932275,0.0001701866071228,-0.00016779416561666,0.00016813490491879,-0.00016928402145307,0.00016919358722076,-0.00016931772945074,0.00016915519168717,-0.00016930481706479,0.00016919204181536,-0.00016919320792996,0.00016930845297095,-0.00016931659323719,0.00016917952655321,-0.00016920506072544,0.00016929599122521,-0.00016814239590229,0.00016777892272744,-0.00016780649181994,0.0001681232398802,-0.00016916929171354,0.00016930938759814,-0.0001692033782518,0.00016927109837363,-0.00016812909489206,0.00016779050833085,1.1249812763432e-07,-2.3134466291722e-07,-0.00015779806496772,0.00015767891845198,1.0986351212529e-07,-2.3373248446935e-07,-0.0001522349601131,0.00015210860707227,-0.00015077657326746,0.00015020125110046,-0.00015066284616302,0.00015031678174555,-0.00015222828464329,0.00015211239617399,-0.00015189264834789,0.00015244788863693,-0.00015043853793339,0.00015053960325579,-0.00015032517575589,0.00015065452589723,-0.00016367124869319,0.00016378234073736,-0.00016378520163963,0.00016366812107622,-0.00016378589180697,0.00016366775883603,-0.00016389996690136,0.00016355352249383,-0.00016135487304773,0.00016078425008215,-0.00016101606990832,0.00016111886445088,-0.00016090084533006,0.00016123419889849,-0.00016123876514457,0.00016089889903145,-0.0001525730600181,0.00015177182813298,0.7648142272183,131688,2924,0.00067270601557827,0.00070888150304286,0.00065702773632623,27.13841691265,0.0001323073353012,0.0001323073353012,0.0001323073353012,1273837.4484463,0.0020406977335715
16391759,0.18846697251226,0.0031801749483347,0.0010542465297616,0.0010946933411788,0.0010312350773943,-0.00027165149545533,0.00027167927097095,-2.2529791997989e-07,2.5285781303653e-07,-9.0239615127363e-10,2.9526043315475e-08,-0.00022399248675573,0.00022451617012011,-0.00026583236000758,0.00026573209890749,-0.00026567423837603,0.00026589163193718,-0.00022449081014361,0.00022402137211062,-0.00022401746082672,0.00022448583015041,-0.000265863006042,0.00026570274803431,-0.00026570111823555,0.0002658592057055,-0.00028738611594617,0.00028724402105244,-0.0002872251962045,0.00028740189260004,-0.00028737565375777,0.00028725383357282,-0.00028721648851295,0.00028741356767994,-0.000271656306295,0.00027122567643936,-0.00027118859356024,0.00027169424540302,-0.0002716690198172,0.00027121763671352,-0.00027119678901809,0.00027168271709133,-0.0002244559657372,0.00022404565017767,6.3042171519787e-09,-2.3854824144122e-08,-4.0442926904766e-07,3.8762282721509e-07,-0.00029561789731496,0.00029560105659843,-0.00029067528106334,0.00029144468385657,-0.00029396483128816,0.00029371372817531,-0.00029399324040992,0.00029368255874407,-0.00029440667712361,0.00029413973632158,-0.00029415213725362,0.00029440626528397,-0.0002944165375442,0.00029412930100299,-0.00029416208549016,0.00029439585788073,-0.00029144989980711,0.00029064719190926,-0.00029068510622361,0.00029143429821767,-0.00029370337135716,0.00029397874549367,-0.00029373222739865,0.00029394828910976,-0.00029143975963747,0.00029065692330567,6.0342149521734e-08,-4.177443292696e-07,-0.00025964055573651,0.00025928186850891,2.0556360222916e-07,-5.7708669425786e-07,-0.00025174344324258,0.00025106867923153,-0.00024574861260102,0.00024445122845735,-0.00024558997444468,0.00024461066979037,-0.00025143156773047,0.00025137686403389,-0.00025096296976437,0.00025184532973654,-0.00024497981328694,0.00024522094533959,-0.0002448206372479,0.00024538006140032,-0.00027404304165855,0.00027410744507943,-0.00027430249737218,0.00027384741260225,-0.00027420230250466,0.00027394806706801,-0.00027446201121637,0.000273688102162,-0.00027192323428027,0.00027083663927822,-0.00027145444463867,0.00027130395283137,-0.00027119154090478,0.00027156697262883,-0.00027165994913404,0.00027109843459132,-0.00025221112310249,0.00025060089862007,0.78819745788949,131688,2924,0.0011313069653991,0.0012309423854153,0.0010805079666616,24.452698970157,0.00011082159176126,0.00011082159176126,0.00011082159176126,1757245.0581251,0.0034486996824289
17391759,0.26750631881437,0.0044638135583794,0.001476828699837,0.0015652781468827,0.0014217067116596,-0.00036568372569256,0.00036536625482492,-1.1273519042765e-06,8.1257954009776e-07,3.1973314529759e-07,-6.5143954381493e-07,-0.00027890606746702,0.0002795131977356,-0.00035908340033883,0.00035715047578246,-0.00035843908526905,0.00035779885002637,-0.00027984508585946,0.00027859145023866,-0.00027793863282455,0.00028048550572342,-0.00035813956585456,0.00035812019229724,-0.00035749056491454,0.00035876338451118,-0.0003929246320992,0.00039228227877037,-0.00039227592793884,0.00039292691604186,-0.00039323507105666,0.00039195680297424,-0.00039258882851385,0.00039260391119085,-0.00036510868719574,0.00036257278392152,-0.00036320813145723,0.00036447199642347,-0.00036478936860732,0.0003629017108382,-0.00036288367683305,0.00036479610548129,-0.00028080085674686,0.00027761039761298,-3.1389380524719e-07,6.5754387442702e-07,-4.3606086082294e-07,7.6556576999946e-07,-0.00040700209526114,0.00040733322343152,-0.00039849425522728,0.00039967459650314,-0.00040133380099419,0.00040031703786197,-0.00040039116006825,0.00040128918896287,-0.00040656487840446,0.00040617795937641,-0.0004061757303762,0.00040658193454703,-0.00040625387079212,0.00040650319041113,-0.0004058649950619,0.00040690710556923,-0.00039933194257158,0.00039880767190996,-0.00039817001425213,0.0003999992573163,-0.00040093517826777,0.0004007183767238,-0.00039999362873714,0.00040169015931006,-0.0003996557726004,0.00039848090156375,7.0866427019399e-07,-1.2313221811945e-06,-0.00034298220595515,0.00034245738683408,3.2287502083484e-07,-8.6563216100861e-07,-0.00033064096963074,0.00033082744002602,-0.00031914283254012,0.00031678952440641,-0.00031849759296426,0.00031743506262902,-0.0003313546723874,0.0003301031499715,-0.00032945542575013,0.0003320042587942,-0.00031797401221137,0.00031795541626635,-0.00031732622816026,0.00031860032682023,-0.00036759417933337,0.00036811613465159,-0.00036798919411854,0.00036772141967367,-0.00036824010771452,0.00036746857102842,-0.00036863514112897,0.0003670740012745,-0.00036498465962792,0.00036216588910523,-0.00036308917212264,0.00036406995598655,-0.00036268954346293,0.00036446855303413,-0.00036458481565767,0.00036256377298625,-0.00033253699256086,0.00032892770730206,0.75884216173699,131688,2924,0.0015218887488432,0.0016950760329101,0.0014269932363859,22.11843763756,9.2147501100478e-05,9.2147501100478e-05,9.2147501100478e-05,2264570.9664856,0.0046547824871211
18391759,0.3243927538048,0.0053542453915076,0.0017696235524581,0.0019001196827438,0.0016845021563057,-0.0004250113501569,0.00042455110619283,-1.5852166512382e-06,1.1294733850347e-06,3.3237502528308e-07,-8.1091201404168e-07,-0.0003086424960707,0.00030969334623742,-0.00041742568643359,0.00041491836891697,-0.00041652078654349,0.00041582299595042,-0.00031017271861352,0.00030818985599419,-0.00030750555201071,0.00031083973790007,-0.00041632095288754,0.00041606180039641,-0.00041541110069926,0.00041696047926104,-0.00046185681559877,0.00046087011243264,-0.00046094893492001,0.00046177222612148,-0.00046222030529863,0.00046048610739593,-0.00046131693714016,0.00046139130641099,-0.00042231554572799,0.00041882562254159,-0.00041966045707363,0.00042148617394024,-0.00042194043118946,0.00041921323725455,-0.00041927598485755,0.00042186931858635,-0.00031129684686078,0.00030703074195929,-2.9939007021294e-07,8.4077112754845e-07,-7.6801644298975e-07,1.2880741247546e-06,-0.00047953915190007,0.0004800626163524,-0.00046550308920918,0.00046765395376439,-0.0004684404069922,0.00046717153439829,-0.0004673374783888,0.00046831406584979,-0.00048203369813081,0.00048149928716115,-0.00048136814923964,0.00048219041215232,-0.00048166634248248,0.0004818806346755,-0.00048100156812247,0.00048257139768103,-0.00046711114148124,0.00046599905226429,-0.00046512083663649,0.00046803212361611,-0.00046775964773602,0.0004678630483023,-0.00046665849780673,0.00046900338543106,-0.00046749620568207,0.00046561433324696,9.3773664004838e-07,-1.7773570936905e-06,-0.00039324129986809,0.00039239943115468,5.8227433481757e-07,-1.452614274019e-06,-0.00037676382333339,0.00037654390610497,-0.00036259564974492,0.00035883143176714,-0.00036169387458762,0.00035973184441199,-0.00037739725655365,0.00037589825698931,-0.00037473087958687,0.00037856006613992,-0.00036059691847318,0.0003608262400841,-0.00035968598984729,0.00036172735155381,-0.00042614970242544,0.00042689779707429,-0.00042682659705932,0.00042622205266337,-0.00042705466054681,0.00042599251481622,-0.00042773006357751,0.0004253169015443,-0.00042192001793787,0.00041774207283471,-0.0004192713331607,0.00042040840669592,-0.00041858657431532,0.00042109145806452,-0.00042123827890505,0.0004184222594689,-0.00037940996442126,0.00037388798312647,0.73909361286653,131688,2924,0.0017684034387623,0.0019971378157895,0.001635435828658,17.510852911433,5.5286823291461e-05,5.5286823291461e-05,5.5286823291461e-05,2620883.1804771,0.0054156333545314
19391759,0.38300436674389,0.0063166638276884,0.0020867643221105,0.0022625977628203,0.0019673017427577,-0.00049847939347641,0.0004981263004196,-1.563768582014e-06,1.2136861944857e-06,2.1842688538472e-07,-5.8328555246211e-07,-0.00035042184119859,0.00035198475495721,-0.00049261339873302,0.00049053872895945,-0.00049168950883653,0.00049146536302949,-0.00035235349115238,0.00035007811490928,-0.00034962566377233,0.00035278970206489,-0.00049184719673381,0.00049134104941851,-0.00049091555347645,0.00049226012897832,-0.00054499528129276,0.00054398181660532,-0.0005440668444492,0.00054490533398805,-0.00054524933957451,0.00054371090400142,-0.00054432477001242,0.00054463739140752,-0.00049516970420447,0.00049183468145593,-0.00049245126986479,0.00049455573263896,-0.00049490776373909,0.00049210847643458,-0.00049218284845923,0.00049482493407238,-0.00035313746337912,0.00034926093043498,-1.307192872982e-07,6.6549346706914e-07,-6.1681066623839e-07,1.1331488358452e-06,-0.00056854074156166,0.00056906009441765,-0.00055126560225993,0.00055322644260466,-0.00055233269655989,0.00055150274479079,-0.00055156275217383,0.00055229443275879,-0.00057291484413063,0.00057258785290609,-0.00057234494899639,0.00057317582729245,-0.00057265621562206,0.00057285362569702,-0.00057208707852915,0.00057344128406457,-0.00055269439500296,0.00055176439317267,-0.00055099678923214,0.00055349114392079,-0.0005517528007732,0.00055208882532942,-0.00055098421626521,0.00055287952473507,-0.00055296497562392,0.00055149543656564,1.0103423984509e-06,-1.7676478945934e-06,-0.00045588892080341,0.00045512961303476,4.7464411813936e-07,-1.2569902567834e-06,-0.0004396397397811,0.00043987001673598,-0.00041921414743369,0.00041581378498369,-0.00041829110192106,0.00041673722851653,-0.00044063592391019,0.00043886309087435,-0.00043790825051121,0.00044158148419651,-0.00041751537926478,0.0004175117061644,-0.00041658437143139,0.00041843347150304,-0.0004972854840983,0.00049803421382949,-0.00049786140809822,0.00049745913426816,-0.00049821204304076,0.00049710857054399,-0.00049878630501734,0.0004965329885902,-0.00049417264491964,0.00049011674736735,-0.00049145875315114,0.00049284161001842,-0.00049087409358313,0.00049342095583598,-0.00049359215716783,0.0004906970756423,-0.00044234841482264,0.0004371501522958,0.77930570629234,131688,2924,0.0020741878225106,0.0023671341066693,0.0018961957807591,17.480212719125,5.5041701753004e-05,5.5041701753004e-05,5.5041701753004e-05,2827470.1326434,0.0063577013097376
20391759,0.44743565183711,0.0073804260281766,0.0024347532352425,0.0026723858512128,0.0022732869417213,-0.00058040993271663,0.00058012201821965,-1.3194787739804e-06,1.033926647011e-06,1.6888247061554e-07,-4.6567782501649e-07,-0.0003850833080015,0.00038646402901595,-0.00057533446850417,0.00057363360332567,-0.00057455235372615,0.00057441933132553,-0.00038676507873269,0.00038480483460361,-0.00038445228843785,0.00038710086267791,-0.0005747317642637,0.00057426975292494,-0.00057394189757998,0.00057504778383472,-0.0006397325928854,0.00063887029486131,-0.0006389456908004,0.00063965263734621,-0.00063993291313363,0.00063865499664099,-0.0006391501179521,0.00063944067549173,-0.00057758351406158,0.0005747834489264,-0.00057528061312957,0.00057708977907276,-0.00057737764086261,0.00057500177960271,-0.00057506767645886,0.00057730261622863,-0.0003873834128983,0.00038415483260181,-6.0870614440694e-08,5.6737180463305e-07,-8.1584197793205e-07,1.3065437499209e-06,-0.00067367809063985,0.00067417115140933,-0.00065431880671909,0.00065667564352743,-0.00065313822618772,0.00065232273582918,-0.00065253075841241,0.00065294537399117,-0.00067742595870636,0.00067700582167454,-0.00067673554319637,0.00067771855349311,-0.00067722229920451,0.00067721509340417,-0.00067653260882447,0.00067792748887414,-0.00065616599388759,0.0006547894311776,-0.00065410563731448,0.0006568838706936,-0.00065243475098106,0.00065303313891583,-0.00065182860737157,0.00065365474151356,-0.00065638096853327,0.00065457719980014,7.3992650019249e-07,-1.6140776921275e-06,-0.00052432341217589,0.00052344706834496,5.9915575150805e-07,-1.5023566557839e-06,-0.00050707112227263,0.00050640236191541,-0.00047684919626776,0.00047310689428724,-0.00047606742608535,0.00047388910226749,-0.0005072868328825,0.00050617817456512,-0.00050497386181056,0.00050848023734437,-0.00047478815095724,0.0004751698078386,-0.00047399814858993,0.00047594976503605,-0.0005775565737868,0.00057817085396983,-0.00057825499031504,0.00057747269703739,-0.00057834205007204,0.00057738680744821,-0.00057903890693862,0.00057668816209181,-0.00057620339893253,0.00057232225056176,-0.00057390379273041,0.00057463108413591,-0.00057319494934186,0.00057533426837918,-0.00057549880002703,0.00057302670306434,-0.00050936488254237,0.00050409762794176,0.78427550870156,131688,2924,0.0024149980771873,0.0028039791461839,0.002180549479206,18.602016157866,6.4016129262926e-05,6.4016129262926e-05,6.4016129262926e-05,3004584.3024567,0.0074270527469616
21391759,0.49759130633185,0.008178555432623,0.0026940416929155,0.0029883578307208,0.0024961559089867,-0.00063368220841825,0.00063329961951943,-1.6490689211474e-06,1.2696946785532e-06,2.6616015782497e-07,-6.6166304281054e-07,-0.00040066760298218,0.00040221396032497,-0.00062713399791897,0.00062485759938253,-0.00062616474515744,0.0006258326279419,-0.0004026128505406,0.00040029472091396,-0.0003997444396712,0.00040314230665076,-0.00062624712328367,0.00062578723264782,-0.00062526832456612,0.000626753043258,-0.00070391892577556,0.00070287080170454,-0.0007029429681589,0.00070384115233476,-0.00070421320739736,0.0007025570466981,-0.00070324206326188,0.00070353161778778,-0.00063053667869483,0.00062699184350144,-0.00062767940530933,0.00062985160332759,-0.0006302336241747,0.00062730893878821,-0.00062736800993647,0.000630161523892,-0.00040351998610481,0.00039935065308723,-1.5211168519614e-07,7.6897834311479e-07,-1.0427744902568e-06,1.6393492164967e-06,-0.0007457965589446,0.00074639605732261,-0.00072304314149748,0.000725955693461,-0.00072137878324479,0.00072019905660797,-0.00072048733926398,0.00072111433199072,-0.00075050151208259,0.00074990664343526,-0.00074962999568203,0.00075080708641936,-0.0007502049471907,0.00075021397354296,-0.00074933388492209,0.00075111416625282,-0.00072533607903334,0.00072361270675706,-0.00072273266823928,0.00072626188732404,-0.0007204901487251,0.00072109569135974,-0.0007195995167714,0.00072201054732295,-0.00072564814475243,0.00072330317464454,9.2819486361473e-07,-1.9914306441947e-06,-0.00056619936503894,0.00056513288784727,7.7824160705166e-07,-1.8785928451784e-06,-0.00054507020152606,0.0005442130904056,-0.0005092033837341,0.00050453084044064,-0.00050823265736112,0.00050550109962834,-0.00054528785162519,0.0005439853950921,-0.00054242311240514,0.00054684034506491,-0.00050659454224576,0.00050713842523302,-0.00050561612336376,0.00050810638922065,-0.00062933179805479,0.00063013087684687,-0.00063021475538099,0.00062924834700624,-0.00063030557621307,0.00062915816512237,-0.00063118717453177,0.00062827496998384,-0.00062836411492317,0.00062355470421157,-0.0006255119431402,0.00062641888780751,-0.00062461728260834,0.00062730835021094,-0.00062747352899736,0.00062444597726674,-0.00054791698934434,0.00054135425716455,0.75707132506458,131688,2924,0.0026362703014422,0.0031037646694554,0.0023542755239919,15.316349016796,3.7730792134366e-05,3.7730792134366e-05,3.7730792134366e-05,3159831.8787492,0.0081272660378669
22391759,0.5449195084913,0.008933015793536,0.0029391327536843,0.0032887844698227,0.0027050985700289,-0.00068863891292197,0.00068861806701839,-1.6493791738177e-06,1.649376406609e-06,8.5141281553507e-07,-9.0119895531472e-07,-0.00042121976295458,0.00042267555016814,-0.00068179362643643,0.00067892133364438,-0.0006807014414602,0.00068002098541857,-0.00042270537641303,0.00042122798907352,-0.00041946113336293,0.0004244448421138,-0.00068009899446446,0.00068067715973723,-0.00067899460797445,0.00068176891914214,-0.00076910242741085,0.00076855252279086,-0.00076799877118058,0.0007696474113714,-0.00076965785614422,0.00076796682406204,-0.0007685603879022,0.00076906472974241,-0.00068500981674165,0.00068119948721475,-0.00068177607763681,0.00068442748351774,-0.00068443423455555,0.00068179434061234,-0.00068118958602253,0.00068501457100152,-0.00042444495547991,0.00041944567895039,-4.0074144830555e-07,1.3552656139822e-06,-8.857273514267e-07,1.807293018163e-06,-0.00081857634836662,0.00081950248739673,-0.00079226022502554,0.00079523085090065,-0.00078984440726253,0.00078817145742375,-0.00078814162304928,0.00078992624592733,-0.00082513159063371,0.00082458944321535,-0.00082425675544964,0.00082549291268023,-0.0008245767070142,0.00082517331764801,-0.00082370196682828,0.00082607688279528,-0.00079428693953467,0.00079315260005304,-0.0007916711783125,0.00079581181888328,-0.00078895076621892,0.00078906843383084,-0.00078724892737259,0.00079082438559218,-0.0007948765015497,0.00079256727087043,1.1575381440232e-06,-2.1457734219316e-06,-0.00060972528729036,0.00060873118330618,8.1918391046109e-07,-1.8474646906934e-06,-0.00058587199352058,0.00058545241597216,-0.00054437276998667,0.0005396337256536,-0.00054327536501615,0.00054073225367484,-0.00058643111307079,0.00058484373159386,-0.00058321063499139,0.00058809384011756,-0.00054175012641487,0.00054224782914388,-0.00054064825280024,0.00054334735888565,-0.00068211283777844,0.00068311357471845,-0.0006829976560042,0.00068222788597053,-0.00068320718938185,0.00068200514905868,-0.00068409281309347,0.00068112048202301,-0.00068186761531982,0.00067675174175357,-0.00067866045355813,0.00068001632473906,-0.0006777628881083,0.00068091049009845,-0.00068096982183538,0.00067764465475383,-0.00058907781066114,0.0005822035240834,0.7605715713874,131688,2924,0.0028654464313295,0.0034066543411719,0.0025353780050558,14.811610956748,3.3692887653982e-05,3.3692887653982e-05,3.3692887653982e-05,3341201.2350473,0.0088465114213542
23391759,0.59318303141031,0.0096907655320852,0.0031853644132879,0.0035925150027744,0.0029128861160229,-0.00074592825938476,0.00074555602987587,-2.1656975789931e-06,1.8039948937607e-06,6.439815363618e-07,-1.0416709836714e-06,-0.00043727648457529,0.00043910430121073,-0.00073723378474069,0.00073386114710768,-0.00073591504910459,0.00073518494537294,-0.00043949348027428,0.00043692186285686,-0.00043559957104076,0.00044080087017503,-0.00073560887558556,0.0007355468356846,-0.00073428250087509,0.00073686414508221,-0.00083853565620441,0.00083739526469921,-0.00083720998787963,0.00083871650580461,-0.00083907219884073,0.0008368290094165,-0.00083775059856789,0.00083815303106426,-0.00074198392171262,0.00073717393920058,-0.00073809642959197,0.00074106279118755,-0.00074142827818323,0.00073774645877268,-0.00073753465712909,0.00074163046400815,-0.00044115956419935,0.00043521504735274,-3.3236816741186e-07,1.3486110565663e-06,-5.8300512954389e-07,1.5658077625911e-06,-0.00089649671633811,0.00089748391921624,-0.00086670524361417,0.00086922616058788,-0.00086308929972307,0.00086173623169971,-0.00086145902811735,0.0008634082775146,-0.00090398648359244,0.00090370052241543,-0.000903283500323,0.00090442140885305,-0.00090344538672686,0.0009042608683811,-0.00090274275209169,0.0009049817727611,-0.00086823185358611,0.00086766962867786,-0.00086614160927856,0.00086978629927827,-0.00086237493372134,0.00086245288144216,-0.00086074572133557,0.0008641250561866,-0.00086879639739142,0.00086710593711718,1.5609665313562e-06,-2.4117039176825e-06,-0.00065399731350404,0.00065314363252999,6.2431558000885e-07,-1.5037358637651e-06,-0.00062529680026519,0.00062620979543601,-0.00057786578937187,0.00057358211968898,-0.00057654583142898,0.0005749038272425,-0.00062705857071019,0.00062442226796682,-0.00062317130555168,0.00062831164225118,-0.00057577666619729,0.0005756683218979,-0.00057444971950763,0.00057698788565703,-0.00073748385115623,0.00073866847789685,-0.00073819106755487,0.00073796151759065,-0.0007388063275369,0.00073734208529976,-0.00073951249090156,0.00073663457152924,-0.00073747135023498,0.00073201802965841,-0.00073359493016943,0.00073592128320889,-0.0007328760972101,0.00073663298776876,-0.00073675575485057,0.00073273156462048,-0.00062916575588781,0.00062231541688883,0.75126456022331,131688,2924,0.0031028011226272,0.0037302278440297,0.0027197029091515,15.634064784728,4.0272518277825e-05,4.0272518277825e-05,4.0272518277825e-05,3478057.0989568,0.0095986744327626
24391759,0.64591197495015,0.010527744771271,0.0034566479387903,0.0039309235848913,0.0031401732475897,-0.00081074924118912,0.00081085184836553,-1.8642628579288e-06,1.9838424427249e-06,6.4615448929202e-07,-5.6266403537964e-07,-0.00045573510567341,0.00045838940436299,-0.00080045000031983,0.00079806326947586,-0.00079916955286501,0.00079934284237182,-0.00045829446139865,0.00045585521715756,-0.00045450782968271,0.0004596285166967,-0.00079928582204541,0.00079927242145504,-0.00079799465124085,0.00080055387294816,-0.00091694540731307,0.00091615199297502,-0.00091566022289795,0.00091743412802607,-0.00091732085439041,0.00091574884664194,-0.00091604156541012,0.00091703187573657,-0.0008064948463985,0.00080244846612686,-0.00080273592088657,0.00080621924572091,-0.00080610328295213,0.00080285740342905,-0.00080232967523406,0.00080662906654967,-0.00045949277277224,0.00045462589636674,-3.5192652669513e-07,8.51715608348e-07,-7.6080531425892e-07,1.2234833730758e-06,-0.00098599306531695,0.00098646630117977,-0.00095220671357364,0.00095420766119799,-0.00094723747762279,0.00094588598747108,-0.00094606746285835,0.00094708709097927,-0.00099452541697078,0.00099394227626926,-0.0009938740556051,0.00099460976064906,-0.00099414025041566,0.00099434140773503,-0.00099349029816715,0.0009950065676674,-0.00095373383504966,0.00095265858350756,-0.00095180362982764,0.00095460257127074,-0.0009465810676256,0.00094655372739701,-0.00094540594158006,0.00094775056667085,-0.00095414600725147,0.00095225419774792,1.5334683413937e-06,-2.3187046789283e-06,-0.00070396642420996,0.00070318041054797,5.7831665097538e-07,-1.3852244606334e-06,-0.0006716072045715,0.00067262317908275,-0.00061636648824045,0.00061236495547026,-0.00061509029171938,0.00061364276894107,-0.00067339752509964,0.00067077492205019,-0.00066962686069208,0.00067456635985528,-0.00061443719787179,0.00061427419300171,-0.00061314712851486,0.00061555868804057,-0.00079995071782134,0.0008011088599366,-0.00080060790843325,0.00080045858255456,-0.00080123165391065,0.00079981924969858,-0.00080188575460947,0.00079916943112276,-0.00080074732738404,0.00079553305772283,-0.00079700270477825,0.00079932343141511,-0.00079632970859735,0.00079998094481978,-0.00080008676830171,0.00079618694499431,-0.0006753406960426,0.00066885260244301,0.76118278553247,131688,2924,0.0033731220504198,0.0041005172565034,0.0029275288067076,17.855805232014,5.8046441856115e-05,5.8046441856115e-05,5.8046441856115e-05,3617067.3036936,0.010455659395964
25391759,0.70051565342614,0.011415657453559,0.0037431519626823,0.004293628802232,0.0033788766886446,-0.00087795500029267,0.00087788898526317,-2.3134565237981e-06,2.2590479787786e-06,5.5564663825649e-07,-6.3971768215984e-07,-0.00046785057028693,0.00047106283944135,-0.00086612274242374,0.00086334430051392,-0.00086460277764851,0.00086486716591309,-0.00047113849165124,0.00046780139959637,-0.00046665119608483,0.00047227637870739,-0.00086497599352457,0.00086454154227459,-0.00086344804855684,0.0008660619030079,-0.00099956352965844,0.00099836229684016,-0.00099803739532231,0.00099988571765265,-0.00099994005547854,0.00099796102705582,-0.0009984182420649,0.00099948634073923,-0.00087552616092449,0.00087059575150791,-0.00087105061218891,0.00087507613437735,-0.0008751344663004,0.00087100295411575,-0.0008706509329286,0.00087548055633854,-0.00047232193545504,0.00046658611393437,-2.028807931932e-07,9.8481717412141e-07,-6.7752697314629e-07,1.4274715804736e-06,-0.0010823639663458,0.0010831199238774,-0.0010463746205044,0.0010487846131369,-0.0010397299809196,0.0010386440530284,-0.0010385777336515,0.0010398226429183,-0.0010899954504407,0.0010896566178818,-0.0010893075228674,0.0010903635476366,-0.0010896121084168,0.0010900508542448,-0.0010889249621952,0.0010907567774395,-0.0010480226022223,0.0010471087306444,-0.0010459746220713,0.0010491775173667,-0.0010390311988312,0.0010393480928578,-0.0010378783343575,0.0010405254183702,-0.0010484266934744,0.0010467098777259,1.8751530242206e-06,-2.7016447999574e-06,-0.00075394407801767,0.00075311548696323,6.1631018967095e-07,-1.4685299655262e-06,-0.00071721224091645,0.00071877880981577,-0.00065276043624614,0.00064834929452148,-0.00065124129584258,0.00064986994362964,-0.0007196029344958,0.0007163566316768,-0.00071512257357845,0.00072083873480832,-0.00065071553722835,0.00065038868809369,-0.00064918551902747,0.00065190947343782,-0.0008643028278328,0.00086569984243933,-0.00086499723334245,0.00086500807785463,-0.0008658270270698,0.00086417165561145,-0.00086651927068814,0.00086347935735449,-0.00086781046214491,0.00086180441080965,-0.00086334480224937,0.00086629897792181,-0.00086263685526387,0.00086699597811634,-0.00086710956241855,0.00086250262133298,-0.00072166464754883,0.0007142982679168,0.78099361347193,131688,2924,0.0036519823962521,0.0045008148263534,0.0031351463330634,19.837941081672,7.3903528653373e-05,7.3903528653373e-05,7.3903528653373e-05,3675337.279401,0.011352153936692
26391759,0.75056012158003,0.012247935719231,0.0040100956497099,0.0046379081303357,0.0035999319391858,-0.00093688373094887,0.00093717350313944,-2.3575872238758e-06,2.6585263238911e-06,2.9438005534737e-07,-1.0526911047888e-08,-0.00047010224224892,0.00047499653404143,-0.00092189688018336,0.0009202113928161,-0.00092022616943295,0.0009218812996712,-0.00047470394406139,0.0004704091881563,-0.00046977864740961,0.00047531959692724,-0.00092161489929464,0.00092051940361667,-0.00091993529725096,0.00092218723478071,-0.0010739964156033,0.0010727071494625,-0.0010723224993553,0.0010743787933365,-0.0010740874059438,0.0010726036117174,-0.0010724179955936,0.0010742771959561,-0.00093720640143337,0.00093249218135817,-0.00093230099745301,0.00093741072378845,-0.00093711091706863,0.00093260287553917,-0.00093219679817706,0.00093751692494846,-0.00047500756378136,0.00047008180360258,9.6278777267671e-08,3.9444413224243e-07,-9.2792819993551e-07,1.401632222376e-06,-0.0011726223411489,0.0011730995536794,-0.0011358674875443,0.0011385223970047,-0.001127494770602,0.0011269217194278,-0.0011272094924833,0.0011272137107384,-0.0011774742362934,0.0011770779364534,-0.0011767140774181,0.0011778600077941,-0.0011773770887661,0.0011771744751954,-0.0011766179149297,0.0011779550518916,-0.0011380325626396,0.0011363295550519,-0.0011357652093601,0.0011386167046594,-0.0011267259032958,0.001127704121534,-0.001126435959875,0.0011279915613983,-0.0011381446906078,0.0011362314927597,2.058432915967e-06,-2.9627267927062e-06,-0.00079570521521163,0.00079479996991126,6.8922829985026e-07,-1.6190017006334e-06,-0.00075367336631823,0.00075537414259004,-0.00067994291140376,0.00067508985559286,-0.00067827405346419,0.00067675719919253,-0.00075627725736533,0.00075273988570508,-0.00075136547058405,0.00075766427541049,-0.00067768365089609,0.00067735122178473,-0.00067600364544001,0.00067902237145927,-0.00092096409752765,0.00092250748022439,-0.00092173190758222,0.0009217408138675,-0.0009226362117708,0.00092083093371741,-0.0009234022887682,0.00092006420177065,-0.00092729549528907,0.00092070031465937,-0.00092239408413055,0.00092562759995732,-0.00092161137246216,0.0009264003801274,-0.00092651760257632,0.00092147272458095,-0.00075856325897299,0.00075046352650738,0.79883072436354,131688,2924,0.0038975333986976,0.0048744325335799,0.00330854808658,20.411674922667,7.8493399381338e-05,7.8493399381338e-05,7.8493399381338e-05,3668019.692712,0.012154095449942
27391759,0.79842682766942,0.013013546300663,0.0042560546576242,0.0049564599567109,0.0038010316863276,-0.00099200659829404,0.00099293605450104,-1.8167433544899e-06,2.7656986698613e-06,6.9901824262042e-07,2.1943284200488e-07,-0.00046814686161568,0.00047307204216327,-0.00097164538789549,0.00097056159782098,-0.00097010987856312,0.0009720884800199,-0.00047212816429052,0.00046909554572348,-0.00046762290233361,0.00047359037975421,-0.00097118037025135,0.00097104170257721,-0.00096964077604571,0.00097256684909493,-0.0011454186913203,0.0011449617140262,-0.0011438898641257,0.0011464907262005,-0.001145561427195,0.0011448056784293,-0.0011440363400872,0.0011463348761463,-0.00099381875946675,0.0009901183494751,-0.00098934894014724,0.00099461560069306,-0.00099366664648979,0.00099028895664595,-0.00098918715666769,0.00099478653073636,-0.00047262455580164,0.00046857533646005,1.770839812078e-08,5.0412175359147e-07,-6.43230467892e-07,1.1508833636413e-06,-0.0012597392393386,0.0012602478175699,-0.0012210452746442,0.0012231505058493,-0.0012123377184125,0.0012117788660033,-0.0012118650822147,0.0012122645465307,-0.0012622938742988,0.0012620483841301,-0.0012617038795439,0.001262650939197,-0.0012621464389333,0.0012622055285466,-0.0012615584431446,0.0012628054906595,-0.0012226364490277,0.0012215590776803,-0.0012208863508074,0.0012233098248012,-0.0012117512539931,0.0012123911368986,-0.0012112689351665,0.0012128614852798,-0.0012228122827156,0.0012214004356265,1.9241042496579e-06,-2.6625444461745e-06,-0.00083277598968341,0.00083204032339542,5.1343978465199e-07,-1.2636158788205e-06,-0.00078170996361336,0.00078367886011489,-0.0007001243421972,0.00069611973953958,-0.00069860154668814,0.00069764670702444,-0.00078440767495103,0.00078093236342328,-0.00077993181023117,0.00078545767692094,-0.00069839513596869,0.00069786101671157,-0.00069686314866987,0.00069939602978924,-0.00097455549448886,0.00097594599575474,-0.00097514735486261,0.00097535457449693,-0.0009760767021149,0.00097440773486179,-0.00097666767405322,0.00097381842739767,-0.00098078918093162,0.0009749618977225,-0.00097632298917222,0.00097946519384558,-0.00097571645584936,0.00098006268227076,-0.00098018359454578,0.00097554906660939,-0.00078616976671857,0.00077919633417796,0.76756559104423,131688,2924,0.0041278535221567,0.0052355168073309,0.0034629760913191,22.213303685831,9.2906429486645e-05,9.2906429486645e-05,9.2906429486645e-05,3653464.420252,0.012909351884963
28391759,0.84096846212577,0.013725801909586,0.004484278108236,0.0052530207221293,0.0039885030792206,-0.0010414902342529,0.0010446318100664,-6.5174406406109e-07,3.8424764647093e-06,1.3533124403425e-06,1.7784947815e-06,-0.00047007816083161,0.00047804251636714,-0.0010181642227237,0.0010202207503484,-0.0010166793197257,0.0010216893322621,-0.00047485056493151,0.00047316994166293,-0.00047032681603059,0.00047764705720582,-0.0010186026827972,0.001019795490496,-0.0010170509116389,0.0010213158870218,-0.0012087885360464,0.0012102517908448,-0.0012072893325301,0.0012117546002393,-0.0012086358806699,0.0012104055434476,-0.001207143995079,0.0012118981238628,-0.0010453297556793,0.0010442575032682,-0.0010409703799292,0.0010486804402543,-0.0010454727945464,0.0010441340772387,-0.0010410929676039,0.0010485569830201,-0.00047441856881571,0.00047360872931712,3.3261346414352e-07,-5.4879451502957e-08,-7.1635759349042e-07,1.0002353801639e-06,-0.0013383287414594,0.0013386073665937,-0.0012974197191054,0.0012994973998588,-0.0012880833114742,0.0012882009616901,-0.0012884880915408,0.0012877964371488,-0.0013395057683721,0.0013393540320344,-0.0013389344287388,0.0013399173272618,-0.0013396589353353,0.0013392081145667,-0.0013390855724136,0.0013397947039232,-0.001299203232266,0.0012976743361288,-0.0012975144910815,0.0012993717326594,-0.0012875624021128,0.0012887527568071,-0.0012878932124763,0.0012884015904862,-0.0012990754841989,0.00129782773578,1.8782934460156e-06,-2.6136248874211e-06,-0.00086576754863285,0.00086504570156234,4.7686536872953e-07,-1.2238575297034e-06,-0.00081047307602634,0.00081234985230697,-0.00072095379435901,0.00071705368500611,-0.00071946200641977,0.00071855994075477,-0.00081313350773838,0.00080969074533899,-0.00080881145562258,0.00081408215666685,-0.00071929037565253,0.00071873412405046,-0.00071782081210793,0.00072021974726812,-0.001020993243094,0.0010223499514334,-0.0010215537792768,0.0010217857043964,-0.0010224671362017,0.0010208291067829,-0.001023034412242,0.0010202660560294,-0.0010299395664095,0.0010242257785266,-0.0010255928999038,0.0010286830754223,-0.0010250249937095,0.0010292631929054,-0.0010293442221799,0.0010247915279535,-0.00081484400976205,0.00080794111911153,0.80347863638886,131688,2924,0.0043379804210476,0.005560579756769,0.0036001167486027,23.413404763725,0.0001025072381098,0.0001025072381098,0.0001025072381098,3645876.0715671,0.013590645500792
29391759,0.87775404198296,0.014284507221805,0.0046647675251009,0.005485204706848,0.0041345349898562,-0.0010801846915219,0.0010809519680891,-1.9863458690167e-06,2.772654520228e-06,6.9328639568615e-07,5.9163873996144e-08,-0.00045309673595789,0.00045788066572263,-0.0010492251234329,0.001047771980789,-0.0010476419420992,0.0010493519102896,-0.00045710622348303,0.00045387090980495,-0.00045242338806936,0.00045854142520465,-0.001048619581495,0.0010484045106535,-0.0010470232293846,0.0010499911232546,-0.001263493915557,0.001262872172582,-0.0012619062273642,0.0012644598857579,-0.0012636899833892,0.0012626625166313,-0.0012621061985878,0.0012642493708141,-0.0010857650567525,0.0010816763876469,-0.0010811135169642,0.0010863437743552,-0.0010855569890708,0.0010818969812827,-0.0010808966295213,0.0010865643731613,-0.0004577444906882,0.00045321762667571,-4.7662009713621e-08,5.9240500708612e-07,-5.8207923819312e-07,1.1091841373491e-06,-0.0014058538696163,0.0014063829131697,-0.0013632660240588,0.0013652305678496,-0.0013558893200753,0.0013552465988394,-0.0013552768056052,0.0013558815538881,-0.0014035263928643,0.0014032813083167,-0.0014029712837457,0.0014038473098434,-0.0014033251316677,0.0014034914409047,-0.0014027703413006,0.0014040600143369,-0.0013646979752214,0.0013637855237233,-0.0013630466766107,0.0013654424289788,-0.0013553342457925,0.0013558109964181,-0.0013547109587997,0.0013564502007094,-0.00136491910887,0.0013635749540976,2.039837396411e-06,-2.7236168853665e-06,-0.00088608129846088,0.00088539863963084,4.8762879220433e-07,-1.1878173525901e-06,-0.00081718132563752,0.00081946968268735,-0.00072303240511794,0.00071911502477824,-0.00072144990459877,0.00072069766940792,-0.0008201548127234,0.00081647077367432,-0.00081550867015319,0.00082113745073356,-0.0007213941410869,0.00072075574369589,-0.00071980756315834,0.00072233816330107,-0.0010581529079397,0.001059621565466,-0.001058709695887,0.0010590649062574,-0.001059734359351,0.0010580267816738,-0.0010602911127398,0.0010574704445461,-0.0010654715242829,0.0010595597853923,-0.0010608283541509,0.0010642424738341,-0.001060259855275,0.0010648058948207,-0.0010649031643035,0.0010601195180023,-0.0008218173021963,0.00081481311515593,0.72782173346177,131688,2924,0.0044938488013951,0.0058407215775206,0.0036847005652718,24.734689995295,0.00011307751996236,0.00011307751996236,0.00011307751996236,3522185.5384283,0.014118564725314
30391759,0.9085022441009,0.014742687798461,0.0048132725260597,0.0056746858053911,0.0042547294670103,-0.0011123748428131,0.001113037848558,-1.9425213611556e-06,2.6267476917881e-06,8.304212719389e-07,-1.963121387167e-07,-0.00045897828456963,0.0004629386647592,-0.0010783266110269,0.0010764449774601,-0.0010768278283817,0.0010779190250262,-0.00046238901991581,0.00045947764949854,-0.0004577415958977,0.00046407101220996,-0.0010773928322672,0.0010774614701042,-0.0010757778704912,0.0010790142547798,-0.0013061215250675,0.0013055833950999,-0.0013045877550899,0.0013071072228098,-0.0013064339375619,0.0013052600182136,-0.0013049232333131,0.00130676811804,-0.0011165169109635,0.0011123907662343,-0.0011120926053238,0.0011168761368222,-0.0011161850369307,0.0011127413026137,-0.0011117063855228,0.0011172567998481,-0.00046328284732113,0.00045847949168085,-1.2521423831787e-07,9.0745592389113e-07,-8.9938481755195e-07,1.6484109446589e-06,-0.001455387676717,0.0014561458606475,-0.0014042208761303,0.0014071137774595,-0.001400830622694,0.0013997912953724,-0.0013998934418783,0.001400827771205,-0.0014574611125982,0.0014570395776375,-0.0014566330725509,0.0014578946602094,-0.0014571511336049,0.001457376054267,-0.0014563050595254,0.0014582399432624,-0.0014063555600619,0.0014049765267655,-0.0014038644253038,0.001407439015891,-0.0014000632896462,0.0014006330726793,-0.0013989968256987,0.001401722086095,-0.0014066925870365,0.0014045813666177,1.7547506339034e-06,-2.814989321813e-06,-0.00090396050098751,0.00090291293925523,7.2182521690416e-07,-1.8067080314571e-06,-0.00083144727683337,0.00083215595004616,-0.00073457061853139,0.0007295659081955,-0.00073310664633231,0.00073104858069153,-0.00083332483695555,0.00083023539165046,-0.00082890247935425,0.00083473698906335,-0.00073212328692356,0.00073201295280591,-0.00073059679907573,0.00073353089636456,-0.0010853446577471,0.0010866891919775,-0.001086186966391,0.0010858330688377,-0.0010868638495158,0.0010851570223622,-0.0010877000786672,0.0010843077570523,-0.0010925602288352,0.0010861722531306,-0.0010881041085595,0.0010906546801632,-0.0010872514256936,0.0010915451104481,-0.0010916998669025,0.0010870040311465,-0.00083585790755506,0.00082784194939511,0.71335670370491,131688,2924,0.0046273127641164,0.0060462029823852,0.0037582602935401,26.074621021104,0.00012379696816883,0.00012379696816883,0.00012379696816883,3538956.0112095,0.01453702470903
31391759,0.93439390782141,0.015153128307816,0.0049456542369275,0.0058436974883314,0.0043637765825569,-0.001141222463454,0.001141776043188,-1.944214772839e-06,2.5027100427181e-06,9.2527833326895e-07,-3.7928773963669e-07,-0.00044991727289591,0.00045348693474191,-0.0011033912571328,0.001101183337023,-0.0011018877129114,0.0011026284340159,-0.00045292423093777,0.00045043457458588,-0.00044854789455246,0.00045483008352432,-0.0011021215154463,0.0011024799844279,-0.0011005977106279,0.0011039437436689,-0.00134658051868,0.0013460680441448,-0.0013450967837387,0.0013475497173184,-0.001346991711122,0.0013456379137752,-0.001345509209968,0.0013471252861999,-0.0011465808217035,0.0011423002890735,-0.0011422555951573,0.0011467419460011,-0.0011461410316518,0.0011427748553972,-0.001141817700513,0.001147167468221,-0.00045421576417224,0.00044910171905679,-2.6871785188246e-07,1.0358421501233e-06,-6.6740232308248e-07,1.4097720032338e-06,-0.0015062507922597,0.0015069944497538,-0.0014524289536781,0.0014547863187641,-0.0014512390393197,0.0014500186659646,-0.0014499396511446,0.0014512957477607,-0.0015069137902274,0.0015065372519532,-0.0015062346582335,0.0015072338748098,-0.0015065006439261,0.0015069731207937,-0.0015058214474088,0.0015076597068231,-0.0014540722406245,0.0014532487694608,-0.0014519780459641,0.0014551611714334,-0.0014505764895946,0.0014507253491379,-0.001449257573235,0.001452017018363,-0.0014544922176579,0.0014527276054634,1.7925038855443e-06,-2.6590270395322e-06,-0.00091823797512611,0.0009173932740704,6.0736705795854e-07,-1.453556359978e-06,-0.00083994692631326,0.00084122088442653,-0.00073807892603518,0.00073382999795048,-0.00073666676871164,0.00073526681591355,-0.00084217524946817,0.00083906703224558,-0.00083788608539818,0.00084335161619314,-0.00073608219361008,0.00073582697081063,-0.00073462317669715,0.00073729558628529,-0.0011111627740477,0.0011124942106556,-0.0011118443316449,0.0011118147792316,-0.0011126454715915,0.0011109986333117,-0.0011133276051987,0.0011103156076845,-0.0011195523637812,0.0011135804103961,-0.0011151577241223,0.0011179613542439,-0.0011144619055152,0.0011186481594723,-0.0011188309643742,0.0011142769475988,-0.0008442451025835,0.00083703215241509,0.75948214348675,131688,2924,0.0047469510086105,0.0062566609348427,0.0038180861958961,28.35812921937,0.00014206503375496,0.00014206503375496,0.00014206503375496,3439583.9200707,0.014932766803611
32391759,0.95393171700031,0.015475561964944,0.005049387437018,0.0059760950642507,0.0044500794636754,-0.001160285768692,0.0011607600156216,-2.13710155683e-06,2.6308798139459e-06,1.0635836292599e-06,-6.2214425843318e-07,-0.00042133099828222,0.00042471859255158,-0.0011159754601604,0.0011132022949791,-0.001114394973863,0.0011147399188081,-0.0004243655822777,0.0004217544525993,-0.00041955877268031,0.00042645844327705,-0.0011143621249853,0.0011148728266741,-0.0011127161126815,0.0011164460589941,-0.001377776780114,0.0013772054044766,-0.0013761876399294,0.0013788034388294,-0.0013783082017916,0.0013766511260244,-0.001376724785392,0.0013782367002565,-0.0011697745328252,0.0011650279607734,-0.001165152584653,0.0011697445784708,-0.001169217643698,0.0011656065786187,-0.001164580484938,0.0011703256081896,-0.00042591115137984,0.00042006379485771,-3.6101936294254e-07,1.32809963151e-06,-6.168609376604e-07,1.5471748678977e-06,-0.0015502670588752,0.0015512057647749,-0.001499754751121,0.0015022111246928,-0.0014995843272187,0.0014981824116627,-0.0014979599744338,0.0014998443891265,-0.0015433154447559,0.0015429815546815,-0.0015426123436387,0.0015437106064015,-0.0015427924507575,0.0015435382564128,-0.0015420716506722,0.0015442881449481,-0.0015013226571461,0.0015006745158224,-0.001499166612193,0.0015027673481165,-0.0014989356659893,0.001498896892502,-0.0014972499030523,0.0015006301744989,-0.0015018733974032,0.0015001020097074,1.9554291872814e-06,-2.8179574544413e-06,-0.00092428660035021,0.00092343834557368,6.3672464317444e-07,-1.5089483739143e-06,-0.0008340618193283,0.00083567525050613,-0.00072784807408289,0.00072333916433684,-0.00072627338972232,0.00072491612688097,-0.00083654755660424,0.00083316987456844,-0.00083195704245594,0.00083781717792275,-0.00072572979539168,0.0007254113604613,-0.0007241522680151,0.00072699015377322,-0.0011311292950493,0.0011326022982917,-0.0011318403550445,0.0011318895505437,-0.0011327100593373,0.0011310073101916,-0.001133426893936,0.0011302885200781,-0.0011393600414025,0.0011330710715826,-0.0011346914727437,0.0011377707125249,-0.0011339629397784,0.0011384877318328,-0.0011386163748796,0.0011337967797901,-0.00083872450917417,0.00083104654170794,0.78952232980782,131688,2924,0.0048261236851001,0.0064392207293095,0.0038433706900032,29.292819570028,0.00014954255656022,0.00014954255656022,0.00014954255656022,3228472.8528231,0.015224232880177
33391759,0.96774917286841,0.015705796358145,0.0051237197536603,0.0060698016949988,0.0045122749094858,-0.001172161480812,0.001172891319918,-2.1037896162547e-06,2.8515746621193e-06,7.2446505259519e-07,-1.0187110530987e-08,-0.00040111123194458,0.00040593417178403,-0.0011230008773711,0.0011213497522227,-0.0011213543499591,0.0011229870756738,-0.0004052101457214,0.00040182935895679,-0.00040032172070703,0.00040670090110277,-0.0011223017811552,0.0011220802905573,-0.0011206317400597,0.0011237310924852,-0.0013982315219695,0.0013975393210248,-0.0013965774006226,0.0013991930346624,-0.0013984592765393,0.0013972979209742,-0.0013968106762406,0.0013989496921355,-0.0011841675202347,0.0011798119654462,-0.0011793279387087,0.0011846780781958,-0.0011839264180713,0.0011800676262429,-0.0011790742883777,0.0011849335351502,-0.00040593290115911,0.00040108031635205,-6.7847509645631e-08,6.7082438608236e-07,-7.2864647308272e-07,1.3120111138715e-06,-0.0015797657388757,0.001580351656114,-0.0015312620044604,0.0015335920804571,-0.0015308592876379,0.0015300645886159,-0.0015301516952627,0.0015307940975094,-0.0015678838699981,0.0015675484931145,-0.0015672168086874,0.0015682315488071,-0.001567651396825,0.0015677905732478,-0.0015669827986865,0.0015684771472718,-0.0015330049847806,0.0015318429891259,-0.0015310090001983,0.0015338322343576,-0.0015301958246828,0.0015307442012864,-0.0015294694407524,0.0015314862077926,-0.0015332568166077,0.0015315888983139,2.0742491609529e-06,-2.8867335789125e-06,-0.00092607495828207,0.00092526571562228,5.9678485234169e-07,-1.4272131557126e-06,-0.00082574782369756,0.00082772855547242,-0.00071823182328605,0.0007137916032532,-0.0007165941166326,0.00071543251911168,-0.00082855921418556,0.00082490140782764,-0.00082372840838591,0.00082975104881845,-0.0007162552863419,0.00071576939734921,-0.00071460398950314,0.00071741534651774,-0.0011429145046693,0.0011444410251568,-0.0011435868922813,0.0011437677135662,-0.0011445626058681,0.0011427807527559,-0.0011452348217272,0.001142107615911,-0.001151010139372,0.0011446557148739,-0.0011461686743512,0.001149530414494,-0.0011454830564611,0.0011502134659607,-0.0011503225743473,0.0011453323373887,-0.00083057134450332,0.00082290421079015,0.7943206473145,131688,2924,0.0048761135361991,0.0065605264207875,0.0038510067204185,29.275813108722,0.00014940650486978,0.00014940650486978,0.00014940650486978,3072302.58155,0.015405990335342
34391759,0.97834598267943,0.015875556466333,0.0051788588195672,0.0061382663894354,0.0045584312573304,-0.0011844188904608,0.0011852412612099,-2.1535295592279e-06,2.9924192042968e-06,6.5285335889442e-07,1.5865183308243e-07,-0.00039085986663404,0.00039618550551051,-0.0011321687696993,0.0011307965354254,-0.001130463332801,0.0011324813062726,-0.000395390347053,0.0003916428834955,-0.00039028862710953,0.00039672667689587,-0.0011317146132097,0.0011312788721482,-0.001129961776887,0.0011329960510362,-0.0014172009421196,0.0014164577762716,-0.0014154839875682,0.0014181764234558,-0.0014173518695931,0.0014162977640603,-0.0014156410056323,0.0014180113832675,-0.001197750414042,0.0011933781139066,-0.0011927344429368,0.0011984437343637,-0.0011975864004665,0.0011935499913623,-0.0011925607314641,0.0011986160814602,-0.00039583642772847,0.00039114570739217,2.3679817313446e-08,5.2329948975944e-07,-7.1884538765849e-07,1.2502169309814e-06,-0.0016049968588132,0.0016055299786569,-0.0015562121244965,0.0015584945827589,-0.0015566605715616,0.0015560830617204,-0.0015561958484256,0.0015565604584266,-0.001590756451001,0.0015904723768408,-0.0015901128388971,0.0015911293669819,-0.0015906002013134,0.001590631742622,-0.0015899537113828,0.0015912960751116,-0.0015579820848619,0.0015567464745393,-0.0015560332480292,0.0015586571399876,-0.0015560418074221,0.0015567316328438,-0.0015555344833116,0.0015572453949627,-0.0015581472143585,0.0015565778164395,2.1900240941365e-06,-2.9617841132493e-06,-0.0009296498190012,0.00092888661655751,5.8687208645634e-07,-1.3655060578117e-06,-0.00082254402571202,0.00082483086688866,-0.00071418848020742,0.00070981191193359,-0.00071248346694301,0.00071151848158995,-0.0008256131544998,0.00082176631797244,-0.00082061242476011,0.00082677105131869,-0.0007122731101115,0.00071172100884658,-0.00071056554201768,0.00071342615770175,-0.0011539618879461,0.0011555727477386,-0.0011546090614707,0.0011549232196718,-0.0011556727697656,0.0011538495290327,-0.0011563206495061,0.0011531991982375,-0.0011622440396039,0.0011557559841021,-0.0011572105911116,0.0011608208253687,-0.0011565528583007,0.0011614780882117,-0.0011615802027858,0.0011564147342586,-0.00082756339366188,0.00081981568913018,0.76156673934142,131688,2924,0.0049272984843994,0.0066647704938456,0.0038660415389917,31.391922115936,0.00016633537692749,0.00016633537692749,0.00016633537692749,2980084.9183084,0.015579157667971
35391759,0.98676419535744,0.016006718186407,0.0052216217198394,0.0061908101708479,0.00459428629572,-0.0011988698115066,0.0011998253133619,-2.1176163312322e-06,3.089549108681e-06,6.2799331254101e-07,3.1281990633216e-07,-0.00039303493533545,0.00039877811066209,-0.001145118502376,0.0011440237650163,-0.0011433931730251,0.0011457293437824,-0.00039775360566469,0.00039401389378459,-0.00039267945900949,0.00039917032702478,-0.0011448443485143,0.0011443392810523,-0.0011430690094394,0.0011460565351573,-0.0014364879215337,0.0014357989520264,-0.0014347457961854,0.001437533127517,-0.0014365793255636,0.0014356997301148,-0.0014348419343529,0.0014374416150319,-0.001212451555027,0.0012081901433005,-0.001207377612797,0.0012133758072063,-0.0012123365653142,0.0012083301605495,-0.0012072816063817,0.0012134554502592,-0.00039808212454281,0.00039358745124612,3.4172755638302e-08,3.5866697633513e-07,-7.9555363964692e-07,1.1515674843501e-06,-0.0016282710499148,0.0016286474707695,-0.0015762946037151,0.0015784768714407,-0.0015789034599165,0.0015783636583177,-0.0015786268346686,0.0015786929541042,-0.0016147876636292,0.0016144317972434,-0.0016141600766188,0.0016150840929511,-0.0016147028136058,0.0016145325039051,-0.001614062090254,0.0016151761874179,-0.0015781596209565,0.0015767346394321,-0.0015761751194877,0.0015785113364329,-0.0015782784321532,0.0015789995234486,-0.0015779736445612,0.0015793544793204,-0.0015782596392395,0.0015765417682301,2.2721439196731e-06,-2.9397808514444e-06,-0.0009368864002647,0.00093624606459447,6.4550889270673e-07,-1.2820291550659e-06,-0.00082773044075202,0.00083009813621667,-0.00071829898072837,0.00071415980377527,-0.00071664681127484,0.00071581687251635,-0.00083072845269895,0.00082690543719277,-0.00082569862312127,0.00083192088953228,-0.00071641368546902,0.00071599330283429,-0.00071468877346386,0.0007177131229424,-0.001165745593643,0.0011674888913449,-0.0011663713960061,0.0011668441058965,-0.0011674751561691,0.0011657346057551,-0.0011681098303498,0.0011650943144728,-0.0011747433402306,0.0011682774398915,-0.0011696291758508,0.0011734311129686,-0.0011689978863756,0.0011740711292061,-0.0011740657330618,0.0011689420111623,-0.00083274597629357,0.00082504658516789,0.73947519878236,131688,2924,0.0049875959832031,0.0067606819526382,0.0038963952642664,35.837303194574,0.00020189842555659,0.00020189842555659,0.00020189842555659,2962581.3324065,0.015768674909951
36391759,0.99222431882028,0.016093304012306,0.0052498118583552,0.0062254269444918,0.0046180652094588,-0.0012061812859582,0.0012070332019748,-2.1930679637209e-06,3.0613772843181e-06,6.1991765693811e-07,2.2194299339672e-07,-0.00039139197027223,0.0003969671871644,-0.0011512734587084,0.0011499816795219,-0.0011495268817373,0.0011517162393028,-0.00039611628515985,0.00039223143859313,-0.0003909370759878,0.00039739807496296,-0.0011509019135776,0.0011503769034658,-0.0011491310288877,0.001152126578925,-0.001447079430006,0.001446298346479,-0.001445325504133,0.0014480520626737,-0.0014471998411095,0.0014461690434481,-0.0014454514027885,0.0014479208071103,-0.0012196542595099,0.0012152360041365,-0.0012145237339928,0.0012203994968171,-0.0012195246869446,0.0012153797232682,-0.0012143820476076,0.0012205413246129,-0.00039650449599004,0.00039181912784169,3.6356868677192e-08,4.3977099968968e-07,-7.8291768102303e-07,1.24401080937e-06,-0.0016409304382822,0.0016413939044897,-0.0015866887708329,0.0015889955028403,-0.0015914611372054,0.0015908765764966,-0.0015910790272216,0.0015912692327327,-0.001627820410714,0.0016274783448164,-0.001627157816183,0.0016281564969629,-0.0016276950913219,0.0016276081285534,-0.0016270307482033,0.0016282897642609,-0.0015885327124511,0.0015871516227144,-0.0015865473161894,0.0015891229040323,-0.0015908033582152,0.0015915518494246,-0.0015904015344791,0.0015919581789955,-0.0015886730880284,0.0015870079288355,2.2278444972914e-06,-3.033095482641e-06,-0.00093959432865404,0.000938793845815,5.9512532657388e-07,-1.4154675276656e-06,-0.00083003365258556,0.00083232357389021,-0.00071921083130271,0.00071469785923677,-0.00071747524396427,0.00071643687872403,-0.00083314831906181,0.00082919415893202,-0.00082802564112837,0.00083433064390699,-0.00071724812511448,0.00071666149295937,-0.00071549805861817,0.00071840703788727,-0.0011711372122875,0.0011727682090036,-0.0011718047392007,0.0011720990506785,-0.0011728855230939,0.001171007981375,-0.0011735532535202,0.0011703391238248,-0.0011812905502023,0.0011746516534471,-0.0011761521297951,0.0011798185778311,-0.001175471182009,0.0011804971591371,-0.0011806065334409,0.001175324995833,-0.00083514963908089,0.00082720960413852,0.75249744099859,131688,2924,0.0050177643794809,0.0068131974757992,0.0039073472461217,37.524565013014,0.00021539652010411,0.00021539652010411,0.00021539652010411,2935006.6931367,0.015863811814799
37391759,0.99544803135847,0.016144084514335,0.0052663499198271,0.0062456822049614,0.0046320523895461,-0.0012081795539444,0.0012090087602196,-2.2154983664955e-06,3.0615975536433e-06,6.3767624177281e-07,1.8059912338941e-07,-0.00038095667612413,0.00038647243619356,-0.0011509770470171,0.0011495965365599,-0.0011492242016435,0.0011513391059758,-0.00038564625168252,0.00038177496254254,-0.00038044172776907,0.0003869633094203,-0.0011505492780498,0.001150050960318,-0.0011487707809405,0.001151808399772,-0.0014521263133644,0.0014513342929475,-0.0014503646758338,0.0014530955054407,-0.0014522653342365,0.001451185188727,-0.0014505095949068,0.0014529446698513,-0.0012227864032002,0.0012183045639843,-0.0012176325552997,0.0012234884340447,-0.0012226371179341,0.0012184675573473,-0.0012174704516738,0.0012236502410435,-0.00038609288104055,0.00038130545483169,1.9325527089053e-08,4.8171752573828e-07,-8.55126747172e-07,1.3401962347924e-06,-0.0016491692154239,0.001649656561418,-0.0015960254528567,0.001598501661139,-0.0016013750397986,0.0016007016212462,-0.0016009359841289,0.0016011531212387,-0.001633635885304,0.0016332428786004,-0.0016329195269997,0.0016339775136543,-0.0016334919153895,0.0016333924276246,-0.001632773741831,0.0016341305801862,-0.0015980134023511,0.0015965108940311,-0.001595864338848,0.001598648289958,-0.001600661863659,0.0016014326150724,-0.0016002026237915,0.0016018979998313,-0.0015981738044276,0.0015963471627384,2.2112462511477e-06,-3.0724197779952e-06,-0.00093838292392424,0.00093752543597885,6.4946141547201e-07,-1.5286067234502e-06,-0.00082452568239025,0.00082661846676798,-0.00071313255989228,0.00070838905415426,-0.00071138985642832,0.00071013493477884,-0.00082749852466085,0.00082363256368176,-0.00082235328803691,0.00082879358303811,-0.00071100539254753,0.00071051734247919,-0.00070924728664374,0.00071227023602695,-0.0011737413887805,0.0011753787330306,-0.0011744647239974,0.0011746540343693,-0.001175497410516,0.0011736108832285,-0.0011762207432189,0.0011728866625191,-0.0011833570472184,0.0011765848910681,-0.0011781974906681,0.0011817742042146,-0.0011774605041693,0.0011825094540592,-0.001182617630298,0.0011773139068273,-0.00082966228797959,0.00082148187492486,0.74709022173814,131688,2924,0.0050260868913775,0.0068473302759709,0.0039022608374208,37.635411588922,0.00021628329271138,0.00021628329271138,0.00021628329271138,2863056.6095279,0.015901818071731
38391759,0.99730956439263,0.016173882848084,0.0052760567176977,0.0062575247990736,0.0046403013313129,-0.0012086204045314,0.00120935777723,-2.2789955460597e-06,3.0340918184658e-06,7.1823767885467e-07,3.853877776694e-09,-0.00037769220539169,0.0003828931217415,-0.0011509256297959,0.0011491836216649,-0.0011491607859242,0.0011509389658922,-0.00038216019243859,0.00037841773723816,-0.00037692294055197,0.0003836403114916,-0.0011502463269568,0.0011498937189148,-0.0011484570477222,0.0011516627045875,-0.0014537985156928,0.0014529881551115,-0.0014520248913874,0.0014547612146491,-0.0014540201745485,0.0014527533669924,-0.0014522520884904,0.0014545246848045,-0.001223482028273,0.0012187887327902,-0.001218291595224,0.001224007220994,-0.0012232469831539,0.0012190382453793,-0.0012180444967211,0.0012242554641745,-0.00038286289641281,0.0003776879147305,-6.3172323397207e-08,6.5597298385545e-07,-7.624971043471e-07,1.3357566417913e-06,-0.0016518965876694,0.001652472600067,-0.0015984677818753,0.0016008512268603,-0.0016043745422246,0.0016035709549844,-0.0016036868241825,0.0016042807222596,-0.0016361562288719,0.001635799044874,-0.0016354710367938,0.0016365012570498,-0.0016359301738112,0.0016360344864008,-0.0016352432845656,0.0016367401286675,-0.0016002747686298,0.0015990399906356,-0.0015982212418249,0.0016010835537331,-0.001603692451423,0.0016042691921843,-0.0016029858378933,0.001604992198174,-0.0016005199501041,0.0015987908947285,2.2460015855594e-06,-3.0737635160144e-06,-0.0009368893743402,0.00093606521340708,6.181403288915e-07,-1.4635873713555e-06,-0.00082196375336792,0.00082421858384077,-0.00071037433101599,0.00070574591322208,-0.0007086190701743,0.00070750374704324,-0.00082506461464587,0.00082110065104218,-0.00081988520856171,0.0008262963671118,-0.00070834098289687,0.00070777948371014,-0.00070657091598763,0.00070954348902316,-0.0011735791117149,0.001175229587655,-0.001174270345393,0.0011745370552068,-0.0011753469630178,0.0011734497033062,-0.0011760381958765,0.0011727573593916,-0.001183328824774,0.001176587454538,-0.0011781350735333,0.0011818138037407,-0.0011774303872922,0.0011825161375344,-0.0011826215498428,0.0011772841708322,-0.00082713576465573,0.00081904638108809,0.75853624576202,131688,2924,0.0050277567219439,0.0068587815673851,0.0038961511891351,37.196172703413,0.0002127693816273,0.0002127693816273,0.0002127693816273,2831060.2899151,0.01590895235901
38880000,0.9979891113197,0.016184892086599,0.005279641766613,0.006261892399005,0.0046433579209814,-0.0012087661242696,0.0012095003731234,-2.2950149900389e-06,3.0469268471492e-06,7.2383416938196e-07,-1.0256193970314e-09,-0.00037258489125626,0.00037780915757911,-0.0011500832512969,0.0011483289922697,-0.0011483138393939,0.0011500861444912,-0.00037707477696935,0.00037330914471614,-0.0003718053650567,0.00037858823769161,-0.0011493999448849,0.0011490422446733,-0.0011475954209751,0.0011508271270018,-0.0014550340713167,0.001454213499037,-0.0014532508270593,0.0014559963206607,-0.0014552587070845,0.0014539752998735,-0.0014534821480322,0.0014557553421948,-0.00122423738912,0.0012195052313524,-0.0012190213038485,0.0012247555955512,-0.0012239986895237,0.0012197598957468,-0.0012187715359559,0.0012250055712327,-0.00037778193161767,0.00037259233168806,-6.0177127478967e-08,6.6928552969784e-07,-7.8432255849476e-07,1.3751448169769e-06,-0.0016544318686163,0.0016550237458826,-0.0016020732007415,0.0016045239951598,-0.0016078263398138,0.0016070141610209,-0.0016071310075614,0.0016077216031071,-0.0016372547824901,0.0016368898860964,-0.0016365510409556,0.0016376105944435,-0.0016370259238226,0.0016371276859957,-0.0016363194274849,0.0016378557469181,-0.0016039400598892,0.0016026655191199,-0.001601819721296,0.0016047652128785,-0.001607130798601,0.0016077265536392,-0.0016064041040298,0.0016084630160137,-0.0016041856690029,0.0016024139143534,2.2509100687426e-06,-3.0978231466248e-06,-0.00093605363509975,0.00093521134086337,6.4061306887508e-07,-1.5017075763534e-06,-0.0008188460377176,0.00082107362907738,-0.00070719874149941,0.00070248520358762,-0.00070543307198472,0.00070425700571818,-0.00082192552415991,0.00081799811283633,-0.00081672537102279,0.00082319941169315,-0.00070510607820456,0.00070458276997629,-0.00070332880991927,0.00070635342165963,-0.0011743389255595,0.0011759996321963,-0.0011750498330005,0.0011752879023485,-0.0011761155345607,0.0011742106405939,-0.0011768277709461,0.0011734978168141,-0.0011837197770915,0.0011769051983523,-0.0011784937136398,0.0011821612250415,-0.0011777707029165,0.0011828811511322,-0.0011829896268352,0.0011776253940587,-0.00082405708398487,0.00081585966556834,0.76741574649612,131688,2924,0.0050283901553463,0.0068693089645255,0.0038926695629372,37.193655329807,0.00021274924263845,0.00021274924263845,0.00021274924263845,2799017.8961752,0.015916774163798
