time,ASR_ext,ASR_strain,ASR_strain_xx,ASR_strain_yy,ASR_strain_zz,disp_x_101,disp_x_102,disp_x_103,disp_x_104,disp_x_105,disp_x_106,disp_x_p10_neg,disp_x_p10_pos,disp_x_p11_neg,disp_x_p11_pos,disp_x_p12_neg,disp_x_p12_pos,disp_x_p13_neg,disp_x_p13_pos,disp_x_p14_neg,disp_x_p14_pos,disp_x_p15_neg,disp_x_p15_pos,disp_x_p16_neg,disp_x_p16_pos,disp_x_p1_neg,disp_x_p1_pos,disp_x_p2_neg,disp_x_p2_pos,disp_x_p3_neg,disp_x_p3_pos,disp_x_p4_neg,disp_x_p4_pos,disp_x_p5_neg,disp_x_p5_pos,disp_x_p6_neg,disp_x_p6_pos,disp_x_p7_neg,disp_x_p7_pos,disp_x_p8_neg,disp_x_p8_pos,disp_x_p9_neg,disp_x_p9_pos,disp_y_101,disp_y_102,disp_y_103,disp_y_104,disp_y_105,disp_y_106,disp_y_p10_neg,disp_y_p10_pos,disp_y_p11_neg,disp_y_p11_pos,disp_y_p12_neg,disp_y_p12_pos,disp_y_p1_neg,disp_y_p1_pos,disp_y_p2_neg,disp_y_p2_pos,disp_y_p3_neg,disp_y_p3_pos,disp_y_p4_neg,disp_y_p4_pos,disp_y_p5_neg,disp_y_p5_pos,disp_y_p6_neg,disp_y_p6_pos,disp_y_p7_neg,disp_y_p7_pos,disp_y_p8_neg,disp_y_p8_pos,disp_y_p9_neg,disp_y_p9_pos,disp_z_101,disp_z_102,disp_z_103,disp_z_104,disp_z_105,disp_z_106,disp_z_p10_neg,disp_z_p10_pos,disp_z_p11_neg,disp_z_p11_pos,disp_z_p12_neg,disp_z_p12_pos,disp_z_p13_neg,disp_z_p13_pos,disp_z_p14_neg,disp_z_p14_pos,disp_z_p15_neg,disp_z_p15_pos,disp_z_p16_neg,disp_z_p16_pos,disp_z_p1_neg,disp_z_p1_pos,disp_z_p2_neg,disp_z_p2_pos,disp_z_p3_neg,disp_z_p3_pos,disp_z_p4_neg,disp_z_p4_pos,disp_z_p5_neg,disp_z_p5_pos,disp_z_p6_neg,disp_z_p6_pos,disp_z_p7_neg,disp_z_p7_pos,disp_z_p8_neg,disp_z_p8_pos,disp_z_p9_neg,disp_z_p9_pos,humidity,ndof,nelem,strain_xx,strain_yy,strain_zz,temp,thermal_strain_xx,thermal_strain_yy,thermal_strain_zz,vonmises,vstrain
14391759,0,0,0,0,0,0,0,0,0,0,0,0,0,0,0,0,0,0,0,0,0,0,0,0,0,0,0,0,0,0,0,0,0,0,0,0,0,0,0,0,0,0,0,0,0,0,0,0,0,0,0,0,0,0,0,0,0,0,0,0,0,0,0,0,0,0,0,0,0,0,0,0,0,0,0,0,0,0,0,0,0,0,0,0,0,0,0,0,0,0,0,0,0,0,0,0,0,0,0,0,0,0,0,0,0,0,0,0,0,0,0,0,0,0,0,0,0,0,0,0,0,0,0
15391759,0.10043188853302,0.001689416769081,0.00056313892302701,0.00056313892302701,0.00056313892302701,-0.00016319572719874,0.00016319572659345,-2.2494776035327e-14,-4.6106256926676e-13,2.6516187007512e-13,-7.8885779799459e-13,-0.00014554363458683,0.00014554363172363,-0.00016000769544441,0.00016000769396055,-0.00016000769675438,0.00016000769497814,-0.00014554363219308,0.00014554363229456,-0.0001455436335385,0.00014554363278115,-0.00016000769441739,0.00016000769501504,-0.00016000769572451,0.00016000769602979,-0.0001685361082105,0.00016853610829798,-0.00016853610881042,0.00016853610860551,-0.00016853610854638,0.00016853610794597,-0.00016853610914758,0.00016853610825479,-0.00016196893433371,0.00016196893395926,-0.00016196893503403,0.00016196893380071,-0.00016196893398642,0.00016196893431436,-0.00016196893468397,0.00016196893415304,-0.00014554363323575,0.00014554363123141,-3.4570569628122e-13,7.1011590938759e-13,5.7175579060601e-13,-2.2336167277775e-13,-0.00017002131516847,0.00017002131551873,-0.0001674119069442,0.00016741190616229,-0.0001684113988313,0.00016841139841579,-0.00016841139789619,0.00016841139956523,-0.00016991269084702,0.00016991269111819,-0.00016991269147422,0.00016991269120813,-0.00016991269050382,0.00016991269146284,-0.00016991269113102,0.00016991269155277,-0.00016741190510513,0.00016741190658031,-0.00016741190659115,0.00016741190651189,-0.00016841139898259,0.00016841139803468,-0.00016841139804747,0.00016841139918413,-0.00016741190545817,0.00016741190623069,-6.2867895779898e-13,-1.9010613494322e-13,-0.00016032748984912,0.00016032748727207,-9.4896052392393e-13,-1.4712253813613e-13,-0.0001553286012946,0.00015532859941012,-0.00015458369455734,0.00015458369199398,-0.00015458369466026,0.00015458369180454,-0.00015532860185226,0.00015532859927465,-0.00015532860206894,0.00015532859863255,-0.00015458369533583,0.00015458369120979,-0.0001545836954396,0.00015458369102119,-0.00016539163355421,0.00016539163234492,-0.00016539163328634,0.00016539163261383,-0.00016539163341378,0.00016539163249688,-0.00016539163314612,0.00016539163276599,-0.00016227794656585,0.00016227794668183,-0.00016227794696138,0.00016227794621847,-0.00016227794722681,0.00016227794595129,-0.00016227794683114,0.00016227794641449,-0.00015532860107902,0.00015532860005334,0.7648033849246,131490,2924,0.00067975112162346,0.0007081701696218,0.00066780767198509,27.177425539551,0.00013261940431641,0.00013261940431641,0.00013261940431641,1094360.4434825,0.0020578462983867
16391759,0.18901685600368,0.0031932570339907,0.0010597032951509,0.0010915848809501,0.0010419688578897,-0.00027343146813297,0.00027343146741637,-9.865358178903e-14,-5.3742109686027e-13,1.2373184507707e-13,-7.7783300244158e-13,-0.00023164712463988,0.00023164712239209,-0.00026784680668633,0.00026784680524342,-0.00026784680795507,0.00026784680621966,-0.00023164712264911,0.0002316471230633,-0.00023164712374545,0.00023164712330043,-0.00026784680581665,0.00026784680614539,-0.00026784680708283,0.00026784680711909,-0.00028756315890896,0.00028756315870618,-0.00028756315963038,0.00028756315913506,-0.00028756315919401,0.00028756315840346,-0.00028756315991624,0.00028756315883316,-0.00027316504135448,0.00027316504084093,-0.00027316504235573,0.0002731650409829,-0.0002731650410572,0.00027316504114664,-0.00027316504205697,0.00027316504128712,-0.00023164712353891,0.00023164712215036,-1.6564333676859e-13,7.3792669214021e-13,5.8362724411772e-13,-3.2219118669217e-14,-0.00029441963080918,0.00029441963136346,-0.00028981385681889,0.00028981385646255,-0.00029234452815048,0.00029234452803714,-0.00029234452730592,0.00029234452896889,-0.0002935056300896,0.00029350563054921,-0.00029350563131285,0.00029350563136116,-0.00029350562985866,0.00029350563090736,-0.0002935056310819,0.0002935056317193,-0.0002898138544076,0.00028981385586209,-0.00028981385658387,0.00028981385683113,-0.00029234452858984,0.00029234452806551,-0.00029234452774527,0.00029234452899725,-0.00028981385464264,0.00028981385549351,-5.6787393836155e-13,-1.2908244448757e-13,-0.00026312533470069,0.00026312533273472,-6.9898035113375e-13,-7.7701284826879e-14,-0.0002551576558611,0.0002551576549991,-0.00025060980054381,0.0002506097989842,-0.00025060980063548,0.0002506097987834,-0.00025515765614317,0.00025515765493079,-0.00025515765646243,0.00025515765439092,-0.00025060980114938,0.00025060979837174,-0.00025060980124302,0.0002506097981729,-0.00027662275201658,0.00027662275077003,-0.0002766227518096,0.00027662275097821,-0.00027662275189838,0.00027662275094437,-0.00027662275169132,0.00027662275115247,-0.00027311587325797,0.0002731158731948,-0.00027311587367779,0.00027311587275533,-0.00027311587388118,0.00027311587254635,-0.00027311587346312,0.00027311587298759,-0.00025515765554232,0.00025515765553946,0.78818871078567,131490,2924,0.0011386549929596,0.0012259917809681,0.001095757094718,24.446636491591,0.00011077309193273,0.00011077309193273,0.00011077309193273,1639252.7928071,0.0034664068123684
17391759,0.26811216345489,0.004479619891194,0.0014831350590291,0.0015605510199128,0.001435933812252,-0.00036715056384483,0.00036715056322441,-7.3884941395169e-14,-5.127975843858e-13,1.2186083605864e-13,-7.0221900357382e-13,-0.00028724501619663,0.00028724501445115,-0.00035941231303679,0.00035941231178779,-0.00035941231395047,0.00035941231240889,-0.00028724501492192,0.00028724501568138,-0.00028724501538286,0.00028724501528286,-0.00035941231224501,0.00035941231261061,-0.00035941231315814,0.00035941231323118,-0.00039262121385214,0.00039262121363619,-0.00039262121432426,0.00039262121381566,-0.00039262121411257,0.00039262121335949,-0.00039262121458481,0.00039262121353909,-0.00036583690794002,0.00036583690747553,-0.00036583690866127,0.00036583690733719,-0.00036583690766773,0.00036583690775518,-0.00036583690838862,0.00036583690761646,-0.00028724501573429,0.00028724501484832,-1.0423438924037e-13,7.1956767946603e-13,5.5137469999904e-13,4.4135063468812e-14,-0.0004058257681787,0.0004058257687762,-0.00039779088571496,0.0003977908855346,-0.0003993751496863,0.00039937514966093,-0.00039937514887172,0.00039937515046224,-0.00040501171227416,0.00040501171276593,-0.00040501171305601,0.00040501171320914,-0.00040501171203719,0.00040501171306521,-0.00040501171281902,0.00040501171350842,-0.00039779088436627,0.00039779088573244,-0.00039779088547517,0.00039779088584677,-0.00039937514992735,0.00039937514956444,-0.00039937514911276,0.00039937515036574,-0.00039779088460608,0.00039779088542027,-3.2618663467362e-13,1.1276877282228e-13,-0.0003466855838174,0.00034668558296514,-3.3085712278098e-13,1.7859816527218e-13,-0.00033468664021964,0.00033468664040492,-0.00032393871058626,0.00032393871058505,-0.00032393871069292,0.00032393871039917,-0.00033468664025544,0.00033468664030177,-0.00033468664071323,0.00033468663990026,-0.00032393871108525,0.00032393871008259,-0.00032393871119188,0.00032393870989667,-0.0003708972250474,0.00037089722415414,-0.00037089722487732,0.00037089722432439,-0.00037089722491043,0.00037089722430983,-0.00037089722474004,0.00037089722447976,-0.00036548675828738,0.00036548675852491,-0.00036548675872629,0.0003654867581042,-0.00036548675889287,0.0003654867579317,-0.00036548675845594,0.00036548675835437,-0.00033468663975798,0.00033468664080258,0.75883502083684,131490,2924,0.0015286471748408,0.0016894967464651,0.0014434907244089,22.112980114287,9.2103840914299e-05,9.2103840914299e-05,9.2103840914299e-05,2214817.1759867,0.0046725412037344
18391759,0.32500242630841,0.0053705252007759,0.0017756764229849,0.0018951654169782,0.0016996833608128,-0.00042577962543952,0.00042577962493413,-4.3216657701949e-14,-4.8219246052779e-13,1.5675249073077e-13,-6.6791937493334e-13,-0.00031534679396719,0.00031534679261553,-0.00041645802917494,0.00041645802803505,-0.000416458029502,0.00041645802806951,-0.00031534679317664,0.00031534679432707,-0.00031534679315688,0.00031534679344775,-0.00041645802838229,0.00041645802885668,-0.00041645802871091,0.00041645802889271,-0.00046117602598954,0.0004611760258097,-0.00046117602619937,0.00046117602572684,-0.00046117602625123,0.00046117602553304,-0.0004611760264603,0.00046117602544942,-0.00042231850771396,0.00042231850730103,-0.00042231850819834,0.00042231850692567,-0.00042231850744061,0.00042231850757999,-0.00042231850792644,0.00042231850720606,-0.00031534679398931,0.00031534679349726,-9.0008294426037e-14,7.3234170099315e-13,4.4902869424632e-13,1.7392709105852e-13,-0.0004788257623394,0.00047882576296391,-0.00046576006632814,0.00046576006640199,-0.00046684511314865,0.00046684511307474,-0.00046684511229943,0.00046684511383737,-0.000480267173849,0.00048026717428748,-0.00048026717424161,0.00048026717450051,-0.00048026717360002,0.00048026717457528,-0.00048026717399263,0.00048026717478831,-0.00046576006555309,0.0004657600667196,-0.00046576006607446,0.00046576006669996,-0.00046684511330971,0.00046684511305435,-0.0004668451124605,0.00046684511381696,-0.00046576006580678,0.00046576006642162,-9.3281901852941e-14,3.4575366999948e-13,-0.00039608085729787,0.00039608085766634,4.161892066613e-14,3.1426997279747e-13,-0.0003797917658658,0.00037979176675823,-0.0003656762629108,0.00036567626421807,-0.0003656762630433,0.000365676264058,-0.00037979176558928,0.00037979176679544,-0.00037979176613172,0.0003797917664785,-0.00036567626318095,0.00036567626394675,-0.00036567626331206,0.00036567626378531,-0.00042940799594681,0.00042940799559197,-0.00042940799585632,0.00042940799568247,-0.00042940799580141,0.00042940799573927,-0.00042940799571029,0.00042940799582914,-0.00042152700383334,0.00042152700438095,-0.00042152700429042,0.00042152700397827,-0.00042152700437848,0.00042152700388369,-0.00042152700392399,0.00042152700428896,-0.00037979176531683,0.00037979176706864,0.73908796553319,131490,2924,0.0017725514491976,0.0019930863026354,0.0016489954935663,17.503635504715,5.5229084037719e-05,5.5229084037719e-05,5.5229084037719e-05,2659410.0966052,0.0054293643952779
19391759,0.38361681954727,0.0063322286549797,0.0020915783732387,0.0022595156205377,0.0019811346612032,-0.00049891928744607,0.00049891928690766,-4.811239784633e-14,-4.8720851317318e-13,1.3777174705005e-13,-6.7114290880953e-13,-0.0003561282805602,0.00035612827906875,-0.00049133898201792,0.00049133898084651,-0.00049133898225059,0.0004913389807865,-0.00035612827971977,0.00035612828069829,-0.00035612827976539,0.00035612827988411,-0.00049133898124003,0.00049133898165197,-0.00049133898147473,0.00049133898159402,-0.0005441814215385,0.00054418142136185,-0.00054418142172573,0.00054418142125629,-0.00054418142179558,0.00054418142109042,-0.00054418142198216,0.00054418142098422,-0.00049516203641558,0.00049516203600107,-0.00049516203683666,0.00049516203556215,-0.00049516203614766,0.00049516203627517,-0.00049516203656948,0.00049516203583698,-0.00035612828051617,0.00035612827988458,-7.4036914693665e-14,7.3178999725908e-13,4.5439263332284e-13,1.8480017801083e-13,-0.00056834431933618,0.00056834431997642,-0.00055203343545965,0.00055203343556128,-0.00055123759483359,0.0005512375947903,-0.00055123759403367,0.00055123759556929,-0.00057148599285694,0.00057148599331583,-0.00057148599305771,0.00057148599333776,-0.00057148599258706,0.00057148599357193,-0.00057148599278782,0.00057148599359386,-0.00055203343487245,0.00055203343604347,-0.00055203343517855,0.00055203343582093,-0.00055123759502663,0.00055123759480514,-0.00055123759422671,0.00055123759558413,-0.00055203343515358,0.00055203343578384,-1.4945792129545e-13,2.897181410376e-13,-0.00045833972585455,0.00045833972580472,-7.8314095609607e-14,1.9002289254136e-13,-0.00044262803110974,0.00044262803146231,-0.0004220256398971,0.00042202564060089,-0.0004220256400441,0.00042202564045528,-0.00044262803084336,0.00044262803152277,-0.00044262803136866,0.00044262803118855,-0.00042202564016228,0.00042202564033622,-0.00042202564030722,0.00042202564018854,-0.00050051381284468,0.00050051381239967,-0.0005005138127551,0.00050051381248882,-0.00050051381269275,0.00050051381254053,-0.00050051381260252,0.00050051381262903,-0.00049368483292469,0.00049368483340101,-0.00049368483337634,0.00049368483299263,-0.00049368483346292,0.00049368483289956,-0.00049368483301391,0.00049368483331057,-0.00044262803057677,0.00044262803178888,0.77930010842589,131490,2924,0.0020767463070101,0.0023652422562453,0.0019079632036279,17.480136367056,5.5041090936445e-05,5.5041090936445e-05,5.5041090936445e-05,2874731.8210554,0.0063702160303939
20391759,0.44804149344926,0.0073948222901766,0.0024379657055142,0.0026712484460133,0.0022856081386491,-0.0005805386355074,0.00058053863495517,-5.1666826025695e-14,-4.9090248120734e-13,1.2632817017288e-13,-6.683075983675e-13,-0.00038968632050376,0.0003896863189406,-0.00057359210506333,0.00057359210389608,-0.00057359210537309,0.00057359210391311,-0.00038968631967647,0.00038968632055495,-0.00038968631972199,0.0003896863197404,-0.00057359210429961,0.00057359210468721,-0.00057359210461075,0.00057359210470562,-0.00063885030596176,0.00063885030578164,-0.00063885030618303,0.00063885030571002,-0.00063885030621448,0.00063885030551495,-0.00063885030643532,0.0006388503054429,-0.00057775767144925,0.00057775767103707,-0.00057775767184654,0.00057775767057403,-0.00057775767118617,0.00057775767130665,-0.00057775767158378,0.00057775767084392,-0.00038968632045874,0.00038968631975571,-6.3354123398548e-14,7.278103247177e-13,4.6869325527219e-13,1.7797501886769e-13,-0.00067389580210169,0.00067389580274893,-0.00065574311052934,0.00065574311062289,-0.00065230767459382,0.00065230767457951,-0.00065230767381354,0.00065230767534872,-0.00067618445910915,0.00067618445958705,-0.00067618445934893,0.00067618445963311,-0.00067618445884313,0.00067618445983732,-0.00067618445908291,0.00067618445988337,-0.00065574310976667,0.0006557431109608,-0.00065574311025781,0.00065574311088225,-0.00065230767479627,0.0006523076745892,-0.00065230767401599,0.00065230767535839,-0.00065574311003823,0.00065574311070145,-1.8613491288472e-13,2.5320556621435e-13,-0.00052647443795159,0.00052647443764658,-1.6826718721838e-13,1.2188468551388e-13,-0.0005095326978991,0.00050953269803101,-0.00047926551417702,0.00047926551449009,-0.00047926551432358,0.00047926551434398,-0.00050953269766938,0.00050953269808738,-0.00050953269817865,0.000509532697737,-0.0004792655144638,0.00047926551420519,-0.00047926551460811,0.00047926551405682,-0.00058075585553442,0.00058075585500309,-0.00058075585543732,0.00058075585509939,-0.00058075585538228,0.00058075585514386,-0.00058075585528455,0.00058075585523953,-0.00057574911265929,0.0005757491131101,-0.00057574911311159,0.00057574911270206,-0.0005757491132054,0.00057574911260177,-0.00057574911275574,0.00057574911301246,-0.00050953269738195,0.00050953269837352,0.78426978119002,131490,2924,0.0024161266074568,0.0028038643788418,0.0021913101231595,18.603769139019,6.4030153112153e-05,6.4030153112153e-05,6.4030153112153e-05,3038803.9400395,0.0074389164304627
21391759,0.4981649346051,0.0081918263538456,0.0026960825928461,0.0029880375207974,0.0025077062402022,-0.00063299992082793,0.00063299992039196,-2.2426697232735e-14,-4.617353722425e-13,1.7052643759321e-13,-6.4234384742462e-13,-0.00040267259499672,0.00040267259388739,-0.00062396081796362,0.00062396081688724,-0.00062396081772029,0.00062396081635114,-0.00040267259451679,0.0004026725958829,-0.00040267259419943,0.00040267259470535,-0.0006239608171816,0.00062396081769479,-0.00062396081694132,0.00062396081716176,-0.00070276309675375,0.00070276309660165,-0.00070276309676389,0.00070276309631882,-0.0007027630970132,0.00070276309632922,-0.00070276309702206,0.00070276309604513,-0.00062989396312301,0.00062989396275129,-0.00062989396340521,0.00062989396217298,-0.00062989396285306,0.00062989396302592,-0.00062989396313745,0.00062989396244979,-0.00040267259531805,0.00040267259506897,-6.6195860114853e-14,7.4204483103977e-13,3.4522939465544e-13,3.1297695347479e-13,-0.00074660687832498,0.00074660687898348,-0.00072527461008144,0.00072527461043279,-0.00072092198588906,0.00072092198578274,-0.00072092198504703,0.00072092198652337,-0.00074932277592009,0.00074932277631408,-0.0007493227759259,0.00074932277630386,-0.00074932277565513,0.00074932277657755,-0.00074932277566094,0.00074932277656733,-0.00072527460983584,0.00072527461079523,-0.00072527460981168,0.00072527461070542,-0.00072092198605566,0.00072092198593033,-0.00072092198521362,0.00072092198667093,-0.00072527461010564,0.00072527461052261,2.6295675444931e-14,4.6573009763285e-13,-0.00056725326494199,0.00056725326591879,2.4147833991424e-13,2.6821097821372e-13,-0.0005463571941298,0.00054635719509681,-0.00050970471187492,0.00050970471364355,-0.00050970471204167,0.00050970471351762,-0.00054635719355763,0.00054635719531351,-0.00054635719415777,0.00054635719505397,-0.00050970471190689,0.00050970471361438,-0.00050970471207105,0.00050970471348585,-0.0006322190998426,0.00063221909983515,-0.00063221909983415,0.00063221909984279,-0.0006322190996887,0.00063221909997423,-0.00063221909967948,0.00063221909998109,-0.00062711879343821,0.00062711879412387,-0.00062711879390877,0.00062711879373389,-0.00062711879391516,0.0006271187937205,-0.00062711879344767,0.00062711879411356,-0.00054635719352102,0.00054635719534773,0.75706677746308,131490,2924,0.0026342282184275,0.0031058901633349,0.0023608702694986,15.31122331871,3.7689786549684e-05,3.7689786549684e-05,3.7689786549684e-05,3249905.8245796,0.0081340022105878
22391759,0.5454660909795,0.0089446689632641,0.0029395981559802,0.0032902635641832,0.0027148072431008,-0.00068762608960802,0.0006876260891286,-3.4334980501679e-14,-4.7372357954041e-13,1.5140760989557e-13,-6.5065685817373e-13,-0.00042152909493465,0.00042152909362947,-0.00067755158097932,0.00067755157987996,-0.0006775515809043,0.00067755157951214,-0.00042152909428549,0.00042152909543516,-0.00042152909414622,0.00042152909443557,-0.00067755158020798,0.00067755158067715,-0.00067755158013506,0.00067755158031143,-0.00076808114087948,0.00076808114071832,-0.00076808114093988,0.00076808114048571,-0.00076808114113543,0.00076808114044937,-0.00076808114119508,0.000768081140216,-0.00068392534751052,0.00068392534712569,-0.00068392534781724,0.00068392534657168,-0.00068392534724472,0.00068392534739734,-0.0006839253475524,0.00068392534684429,-0.00042152909507576,0.00042152909463096,-5.9531887224063e-14,7.3795651475856e-13,3.4590580046229e-13,3.1532236711813e-13,-0.00082008132518795,0.0008200813258492,-0.00079503905448758,0.00079503905484797,-0.00078948544621077,0.0007894854461178,-0.00078948544540154,0.00078948544687003,-0.00082434700431865,0.00082434700472053,-0.0008243470042596,0.00082434700464246,-0.00082434700404092,0.00082434700496367,-0.0008243470039819,0.0008243470048856,-0.00079503905424831,0.00079503905520475,-0.00079503905420004,0.00079503905509533,-0.00078948544632678,0.00078948544621477,-0.00078948544551754,0.000789485446967,-0.00079503905453588,0.00079503905495738,-8.424042975833e-14,3.5529584448525e-13,-0.00061016018488813,0.00061016018532458,9.6405207460617e-14,1.237601181104e-13,-0.00058677155102193,0.00058677155142598,-0.00054393604478766,0.00054393604581631,-0.00054393604494792,0.00054393604568385,-0.00058677155048072,0.00058677155167991,-0.00058677155104708,0.00058677155138655,-0.00054393604481885,0.00054393604578841,-0.00054393604497662,0.00054393604565345,-0.00068485992180126,0.00068485992161645,-0.00068485992179187,0.00068485992162479,-0.00068485992164402,0.00068485992175223,-0.00068485992163393,0.0006848599217599,-0.00068029279551159,0.0006802927960337,-0.00068029279597788,0.00068029279563923,-0.00068029279598433,0.00068029279562589,-0.00068029279552099,0.00068029279602332,-0.00058677155044718,0.00058677155171102,0.76056732633466,131490,2924,0.0028612826937908,0.0034109849834084,0.0025392498336384,14.810802254079,3.368641803263e-05,3.368641803263e-05,3.368641803263e-05,3439721.8730974,0.0088505910779372
23391759,0.59370091572823,0.0097006807080469,0.00318422695418,0.0035958309492764,0.0029206228045906,-0.00074438536763454,0.00074438536712937,-4.0395015959991e-14,-4.7989561893002e-13,1.3652068232804e-13,-6.5064700553355e-13,-0.00043669813143729,0.00043669813001425,-0.00073208302803111,0.00073208302692417,-0.00073208302811711,0.00073208302671731,-0.00043669813067956,0.00043669813168246,-0.0004366981306622,0.00043669813080457,-0.00073208302727433,0.00073208302770664,-0.00073208302736172,0.00073208302750117,-0.00083711339028719,0.00083711339011984,-0.00083711339040981,0.00083711338994936,-0.00083711339053844,0.00083711338985582,-0.00083711339066058,0.00083711338968485,-0.00074024062018079,0.00074024061979353,-0.0007402406205128,0.00074024061926457,-0.00074024061992013,0.00074024062006049,-0.00074024062025251,0.00074024061953189,-0.00043669813145523,0.00043669813089277,-5.3158905443693e-14,7.2949559676321e-13,3.7465096643485e-13,2.8499470537209e-13,-0.0008984426409083,0.00089844264156773,-0.00086958120055448,0.00086958120086079,-0.00086312341365476,0.00086312341359443,-0.00086312341287433,0.00086312341434615,-0.00090364928339239,0.00090364928381766,-0.00090364928339862,0.00090364928376417,-0.00090364928311646,0.00090364928405269,-0.00090364928312269,0.0009036492839992,-0.00086958120015242,0.00086958120115985,-0.00086958120027022,0.00086958120110134,-0.00086312341377292,0.00086312341365368,-0.00086312341299247,0.00086312341440537,-0.00086958120043671,0.00086958120091931,-1.5262076837669e-13,2.8705034294142e-13,-0.00065412423245622,0.00065412423250889,-3.1528577264783e-14,5.6242371907674e-14,-0.0006265757040567,0.00062657570416502,-0.00057720856613912,0.00057720856667758,-0.00057720856629346,0.00057720856653917,-0.00062657570360424,0.00062657570439287,-0.00062657570413968,0.00062657570406846,-0.00057720856622886,0.00057720856659136,-0.00057720856638089,0.00057720856645062,-0.00074021184140813,0.00074021184107393,-0.00074021184137832,0.00074021184110253,-0.00074021184125113,0.00074021184121005,-0.00074021184122069,0.00074021184123802,-0.00073557087682755,0.00073557087727482,-0.00073557087729106,0.00073557087687732,-0.00073557087731752,0.00073557087684401,-0.00073557087685691,0.0007355708772444,-0.00062657570351322,0.0006265757044814,0.75126032612159,131490,2924,0.0030971686609476,0.0037362604620489,0.0027220036049745,15.63534630301,4.0282770424082e-05,4.0282770424082e-05,4.0282770424082e-05,3561790.5782321,0.0096014073182418
24391759,0.646397214823,0.010535923094215,0.0034539602847754,0.0039358095100565,0.0031461532993832,-0.00080929775409545,0.0008092977535505,-4.9454665664499e-14,-4.8904700112628e-13,1.1600922070382e-13,-6.5325504350683e-13,-0.00045565314174377,0.00045565314014601,-0.00079543864547963,0.00079543864435235,-0.00079543864584891,0.00079543864442875,-0.00045565314082651,0.00045565314162016,-0.00045565314098461,0.00045565314091755,-0.00079543864474033,0.00079543864511723,-0.0007954386451101,0.0007954386451941,-0.00091556655253475,0.00091556655235781,-0.00091556655277383,0.00091556655230371,-0.00091556655278028,0.0009155665520997,-0.00091556655301927,0.00091556655204551,-0.00080508911727763,0.00080508911688446,-0.00080508911765718,0.00080508911640282,-0.00080508911702316,0.00080508911714584,-0.00080508911740231,0.00080508911666377,-0.00045565314158465,0.00045565314084766,-4.6796570396897e-14,7.1820573577836e-13,4.302319449447e-13,2.2505663938003e-13,-0.00098786109645064,0.00098786109710547,-0.00095498020537963,0.0009549802055749,-0.00094718550404789,0.00094718550403896,-0.0009471855033041,0.0009471855047925,-0.00099424633579927,0.00099424633626502,-0.00099424633598438,0.00099424633631191,-0.00099424633553143,0.00099424633649637,-0.00099424633571654,0.00099424633654325,-0.00095498020466475,0.0009549802057746,-0.00095498020510747,0.0009549802058155,-0.00094718550418942,0.00094718550404402,-0.00094718550344562,0.00094718550479754,-0.00095498020493693,0.000954980205534,-2.4621181564241e-13,1.9357858814525e-13,-0.00070417938175919,0.00070417938123717,-2.2563372285347e-13,-2.0271536049371e-14,-0.00067307831953328,0.00067307831927444,-0.0006160157628519,0.00061601576268665,-0.00061601576299619,0.00061601576253818,-0.00067307831923909,0.00067307831943511,-0.00067307831972944,0.00067307831906558,-0.00061601576305589,0.00061601576248633,-0.00061601576319808,0.00061601576233575,-0.00080277598447077,0.00080277598389614,-0.00080277598440141,0.00080277598396411,-0.00080277598431623,0.00080277598403479,-0.00080277598424632,0.00080277598410223,-0.00079901071657107,0.00079901071693009,-0.00079901071702923,0.00079901071652701,-0.00079901071709471,0.00079901071645483,-0.00079901071663931,0.00079901071686066,-0.00067307831903537,0.00067307831963645,0.76117802446127,131490,2924,0.0033668851228818,0.0041072912263192,0.0029300460255212,17.859281137986,5.8074249103885e-05,5.8074249103885e-05,5.8074249103885e-05,3665899.3467082,0.010458751749592
25391759,0.70095710730007,0.011422320664383,0.0037392016270664,0.0042992476914684,0.0033838713458486,-0.00087635027045964,0.00087635026991599,-4.7712086546154e-14,-4.8738140495028e-13,1.1220677804231e-13,-6.4777403447731e-13,-0.00046852437764926,0.00046852437602919,-0.00086056671376238,0.00086056671264229,-0.00086056671424939,0.00086056671283639,-0.00046852437667709,0.00046852437743032,-0.00046852437689857,0.00046852437679095,-0.00086056671303188,0.00086056671339753,-0.00086056671351927,0.000860566713592,-0.00099781421446063,0.00099781421428553,-0.00099781421475314,0.00099781421428479,-0.00099781421470341,0.0009978142140306,-0.00099781421499583,0.00099781421402977,-0.0008737368364377,0.00087373683605287,-0.00087373683683838,0.00087373683559214,-0.00087373683618615,0.00087373683631106,-0.00087373683658652,0.00087373683585,-0.00046852437742677,0.00046852437666762,-4.4279176713311e-14,7.1139332624573e-13,4.5845581801887e-13,1.9296642853748e-13,-0.0010843517285822,0.0010843517292329,-0.0010492663974939,0.0010492663976295,-0.0010396828573738,0.00103968285739,-0.0010396828566405,0.0010396828581355,-0.0010898283353521,0.0010898283358363,-0.0010898283356812,0.0010898283359879,-0.0010898283350959,0.0010898283360734,-0.001089828335425,0.0010898283362251,-0.0010492663965877,0.0010492663977496,-0.0010492663972386,0.0010492663978805,-0.0010396828575358,0.0010396828573754,-0.0010396828568025,0.001039682858121,-0.0010492663968431,0.0010492663974986,-2.5400784804423e-13,1.858920472285e-13,-0.00075438450649409,0.00075438450587192,-2.7700091556952e-13,-1.1223726975786e-14,-0.00071926135668726,0.00071926135641538,-0.00065270574995397,0.00065270574966131,-0.00065270575009521,0.00065270574950978,-0.00071926135647346,0.00071926135653773,-0.00071926135694317,0.00071926135614754,-0.00065270575021717,0.00065270574940186,-0.00065270575035645,0.00065270574924835,-0.00086743412814085,0.00086743412751795,-0.00086743412805142,0.0008674341276059,-0.00086743412798923,0.0008674341276596,-0.00086743412789928,0.00086743412774705,-0.00086571746491717,0.00086571746530444,-0.00086571746537527,0.00086571746490109,-0.0008657174654609,0.00086571746480879,-0.00086571746500553,0.00086571746521488,-0.00071926135621034,0.00071926135679839,0.78098807700562,131490,2924,0.0036454604715786,0.0045074977169841,0.0031386956695152,19.841053074115,7.3928424592921e-05,7.3928424592921e-05,7.3928424592921e-05,3693940.8177073,0.011355911763212
26391759,0.75094875394684,0.012253394011169,0.0040052478135741,0.0046434958012829,0.0036046503963115,-0.00093529841884168,0.00093529841834973,-3.354651929451e-14,-4.732931000442e-13,1.3125460790888e-13,-6.3360670257369e-13,-0.00047180301293522,0.00047180301150296,-0.00091644655813386,0.00091644655705598,-0.00091644655843482,0.00091644655706401,-0.00047180301203884,0.00047180301298894,-0.00047180301218032,0.00047180301226945,-0.00091644655739814,0.00091644655781509,-0.00091644655770027,0.0009164465578243,-0.0010720099885794,0.0010720099884197,-0.0010720099888039,0.0010720099883509,-0.0010720099888243,0.0010720099881634,-0.0010720099890483,0.0010720099880941,-0.00093547602141589,0.00093547602105293,-0.0009354760217945,0.00093547602056993,-0.00093547602116218,0.00093547602131221,-0.00093547602154144,0.00093547602082982,-0.00047180301279438,0.00047180301222317,-4.6668809594019e-14,7.1341014698619e-13,4.2510266046435e-13,2.260953576479e-13,-0.0011744011928454,0.0011744011934958,-0.0011387930420697,0.0011387930422682,-0.0011276243731985,0.0011276243731875,-0.0011276243724423,0.0011276243739186,-0.0011771273947999,0.0011771273952583,-0.0011771273950984,0.0011771273954267,-0.0011771273945496,0.0011771273955048,-0.0011771273948481,0.0011771273956731,-0.0011387930412994,0.001138793042398,-0.0011387930418219,0.0011387930425296,-0.0011276243733598,0.0011276243732173,-0.0011276243726036,0.0011276243739484,-0.0011387930415473,0.0011387930421365,-1.6128504895541e-13,2.7872192825112e-13,-0.00079620223044598,0.00079620223036362,-1.1871149476885e-13,7.8128885275008e-14,-0.00075578043745147,0.00075578043755958,-0.0006798462899956,0.00067984629035674,-0.00067984629014436,0.00067984629021273,-0.00075578043714907,0.00075578043772175,-0.00075578043764339,0.00075578043735616,-0.00067984629019259,0.00067984629016355,-0.00067984629033939,0.00067984629001757,-0.00092425496686166,0.00092425496645907,-0.00092425496679571,0.00092425496652358,-0.00092425496671086,0.00092425496660162,-0.00092425496664436,0.00092425496666559,-0.00092490014429368,0.0009249001448087,-0.00092490014475821,0.00092490014441155,-0.00092490014482108,0.00092490014434187,-0.00092490014435939,0.00092490014474188,-0.00075578043694998,0.00075578043791806,0.79882507527461,131490,2924,0.0038903556964665,0.0048808259970032,0.0033124909115589,20.41302270796,7.8504181663681e-05,7.8504181663681e-05,7.8504181663681e-05,3677406.1160561,0.012157297194082
27391759,0.79876456725154,0.013017994605821,0.0042504700510311,0.0049618678430831,0.0038056567117066,-0.0009909035531012,0.00099090355258364,-3.9264697549266e-14,-4.790371892721e-13,1.1888016241029e-13,-6.3621353470147e-13,-0.00047148424416477,0.00047148424261134,-0.0009665162242362,0.00096651622314367,-0.00096651622474194,0.00096651622335652,-0.00047148424318362,0.00047148424399408,-0.00047148424341795,0.00047148424336743,-0.00096651622351,0.00096651622389323,-0.00096651622401627,0.0009665162241066,-0.0011436626699737,0.0011436626698098,-0.0011436626702763,0.0011436626698191,-0.0011436626702153,0.0011436626695566,-0.0011436626705178,0.0011436626695658,-0.00099274886267604,0.00099274886230895,-0.00099274886308374,0.00099274886185492,-0.00099274886242581,0.00099274886256534,-0.00099274886283338,0.00099274886211116,-0.00047148424392982,0.00047148424323744,-4.4416701923775e-14,7.0605190118731e-13,4.3910882082106e-13,2.0724963925402e-13,-0.0012612115178338,0.0012612115184792,-0.0012233499362024,0.0012233499363677,-0.0012120772108177,0.0012120772108224,-0.0012120772100841,0.0012120772115572,-0.0012617967388188,0.0012617967392876,-0.0012617967392017,0.0012617967395162,-0.00126179673857,0.001261796739529,-0.0012617967389529,0.0012617967397576,-0.0012233499353284,0.0012233499364506,-0.0012233499359565,0.0012233499366244,-0.0012120772109731,0.0012120772108238,-0.0012120772102396,0.0012120772115587,-0.0012233499355743,0.0012233499361939,-2.3183746518945e-13,2.082276626849e-13,-0.00083402342299404,0.00083402342250523,-2.3331180722709e-13,-1.7455753503418e-15,-0.00078455335563175,0.00078455335541785,-0.00070147992997199,0.00070147992979348,-0.0007014799301142,0.00070147992964295,-0.00078455335539003,0.00078455335557769,-0.00078455335585555,0.0007845533551834,-0.00070147993020184,0.00070147992956722,-0.00070147993034228,0.00070147992941491,-0.00097810949964386,0.00097810949908178,-0.00097810949956592,0.00097810949915823,-0.00097810949949372,0.00097810949922503,-0.00097810949941528,0.00097810949930099,-0.00097897500077092,0.00097897500119964,-0.00097897500123219,0.00097897500079911,-0.00097897500130654,0.00097897500071813,-0.00097897500084797,0.00097897500112136,-0.00078455335515958,0.00078455335580554,0.76755918596071,131490,2924,0.0041213471617423,0.0052405753788124,0.003469679145838,22.217500849808,9.2940006798461e-05,9.2940006798461e-05,9.2940006798461e-05,3636941.9688125,0.012914676795119
28391759,0.84125051194118,0.013729480011873,0.0044782389819995,0.0052577359119135,0.0039935051179597,-0.0010416393950239,0.0010416393945278,-3.2702750953406e-14,-4.7249856549316e-13,1.2515455896707e-13,-6.2750377136699e-13,-0.00047615637814218,0.00047615637665999,-0.001014568140115,0.0010145681390456,-0.0010145681405713,0.0010145681392091,-0.00047615637718504,0.00047615637806175,-0.0004761563773978,0.00047615637741348,-0.001014568139391,0.0010145681397923,-0.0010145681398481,0.0010145681399565,-0.0012078671281155,0.0012078671279592,-0.0012078671284017,0.001207867127952,-0.0012078671283566,0.001207867127707,-0.0012078671286425,0.0012078671276994,-0.0010456592328041,0.0010456592324493,-0.0010456592332111,0.0010456592319945,-0.0010456592325544,0.0010456592327047,-0.0010456592329616,0.00104565923225,-0.00047615637792937,0.00047615637730825,-4.4374291454679e-14,7.034516276827e-13,4.2842420605223e-13,2.1553612140179e-13,-0.0013393407936435,0.0013393407942864,-0.0012996053835574,0.0012996053837397,-0.0012879079597914,0.0012879079597898,-0.0012879079590543,0.0012879079605157,-0.0013386938543743,0.0013386938548343,-0.0013386938547625,0.0013386938550821,-0.0013386938541291,0.0013386938550779,-0.0013386938545173,0.0013386938553258,-0.001299605382729,0.0012996053838294,-0.0012996053833158,0.0012996053839987,-0.0012879079599503,0.0012879079598076,-0.0012879079592132,0.0012879079605336,-0.0012996053829707,0.0012996053835704,-2.0007337306066e-13,2.4004652887567e-13,-0.00086758149228627,0.00086758149197845,-1.8085607055942e-13,3.0852912244121e-14,-0.00081366618307192,0.00081366618299238,-0.00072310005629259,0.0007231000563396,-0.00072310005643716,0.00072310005619146,-0.00081366618280437,0.00081366618316272,-0.00081366618327771,0.00081366618277631,-0.00072310005650342,0.0007231000561323,-0.00072310005664626,0.00072310005598243,-0.001024816014718,0.0010248160142324,-0.0010248160146469,0.0010248160143021,-0.0010248160145682,0.0010248160143761,-0.0010248160144966,0.0010248160144453,-0.0010284915889102,0.0010284915893872,-0.0010284915893735,0.0010284915889886,-0.0010284915894413,0.0010284915889141,-0.0010284915889808,0.0010284915893154,-0.0008136661825921,0.00081366618337235,0.80347154055066,131490,2924,0.0043320770062195,0.0055642098925227,0.0036091383840043,23.416239112945,0.00010252991290356,0.00010252991290356,0.00010252991290356,3615311.3174419,0.013597485702439
29391759,0.87798270855825,0.014287563621984,0.0046584358301453,0.0054891335871563,0.004139994204682,-0.0010794987236831,0.0010794987231879,-3.1407466994031e-14,-4.7124891249273e-13,1.2309362192729e-13,-6.2329310588229e-13,-0.00046001285996624,0.00046001285847689,-0.0010442924513805,0.0010442924503181,-0.0010442924518855,0.0010442924505302,-0.00046001285900047,0.00046001285985793,-0.00046001285922731,0.00046001285922367,-0.0010442924506625,0.0010442924510584,-0.0010442924511681,0.0010442924512712,-0.0012613236413011,0.0012613236411467,-0.0012613236416072,0.0012613236411594,-0.0012613236415402,0.0012613236408966,-0.0012613236418461,0.0012613236409091,-0.0010849296965489,0.0010849296961994,-0.0010849296969643,0.0010849296957527,-0.0010849296963013,0.0010849296964527,-0.0010849296967167,0.0010849296960061,-0.0004600128597391,0.00046001285911076,-4.3451319650834e-14,6.9806802744211e-13,4.2490963694932e-13,2.1474723373706e-13,-0.0014063900488704,0.001406390049509,-0.0013644950257122,0.001364495025895,-0.0013546756949295,0.001354675694929,-0.0013546756942005,0.0013546756956505,-0.0014022847127693,0.0014022847132263,-0.0014022847131878,0.0014022847135059,-0.0014022847125267,0.0014022847134684,-0.0014022847129452,0.001402284713748,-0.001364495024873,0.0013644950259642,-0.0013644950254738,0.001364495026153,-0.0013546756950883,0.0013546756949483,-0.0013546756943593,0.0013546756956699,-0.0013644950251113,0.0013644950257062,-2.1136954427036e-13,2.2882614187138e-13,-0.0008889251478108,0.00088892514743861,-1.9598379499871e-13,1.3322780498201e-14,-0.00082178302477953,0.00082178302464274,-0.00072686799457397,0.00072686799452394,-0.00072686799471744,0.00072686799437477,-0.00082178302451584,0.00082178302482246,-0.00082178302498286,0.00082178302442972,-0.00072686799478217,0.00072686799431908,-0.00072686799492403,0.00072686799416824,-0.0010624561050839,0.0010624561045759,-0.0010624561050135,0.0010624561046448,-0.0010624561049344,0.0010624561047199,-0.0010624561048636,0.0010624561047883,-0.0010640457529773,0.0010640457534418,-0.0010640457534405,0.0010640457530429,-0.0010640457535076,0.0010640457529693,-0.0010640457530471,0.0010640457533709,-0.00082178302430631,0.00082178302502905,0.72781458054936,131490,2924,0.004489397237369,0.0058418657787577,0.0036979091027111,24.737800851183,0.00011310240680946,0.00011310240680946,0.00011310240680946,3474314.2760978,0.014128599273259
30391759,0.90868190001647,0.014745285459081,0.0048067748899467,0.0056777323615633,0.0042607782075715,-0.0011119981672027,0.0011119981667114,-2.9529891999717e-14,-4.6942477704235e-13,1.2336693710711e-13,-6.2027881561384e-13,-0.00046648179402529,0.00046648179253837,-0.0010736986238956,0.0010736986228404,-0.0010736986244229,0.0010736986230749,-0.00046648179306136,0.00046648179391592,-0.00046648179328905,0.00046648179328245,-0.0010736986231801,0.0010736986235779,-0.0010736986237081,0.001073698623813,-0.0013040816394247,0.0013040816392735,-0.0013040816397424,0.0013040816392977,-0.0013040816396632,0.0013040816390243,-0.0013040816399806,0.0013040816390483,-0.0011156006361341,0.0011156006357895,-0.0011156006365546,0.001115600635348,-0.0011156006358873,0.0011156006360419,-0.0011156006363079,0.0011156006356004,-0.00046648179379728,0.00046648179317159,-4.2994568898374e-14,6.9574233378457e-13,4.23588177319e-13,2.143062472089e-13,-0.0014553997385616,0.0014553997391984,-0.0014055136489188,0.0014055136491017,-0.0013988201672682,0.0013988201672683,-0.0013988201665423,0.0013988201679874,-0.0014554544467869,0.0014554544472426,-0.0014554544472295,0.0014554544475469,-0.0014554544465461,0.0014554544474848,-0.0014554544469887,0.001455454447789,-0.0014055136480763,0.001405513649164,-0.0014055136486822,0.0014055136493595,-0.0013988201674306,0.0013988201672919,-0.0013988201667048,0.0013988201680111,-0.001405513648313,0.0014055136489062,-2.1273428718174e-13,2.2754008557128e-13,-0.00090757039811488,0.00090757039772446,-1.9885678351765e-13,9.6104012617795e-15,-0.00083689592926396,0.00083689592912018,-0.0007392195385167,0.00073921953844222,-0.00073921953865954,0.00073921953829235,-0.0008368959289981,0.00083689592929949,-0.00083689592946647,0.00083689592890809,-0.00073921953872403,0.00073921953823818,-0.00073921953886528,0.00073921953808672,-0.0010900308725741,0.0010900308720625,-0.001090030872504,0.0010900308721312,-0.0010900308724248,0.0010900308722068,-0.0010900308723542,0.001090030872275,-0.0010918175264043,0.001091817526871,-0.0010918175268674,0.0010918175264718,-0.0010918175269342,0.0010918175263985,-0.0010918175264737,0.0010918175268003,-0.00083689592878953,0.00083689592950555,0.71334928887558,131490,2924,0.0046243531859018,0.0060447079665085,0.0037753993408139,26.077789906617,0.00012382231925293,0.00012382231925293,0.00012382231925293,3475845.3422943,0.014549886228821
31391759,0.9345312007884,0.015155421717327,0.0049391451111308,0.0058457773631331,0.0043704992430628,-0.001141540360957,0.0011415403604373,-3.5624794039937e-14,-4.7506525178854e-13,1.0911901943004e-13,-6.2191291275212e-13,-0.0004610287208364,0.00046102871923368,-0.0010994017506929,0.0010994017496225,-0.0010994017514418,0.0010994017500789,-0.0004610287198535,0.00046102872056715,-0.00046102872011148,0.00046102871996486,-0.0010994017499898,0.0010994017503478,-0.0010994017507388,0.0010994017508042,-0.0013444374693558,0.0013444374691975,-0.001344437469763,0.0013444374693115,-0.00134443746959,0.0013444374689525,-0.0013444374699973,0.0013444374690665,-0.0011464563739545,0.0011464563736049,-0.001146456374392,0.0011464563731812,-0.0011464563737121,0.0011464563738535,-0.001146456374149,0.0011464563734291,-0.00046102872057708,0.00046102871983467,-3.9769961525563e-14,6.8661531849098e-13,4.5955996075865e-13,1.7265801953367e-13,-0.0015054937110617,0.0015054937116928,-0.0014530543550211,0.001453054355127,-0.0014483345265674,0.0014483345265999,-0.0014483345258662,0.0014483345273194,-0.0015043721110985,0.0015043721115795,-0.0015043721116722,0.0015043721119612,-0.0015043721108616,0.0015043721118173,-0.0015043721114352,0.001504372112199,-0.0014530543540147,0.0014530543551682,-0.0014530543547904,0.0014530543553823,-0.0014483345267512,0.0014483345265928,-0.00144833452605,0.0014483345273123,-0.0014530543542454,0.0014530543549128,-2.7797523595981e-13,1.6186895942617e-13,-0.0009235735036719,0.00092357350283112,-3.3812144819538e-13,-5.0000342009167e-14,-0.00084695337474787,0.00084695337434977,-0.00074531312759819,0.00074531312697341,-0.0007453131277338,0.00074531312681666,-0.00084695337458024,0.00084695337447488,-0.00084695337502639,0.00084695337406223,-0.0007453131278826,0.00074531312669213,-0.00074531312801674,0.0007453131265339,-0.0011168049144223,0.0011168049137139,-0.0011168049143253,0.0011168049138094,-0.0011168049142741,0.001116804913859,-0.0011168049141767,0.0011168049139541,-0.0011193819841836,0.001119381984582,-0.0011193819846428,0.0011193819841798,-0.001119381984736,0.0011193819840802,-0.0011193819842793,0.0011193819844849,-0.00084695337429604,0.00084695337475675,0.7594730271717,131490,2924,0.0047470808239539,0.0062520212267447,0.0038419537061312,28.363560916751,0.00014210848733401,0.00014210848733401,0.00014210848733401,3353256.6726393,0.014952398539746
32391759,0.95403126787712,0.015477663021056,0.0050429527616626,0.0059772052519058,0.0044575050074874,-0.0011611202153004,0.0011611202148298,-2.2953210559879e-14,-4.6242779961873e-13,1.2759042572949e-13,-6.0876410855671e-13,-0.00043606050806419,0.00043606050664853,-0.0011124320963781,0.0011124320953504,-0.0011124320968642,0.001112432095544,-0.00043606050712509,0.00043606050803581,-0.00043606050733481,0.00043606050738524,-0.0011124320956695,0.0011124320960801,-0.0011124320961565,0.0011124320962746,-0.0013753505256853,0.0013753505255414,-0.0013753505259875,0.0013753505255504,-0.0013753505259216,0.0013753505252947,-0.0013753505262234,0.0013753505253033,-0.0011698566330724,0.0011698566327419,-0.0011698566334955,0.0011698566323036,-0.0011698566328276,0.0011698566329916,-0.0011698566332512,0.0011698566325538,-0.00043606050785477,0.00043606050729945,-4.2045480245322e-14,6.891837106166e-13,4.3120612106664e-13,2.0124914609438e-13,-0.0015488741779609,0.0015488741785922,-0.0014995278204343,0.0014995278205939,-0.0014958249970681,0.0014958249970769,-0.0014958249963442,0.001495824997783,-0.0015405450173149,0.0015405450177736,-0.0015405450177706,0.0015405450180789,-0.0015405450170785,0.0015405450180156,-0.0015405450175343,0.0015405450183208,-0.0014995278195961,0.0014995278206962,-0.001499527820203,0.0014995278208519,-0.0014958249972438,0.0014958249971004,-0.0014958249965199,0.0014958249978065,-0.0014995278198274,0.0014995278204383,-1.7905847720412e-13,2.6083686617161e-13,-0.00093089192182943,0.00093089192161562,-1.6460370952113e-13,6.343447756143e-14,-0.00084227149058073,0.00084227149060746,-0.00073692668537333,0.00073692668555674,-0.0007369266855187,0.00073692668540976,-0.00084227149033152,0.00084227149076059,-0.00084227149080457,0.00084227149037489,-0.00073692668560028,0.00073692668533284,-0.00073692668574411,0.00073692668518431,-0.0011372899726994,0.0011372899722619,-0.001137289972623,0.0011372899723368,-0.0011372899725504,0.0011372899724062,-0.0011372899724736,0.0011372899724807,-0.0011391984251687,0.0011391984257018,-0.0011391984256329,0.0011391984253046,-0.0011391984257065,0.0011391984252247,-0.0011391984252448,0.0011391984256244,-0.00084227149010207,0.00084227149098752,0.78951281141471,131490,2924,0.0048285408172934,0.0064315515587851,0.0038725022420627,29.295080093978,0.00014956064075183,0.00014956064075183,0.00014956064075183,3134667.5069521,0.015248448519312
33391759,0.96781949284487,0.015707747129591,0.0051173396829617,0.0060701736593799,0.0045202337872492,-0.0011733964192849,0.0011733964188499,-1.4233035778762e-14,-4.5364320033515e-13,1.4370563930313e-13,-6.0181173271173e-13,-0.00041814846365933,0.00041814846238979,-0.0011205439773845,0.0011205439763833,-0.0011205439776493,0.0011205439763558,-0.00041814846272894,0.0004181484638031,-0.00041814846292143,0.0004181484631354,-0.0011205439766667,0.0011205439771218,-0.001120543976933,0.0011205439770956,-0.0013956665831313,0.0013956665829973,-0.0013956665833482,0.001395666582921,-0.0013956665833708,0.0013956665827477,-0.001395666583587,0.0013956665826707,-0.0011845548174298,0.0011845548171093,-0.0011845548178481,0.0011845548166664,-0.0011845548171816,0.0011845548173617,-0.001184554817601,0.0011845548169199,-0.00041814846346808,0.00041814846305838,-4.5354085052069e-14,6.9468083680081e-13,3.7651258603424e-13,2.5801385314801e-13,-0.0015778380621741,0.0015778380628075,-0.0015302643969854,0.0015302643972529,-0.0015269678526085,0.0015269678525735,-0.0015269678518612,0.0015269678532735,-0.0015649521533762,0.0015649521537959,-0.0015649521537113,0.0015649521540567,-0.0015649521531385,0.0015649521540426,-0.0015649521534735,0.0015649521543033,-0.0015302643963669,0.0015302643973633,-0.0015302643967509,0.0015302643975134,-0.0015269678527615,0.0015269678526491,-0.0015269678520144,0.001526967853349,-0.0015302643966015,0.0015302643971028,-1.1622810478388e-13,3.2362403997831e-13,-0.00093330367100632,0.00093330367126571,-2.9875006456707e-15,1.1152870133061e-13,-0.00083524246124076,0.00083524246152577,-0.00072848570136628,0.00072848570213337,-0.0007284857015189,0.00072848570199372,-0.00083524246085769,0.00083524246176246,-0.00083524246135586,0.00083524246140215,-0.00072848570148287,0.00072848570201963,-0.00072848570163392,0.00072848570187845,-0.0011492374606766,0.0011492374604417,-0.0011492374606384,0.0011492374604785,-0.001149237460527,0.0011492374605853,-0.0011492374604883,0.0011492374606216,-0.0011509263566479,0.0011509263572277,-0.0011509263571156,0.001150926356834,-0.0011509263571515,0.0011509263567917,-0.0011509263566864,0.0011509263571881,-0.00083524246073691,0.00083524246188046,0.79431191608079,131490,2924,0.0048796510972989,0.0065513784117984,0.0038826383054157,29.275786135795,0.00014940628908636,0.00014940628908636,0.00014940628908636,2982987.889185,0.015432378219637
34391759,0.97839563115237,0.01587740487969,0.0051725116787959,0.0061381239115973,0.0045667692892967,-0.0011865928076981,0.0011865928071842,-3.352350529169e-14,-4.729209790593e-13,1.1084911363567e-13,-6.1988465118471e-13,-0.00041228815322539,0.00041228815162605,-0.0011311440749896,0.0011311440739243,-0.0011311440757768,0.0011311440744192,-0.00041228815228392,0.00041228815300089,-0.00041228815249979,0.0004122881523567,-0.0011311440742866,0.001131144074649,-0.0011311440750739,0.0011311440751438,-0.0014145820711669,0.0014145820710136,-0.0014145820715848,0.0014145820711383,-0.0014145820714012,0.0014145820707686,-0.0014145820718191,0.0014145820708934,-0.0011987511386089,0.0011987511382642,-0.0011987511390392,0.0011987511378333,-0.0011987511383664,0.0011987511385127,-0.001198751138796,0.0011987511380811,-0.00041228815300814,0.00041228815226889,-4.0910691382931e-14,6.8501024987767e-13,4.2769790471083e-13,2.0182518732024e-13,-0.0016022075609249,0.0016022075615533,-0.0015544093727891,0.0015544093729525,-0.0015518341684272,0.0015518341684372,-0.001551834167727,0.0015518341691566,-0.0015874784259184,0.0015874784263767,-0.0015874784264968,0.0015874784268034,-0.0015874784256822,0.0015874784266151,-0.0015874784262607,0.0015874784270418,-0.0015544093718167,0.0015544093729073,-0.0015544093725607,0.0015544093732095,-0.001551834168585,0.0015518341684447,-0.0015518341678848,0.001551834169164,-0.0015544093720452,0.0015544093726502,-2.8257356011608e-13,1.5728184588287e-13,-0.00093870582812903,0.00093870582726607,-3.2505707616328e-13,-9.7770173114794e-14,-0.0008344013627498,0.00083440136226471,-0.00072720314686234,0.00072720314610733,-0.0007272031469991,0.00072720314595185,-0.0008344013625257,0.00083440136245342,-0.00083440136296868,0.00083440136203792,-0.00072720314708672,0.00072720314588571,-0.00072720314722207,0.00072720314572881,-0.0011611756862809,0.0011611756855895,-0.0011611756862041,0.0011611756856648,-0.0011611756861327,0.0011611756857345,-0.0011611756860555,0.0011611756858095,-0.0011627941219203,0.0011627941223037,-0.0011627941223804,0.0011627941219023,-0.0011627941224535,0.0011627941218231,-0.0011627941219958,0.0011627941222268,-0.00083440136230174,0.00083440136267511,0.76155688173046,131490,2924,0.0049345123495173,0.0066521751412176,0.0039051457335031,31.396984188724,0.00016637587350979,0.00016637587350979,0.00016637587350979,2872511.7463979,0.015613360426629
35391759,0.98679785578918,0.0160085233037,0.0052153242378937,0.0061902178763843,0.0046029811894222,-0.0012027020566185,0.001202702056017,-5.3483219065546e-14,-4.9277435784633e-13,6.9726516961593e-14,-6.3220298075055e-13,-0.00042082666095505,0.0004208266590073,-0.0011464334494658,0.0011464334483422,-0.0011464334508635,0.0011464334494475,-0.00042082666004006,0.00042082666035311,-0.00042082666025592,0.00042082665970912,-0.0011464334487912,0.0011464334490392,-0.0011464334501876,0.0011464334501433,-0.0014340632585184,0.001434063258341,-0.0014340632591778,0.0014340632587073,-0.001434063258743,0.0014340632581054,-0.0014340632594031,0.0014340632584725,-0.0012145080429637,0.001214508042598,-0.001214508043406,0.0012145080421791,-0.0012145080427314,0.0012145080428377,-0.0012145080431714,0.0012145080424166,-0.0004208266607357,0.00042082665964784,-3.2006198703188e-14,6.6597689015727e-13,5.7455385953869e-13,4.5244382521053e-14,-0.001623951831604,0.0016239518322226,-0.0015731066347818,0.0015731066346489,-0.0015723761036242,0.0015723761037532,-0.0015723761029877,0.0015723761044814,-0.0016106353666501,0.0016106353672117,-0.0016106353675948,0.0016106353677978,-0.0016106353664211,0.0016106353674381,-0.0016106353673657,0.0016106353680242,-0.0015731066332463,0.0015731066346138,-0.0015731066345666,0.0015731066349004,-0.0015723761038614,0.001572376103637,-0.0015723761032249,0.0015723761043652,-0.0015731066334616,0.0015731066343623,-4.4709293786291e-13,-7.3338788962104e-15,-0.00094924663512394,0.00094924663299473,-7.5618893754997e-13,-2.1989740177061e-13,-0.00084411604457394,0.00084411604346295,-0.00073631997963293,0.00073631997734532,-0.00073631997975033,0.00073631997717055,-0.0008441160447026,0.00084411604341066,-0.00084411604508985,0.00084411604293966,-0.0007363199801577,0.00073631997682318,-0.00073631998027386,0.00073631997664717,-0.0011746543465346,0.0011746543452845,-0.0011746543463539,0.0011746543454637,-0.0011746543463885,0.0011746543454316,-0.0011746543462075,0.0011746543456105,-0.0011769649812308,0.0011769649814928,-0.0011769649816821,0.0011769649810829,-0.0011769649818579,0.0011769649809013,-0.0011769649814086,0.0011769649813133,-0.00084411604418207,0.00084411604392934,0.739462768429,131490,2924,0.0050013702344482,0.0067420965589182,0.0039489331639011,35.84810398732,0.00020198483189856,0.00020198483189856,0.00020198483189856,2814566.9005996,0.015817093588204
36391759,0.99224490491417,0.016095090565219,0.0052435774164937,0.0062244355801295,0.0046270775685961,-0.0012105837303439,0.0012105837298543,-2.5495088789597e-14,-4.6475028749185e-13,1.122912460501e-13,-6.0248265339203e-13,-0.00042262232888934,0.00042262232738484,-0.0011535411603862,0.0011535411593618,-0.0011535411610935,0.0011535411597767,-0.00042262232798524,0.00042262232876455,-0.00042262232818053,0.00042262232810005,-0.0011535411596983,0.00115354116007,-0.0011535411604065,0.0011535411604859,-0.0014444247672746,0.0014444247671271,-0.001444424767665,0.0014444247672243,-0.0014444247675041,0.0014444247668877,-0.001444424767894,0.0014444247669846,-0.0012223477003013,0.0012223476999759,-0.0012223477007302,0.0012223476995438,-0.0012223477000634,0.0012223477002185,-0.0012223477004929,0.0012223476997869,-0.00042262232869426,0.00042262232804958,-3.5906961890491e-14,6.7394223505674e-13,5.4195897293716e-13,8.1777501753456e-14,-0.0016361127510553,0.0016361127516779,-0.0015831942083566,0.0015831942082896,-0.0015840578412877,0.0015840578413851,-0.0015840578405959,0.0015840578420811,-0.0016235124377831,0.0016235124383167,-0.0016235124384242,0.0016235124386542,-0.0016235124375538,0.0016235124385516,-0.0016235124381949,0.0016235124388891,-0.0015831942072114,0.0015831942085209,-0.0015831942081349,0.0015831942085427,-0.0015840578415344,0.0015840578413265,-0.0015840578408425,0.0015840578420224,-0.0015831942074332,0.0015831942082678,-2.0724804629946e-13,2.3248234635331e-13,-0.00095323965830419,0.00095323965772244,-3.4685016683314e-13,1.1238037751837e-13,-0.00084771151735548,0.00084771151736869,-0.00073916792689699,0.00073916792675049,-0.00073916792703651,0.00073916792659787,-0.00084771151734878,0.00084771151731087,-0.00084771151780621,0.00084771151691011,-0.00073916792735008,0.00073916792630023,-0.00073916792748815,0.00073916792614616,-0.0011807709950059,0.0011807709943949,-0.0011807709948525,0.0011807709945469,-0.0011807709948576,0.0011807709945399,-0.0011807709947039,0.0011807709946914,-0.0011836714132217,0.0011836714138155,-0.001183671413683,0.0011836714134155,-0.0011836714138339,0.0011836714132586,-0.001183671413375,0.0011836714136608,-0.00084771151689297,0.00084771151776434,0.75248393255267,131490,2924,0.0050340967225864,0.0067923769463506,0.0039655370429332,37.528742203333,0.00021542993762666,0.00021542993762666,0.00021542993762666,2773696.7146999,0.015918297789383
37391759,0.99546013409302,0.016145857250944,0.0052601540203552,0.006244439509243,0.004641263721346,-0.0012127796899751,0.0012127796895463,-1.1111704662697e-14,-4.5038902033635e-13,1.39137367096e-13,-5.9125690809555e-13,-0.00041334221719364,0.00041334221593257,-0.0011535112144126,0.0011535112134333,-0.001153511214712,0.0011535112134407,-0.00041334221627794,0.00041334221733011,-0.0004133422164717,0.00041334221666397,-0.0011535112137093,0.0011535112141565,-0.0011535112140108,0.0011535112141656,-0.0014494381071116,0.0014494381069807,-0.0014494381073417,0.0014494381069178,-0.0014494381073465,0.0014494381067362,-0.0014494381075757,0.0014494381066724,-0.0012255528899453,0.0012255528896372,-0.0012255528903687,0.0012255528891992,-0.0012255528897016,0.0012255528898843,-0.0012255528901268,0.0012255528894482,-0.00041334221700283,0.00041334221660175,-4.068793348215e-14,6.8418551036701e-13,4.6916616729564e-13,1.5965609320418e-13,-0.0016441120537478,0.0016441120543756,-0.0015922604131075,0.0015922604131873,-0.0015936426425681,0.0015936426426056,-0.0015936426418369,0.0015936426432915,-0.0016291973826735,0.0016291973831549,-0.0016291973830924,0.0016291973833744,-0.0016291973824411,0.0016291973833971,-0.00162919738286,0.0016291973836167,-0.0015922604122873,0.0015922604134601,-0.0015922604128791,0.0015922604134436,-0.0015936426427812,0.0015936426426148,-0.00159364264205,0.0015936426433006,-0.0015922604125159,0.0015922604132038,-8.8258060160404e-14,3.5150043837348e-13,-0.00095243566102852,0.00095243566131522,-7.5031431186869e-14,2.2942613089507e-13,-0.00084268262230132,0.00084268262281072,-0.00073367880170443,0.00073367880265945,-0.00073367880185687,0.00073367880251981,-0.00084268262210928,0.00084268262286019,-0.00084268262260559,0.00084268262249818,-0.0007336788020074,0.00073367880235899,-0.00073367880215852,0.00073367880221786,-0.0011835092800173,0.0011835092797817,-0.0011835092799162,0.0011835092798815,-0.0011835092798677,0.0011835092799254,-0.0011835092797662,0.0011835092800247,-0.001185812497955,0.0011858124986651,-0.001185812498422,0.0011858124982708,-0.0011858124985218,0.0011858124981649,-0.0011858124980571,0.0011858124985616,-0.00084268262179994,0.00084268262316691,0.74707717168952,131490,2924,0.005043277450668,0.0068254717549033,0.0039622544086922,37.635707431804,0.00021628565945444,0.00021628565945444,0.00021628565945444,2704389.5800485,0.015957950185459
38391759,0.99731665832726,0.016175646078504,0.0052698828116765,0.0062561366898531,0.0046496265769745,-0.00121311821004,0.0012131182096293,-7.7721449192489e-15,-4.4704240198501e-13,1.519882098057e-13,-5.9424861081873e-13,-0.00040965607582855,0.00040965607463907,-0.0011532126377481,0.0011532126367714,-0.0011532126379011,0.0011532126366321,-0.00040965607489395,0.00040965607604918,-0.00040965607509008,0.00040965607538553,-0.0011532126370293,0.0011532126375101,-0.0011532126371841,0.0011532126373726,-0.0014510916894619,0.001451091689337,-0.0014510916896342,0.0014510916892162,-0.0014510916897018,0.0014510916890872,-0.0014510916898732,0.0014510916889656,-0.0012260986557393,0.0012260986554302,-0.0012260986561613,0.0012260986549912,-0.0012260986554905,0.0012260986556827,-0.0012260986559142,0.0012260986552453,-0.00040965607563418,0.00040965607530451,-4.5770601739535e-14,6.9470260084182e-13,3.7405471994389e-13,2.6016940494444e-13,-0.001646903902077,0.0016469039027101,-0.0015947066055302,0.0015947066058015,-0.0015966383138031,0.0015966383137657,-0.0015966383130479,0.0015966383144584,-0.0016317100891707,0.0016317100895873,-0.0016317100894634,0.0016317100898106,-0.0016317100889339,0.0016317100898354,-0.0016317100892266,0.0016317100900587,-0.0015947066049594,0.0015947066059514,-0.0015947066052956,0.0015947066060622,-0.0015966383139573,0.0015966383138458,-0.0015966383132021,0.0015966383145384,-0.001594706605194,0.0015947066056907,-6.9792867646022e-14,3.6995992224303e-13,-0.00095087135689055,0.00095087135744022,6.7683947926851e-14,1.7586390689013e-13,-0.00084007564429871,0.00084007564479377,-0.00073081503157079,0.00073081503273234,-0.00073081503172792,0.00073081503259735,-0.00084007564389996,0.00084007564502235,-0.00084007564441008,0.00084007564467429,-0.00073081503168185,0.00073081503262414,-0.00073081503183738,0.00073081503248754,-0.0011833115100686,0.001183311509968,-0.0011833115100329,0.0011833115100024,-0.0011833115099185,0.0011833115101112,-0.0011833115098824,0.0011833115101451,-0.0011857696823341,0.0011857696829906,-0.001185769682803,0.0011857696825983,-0.0011857696828371,0.001185769682558,-0.0011857696823707,0.0011857696829528,-0.00084007564378323,0.00084007564513643,0.75852415458649,131490,2924,0.0050447137409827,0.0068370070175359,0.0039557824464772,37.19510462001,0.00021276083696008,0.00021276083696008,0.00021276083696008,2677868.0224167,0.01596456516375
38880000,0.99799441509609,0.016186651837023,0.0052734758168658,0.0062604524208562,0.0046527235993008,-0.0012133374139363,0.0012133374135054,-1.3227992952719e-14,-4.5249477953627e-13,1.4691780587953e-13,-6.0263061946e-13,-0.00040504315268758,0.00040504315142168,-0.001152462413052,0.0011524624120517,-0.0011524624133181,0.0011524624120257,-0.00040504315174945,0.00040504315283512,-0.00040504315194504,0.00040504315217106,-0.0011524624123302,0.0011524624127941,-0.0011524624125975,0.0011524624127692,-0.0014523149502782,0.0014523149501482,-0.0014523149504954,0.0014523149500722,-0.0014523149505191,0.0014523149498972,-0.0014523149507356,0.0014523149498206,-0.001226858371879,0.0012268583715595,-0.0012268583723033,0.0012268583711227,-0.0012268583716295,0.0012268583718135,-0.0012268583720547,0.0012268583713776,-0.00040504315249258,0.00040504315208651,-4.6981505923714e-14,6.9694900280402e-13,3.3485577038607e-13,3.0037517668571e-13,-0.0016493712911701,0.0016493712918042,-0.001598199446456,0.0015981994468054,-0.0015999943656561,0.0015999943655901,-0.0015999943649043,0.0015999943662931,-0.0016328081667804,0.0016328081671717,-0.0016328081670979,0.0016328081674702,-0.0016328081665421,0.0016328081674204,-0.0016328081668596,0.001632808167719,-0.0015981994459126,0.0015981994468286,-0.0015981994462211,0.0015981994470679,-0.0015999943657815,0.0015999943656936,-0.0015999943650296,0.0015999943663966,-0.0015981994461476,0.0015981994465661,-1.2426981691646e-13,3.1548280339338e-13,-0.00095015784467299,0.00095015784493915,3.1042420241547e-14,6.1603145639716e-14,-0.00083710218821149,0.00083710218841022,-0.00072782525680874,0.00072782525750747,-0.00072782525696212,0.00072782525736878,-0.00083710218774453,0.00083710218872845,-0.00083710218824403,0.00083710218836976,-0.00072782525684276,0.00072782525747622,-0.00072782525699471,0.00072782525733607,-0.0011840876487817,0.0011840876485723,-0.0011840876487714,0.0011840876485813,-0.001184087648632,0.0011840876487159,-0.0011840876486213,0.0011840876487244,-0.0011861527432118,0.0011861527437517,-0.0011861527436791,0.0011861527433578,-0.001186152743687,0.0011861527433436,-0.0011861527432222,0.00118615274374,-0.00083710218770676,0.0008371021887637,0.76740398031322,131490,2924,0.0050456550246632,0.0068472209547323,0.0039528437746229,37.193629561114,0.00021274903648891,0.00021274903648891,0.00021274903648891,2647282.4355558,0.015972930574769
