time,ASR_ext,ASR_strain,ASR_strain_xx,ASR_strain_yy,ASR_strain_zz,disp_x_101,disp_x_102,disp_x_103,disp_x_104,disp_x_105,disp_x_106,disp_x_p10_neg,disp_x_p10_pos,disp_x_p11_neg,disp_x_p11_pos,disp_x_p12_neg,disp_x_p12_pos,disp_x_p13_neg,disp_x_p13_pos,disp_x_p14_neg,disp_x_p14_pos,disp_x_p15_neg,disp_x_p15_pos,disp_x_p16_neg,disp_x_p16_pos,disp_x_p1_neg,disp_x_p1_pos,disp_x_p2_neg,disp_x_p2_pos,disp_x_p3_neg,disp_x_p3_pos,disp_x_p4_neg,disp_x_p4_pos,disp_x_p5_neg,disp_x_p5_pos,disp_x_p6_neg,disp_x_p6_pos,disp_x_p7_neg,disp_x_p7_pos,disp_x_p8_neg,disp_x_p8_pos,disp_x_p9_neg,disp_x_p9_pos,disp_y_101,disp_y_102,disp_y_103,disp_y_104,disp_y_105,disp_y_106,disp_y_p10_neg,disp_y_p10_pos,disp_y_p11_neg,disp_y_p11_pos,disp_y_p12_neg,disp_y_p12_pos,disp_y_p1_neg,disp_y_p1_pos,disp_y_p2_neg,disp_y_p2_pos,disp_y_p3_neg,disp_y_p3_pos,disp_y_p4_neg,disp_y_p4_pos,disp_y_p5_neg,disp_y_p5_pos,disp_y_p6_neg,disp_y_p6_pos,disp_y_p7_neg,disp_y_p7_pos,disp_y_p8_neg,disp_y_p8_pos,disp_y_p9_neg,disp_y_p9_pos,disp_z_101,disp_z_102,disp_z_103,disp_z_104,disp_z_105,disp_z_106,disp_z_p10_neg,disp_z_p10_pos,disp_z_p11_neg,disp_z_p11_pos,disp_z_p12_neg,disp_z_p12_pos,disp_z_p13_neg,disp_z_p13_pos,disp_z_p14_neg,disp_z_p14_pos,disp_z_p15_neg,disp_z_p15_pos,disp_z_p16_neg,disp_z_p16_pos,disp_z_p1_neg,disp_z_p1_pos,disp_z_p2_neg,disp_z_p2_pos,disp_z_p3_neg,disp_z_p3_pos,disp_z_p4_neg,disp_z_p4_pos,disp_z_p5_neg,disp_z_p5_pos,disp_z_p6_neg,disp_z_p6_pos,disp_z_p7_neg,disp_z_p7_pos,disp_z_p8_neg,disp_z_p8_pos,disp_z_p9_neg,disp_z_p9_pos,humidity,ndof,nelem,strain_xx,strain_yy,strain_zz,temp,thermal_strain_xx,thermal_strain_yy,thermal_strain_zz,vonmises,vstrain
14391759,0,0,0,0,0,0,0,0,0,0,0,0,0,0,0,0,0,0,0,0,0,0,0,0,0,0,0,0,0,0,0,0,0,0,0,0,0,0,0,0,0,0,0,0,0,0,0,0,0,0,0,0,0,0,0,0,0,0,0,0,0,0,0,0,0,0,0,0,0,0,0,0,0,0,0,0,0,0,0,0,0,0,0,0,0,0,0,0,0,0,0,0,0,0,0,0,0,0,0,0,0,0,0,0,0,0,0,0,0,0,0,0,0,0,0,0,0,0,0,0,0,0,0
15391759,0.10054933691868,0.0015492377304913,0.00051641257683045,0.00051641257683045,0.00051641257683045,-0.00014716296287663,0.00014708219712399,-1.55338078966e-07,-1.2672897894296e-07,-2.0961931220771e-08,-4.5729054041447e-09,-0.00013080549552182,0.00013023465894037,-0.0001460283781131,0.00014599533588337,-0.00014600440949322,0.000146316598418,-0.00013090926003836,0.00013034715738453,-0.00013082134843658,0.00013021861891712,-0.00014604420990589,0.00014597914183311,-0.0001460202512044,0.00014630041384229,-0.00015434981801911,0.00015428074699579,-0.00015432550620109,0.00015438198935168,-0.00015434452816134,0.00015428626017919,-0.00015432021182714,0.00015438749813664,-0.00014551847085874,0.00014524398479005,-0.00014544120697695,0.00014509112043209,-0.00014552384509727,0.00014523852765038,-0.00014544659049444,0.0001450856726034,-0.00013089342542003,0.00013036321572938,5.2570107260743e-09,-1.0851349894662e-08,-3.0485257524941e-08,2.5129566431142e-08,-0.00015925356964425,0.00015924818765225,-0.00015624699143658,0.00015630152421772,-0.00015792926703466,0.00015792103481976,-0.00015788203340668,0.00015784211298248,-0.00016116772427181,0.0001611492567381,-0.00016116167911181,0.00016118031309209,-0.00016116856694739,0.00016113928295978,-0.00016118169128899,0.00016118950875965,-0.00015630509334563,0.00015623990006712,-0.0001563049413866,0.00015634865072121,-0.00015791648576873,0.00015794533841363,-0.00015770378876414,0.0001577009531548,-0.00015625541284542,0.00015620104282874,1.7941797744431e-08,2.4210130347596e-07,-0.00015245541275493,0.00015248633525346,4.2453172884577e-08,-1.3176044226709e-08,-0.00015057024594118,0.0001505417507744,-0.00015117253446529,0.00015069878071747,-0.00015123568726955,0.00015113028391438,-0.00015079647517634,0.00015219701655669,-0.00015051596634703,0.0001505963483216,-0.00015111805479864,0.00015075321346135,-0.00015118132316716,0.0001511848320185,-0.00015629736368484,0.00015630424891637,-0.0001563158748274,0.00015628566582451,-0.00015627903927442,0.00015624679409141,-0.00015629760488723,0.00015622826541097,-0.00015244233241323,0.00015287803106594,-0.00015233347329976,0.00015235233600137,-0.00015231501034364,0.00015237095318839,-0.00015242374566994,0.00015289652426964,-0.00015085100774754,0.00015214267247923,0.70055894083924,122718,2924,0.00061282374923612,0.00066332374195185,0.0006350926545713,27.188289267375,0.000132706314139,0.000132706314139,0.000132706314139,1233751.131944,0.0019130708340581
16391759,0.18930467016344,0.0030042804333702,0.00097732330539808,0.0010276038440391,0.00099935328393297,-0.00024447612828853,0.00024425648866338,-5.077042048542e-07,-2.735233574244e-07,-6.9717307200899e-08,-2.2530563984476e-08,-0.00020789214953161,0.00020654619724224,-0.00024682140731043,0.00024668288568885,-0.00024670850436556,0.00024756080442188,-0.00020832293387304,0.00020660769461098,-0.00020793773632073,0.00020650001211793,-0.00024686698907071,0.00024663625370263,-0.00024675410728388,0.00024751419114278,-0.00025924598076462,0.00025900088255552,-0.00025913020123932,0.00025934246591796,-0.00025923066221181,0.00025901678867701,-0.00025911487331893,0.00025935836340749,-0.00024376524269161,0.00024285360040604,-0.00024340876602567,0.00024256428524549,-0.00024378072927572,0.00024283787550125,-0.0002434242710134,0.00024254857885687,-0.0002082773827533,0.0002066539173834,1.3496005812588e-08,-3.2799810098809e-08,-1.0505236018576e-07,8.6430417111762e-08,-0.00028007991736129,0.00028006122748352,-0.00027509732165574,0.00027528182340642,-0.00027756363832741,0.00027752613038522,-0.00027748284609244,0.00027735437970166,-0.00028302360608211,0.00028295678192497,-0.00028299562601047,0.00028305649419546,-0.00028302190056872,0.00028292403046108,-0.00028305230182267,0.00028308212318831,-0.00027529351608048,0.00027507193390444,-0.00027536899344053,0.00027552239434745,-0.0002775141142964,0.0002776042720735,-0.00027705329120077,0.0002770524906861,-0.00027515797175729,0.00027496748777763,1.0894533423182e-07,6.8310768534628e-07,-0.00025921525420751,0.00025927343446656,1.3391137100099e-07,-5.7625119235104e-08,-0.00026084419985061,0.00026084240542706,-0.00026113383970634,0.00025955104724397,-0.00026129517022114,0.00026097960287564,-0.0002614774315538,0.00026541379749862,-0.00026065719218958,0.00026103037447093,-0.00026094623255941,0.00025973848924362,-0.00026110790643449,0.00026116738993595,-0.00026615642509011,0.00026621265720082,-0.00026622018511742,0.0002661487114058,-0.00026610382047604,0.00026594507026139,-0.00026616773843049,0.00026588128217844,-0.00026159735562212,0.00026279705089743,-0.00026126500022896,0.00026142142159652,-0.00026120138850707,0.000261485485848,-0.00026153338456112,0.00026286075504278,-0.00026166520277316,0.0002652265921298,0.7587163515091,122718,2924,0.0010176843570721,0.0011662741653995,0.0010796000097025,24.444989989966,0.00011075991991973,0.00011075991991973,0.00011075991991973,1894731.4032383,0.0032688950553398
17391759,0.26838988133406,0.0041580635598598,0.0013188509513422,0.0014604469950638,0.0013787656134538,-0.0003149183135446,0.00031444469395698,-1.0821917702849e-06,-5.0966713482918e-07,-1.4164307081659e-07,-3.9721828619796e-08,-0.00024708431551117,0.00024472249029119,-0.00031986226851196,0.00031951227199156,-0.00031958662712285,0.00032122341742565,-0.00024810571358035,0.00024463670575089,-0.00024718285689506,0.00024462272612008,-0.00031996062165627,0.00031941151139936,-0.00031968503834353,0.00032112270502047,-0.0003411748260864,0.00034062548844085,-0.00034089972207867,0.00034132194353157,-0.00034114174932862,0.00034065983379324,-0.00034086661855765,0.00034135626429994,-0.00031235284208299,0.00031036747665853,-0.00031151117843178,0.00030981672849231,-0.00031238628850951,0.00031033351036152,-0.00031154467860644,0.0003097828167547,-0.00024800727317538,0.00024473657578167,2.8908387880101e-08,-7.1106531773639e-08,-2.1916288125499e-07,1.7844880183349e-07,-0.00038302335838267,0.00038298249172277,-0.00037439271698245,0.00037477508206922,-0.00037720748271576,0.00037713124994563,-0.00037704037031549,0.00037676766492963,-0.00038853092574341,0.00038839137479422,-0.00038847164967151,0.00038859729833333,-0.00038852938325571,0.00038832285757199,-0.00038857878394776,0.00038863745598087,-0.00037481854824851,0.00037435512541384,-0.00037523192321581,0.00037554712442801,-0.00037710568074228,0.00037729455530108,-0.00037617879229528,0.00037617119143298,-0.00037453253314834,0.00037413626504782,2.8509395889373e-07,1.3037025518582e-06,-0.00034176275291486,0.00034185148295241,2.6392846848418e-07,-1.3384950012228e-07,-0.00034481308333404,0.00034493267296618,-0.00034597276000031,0.0003425859049362,-0.00034628630378026,0.00034568647083374,-0.00034615987349992,0.00035366109924463,-0.00034442474771967,0.00034532296094636,-0.00034558315974972,0.00034297512035837,-0.00034589743647894,0.00034607641997104,-0.00035454229429385,0.00035469889087158,-0.00035467473312062,0.00035456609852026,-0.00035449708254351,0.00035415973512374,-0.00035462984058616,0.00035402726105693,-0.00034641056572108,0.00034877805729207,-0.00034558936949341,0.00034602498280529,-0.00034545723042623,0.00034615798584512,-0.00034627771022409,0.00034891034100718,-0.00034654979327337,0.00035327239779866,0.68097528185715,122718,2924,0.0013103464701807,0.0015945539898997,0.0014231803188763,22.111452437929,9.2091619503432e-05,9.2091619503432e-05,9.2091619503432e-05,2426412.6310684,0.0043374748075564
18391759,0.32531647342334,0.0048883936287525,0.0015296291006329,0.0017427352577449,0.0016160292703746,-0.00035243361781949,0.00035177254739484,-1.4964207097769e-06,-6.6772500266677e-07,-1.9720479523464e-07,-7.435125505588e-08,-0.00026614516830763,0.00026313642239053,-0.00035995509357065,0.00035940468669031,-0.00035955692110909,0.00036169440339549,-0.00026758760431856,0.00026294621408989,-0.00026626365622258,0.00026301634807375,-0.00036007352295317,0.00035928327241322,-0.00035967539241209,0.00036157301685306,-0.00038640641899463,0.0003856161290783,-0.00038601122995684,0.00038659704122394,-0.00038636646167349,0.0003856575884021,-0.00038597125278663,0.00038663848453511,-0.00034756993753782,0.00034477902787451,-0.00034636517935631,0.00034408978973624,-0.00034761023941914,0.00034473810737251,-0.00034640551907662,0.0003440489078472,-0.00026746918155639,0.00026306636384515,3.1418930101238e-08,-8.8829895898817e-08,-3.2237270259219e-07,2.6676345019321e-07,-0.00044370392781747,0.00044364814460026,-0.00043124838829207,0.0004318102769873,-0.00043315154346105,0.00043301603111636,-0.00043289612611781,0.00043252461464203,-0.00045360829749995,0.00045339697669028,-0.00045351229179519,0.00045369379783697,-0.00045359481266523,0.00045330288786112,-0.00045367267150688,0.00045377357192873,-0.00043187165952586,0.00043119903031865,-0.00043247752129729,0.00043295862972252,-0.00043299532272887,0.00043325257193384,-0.00043178787069327,0.00043180911916412,-0.00043149850147915,0.00043090663540348,4.0869228528158e-07,1.7439231865875e-06,-0.0003871497137203,0.00038723223508049,3.6431623701021e-07,-2.2505597675951e-07,-0.00038993770206041,0.00039009499142197,-0.00039362607590186,0.0003889417919157,-0.00039407236454897,0.00039320925485755,-0.00039162668868853,0.00040149840432115,-0.00038936201736797,0.00039067323980373,-0.00039304873954818,0.00038951850821151,-0.00039349600104117,0.00039378694601904,-0.0004047292775398,0.00040495795229131,-0.00040492554660637,0.0004047612731311,-0.000404665620077,0.00040419639369664,-0.00040486230135651,0.00040400012504912,-0.00039198794280921,0.0003952144367262,-0.00039087545427902,0.00039149200432028,-0.00039067956178468,0.0003916889815808,-0.00039179112759613,0.00039541048677367,-0.00039220449303878,0.00040092228119827,0.60484717275765,122718,2924,0.0014660731357684,0.0018469102811782,0.0016119921244752,17.505441539254,5.524353231403e-05,5.524353231403e-05,5.524353231403e-05,2830762.8572233,0.0049371477655524
19391759,0.3839898001553,0.0057938495021269,0.0017864003204377,0.0020971855990772,0.001910263582612,-0.00040988382745552,0.00040895312224891,-2.0620755307166e-06,-8.9692829257695e-07,-2.8144870633041e-07,-1.0933836683485e-07,-0.00029978981576671,0.00029591145346547,-0.00042371263066678,0.00042288800454706,-0.00042315107803295,0.00042596743142271,-0.00030181682045779,0.00029551004023904,-0.00029995588696225,0.00029574316535392,-0.00042387852936042,0.00042271785762901,-0.00042331703526303,0.00042579732458214,-0.00045113659143097,0.00045002030718452,-0.00045058070269979,0.00045136365108603,-0.00045108061523996,0.00045007838539693,-0.0004505246962897,0.00045142170473263,-0.00040474127803916,0.00040086866379536,-0.00040305077676229,0.00039994214809687,-0.00040479772273905,0.0004008113312201,-0.00040310728186886,0.00039988487845294,-0.00030165084820992,0.0002956784476251,4.3679518166865e-08,-1.2479748900682e-07,-4.632437447968e-07,3.8465710920932e-07,-0.00053098827370844,0.00053090944764747,-0.00051649900693829,0.00051730757486397,-0.00051701251205477,0.00051681447176868,-0.00051666991853282,0.00051614120608397,-0.00054258754866031,0.00054228328054048,-0.0005424415544982,0.00054270268269223,-0.00054256414292563,0.0005421470153456,-0.00054268811712217,0.00054283638292047,-0.00051744826974199,0.00051648320370086,-0.00051850135355688,0.00051919679404956,-0.0005167814551364,0.00051714867697296,-0.0005151875777643,0.00051522413520824,-0.00051690870823081,0.00051605674060976,5.7876514332699e-07,2.3477257166152e-06,-0.00045479073098912,0.00045487332561635,4.9852617159187e-07,-3.4981951702685e-07,-0.00046264027728781,0.00046285778045651,-0.00046729876983535,0.00046070924894882,-0.00046795102896232,0.0004667471000033,-0.00046487259783735,0.00047827801739962,-0.00046181157531569,0.00046369000327765,-0.00046646780459889,0.00046153938366827,-0.00046712139589691,0.00046757856568218,-0.00047535197358231,0.00047568764468963,-0.00047563449126284,0.00047540455484163,-0.0004752806419113,0.00047465487343524,-0.00047556372955486,0.00047437234933796,-0.00046297402904814,0.00046736421722379,-0.00046144164255843,0.00046230810057685,-0.00046115964964613,0.00046259158931184,-0.00046269076834059,0.00046764643098967,-0.00046570419838033,0.00047744870142189,0.73021614767059,122718,2924,0.001704544275993,0.0022097887204758,0.0018933374576819,17.480149051455,5.5041192411637e-05,5.5041192411637e-05,5.5041192411637e-05,3111813.605813,0.0058245956487494
20391759,0.44842424838861,0.0068300138709252,0.0020700106874314,0.0025180702503028,0.002241932933191,-0.000472439288208,0.00047104842809126,-3.0087258333223e-06,-1.2831933643235e-06,-4.0122895392611e-07,-1.4835766487475e-07,-0.00032104987056454,0.00031556551184411,-0.0004924216232751,0.00049120443107435,-0.00049156591366674,0.00049553208349912,-0.00032412210142044,0.00031502439021223,-0.00032129359886945,0.00031531870138863,-0.00049266523827458,0.0004909546505415,-0.00049180957510265,0.00049528232202683,-0.00052675437196742,0.00052507917701093,-0.00052593052301991,0.00052695642389548,-0.0005266721183881,0.00052516446240019,-0.00052584824325491,0.00052704169334993,-0.00046554532403128,0.00045987389686617,-0.00046304806238112,0.00045854455190379,-0.00046562820041311,0.00045978977277954,-0.0004631309903454,0.00045846048248796,-0.0003238784482818,0.00031527130785208,6.6528481050321e-08,-1.806831901491e-07,-6.7392036020074e-07,5.6348964861591e-07,-0.00063886410952378,0.00063875331021128,-0.00062246774233227,0.00062365250309002,-0.00062205957454999,0.00062177614722451,-0.0006215303217873,0.00062076167197078,-0.00065037912174494,0.00064993989412513,-0.00065016596220509,0.00065055172252954,-0.00065035481757151,0.0006497498538918,-0.0006505231315549,0.00065074314651996,-0.00062386609862679,0.00062246143894436,-0.00062567720341047,0.00062669590840271,-0.00062173578121081,0.00062227721362603,-0.00061938576053005,0.00061944198852409,-0.00062306966965347,0.0006218310086665,8.8373975256232e-07,3.314755534233e-06,-0.00053072608440526,0.00053083875326219,7.2429847607726e-07,-5.1386490485117e-07,-0.00054315387417758,0.00054356437370317,-0.00054787193643225,0.00053827931754679,-0.00054873965731657,0.00054703567134624,-0.00054659071139528,0.00056604901085313,-0.00054194430502994,0.00054477919624529,-0.00054665903098071,0.00053949086715631,-0.00054752878444458,0.0005482492381483,-0.00055729420224204,0.00055782555006872,-0.00055770650167806,0.00055741239242382,-0.00055727558514018,0.00055636786336563,-0.00055768875755578,0.00055595557002631,-0.00054620367174631,0.00055245037442086,-0.00054377158445533,0.00054509963121678,-0.00054336005324656,0.00054551343438843,-0.00054579018646595,0.00055286220661348,-0.00054780468728669,0.00056483861901115,0.76377140340812,122718,2924,0.0019638340400133,0.002658066328392,0.0022091539116984,18.603327087563,6.4026616700501e-05,6.4026616700501e-05,6.4026616700501e-05,3283089.2195596,0.0068544798207708
21391759,0.49854164087999,0.0075568999244933,0.0022671476638798,0.0028204617178192,0.0024692905427944,-0.00050734373673501,0.00050557555057617,-3.7634711682591e-06,-1.5847354959588e-06,-5.0510570485207e-07,-1.9387533611616e-07,-0.00032841052566809,0.00032160598643104,-0.00053132229914258,0.00052976798444663,-0.00053022197422832,0.00053506703605443,-0.00033234039647667,0.0003211309442632,-0.00032871037231234,0.00032130245370914,-0.0005316221242068,0.00052946061270944,-0.00053052183487703,0.00053475966280684,-0.00057187737533885,0.00056972373462926,-0.00057083654346591,0.00057204931009825,-0.00057177611531327,0.00056982869486604,-0.00057073525783918,0.00057215425874789,-0.00049764123637869,0.00049051804292097,-0.00049449160967591,0.00048890129481795,-0.00049774319316968,0.00049041456414716,-0.00049459362301638,0.00048879787530989,-0.00033204061695953,0.00032143458827532,8.0780218223474e-08,-2.2314247228545e-07,-8.5214263317708e-07,7.1442601587771e-07,-0.00070857468621457,0.0007084365178372,-0.00068906881460563,0.00069056780206408,-0.00068747331740127,0.00068710776938203,-0.00068676276558187,0.00068580068118619,-0.00072261425336218,0.00072205724241095,-0.00072233832933623,0.00072282572213784,-0.00072257971618769,0.00072181902140803,-0.00072278171361956,0.00072306540841695,-0.00069081366374321,0.00068904044407328,-0.00069304535113507,0.0006943401622964,-0.00068706903417716,0.00068774770883552,-0.0006841497731897,0.00068423194711334,-0.00068984600649023,0.00068827687876476,1.1260387230261e-06,4.0662663466045e-06,-0.0005741561847608,0.00057427815169271,9.0591877757399e-07,-6.617672804696e-07,-0.00058762275900192,0.00058816677834146,-0.0005944064622927,0.00058258096228418,-0.00059543649940588,0.00059329647546885,-0.00059186380613705,0.00061580278795521,-0.00058609123153015,0.00058970494350399,-0.00059287071745761,0.00058411490338674,-0.00059390333594417,0.00059483296947617,-0.00060644408218331,0.00060712244629245,-0.00060696613031182,0.00060659936812679,-0.00060645628894519,0.00060531098304782,-0.00060697943040765,0.00060478898468108,-0.00059350303825561,0.00060125475931838,-0.00059038631305056,0.000592073292789,-0.00058986525047529,0.0005925972120561,-0.00059297950532987,0.00060177618486641,-0.00059340092642099,0.00061427025911676,0.6908403174145,122718,2924,0.0021082548430205,0.0029476145866327,0.002389723219743,15.312519376887,3.7700155015098e-05,3.7700155015098e-05,3.7700155015098e-05,3455679.0995296,0.0074734346908772
22391759,0.54583133843489,0.008241376965374,0.0024517274980163,0.0031080043284609,0.0026816451388967,-0.00054643540821826,0.00054431392798974,-4.4299451924753e-06,-1.8603574627554e-06,-5.9984130381073e-07,-2.4697067919508e-07,-0.00034639419980962,0.00033854807587853,-0.00057531086255183,0.00057341849576904,-0.00057399582345533,0.00057952291729816,-0.0003510625324715,0.00033805699984847,-0.00034673394924572,0.00033820413283409,-0.00057565072585432,0.00057307001784304,-0.00057433570699663,0.00057917441112187,-0.0006190014463869,0.00061639748518867,-0.00061777176165713,0.00061913792421404,-0.00061888654174013,0.00061651651774031,-0.00061765683427699,0.00061925695146409,-0.00053401672559748,0.00052558593072956,-0.00053030095908815,0.00052372332954044,-0.00053413228440955,0.00052546865094285,-0.00053041657296734,0.00052360610643565,-0.00035072283174293,0.00033840104832987,8.7963572595326e-08,-2.5618963639423e-07,-1.0213115679165e-06,8.5841005013694e-07,-0.00077883979389426,0.00077867639199767,-0.0007562741057042,0.00075806820508956,-0.00075262370262309,0.00075216736829536,-0.00075173329497494,0.00075060161916651,-0.00079623615780929,0.00079556326217514,-0.00079589714758552,0.00079647738450252,-0.00079618167056082,0.0007952782327025,-0.0007964238453267,0.00079677352016985,-0.00075834186216679,0.00075622336424988,-0.00076099943339299,0.00076256231270961,-0.00075213861005098,0.00075293518298616,-0.00074878211194763,0.0007489033971453,-0.00075724039087088,0.0007553529957691,1.3273845123596e-06,4.7334283096574e-06,-0.00062048385904608,0.0006205972303328,1.0670476701375e-06,-8.1421949063082e-07,-0.00063594444652576,0.00063655904079195,-0.00064456131683713,0.00063073702891821,-0.00064575884803095,0.00064319523670423,-0.00064073916128554,0.00066849894656063,-0.00063410644035094,0.00063840480622093,-0.00064271835487333,0.00063257775960137,-0.00064391889719292,0.00064503894059087,-0.00065731782193677,0.00065811818231771,-0.00065794434524867,0.00065749054746808,-0.00065733092679443,0.00065597837050851,-0.00065795870668814,0.00065535197358065,-0.00064291882842751,0.00065205988248279,-0.00063926221622742,0.00064123395278602,-0.00063863686467342,0.00064186258821838,-0.00064229061786194,0.00065268562823466,-0.00064258372189877,0.00066665979950557,0.69163756941875,122718,2924,0.0022701056801657,0.0032393872916371,0.0025822655317037,14.81100183063,3.3688014645041e-05,3.3688014645041e-05,3.3688014645041e-05,3649110.6668437,0.0081246513779329
23391759,0.59404633365457,0.0089080363374878,0.0026298746386783,0.0033914579414508,0.0028867037573587,-0.00058501966298802,0.00058246850463254,-5.2434665234847e-06,-2.2184165689197e-06,-7.1874828655372e-07,-3.0181191196197e-07,-0.00035799841507263,0.00034871022292261,-0.00061828578827815,0.00061601148498161,-0.00061670770237437,0.00062314640468507,-0.00036358503981646,0.00034832173468302,-0.00035839981751252,0.00034830406189624,-0.00061868741769954,0.00061559984042201,-0.0006171093399455,0.00062273470624728,-0.00066751022921983,0.00066436855412403,-0.0006660523688481,0.00066759651012094,-0.00066737443991046,0.00066450917793525,-0.00066591655849104,0.00066773713479775,-0.00056966666134756,0.00055966307165361,-0.00056527074805843,0.0005574892232148,-0.00056980319131499,0.00055952455730417,-0.00056540733475981,0.00055735076685031,-0.00036318367562068,0.00034872800233051,1.0342037111136e-07,-3.0299816129984e-07,-1.208166946909e-06,1.014851331403e-06,-0.00085199409348747,0.00085180020309478,-0.00082583985302466,0.00082796076148075,-0.00082114891816532,0.00082060804947971,-0.00082006242762019,0.00081872403570856,-0.0008724658238931,0.00087166920936157,-0.00087205963608795,0.00087274497308193,-0.00087239741222641,0.00087132857332385,-0.00087267384981398,0.00087308693267772,-0.00082828018488478,0.00082577429841023,-0.00083140301557482,0.00083325088715562,-0.00082058216957339,0.00082152296150198,-0.00081662254291412,0.000816765890807,-0.00082699938529976,0.00082476637446402,1.5809009814404e-06,5.5122357670892e-06,-0.00066622221384399,0.00066635803928355,1.2566000246959e-06,-9.6850334120053e-07,-0.00068296697699966,0.00068372467702238,-0.00069394231122852,0.0006777974937667,-0.00069530942162584,0.00069229348971782,-0.0006886296840731,0.00072112052192699,-0.00068079300484585,0.00068590779367947,-0.00069176249846849,0.00067997459983191,-0.00069313316462861,0.00069447409940416,-0.00070877891616879,0.00070973399294835,-0.00070951995575593,0.00070899166910141,-0.00070882390749337,0.00070723190243355,-0.00070956643536637,0.00070649104141102,-0.00069249374665174,0.00070322150040513,-0.00068810243116996,0.00069044747362925,-0.00068736279003907,0.00069119099077503,-0.00069175071048267,0.00070396158042673,-0.00069081142556277,0.00071894526175328,0.66282300645257,122718,2924,0.0024296849517898,0.0035430457125368,0.0027723906132086,15.635021878728,4.0280175029827e-05,4.0280175029827e-05,4.0280175029827e-05,3749175.1054033,0.0087835551056493
24391759,0.646713967836,0.0096687446951069,0.0028328443126044,0.003716743863907,0.0031191565185955,-0.0006317174289599,0.00062865831426364,-6.1947108505745e-06,-2.640037178113e-06,-8.5720869729062e-07,-3.6051271772287e-07,-0.00037551215845981,0.00036460282157997,-0.0006709776284944,0.00066825673597608,-0.00066908914384186,0.00067657316240771,-0.00038218608232551,0.00036430258922187,-0.00037599028841654,0.00036411922052749,-0.00067145614074767,0.0006677664506174,-0.00066956765014447,0.00067608279128167,-0.00072467404858728,0.00072089561626814,-0.00072295043275546,0.00072469101981635,-0.0007245122732383,0.00072106312280786,-0.00072278863815749,0.00072485853498456,-0.00061336827794251,0.00060151944774149,-0.00060818034112647,0.00059896436927121,-0.00061353090584787,0.00060135450366966,-0.00060834302826938,0.00059879948572816,-0.00038170797944937,0.00036478630105293,1.2233067078583e-07,-3.6153980708215e-07,-1.4321193729064e-06,1.2003612539769e-06,-0.00093816759766741,0.00093793516799803,-0.00090834472755853,0.00091085436077325,-0.00090203466013623,0.00090139386915642,-0.00090071500540794,0.00089912470764006,-0.0009617664284941,0.00096082118466242,-0.00096127852085332,0.00096208813087153,-0.00096168058138953,0.00096041124581708,-0.00096199781820615,0.00096248329848953,-0.00091123265595558,0.00090826147732726,-0.00091493752979728,0.00091712211155358,-0.00090137040256652,0.0009024840872583,-0.00089672077470992,0.00089688506730396,-0.00090974325215391,0.00090709690083725,1.8759415404897e-06,6.4313665810715e-06,-0.00072034118025928,0.00072050194024852,1.4803695959103e-06,-1.1549393614408e-06,-0.00073950642049184,0.00074042237569344,-0.00075312999437046,0.00073424649366217,-0.00075470240108423,0.00075114758548512,-0.0007461455224534,0.00078415585887267,-0.00073693169204196,0.00074300801700589,-0.00075054830678106,0.00073682488794337,-0.00075212495166182,0.00075373014504306,-0.00076883882198986,0.00076997659725331,-0.00076971646952671,0.00076909744731554,-0.00076891577282754,0.00076704401190038,-0.00076979520038516,0.0007661666069103,-0.00075147362501368,0.00076410191010712,-0.00074623119933994,0.00074900643807661,-0.00074535524085008,0.00074988702487891,-0.00075059359449843,0.0007649783672128,-0.0007487295522892,0.00078157963766561,0.69344629843763,122718,2924,0.0026228139699774,0.0039006153905247,0.0029973048662658,17.85840464196,5.8067237135683e-05,5.8067237135683e-05,5.8067237135683e-05,3856701.5669696,0.0095663037348169
25391759,0.70123665104879,0.010532977066005,0.0030625249394697,0.0040893729027439,0.0033810792237911,-0.0006817899475907,0.00067805372945099,-7.4881805312953e-06,-3.2244088826948e-06,-1.0406154598182e-06,-4.113950480202e-07,-0.00038611433254733,0.00037284892900248,-0.00072806557234919,0.00072480122095408,-0.0007257468986611,0.00073477804521744,-0.00039432373938274,0.0003727886423536,-0.00038672016310677,0.00037223665797998,-0.00072867193202702,0.00072418035742919,-0.00072635323625016,0.00073415705602936,-0.000787997467405,0.00078336837301002,-0.00078591080980423,0.00078787977099929,-0.00078779260006489,0.00078358047393626,-0.00078570592481466,0.00078809189653692,-0.00066069159905532,0.0006463622576126,-0.00065442510521367,0.00064324194373823,-0.0006608976230867,0.00064615341045222,-0.00065463119487212,0.00064303316317693,-0.00039371792972679,0.00037340103788011,1.590741676758e-07,-4.5373320242917e-07,-1.7183692806251e-06,1.4330974238374e-06,-0.0010372861995736,0.0010370000735916,-0.0010040532671108,0.0010070611892293,-0.00099680499678624,0.00099606283599816,-0.00099519557138548,0.00099325062516777,-0.0010623026019127,0.001061174571389,-0.0010617143569773,0.0010626870273818,-0.0010622074210116,0.0010606688503304,-0.0010625549283427,0.0010631170057043,-0.0010075359832724,0.0010039599598508,-0.0010120293409089,0.0010146256235011,-0.00099602726338778,0.00099738529530935,-0.00099033845299688,0.00099049387643548,-0.0010057339646745,0.0010025692612184,2.2955603483785e-06,7.6522180349513e-06,-0.00077807792484695,0.00077830995307601,1.7806328890195e-06,-1.3747743122594e-06,-0.00080018208962021,0.00080139300388038,-0.00081710021395031,0.00079456343375841,-0.00081890576583182,0.00081469090155756,-0.0008083906207663,0.00085405448169537,-0.00079709939714651,0.00080448925795109,-0.00081400895635071,0.00079765059507888,-0.00081581979911342,0.00081778324313318,-0.00083395979890462,0.00083536116125536,-0.00083501057460587,0.00083430847084623,-0.00083413110267831,0.0008318876042844,-0.00083518412492981,0.00083083711077341,-0.00081684744252407,0.00083198668747192,-0.00081032021721341,0.00081372477083278,-0.00080927153463092,0.00081477926004337,-0.00081579362118769,0.00083303595570932,-0.00081148493426345,0.00085097000993699,0.76207065498803,122718,2924,0.0028296281474902,0.0043116953010099,0.0032373018502149,19.840271748909,7.3922173991269e-05,7.3922173991269e-05,7.3922173991269e-05,3897022.8728056,0.010432803863896
26391759,0.75119065827563,0.011388049094333,0.0032904636240476,0.0044608668214757,0.0036367186488093,-0.00072678463415778,0.00072228603404468,-8.9882403521482e-06,-3.898267177068e-06,-1.2474638106086e-06,-4.4815648529417e-07,-0.00038795925322341,0.00037181781160397,-0.00077984558966149,0.00077600888213623,-0.00077701358842744,0.00078799329860371,-0.00039801715004462,0.00037220826296561,-0.00038872912169255,0.00037104048688999,-0.00078061612498054,0.00077522050605699,-0.00077778407980919,0.00078720474489929,-0.00084747410404264,0.00084187535742439,-0.00084496176216393,0.00084716611617972,-0.00084721403023829,0.00084214464887239,-0.00084470167179346,0.00084743544669962,-0.00070312532941816,0.00068593591125027,-0.0006955963295669,0.00068213073081734,-0.00070338707600753,0.00068567074206503,-0.00069585815570877,0.00068186563842766,-0.00039724729746322,0.00037298574025532,2.0889365654836e-07,-5.693866183838e-07,-2.037657370364e-06,1.6890239332485e-06,-0.0011348168775272,0.0011344671408571,-0.0010980973309889,0.0011016610953755,-0.0010908818905244,0.0010900453571142,-0.0010889255234573,0.0010865610229694,-0.0011603087748317,0.0011589817281608,-0.0011596091766288,0.0011607660962982,-0.0011602163105808,0.0011583677552001,-0.0011605684464194,0.0011612037713139,-0.0011022409976688,0.0010979829993739,-0.0011075483541372,0.0011105893732532,-0.0010899873472915,0.0010916340790272,-0.0010829774598353,0.0010830965007466,-0.0011000750307618,0.0010963393343329,2.800758368154e-06,9.0463929829406e-06,-0.00082888725490695,0.00082922732431374,2.1272495172993e-06,-1.6048688116979e-06,-0.00085299778582871,0.00085461847377181,-0.00087446572199604,0.00084781508097698,-0.00087650097318973,0.00087157264676285,-0.00086317138033008,0.00091764206080199,-0.00084935192559702,0.00085828109205586,-0.00087080941183156,0.00085146635646044,-0.00087285125753045,0.0008752303474816,-0.00089330288165193,0.00089501844979906,-0.00089454558835697,0.00089377330292962,-0.00089361474398071,0.00089093300628676,-0.00089486027511916,0.00088969061602152,-0.00087630042919055,0.00089433398269248,-0.00086819776275659,0.0008723734730586,-0.00086695760963924,0.00087362084080052,-0.00087505382933051,0.00089557479197369,-0.00086683168144513,0.00091399411811069,0.82335182229769,122718,2924,0.0030151669997526,0.0047159681202934,0.003448567234645,20.413395188853,7.8507161510824e-05,7.8507161510824e-05,7.8507161510824e-05,3883693.9353821,0.011242604458371
27391759,0.7989674470909,0.012126899594531,0.0034898288265361,0.0047833212505957,0.0038537495173986,-0.00076624722070652,0.00076101094796458,-1.0481916162505e-05,-4.5569846017445e-06,-1.4633526346691e-06,-4.9959521761166e-07,-0.00038833799418635,0.00036919719984884,-0.00082433562153049,0.00081992355552626,-0.00082098011778277,0.00083401062474057,-0.0004002694035954,0.00037022743244725,-0.00038926657332842,0.0003682604093505,-0.00082526509832797,0.0008189732601137,-0.00082190952058471,0.0008330600852676,-0.00090142013949194,0.00089485110340214,-0.00089848011944476,0.00090096796592303,-0.00090110669824526,0.00089517571150852,-0.00089816666258312,0.00090129262849892,-0.0007389188218059,0.00071888170998705,-0.00073012636193822,0.00071446875898778,-0.00073923447712878,0.00071856209285745,-0.0007304421172392,0.00071414923555946,-0.00039934083841308,0.0003711644076581,2.5508037798722e-07,-6.8297042459649e-07,-2.3543230756517e-06,1.9406598963605e-06,-0.0012237052947818,0.0012232903172864,-0.0011813689188135,0.0011854781658771,-0.0011755199326599,0.0011745841606428,-0.0011731917344179,0.0011704140345612,-0.0012520063187521,0.0012504789771072,-0.0012511926032139,0.00125252789199,-0.0012519211011986,0.0012497651740907,-0.0012522708163612,0.0012529774013264,-0.0011861191460692,0.0011811861893275,-0.0011919550227422,0.0011954342941351,-0.0011745140814317,0.0011764399737441,-0.0011661307742867,0.001166215132178,-0.0011836356100773,0.0011793320473935,3.3080748157938e-06,1.0428778478735e-05,-0.00087098862217558,0.00087143879363624,2.4744874524993e-06,-1.8277055735359e-06,-0.00089437437099541,0.00089641224217766,-0.00092242593902636,0.00089187122924612,-0.00092467889830863,0.00091904128099368,-0.00090646696046471,0.00096933361031589,-0.00089017180551831,0.00090063456222654,-0.00091821112157899,0.00089608006552882,-0.00092047189443783,0.0009232576940606,-0.00094515492198668,0.00094718039161398,-0.00094658739636339,0.00094574503530064,-0.00094558148339085,0.00094244792390896,-0.00094701731991376,0.00094101584207974,-0.0009246429057501,0.00094552282204262,-0.0009150454260244,0.00091999678837524,-0.00091361598710956,0.00092143476959541,-0.00092320578289932,0.00094695297169026,-0.0009106866347744,0.00096512871698042,0.74366212196709,122718,2924,0.0031777517899031,0.0050842371018145,0.0036236552215247,22.218671596212,9.2949372769696e-05,9.2949372769696e-05,9.2949372769696e-05,3815308.1627268,0.011956778327568
28391759,0.84141560178972,0.012873989270502,0.0036939351460403,0.0051071687739858,0.0040728853504764,-0.00080775627850453,0.00080184310540575,-1.1787199287091e-05,-5.1408328436695e-06,-1.6519936142881e-06,-5.5436881619069e-07,-0.00040139756767691,0.0003799723644993,-0.00087332287351583,0.00086836943321062,-0.00086951183394194,0.00088415258475763,-0.0004149352651839,0.00038133623313396,-0.00040245514069129,0.000378905795631,-0.00087438163854858,0.0008672872639219,-0.00087057048934689,0.00088307010910266,-0.00095340866583549,0.00094593730177685,-0.00095010124116426,0.00095280627355773,-0.00095305155595389,0.00094630700451642,-0.00094974411807987,0.0009531760451075,-0.00077748718262065,0.00075491501568417,-0.00076760856299144,0.00074994411690896,-0.00077784672386713,0.00075455108288213,-0.00076796822577868,0.00074958029200763,-0.0004138776994419,0.00038240301565096,2.8584610458119e-07,-7.8176376273494e-07,-2.6468487495819e-06,2.1671881134855e-06,-0.0013095753415304,0.0013090942090332,-0.0012625175094118,0.001267112956799,-0.001256527029116,0.001255477836433,-0.0012538154588393,0.0012506699574633,-0.0013408482389099,0.0013391259027998,-0.0013399245461335,0.001341410650106,-0.0013407475999943,0.0013383099982501,-0.0013411015111493,0.0013418722030548,-0.0012678185119819,0.0012622679106697,-0.0012741904844141,0.0012780689913875,-0.0012554102437991,0.0012575682809331,-0.0012459234276346,0.0012459856785366,-0.001265083128379,0.0012602487460434,3.7313376364699e-06,1.1664306531361e-05,-0.00091468170015649,0.00091521960615697,2.7793091569448e-06,-2.0438119899414e-06,-0.00094181944910506,0.00094415769753389,-0.00097386848350696,0.00093991019358883,-0.00097635382776587,0.00097004781566783,-0.0009552807548888,0.001025107351236,-0.00093710820201038,0.00094889143861317,-0.00096914329676213,0.00094462846877639,-0.00097163750984267,0.00097477465484582,-0.00099518043505363,0.00099745859593399,-0.000996786357029,0.00099584953410982,-0.00099565380090908,0.00099212737654017,-0.00099726351363562,0.0009905219997564,-0.00097426635632055,0.0009978757571,-0.00096347190823201,0.000969056344023,-0.00096186946585964,0.00097066837989847,-0.00097265521667816,0.00099947892119043,-0.00096001149875124,0.0010203935074358,0.84556057744222,122718,2924,0.003348901090369,0.0054398698369886,0.0038052672874709,23.417035582701,0.00010253628466161,0.00010253628466161,0.00010253628466161,3857578.1071158,0.012673935068941
29391759,0.87811215780031,0.013364910822188,0.0038289672709797,0.0053217323557499,0.004214211195458,-0.00082963115471358,0.00082300893974635,-1.3321094817301e-05,-5.8036079528683e-06,-1.8918866770937e-06,-6.2122525861845e-07,-0.00038462054909887,0.00035956616839408,-0.00089702497699571,0.00089148367502601,-0.00089265693413639,0.00090967834285924,-0.00040015389741482,0.00036206677355708,-0.00038584576034102,0.00035833190014019,-0.00089825150733622,0.00089023141735572,-0.00089388332820339,0.00090842572122935,-0.00098964578314983,0.00098122812404116,-0.00098588546800025,0.00098899939941306,-0.00098923246279231,0.00098165592188283,-0.00098547213348979,0.00098942727728728,-0.00079609424222593,0.00077064109673692,-0.00078489536609801,0.0007651633832429,-0.00079651064365152,0.00077021986047444,-0.00078531191935542,0.00076474228799843,-0.0003989287164607,0.00036330131519993,3.4061640997125e-07,-8.9559582610125e-07,-2.93255951684e-06,2.395992068112e-06,-0.0013735737319499,0.0013730355215921,-0.0013204307429122,0.0013255299464036,-0.0013186669091993,0.0013175537670151,-0.0013156440647545,0.0013121030076494,-0.0014071435528645,0.0014052498925682,-0.0014061164456422,0.0014077740133006,-0.0014070817176807,0.0014043596983614,-0.0014073983458363,0.001408227362355,-0.0013262767956688,0.0013201091145482,-0.0013329931216688,0.0013372624020978,-0.0013174703566775,0.0013199068392218,-0.001306439548456,0.0013064487894859,-0.001323221143273,0.0013178825009041,4.2907184682537e-06,1.3007126982389e-05,-0.00093392280934662,0.00093461843064501,3.1256088130056e-06,-2.2141159347652e-06,-0.0009560834149242,0.00095899887514128,-0.00099704982639312,0.00095930368552497,-0.00099968909452162,0.00099278978678398,-0.00097188376314035,0.0010503831195767,-0.00095086735700924,0.00096423953481716,-0.00099181864403515,0.00096452725088101,-0.00099446773104226,0.00099802278493662,-0.0010256117251867,0.0010282417663646,-0.001027389626865,0.0010264603086481,-0.0010262310383372,0.0010222507345747,-0.0010280132032596,0.0010204734135705,-0.00099858563778102,0.0010247114380354,-0.0009862084934741,0.00099267946541367,-0.00098443449428476,0.00099446423219141,-0.00099680185705533,0.0010264861920492,-0.00097712133488226,0.0010451644775889,0.64299206939106,122718,2924,0.0034384900695877,0.005704750947439,0.0038855442391897,24.738669946701,0.00011310935957361,0.00011310935957361,0.00011310935957361,3642965.9819577,0.013114338873492
30391759,0.90878126577567,0.013720891387066,0.003929229147191,0.0054751824380969,0.0043164798017781,-0.00084981391198373,0.00084291327008472,-1.3808399617369e-05,-5.9915694249321e-06,-1.9803830208885e-06,-7.0760027563019e-07,-0.00040279645993642,0.00037743804689234,-0.00092195094758805,0.00091609312442648,-0.00091741187582691,0.00093472168326517,-0.00041883871261019,0.00037975390756464,-0.00040402330850994,0.00037620178446444,-0.00092317959531063,0.00091483855404452,-0.00091864034954441,0.0009334667080755,-0.0010135955569559,0.0010047295794092,-0.001009707706635,0.001012929467019,-0.0010131812409617,0.001005158317766,-0.0010092933798719,0.0010133582935785,-0.00081211879214402,0.00078561523243294,-0.00080053848459809,0.00078009279488908,-0.00081253592188802,0.00078519327998443,-0.00080095578328555,0.00077967098697869,-0.00041761187755941,0.00038099045652402,3.2033449536914e-07,-9.1679559182425e-07,-3.068552607115e-06,2.4906532288126e-06,-0.0014146396073709,0.0014140601590596,-0.0013549049199602,0.0013601892209841,-0.0013528382538759,0.0013516070446278,-0.0013495860330934,0.0013459258320086,-0.0014560716554683,0.0014540603135339,-0.0014549808984862,0.0014566745486552,-0.0014559707133129,0.0014531308064747,-0.0014563198913143,0.0014571847707132,-0.0013609007493613,0.0013544655092025,-0.0013673802752318,0.0013718340773874,-0.0013515787907379,0.0013540508353587,-0.0013404311831503,0.0013404749790922,-0.0013578804129741,0.0013522747219311,4.4078103027988e-06,1.353562989961e-05,-0.00095454795633358,0.00095524439680299,3.2487214148177e-06,-2.3228835613687e-06,-0.00098131205570386,0.00098420191293854,-0.0010233811732393,0.00098469500874549,-0.0010261912758418,0.001018935109852,-0.00099688234233264,0.0010767400365059,-0.00097586969680063,0.00098966975564814,-0.0010179229145537,0.00099014516502423,-0.0010207430155551,0.0010243948619402,-0.0010482045119176,0.0010508770832288,-0.0010500597811242,0.0010490184995542,-0.0010486795912078,0.0010445245873973,-0.0010505391268503,0.0010426701405175,-0.0010185676054058,0.0010460781875504,-0.0010061075123879,0.0010127315420716,-0.0010042563713694,0.0010145934805166,-0.0010167066086215,0.0010479300446142,-0.0010023468676715,0.0010712949165361,0.55654009761524,122718,2924,0.0035217449543741,0.0058747368891924,0.0039711699243567,26.078675534381,0.00012382940427505,0.00012382940427505,0.00012382940427505,3726686.6698948,0.013457710289695
31391759,0.93460453248171,0.014093287349724,0.004033071074137,0.005635357858491,0.0044248584170957,-0.00087199323919925,0.00086460384390753,-1.4735734480621e-05,-6.4469427326007e-06,-2.1380575763716e-06,-7.7426615119149e-07,-0.00040596188994934,0.00037857689561823,-0.00094789262445104,0.00094162198475673,-0.00094303498632769,0.00096156179276933,-0.00042311989584833,0.00038145882905314,-0.00040727689927962,0.00037725242689903,-0.00094920954134325,0.00094027799099771,-0.00094435172063091,0.00096021736624652,-0.0010422585169857,0.0010327605690552,-0.0010381106654214,0.0010415355387522,-0.0010418143514279,0.0010332198891214,-0.0010376664863169,0.0010419949545967,-0.00083284946912301,0.0008045567044146,-0.00082051650399975,0.00079867877391412,-0.00083329656987726,0.00080410460896434,-0.0008209637895442,0.00079822683893673,-0.00042180492007418,0.00038278362171655,3.4313431680378e-07,-9.8261943795861e-07,-3.2402810647562e-06,2.6203738881668e-06,-0.0014624281134931,0.0014618065948818,-0.0013993883056244,0.0014049556917233,-0.0013990103050565,0.00139772295218,-0.0013955376680807,0.0013916472673475,-0.0015052934172424,0.0015031695992567,-0.0015041361786061,0.0015059181638066,-0.001505191793429,0.0015021801121073,-0.0015055236004404,0.0015064174903179,-0.0014057112262797,0.0013989091436042,-0.0014125511868305,0.0014172287540688,-0.0013976960396446,0.0014003125418986,-0.0013857147583041,0.0013857290564838,-0.001402519483684,0.0013966061642502,4.7142941578211e-06,1.4339995718955e-05,-0.00097534810802667,0.00097615106561798,3.4477687968799e-06,-2.4266497662849e-06,-0.0010036899874695,0.0010068751145782,-0.0010487741245312,0.0010079097079635,-0.001051712881914,0.0010440858668495,-0.0010204584803861,0.0011052310165817,-0.00099795166660575,0.0010126399785759,-0.0010430192883568,0.0010136560254301,-0.0010459684973841,0.0010498421860925,-0.0010732177697577,0.001076071661451,-0.0010751738768539,0.0010741121128149,-0.0010737262202178,0.0010693332598786,-0.0010756868066731,0.0010673780479793,-0.0010431041680502,0.0010723026833107,-0.0010297869952231,0.0010368900960197,-0.0010278352331592,0.00103885314583,-0.0010411420514957,0.001074255119522,-0.0010262200000613,0.0010994899654757,0.69215549466537,122718,2924,0.0036129363926687,0.0060724745581429,0.0040577586037327,28.365078060352,0.00014212062448281,0.00014212062448281,0.00014212062448281,3661416.7689446,0.013838384613723
32391759,0.95408336939612,0.014415581363622,0.0041235284400624,0.0057734380614228,0.004518614862137,-0.00088469367260825,0.0008766270299226,-1.6308600797547e-05,-7.092446525746e-06,-2.3736775341839e-06,-7.978961177865e-07,-0.0003789486697643,0.00034738530492206,-0.0009613231273121,0.0009544972838495,-0.00095586757347203,0.00097716073216813,-0.0003983039417438,0.00035177991981252,-0.00038046951960625,0.0003458553296017,-0.00096284565048146,0.00095294514876763,-0.00095738990437773,0.00097560811391384,-0.0010671022310845,0.0010567265794164,-0.0010624648536923,0.0010663570600694,-0.0010665892605155,0.0010572568867709,-0.0010619518652928,0.0010668874719628,-0.00084574916388139,0.0008145761315783,-0.00083200559328718,0.00080812588752384,-0.0008462659543576,0.00081405382717896,-0.00083252260224853,0.00080760379254736,-0.00039678317550179,0.00035331030574872,4.2418836258311e-07,-1.108838209128e-06,-3.494155449688e-06,2.831580745092e-06,-0.0015081812391402,0.0015075167922591,-0.0014439418096959,0.0014499916458253,-0.0014483754285792,0.0014470932712985,-0.0014446765379898,0.0014403830990291,-0.0015469002575876,0.0015446488293083,-0.0015456585162298,0.0015476225813498,-0.001546879876743,0.0015436012412851,-0.0015471351347316,0.0015480717040633,-0.0014508336882026,0.0014434642805142,-0.0014582965763504,0.0014633177626705,-0.0014470151047483,0.0014499459944618,-0.0014332097921644,0.0014331304186844,-0.0014472258921323,0.001440883890754,5.3580093946435e-06,1.5627903876601e-05,-0.00098097191352844,0.0009819826223988,3.7936589840742e-06,-2.5479957084442e-06,-0.0010017191087222,0.001005717297689,-0.0010568069598408,0.0010119019983295,-0.0010598156854101,0.0010517534037393,-0.0010215322288598,0.0011159754969204,-0.0009955237962947,0.0010119407503502,-0.0010505945098831,0.001018105507163,-0.0010536145853376,0.0010579677095439,-0.0010896346669159,0.0010929255914303,-0.0010917462102723,0.001090809989681,-0.0010904142555106,0.0010855707974026,-0.0010925308082112,0.0010834600362918,-0.0010562801914546,0.0010876233353257,-0.0010410614800759,0.0010492185105407,-0.001038954615558,0.0010513379581326,-0.0010541618072277,0.0010897309173647,-0.0010277524254113,0.0011097776567235,0.79325035118638,122718,2924,0.0036645074795741,0.0062616382219046,0.0040816418608879,29.295717419299,0.00014956573935439,0.00014956573935439,0.00014956573935439,3356314.3736871,0.014106767248579
33391759,0.96785610050072,0.01465054499359,0.0041914654749975,0.0058721894340583,0.0045868900845341,-0.00089177556367313,0.00088325447654149,-1.7460396371947e-05,-7.4749685626095e-06,-2.534841596516e-06,-8.2006388707002e-07,-0.00036211736352123,0.0003277985548663,-0.00096984112552602,0.00096257153791949,-0.00096391894535394,0.00098722486860568,-0.00038315314194221,0.00033315906172237,-0.00036377302122553,0.00032613396717962,-0.00097149846128696,0.00096088288730715,-0.00096557605244106,0.00098553567063021,-0.0010824587821454,0.00107142638731,-0.0010774515735782,0.0010817377780479,-0.0010819007736018,0.001072003277963,-0.0010768935477032,0.0010823147824892,-0.00085216924013035,0.00081885901959656,-0.00083735095465999,0.00081209628997677,-0.00085273167928712,0.00081829069992739,-0.00083791364783662,0.0008115282206528,-0.00038149759069081,0.00033482413335404,4.7539018246975e-07,-1.1929301198177e-06,-3.6958981196849e-06,3.0022451037017e-06,-0.0015399264147853,0.0015392307328503,-0.0014737808711638,0.0014802099262294,-0.0014813722012157,0.0014800671551001,-0.0014774720263732,0.0014728892258456,-0.0015773148037985,0.0015749541036632,-0.0015760016281986,0.0015781043879514,-0.0015773571792537,0.001573878236228,-0.00157757039562,0.001578554577547,-0.0014810838505518,0.0014732734573833,-0.0014887074663801,0.0014940172156704,-0.0014799732367021,0.0014831287580998,-0.0014649174886035,0.0014647964255807,-0.0014772150021136,0.0014705225147977,5.848337672456e-06,1.6634137439671e-05,-0.00098115929113387,0.00098229921414647,4.066832892888e-06,-2.6492493579323e-06,-0.0009969306650127,0.0010015250659105,-0.0010599871621595,0.0010121386199233,-0.001063074024646,0.0010546607937904,-0.0010186870360786,0.0011198033266974,-0.00099036920485845,0.001008115902338,-0.001053408031217,0.0010187084565999,-0.0010565068636722,0.0010612419665948,-0.0010978464938393,0.0011014724002598,-0.0011000826519099,0.001099231828801,-0.0010987823576338,0.0010935517523655,-0.0011010238760782,0.0010913163539822,-0.0010611858504903,0.0010942545894796,-0.0010446874984597,0.0010536445082921,-0.0010424563142013,0.0010558891800232,-0.0010589423527442,0.0010964865450399,-0.0010252745753645,0.0011132394099045,0.81381076464073,122718,2924,0.003693126839853,0.0063928469774074,0.0040827895799136,29.275781191109,0.00014940624952887,0.00014940624952887,0.00014940624952887,3149048.8379494,0.014270072308388
34391759,0.97842087554917,0.014812645280056,0.0042392172038497,0.0059395068005921,0.0046339212756146,-0.00090082608553269,0.00089201832878338,-1.8162532970151e-05,-7.7096394155412e-06,-2.6437217037595e-06,-8.5911544287536e-07,-0.00036040367984185,0.0003245894565126,-0.00098062257645978,0.00097304149519154,-0.0009744168885516,0.00099881909303986,-0.00038242741261481,0.00033044394245983,-0.00036212695377296,0.00032285729919055,-0.00098234770819121,0.00097128419099087,-0.00097614175703559,0.00099706118998646,-0.0010960743590826,0.0010846009848769,-0.0010908499949602,0.0010953903103709,-0.0010954937067894,0.0010852013557403,-0.0010902693268451,0.0010959908022904,-0.00085979026085951,0.00082513975227414,-0.00084433827994789,0.00081824457883378,-0.00086037564008799,0.00082454831310772,-0.00084492394160097,0.00081765341636968,-0.00038070425710424,0.00033217663660397,4.9552748753349e-07,-1.240374987178e-06,-3.8310869809929e-06,3.1110986428681e-06,-0.00156496098965,0.0015642389253274,-0.0014960783256926,0.001502742910848,-0.0015057784525149,0.0015044316402417,-0.0015017336260562,0.001496976120859,-0.0016035789582805,0.0016011336552259,-0.0016022129374677,0.0016043936195658,-0.0016036495721986,0.0016000405755793,-0.0016038483189119,0.0016048649431981,-0.0015036091583359,0.0014955108254155,-0.0015111312290353,0.0015166312287718,-0.0015043484856875,0.00150762447812,-0.0014886848549082,0.0014885514243742,-0.0014996343013141,0.0014926990516341,6.1261505249332e-06,1.7282336650417e-05,-0.00098537038229575,0.00098657931649252,4.2392104506152e-06,-2.722399161819e-06,-0.0010002105540279,0.0010051012625966,-0.0010673340388181,0.0010178273601103,-0.0010705016025811,0.0010618246359961,-0.0010228421066104,0.0011275538397691,-0.00099340913041751,0.0010119328980044,-0.0010605144918221,0.001024637326855,-0.0010636943630652,0.0010686462295465,-0.0011063093664181,0.001110116353976,-0.0011086272801767,0.0011077939126091,-0.0011072724984102,0.0011017960734294,-0.0011095959485938,0.0010994789716992,-0.0010674820001046,0.0011017756229829,-0.0010503616108613,0.0010597629603873,-0.0010480488952612,0.00106208964923,-0.0010651565468124,0.0011040891435421,-0.0010296703521609,0.0011207499530739,0.7296115327816,122718,2924,0.0037301791807183,0.0064963387104306,0.004100472666504,31.398393345196,0.00016638714676157,0.00016638714676157,0.00016638714676157,3029683.9507143,0.014430592808177
35391759,0.98681418643893,0.014928631357589,0.0042737010448936,0.0059873113245859,0.0046676189881096,-0.00091432016271564,0.00090537779442683,-1.838193168875e-05,-7.8242123479077e-06,-2.6971322235703e-06,-9.1521686584818e-07,-0.00037498528618779,0.0003389590219413,-0.00099637966482697,0.00098864156598809,-0.00099010169747041,0.0010145855790234,-0.00039721194714262,0.0003448118014054,-0.00037670576397394,0.00033722956551398,-0.00099810228199532,0.00098688679963253,-0.00099182404137961,0.0010128302020994,-0.0011103753414151,0.0010986938333618,-0.0011051046185619,0.0011097097287406,-0.0011097954209557,0.0010992934363187,-0.0011045246783128,0.0011103094508914,-0.00087151395113593,0.0008363842524108,-0.00085592304473238,0.00082947539571554,-0.0008720984737531,0.00083579369373371,-0.00085650787468267,0.00082888513071833,-0.00039549160133867,0.00034654183044869,4.8337845506103e-07,-1.2492931186245e-06,-3.8885714585403e-06,3.1475283802232e-06,-0.0015860813016741,0.001585338244107,-0.0015141564935702,0.0015208910580663,-0.0015245704821025,0.0015231677951499,-0.001520435377248,0.001515628735445,-0.0016278559608226,0.0016253573630081,-0.0016264605956722,0.0016286506082954,-0.0016279119423643,0.0016242519469524,-0.001628123318039,0.0016291515624456,-0.0015217260349831,0.0015135157046122,-0.0015290336485838,0.001534605813259,-0.0015231174202759,0.0015264000739146,-0.0015074725560068,0.0015073525621745,-0.0015177927725492,0.0015107433059819,6.164204362876e-06,1.7552486621724e-05,-0.00099748484169976,0.00099870959430451,4.2970417291805e-06,-2.7592372448211e-06,-0.0010159923032662,0.0010208490956979,-0.0010826942972544,0.0010328699515911,-0.0010859448483127,0.001077106269303,-0.0010384473668842,0.0011436831493416,-0.0010090986013733,0.0010277733974367,-0.0010757820962436,0.0010397723645878,-0.0010790450013544,0.0010840203488335,-0.0011183638816757,0.0011221766815321,-0.0011207133814894,0.0011198227865282,-0.0011192260440467,0.0011136805661951,-0.0011215810668527,0.0011113319976681,-0.0010795345706533,0.0011145367008342,-0.0010624569925533,0.0010719024301147,-0.0010601128134115,0.0010742605854453,-0.001077177638094,0.001116881674929,-0.0010453681584622,0.0011367869027836,0.65593630488581,122718,2924,0.0037859108752358,0.0065837046129623,0.004150788065801,35.851114312918,0.00020200891450334,0.00020200891450334,0.00020200891450334,3014200.8274414,0.014626816492747
36391759,0.99225471844963,0.015007394815775,0.0042970964774212,0.0060196817137374,0.0046906166246166,-0.00092135198089591,0.00091230152034168,-1.8533377375154e-05,-7.9284942216978e-06,-2.7391470476144e-06,-9.5723819503284e-07,-0.00038153281886416,0.00034522907858985,-0.0010047518023679,0.00099690405132974,-0.00099843434643034,0.0010229837358785,-0.00040386912313884,0.00035114932528032,-0.00038325334996711,0.00034349957855818,-0.0010064745576848,0.00099514929713054,-0.0010001568152043,0.0010212283578748,-0.0011178434793726,0.0011060209290182,-0.0011125416634804,0.0011171809781362,-0.0011172633697082,0.0011066205654162,-0.0011119615380165,0.0011177807386417,-0.00087780175848086,0.00084234820675866,-0.00086212258828269,0.00083540832933258,-0.0008783863553858,0.00084175763415738,-0.00086270749064683,0.00083481804584073,-0.00040214871718586,0.00035287939989532,4.7723043994673e-07,-1.2553830837616e-06,-3.9181123402303e-06,3.1647148666005e-06,-0.0015976906261626,0.0015969352537864,-0.0015241791991536,0.0015309471802655,-0.001535090276625,0.0015336595191836,-0.0015309106751912,0.0015260763151215,-0.0016409463252484,0.0016384197809144,-0.0016395342627949,0.0016417274393237,-0.0016409899861504,0.0016373022783173,-0.0016412028253065,0.0016422344634642,-0.0015317758301745,0.0015235073819597,-0.0015390661834049,0.0015446718775549,-0.0015336232823982,0.0015369089707943,-0.0015179490138879,0.0015178324263449,-0.0015278553632591,0.0015207476486767,6.1880367336695e-06,1.7693509382743e-05,-0.0010040350136171,0.0010052784844759,4.3266613825744e-06,-2.7766697684103e-06,-0.0010247045031919,0.0010295543948108,-0.0010910085526865,0.0010409770136838,-0.0010943042415772,0.001085381365217,-0.0010471615016821,0.0011528715706547,-0.0010177647608436,0.0010365247226143,-0.0010840503016253,0.0010479254199012,-0.0010873583081694,0.0010923413976451,-0.0011246570989458,0.001128470701332,-0.0011270223025212,0.0011261011972846,-0.0011254661801984,0.0011198943140358,-0.001127836870458,0.0011175301003039,-0.001086281676793,0.0011216601406084,-0.0010691882384847,0.0010786643411844,-0.0010668283649176,0.0010810380905762,-0.0010839091166525,0.0011240207743344,-0.001054128317352,0.0011459292996221,0.68699515304475,122718,2924,0.0038148806902746,0.006631721542761,0.0041780105749829,37.529917595317,0.00021543934076254,0.00021543934076254,0.00021543934076254,3016291.1663409,0.014732558979543
37391759,0.99546589180106,0.015053415349128,0.0043107624850181,0.0060386005317621,0.0047040523323474,-0.00092272386543158,0.00091350119082588,-1.8955651861118e-05,-8.0950627801459e-06,-2.8059479908708e-06,-9.6693820618607e-07,-0.00037269050991064,0.00033508825959526,-0.0010056015375977,0.00099758975198283,-0.00099911928333111,0.0010244986043181,-0.00039563522834753,0.00034155083882068,-0.0003744667164536,0.00033330337155711,-0.0010073798045695,0.00099577904149788,-0.0010008972606727,0.001022687254558,-0.0011220804423925,0.0011100350768316,-0.0011166398994912,0.0011214302934082,-0.0011214817627702,0.0011106537781499,-0.0011160412021132,0.0011220491197717,-0.00087956360492593,0.00084334628624812,-0.0008634916169114,0.00083627266718114,-0.00088016702030428,0.00084273678505113,-0.00086409535053742,0.00083566347474152,-0.00039385916556293,0.00034333633256973,5.0176170742476e-07,-1.2869426795587e-06,-3.9750753522982e-06,3.2151811595104e-06,-0.0016053934151835,0.0016046314805791,-0.0015319943178112,0.0015388797721099,-0.0015443456396435,0.0015429277262653,-0.0015401318428295,0.0015351997744792,-0.0016470808289961,0.0016445308552118,-0.0016456498347023,0.0016478910939552,-0.0016471533893439,0.001643404578233,-0.0016473388624538,0.0016483808899488,-0.0015397351079723,0.0015313362611383,-0.0015472294096018,0.0015529150795961,-0.001542873821726,0.0015462436762737,-0.0015266609852842,0.0015265180615315,-0.001535691824129,0.0015284911537578,6.3748458652528e-06,1.7992226262358e-05,-0.0010022226691488,0.0010035241657464,4.4129719919953e-06,-2.7983633073284e-06,-0.0010190969957091,0.001024214346703,-0.0010889892043219,0.0010378791235827,-0.0010922877083553,0.0010832884097108,-0.0010425133264828,0.0011509027769458,-0.0010120513562603,0.0010312905455202,-0.0010819252197896,0.001044933281125,-0.001085236162067,0.0010903542816369,-0.0011260912039285,0.0011300338813161,-0.0011284923459261,0.0011276282854406,-0.0011269921624377,0.0011213025988131,-0.0011293988956526,0.0011189023899548,-0.001086215043611,0.001121994402239,-0.0010685681732414,0.0010783568531932,-0.0010661723899106,0.0010807667356029,-0.0010838063691306,0.0011243909350748,-0.001049586142887,0.0011438547766968,0.68009907945379,122718,2924,0.0038202864727092,0.0066635286534427,0.0041706525222597,37.635794683195,0.00021628635746556,0.00021628635746556,0.00021628635746556,2925663.7896971,0.014762874496624
38391759,0.99732004499402,0.015081470254476,0.0043191486778419,0.0060500524128684,0.0047122691637657,-0.00092242787202577,0.00091314530678738,-1.9116556054038e-05,-8.1307472252911e-06,-2.8271455920908e-06,-9.7542105991331e-07,-0.00036989483837961,0.0003319825210519,-0.0010056456371818,0.00099755833587832,-0.00099909375465527,0.0010247223030628,-0.00039307871008308,0.0003385361158856,-0.0003716833339688,0.00033018537349348,-0.0010074362396115,0.00099573514850835,-0.0010008840545792,0.0010228984600609,-0.0011228100788356,0.0011106681268025,-0.0011173154009365,0.0011221674610203,-0.0011222072721781,0.0011112911002002,-0.0011167125793672,0.0011227905633441,-0.00087906865500432,0.00084254588033867,-0.00086283846001246,0.00083545652328542,-0.00087967624466392,0.00084193217563456,-0.00086344637021753,0.00083484312904161,-0.00039129035726364,0.00034033387884857,5.0554654683066e-07,-1.2954183639793e-06,-4.004163327567e-06,3.2397602138559e-06,-0.0016084169427746,0.0016076504901262,-0.0015345713408344,0.0015415090035322,-0.0015473799967095,0.0015459516683632,-0.001543132195734,0.0015381655815112,-0.0016501809677654,0.00164761281342,-0.0016487386915718,0.0016509974822591,-0.0016502611077099,0.0016464858406131,-0.0016504428942366,0.0016514941701556,-0.0015423619558382,0.0015339019319011,-0.001549827829655,0.0015555574888459,-0.0015459025141707,0.001549297608263,-0.0015295426385428,0.0015294008483426,-0.0015382940113899,0.0015310403587431,6.4473623815452e-06,1.8131473572983e-05,-0.0010007445345383,0.0010020625100232,4.4527648974992e-06,-2.8125937241929e-06,-0.00101722099634,0.0010224262822722,-0.0010881543090466,0.0010366635512728,-0.0010914630503725,0.0010824156034896,-0.0010408633703484,0.0011500529928378,-0.0010101225072699,0.001029555468674,-0.0010810374203823,0.0010437705638066,-0.0010843586605095,0.0010895343796597,-0.0011256258816763,0.0011296179215457,-0.0011280450108645,0.0011271943148332,-0.0011265415598871,0.00112079277701,-0.0011289663134701,0.0011183745885945,-0.0010853056071454,0.0011213322440232,-0.0010674978979805,0.0010774062728217,-0.0010650841622822,0.0010798341971048,-0.0010828789023176,0.001123746734362,-0.0010479891586666,0.0011429521464192,0.71704436579938,122718,2924,0.0038189519710191,0.0066760102335447,0.0041645700262785,37.194807562811,0.00021275846050249,0.00021275846050249,0.00021275846050249,2899534.4703618,0.014768019380337
38880000,0.99799694658937,0.0150920965529,0.00432232993415,0.0060543804129276,0.0047153862058228,-0.00092218956901954,0.0009128379665474,-1.9325311783701e-05,-8.1935614836588e-06,-2.8543924193215e-06,-9.7038373814072e-07,-0.00036460278031558,0.00032605846122079,-0.001005000305579,0.00099684238876214,-0.00099835881721706,0.0010244450539066,-0.00038812249374014,0.00033288241384618,-0.00036642271345557,0.00032423001043521,-0.0010068222576409,0.00099498753562158,-0.001000180464506,0.0010225895360509,-0.0011240427784534,0.001111801821483,-0.0011184748455546,0.0011234109037151,-0.0011234295372162,0.0011124355761892,-0.0011178615874954,0.0011240447867041,-0.00087908660341134,0.00084219383485438,-0.00086264684126519,0.00083504540226755,-0.0008797048059067,0.00084156943342488,-0.00086326537486151,0.00083442132520865,-0.00038630271605296,0.00033471150188744,5.2040640891914e-07,-1.312194712377e-06,-4.0338480632253e-06,3.267895204672e-06,-0.0016110490838044,0.0016102810381567,-0.0015374597571937,0.0015444630957079,-0.0015509282959927,0.0015495102307194,-0.0015466649951365,0.0015416462409288,-0.0016518341780447,0.00164925588099,-0.0016503832035483,0.0016526703404146,-0.0016519343828043,0.0016481276735998,-0.0016521027898431,0.0016531611017114,-0.0015453290369236,0.0015368002930579,-0.0015528703017233,0.0015586444591174,-0.0015494499052696,0.0015528936333274,-0.0015328049541501,0.0015326494227225,-0.0015411933451786,0.0015338921197226,6.5504725553279e-06,1.8286642817669e-05,-0.00099861996597531,0.00099996432270571,4.4995511532378e-06,-2.8239607151129e-06,-0.001012726463046,0.0010180817435961,-0.0010857741367647,0.0010337091626853,-0.0010890798135771,0.001079998219269,-0.0010368671603048,0.0011474381863479,-0.0010055709914531,0.0010252679636111,-0.0010786003133824,0.001040873114412,-0.0010819185759261,0.0010871740032717,-0.0011253944360881,0.0011294614043956,-0.0011278329106263,0.0011270183521514,-0.0011263672614851,0.0011205477661851,-0.0011288114298467,0.0011181101974926,-0.0010840651294839,0.0011202826232008,-0.001065964004159,0.0010760455851279,-0.0010635309542528,0.0010784929892678,-0.0010816189690868,0.0011227164374228,-0.0010440500310735,0.0011402804296871,0.74364572121898,122718,2924,0.0038178531109748,0.0066868682867152,0.0041558339476755,37.19361980028,0.00021274895840224,0.00021274895840224,0.00021274895840224,2846225.2886203,0.014769067697158
