time,ASR_ext,ASR_strain,ASR_strain_xx,ASR_strain_yy,ASR_strain_zz,disp_x_101,disp_x_102,disp_x_103,disp_x_104,disp_x_105,disp_x_106,disp_x_p1_neg,disp_x_p1_pos,disp_x_p2_neg,disp_x_p2_pos,disp_x_p3_neg,disp_x_p3_pos,disp_x_p4_neg,disp_x_p4_pos,disp_x_p5_neg,disp_x_p5_pos,disp_x_p6_neg,disp_x_p6_pos,disp_y_101,disp_y_102,disp_y_103,disp_y_104,disp_y_105,disp_y_106,disp_y_p1_neg,disp_y_p1_pos,disp_y_p2_neg,disp_y_p2_pos,disp_y_p3_neg,disp_y_p3_pos,disp_y_p4_neg,disp_y_p4_pos,disp_y_p5_neg,disp_y_p5_pos,disp_y_p6_neg,disp_y_p6_pos,disp_y_p7_neg,disp_y_p7_pos,disp_y_p8_neg,disp_y_p8_pos,disp_z_101,disp_z_102,disp_z_103,disp_z_104,disp_z_105,disp_z_106,disp_z_p1_neg,disp_z_p1_pos,disp_z_p2_neg,disp_z_p2_pos,disp_z_p3_neg,disp_z_p3_pos,disp_z_p4_neg,disp_z_p4_pos,disp_z_p5_neg,disp_z_p5_pos,disp_z_p6_neg,disp_z_p6_pos,humidity,ndof,nelem,strain_xx,strain_yy,strain_zz,temp,thermal_strain_xx,thermal_strain_yy,thermal_strain_zz,vonmises,vstrain
2419200,0,0,0,0,0,0,0,0,0,0,0,0,0,0,0,0,0,0,0,0,0,0,0,0,0,0,0,0,0,0,0,0,0,0,0,0,0,0,0,0,0,0,0,0,0,0,0,0,0,0,0,0,0,0,0,0,0,0,0,0,0,0,0,0,0,0,0,0,0,0,0,0,0,0,0
2919200,0.076434908995172,0.001596368382609,0.00053212279420298,0.00053212279420298,0.00053212279420298,-0.00016628322122115,0.00016627393540157,-3.2346654169299e-09,-3.2346653839367e-09,-2.8061514680876e-09,-3.6494179618304e-09,-0.00016618461759526,0.00016617764219303,-0.00016618632932714,0.00016617935391985,-0.0001661849183922,0.00016617736707741,-0.00016618659490701,0.00016617904358355,-0.00016731424506895,0.00016730709474928,-0.00016731532840479,0.00016730817809068,-2.485761984913e-10,5.2379190584035e-10,-1.0637673008892e-09,1.3279840712997e-09,-0.00017325625561252,0.00017325652079448,-0.00017213942526888,0.00017213850671945,-0.00017214017080026,0.00017214103401416,-0.00017214001143197,0.00017213967300137,-0.00017214075695186,0.00017214220030585,-0.00017244367647917,0.00017244190294372,-0.00017244241689517,0.00017244525711676,-0.00017385797327045,0.00017385832706428,-0.0001738580843076,0.00017385993359312,-8.4907593144033e-09,-8.4907592899077e-09,-0.00016021491133279,0.00016019316641593,-7.1045251455453e-09,-9.670261646757e-09,-0.0001606967050237,0.00016067903542482,-0.00016069759637019,0.0001606781582675,-0.00016069754158327,0.00016067987198633,-0.00016069841924431,0.00016067898114634,-0.00016400744385982,0.00016398883936513,-0.00016400674311171,0.00016398813862339,0.83502648770561,122718,2924,0.00069258664017028,0.00072163998221641,0.0006672942485329,32.41113781269,0.00017448910250152,0.00017448910250152,0.00017448910250152,1154141.4145553,0.0020836905399704
3419200,0.15577514551598,0.0031231796889266,0.0010443116087116,0.0010689461657034,0.0010099219145116,-0.00028376509087057,0.00028375667342292,-2.961347401513e-09,-2.961447856897e-09,-2.7905311502017e-09,-3.1831404475679e-09,-0.00028938453184008,0.00028937820944173,-0.00028938707965488,0.00028938075698525,-0.00028938466002219,0.0002893780883318,-0.000289387195836,0.00028938062386797,-0.00028264982705631,0.00028264339553636,-0.00028265217506054,0.00028264574324713,-1.9818488334521e-10,1.4969819263915e-10,-4.8469607470586e-10,4.2870821090549e-10,-0.00030553181064724,0.00030553175664756,-0.00030642671750809,0.000306426231631,-0.00030642877893681,0.00030642891504205,-0.00030642769142455,0.00030642744612256,-0.00030642975282087,0.00030643012950801,-0.00029934314256617,0.00029934233379504,-0.0002993448435747,0.00029934579417897,-0.0003043141643816,0.00030431410804972,-0.00030431616291885,0.00030431678878152,-6.8651382162289e-09,-6.8652387109456e-09,-0.0002636384703896,0.00026362117827869,-6.2288153596502e-09,-7.2738739188187e-09,-0.00027039779050853,0.00027038329378846,-0.00027039814289698,0.00027038295163558,-0.00027039891323293,0.00027038441629224,-0.00027039925833826,0.00027038406686833,-0.00027151560131616,0.00027150097917293,-0.00027151415976899,0.00027149953796182,0.77960726241633,122718,2924,0.0011816367957596,0.0012722339758496,0.0010978632260807,31.910917487516,0.00017048733990013,0.00017048733990013,0.00017048733990013,1826599.1338175,0.0035580529940616
3919200,0.2428719543001,0.0047034786412549,0.001561718601676,0.001675073254397,0.001466686785182,-0.00040389129546535,0.00040388457855196,-2.5001505975015e-09,-2.500234560424e-09,-2.3128868154882e-09,-2.3979604405575e-09,-0.00041745283666132,0.00041744753181492,-0.00041745452647957,0.00041744922140488,-0.00041745285166124,0.00041744750807935,-0.00041745454727337,0.00041744920346299,-0.00039713214284042,0.00039712660536428,-0.00039713365627651,0.0003971281185319,-1.1912329938703e-10,-5.2557462273252e-11,2.1570843951995e-11,-1.9617494006377e-10,-0.00045663855565284,0.00045663838233817,-0.00046678550984129,0.00046678539823025,-0.00046678710626018,0.00046678682163253,-0.00046678616345626,0.00046678610420652,-0.00046678775982,0.00046678752754161,-0.00043653685980366,0.00043653694755333,-0.00043653815880678,0.00043653778421649,-0.00044790373338322,0.00044790344501559,-0.00044790466181288,0.00044790449249139,-3.5317853713371e-09,-3.5318693371102e-09,-0.00036419864601633,0.00036418932451007,-3.4287321520275e-09,-3.2537858192966e-09,-0.00037769992338387,0.00037769223445705,-0.00037769985826638,0.00037769230490253,-0.00037770082268719,0.00037769313355549,-0.00037770075483946,0.00037769320128691,-0.0003765151218429,0.00037650757216167,-0.00037651404953073,0.00037650650015705,0.74640349119053,122718,2924,0.0016814499279337,0.0019008354953348,0.0015163615797721,32.496473037523,0.00017517178430018,0.00017517178430018,0.00017517178430018,2587471.3148909,0.0051116768538522
4419200,0.33821951991525,0.0064075549232604,0.0021133919837067,0.0023591509164555,0.0019350120230982,-0.00053197816258239,0.00053197391600471,-1.3586018663533e-09,-1.3586956465813e-09,-1.658832386835e-09,-1.1798926571481e-09,-0.00055475492322857,0.00055475179176233,-0.00055475601587889,0.00055475288417029,-0.00055475473821245,0.00055475195365649,-0.00055475585561379,0.00055475307082472,-0.00051842478718413,0.00051842182578153,-0.00051842592757004,0.00051842296586873,2.2060314690176e-11,-4.3472413494667e-10,2.3490891384099e-10,-6.4314806415047e-10,-0.00062837170628835,0.00062837129871548,-0.00065174435493084,0.00065174442006781,-0.00065174565436056,0.00065174509349484,-0.00065174505641313,0.00065174480953422,-0.00065174635580958,0.00065174548291514,-0.00058958615082452,0.00058958647502725,-0.00058958809773557,0.00058958666658822,-0.00060896603316612,0.00060896579175143,-0.00060896776856649,0.00060896661504384,-1.6342521418953e-09,-1.6343460141452e-09,-0.00046747359567119,0.0004674686987873,-2.0328862527645e-09,-1.1387304864003e-09,-0.00048796009888529,0.00048795647711897,-0.00048795978694265,0.00048795678762748,-0.00048796076295551,0.00048795714099787,-0.00048796045533643,0.00048795745584512,-0.00048585659853315,0.00048585321411055,-0.00048585618916187,0.00048585280506486,0.74424082049435,122718,2924,0.0022141152050236,0.0026147513830119,0.0019460053676367,33.59828912431,0.00018398631299448,0.00018398631299448,0.00018398631299448,3249821.086498,0.0067978956333459
4919200,0.44170125173656,0.0082475670196264,0.002698268208917,0.0031357841526188,0.0024135146580906,-0.00066706088341708,0.00066705782833135,-8.2618277357125e-10,-8.2626737848947e-10,-1.2480853650363e-09,-6.6622759114558e-10,-0.00070068774256815,0.0007006857287927,-0.00070068850705951,0.00070068649306494,-0.0007006875179102,0.00070068592782028,-0.00070068830812674,0.00070068671782832,-0.00064594527269917,0.00064594337167279,-0.00064594629076304,0.00064594438942998,-3.7913458534573e-12,-5.4384476232759e-10,2.2512667656398e-10,-7.6494633241463e-10,-0.00082512562663146,0.00082512508648663,-0.00086523362041045,0.00086523360045448,-0.00086523463660299,0.0008652339470498,-0.00086523421323127,0.00086523383322914,-0.00086523522933785,0.00086523417973878,-0.00076247871237366,0.00076247899089937,-0.00076248076374179,0.00076247906193121,-0.00079119350441752,0.00079119317245544,-0.00079119525541238,0.00079119384179169,-1.0025154883694e-09,-1.0026000762706e-09,-0.00057231017761482,0.00057230690331648,-1.5097560803116e-09,-4.8696651069073e-10,-0.00060202751593983,0.00060202549608698,-0.00060202716319828,0.00060202584570227,-0.00060202802909224,0.00060202600903465,-0.0006020276825887,0.00060202636490552,-0.0005971656135519,0.00059716357186168,-0.00059716542597387,0.00059716338458113,0.74696695512676,122718,2924,0.0027755762080026,0.0034320381671661,0.002382015944111,35.34297939165,0.0001979438351332,0.0001979438351332,0.0001979438351332,3776577.2165369,0.0086266736528985
5419200,0.54254007663521,0.0099910605170643,0.0032370559542226,0.0039081316256406,0.002845872937201,-0.00078737441028724,0.00078737337448307,7.1500235553281e-11,7.1411275061863e-11,-5.7642672511989e-10,2.6917748819486e-10,-0.00083347647669919,0.00083347625493625,-0.00083347697282973,0.00083347675083294,-0.00083347616327953,0.00083347654269026,-0.00083347668782976,0.00083347706701395,-0.00075825972747368,0.00075825975705257,-0.0007582605159472,0.00075826054521707,7.6604222264181e-11,-7.0943567328598e-10,3.2268023604617e-10,-9.4390078197903e-10,-0.0010205054068323,0.0010205047849928,-0.0010799962445419,0.0010799963276456,-0.0010799971522333,0.0010799963706222,-0.0010799968646774,0.0010799964162607,-0.001079997772297,0.0010799964591675,-0.00093061369734148,0.00093061407882922,-0.00093061603345741,0.00093061389894285,-0.00096920078739112,0.00096920051814393,-0.00096920289505343,0.00096920106425614,5.7275788499271e-13,4.8388558527458e-13,-0.00066277731505788,0.00066277652671253,-7.2817160721018e-10,5.8588826547752e-10,-0.00070379556668676,0.00070379572887936,-0.00070379511381627,0.00070379617506914,-0.00070379594617243,0.00070379610817471,-0.00070379550243098,0.00070379656350931,-0.00069259774043592,0.0006925979471795,-0.0006925978097176,0.00069259801676579,0.73229095938568,122718,2924,0.0032754118682455,0.0042429336787575,0.00275820372365,36.272586298304,0.00020538069038643,0.00020538069038643,0.00020538069038643,4139696.7401273,0.010329617619748
5919200,0.63388166232595,0.011350938168615,0.0036431942083999,0.0045389577487636,0.0031687862114515,-0.00087374351617945,0.00087374409132539,7.1954896215364e-10,7.1946217555646e-10,-6.0266603317593e-11,1.0781014508878e-09,-0.00093369663650485,0.00093369779397928,-0.00093369689799645,0.00093369805525138,-0.0009336962240841,0.00093369818138394,-0.00093369651621796,0.00093369847330245,-0.00083408760108821,0.00083408903629917,-0.00083408834014497,0.00083408977504783,1.3272555935468e-10,-9.235905031647e-10,4.3502825630303e-10,-1.2091136277616e-09,-0.0011814341823803,0.0011814334070128,-0.0012650672926304,0.001265067447421,-0.0012650680641847,0.00126506709358,-0.0012650678074098,0.0012650672442602,-0.0012650685788823,0.0012650668903304,-0.0010613742978601,0.0010613748030669,-0.0010613769115772,0.0010613741642974,-0.0011084474880709,0.0011084471972232,-0.0011084496824543,0.0011084473016336,8.4970793052069e-10,8.4962158552612e-10,-0.00072550143357783,0.00072550278350646,-8.2990397229743e-11,1.628517650888e-09,-0.0007786056075603,0.00077860766968128,-0.00077860501864835,0.00077860824950633,-0.0007786058851878,0.00077860794710739,-0.00077860530792601,0.00077860853859983,-0.00075574233830924,0.00075574442183772,-0.00075574240838865,0.00075574449219578,0.6360792580923,122718,2924,0.0036341106864145,0.0049103450276358,0.0030190470953911,36.778891879742,0.00020943113503794,0.00020943113503794,0.00020943113503794,4344941.0624978,0.011630743854417
6169200,0.67590975459782,0.011946331627598,0.0038175647356044,0.0048194796291939,0.0033092872628001,-0.00091063531489251,0.00091063618347371,7.6632473924826e-10,7.6622673202839e-10,1.8203132001151e-09,-8.0697953818198e-10,-0.00097590761606006,0.00097591024438739,-0.00097590771291557,0.00097591034101385,-0.00097590839185912,0.00097590937091034,-0.00097590853785557,0.00097590951668455,-0.00086591854053915,0.00086591885329019,-0.00086591925399922,0.00086591956645732,-1.0611854727181e-09,1.6689173770433e-09,-1.9450710697081e-09,2.5106948275258e-09,-0.0012510175555245,0.0012510181264163,-0.0013473580879721,0.0013473563633387,-0.0013473567711589,0.0013473578906328,-0.0013473572984848,0.0013473573086918,-0.0013473559815932,0.0013473588358981,-0.0011164995180747,0.0011164966200389,-0.0011164962215199,0.0011165020581599,-0.001167284489944,0.0011672838606444,-0.0011672829689267,0.0011672877328622,9.6855154147407e-10,9.6847550312052e-10,-0.00075286063855767,0.00075286252299044,2.9652401170087e-09,-1.3368212551069e-09,-0.00080987822023067,0.00080988277063736,-0.0008098796187477,0.00080988136281136,-0.00080987841305297,0.00080988296326035,-0.00080987982698564,0.00080988157089044,-0.00078297056468221,0.00078297093819571,-0.000782970665896,0.00078297103972915,0.60975779743278,122718,2924,0.0037872919586401,0.005198801164184,0.003132805836643,36.762910840009,0.00020930328672007,0.00020930328672007,0.00020930328672007,4471671.3270455,0.01219277400845
6669200,0.74786288715291,0.013065653493953,0.0041474765335461,0.0053392441325783,0.0035789328278285,-0.0009771212575712,0.00097712310184394,1.2078141846204e-09,1.2077144731486e-09,1.6777783193016e-09,2.0183604528266e-10,-0.0010517994387369,0.0010518026702587,-0.0010517994421102,0.0010518026733999,-0.0010517998470036,0.0010518021826299,-0.0010517999031366,0.0010518022385443,-0.0009269434290103,0.00092694501016815,-0.00092694415877089,0.00092694573961457,-5.1251781596194e-10,1.093690952698e-09,-1.4424467580064e-09,1.9932028999608e-09,-0.0013864326936981,0.0013864332506687,-0.0015019796660419,0.0015019786215279,-0.0015019785212511,0.0015019796677643,-0.001501979102895,0.0015019790622681,-0.0015019779580328,0.0015019801084185,-0.0012279461137786,0.0012279438358812,-0.001227943796304,0.0012279482394764,-0.0012850521926475,0.0012850523297096,-0.0012850517465585,0.001285055028236,1.2803622444741e-09,1.2802844677472e-09,-0.00080187672936753,0.00080187931516087,2.7579431307893e-09,-5.1605853453163e-10,-0.00086724371566546,0.00086724869461653,-0.00086724476552554,0.00086724762620602,-0.00086724385562247,0.00086724883437536,-0.00086724492526963,0.00086724778577726,-0.00083411603895943,0.00083411738616686,-0.00083411612182424,0.00083411746931763,0.66913755207524,122718,2924,0.0040633250370171,0.0057598802648521,0.0033366498963953,37.281523718465,0.00021345218974772,0.00021345218974772,0.00021345218974772,4563067.1902582,0.013247016030653
7169200,0.81349532635422,0.014011523690442,0.0044195244669038,0.0057886188271082,0.0038033803964301,-0.0010288257798645,0.0010288262724594,7.6833460262037e-10,7.6823503070623e-10,1.0548757243681e-09,-4.646727404491e-11,-0.0011159492814368,0.0011159513610298,-0.0011159495374594,0.0011159516168241,-0.0011159495765462,0.0011159510006744,-0.0011159498778176,0.0011159513017237,-0.00097382211930028,0.00097382286112242,-0.00097382294899597,0.0009738236905064,-3.7311543143263e-10,8.4894328086551e-10,-1.459890670048e-09,1.9103956067256e-09,-0.0015124087876964,0.0015124092440074,-0.001645367163809,0.0016453661296848,-0.0016453662470871,0.0016453674125776,-0.0016453668255321,0.0016453665659959,-0.0016453659087352,0.0016453678488008,-0.0013320471267039,0.0013320446980412,-0.0013320450015956,0.0013320491484126,-0.0013932505166455,0.0013932509225585,-0.0013932505345655,0.0013932533134366,-3.3815580266058e-11,-3.3893277068945e-11,-0.00084024368198091,0.0008402429019601,1.4351295056317e-09,-1.8073099978209e-09,-0.00091833631980113,0.00091833840333111,-0.00091833736556299,0.00091833734098954,-0.00091833660601288,0.00091833868934395,-0.00091833766881927,0.0009183376440738,-0.00087255955262178,0.0008725581457102,-0.00087255954039979,0.00087255813377005,0.62032074411096,122718,2924,0.0042779894384173,0.0062815100195932,0.0034962776639515,39.971485951891,0.00023497188761513,0.00023497188761513,0.00023497188761513,4424855.7246814,0.014155276637977
7669200,0.86536446229753,0.014659171555994,0.0046013220730319,0.00610005629045,0.0039577931925119,-0.0010568386166473,0.0010568411441497,1.5252479831218e-09,1.5251483501005e-09,1.5763249358589e-09,9.4154920225935e-10,-0.0011529415053613,0.0011529451431849,-0.0011529415056756,0.0011529451432703,-0.0011529416467942,0.0011529449399002,-0.0011529416956368,0.0011529449885235,-0.00099689017886911,0.00099689267685554,-0.00099689093757232,0.00099689343524577,-2.306665399426e-10,5.437088052751e-10,-1.3249093708694e-09,1.6192414616966e-09,-0.0015987097766597,0.0015987100760343,-0.0017488841477862,0.0017488832673202,-0.0017488831809879,0.0017488841907515,-0.0017488838258114,0.0017488834108965,-0.0017488828589348,0.0017488843342366,-0.001398494729315,0.0013984924061846,-0.001398492969178,0.0013984963970165,-0.0014625936284858,0.0014625941671615,-0.0014625940102052,0.0014625960426709,1.2122792260694e-09,1.2122014594599e-09,-0.00086062578688843,0.00086062824046961,2.4402334606899e-09,-3.5195167087907e-10,-0.00094717799008944,0.00094718271933544,-0.00094717888032212,0.00094718180995999,-0.00094717813821363,0.00094718286726,-0.00094717904767076,0.00094718197713483,-0.00089137367625368,0.00089137505349478,-0.00089137370051609,0.00089137507803889,0.53751804907471,122718,2924,0.0043943293136643,0.0066387131566415,0.0035811675769581,40.861963810243,0.00024209571048194,0.00024209571048194,0.00024209571048194,4331436.2101714,0.014721818424614
8169200,0.90398997678015,0.015106020465724,0.0047262063521687,0.0063131483204161,0.0040666657931389,-0.0010723918327519,0.0010723956702877,2.0410930807538e-09,2.040993512972e-09,1.8355920348608e-09,1.7234118155991e-09,-0.001174110179036,0.0011741148283443,-0.0011741100395221,0.0011741146886016,-0.0011741101503022,0.0011741148012273,-0.0011741100605574,0.0011741147112626,-0.0010089767352353,0.0010089804836239,-0.001008977484574,0.0010089812326478,-8.3962699114824e-11,1.8326808755043e-10,-1.1182176053962e-09,1.2065926435994e-09,-0.0016579801090929,0.0016579802016769,-0.0018218769395042,0.0018218762367069,-0.0018218760335744,0.0018218767987809,-0.0018218766726568,0.0018218760926466,-0.0018218757666478,0.0018218766546273,-0.0014426791299718,0.0014426770365918,-0.0014426779394015,0.0014426803865844,-0.0015085295950764,0.0015085302128319,-0.0015085304197692,0.0015085315337028,1.90146101498e-09,1.9013830687877e-09,-0.00087195076995508,0.00087195496441824,2.8126288190908e-09,6.5263241692563e-10,-0.00096366790617411,0.00096367400893028,-0.00096366858283324,0.00096367331138788,-0.00096366797263669,0.00096367407519515,-0.00096366867006781,0.00096367339845136,-0.00090125127112416,0.00090125430342419,-0.00090125128832659,0.00090125432090396,0.49742274461744,122718,2924,0.0044589520659364,0.0068839724695378,0.0036283808363486,41.120858205305,0.00024416686564244,0.00024416686564244,0.00024416686564244,4248008.8956937,0.015084268490468
8669200,0.93263095911527,0.015427933655915,0.0048163985716369,0.0064646450259124,0.0041468900583653,-0.0010807880993161,0.0010807918649336,2.0367697775979e-09,2.0366702449137e-09,1.6943204355855e-09,1.8647211759304e-09,-0.0011879159790348,0.0011879205159853,-0.0011879158764505,0.0011879204131713,-0.0011879158608316,0.001187920584343,-0.0011879158057099,0.0011879205290035,-0.0010157257942798,0.0010157296161066,-0.0010157265585899,0.0010157303801041,-6.3867601241564e-12,-2.1537386871144e-11,-1.0116136980136e-09,9.7704382274659e-10,-0.0017036606697462,0.0017036606388828,-0.0018766480566187,0.0018766474287847,-0.0018766472849347,0.0018766479124814,-0.0018766478847178,0.0018766471976988,-0.0018766471129531,0.0018766476813021,-0.0014783317738312,0.0014783297957707,-0.0014783309267209,0.001478332826796,-0.0015448226405976,0.0015448233007778,-0.0015448237470655,0.0015448243454477,1.7318068957087e-09,1.7317289228113e-09,-0.00087856166771851,0.0008785654082379,2.4836628146882e-09,6.5142432255726e-10,-0.00097581449990425,0.00097582011957103,-0.00097581506912358,0.0009758195302137,-0.00097581458820198,0.00097582020766889,-0.00097581517743433,0.00097581963835007,-0.00090664356006123,0.00090664633882702,-0.00090664355370532,0.00090664633274957,0.48214990235734,122718,2924,0.0044938775497613,0.0070729232774012,0.0036559916810847,41.744206712691,0.00024915365370153,0.00024915365370153,0.00024915365370153,4108443.7252364,0.01533961493752
9169200,0.95275842060141,0.015633471447296,0.0048737435582982,0.0065609297268782,0.0041987981621196,-0.0010810691034792,0.0010810744391195,2.6380449106491e-09,2.6379453775822e-09,2.090049109848e-09,2.6963921306595e-09,-0.0011931480743487,0.0011931538345209,-0.0011931478001582,0.0011931535601006,-0.0011931478123173,0.0011931540497444,-0.0011931475875437,0.0011931538247522,-0.0010151965192756,0.0010152017517886,-0.0010151972555778,0.0010152024877779,1.1902590792845e-10,-3.1660477261799e-10,-7.8765671051052e-10,5.8942208597163e-10,-0.0017337812878151,0.0017337810926999,-0.0019130555223696,0.001913055087421,-0.0019130547714229,0.00191305516956,-0.0019130553514572,0.001913054568477,-0.001913054600428,0.0019130546505211,-0.0015014162677564,0.001501414581026,-0.0015014159435545,0.0015014169421607,-0.0015678491585448,0.0015678498566096,-0.0015678505853088,0.0015678503972329,2.6122285501962e-09,2.6121506154153e-09,-0.0008788049963598,0.00087881095828639,3.0507875511521e-09,1.8464327829766e-09,-0.00098131084014679,0.00098131821765121,-0.0009813111964947,0.00098131783942574,-0.00098131082694318,0.00098131820424864,-0.0009813112049844,0.000981317847742,-0.00090561552258242,0.000905620359026,-0.00090561551157017,0.00090562034829247,0.43723849379661,122718,2924,0.0044951353023383,0.0071974664242968,0.0036571446646846,41.522160917262,0.00024737728733809,0.00024737728733809,0.00024737728733809,3960318.2826253,0.01546855515847
9669200,0.96652687558094,0.015763607820687,0.0049100564983585,0.0066213379788892,0.0042322133434393,-0.0010791499615235,0.0010791565556607,3.1263083260259e-09,3.1262087958806e-09,2.3646750982419e-09,3.4149538456806e-09,-0.0011936432380968,0.0011936499707321,-0.0011936428323073,0.0011936495647131,-0.0011936428307867,0.001193650335411,-0.0011936424756148,0.0011936499800203,-0.0010126915889004,0.0010126979957249,-0.0010126923137487,0.0010126987202612,2.4128725136951e-10,-6.2438645130486e-10,-5.3203664735151e-10,1.5454635165622e-10,-0.0017511230282219,0.0017511226532908,-0.0019352563118179,0.0019352560796272,-0.0019352556429763,0.0019352557747226,-0.0019352561704855,0.0019352552977183,-0.0019352555015612,0.001935254992719,-0.0015135387978701,0.0015135374629823,-0.0015135390933256,0.0015135390933062,-0.0015799863916489,0.0015799870964411,-0.001579988175935,0.0015799871499625,3.2960380846225e-09,3.2959600949315e-09,-0.00087706328371976,0.00087707096288075,3.3867283262156e-09,2.8848012781265e-09,-0.00098203147996965,0.00098204016844123,-0.00098203159982125,0.00098204002517373,-0.00098203138480805,0.00098204007308012,-0.00098203152784877,0.00098203995302772,-0.00090308736215903,0.00090309386818457,-0.0009030873437411,0.00090309385004497,0.40368065226582,122718,2924,0.0044872349218376,0.0072691751708407,0.0036500023061649,40.704878324633,0.00024083902659707,0.00024083902659707,0.00024083902659707,3879653.295187,0.015526113990329
10169200,0.97566875304615,0.015853729163134,0.0049354708475482,0.0066624013830232,0.0042558569325623,-0.001075248384582,0.001075256764671,3.8112008224935e-09,3.8111013117489e-09,2.7769491279688e-09,4.4005957197038e-09,-0.0011915490753907,0.0011915571847574,-0.0011915484775213,0.0011915565866585,-0.0011915484798194,0.0011915577423051,-0.001191547934582,0.0011915571968495,-0.0010086245242976,0.0010086325627738,-0.0010086252354471,0.0010086332736109,4.0627003452344e-10,-1.014587131736e-09,-1.5933422180184e-10,-4.3551822868765e-10,-0.0017611011171462,0.0017611005241607,-0.0019481129445772,0.0019481130138103,-0.0019481123800706,0.0019481121576457,-0.0019481128262899,0.0019481118758291,-0.0019481122617005,0.0019481110195691,-0.0015203249402693,0.0015203241425863,-0.001520326093658,0.0015203247488484,-0.0015866822053802,0.0015866829085726,-0.0015866844378437,0.0015866823206138,4.3072574575207e-09,4.3071794293456e-09,-0.00087340827533929,0.00087341849813223,3.9138652972194e-09,4.3919470477291e-09,-0.00098031525252765,0.00098032588458086,-0.00098031504211383,0.00098032606930028,-0.00098031503819412,0.00098032567004779,-0.0009803148531534,0.0009803258801662,-0.00089897628917928,0.00089898524212835,-0.00089897626003644,0.00089898521326359,0.41967714462645,122718,2924,0.0044710983427547,0.0073104210871289,0.0036348963150142,38.951426903261,0.00022681141522609,0.00022681141522609,0.00022681141522609,3820887.5181841,0.015536284943942
10669200,0.9820885537071,0.015916212459559,0.0049531239056687,0.0066907101327924,0.0042723784210976,-0.0010706648521694,0.0010706721054866,3.3937927873294e-09,3.3936933045252e-09,2.2543958754686e-09,4.0962959754404e-09,-0.0011904498696719,0.001190456922542,-0.0011904494248631,0.0011904564775036,-0.0011904492088525,0.0011904575526844,-0.0011904488117189,0.0011904571553321,-0.0010044786757777,0.0010044859029118,-0.0010044793962455,0.0010044866230671,4.9255946661699e-10,-1.1596533517391e-09,5.8442754378676e-11,-7.0895983411666e-10,-0.0017706583735593,0.0017706577244853,-0.0019584644902066,0.0019584647217622,-0.0019584642261918,0.0019584638676064,-0.0019584645416594,0.0019584636164695,-0.0019584642775613,0.0019584627622185,-0.0015286838066615,0.0015286833655537,-0.0015286854744882,0.0015286835129829,-0.0015945283421671,0.0015945290592211,-0.0015945308439498,0.0015945282782978,3.6067827326898e-09,3.6067047298374e-09,-0.00086996456001137,0.00086997297653652,2.9908956660728e-09,3.9351121664988e-09,-0.00098068905012069,0.00098069790716872,-0.00098068869031515,0.00098069824355256,-0.00098068892809969,0.00098069778494813,-0.0009806885912811,0.00098069814434499,-0.00089500607768047,0.00089501371019447,-0.00089500603780847,0.00089501367060016,0.41382189491722,122718,2924,0.0044521357214541,0.0073498834724717,0.0036206667321231,38.023310108399,0.00021938648086719,0.00021938648086719,0.00021938648086719,3717588.7529427,0.015542673759621
11169200,0.9867978224084,0.015958608831669,0.004965070336298,0.0067098935665365,0.0042836449288342,-0.0010687171340836,0.001068723500964,3.0720315863416e-09,3.0719320855732e-09,1.9382989301419e-09,3.7787702681033e-09,-0.001190201056643,0.0011902073497627,-0.0011902006076384,0.0011902069005284,-0.0011902003968395,0.0011902079791605,-0.0011901999953673,0.0011902075774695,-0.0010029035959861,0.0010029100821425,-0.0010029043117072,0.0010029107975514,4.9836515440427e-10,-1.1692042448482e-09,7.4243316152948e-11,-7.2818431741013e-10,-0.0017763976230285,0.001776396970488,-0.0019646985018002,0.0019646987466073,-0.0019646982422754,0.0019646978739246,-0.0019646985512163,0.0019646976290125,-0.0019646982916078,0.0019646967562342,-0.0015339346580515,0.001533934242856,-0.0015339363547477,0.0015339343503394,-0.0015997658907005,0.0015997666076616,-0.0015997684001706,0.0015997658041057,3.0023761499254e-09,3.0022981333529e-09,-0.00086852681798014,0.00086853367435645,2.393650033664e-09,3.3409159972214e-09,-0.00098093853959431,0.00098094600979776,-0.00098093817957186,0.00098094634651451,-0.00098093841504798,0.00098094588505195,-0.00098093807793751,0.00098094624470658,-0.00089377008787941,0.00089377636086156,-0.00089377004948147,0.00089377632274137,0.38239411165317,122718,2924,0.004444078509193,0.007373581383119,0.0036147288991982,37.877110942089,0.00021821688753671,0.00021821688753671,0.00021821688753671,3634014.137107,0.015552534349911
11669200,0.99020263658937,0.015990734681685,0.0049742097751181,0.0067242155213354,0.0042923093852316,-0.0010666983910222,0.0010667051154268,3.1992346100328e-09,3.1991350828524e-09,2.0153462454416e-09,3.9428541291011e-09,-0.0011885131925399,0.0011885197759544,-0.0011885128157332,0.0011885193989178,-0.0011885125066624,0.0011885204349492,-0.001188512175156,0.0011885201032242,-0.0010006995867109,0.0010007064303292,-0.0010007003125242,0.0010007071558304,5.1458127827753e-10,-1.2274836969803e-09,1.6860965544371e-10,-8.6318933233489e-10,-0.0017811266514633,0.0017811259581448,-0.0019715535515012,0.0019715538472894,-0.001971553437584,0.0019715529805086,-0.0019715536731306,0.0019715527589968,-0.0019715535591297,0.0019715518921202,-0.001536101177141,0.0015361009251104,-0.001536103125327,0.0015361008290916,-0.0016016630233593,0.0016016636987472,-0.0016016656404871,0.0016016628534259,3.2505808218401e-09,3.2505027939003e-09,-0.00086705584186851,0.00086706335065225,2.512354452796e-09,3.7090392764825e-09,-0.00097989070358973,0.00097989868316981,-0.00097989026250891,0.00097989910186399,-0.00097989062138657,0.00097989860076728,-0.00097989020232982,0.00097989904151151,-0.00089167810780167,0.00089168507591514,-0.00089167806203821,0.00089168503042934,0.39988209519935,122718,2924,0.0044357313991607,0.0073931469182456,0.003608654906385,37.36786116098,0.00021414288928784,0.00021414288928784,0.00021414288928784,3639969.7692236,0.015557762038575
12169200,0.99268827774614,0.016018177981684,0.0049820917421272,0.0067362784026052,0.0042998078369514,-0.0010637384322408,0.001063745059297,3.160252336806e-09,3.160152837934e-09,1.9672952514658e-09,3.9207600264137e-09,-0.0011878531735538,0.0011878596490742,-0.0011878528126553,0.0011878592879458,-0.0011878524797233,0.0011878603166636,-0.0011878521633362,0.0011878600000577,-0.00099818673992802,0.00099819351172124,-0.00099818746171477,0.00099819423319597,5.3725813319164e-10,-1.2327354632778e-09,2.4290883453714e-10,-9.1992661352048e-10,-0.0017859555525931,0.0017859548767591,-0.0019761488648556,0.0019761492278792,-0.0019761488059419,0.00197614833299,-0.0019761490016954,0.0019761481382186,-0.0019761489426977,0.0019761472432334,-0.0015409135011638,0.0015409133868123,-0.0015409155728143,0.0015409131560754,-0.0016060859974909,0.0016060866754462,-0.001606088635547,0.0016060857951672,3.1874551381247e-09,3.1873771349047e-09,-0.00086505611359626,0.00086506345810438,2.3874445407375e-09,3.7119238088059e-09,-0.00098037251112456,0.00098038028483892,-0.00098037202824763,0.00098038074573734,-0.00098037243934033,0.00098038021285525,-0.00098037197804749,0.00098038069536362,-0.00088942419869232,0.00088943107688361,-0.00088942414887396,0.00088943102734284,0.46686857708542,122718,2924,0.004423485284683,0.0074130691722177,0.0036003924998085,36.943741247439,0.00021074992997951,0.00021074992997951,0.00021074992997951,3574265.9840234,0.015557180690084
12669200,0.99452329304811,0.016036181405973,0.0049872131124002,0.0067442720467129,0.0043046962468597,-0.0010582464917872,0.0010582528983866,3.0692925548884e-09,3.0691930956943e-09,1.8932071273512e-09,3.823817091895e-09,-0.0011865508143883,0.0011865570754458,-0.0011865504832308,0.0011865567440586,-0.0011865501284871,0.0011865577350964,-0.001186549840912,0.0011865574473025,-0.00099361012488313,0.00099361670250538,-0.00099361083857066,0.00099361741588083,5.563611620484e-10,-1.1943040954179e-09,2.9712079963411e-10,-9.1718452470118e-10,-0.0017916212882405,0.0017916206693109,-0.0019806730328987,0.0019806734592625,-0.001980673016745,0.001980672577931,-0.0019806731785707,0.0019806723940024,-0.0019806731623323,0.0019806715125746,-0.0015472505709279,0.0015472505716933,-0.0015472526866452,0.001547250282496,-0.0016116979116961,0.0016116986127596,-0.0016117005226839,0.001611697741989,3.0500535522959e-09,3.0499756086182e-09,-0.00086152299212363,0.00086152999226889,2.2284704009354e-09,3.6002862213238e-09,-0.00098122497691767,0.00098123239423199,-0.00098122447923814,0.00098123287057912,-0.00098122492461133,0.00098123234172612,-0.00098122444781639,0.00098123283898399,-0.00088552828061449,0.00088553488933894,-0.00088552822667785,0.0008855348356797,0.41518230756801,122718,2924,0.0044007560804497,0.0074364109802037,0.0035857854966822,36.662429426327,0.00020849943541062,0.00020849943541062,0.00020849943541062,3461180.1479726,0.015542992027965
13169200,0.99583044578936,0.016049200913753,0.0049909347632699,0.0067499894638875,0.0043082766865956,-0.0010559666513874,0.0010559746521082,3.6669653564093e-09,3.6668658485786e-09,2.394166024217e-09,4.529862450988e-09,-0.0011825718570271,0.001182579437768,-0.001182571344563,0.0011825789250742,-0.0011825711016136,0.0011825801671491,-0.0011825706357655,0.0011825797010823,-0.00099104339819006,0.00099105131256693,-0.00099104410548387,0.00099105201954887,5.9474463713606e-10,-1.343550600422e-09,4.2693918312455e-10,-1.1543235688544e-09,-0.001789924958914,0.0017899242324549,-0.0019811045438532,0.00198110506557,-0.0019811044564408,0.0019811038484899,-0.0019811046084921,0.0019811037803412,-0.0019811045209955,0.001981102563165,-0.0015433646222484,0.0015433648070643,-0.001543367027309,0.001543364094972,-0.0016080900181493,0.0016080906655296,-0.0016080927374786,0.0016080895388938,3.9454960549068e-09,3.9454180483192e-09,-0.00085884128471055,0.00085885058188165,2.9330642113134e-09,4.6914908901911e-09,-0.00097670241299496,0.00097671174182235,-0.00097670178221903,0.00097671234893149,-0.00097670224440887,0.00097671157303702,-0.00097670163692384,0.0009767122034628,-0.00088299035811514,0.00088299898749626,-0.00088299030099095,0.00088299893064939,0.42052040144211,122718,2924,0.0043912963948486,0.0074294365286583,0.0035746533592414,35.468793002683,0.00019895034402146,0.00019895034402146,0.00019895034402146,3491932.3369931,0.015514984568975
13669200,0.99677529928404,0.016058153893607,0.0049934871113264,0.0067539378809037,0.0043107289013768,-0.0010520238514926,0.0010520319125778,3.6907571289179e-09,3.6906576379312e-09,2.3544925591681e-09,4.625285275945e-09,-0.001179642662709,0.0011796502482939,-0.0011796421482789,0.0011796497336341,-0.0011796418642246,0.0011796510228559,-0.0011796413957064,0.0011796505541189,-0.00098717431409924,0.00098718232308742,-0.00098717502261805,0.00098718303129435,6.4557450064215e-10,-1.4279413179612e-09,5.5928671723352e-10,-1.3185137144287e-09,-0.0017900159131755,0.0017900151546907,-0.0019813312256297,0.001981331856549,-0.0019813312279834,0.0019813305355338,-0.0019813313274751,0.0019813305205485,-0.0019813313297445,0.0019813291994371,-0.0015432667945432,0.0015432671941153,-0.0015432694833898,0.0015432661831742,-0.0016078147146948,0.001607815364384,-0.0016078175590505,0.0016078140955925,3.977665283306e-09,3.9775872863652e-09,-0.00085535283787444,0.00085536220808585,2.8217211174156e-09,4.8743686902501e-09,-0.00097430512510799,0.00097431441706306,-0.00097430439694023,0.0009743151216763,-0.00097430495519071,0.00097431424694643,-0.00097430425014748,0.00097431497471001,-0.00087927082726941,0.00087927962042243,-0.0008792707642372,0.0008792795576675,0.40038616224172,122718,2924,0.0043749565634423,0.0074297918659148,0.0035601884873492,34.269415322103,0.00018935532257683,0.00018935532257683,0.00018935532257683,3462331.6350586,0.015484070649154
14169200,0.99747826492063,0.016064441972875,0.0049952766507988,0.006756713927814,0.0043124513942625,-0.0010498862711231,0.0010498938393189,3.5111989190332e-09,3.5110994055717e-09,2.1507175453053e-09,4.4618432583394e-09,-0.001177163786081,0.0011771709524001,-0.0011771633293745,0.001177170495464,-0.0011771629765379,0.0011771717404439,-0.0011771625641676,0.001177171327855,-0.00098495922789481,0.00098496686667654,-0.00098495994381252,0.00098496758228242,6.5381938320782e-10,-1.4640630007332e-09,6.2244432945888e-10,-1.4086822617239e-09,-0.0017891543859815,0.0017891536004136,-0.0019812161449179,0.0019812168071141,-0.0019812162562165,0.0019812155029033,-0.0019812163050795,0.0019812155054242,-0.0019812164162938,0.0019812142011171,-0.0015416503705716,0.0015416508816156,-0.0015416532368675,0.0015416497434501,-0.0016062363868791,0.0016062370040823,-0.0016062393082681,0.0016062357226942,3.6913393880861e-09,3.691261384425e-09,-0.00085317779313874,0.00085318642325402,2.4644902461911e-09,4.6618873552068e-09,-0.00097177429815326,0.0009717829082868,-0.00097177352380404,0.00097178365974742,-0.00097177416340134,0.00097178277333561,-0.00097177341152076,0.00097178354729067,-0.00087707914785243,0.00087708738299149,-0.00087707908431869,0.00087708731973507,0.37793264643781,122718,2924,0.0043660900894752,0.0074262373535792,0.0035511595441281,33.391114743505,0.00018232891794804,0.00018232891794804,0.00018232891794804,3464913.384346,0.015462286635245
14669200,0.99798524328445,0.016069057496006,0.0049965948682841,0.0067587420001148,0.0043137206276069,-0.0010463810578418,0.001046390140461,4.0783585500818e-09,4.0782590422858e-09,2.6085435839017e-09,5.1581832934529e-09,-0.001173245613658,0.0011732540052802,-0.0011732449862033,0.0011732533775959,-0.0011732447235311,0.0011732548738847,-0.0011732441431359,0.0011732542932709,-0.00098131192963359,0.00098132085007256,-0.00098131263587145,0.00098132155599868,7.1924112420678e-10,-1.6221206445043e-09,7.9964660158052e-10,-1.6753537670336e-09,-0.0017862479558779,0.0017862470806145,-0.0019789239228336,0.0019789247335063,-0.0019789239968566,0.00197892307836,-0.0019789240209786,0.0019789232089046,-0.0019789240949173,0.001978921553662,-0.0015381385952534,0.0015381393721869,-0.0015381418227213,0.0015381377316909,-0.0016028181204637,0.0016028187127885,-0.0016028211786972,0.00160281713279,4.5599458644163e-09,4.5598678432556e-09,-0.0008494044973298,0.00084941534448312,3.1052511058573e-09,5.7647766799339e-09,-0.0009675869485244,0.00096759736061742,-0.00096758601619695,0.00096759826796633,-0.00096758670658164,0.00096759711847538,-0.00096758579879545,0.00096759805039143,-0.0008733221695008,0.00087333238937269,-0.00087332210077608,0.00087333232092529,0.38441963100934,122718,2924,0.0043515510240587,0.0074142263545917,0.003535498562916,31.613657409259,0.00016810925927407,0.00016810925927407,0.00016810925927407,3476853.7692665,0.015419422200764
15169200,0.99834011746793,0.016071797088734,0.0049973690270162,0.0067599629484539,0.0043144651132638,-0.0010395675969086,0.0010395783576167,4.7050771293146e-09,4.7049776526776e-09,3.0768711295759e-09,5.9749375868757e-09,-0.0011674845687951,0.001167494266567,-0.0011674837593318,0.0011674934568741,-0.0011674835626858,0.0011674952522709,-0.0011674828027256,0.0011674944920922,-0.00097463627177179,0.00097464663901022,-0.00097463696176593,0.00097464732869259,8.3452088172461e-10,-1.8402265523714e-09,1.0744893722637e-09,-2.0486122115385e-09,-0.001782414243254,0.0017824132691728,-0.0019748664252253,0.0019748674788405,-0.0019748665119769,0.0019748653880257,-0.0019748664834057,0.001974865681275,-0.001974866570073,0.0019748635903639,-0.0015344103160587,0.0015344115137401,-0.0015344140846164,0.001534409150262,-0.0015989795776826,0.0015989801761322,-0.0015989828598037,0.0015989781674236,5.5233876247701e-09,5.5233096149767e-09,-0.00084277232659582,0.0008427856270563,3.7425501873961e-09,7.0680838780565e-09,-0.00096208189059318,0.00096209421796584,-0.0009620807325208,0.00096209534895637,-0.00096208153450505,0.0009620938616785,-0.00096208040295849,0.00096209501922056,-0.00086663523041997,0.00086664770421319,-0.00086663515573355,0.00086664762980411,0.32656089316403,122718,2924,0.0043233011477677,0.007398346970517,0.0035079845472071,28.832484004851,0.0001458598720388,0.0001458598720388,0.0001458598720388,3460125.4275848,0.015346684135193
15669200,0.99859221458734,0.016074798398887,0.0049982420553028,0.0067612494290628,0.0043153069145209,-0.0010356160276694,0.0010356271424406,4.8525376785218e-09,4.8524381610294e-09,3.0573403930739e-09,6.283767355103e-09,-0.0011612912180757,0.0011613011718634,-0.0011612903662488,0.001161300319807,-0.0011612901065838,0.0011613022680512,-0.001161289304024,0.0011613014652729,-0.00097022566385776,0.00097023644174133,-0.00097022636240069,0.0009702371399726,9.0880822165031e-10,-2.0876975703605e-09,1.3207478008848e-09,-2.4627696073731e-09,-0.0017753946852753,0.0017753935429122,-0.0019693009608356,0.0019693021738977,-0.0019693012171824,0.0019692998146568,-0.0019693010940376,0.0019693002372222,-0.0019693013503004,0.0019692978778854,-0.0015259903221627,0.001525991893104,-0.0015259947364426,0.0015259888788429,-0.0015910242534347,0.0015910247768618,-0.0015910278555985,0.0015910224542068,5.7416966208889e-09,5.7416185661411e-09,-0.00083762972789032,0.00083764355798773,3.6330057278747e-09,7.6200596784764e-09,-0.00095457869229254,0.00095459133321926,-0.00095457731384546,0.00095459268374601,-0.00095457830832634,0.00095459094905398,-0.00095457695723979,0.00095459232696686,-0.00086181093242449,0.00086182407592798,-0.00086181085521105,0.00086182399899225,0.50114739247031,122718,2924,0.0043068873636446,0.0073693636295371,0.0034866142052122,25.866403514434,0.00012213122811547,0.00012213122811547,0.00012213122811547,3526144.0281802,0.015278881165822
16169200,0.99879511024199,0.01607756527496,0.0049990454252468,0.0067624415607956,0.0043160782889174,-0.0010249090593692,0.0010249169648723,3.6328371340913e-09,3.6327376823624e-09,1.9480628699816e-09,4.9544803969659e-09,-0.0011592334233828,0.0011592405872782,-0.0011592329570375,0.0011592401207038,-0.0011592323910466,0.0011592416071825,-0.0011592319659244,0.001159241181841,-0.00096131725524462,0.00096132538568287,-0.00096131796123101,0.00096132609135767,9.443480630502e-10,-1.8694954949606e-09,1.3775729902084e-09,-2.270573717708e-09,-0.0017812882910064,0.0017812873976791,-0.0019707514651663,0.0019707527772895,-0.0019707520678551,0.0019707509056255,-0.0019707518193653,0.0019707512159932,-0.0019707524219679,0.0019707493442326,-0.0015356094700812,0.001535611232713,-0.0015356138613211,0.0015356084422313,-0.0015992473076013,0.0015992479652406,-0.0015992508545914,0.0015992459328447,3.8822081290595e-09,3.8821302907609e-09,-0.00083052800835089,0.00083053709743461,1.8717122556813e-09,5.6768047854535e-09,-0.00095645347159914,0.0009564618789282,-0.00095645216434159,0.00095646316357302,-0.00095645333048676,0.00095646173761647,-0.00095645204495782,0.00095646304401568,-0.00085409831818276,0.00085410748751461,-0.0008540982375061,0.00085410740711494,0.57461737877701,122718,2924,0.0042625532986144,0.0073935441901534,0.0034572183263119,24.849269458076,0.00011399415566461,0.00011399415566461,0.00011399415566461,3320078.75048,0.015228629354767
16669200,0.99896206938735,0.016080259375218,0.004999832504279,0.0067635836727181,0.0043168431982209,-0.0010174785410289,0.0010174860050733,3.4566826233344e-09,3.4565832017885e-09,1.877620781246e-09,4.6677175221396e-09,-0.0011548796663484,0.0011548865050451,-0.0011548792480054,0.0011548860864721,-0.0011548787049432,0.0011548874525965,-0.0011548783271592,0.0011548870745935,-0.00095484173820962,0.00095484943479629,-0.00095484243829128,0.00095485013456681,8.8287643817202e-10,-1.7181192588125e-09,1.3054885656322e-09,-2.1107717770182e-09,-0.0017833386686618,0.0017833378632227,-0.0019723887696633,0.0019723900182027,-0.0019723893459163,0.0019723882790299,-0.0019723890877819,0.001972388563667,-0.0019723896639497,0.0019723868243973,-0.001537507470649,0.0015375091659389,-0.0015375116446995,0.0015375066108517,-0.0016006122718968,0.0016006128880017,-0.0016006156240321,0.0016006110788708,3.6041801398884e-09,3.6041022974429e-09,-0.00082519192903643,0.0008252003349775,1.7111023962905e-09,5.2798148192181e-09,-0.0009540599211068,0.00095406778571696,-0.0009540586935959,0.0009540689912872,-0.00095405980885263,0.00095406767326359,-0.00095405860249432,0.00095406890001205,-0.00084871918166357,0.00084872769911456,-0.00084871910418489,0.00084872762191284,0.67725955517438,122718,2924,0.004231773063102,0.0074019573303985,0.003435112732191,24.09612345208,0.00010796898761664,0.00010796898761664,0.00010796898761664,3233210.8460573,0.015183491927933
17169200,0.99909952452884,0.016082420019838,0.0050004605253917,0.0067645028828816,0.0043174566115647,-0.0010087775230198,0.0010087851621629,3.5081175767139e-09,3.5080182014586e-09,2.0030618050151e-09,4.6560068187759e-09,-0.0011499126373471,0.0011499196380911,-0.0011499122001955,0.0011499192007097,-0.0011499117193744,0.0011499205398397,-0.0011499113232774,0.0011499201435238,-0.00094700178334784,0.00094700955521889,-0.00094700247820181,0.00094701024976189,8.5415130220521e-10,-1.6087558041733e-09,1.2634319830202e-09,-1.9899697417315e-09,-0.0017859777008463,0.0017859769743098,-0.001974478558226,0.0019744797884909,-0.0019744790585708,0.0019744780780808,-0.0019744788088498,0.0019744783550051,-0.0019744793091091,0.0019744766444978,-0.0015402290562537,0.0015402307152537,-0.0015402330511529,0.0015402283020497,-0.0016026645628243,0.0016026651763876,-0.0016026677544768,0.0016026634799457,3.6750623476621e-09,3.674984524363e-09,-0.00081907834353484,0.00081908695979011,1.8626481441425e-09,5.2716735526653e-09,-0.00095152075432438,0.0009515288199694,-0.00095151957927705,0.00095152997315372,-0.00095152062946248,0.00095152869490832,-0.00095151947556359,0.00095152986926656,-0.00084226733883866,0.00084227596393464,-0.00084226725479582,0.00084227588016818,0.65970398946713,122718,2924,0.0041957325790227,0.007412791101779,0.0034097844512142,23.239627850707,0.00010111702280566,0.00010111702280566,0.00010111702280566,3126347.7076213,0.01513220984582
17669200,0.99920356565868,0.01608380413015,0.0050008591857085,0.0067650965524879,0.004317848391954,-0.0010011228583977,0.0010011332839618,4.529392461594e-09,4.5292930754029e-09,2.942471283671e-09,5.8017301791255e-09,-0.0011410354101438,0.001141044693489,-0.0011410346657608,0.0011410439488766,-0.0011410344198208,0.001141045665896,-0.0011410337215241,0.0011410449673807,-0.0009391572184801,0.00093916724690492,-0.00093915790027184,0.00093916792838551,8.938721760539e-10,-1.7486995034011e-09,1.3705351926789e-09,-2.1936114352646e-09,-0.0017815771413646,0.0017815763181001,-0.0019724562168349,0.0019724575451924,-0.0019724564822912,0.0019724553570332,-0.0019724562663176,0.0019724557662309,-0.0019724565316887,0.0019724535779749,-0.0015334595219762,0.001533461318064,-0.001533463669823,0.0015334584626442,-0.0015958984672951,0.0015958990437876,-0.0015959016686484,0.0015958970130491,5.1940280007011e-09,5.1939501227126e-09,-0.00081164905988511,0.00081166162048898,3.2194570645025e-09,6.9720553917335e-09,-0.00094287219684886,0.00094288356732516,-0.00094287090018396,0.00094288483868849,-0.00094287187194404,0.00094288324222116,-0.00094287059998747,0.00094288453831838,-0.00083468254685417,0.00083469451526321,-0.0008346824481193,0.00083469441680477,0.55856439011169,122718,2924,0.0041639823498165,0.0073946229814081,0.0033789489101404,20.726482323622,8.1011858588975e-05,8.1011858588975e-05,8.1011858588975e-05,3129082.3504101,0.01505022639183
18169200,0.99928380784238,0.01608482189346,0.0050011522889421,0.0067655329783086,0.0043181366262095,-0.00099841288097981,0.00099842334176237,4.5649435189895e-09,4.5648440543862e-09,2.8597698784491e-09,5.9336915529726e-09,-0.001133533734891,0.0011335430939034,-0.0011335329764606,0.0011335423352439,-0.0011335326764537,0.0011335441390781,-0.0011335319638364,0.0011335434262425,-0.00093544697060655,0.00093545712554886,-0.00093544768476985,0.00093545783940096,9.1690435608366e-10,-1.9345636967305e-09,1.4669826180998e-09,-2.4486067098635e-09,-0.0017743410920208,0.0017743401100003,-0.0019688444297282,0.001968845786367,-0.0019688447993988,0.0019688434705149,-0.0019688445432367,0.0019688439324989,-0.0019688449128228,0.0019688416165503,-0.0015230010131048,0.0015230029266028,-0.0015230055512014,0.0015229997706296,-0.0015860072639262,0.0015860077667904,-0.001586010719444,0.0015860055789279,5.2135891269309e-09,5.2135111759446e-09,-0.00080709947319722,0.00080711205538612,3.061398812103e-09,7.1648868094102e-09,-0.00093365620610297,0.00093366760469035,-0.00093365479277387,0.00093366899213252,-0.00093365587029614,0.00093366726868418,-0.00093365448240551,0.0009336686815908,-0.00083018479373203,0.00083019690198145,-0.00083018468004918,0.00083019678857503,0.53257349348506,122718,2924,0.0041526958535372,0.0073648055488829,0.003360015916214,18.290398733942,6.1523189871539e-05,6.1523189871539e-05,6.1523189871539e-05,3217657.0360993,0.014989260756555
18669200,0.99935148381398,0.016085706570822,0.0050014074591297,0.0067659126513611,0.0043183864603313,-0.0009966670174576,0.00099667534433209,3.7892305945512e-09,3.7891311188627e-09,2.1276316638407e-09,5.0805323937522e-09,-0.001130785735481,0.0011307933446264,-0.0011307852208271,0.0011307928297432,-0.0011307847215815,0.0011307943484757,-0.0011307842480218,0.0011307938746976,-0.0009333274684448,0.00093333591975587,-0.00093332819960269,0.0009333366506026,8.785148825322e-10,-1.8728998931939e-09,1.4098044081489e-09,-2.3702189942602e-09,-0.0017721068749662,0.0017721059143234,-0.0019673109005824,0.0019673121737078,-0.0019673114893515,0.001967310198729,-0.0019673111826447,0.001967310575357,-0.0019673117713292,0.0019673086002817,-0.0015203772984188,0.001520379142719,-0.0015203818240411,0.0015203762283098,-0.0015834461133806,0.0015834465940597,-0.0015834496051169,0.0015834446323649,4.0297158446824e-09,4.0296379042251e-09,-0.00080489278709463,0.00080490228720839,1.9559627307694e-09,5.8945009841091e-09,-0.00093056135636575,0.00093057014440695,-0.00093056000456101,0.00093057147323552,-0.00093056117685074,0.00093056996469279,-0.00093055984758272,0.00093057131608381,-0.00082778709720192,0.00082779663408995,-0.00082778699159403,0.00082779652875872,0.54931835431737,122718,2924,0.004145437877258,0.0073555866782339,0.0033508331533892,17.17623749461,5.2609899956877e-05,5.2609899956877e-05,5.2609899956877e-05,3231630.2944882,0.014963215700464
19169200,0.99941179478716,0.016086701810448,0.0050016975795464,0.0067663340563329,0.0043186701745689,-0.00099489516948133,0.00099490243249624,3.3999560641908e-09,3.3998565921401e-09,1.7588210244272e-09,4.6831137280314e-09,-0.0011297592531788,0.00112976594679,-0.0011297587396346,0.0011297654330164,-0.0011297582486397,0.0011297669405983,-0.0011297577762229,0.0011297664679632,-0.00093173566580428,0.00093174321114687,-0.00093173639487678,0.00093174393990823,8.8329315667685e-10,-1.8603694536373e-09,1.4121743040444e-09,-2.3558301121837e-09,-0.0017724357562129,0.0017724348123194,-0.0019674085240745,0.0019674098072727,-0.0019674091095482,0.0019674078366892,-0.0019674088036586,0.0019674082115853,-0.0019674093890475,0.0019674062409053,-0.0015209323681964,0.0015209342199958,-0.0015209368828801,0.0015209313182698,-0.0015839434447585,0.0015839439390805,-0.0015839469270561,0.0015839419832133,3.3608767094941e-09,3.3607987815218e-09,-0.00080354355105648,0.00080355131901238,1.3190466736766e-09,5.2113725989982e-09,-0.00092993484889036,0.00092994210748704,-0.00092993351317734,0.00092994342026689,-0.00092993467087491,0.00092994192927239,-0.00092993335762394,0.00092994326454015,-0.00082647129831631,0.00082647930787589,-0.00082647119308379,0.00082647920291997,0.69230824716666,122718,2924,0.0041380949140139,0.0073569271423918,0.0033452365490223,16.900895777061,5.0407166216486e-05,5.0407166216486e-05,5.0407166216486e-05,3194306.5787788,0.014951449724774
19669200,0.99947073618903,0.016087626356307,0.0050019653957863,0.0067667285709624,0.0043189323895581,-0.00099038630416576,0.00099039056656501,2.274747822986e-09,2.2746484296666e-09,8.6491717892536e-10,3.2636890465399e-09,-0.0011314577295126,0.0011314620403107,-0.001131457660077,0.0011314619706455,-0.0011314569017491,0.0011314628562883,-0.0011314568666376,0.0011314628209578,-0.00092861064300746,0.00092861568648706,-0.0009286113813221,0.00092861642449133,7.5825158052294e-10,-1.4783872000211e-09,1.137520452531e-09,-1.8328179926096e-09,-0.0017804088473354,0.0017804081524014,-0.0019722425785824,0.0019722436339124,-0.0019722433885954,0.0019722424668571,-0.0019722430584217,0.0019722426078403,-0.0019722438683492,0.0019722414406873,-0.0015315913231103,0.0015315928253685,-0.0015315952556277,0.0015315908859354,-0.0015933994551486,0.0015933999861573,-0.0015934026567248,0.0015933987347268,1.7588129680594e-09,1.758735164098e-09,-0.00080252449840837,0.00080252816302426,9.6991062224921e-11,3.181412369319e-09,-0.00093508450495898,0.00093508845772651,-0.00093508344752644,0.00093508949758647,-0.00093508461499294,0.00093508856756133,-0.00093508357462766,0.00093508962451368,-0.00082487485534952,0.00082487930181694,-0.00082487476550653,0.00082487921225072,0.65852026479616,122718,2924,0.0041194561717227,0.0073897626200844,0.0033410637132881,18.192917143531,6.0743337148252e-05,6.0743337148252e-05,6.0743337148252e-05,3051961.1625398,0.014961659597063
20169200,0.99952515159576,0.016088533066278,0.005002229494427,0.0067671105428574,0.0043191930289939,-0.00099019680769621,0.0009902021434274,2.6689005568832e-09,2.6688011302098e-09,1.261490097689e-09,3.6422412183839e-09,-0.0011302909060009,0.0011302961503782,-0.0011302908372279,0.0011302960813757,-0.0011302900841564,0.0011302969608494,-0.0011302900496357,0.0011302969261101,-0.00092850267804591,0.00092850862249163,-0.00092850341765845,0.00092850936179369,7.2754559486384e-10,-1.4718732846933e-09,1.0944939563139e-09,-1.8138997023151e-09,-0.0017806653808077,0.0017806646618614,-0.001973157652992,0.0019731586514152,-0.0019731584441176,0.0019731575072129,-0.0019731581217378,0.0019731576387455,-0.0019731589127782,0.0019731564944461,-0.0015312288736506,0.0015312303030642,-0.0015312327446174,0.0015312284241272,-0.0015930596569324,0.001593060147004,-0.0015930628239295,0.0015930589349607,2.4135267979719e-09,2.4134489504383e-09,-0.00080243422350234,0.00080243958604999,7.5986954018361e-10,3.8121497801901e-09,-0.00093401486315197,0.00093402033022208,-0.00093401381589891,0.0009340213599395,-0.0009340149725768,0.00093402043944766,-0.00093401394241318,0.00093402148628014,-0.00082491928145657,0.00082492519938509,-0.00082491919271964,0.00082492511092465,0.69765109272252,122718,2924,0.0041186645863487,0.0073908433929486,0.0033406841653222,18.642251319521,6.4338010556171e-05,6.4338010556171e-05,6.4338010556171e-05,3062219.244102,0.014961554732406
20669200,0.99957332979408,0.016089195744553,0.0050024202302676,0.0067673941647746,0.0043193813495109,-0.00098701767756745,0.00098702419108328,3.104094574661e-09,3.1039951748119e-09,1.6968162259971e-09,4.0696950189048e-09,-0.0011279183599114,0.0011279246134029,-0.0011279181849025,0.0011279244381645,-0.0011279175389216,0.0011279254212447,-0.0011279173996451,0.0011279252817496,-0.000925602591714,0.00092560952504418,-0.00092560325326762,0.00092561018628717,7.2435146644227e-10,-1.4578103817171e-09,1.0840734504767e-09,-1.7928359387986e-09,-0.0017813702778088,0.0017813695695291,-0.0019742456304154,0.0019742466319123,-0.0019742463028497,0.0019742453793237,-0.0019742460152343,0.0019742455400652,-0.0019742466875834,0.0019742442873795,-0.0015316463514502,0.0015316477649128,-0.0015316500903805,0.0015316458172676,-0.0015934012781011,0.001593401770954,-0.0015934043423169,0.0015934004912388,3.0530753973041e-09,3.052997565123e-09,-0.00080008576241324,0.00080009278475476,1.4009253126639e-09,4.4361994846362e-09,-0.00093237947620434,0.00093238640039885,-0.00093237843312442,0.00093238742518773,-0.00093237951858432,0.00093238644257964,-0.00093237849344455,0.00093238748533432,-0.00082264586155867,0.00082265321180373,-0.00082264582455897,0.0008226531750805,0.57721928077641,122718,2924,0.0041054923929108,0.0073937392485322,0.0033309488275215,18.40908183802,6.2472654704157e-05,6.2472654704157e-05,6.2472654704157e-05,3003737.3149937,0.014941249106825
21169200,0.99961130202619,0.016089747764321,0.0050025803570153,0.0067676276833161,0.0043195397239897,-0.00098537061019816,0.00098538095821699,4.5327207524281e-09,4.5326212877389e-09,2.9872593307228e-09,5.7277400963541e-09,-0.0011209625997827,0.0011209720149873,-0.0011209618600531,0.0011209712750286,-0.0011209616466653,0.00112097294925,-0.0011209609536429,0.0011209722560099,-0.00092287896573242,0.00092288893876922,-0.00092287969047133,0.00092288966319733,7.8771663632688e-10,-1.729544571777e-09,1.1953304512399e-09,-2.1066344295289e-09,-0.0017746595145439,0.001774658603506,-0.001971854661533,0.0019718557784955,-0.0019718548595778,0.0019718536932805,-0.0019718546815256,0.001971854047684,-0.0019718548794858,0.0019718519623726,-0.0015207633020843,0.0015207647938721,-0.0015207672714304,0.001520762274357,-0.0015829428045044,0.001582943254642,-0.0015829459568266,0.0015829414252046,5.0879637465971e-09,5.0878858160367e-09,-0.00079654055068512,0.00079655280931326,3.2318640489188e-09,6.7256445108975e-09,-0.00092374974933403,0.00092376110510249,-0.00092374853813777,0.00092376229071347,-0.00092374942457539,0.00092376078014461,-0.00092374823880534,0.00092376199120753,-0.00081888313596781,0.00081889477627394,-0.00081888301099228,0.0008188946515751,0.60901821851643,122718,2924,0.0040986262051378,0.0073661117852563,0.003316202819363,16.146174169073,4.4369393352587e-05,4.4369393352587e-05,4.4369393352587e-05,3121066.3280229,0.014891246205201
21669200,0.99964248671922,0.016090214242497,0.0050027154652713,0.0067678260260449,0.0043196727511808,-0.00098017537536908,0.00098018490350471,4.2337255273744e-09,4.2336261001368e-09,2.6203935230376e-09,5.5013602282801e-09,-0.0011176628999384,0.0011176715480295,-0.0011176622638098,0.0011176709116717,-0.0011176619042798,0.0011176725283068,-0.0011176613121824,0.0011176719359911,-0.0009178028531426,0.00091781223156144,-0.00091780358094476,0.00091781295905265,8.5765352977338e-10,-1.8111840208067e-09,1.2948815017884e-09,-2.2167575546372e-09,-0.0017731329040316,0.001773131982214,-0.0019693450191546,0.0019693462307838,-0.0019693453916007,0.0019693441973982,-0.0019693451672328,0.0019693445398315,-0.0019693455395939,0.001969342506349,-0.0015202899721254,0.0015202916131622,-0.0015202941797946,0.0015202889151998,-0.0015821712655657,0.0015821717889043,-0.0015821746018765,0.0015821698402522,4.63748525195e-09,4.6374073668147e-09,-0.00079198670841149,0.00079199778195393,2.687416016256e-09,6.3760594473415e-09,-0.00092117494125491,0.00092118517072227,-0.00092117366853961,0.00092118641936601,-0.00092117468407039,0.0009211849133385,-0.00092117343511007,0.00092118618576303,-0.00081400545294145,0.0008140161984208,-0.00081400532598843,0.00081401607174423,0.62746274686801,122718,2924,0.0040770859732347,0.0073597540202584,0.0032973060021373,14.400489433639,3.0403915469109e-05,3.0403915469109e-05,3.0403915469109e-05,3081329.7433756,0.014843771594931
22169200,0.9996712056422,0.016090619026091,0.0050028323287336,0.0067679986730047,0.0043197880243526,-0.00097872064211289,0.00097872794336814,3.4183150279326e-09,3.418215570247e-09,1.8329089217932e-09,4.6812815470033e-09,-0.0011169416260455,0.0011169483611584,-0.001116940990349,0.0011169477252326,-0.0011169406420828,0.0011169493296879,-0.0011169400503611,0.0011169487377479,-0.00091657939695083,0.00091658688929195,-0.00091658012266178,0.000916587614692,8.6464341279608e-10,-1.8130417271433e-09,1.3040592313562e-09,-2.2207719931753e-09,-0.0017738220843694,0.0017738211676867,-0.0019698890936473,0.0019698903174632,-0.0019698894692913,0.0019698882787438,-0.0019698892435616,0.0019698886226703,-0.0019698896191206,0.0019698865838541,-0.0015210859871569,0.0015210876433897,-0.0015210902111815,0.001521084935855,-0.0015829181664829,0.0015829186994587,-0.00158292151128,0.0015829167417153,3.2426709052915e-09,3.2425930117299e-09,-0.00079105024685406,0.00079105770981604,1.3411509800523e-09,4.9711052447362e-09,-0.00092090695392809,0.00092091399624001,-0.00092090570241317,0.00092091522374522,-0.00092090669752119,0.00092091373963388,-0.00092090546970005,0.0009209149908587,-0.00081316757921144,0.00081317515424882,-0.00081316745375266,0.00081317502906641,0.59124106156817,122718,2924,0.0040710565163304,0.0073625846331099,0.003293420216673,14.42112068514,3.0568965481124e-05,3.0568965481124e-05,3.0568965481124e-05,3045671.0015249,0.01483658570115
22669200,0.99969890239151,0.0160910489192,0.0050029573199212,0.0067681801662632,0.004319911433016,-0.00098061224882517,0.00098061791230624,2.8030551742319e-09,2.8029556967804e-09,1.2372927322788e-09,4.049565625844e-09,-0.0011180363389593,0.0011180416808431,-0.0011180359357253,0.0011180412773799,-0.0011180353701414,0.0011180426379435,-0.0011180350073885,0.0011180422749723,-0.00091837932198623,0.00091838542275682,-0.00091838020795668,0.00091838630841643,8.4326866772105e-10,-1.8031420232489e-09,1.2716420417379e-09,-2.2000230688642e-09,-0.0017751093580028,0.0017751084296811,-0.0019714515976743,0.0019714527634723,-0.0019714521944904,0.0019714510042035,-0.0019714519079044,0.0019714512635621,-0.0019714525046356,0.0019714495041966,-0.0015220943510093,0.0015220959571989,-0.0015220987348824,0.0015220935098913,-0.001583898008465,0.0015838985200435,-0.0015839015051203,0.0015838967734505,2.3928577032956e-09,2.3927798074988e-09,-0.00079287631042265,0.00079288159400533,5.2633205165241e-10,4.0996882186984e-09,-0.00092198143919792,0.00092198659497121,-0.00092198020946523,0.000921987802591,-0.00092198132853917,0.00092198648411329,-0.00092198012055284,0.00092198771350525,-0.00081490584713609,0.00081491152276985,-0.00081490561526173,0.0008149112911718,0.65014702865388,122718,2924,0.0040788950017658,0.0073679286240725,0.0033009895860507,15.215535195975,3.6924281567803e-05,3.6924281567803e-05,3.6924281567803e-05,3072672.2505632,0.014857639222753
23169200,0.99972469555857,0.016091428444826,0.0050030671465199,0.0067683414532264,0.0043200198450801,-0.00097847886861105,0.00097848480609376,2.88632856105e-09,2.8862291424452e-09,1.3191352034978e-09,4.1089323610545e-09,-0.0011176991344694,0.0011177047333315,-0.0011176988905321,0.0011177044891649,-0.0011176981747706,0.0011177056832927,-0.0011176979684656,0.0011177054767694,-0.00091659744095395,0.00091660380011955,-0.00091659838215091,0.00091660474100568,8.4769444278136e-10,-1.7591205896323e-09,1.2631314442014e-09,-2.1438653337386e-09,-0.0017770524371431,0.0017770515564233,-0.0019731297048688,0.0019731308677969,-0.0019731304498138,0.00197312931812,-0.0019731301309197,0.0019731295224041,-0.0019731308757796,0.0019731279726303,-0.0015243081300977,0.0015243097376635,-0.0015243125539423,0.0015243074524777,-0.0015859937897674,0.0015859943364129,-0.0015859973527642,0.0015859927308849,2.6518638536002e-09,2.6517860155663e-09,-0.00079177621126591,0.0007917822069096,7.8617092516495e-10,4.3318882658835e-09,-0.00092254730302045,0.00092255312976505,-0.00092254608460341,0.00092255432795229,-0.00092254729645558,0.00092255312300102,-0.00092254609793936,0.00092255434111483,-0.00081385393856218,0.00081386028650834,-0.00081385366972112,0.0008138600179436,0.61692430939991,122718,2924,0.0040700684300581,0.0073759223580662,0.0032964451674658,15.498011223563,3.9184089788503e-05,3.9184089788503e-05,3.9184089788503e-05,2992663.0207863,0.014852194476059
23669200,0.9997495004308,0.016091821259469,0.0050031815053722,0.006768506766132,0.0043201329879649,-0.00098000217116845,0.00098000728853324,2.5974685941542e-09,2.5973691367741e-09,1.2064667764814e-09,3.5724101082646e-09,-0.0011184320929979,0.0011184371550922,-0.0011184319384094,0.0011184370002744,-0.0011184312744876,0.0011184379611867,-0.001118431155572,0.0011184378420528,-0.00091818320593491,0.00091818892688943,-0.00091818394739276,0.00091818966803649,7.0090258420129e-10,-1.494740391413e-09,9.7622570615126e-10,-1.7449111540444e-09,-0.001778807526575,0.0017788067584422,-0.0019754529880202,0.0019754538844078,-0.0019754536255301,0.0019754526988736,-0.0019754533795987,0.0019754527886141,-0.0019754540170235,0.0019754516029831,-0.0015254577815382,0.0015254589753494,-0.0015254614366731,0.0015254572529175,-0.0015868299713716,0.0015868304659995,-0.0015868330960431,0.001586829223513,2.1718350126371e-09,2.1717571510451e-09,-0.00079354041921258,0.00079354515811261,6.3344555411431e-10,3.4760072852054e-09,-0.0009236579404079,0.00092366291283053,-0.00092365696177823,0.00092366387319017,-0.00092365799223045,0.00092366296445388,-0.00092365703165561,0.00092366394289415,-0.00081530792342677,0.00081531316965323,-0.00081530782667694,0.00081531307317958,0.66287439894521,122718,2924,0.0040763868030822,0.0073832020675303,0.0033037654600928,16.354203954747,4.6033631637977e-05,4.6033631637977e-05,4.6033631637977e-05,3018560.8490876,0.014873417184331
24169200,0.99977382842605,0.016092204838252,0.0050032929530637,0.0067686686114671,0.0043202432737212,-0.00098002813286714,0.00098003245840181,2.2969690164674e-09,2.2968695900913e-09,1.0742141026436e-09,3.0900085212431e-09,-0.0011204333802022,0.0011204378750445,-0.0011204333042461,0.0011204377988588,-0.001120432674735,0.0011204385636178,-0.0011204326342716,0.0011204385229358,-0.00091858400364211,0.0009185889716151,-0.0009185847435911,0.00091858971125326,6.000069598463e-10,-1.2532219229599e-09,7.3301398533767e-10,-1.366397039626e-09,-0.001783039384174,0.0017830387517968,-0.001978812604497,0.001978813312113,-0.0019788131314881,0.0019788124322414,-0.001978812953808,0.0019788124039753,-0.001978813480714,0.0019788115240067,-0.001530501668777,0.0015305025033171,-0.0015305047581575,0.0015305014331576,-0.001591473150063,0.0015914736548802,-0.0015914759789929,0.0015914727905408,1.7312964826838e-09,1.7312186534144e-09,-0.00079489439677,0.00079489801758644,4.9695130674341e-10,2.7138202142435e-09,-0.00092693701365777,0.00092694121077493,-0.00092693624410837,0.00092694196306519,-0.00092693711845224,0.00092694131537013,-0.00092693636602075,0.00092694208480399,-0.00081638283685611,0.00081638694499203,-0.00081638274385307,0.00081638685226518,0.66023378993695,122718,2924,0.0040765191102429,0.0074006605676876,0.0033094054970966,17.643922851033,5.6351382808264e-05,5.6351382808264e-05,5.6351382808264e-05,2962295.8597763,0.014897006099384
24669200,0.99979640137559,0.016092600692476,0.0050034086537373,0.0067688339973512,0.0043203580413875,-0.00097994230715947,0.00097994766714919,2.6752000131671e-09,2.6751005944157e-09,1.4500403423088e-09,3.4596646782071e-09,-0.0011203461291179,0.0011203515165288,-0.0011203460533671,0.0011203514405486,-0.001120345425082,0.0011203522034393,-0.0011203453848825,0.0011203521630215,-0.0009185910695338,0.00091859690617919,-0.00091859181034004,0.00091859764667472,5.8881622036277e-10,-1.2395243229416e-09,7.0999376288379e-10,-1.3411100418911e-09,-0.0017840297574417,0.0017840291273739,-0.0019799735778939,0.0019799742638486,-0.0019799740902726,0.0019799734010828,-0.0019799739196931,0.0019799733643713,-0.0019799744319867,0.0019799725015085,-0.0015313257801477,0.0015313265776391,-0.0015313288205913,0.0015313255535887,-0.0015922848601848,0.0015922853587221,-0.0015922876645173,0.0015922845190702,2.368753540073e-09,2.3686757065684e-09,-0.0007951003789827,0.00079510565380031,1.1337002752054e-09,3.3343479028887e-09,-0.00092711004680506,0.00092711571309246,-0.00092710928188388,0.00092711646077485,-0.00092711015153378,0.00092711581762192,-0.00092710940373213,0.00092711658244965,-0.00081663570370184,0.00081664124847504,-0.00081663560984655,0.00081664115489579,0.73316722680277,122718,2924,0.0040761678169068,0.0074047554805822,0.0033102653832276,18.118309974277,6.0146479794218e-05,6.0146479794218e-05,6.0146479794218e-05,2949332.2931556,0.014901675956329
25169200,0.99981790795156,0.016092948069795,0.0050035096024776,0.0067689801982911,0.0043204582690262,-0.00097803655610244,0.00097804135772844,2.4678153961101e-09,2.4677159959371e-09,1.3471021628286e-09,3.1662918374872e-09,-0.0011210870185028,0.0011210919726548,-0.0011210868867968,0.0011210918407196,-0.0011210863737777,0.0011210925956794,-0.0011210862795705,0.0011210925012538,-0.00091726316900887,0.00091726843987949,-0.00091726390255296,0.00091726917311284,5.4146615102194e-10,-1.110927613424e-09,5.571874910105e-10,-1.1098803405645e-09,-0.0017886551491753,0.0017886545977804,-0.0019838153119694,0.001983815899635,-0.0019838156434834,0.0019838150989153,-0.0019838155517542,0.0019838150075332,-0.0019838158831826,0.0019838142067161,-0.0015365428104279,0.0015365433647515,-0.0015365454552057,0.0015365427030484,-0.0015968995809816,0.001596900111452,-0.0015969021805713,0.0015968994168615,1.9847675287144e-09,1.9846897353409e-09,-0.00079518345891273,0.00079518774455251,9.5645215360207e-10,2.7517936396916e-09,-0.00092972924971019,0.00092973415662112,-0.00092972861795501,0.00092973477060173,-0.000929729320508,0.00092973422721987,-0.00092972870646733,0.00092973485894061,-0.00081632129369801,0.00081632580181878,-0.00081632119505763,0.00081632570345465,0.67589005131068,122718,2924,0.0040683001734267,0.0074238273229186,0.0033106410057436,19.115012595555,6.812010076444e-05,6.812010076444e-05,6.812010076444e-05,2877158.3812545,0.014913444568636
25669200,0.99983895873507,0.016093324804976,0.0050036198887215,0.0067691367880513,0.0043205681282032,-0.00098198214440967,0.00098198588074866,2.0749748526815e-09,2.0748754000531e-09,1.0771258702959e-09,2.6222632067179e-09,-0.0011225008601406,0.0011225050086217,-0.0011225008433634,0.001122504991615,-0.0011225003063079,0.0011225055398072,-0.0011225003255794,0.0011225055588603,-0.00092093461814071,0.0009209389604732,-0.0009209353591397,0.00092093970116146,4.3915032799422e-10,-9.488728271747e-10,3.0056406897401e-10,-7.9672679342571e-10,-0.0017903774104111,0.0017903769158748,-0.0019874388405325,0.00198743919854,-0.0019874391167397,0.0019874387317204,-0.0019874390939516,0.0019874385025686,-0.0019874393700737,0.0019874380356521,-0.0015365520700632,0.0015365522129992,-0.0015365542219531,0.0015365521723252,-0.0015970437300757,0.0015970442509288,-0.001597046144034,0.001597043889573,1.3787511943768e-09,1.3786733548136e-09,-0.00079864541026229,0.00079864814653617,6.353650929149e-10,1.8488486272809e-09,-0.00093077111772185,0.00093077487273418,-0.00093077068225955,0.00093077529175268,-0.00093077126102616,0.00093077501583922,-0.00093077084207656,0.0009307754513963,-0.00081977018065594,0.00081977321551311,-0.0008197700931907,0.0008197731283241,0.74729964234783,122718,2924,0.0040846506640979,0.0074310091333935,0.0033249944375135,20.728017170145,8.1024137361163e-05,8.1024137361163e-05,8.1024137361163e-05,2907653.1005221,0.014951878635311
26169200,0.99985741446716,0.016093649487768,0.0050037146259533,0.0067692724492331,0.0043206624125819,-0.00097815179289471,0.00097815853310633,3.1789725044085e-09,3.1788731173842e-09,2.1385359009848e-09,3.8262351828475e-09,-0.0011214755935972,0.0011214822179671,-0.0011214752493326,0.0011214818734735,-0.0011214749848939,0.0011214827979604,-0.001121474683204,0.0011214824960523,-0.00091754611661105,0.00091755286691243,-0.00091754683951757,0.00091755358950836,4.8768931539677e-10,-1.0158900717556e-09,3.159733568779e-10,-8.2960951270474e-10,-0.001792585758411,0.0017925852463682,-0.0019884695861171,0.0019884700178084,-0.0019884695225205,0.0019884691342192,-0.0019884696006565,0.0019884689778946,-0.0019884695369744,0.0019884680942084,-0.0015398293994632,0.0015398295204991,-0.0015398314353235,0.0015398292866329,-0.001599840921353,0.0015998415094803,-0.001599843255982,0.0015998408524335,3.0237223463432e-09,3.0236445421465e-09,-0.00079646462255758,0.00079647160912104,2.2405862359226e-09,3.5434518949365e-09,-0.00093129218741107,0.00093129958810071,-0.00093129171286347,0.00093130004255593,-0.00093129212170242,0.00093129952219284,-0.00093129166731914,0.00093129999683798,-0.00081725252234335,0.00081725907511148,-0.00081725241138471,0.00081725896442899,0.73530523744243,122718,2924,0.0040687992923412,0.007440079033826,0.0033159755707445,20.570334886346,7.9762679090769e-05,7.9762679090769e-05,7.9762679090769e-05,2839204.4110575,0.01493586059564
26669200,0.99987391289982,0.016093954662387,0.0050038039827624,0.0067693990828911,0.0043207515967335,-0.00097757813459342,0.00097758449795479,3.0439442517396e-09,3.043844843129e-09,2.0027951616682e-09,3.6945878993463e-09,-0.0011205494997859,0.001120555808297,-0.0011205491546115,0.0011205554628935,-0.0011205488901314,0.0011205563895759,-0.0011205485875036,0.00112055608673,-0.0009170741764454,0.00091708061441108,-0.00091707490173045,0.00091708133938563,4.8652221446266e-10,-1.027096381587e-09,3.1300475550781e-10,-8.3873038612714e-10,-0.0017927819494974,0.0017927814253646,-0.001988939111578,0.0019889395367651,-0.0019889390492416,0.0019889386502973,-0.0019889391286802,0.0019889384926242,-0.0019889390662585,0.0019889376060594,-0.0015397719092901,0.0015397720209411,-0.0015397739545567,0.0015397717844211,-0.0015997772147962,0.0015997777983949,-0.0015997795619547,0.0015997771340864,2.7812401062886e-09,2.7811622821219e-09,-0.00079607774901408,0.00079608410369488,2.0046599397502e-09,3.3012992237467e-09,-0.00093055550860485,0.00093056236053909,-0.00093055503642316,0.00093056281261392,-0.00093055544210312,0.00093056229383814,-0.00093055499010474,0.00093056276612204,-0.00081694684565814,0.00081695284656395,-0.00081694673343057,0.00081695273461241,0.77209151738868,122718,2924,0.0040664169919508,0.007440895963523,0.0033143654538999,20.743712046522,8.1149696372176e-05,8.1149696372176e-05,8.1149696372176e-05,2835052.4344768,0.014932632643347
27169200,0.99988940191173,0.016094213793092,0.0050038794285794,0.0067695074041005,0.0043208269604118,-0.0009773010249609,0.00097730566325497,2.4049294849742e-09,2.4048300844016e-09,1.4094956518937e-09,2.9707072916961e-09,-0.0011211976617896,0.0011212025646569,-0.0011211975436895,0.0011212024463276,-0.0011211970994187,0.0011212031013432,-0.0011211970199066,0.0011212030216128,-0.00091701635862173,0.00091702141100285,-0.00091701709329893,0.00091702214536954,4.5123052430546e-10,-9.4457665394925e-10,1.8732924539661e-10,-6.6740967285733e-10,-0.0017964179447239,0.0017964174663102,-0.0019929165906004,0.0019929168997809,-0.0019929166822093,0.0019929163923524,-0.0019929167614032,0.001992916106805,-0.0019929168529268,0.0019929155992794,-0.0015430584349365,0.0015430583486752,-0.0015430603058089,0.0015430585094605,-0.0016026668844554,0.0016026675057883,-0.0016026692456884,0.0016026670800467,1.8600209641657e-09,1.8599431656159e-09,-0.00079703917091732,0.00079704315575443,1.2276122800522e-09,2.21389848258e-09,-0.00093241637238735,0.00093242128373045,-0.00093241600902458,0.00093242162965942,-0.00093241645313628,0.00093242136428019,-0.00093241610729177,0.00093242172775332,-0.00081752167434796,0.00081752565307566,-0.00081752157284427,0.00081752555184779,0.69897870841887,122718,2924,0.0040652869990627,0.0074559154915172,0.0033183688781699,21.834184525054,8.9873476200431e-05,8.9873476200431e-05,8.9873476200431e-05,2793979.4277936,0.014950799769775
27669200,0.9999035519179,0.016094462094082,0.0050039520546868,0.0067696104079943,0.004320899631401,-0.00098037380657153,0.00098037903432338,2.625016758902e-09,2.6249173117392e-09,1.6398214940202e-09,3.1814054843051e-09,-0.0011212501082386,0.0011212555257858,-0.0011212499270491,0.0011212553443674,-0.0011212495506403,0.0011212560563836,-0.0011212494095213,0.0011212559150467,-0.00091967777167801,0.00091968328744931,-0.00091967850859235,0.00091968402405333,4.2869067773524e-10,-9.413381668534e-10,9.6816572084886e-11,-5.9623696301711e-10,-0.0017961383846535,0.0017961378869758,-0.0019946565157002,0.0019946567518093,-0.0019946564886948,0.0019946562231666,-0.0019946566265208,0.0019946559093449,-0.00199465659943,0.0019946553806053,-0.0015410111907412,0.0015410109321111,-0.0015410128801292,0.0015410112324541,-0.0016008551422263,0.001600855769394,-0.0016008574532052,0.0016008553470238,2.1618426157215e-09,2.1617647747318e-09,-0.00079912950890809,0.00079913428300683,1.6065447775716e-09,2.4390606715647e-09,-0.00093168488997038,0.00093169054357113,-0.00093168457594294,0.00093169083933816,-0.00093168492810854,0.00093169058151003,-0.00093168463250256,0.00093169089572422,-0.00081964038524272,0.00081964495600103,-0.00081964028314889,0.00081964485418307,0.73223344265866,122718,2924,0.0040780106684964,0.0074548284243339,0.0033270254647129,22.584883423287,9.5879067386293e-05,9.5879067386293e-05,9.5879067386293e-05,2840043.123763,0.014971378093988
28169200,0.9999163068291,0.016094702555463,0.0050040225085038,0.0067697100724823,0.0043209699744767,-0.0009799389493554,0.00097994440425395,2.7074428813479e-09,2.7073434587414e-09,1.7228453281935e-09,3.2720847289988e-09,-0.0011222786350406,0.0011222842362588,-0.0011222784284105,0.0011222840293995,-0.0011222780739104,0.0011222847693271,-0.0011222779080347,0.0011222846032331,-0.00091940934304028,0.00091941503769732,-0.00091941007645684,0.00091941577080323,4.371447339108e-10,-9.3901816013978e-10,6.4254126492306e-11,-5.5318666146839e-10,-0.0017986170937181,0.0017986166065433,-0.0019964161026335,0.0019964163293626,-0.0019964160240347,0.0019964157947203,-0.0019964161935165,0.0019964154608484,-0.0019964161148324,0.001996414926109,-0.0015442526761714,0.0015442523505697,-0.0015442542778822,0.0015442527134391,-0.0016038067660656,0.0016038074341515,-0.0016038090630093,0.0016038069865983,2.2877055750033e-09,2.2876277647186e-09,-0.00079960508533657,0.00079961018335327,1.7671093152587e-09,2.5282551769332e-09,-0.00093359049613288,0.00093359644958637,-0.00093359020488688,0.00093359672238344,-0.00093359051955374,0.00093359647280796,-0.00093359024690084,0.00093359676422397,-0.00081984651627904,0.00081985132904236,-0.00081984640963373,0.00081985122267275,0.7868919913005,122718,2924,0.0040762246565621,0.0074650465651321,0.0033290123284498,23.202223898867,0.00010081779119093,0.00010081779119093,0.00010081779119093,2800443.9057427,0.014981964052929
28669200,0.99992765951089,0.01609492656556,0.005004088234595,0.0067698026348114,0.0043210356961538,-0.00097796599481764,0.00097797169632477,2.7966917335645e-09,2.7965923457341e-09,1.8033365152632e-09,3.3791817890806e-09,-0.0011223660474771,0.0011223718407085,-0.0011223658149832,0.0011223716079853,-0.0011223654769655,0.0011223723826272,-0.0011223652857515,0.0011223721911949,-0.00091792064902026,0.00091792654429092,-0.00091792137844095,0.00091792727340128,4.5163316953433e-10,-9.492616848836e-10,5.4006804129206e-11,-5.3851639645845e-10,-0.0018013399669219,0.0018013394841391,-0.001998314814331,0.0019983150482541,-0.0019983146990174,0.0019983144895792,-0.0019983148898285,0.0019983141460306,-0.0019983147744294,0.0019983135872585,-0.0015476421913007,0.001547641836345,-0.0015476437525333,0.0015476422092504,-0.0016068145162249,0.0016068152204652,-0.0016068168166428,0.0016068147283438,2.4195055333403e-09,2.4194277425697e-09,-0.00079909253441992,0.00079909797284058,1.9097279025941e-09,2.6495668320162e-09,-0.00093499561064624,0.00093500185869496,-0.00093499532566871,0.00093500212502453,-0.00093499561828307,0.00093500186613256,-0.00093499535207849,0.0009350021512608,-0.00081918409390382,0.00081918917944998,-0.00081918398310402,0.00081918906892594,0.82305622786419,122718,2924,0.0040680683749893,0.0074762597203824,0.0033269073492826,23.679533221844,0.00010463626577476,0.00010463626577476,0.00010463626577476,2746706.3921558,0.014982941514328
29169200,0.99993784148869,0.016095106291629,0.005004140690271,0.0067698772850393,0.0043210883163185,-0.00097676986617799,0.00097677518403148,2.654181698435e-09,2.6540823140101e-09,1.6675225520329e-09,3.2249210961683e-09,-0.0011223021960332,0.0011223076707936,-0.0011223020046846,0.0011223074792156,-0.0011223016324853,0.001122308206314,-0.0011223014817065,0.0011223080553168,-0.00091709055431976,0.00091709613903088,-0.00091709128499232,0.00091709686939321,4.4874392841631e-10,-9.3713401437561e-10,1.8745947971216e-11,-4.9416193363331e-10,-0.0018039513681447,0.001803950894453,-0.0020008123550498,0.002000812562396,-0.0020008122595231,0.0020008120811926,-0.0020008124599751,0.0020008117031444,-0.0020008123643628,0.0020008112218438,-0.0015502593988489,0.0015502589813891,-0.0015502609037598,0.0015502594523392,-0.0016091213006631,0.0016091220273169,-0.0016091236089986,0.0016091215712042,2.2041910895341e-09,2.2041133075573e-09,-0.00079911793172942,0.00079912281691675,1.7348001031065e-09,2.3905263247216e-09,-0.00093605315178308,0.00093605894649606,-0.00093605289580336,0.00093605918435462,-0.00093605318644578,0.00093605898095961,-0.00093605294871191,0.00093605923708986,-0.00081905754436995,0.00081906214558122,-0.00081905743395911,0.00081906203544613,0.73641901776283,122718,2924,0.0040631267190893,0.0074870336845114,0.0033270277305456,24.380386994336,0.00011024309595469,0.00011024309595469,0.00011024309595469,2707436.9776753,0.01498898825577
29669200,0.99994694853705,0.016095243008584,0.0050041803639587,0.0067699344144764,0.0043211282301488,-0.00098020185205044,0.00098020706901821,2.6213426326422e-09,2.6212431969123e-09,1.6382022985186e-09,3.1768548065016e-09,-0.00112224120054,0.0011222466120432,-0.0011222410211807,0.001122246432455,-0.001122240643633,0.0011222471414598,-0.0011222405047445,0.0011222470023534,-0.00092004858606329,0.00092005409300675,-0.00092004932260045,0.00092005482923351,4.2758868498859e-10,-9.3948276256414e-10,-4.3290863376193e-11,-4.554393152886e-10,-0.0018034184120027,0.0018034179150336,-0.0020026077360727,0.0020026078799998,-0.0020026076235339,0.0020026074496268,-0.0020026078468105,0.0020026070394168,-0.0020026077341868,0.0020026066089469,-0.0015476802915234,0.0015476797584953,-0.0015476817122874,0.0015476803424057,-0.0016068082714043,0.0016068089894444,-0.0016068105805603,0.001606808571129,2.1302275492606e-09,2.1301497128149e-09,-0.00080135179860896,0.00080135649925527,1.7112291898876e-09,2.2646180921657e-09,-0.00093506780908343,0.00093507348922762,-0.0009350675875325,0.00093507369267408,-0.00093506784933534,0.0009350735292803,-0.00093506764607686,0.00093507375104516,-0.00082130824103441,0.00082131265373516,-0.00082130813504142,0.00082131254801779,0.62658857714193,122718,2924,0.0040773342009913,0.0074849098818735,0.0033362750846503,25.150354653042,0.00011640283722434,0.00011640283722434,0.00011640283722434,2761586.34164,0.015010617852432
30169200,0.99995497722409,0.016095362219771,0.0050042150409367,0.0067699841461821,0.0043211630326524,-0.00098558481595774,0.00098559030149454,2.7263422924085e-09,2.7262428014001e-09,1.7271093380375e-09,3.2928290615678e-09,-0.0011234185927632,0.0011234242424843,-0.0011234183847406,0.0011234240342326,-0.0011234180264315,0.0011234247812421,-0.0011234178596022,0.0011234246141951,-0.00092461594531367,0.00092462168206514,-0.00092461668841166,0.00092462242485232,4.1959449358801e-10,-9.7107213335407e-10,-8.4118506002089e-11,-4.5373904805413e-10,-0.0018017749430215,0.00180177440696,-0.0020030595010854,0.0020030596036101,-0.0020030593461814,0.0020030591546168,-0.0020030595979183,0.0020030587305506,-0.0020030594429292,0.0020030582814604,-0.001544384336253,0.0015443837132995,-0.0015443857117816,0.0015443843368824,-0.0016040307718089,0.0016040314861188,-0.0016040331018044,0.0016040310435342,2.2630979219266e-09,2.2630200415264e-09,-0.00080464209910848,0.00080464714584469,1.8635375656477e-09,2.3779741734294e-09,-0.00093443847703987,0.00093444448757523,-0.00093443826765106,0.0009344446783687,-0.0009344384969313,0.00093444450726748,-0.00093443830638149,0.0009344447169256,-0.00082470227811543,0.00082470695924149,-0.00082470217285936,0.00082470685426127,0.61985324550634,122718,2924,0.0040996211333921,0.0074782084599322,0.0033498940313127,25.778826605291,0.00012143061284233,0.00012143061284233,0.00012143061284233,2844267.3033714,0.015040239770958
30669200,0.99996209078328,0.016095468128698,0.0050042458511421,0.006770028446495,0.0043211938310606,-0.00098797310044328,0.00098797818581167,2.576661346759e-09,2.5765618717808e-09,1.5944340318205e-09,3.1252173440495e-09,-0.0011263636865897,0.0011263689967514,-0.0011263635218566,0.0011263688317893,-0.0011263631322268,0.0011263695234115,-0.0011263630080294,0.0011263693989961,-0.00092688270039744,0.00092688810670335,-0.00092688344105058,0.00092688884704594,4.1518641436945e-10,-9.4537739189902e-10,-1.2678127656609e-10,-3.9063314601377e-10,-0.0018035061341116,0.0018035056185374,-0.0020040010703784,0.0020040011436479,-0.0020040009277782,0.0020040007818519,-0.0020040011932773,0.0020040003206483,-0.0020040010505922,0.0020039999587553,-0.001547095559753,0.0015470948649583,-0.0015470968471736,0.0015470956062836,-0.0016066861055306,0.0016066868480008,-0.0016066884209357,0.0016066864488051,2.0502127001446e-09,2.0501348486406e-09,-0.00080700464064707,0.00080700913722748,1.7041983495279e-09,2.1083886718461e-09,-0.00093738484577645,0.00093739040286615,-0.00093738467407973,0.00093739055657108,-0.00093738489522692,0.0009373904521174,-0.00093738474173354,0.00093739062405153,-0.000826910820713,0.00082691501319243,-0.00082691071797055,0.00082691491072593,0.62209234955736,122718,2924,0.0041095289071967,0.0074853549109507,0.0033596987636001,26.624331664138,0.0001281946533131,0.0001281946533131,0.0001281946533131,2834689.8194622,0.015067509675174
31169200,0.99996842105402,0.016095581314549,0.0050042790742741,0.0067700752380548,0.0043212270022196,-0.00099011725632053,0.00099012186489783,2.3973909119838e-09,2.3972914453929e-09,1.4527993074453e-09,2.9028619187963e-09,-0.0011292570040135,0.00112926192682,-0.0011292568902247,0.001129261812802,-0.00112925647661,0.0011292624261342,-0.0011292564026494,0.0011292623519556,-0.00092919449423363,0.00092919949334807,-0.00092919523324593,0.00092920023204978,3.9428882171774e-10,-8.9051692531921e-10,-1.9315082255143e-10,-2.9151072637094e-10,-0.001805878610043,0.0018058781273012,-0.0020056336967521,0.002005633717858,-0.0020056335558243,0.0020056334728102,-0.0020056338375781,0.0020056329669637,-0.0020056336965652,0.0020056327218189,-0.0015501830834585,0.00155018228594,-0.0015501842295701,0.0015501832085955,-0.0016096780077158,0.0016096787659547,-0.0016096802713496,0.0016096784627566,1.7878865209852e-09,1.7878086859366e-09,-0.00080946068914297,0.00080946451475946,1.5250629086397e-09,1.7586743174467e-09,-0.00094054168358616,0.00094054670337506,-0.00094054156981167,0.00094054679980366,-0.000940541766598,0.00094054678618771,-0.0009405416703729,0.00094054690019155,-0.00082938138413636,0.00082938496593852,-0.00082938128552706,0.00082938486760512,0.7461099497063,122718,2924,0.0041184304485011,0.0074951480258071,0.0033698994803794,27.727373612343,0.00013701898889874,0.00013701898889874,0.00013701898889874,2818819.2615288,0.015096845093089
31669200,0.99997407461573,0.016095669899103,0.0050043048594887,0.0067701122505782,0.0043212527890359,-0.00098798767934484,0.0009879916836561,2.1671651786337e-09,2.1670657774776e-09,1.2847339839149e-09,2.6086447359293e-09,-0.0011322011486469,0.0011322055897465,-0.001132201093645,0.0011322055345153,-0.0011322006625816,0.0011322060463724,-0.0011322006467244,0.001132206030297,-0.00092806421065978,0.0009280686795577,-0.00092806494264438,0.00092806941123222,3.7169291736004e-10,-7.9297708721195e-10,-2.6700916093577e-10,-1.447507571402e-10,-0.0018121452472251,0.0018121448374994,-0.0020091410540787,0.0020091410296276,-0.0020091409065181,0.0020091409297073,-0.0020091412058666,0.0020091403736963,-0.0020091410582201,0.0020091402736791,-0.0015587752187017,0.00155877431954,-0.0015587761739935,0.0015587754820308,-0.0016175643170647,0.0016175651070447,-0.0016175664847766,0.001617564942753,1.4716542684576e-09,1.471576503348e-09,-0.00081012374890129,0.00081012676004031,1.3163249019719e-09,1.324793079751e-09,-0.00094591190011859,0.00094591627989233,-0.00094591186227874,0.00094591630123231,-0.00094591202481261,0.00094591640438711,-0.00094591200365283,0.00094591644243315,-0.00082982975496773,0.00082983259104029,-0.00082982965672036,0.00082983249306916,0.65450231178895,122718,2924,0.0041096540535312,0.0075209477908942,0.0033726994514329,29.145696173486,0.00014836556938789,0.00014836556938789,0.00014836556938789,2707244.4461141,0.015116996365369
32169200,0.99997874787337,0.016095752732689,0.0050043292172574,0.0067701462701337,0.0043212772452977,-0.00099000725984444,0.00099001294523829,2.7836775163163e-09,2.7835780733486e-09,1.8806867205414e-09,3.2263445155662e-09,-0.001131921339578,0.0011319272235152,-0.0011319212867153,0.0011319271704234,-0.0011319208460246,0.0011319276880627,-0.0011319208322666,0.0011319276740866,-0.00092990761917448,0.00092991351297047,-0.00092990835672226,0.00092991425020797,3.5772193436987e-10,-7.97782084452e-10,-2.8539896537516e-10,-1.4495381205466e-10,-0.0018107945381872,0.0018107941099087,-0.0020085786886547,0.0020085786366709,-0.0020085785385854,0.0020085785465823,-0.0020085788395891,0.002008577985829,-0.0020085786894344,0.0020085778956435,-0.0015566927654916,0.0015566918328596,-0.0015566937023934,0.0015566930127069,-0.0016155700845046,0.0016155708524373,-0.0016155722466265,0.0016155707008093,2.4986384769861e-09,2.4985606548194e-09,-0.0008112357074182,0.0008112413838741,2.3139459807151e-09,2.3554300798014e-09,-0.00094493921541054,0.0009449459429025,-0.0009449391655646,0.00094494597620483,-0.00094493933949545,0.00094494606678821,-0.00094493930638474,0.00094494611685156,-0.00083100386804415,0.00083100903883944,-0.00083100376955692,0.00083100894062822,0.7383814686696,122718,2924,0.004118008423726,0.0075154140799665,0.0033772987144715,29.28671240763,0.00014949369926104,0.00014949369926104,0.00014949369926104,2779263.9447417,0.015124508281606
32669200,0.99998257150964,0.016095813920893,0.0050043470727417,0.0067701716909643,0.0043212951571867,-0.00098673299972858,0.00098673961957478,3.137980395818e-09,3.137880991637e-09,2.1762392081305e-09,3.7014162149813e-09,-0.0011309421163062,0.0011309487054043,-0.0011309417857382,0.0011309483746073,-0.0011309415587322,0.001130949230618,-0.0011309412722685,0.0011309489439361,-0.00092690164342764,0.00092690825095937,-0.00092690236782966,0.000926908975051,4.2775405408374e-10,-9.1407658482308e-10,-1.8019716145335e-10,-2.9407200436095e-10,-0.0018127643287554,0.0018127638563659,-0.0020103678909895,0.0020103679708327,-0.0020103675197494,0.0020103674555289,-0.0020103678668699,0.0020103669981743,-0.0020103674955443,0.0020103664827733,-0.0015587408790137,0.0015587400791221,-0.0015587419324091,0.001558740890639,-0.0016174108667872,0.0016174116780835,-0.0016174130566356,0.0016174111962284,2.8967048326263e-09,2.8966270550759e-09,-0.00080938445035602,0.00080939112727417,2.6145607817864e-09,2.891436722114e-09,-0.00094515621412586,0.00094516368982699,-0.00094515607963117,0.00094516380461211,-0.00094515615950247,0.00094516363500441,-0.00094515604490812,0.00094516376971569,-0.0008289750208113,0.00082898096682904,-0.00082897490321244,0.00082898084950612,0.66778375136769,122718,2924,0.0041044616450195,0.0075235098013811,0.0033696439096336,29.247634871258,0.00014918107897007,0.00014918107897007,0.00014918107897007,2695861.9601688,0.015111222399952
33169200,0.99998568501657,0.016095868918528,0.0050043632425108,0.0067701942711666,0.0043213114048508,-0.00098778258598184,0.00098778936732272,3.2005514250292e-09,3.200451981476e-09,2.2266316173222e-09,3.7712071390929e-09,-0.0011301957358907,0.0011302024741158,-0.0011301954036978,0.001130202141694,-0.0011301951722123,0.0011302030059589,-0.0011301948841574,0.001130202717686,-0.00092782050413847,0.00092782725861979,-0.00092782123210346,0.00092782798627434,4.2284259597836e-10,-9.3342793553495e-10,-1.8180167696592e-10,-3.1628492224214e-10,-0.0018113098116656,0.001811309315467,-0.0020094981374196,0.002009498205696,-0.0020094977726579,0.0020094976828086,-0.0020094981178627,0.0020094972276068,-0.0020094977530157,0.0020094967046224,-0.0015567567721691,0.0015567559640372,-0.0015567578492914,0.0015567567585911,-0.0016154879913021,0.0016154887857587,-0.0016154902001536,0.0016154882943773,2.988900407306e-09,2.9888225840511e-09,-0.00080971077153731,0.00080971768674595,2.6923193444627e-09,2.9955729490848e-09,-0.00094386917987819,0.00094387687245638,-0.00094386903646163,0.00094387699604477,-0.00094386912320089,0.00094387681557985,-0.00094386899979997,0.00094387695920968,-0.00082934769520823,0.00082935385802338,-0.00082934757770647,0.00082935374079744,0.73577861030448,122718,2924,0.004108794492176,0.0075175348571283,0.0033709808957855,29.101133782147,0.00014800907025718,0.00014800907025718,0.00014800907025718,2750255.3761867,0.015110898008929
33669200,0.99998831624847,0.016095919018227,0.0050043779828453,0.0067702148440323,0.0043213261913496,-0.00098630884618824,0.00098631437845219,2.7363650053943e-09,2.7362655972552e-09,1.7505489155977e-09,3.3078506389042e-09,-0.0011305819358861,0.0011305876006993,-0.0011305817231057,0.0011305873876898,-0.0011305813713216,0.0011305881361147,-0.001130581200151,0.0011305879647261,-0.00092656006653377,0.00092656582467106,-0.00092656080022677,0.00092656655805371,4.4169201981787e-10,-9.418722204796e-10,-1.6090013249375e-10,-3.264835952091e-10,-0.001814096417962,0.0018140959323595,-0.0020120945872279,0.0020120946711016,-0.0020120943602923,0.0020120942824073,-0.0020120946742892,0.002012093793212,-0.002012094447268,0.0020120934044206,-0.001559707525063,0.0015597067539224,-0.0015597086896432,0.0015597075687104,-0.0016182240063252,0.0016182248326576,-0.0016182263053724,0.0016182243731132,2.295553202646e-09,2.2954754199045e-09,-0.00080948602125166,0.000809491149477,1.9937074614879e-09,2.3073816685353e-09,-0.00094533117253669,0.00094533729595227,-0.00094533102919366,0.00094533742097168,-0.00094533119376351,0.00094533731697991,-0.00094533106890553,0.0009453374605102,-0.00082892692493931,0.00082893160679101,-0.00082892680972496,0.00082893149185237,0.79342568024009,122718,2924,0.0041027068976058,0.007529017732775,0.0033700665328581,29.691190804926,0.00015272952643941,0.00015272952643941,0.00015272952643941,2680672.5790135,0.015115461137704
34169200,0.99999056707395,0.016095959055021,0.0050043897245197,0.0067702313280851,0.0043213380024158,-0.00098522802470388,0.00098523283524795,2.4672307183907e-09,2.4671313204861e-09,1.5077427573871e-09,3.0023832306062e-09,-0.0011314315782316,0.0011314366484104,-0.0011314314419389,0.0011314365118886,-0.0011314310357069,0.0011314371624713,-0.0011314309396265,0.0011314370661727,-0.00092597826282813,0.00092598342776509,-0.00092597899409277,0.00092598415871958,4.2844514297145e-10,-8.991622960326e-10,-1.9167469770485e-10,-2.6701145304222e-10,-0.0018176598586085,0.001817659401737,-0.0020149979781606,0.0020149980339469,-0.0020149978056298,0.0020149977691775,-0.0020149981113669,0.0020149972458272,-0.0020149979387503,0.0020149969809604,-0.001563734615833,0.0015637338065379,-0.001563735726645,0.001563734740728,-0.0016218820164767,0.0016218828500085,-0.0016218842991207,0.0016218824815254,1.9013488354659e-09,1.9012710796648e-09,-0.00080997861201766,0.00080998272573811,1.6462531798013e-09,1.8610007745733e-09,-0.00094755421568865,0.0009475594862519,-0.00094755410727002,0.00094755957731249,-0.00094755428745446,0.00094755955781837,-0.00094755419654958,0.00094755966641853,-0.00082928677389332,0.00082929058892542,-0.00082928666425756,0.00082929047956537,0.74104102548351,122718,2924,0.0040982516018485,0.0075437098942593,0.0033721321327935,30.676681760809,0.00016061345408647,0.00016061345408647,0.00016061345408647,2627685.9315966,0.01512795881889
34669200,0.99999252535683,0.01609599592804,0.0050044005883767,0.0067702463885049,0.0043213489511583,-0.00098912235891154,0.00098912604562366,2.0534458304152e-09,2.0533463909604e-09,1.1642423045442e-09,2.4918520403365e-09,-0.0011331352499607,0.0011331394279151,-0.0011331352352623,0.0011331394129876,-0.0011331347643405,0.0011331398857768,-0.0011331347878522,0.0011331399090705,-0.00092966674161284,0.00092967096833201,-0.00092966747751085,0.00092967170391973,3.6794306106264e-10,-8.0286410267042e-10,-3.0887848303319e-10,-1.1584021986668e-10,-0.0018195604830893,0.0018195600603561,-0.0020184918259547,0.0020184917626459,-0.002018491701785,0.0020184917387811,-0.0020184920129435,0.0020184911414764,-0.0020184918886885,0.0020184911175143,-0.0015642351470412,0.001564234164926,-0.0015642360584654,0.0015642354205506,-0.001622447742882,0.0016224485502674,-0.0016224499458527,0.0016224484076978,1.2739347963282e-09,1.273856999896e-09,-0.00081345130252191,0.00081345380536627,1.1560192445527e-09,1.0883245750673e-09,-0.00094902373876232,0.00094902770348362,-0.00094902372752685,0.00094902769874622,-0.00094902388799739,0.00094902785251954,-0.00094902389295322,0.00094902786399913,-0.0008326927575081,0.0008326951521559,-0.00083269266098281,0.00083269505590614,0.78345324106475,122718,2924,0.0041143905040123,0.0075516201428571,0.0033865323634343,32.282804347969,0.00017346243478376,0.00017346243478376,0.00017346243478376,2652614.2595451,0.015166975791297
35169200,0.99999426681834,0.016096026309843,0.0050044094966377,0.0067702588847786,0.0043213579284267,-0.00099238986753283,0.00099239173090817,1.3761158959165e-09,1.3760164630602e-09,6.2369762799132e-10,1.6453767319291e-09,-0.0011377798549114,0.001137782588334,-0.0011377800292055,0.0011377827623989,-0.0011377794716111,0.0011377829430654,-0.0011377796813719,0.001137783152608,-0.00093314593650147,0.00093314861684377,-0.00093314667133877,0.00093314935137082,2.7674757628681e-10,-6.0505908994837e-10,-5.0368985332661e-10,1.8134624417319e-10,-0.0018256406244415,0.0018256403044209,-0.0020239266960275,0.0020239264579776,-0.0020239266236073,0.0020239268328784,-0.0020239269536171,0.0020239261130343,-0.0020239268811113,0.0020239264878378,-0.0015710146363931,0.0015710133766142,-0.0015710151622053,0.0015710152036253,-0.0016288850459477,0.0016288858438486,-0.0016288870696766,0.0016288860862805,2.8628487381127e-10,2.8620710752521e-10,-0.00081797868350512,0.00081797864448372,4.1384446671797e-10,-1.6514378690082e-10,-0.0009548183610384,0.00095482028670048,-0.00095481852430686,0.00095482010972377,-0.00095481863550994,0.00095482056097293,-0.00095481881275289,0.00095482039799637,-0.00083690859689935,0.0008369087278542,-0.00083690851577348,0.00083690864700397,0.72660123699257,122718,2924,0.0041279645480903,0.0075767331670708,0.0034053350873223,34.859513269282,0.00019407610615425,0.00019407610615425,0.00019407610615425,2605941.6509093,0.015225348199022
35669200,0.99999571413094,0.016096048822543,0.0050044160756466,0.0067702681703103,0.0043213645765858,-0.00099737795424988,0.00099738103969076,1.8253158068698e-09,1.8252163432319e-09,1.1377148797311e-09,2.0435365470671e-09,-0.0011405144484111,0.0011405182427286,-0.0011405144923985,0.0011405182864871,-0.0011405140986098,0.0011405185594379,-0.0011405141811262,0.0011405186417365,-0.00093789796699265,0.00093790157262463,-0.00093789869757383,0.00093790230289527,2.292469711918e-10,-5.2583239476952e-10,-6.3253537212563e-10,3.4013566932408e-10,-0.0018278789790592,0.0018278786892082,-0.0020275572622328,0.0020275569335877,-0.0020275569569785,0.002027557246154,-0.0020275573694365,0.0020275565085063,-0.002027557064097,0.0020275568209754,-0.0015720936413977,0.0015720921652778,-0.0015720938229484,0.001572094220392,-0.0016300643971392,0.0016300651909652,-0.0016300662256945,0.0016300654938328,9.3219601600748e-10,9.3211821611951e-10,-0.00082236828875907,0.00082236993329511,1.1960858318695e-09,3.4675577197511e-10,-0.00095715744260874,0.00095716090481691,-0.00095715769189376,0.00095716064029658,-0.00095715763110043,0.00095716109310938,-0.00095715789597129,0.00095716084420085,-0.0008412662582595,0.00084126767588079,-0.00084126617355398,0.00084126759145074,0.64777924001908,122718,2924,0.0041486424934638,0.0075860401888748,0.0034235454774699,36.731824233922,0.00020905459387138,0.00020905459387138,0.00020905459387138,2634322.101299,0.015274264348073
36169200,0.99999684983226,0.016096068061406,0.0050044217315405,0.0067702760495691,0.0043213702802964,-0.0010025024772916,0.0010025068586996,2.3066690702422e-09,2.3065695833846e-09,1.5929207586657e-09,2.5662693040579e-09,-0.0011427930347559,0.0011427979148112,-0.0011427929392823,0.0011427978191085,-0.0011427926594564,0.0011427982547403,-0.0011427926054539,0.0011427982005197,-0.00094251338068454,0.00094251803560831,-0.00094251411311932,0.00094251876773276,2.4156865283171e-10,-5.6818424068499e-10,-6.4997324252831e-10,3.2828649342591e-10,-0.0018281609886443,0.0018281606695025,-0.0020292098335914,0.0020292095083863,-0.0020292093768323,0.0020292096535543,-0.0020292098420174,0.0020292089354728,-0.0020292093851733,0.0020292090805438,-0.0015713386271919,0.0015713370923719,-0.0015713387433103,0.00157133910035,-0.0016296013028282,0.0016296021169438,-0.0016296031165822,0.0016296023022452,1.6247321244459e-09,1.6246542842209e-09,-0.000826146815312,0.00082615025333521,1.8846280918466e-09,1.0475427510785e-09,-0.00095834499944423,0.00095835002492154,-0.00095834524062674,0.00095834976672933,-0.00095834509598295,0.00095835012126114,-0.00095834535455288,0.00095834988048219,-0.00084506636070871,0.00084506925198666,-0.00084506626684765,0.00084506915840144,0.70513516401708,122718,2924,0.0041698732721757,0.0075872704581468,0.0034392080117135,37.899316210714,0.00021839452968572,0.00021839452968572,0.00021839452968572,2685770.7234034,0.015312956243884
36669200,0.9999976565318,0.016096079950104,0.0050044251981163,0.0067702809791623,0.0043213737728257,-0.00099877274801837,0.00099878079792364,3.6683059254761e-09,3.6682065215625e-09,2.7578065246464e-09,4.196432611629e-09,-0.0011418279520686,0.0011418358004057,-0.0011418274613447,0.0011418353094529,-0.0011418274171903,0.0011418362975466,-0.0011418269747155,0.0011418358548537,-0.00093908277276267,0.00093909047949217,-0.00093908350055486,0.0009390912069742,3.8674705487824e-10,-8.5427567128817e-10,-4.0482770496797e-10,-5.2125593951826e-11,-0.0018284520435339,0.0018284515886912,-0.0020278880189634,0.0020278879497694,-0.0020278873309985,0.0020278874002719,-0.0020278878319124,0.0020278868642663,-0.0020278871438622,0.0020278863146716,-0.0015731348695929,0.0015731336548206,-0.0015731354127869,0.0015731348822515,-0.0016310952653173,0.0016310961431177,-0.0016310972838677,0.0016310956958669,3.6500603617056e-09,3.6499825456122e-09,-0.00082352352795126,0.00082353216192233,3.5857075427135e-09,3.4194593585035e-09,-0.00095831604202738,0.00095832538381488,-0.00095831604943712,0.00095832535482504,-0.00095831588519375,0.00095832522678201,-0.00095831591448931,0.00095832521970376,-0.00084227242357139,0.00084227981702128,-0.0008422722885831,0.00084227968230891,0.6143588918705,122718,2924,0.004154433760676,0.0075884113645666,0.0034283482642121,37.073081675078,0.00021178465340063,0.00021178465340063,0.00021178465340063,2634570.2721743,0.015287431385297
37169200,0.99999826150977,0.016096090268651,0.0050044282374141,0.0067702851953229,0.0043213768359142,-0.0010020314920626,0.0010020377948655,3.0238568597817e-09,3.0237574056275e-09,2.0844787383168e-09,3.568831033897e-09,-0.0011421773008595,0.0011421836670791,-0.0011421769711759,0.0011421833371665,-0.001142176755051,0.0011421841793439,-0.0011421764708212,0.0011421838948962,-0.00094210375178684,0.00094211004393172,-0.00094210455089635,0.00094211084273086,3.948409403803e-10,-9.0652203375648e-10,-3.8252580092289e-10,-1.1734741852868e-10,-0.0018266241059219,0.0018266236080569,-0.0020272633730578,0.0020272632947177,-0.0020272628856189,0.0020272629066888,-0.002027263335035,0.0020272623303902,-0.0020272628475111,0.0020272619422643,-0.0015702630333778,0.0015702618461997,-0.001570263789613,0.0015702631087863,-0.0016285082513299,0.001628509119893,-0.0016285104543165,0.0016285087341081,2.6684589043975e-09,2.6683810358792e-09,-0.00082528759372391,0.00082529370398311,2.577741522413e-09,2.4747861864422e-09,-0.00095741942520143,0.00095742656055235,-0.0009574194150959,0.00095742655045019,-0.00095741936953432,0.00095742650468596,-0.0009574193799268,0.00095742651510765,-0.00084427894006816,0.00084428420899598,-0.00084427876765186,0.00084428403685553,0.70981461380876,122718,2924,0.0041679147692198,0.0075809166534031,0.0034356387448236,37.26672091804,0.00021333376734432,0.00021333376734432,0.00021333376734432,2700556.1864635,0.015300891733988
37669200,0.99999872364362,0.016096097123896,0.0050044302382705,0.0067702880356952,0.0043213788499307,-0.0010003779124952,0.0010003834708906,2.7460993138855e-09,2.7459999164728e-09,1.8105371207584e-09,3.2917450497424e-09,-0.0011432093270026,0.0011432150408312,-0.0011432090188491,0.0011432147324486,-0.0011432087831389,0.0011432155515735,-0.0011432085197363,0.0011432152879528,-0.00094069611905686,0.00094070179317525,-0.00094069690711086,0.00094070258091891,4.1162843959255e-10,-9.0207226595854e-10,-3.6213200846866e-10,-1.1654687533767e-10,-0.0018297093221079,0.0018297088453685,-0.0020297671738661,0.0020297671230514,-0.0020297667143586,0.002029766754607,-0.0020297671579086,0.0020297661760462,-0.002029766698316,0.0020297658075044,-0.0015738698204349,0.0015738686704861,-0.0015738705968364,0.0015738699137945,-0.0016320457282966,0.0016320466249482,-0.0016320479473123,0.0016320462299289,2.2211358217371e-09,2.2210580068495e-09,-0.00082502346817179,0.00082502842585005,2.1367590129789e-09,2.0294286324614e-09,-0.00095951409702109,0.00095952020429013,-0.00095951408976349,0.00095952019184534,-0.00095951405707182,0.00095952016414176,-0.00095951406981204,0.00095952017172031,-0.00084398976697623,0.00084399404809404,-0.00084398960059041,0.00084399388198414,0.61846711544292,122718,2924,0.004161089079213,0.0075936135116074,0.0034345683936077,37.976242873899,0.00021900994299119,0.00021900994299119,0.00021900994299119,2601962.2684235,0.015305785536378
38169200,0.99999905463598,0.016096102087625,0.005004431693602,0.0067702900762668,0.0043213803177567,-0.0010013869881713,0.0010013946962201,3.5521068069338e-09,3.5520073753847e-09,2.4721166377009e-09,4.2390399510628e-09,-0.0011420715622673,0.0011420790436989,-0.001142071111382,0.0011420785925847,-0.0011420709239999,0.001142079650334,-0.0011420705197659,0.0011420792458821,-0.00094150549038853,0.00094151305182177,-0.00094150622265229,0.0009415137837752,4.8206030147693e-10,-1.0881115882614e-09,-2.0545057256721e-10,-3.8491753556292e-10,-0.0018273535420675,0.0018273529533596,-0.002028033743913,0.0020280338193283,-0.0020280332709085,0.0020280331418771,-0.0020280336976839,0.002028032663453,-0.0020280332245943,0.0020280319859048,-0.0015708566625564,0.0015708557306101,-0.0015708577488846,0.0015708564520656,-0.0016290958810966,0.0016290967722038,-0.0016290982555367,0.0016290960282888,3.4590080605605e-09,3.4589301952333e-09,-0.00082508117628772,0.00082508930486666,3.1352732725537e-09,3.4935436034048e-09,-0.0009576520040653,0.00095766076093331,-0.00095765183888896,0.00095766090473379,-0.00095765187118891,0.00095766062785768,-0.00095765172761803,0.00095766079328945,-0.00084408055138891,0.00084408771121038,-0.00084408042289159,0.00084408758298884,0.62438334335001,122718,2924,0.0041652549267644,0.0075839202104186,0.0034347962424148,37.375652928311,0.00021420522342649,0.00021420522342649,0.00021420522342649,2681260.933659,0.015300388947643
38669200,0.99999929796452,0.016096106183534,0.0050044328995136,0.0067702917532315,0.0043213815307891,-0.0010008566740317,0.0010008636524845,3.2838139877147e-09,3.2837145660628e-09,2.1341810243597e-09,4.0380313667959e-09,-0.0011422797141704,0.0011422865229379,-0.0011422793481677,0.0011422861567062,-0.0011422790347498,0.0011422871748326,-0.0011422787129002,0.0011422868527649,-0.00094093675194532,0.00094094378484742,-0.00094093748676789,0.00094094451935961,5.3470894197945e-10,-1.1806056312201e-09,-7.7364641151553e-11,-5.5096149721034e-10,-0.0018274363647192,0.0018274357378312,-0.0020275752734413,0.0020275754440262,-0.0020275749825433,0.0020275747687847,-0.0020275753409691,0.002027574315946,-0.0020275750499859,0.0020275736406075,-0.0015715201055149,0.0015715193801049,-0.0015715215101189,0.0015715198374488,-0.0016297021410954,0.0016297030422593,-0.0016297046949102,0.0016297021877115,3.0696246613531e-09,3.0695468158342e-09,-0.00082470350016757,0.00082471061106525,2.6090225013888e-09,3.2476045666864e-09,-0.00095798834123911,0.00095799610996153,-0.00095798808588698,0.00095799634508721,-0.00095798826325661,0.00095799603177976,-0.0009579880282746,0.00095799628730136,-0.00084359327008139,0.0008435996949563,-0.00084359314358074,0.00084359956873146,0.7009680041756,122718,2924,0.0041630578245082,0.0075842467363373,0.0034332288619455,37.195484648552,0.00021276387718841,0.00021276387718841,0.00021276387718841,2669573.0294715,0.015296904793028
38880000,0.99999938746426,0.016096107720567,0.0050044333521655,0.006770292382163,0.0043213819862384,-0.00099810618473212,0.00099811283609622,3.1564045659888e-09,3.1563051356052e-09,2.0076092664536e-09,3.9179904012003e-09,-0.0011420697850527,0.0011420762878136,-0.0011420694461444,0.0011420759486527,-0.0011420691038868,0.001142076941742,-0.0011420688085105,0.001142076646157,-0.00093850049690036,0.00093850724854095,-0.00093850124537651,0.00093850799672845,5.5297475238325e-10,-1.1734303180975e-09,-4.9760494027535e-11,-5.5318870558242e-10,-0.0018293418983066,0.0018293412967382,-0.0020285791802647,0.0020285793866836,-0.0020285789240049,0.002028578729783,-0.0020285792685475,0.002028578274334,-0.0020285790122297,0.0020285776173602,-0.0015741291460352,0.0015741284719511,-0.0015741305960911,0.0015741289159137,-0.001632127304563,0.0016321282329353,-0.0016321298807456,0.0016321273783499,2.8906546737928e-09,2.8905772043212e-09,-0.00082337846664856,0.00082338511998534,2.4208631294696e-09,3.0838162358185e-09,-0.00095891491378071,0.00095892225012615,-0.00095891465092107,0.00095892249318674,-0.00095891485379678,0.00095892218990798,-0.00095891461083737,0.0009589224529325,-0.00084222785073305,0.00084223388474477,-0.0008422277114039,0.00084223374566038,0.71503404169208,122718,2924,0.0041516804691778,0.0075920675535923,0.0034277555385374,37.19367683971,0.00021274941471768,0.00021274941471768,0.00021274941471768,2606255.8181878,0.015287752733666
