time,ASR_ext,ASR_strain,ASR_strain_xx,ASR_strain_yy,ASR_strain_zz,disp_x_101,disp_x_102,disp_x_103,disp_x_104,disp_x_105,disp_x_106,disp_x_p1_neg,disp_x_p1_pos,disp_x_p2_neg,disp_x_p2_pos,disp_x_p3_neg,disp_x_p3_pos,disp_x_p4_neg,disp_x_p4_pos,disp_x_p5_neg,disp_x_p5_pos,disp_x_p6_neg,disp_x_p6_pos,disp_y_101,disp_y_102,disp_y_103,disp_y_104,disp_y_105,disp_y_106,disp_y_p1_neg,disp_y_p1_pos,disp_y_p2_neg,disp_y_p2_pos,disp_y_p3_neg,disp_y_p3_pos,disp_y_p4_neg,disp_y_p4_pos,disp_y_p5_neg,disp_y_p5_pos,disp_y_p6_neg,disp_y_p6_pos,disp_y_p7_neg,disp_y_p7_pos,disp_y_p8_neg,disp_y_p8_pos,disp_z_101,disp_z_102,disp_z_103,disp_z_104,disp_z_105,disp_z_106,disp_z_p1_neg,disp_z_p1_pos,disp_z_p2_neg,disp_z_p2_pos,disp_z_p3_neg,disp_z_p3_pos,disp_z_p4_neg,disp_z_p4_pos,disp_z_p5_neg,disp_z_p5_pos,disp_z_p6_neg,disp_z_p6_pos,humidity,ndof,nelem,strain_xx,strain_yy,strain_zz,temp,thermal_strain_xx,thermal_strain_yy,thermal_strain_zz,vonmises,vstrain
2419200,0,0,0,0,0,0,0,0,0,0,0,0,0,0,0,0,0,0,0,0,0,0,0,0,0,0,0,0,0,0,0,0,0,0,0,0,0,0,0,0,0,0,0,0,0,0,0,0,0,0,0,0,0,0,0,0,0,0,0,0,0,0,0,0,0,0,0,0,0,0,0,0,0,0,0
3419200,0.1597195013011,0.0027545092234093,0.00091816974113643,0.00091816974113643,0.00091816974113643,-0.00025416912772515,0.00025416912240496,-1.8382360191625e-12,-1.7554759629384e-12,-1.095673396496e-12,-2.5145301387127e-12,-0.00025876381182902,0.00025876380816125,-0.00025876381291558,0.00025876380934201,-0.00025876381227494,0.00025876380771537,-0.00025876381338911,0.00025876380884577,-0.00025141945862471,0.00025141945410437,-0.00025141945898571,0.00025141945457198,-4.5473404936341e-13,9.2641747799373e-13,-1.0152321985885e-12,1.4669558031542e-12,-0.0002689377157179,0.00026893771617143,-0.00027186671075405,0.00027186670988309,-0.00027186671103691,0.00027186671187336,-0.0002718667109206,0.00027186671099176,-0.00027186671121153,0.00027186671296673,-0.00026237928080714,0.00026237927929765,-0.00026237927885205,0.00026237928219329,-0.00026549459002502,0.00026549458996193,-0.00026549458900723,0.00026549459167546,-3.2606912998837e-12,-3.3460979076822e-12,-0.00024162018054445,0.00024162017098442,-2.0252346966467e-12,-4.5503698388194e-12,-0.00024713961494005,0.00024713960833914,-0.00024713961578859,0.00024713960749439,-0.00024713961556497,0.00024713960890791,-0.00024713961641455,0.00024713960805446,-0.0002446639668092,0.00024466395856081,-0.00024466396648825,0.00024466395839383,0.78394575003166,131490,2924,0.0010584755662404,0.001119942834982,0.0010062468300082,31.872959349452,0.00017018367479562,0.00017018367479562,0.00017018367479562,1755894.5266564,0.0031897437502952
4419200,0.35082199988978,0.0059354908233312,0.0019637638989728,0.0021286446556809,0.0018430822686775,-0.00049599848425855,0.00049599847238138,-4.2978709860798e-12,-4.2038628389212e-12,-2.5483255704398e-12,-6.6517778368707e-12,-0.00051558969131937,0.00051558968256653,-0.00051558969435704,0.00051558968575998,-0.00051558969263235,0.00051558968126024,-0.00051558969572963,0.00051558968432415,-0.00048453130000116,0.00048453128938806,-0.00048453130121913,0.0004845312906626,-1.1586131051649e-12,2.7732647419011e-12,-1.6248875372717e-12,3.1686878164093e-12,-0.00057358188549668,0.00057358188704662,-0.00059073963624119,0.00059073963478023,-0.00059073963814124,0.0005907396400177,-0.00059073963755484,0.0005907396387986,-0.00059073963950655,0.00059073964395616,-0.00054090293148433,0.00054090292966943,-0.00054090292865085,0.00054090293620845,-0.00055740396525355,0.00055740396461254,-0.00055740396403638,0.00055740397112842,-6.3251281834405e-12,-6.4258745689428e-12,-0.00044301155092897,0.00044301153399202,-3.8874936515021e-12,-8.8369553063828e-12,-0.00046173538045412,0.00046173536736396,-0.00046173538212648,0.00046173536570769,-0.0004617353822019,0.00046173536904647,-0.00046173538386769,0.00046173536736207,-0.00045751235653694,0.00045751234107018,-0.00045751235571881,0.00045751234041737,0.77879543345209,131490,2924,0.0020645224789783,0.0023870398146001,0.0018442485180443,33.606624219016,0.00018405299375213,0.00018405299375213,0.00018405299375213,3212636.491774,0.0063156891851697
5419200,0.55084623688528,0.0091716642764392,0.0029941570312237,0.0034905125291366,0.0026869947160789,-0.00072892040054574,0.00072892039494154,-1.9430959540906e-12,-1.8488520873695e-12,-4.3290196448038e-13,-3.0925276724612e-12,-0.00076967046576346,0.00076967046132792,-0.00076967046725787,0.00076967046295702,-0.00076967046663289,0.00076967046048349,-0.00076967046818263,0.00076967046201954,-0.00070280746174158,0.00070280745619491,-0.0007028074617178,0.00070280745628112,-6.1300464077607e-13,1.8616531865966e-12,3.956744124183e-13,7.9966824715455e-13,-0.0009205930563253,0.00092059305752158,-0.00096898000894722,0.00096898000917695,-0.00096898001008206,0.00096898001061948,-0.0009689800095177,0.00096898001141804,-0.00096898001072911,0.00096898001274695,-0.00084273026119214,0.00084273026279983,-0.00084273026079575,0.00084273026323121,-0.00087621397199272,0.00087621397093564,-0.00087621396962478,0.00087621397347328,-1.2218874368834e-12,-1.3224846872359e-12,-0.0006212393138577,0.00062123930913172,-9.4316736335505e-13,-1.4414616725155e-12,-0.00065689720748514,0.00065689720337377,-0.00065689720764557,0.0006568972032121,-0.00065689720869959,0.00065689720452729,-0.00065689720886993,0.00065689720434839,-0.00064794036687352,0.00064794036330859,-0.00064794036653069,0.00064794036316514,0.77316831871097,131490,2924,0.0030325874970181,0.0038283361417645,0.0025854810040538,36.277816646951,0.00020542253317561,0.00020542253317561,0.00020542253317561,4059870.2856756,0.0094912224722213
6419200,0.70708646403763,0.011517039483125,0.0037044054833518,0.0045641022738511,0.003248531725922,-0.0008749111545192,0.00087491115071246,-1.2186549657803e-12,-1.1243954894142e-12,-9.7580325973318e-14,-2.6605336342884e-12,-0.00093964435148718,0.00093964434885156,-0.0009396443520443,0.00093964434955209,-0.00093964435231135,0.00093964434804407,-0.00093964435294229,0.000939644348654,-0.00083183390109533,0.00083183389740826,-0.00083183390086293,0.00083183389727214,-7.307544700702e-13,1.7027938337584e-12,3.5413241679187e-13,5.8162734933078e-13,-0.0011962715210946,0.0011962715220275,-0.001281812185916,0.0012818121859193,-0.001281812186818,0.0012818121870457,-0.0012818121861939,0.0012818121878801,-0.0012818121871683,0.0012818121889017,-0.0010664661774742,0.0010664661789923,-0.0010664661785814,0.0010664661805469,-0.0011138511925852,0.0011138511912342,-0.0011138511909566,0.0011138511944318,-5.3317569714256e-13,-6.3382541648037e-13,-0.00072489135725474,0.00072489135446423,-8.509208284822e-13,-1.1142433167896e-12,-0.00078203836648381,0.00078203836429047,-0.0007820383665592,0.00078203836420854,-0.00078203836733263,0.00078203836507928,-0.0007820383674259,0.00078203836498403,-0.00075449922371227,0.0007544992221677,-0.00075449922380655,0.00075449922245909,0.72911593730749,131490,2924,0.0036389593730795,0.0049718157573021,0.0030165782830181,36.740412957635,0.00020912330366108,0.00020912330366108,0.00020912330366108,4346751.359109,0.011695355495952
7419200,0.83238877193408,0.013331400547823,0.004227730874365,0.0054231367654371,0.003680532908021,-0.00097374782944318,0.00097374782549692,-1.2285548379783e-12,-1.1341052677527e-12,-1.5491551927546e-13,-2.5400442857436e-12,-0.0010614278660726,0.0010614278633267,-0.0010614278668018,0.0010614278641962,-0.0010614278668415,0.0010614278625779,-0.0010614278676394,0.0010614278633577,-0.00091819627997638,0.00091819627626844,-0.00091819627997157,0.00091819627636363,-6.9156372614405e-13,1.5652165660613e-12,4.1141807851893e-13,4.2686378313385e-13,-0.0014287466810061,0.0014287466818421,-0.0015535767429265,0.0015535767429594,-0.0015535767437506,0.0015535767438709,-0.0015535767431273,0.0015535767447244,-0.0015535767440186,0.0015535767455358,-0.0012488858722299,0.0012488858738011,-0.001248885873125,0.0012488858747303,-0.001305900452711,0.0013059004513655,-0.0013059004510877,0.0013059004542217,-7.9590128870314e-13,-8.96755678259e-13,-0.0007978582905549,0.0007978582869844,-1.0583533445024e-12,-1.1114099286234e-12,-0.00087518681063832,0.00087518680793133,-0.00087518681064544,0.00087518680791845,-0.00087518681148719,0.00087518680871968,-0.00087518681151142,0.00087518680869379,-0.0008274086808018,0.00082740867867202,-0.00082740868087529,0.00082740867894461,0.71231678900663,131490,2924,0.0040493836508703,0.0059350281064127,0.0033201733302968,40.777855437587,0.0002414228435007,0.0002414228435007,0.0002414228435007,4300061.8589698,0.013393732956291
8419200,0.90796087788567,0.014403638950662,0.0045302252105154,0.0059295320257396,0.0039438817144069,-0.0010118109007446,0.0010118108990642,-4.7630393269769e-13,-3.8195596265413e-13,3.3569391757537e-13,-1.5259982053317e-12,-0.0011166999807132,0.0011166999796203,-0.0011166999810658,0.0011166999801132,-0.0011166999813094,0.0011166999790477,-0.0011166999817332,0.0011166999794533,-0.00095024659651796,0.00095024659470472,-0.00095024659657636,0.00095024659486309,-5.490029048087e-13,1.203288740355e-12,7.0320404701083e-13,-7.7024176376048e-14,-0.0015707484168569,0.0015707484174804,-0.0017225662415014,0.0017225662417707,-0.0017225662422312,0.0017225662420416,-0.0017225662415975,0.0017225662430841,-0.0017225662423945,0.0017225662432545,-0.0013575388253341,0.0013575388273005,-0.0013575388269899,0.0013575388274373,-0.001418135510237,0.0014181355089005,-0.0014181355090473,0.0014181355112017,2.4577802106193e-13,1.450407161645e-13,-0.00082625698539541,0.00082625698493907,-4.2692022258613e-13,3.3323950542362e-13,-0.00092005946198209,0.00092005946153673,-0.00092005946171462,0.00092005946179577,-0.00092005946257667,0.0009200594620707,-0.000920059462329,0.00092005946231978,-0.00085383816325932,0.00085383816379634,-0.0008538381632998,0.0008538381640357,0.69845760321686,131490,2924,0.00420754380433,0.0065228590226614,0.0034385605106336,41.436038113023,0.00024668830490418,0.00024668830490418,0.00024668830490418,4032614.9123738,0.014270159965491
9419200,0.94978260343207,0.014984239650696,0.0046928404403707,0.0061997896855635,0.0040916095247621,-0.0010198357219448,0.0010198357214968,-6.46698258518e-14,2.9753866143214e-14,5.3698510282665e-13,-8.6779237189166e-13,-0.0011362187169767,0.001136218716765,-0.0011362187171537,0.0011362187170822,-0.0011362187174239,0.0011362187163462,-0.0011362187176724,0.0011362187165766,-0.00095565292459027,0.00095565292386404,-0.00095565292472381,0.0009556529240978,-4.2682216675814e-13,8.8167218316707e-13,9.7364925568358e-13,-5.4021308509636e-13,-0.0016503280973465,0.0016503280977768,-0.0018190301635738,0.0018190301640476,-0.0018190301643028,0.0018190301638261,-0.0018190301636056,0.0018190301649974,-0.001819030164402,0.001819030164675,-0.0014169096449613,0.0014169096473052,-0.0014169096472674,0.0014169096466553,-0.0014780018858087,0.0014780018844651,-0.0014780018849736,0.0014780018862489,7.336208089761e-13,6.3281663847431e-13,-0.00083322029228213,0.00083322029327155,-2.9010987263665e-13,1.2112381804094e-12,-0.00093853716640449,0.00093853716693628,-0.00093853716588889,0.00093853716744218,-0.0009385371668614,0.00093853716733244,-0.00093853716636698,0.00093853716783001,-0.00085821956140542,0.00085821956330131,-0.00085821956138551,0.00085821956348043,0.67991952503529,131490,2924,0.0042410329933758,0.0068520933632065,0.003467798541427,41.14427432542,0.00024435419460336,0.00024435419460336,0.00024435419460336,3752611.9549402,0.014667857738878
10419200,0.97069363315609,0.015282461954785,0.0047770998761964,0.0063347802145597,0.0041705818640294,-0.001012875894361,0.0010128758964609,7.8460831200465e-13,8.7895938495204e-13,1.0389517350024e-12,3.9260241803033e-13,-0.0011353397274026,0.0011353397290348,-0.0011353397271848,0.0011353397289573,-0.0011353397276017,0.0011353397288712,-0.0011353397274574,0.0011353397287088,-0.0009481817269649,0.00094818172841832,-0.00094818172717048,0.00094818172872398,-2.1611936828988e-13,3.5883686130961e-13,1.4280559621059e-12,-1.2955070702071e-12,-0.0016864173780479,0.0016864173781765,-0.0018648218399399,0.0018648218407744,-0.0018648218405922,0.0018648218396578,-0.0018648218398343,0.0018648218410867,-0.0018648218405539,0.0018648218398692,-0.0014418813481288,0.0014418813511095,-0.0014418813514921,0.0014418813491494,-0.0015026180508256,0.0015026180494874,-0.0015026180505759,0.0015026180504163,1.8103957818869e-12,1.7096698737001e-12,-0.000827603406202,0.00082760341038961,2.0146705120223e-13,2.9300013544404e-12,-0.00093907869895498,0.00093907870171079,-0.00093907869802703,0.00093907870262608,-0.00093907869912885,0.00093907870182385,-0.00093907869822503,0.00093907870273392,-0.00085124312660297,0.00085124313135149,-0.00085124312649676,0.00085124313144414,0.69326653990765,131490,2924,0.0042122903956855,0.0070013450023043,0.0034446708339721,38.087762841529,0.00021990210273223,0.00021990210273223,0.00021990210273223,3569088.6006769,0.014766702192163
11419200,0.98277537567741,0.015451845675076,0.0048250933984543,0.0064104813300588,0.0042162709465627,-0.0010084030632543,0.0010084030636358,2.1614180510446e-13,3.1049765542199e-13,4.7575377854864e-13,-1.9424306600767e-13,-0.0011362314650134,0.001136231465272,-0.0011362314651144,0.0011362314655133,-0.0011362314652247,0.0011362314650997,-0.0011362314653952,0.001136231465252,-0.00094365948993194,0.00094365949008683,-0.00094365949015339,0.00094365949040838,-2.1483470165322e-13,3.6790799595738e-13,1.5155796412588e-12,-1.373039583995e-12,-0.0017133225103485,0.001713322510487,-0.0018961880575091,0.0018961880583845,-0.0018961880585223,0.0018961880575446,-0.0018961880576131,0.0018961880589287,-0.0018961880586938,0.0018961880579877,-0.0014633193653102,0.0014633193684722,-0.0014633193688865,0.0014633193663927,-0.0015231559675537,0.0015231559661698,-0.001523155967356,0.0015231559671602,1.0115347747776e-12,9.1080610196938e-13,-0.00082562033647718,0.00082562033826671,-6.6400097993173e-13,2.207426670329e-12,-0.00094292203010971,0.0009429220308882,-0.00094292202913962,0.00094292203184815,-0.00094292203048262,0.00094292203120031,-0.00094292202953419,0.00094292203215266,-0.0008475325933515,0.0008475325963348,-0.00084753259325788,0.00084753259644005,0.67903705729363,131490,2924,0.0041938429481136,0.0071125683536187,0.00343657555274,37.626140712182,0.00021620912569746,0.00021620912569746,0.00021620912569746,3384974.9207455,0.014852666516253
12419200,0.98970441515753,0.015551561238789,0.0048535695401155,0.0064542672779241,0.0042437244207495,-0.0010028518598418,0.0010028518606534,3.5478947208693e-13,4.4909892992236e-13,5.81503950527e-13,-1.0485503204486e-14,-0.0011329196072621,0.0011329196078549,-0.0011329196073027,0.0011329196080359,-0.0011329196074474,0.0011329196077092,-0.0011329196075578,0.0011329196078013,-0.00093832330118317,0.00093832330168549,-0.00093832330143076,0.00093832330203311,-2.0125764583472e-13,3.0810699930737e-13,1.6011213221368e-12,-1.5036155361657e-12,-0.001726414184547,0.0017264141846405,-0.0019134153566891,0.0019134153576185,-0.0019134153576923,0.0019134153566232,-0.0019134153567456,0.0019134153580634,-0.0019134153578163,0.001913415356967,-0.0014719851096347,0.0014719851129385,-0.0014719851134014,0.0014719851106262,-0.0015312717363612,0.0015312717349305,-0.0015312717362134,0.0015312717358277,1.1724642849621e-12,1.0717848606494e-12,-0.00082193851606381,0.00082193851834581,-6.0538521177969e-13,2.484648483562e-12,-0.00094151969084508,0.00094151969196522,-0.00094151968980178,0.000941519692998,-0.00094151969116795,0.00094151969222724,-0.00094151969014681,0.00094151969325298,-0.00084315123243861,0.0008431512358669,-0.0008431512323198,0.00084315123594681,0.69352359007504,131490,2924,0.0041708761238746,0.0071666959427872,0.0034213656198303,36.80080130111,0.00020960641040888,0.00020960641040888,0.00020960641040888,3287781.0457486,0.014868863265633
13419200,0.99357380851805,0.015605868965521,0.0048690868749886,0.006477996565242,0.0042587855252899,-0.00099501494072438,0.00099501494262877,7.1673078635176e-13,8.1104202136176e-13,8.4143929460714e-13,4.88627366887e-13,-0.0011279642568763,0.0011279642582632,-0.0011279642567602,0.0011279642582875,-0.0011279642569826,0.001127964258198,-0.0011279642569371,0.0011279642581343,-0.00093063188404964,0.00093063188545444,-0.00093063188433604,0.00093063188584082,-1.2295406736705e-13,1.5594547126702e-13,1.7683632718335e-12,-1.7417609668686e-12,-0.001733929551669,0.0017339295516913,-0.0019221174340895,0.0019221174351662,-0.0019221174350323,0.0019221174338343,-0.0019221174340647,0.0019221174353707,-0.0019221174350751,0.0019221174339376,-0.0014778783732253,0.0014778783767767,-0.0014778783773311,0.0014778783740109,-0.0015365045360924,0.0015365045346786,-0.0015365045361093,0.0015365045352886,1.6176614639056e-12,1.5169809366854e-12,-0.00081587922835347,0.00081587923196589,-3.5143541094825e-13,3.1515015050423e-12,-0.00093866193176926,0.00093866193381374,-0.00093866193058675,0.00093866193498459,-0.0009386619319774,0.00093866193396103,-0.00093866193081816,0.00093866193512597,-0.00083608802926368,0.00083608803384271,-0.00083608802909845,0.00083608803387618,0.67547695236522,131490,2924,0.0041384182990223,0.0071977283426214,0.0033962706600149,34.786203343616,0.00019348962674893,0.00019348962674893,0.00019348962674893,3188383.1209186,0.014841965665733
14419200,0.99580831142606,0.015636815989197,0.0048779331434343,0.0064914629987306,0.004267419847032,-0.00098706845408,0.00098706845619329,7.8586940767022e-13,8.8016313189852e-13,8.3489217292603e-13,6.3981398353375e-13,-0.0011205356948319,0.0011205356963559,-0.001120535694688,0.0011205356963523,-0.0011205356948876,0.0011205356963437,-0.001120535694814,0.0011205356962518,-0.00092289108287445,0.00092289108449113,-0.00092289108317481,0.00092289108489147,-8.5703528874846e-14,3.8631731591824e-14,1.8818700983956e-12,-1.9327553674149e-12,-0.0017342787385893,0.001734278738534,-0.0019250163500421,0.0019250163511936,-0.0019250163510448,0.0019250163497209,-0.0019250163500315,0.0019250163513097,-0.0019250163511017,0.0019250163497358,-0.0014756601014076,0.0014756601051292,-0.0014756601058029,0.0014756601020549,-0.0015340214480107,0.0015340214465684,-0.0015340214481721,0.0015340214470185,1.6966458303992e-12,1.5959849790485e-12,-0.00080894174570779,0.00080894174955436,-4.1958656427142e-13,3.3874404764966e-12,-0.00093218232274028,0.00093218232489793,-0.00093218232145683,0.00093218232616958,-0.00093218232292366,0.00093218232502044,-0.00093218232166368,0.00093218232628644,-0.00082897092619678,0.00082897093105748,-0.00082897092601765,0.00082897093107701,0.66541368792828,131490,2924,0.0041054734802394,0.0071991698959677,0.0033674946142601,32.63495475369,0.00017627963802952,0.00017627963802952,0.00017627963802952,3151364.4432984,0.014780793368103
15419200,0.99697134512344,0.015653845087837,0.0048828526896244,0.0064987601707669,0.0042722322274458,-0.00097251840682128,0.00097251841182753,1.7475389355763e-12,1.8418273940532e-12,1.4903742403106e-12,1.9771770103642e-12,-0.0011066033775244,0.0011066033811815,-0.0011066033769273,0.0011066033807246,-0.0011066033773557,0.0011066033813989,-0.0011066033768316,0.0011066033808566,-0.00090851682869853,0.00090851683272684,-0.0009085168290657,0.00090851683319401,1.078340586847e-13,-4.2276790826001e-13,2.2684038194675e-12,-2.5773584399394e-12,-0.0017270318258986,0.0017270318255845,-0.0019194904373963,0.0019194904388708,-0.0019194904382157,0.001919490436509,-0.0019194904371916,0.0019194904383406,-0.0019194904380786,0.0019194904358778,-0.00146654784724,0.0014665478514904,-0.0014665478525169,0.0014665478472827,-0.0015247625690341,0.0015247625676218,-0.0015247625697024,0.0015247625672945,2.9200719849818e-12,2.8194180598901e-12,-0.00079488131030008,0.00079488131779639,3.0445484617226e-13,5.1647839997249e-12,-0.0009187602874677,0.00091876029224614,-0.00091876028582853,0.00091876029387021,-0.00091876028733227,0.00091876029204985,-0.00091876028571987,0.00091876029367158,-0.00081486319127526,0.00081486319926544,-0.00081486319100046,0.00081486319918929,0.70136297395855,131490,2924,0.0040451212155869,0.0071691815123628,0.0033091377937933,27.046974634164,0.00013157579707331,0.00013157579707331,0.00013157579707331,3130819.799608,0.014629910888541
16419200,0.99771861653498,0.015664398830611,0.0048858907698652,0.0065032988660909,0.0042752091946553,-0.00096452723357593,0.00096452723625227,9.7884433410985e-13,1.0731509732125e-12,8.0479476885166e-13,1.0916708854979e-12,-0.0011014301295636,0.0011014301313767,-0.0011014301293654,0.0011014301313189,-0.0011014301294647,0.0011014301315257,-0.0011014301293354,0.0011014301313781,-0.00090047925135285,0.00090047925356209,-0.00090047925169685,0.00090047925400604,8.185473468816e-14,-2.7251864533069e-13,2.3061913121443e-12,-2.4946128501133e-12,-0.0017288604269029,0.0017288604267094,-0.0019199335949628,0.0019199335964588,-0.0019199335961938,0.0019199335945667,-0.0019199335950263,0.0019199335963345,-0.001919933596325,0.0019199335943412,-0.001469310497537,0.0014693105019306,-0.0014693105028581,0.0014693104978451,-0.0015269442261395,0.0015269442247003,-0.0015269442267344,0.0015269442246391,1.9184784065075e-12,1.8178049820115e-12,-0.00078818010467709,0.00078818010915439,-6.6739314100942e-13,4.1222453697042e-12,-0.00091531805934225,0.00091531806167319,-0.00091531805773277,0.00091531806327057,-0.00091531805947791,0.00091531806174797,-0.00091531805789208,0.00091531806333987,-0.00080707490385662,0.00080707490954124,-0.00080707490363336,0.00080707490951663,0.67695251043122,131490,2924,0.0040120034395222,0.0071766805592101,0.003281351233534,24.407506131506,0.00011046004905204,0.00011046004905204,0.00011046004905204,3050837.1469234,0.014575746867426
17419200,0.99822054648653,0.015671683344639,0.0048879960895956,0.0065064081825008,0.0042772790725424,-0.00095666586774201,0.00095666587027891,9.2803483667277e-13,1.0222636255571e-12,8.0191018969416e-13,9.8412599444993e-13,-0.0010931433352544,0.0010931433370066,-0.0010931433350733,0.0010931433369658,-0.0010931433351894,0.001093143337121,-0.001093143335077,0.0010931433369903,-0.00089292386586387,0.00089292386792987,-0.00089292386620499,0.00089292386837083,3.1821351408969e-14,-2.1753858963953e-13,2.2683665853108e-12,-2.4527528347904e-12,-0.0017244025652202,0.001724402565031,-0.0019175402161652,0.0019175402176043,-0.00191754021739,0.0019175402157594,-0.0019175402162073,0.0019175402175272,-0.0019175402174997,0.0019175402155812,-0.0014629294916298,0.0014629294959842,-0.001462929496881,0.0014629294919852,-0.0015204977220684,0.0015204977205566,-0.0015204977225704,0.0015204977206101,1.8544240250896e-12,1.7538308040258e-12,-0.00078075157818686,0.00078075158248479,-6.937693352348e-13,4.0153795240883e-12,-0.00090732193729837,0.00090732193953434,-0.00090732193571595,0.00090732194110482,-0.00090732193744279,0.00090732193961792,-0.00090732193588399,0.00090732194118295,-0.0007999136969815,0.00079991370249903,-0.00079991369676289,0.00079991370247894,0.69391687944075,131490,2924,0.0039793877157811,0.0071582533880845,0.0032505114425213,21.970371100368,9.0962968802945e-05,9.0962968802945e-05,9.0962968802945e-05,3045838.988827,0.014492666801892
18419200,0.99853235809488,0.015676133665766,0.004889281527091,0.0065083081854911,0.0042785439531843,-0.00094496596604507,0.0009449659716092,1.9348581910428e-12,2.0291352527516e-12,1.5858329821998e-12,2.2933439987386e-12,-0.0010830942905034,0.0010830942945098,-0.0010830942898594,0.0010830942940062,-0.0010830942902632,0.0010830942948012,-0.0010830942896915,0.0010830942942111,-0.00088126791767815,0.00088126792220509,-0.0008812679180988,0.00088126792272565,2.006870456191e-13,-5.49359217453e-13,2.556954533853e-12,-2.89777247504e-12,-0.0017196127882098,0.0017196127878636,-0.0019124533658798,0.0019124533675956,-0.0019124533668117,0.0019124533649457,-0.0019124533656674,0.0019124533669122,-0.001912453366667,0.0019124533641611,-0.0014581438614511,0.0014581438661942,-0.0014581438672882,0.0014581438613513,-0.0015154124921415,0.0015154124907101,-0.0015154124929887,0.0015154124901295,3.1244966664186e-12,3.0238551527125e-12,-0.00076972593286502,0.00076972594095337,2.2650469808401e-13,5.6939099437464e-12,-0.00089816205511231,0.00089816206013221,-0.00089816205327156,0.00089816206195767,-0.00089816205493202,0.00089816205989106,-0.00089816205311814,0.00089816206171429,-0.00078840825046537,0.00078840825912188,-0.00078840825013908,0.00078840825899418,0.68264893512282,131490,2924,0.0039308607179426,0.0071384006834327,0.0032047515406354,17.465812510062,5.4926500080493e-05,5.4926500080493e-05,5.4926500080493e-05,3005654.4173918,0.014376891323808
19419200,0.9987907477455,0.015680042540333,0.0048904197476297,0.0065099574598299,0.0042796653328738,-0.00094274284996776,0.00094274285055774,2.8181547896586e-13,3.763935900716e-13,2.1573681196201e-13,2.4294422527951e-13,-0.001080840522678,0.0010808405229128,-0.001080840522821,0.0010808405231964,-0.0010808405226675,0.0010808405229741,-0.0010808405228759,0.0010808405231645,-0.00087930810826248,0.00087930810880867,-0.00087930810857923,0.00087930810922593,-7.3727159450593e-15,-1.1890748510501e-13,2.2678241312942e-12,-2.394949071244e-12,-0.0017203596707227,0.0017203596705909,-0.0019142927664919,0.0019142927679034,-0.0019142927680477,0.0019142927664506,-0.0019142927667546,0.0019142927681546,-0.0019142927683779,0.0019142927666006,-0.0014579039387929,0.0014579039431999,-0.0014579039440647,0.0014579039393275,-0.0015149792189372,0.0015149792173744,-0.0015149792193925,0.0015149792176467,1.01360140282e-12,9.1266061884457e-13,-0.00076821799359344,0.0007682179953713,-1.5032529590069e-12,3.1272264901935e-12,-0.00089657524417582,0.00089657524440963,-0.00089657524262457,0.00089657524595136,-0.00089657524453888,0.00089657524471161,-0.00089657524300886,0.0008965752462455,-0.00078689370572668,0.00078689370930527,-0.00078689370555451,0.00078689370933227,0.72156127329542,131490,2924,0.0039216447755797,0.0071414937077088,0.0031984967025892,17.551723109214,5.5613784873712e-05,5.5613784873712e-05,5.5613784873712e-05,2984145.8120621,0.014364332546794
20419200,0.99901564839292,0.015683481701132,0.0048914228755402,0.0065114039909148,0.0042806548346769,-0.00094308384765729,0.0009430838471453,-9.5040670102179e-14,-3.9966845446556e-16,1.1941147522316e-13,-4.4021513996494e-13,-0.0010833796989145,0.0010833796984309,-0.001083379699227,0.0010833796988841,-0.0010833796990926,0.0010833796982954,-0.0010833796994712,0.0010833796986558,-0.00087957331831631,0.00087957331781715,-0.00087957331861579,0.00087957331821719,-1.7407941728741e-13,2.9093952376196e-13,1.9323066164181e-12,-1.8253811182128e-12,-0.001727059131505,0.0017270591316079,-0.0019194031676171,0.0019194031687683,-0.00191940316907,0.0019194031678139,-0.0019194031678395,0.0019194031693631,-0.0019194031693601,0.0019194031683073,-0.0014659068092878,0.0014659068132336,-0.0014659068137142,0.0014659068102902,-0.0015224359606751,0.0015224359590871,-0.0015224359606056,0.0015224359599702,5.2243446645625e-13,4.2142759626445e-13,-0.00076987992404413,0.00076987992439904,-1.5542302546267e-12,2.1697644293405e-12,-0.00090075733832726,0.00090075733768724,-0.00090075733707804,0.00090075733892797,-0.00090075733880847,0.00090075733810732,-0.0009007573375795,0.00090075733933921,-0.00078754660426336,0.00078754660643418,-0.00078754660411941,0.00078754660648951,0.72908504895828,131490,2924,0.0039230931933125,0.0071691572829748,0.003205423525548,18.600134564272,6.4001076514177e-05,6.4001076514177e-05,6.4001076514177e-05,2912089.9492571,0.014400908765355
21419200,0.99916854792228,0.015685757865294,0.0048920847446289,0.0065123631287971,0.0042813099918679,-0.00093352145604656,0.00093352146048155,1.5595828061835e-12,1.6542548064246e-12,1.2161577148637e-12,1.9041042426871e-12,-0.0010748497056133,0.001074849708686,-0.0010748497051738,0.0010748497083873,-0.0010748497053819,0.0010748497089696,-0.0010748497050129,0.0010748497085825,-0.00087037349742323,0.00087037350109189,-0.00087037349783783,0.00087037350160712,2.1932935846218e-13,-5.2412066494405e-13,2.515177633638e-12,-2.8131537659658e-12,-0.0017222328845261,0.0017222328842228,-0.0019148605067548,0.001914860508457,-0.0019148605078591,0.0019148605060759,-0.0019148605066977,0.0019148605079444,-0.0019148605078697,0.001914860505462,-0.0014606994617903,0.0014606994664584,-0.001460699467539,0.0014606994617702,-0.0015170215791057,0.0015170215777579,-0.0015170215799864,0.001517021577219,2.6122479623238e-12,2.5112103136604e-12,-0.00076092959488215,0.00076092960144629,-2.1681243535246e-13,5.1112848739762e-12,-0.00089285329431005,0.00089285329810949,-0.00089285329251849,0.00089285329988734,-0.00089285329426587,0.00089285329800417,-0.00089285329249954,0.00089285329977816,-0.00077863442289564,0.00077863443034555,-0.00077863442258982,0.00077863443023907,0.70949276287803,131490,2924,0.0038834252035492,0.0071491684091557,0.0031682711918375,15.21652943777,3.6932235502158e-05,3.6932235502158e-05,3.6932235502158e-05,2886329.7323886,0.014302713952946
22419200,0.99929518691167,0.015687661976134,0.0048926395544716,0.0065131626594182,0.0042818597622444,-0.00093055777493777,0.00093055777608563,4.6346802886986e-13,5.5814854614174e-13,3.5904812323806e-13,4.860709743948e-13,-0.001071563706686,0.0010715637073211,-0.0010715637067556,0.0010715637075313,-0.0010715637066418,0.0010715637074157,-0.0010715637067777,0.0010715637075336,-0.00086775037848814,0.00086775037948363,-0.00086775037883069,0.00086775037992686,3.4307187233097e-14,-1.7292292320575e-13,2.2893658849731e-12,-2.4280457072233e-12,-0.0017211801138023,0.0017211801136588,-0.0019150933509792,0.0019150933524337,-0.0019150933524589,0.0019150933508629,-0.0019150933511935,0.0019150933525694,-0.0019150933527408,0.0019150933508973,-0.0014585153137283,0.0014585153181441,-0.0014585153190206,0.0014585153141866,-0.001514728025586,0.0015147280240861,-0.0015147280260986,0.001514728024228,1.2215246832594e-12,1.1204809318414e-12,-0.00075848857940465,0.00075848858182167,-1.3168031843313e-12,3.3741261130207e-12,-0.00088998076440125,0.00088998076510884,-0.00088998076282856,0.00088998076667144,-0.00088998076470872,0.00088998076535516,-0.0008899807631578,0.00088998076691046,-0.00077640758698909,0.00077640759106629,-0.00077640758678823,0.00077640759106479,0.71603060868627,131490,2924,0.0038711298255059,0.0071448224453625,0.0031581372853736,14.857969007363,3.4063752058903e-05,3.4063752058903e-05,3.4063752058903e-05,2876894.6572118,0.014275549236159
23419200,0.99940766541274,0.015689324269047,0.004893123460306,0.006513861113107,0.0042823396956341,-0.00093045508322594,0.00093045508301608,4.0180316636555e-15,9.8701968235949e-14,1.4674506850948e-13,-2.566590415954e-13,-0.0010721426341563,0.0010721426338671,-0.0010721426344321,0.0010721426342836,-0.0010721426342841,0.001072142633784,-0.0010721426346258,0.0010721426341075,-0.00086779282162494,0.00086779282140707,-0.00086779282194285,0.00086779282182565,-1.2953116055902e-13,1.8194973567812e-13,1.9974523321435e-12,-1.9526324660656e-12,-0.0017243196764563,0.001724319676497,-0.0019182216982134,0.0019182216994182,-0.0019182216996788,0.0019182216983482,-0.001918221698441,0.0019182216999158,-0.001918221699974,0.0019182216987445,-0.0014616419576584,0.0014616419616795,-0.0014616419622599,0.0014616419585341,-0.001517567386446,0.0015175673848812,-0.0015175673865126,0.001517567385598,6.3300042697735e-13,5.3195492561276e-13,-0.00075925150066031,0.00075925150135035,-1.533463653738e-12,2.383302725745e-12,-0.00089147987115185,0.00089147987072158,-0.0008914798698384,0.00089147987202635,-0.00089147987160223,0.00089147987111081,-0.00089147987030925,0.00089147987240698,-0.00077686216785431,0.00077686217034438,-0.00077686216769258,0.00077686217038203,0.70402771110757,131490,2924,0.0038707193941382,0.0071577953719593,0.0031613166962936,15.708000064226,4.0864000513809e-05,4.0864000513809e-05,4.0864000513809e-05,2842102.5612325,0.014291520181286
24419200,0.9995138612679,0.015690921100027,0.0048935897686726,0.0065145285156388,0.004282802815716,-0.00093312912464723,0.00093312912287105,-5.3520877657749e-13,-4.4056072936147e-13,1.2769106787553e-13,-1.370081027318e-12,-0.0010746008239206,0.0010746008227197,-0.0010746008244182,0.0010746008233579,-0.0010746008243997,0.00107460082227,-0.0010746008249652,0.0010746008228174,-0.00087071834812486,0.00087071834633572,-0.00087071834841411,0.00087071834672558,-4.7922730111138e-13,9.1391590402588e-13,1.1297478399202e-12,-7.1810770936123e-13,-0.0017284159735011,0.00172841597391,-0.0019231217244418,0.0019231217249588,-0.0019231217254934,0.0019231217248634,-0.0019231217245244,0.001923121726027,-0.0019231217256436,0.0019231217258303,-0.0014650902265069,0.0014650902291912,-0.0014650902291405,0.0014650902282046,-0.0015208167372827,0.0015208167357284,-0.0015208167363684,0.0015208167375981,-7.5721774987046e-14,-1.7674417411621e-13,-0.00076268063868063,0.00076268063734456,-1.2242958044859e-12,5.9361717330724e-13,-0.00089463470258266,0.00089463470120357,-0.00089463470196713,0.00089463470181199,-0.00089463470318864,0.00089463470174842,-0.00089463470259232,0.00089463470234699,-0.0007802628863102,0.00078026288651664,-0.00078026288619474,0.0007802628866005,0.71547766069856,131490,2924,0.0038818237687216,0.0071747476155048,0.0031755600083712,17.887456904477,5.8299655235816e-05,5.8299655235816e-05,5.8299655235816e-05,2821410.6163086,0.014334421280873
25419200,0.99961067132477,0.015692450760186,0.0048940393500052,0.0065151618652683,0.0042832495449127,-0.00093574165819029,0.00093574165656595,-4.8434504917945e-13,-3.8977411759933e-13,1.5141442586381e-13,-1.285835600958e-12,-0.0010780096042474,0.0010780096031466,-0.0010780096047232,0.0010780096037631,-0.0010780096047065,0.0010780096027169,-0.0010780096052509,0.0010780096032432,-0.00087343473694574,0.00087343473529093,-0.00087343473723883,0.00087343473568446,-4.5926732263972e-13,8.7352225567117e-13,1.0304808136361e-12,-6.3841667327945e-13,-0.0017340171420476,0.0017340171424368,-0.0019283932087587,0.0019283932092193,-0.0019283932097274,0.0019283932091556,-0.00192839320884,0.0019283932102455,-0.0019283932098763,0.0019283932100805,-0.0014709970744749,0.0014709970769431,-0.0014709970769242,0.0014709970761246,-0.001526394808495,0.0015263948070388,-0.0015263948076282,0.0015263948088369,-2.4921488665628e-14,-1.2585631694061e-13,-0.00076626609779511,0.00076626609662228,-1.0846443942701e-12,5.5573305950121e-13,-0.00089908968165518,0.00089908968045984,-0.00089908968109788,0.00089908968100983,-0.00089908968224642,0.00089908968098999,-0.0008990896817085,0.00089908968153031,-0.00078342814092741,0.00078342814119304,-0.00078342814080677,0.00078342814127155,0.75063515068119,131490,2924,0.003892683005446,0.0071979002815165,0.0031904603253947,19.932102689418,7.4656821515342e-05,7.4656821515342e-05,7.4656821515342e-05,2781054.6083799,0.014384041640398
26419200,0.99969002755844,0.015693732889453,0.0048944169050792,0.0065156906340777,0.0042836253502959,-0.00093496489817394,0.0009349648984393,1.4604941512886e-13,2.4061482303811e-13,6.3497704490185e-13,-4.5602624518183e-13,-0.0010789735051638,0.0010789735054525,-0.0010789735053546,0.0010789735057839,-0.001078973505508,0.0010789735051393,-0.0010789735057696,0.0010789735053827,-0.00087278431728867,0.0008727843171777,-0.00087278431762553,0.00087278431761494,-3.4863014370607e-13,6.5266732616708e-13,1.1651609933667e-12,-8.7883809327598e-13,-0.0017377982366198,0.0017377982369029,-0.0019310465305824,0.0019310465311862,-0.0019310465313451,0.0019310465306516,-0.0019310465305154,0.0019310465318327,-0.0019310465313458,0.0019310465311967,-0.0014757031278349,0.0014757031304498,-0.001475703130561,0.0014757031291787,-0.0015307096415904,0.0015307096402222,-0.0015307096409509,0.0015307096415988,7.6986256946225e-13,6.6893643209824e-13,-0.00076655700509408,0.00076655700628884,-4.6587247379807e-13,1.5646102270477e-12,-0.00090124381213519,0.00090124381269187,-0.00090124381144429,0.00090124381337342,-0.00090124381252786,0.00090124381302347,-0.0009012438118583,0.00090124381369728,-0.00078319987774463,0.00078319987994447,-0.00078319987756173,0.00078319987996068,0.7669055715323,131490,2924,0.0038894845824409,0.0072135006533793,0.003191687015479,20.395176073426,7.8361408587412e-05,7.8361408587412e-05,7.8361408587412e-05,2729379.6227598,0.014397880030229
27419200,0.99975924461906,0.01569480861939,0.004894732410892,0.0065161359704755,0.0042839402380224,-0.00093660583390041,0.0009366058330556,-2.2174099434718e-13,-1.2703764878602e-13,2.6737376390034e-13,-8.4677648450083e-13,-0.0010815889562159,0.0010815889556281,-0.0010815889565823,0.0010815889561353,-0.0010815889565701,0.0010815889553065,-0.0010815889570057,0.0010815889557239,-0.00087486268739168,0.00087486268643559,-0.00087486268770671,0.00087486268685126,-3.5214706567828e-13,6.637638989391e-13,1.1651521112851e-12,-8.7139226191749e-13,-0.0017423883613646,0.0017423883616551,-0.0019353590704728,0.001935359071066,-0.0019353590714276,0.0019353590707402,-0.0019353590705521,0.001935359071878,-0.0019353590715746,0.0019353590714507,-0.0014805844944787,0.0014805844971026,-0.0014805844972417,0.0014805844958781,-0.0015352701943418,0.001535270192973,-0.0015352701937378,0.00153527019441,3.0015052178406e-13,1.9908543278257e-13,-0.00076930631107741,0.00076930631086485,-9.3338207405363e-13,1.0792859136665e-12,-0.00090491187735709,0.00090491187680106,-0.00090491187667472,0.00090491187747529,-0.00090491187787167,0.00090491187725447,-0.00090491187720941,0.00090491187791974,-0.00078587771292665,0.00078587771404982,-0.00078587771277752,0.00078587771410008,0.73787290475522,131490,2924,0.003896311514948,0.0072324654094567,0.0032031154715701,22.256951369012,9.3255610952095e-05,9.3255610952095e-05,9.3255610952095e-05,2688417.559216,0.014435639523457
28419200,0.99981612541298,0.015695739153619,0.0048950071469268,0.0065165172843435,0.0042842147223491,-0.00093737913750086,0.00093737913720324,-4.02698028734e-14,5.4481809078608e-14,4.0063675714561e-13,-6.0633888852787e-13,-0.0010816130973113,0.0010816130971288,-0.0010816130975928,0.001081613097551,-0.0010816130976302,0.0010816130968433,-0.0010816130979812,0.0010816130971763,-0.00087596368943507,0.00087596368893045,-0.00087596368976067,0.00087596368935683,-3.2320512630525e-13,5.903405537366e-13,1.219867322126e-12,-9.6902092648762e-13,-0.0017434924481551,0.0017434924484026,-0.0019378192852785,0.0019378192859175,-0.0019378192861886,0.0019378192854417,-0.0019378192853165,0.0019378192866167,-0.0019378192862942,0.0019378192860396,-0.0014805468513276,0.0014805468540226,-0.0014805468542206,0.001480546852631,-0.001535157409738,0.001535157408374,-0.0015351574092126,0.001535157409689,5.3029919678237e-13,4.2919110909446e-13,-0.00077055064816929,0.00077055064864466,-7.7754692294582e-13,1.3913770633196e-12,-0.00090527967887935,0.00090527967882537,-0.00090527967814408,0.00090527967955194,-0.00090527967933351,0.00090527967921832,-0.00090527967861891,0.00090527967993652,-0.0007873699734201,0.0007873699751214,-0.00078736997325613,0.00078736997515689,0.77519218307173,131490,2924,0.003899520634325,0.0072370508469666,0.0032082818709666,23.444426244551,0.00010275540995641,0.00010275540995641,0.00010275540995641,2685616.2322114,0.01444877732984
29419200,0.99986234288584,0.015696409097194,0.0048952026308183,0.0065167960053077,0.0042844104610684,-0.0009386343446672,0.000938634344255,-7.7248046375208e-14,1.5994304181402e-14,3.5947943542942e-13,-6.3750446585264e-13,-0.001084565884578,0.0010845658842936,-0.0010845658848835,0.0010845658847389,-0.001084565884894,0.0010845658840114,-0.0010845658852687,0.001084565884367,-0.00087729147603267,0.00087729147544427,-0.0008772914763615,0.00087729147587088,-3.139375270711e-13,5.8817506106739e-13,1.2551517148002e-12,-9.9724618187251e-13,-0.0017487982817126,0.0017487982819671,-0.0019418726424383,0.0019418726431074,-0.0019418726433891,0.0019418726426322,-0.0019418726424958,0.00194187264382,-0.0019418726435143,0.0019418726432434,-0.0014868986277929,0.001486898630554,-0.0014868986307437,0.0014868986290947,-0.0015411219970136,0.0015411219956475,-0.0015411219964975,0.0015411219969487,4.8094964555376e-13,3.8134740892195e-13,-0.0007729191043109,0.00077291910463723,-8.5443883865646e-13,1.3764051843032e-12,-0.00090943732898548,0.00090943732878325,-0.00090943732822995,0.00090943732953021,-0.00090943732945526,0.00090943732919283,-0.00090943732872024,0.00090943732993124,-0.00078917319234718,0.00078917319395707,-0.00078917319218431,0.00078917319399071,0.68887568164731,131490,2924,0.0039047549755258,0.0072589588097232,0.0032181343467978,24.7837791834,0.0001134702334672,0.0001134702334672,0.0001134702334672,2634000.3849619,0.014486321344494
30419200,0.99989910602856,0.015696932808358,0.0048953552852729,0.0065170138708659,0.0042845636522189,-0.0009403821738095,0.00094038217338083,-8.3596436995056e-14,9.6791530102659e-15,3.3991841903445e-13,-6.4196121205504e-13,-0.0010830086805465,0.001083008680265,-0.0010830086808466,0.0010830086807047,-0.0010830086808578,0.0010830086799879,-0.0010830086812269,0.001083008680338,-0.00087933097171668,0.00087933097112547,-0.00087933097204313,0.00087933097154987,-3.2320427339013e-13,5.650140039159e-13,1.2515480013618e-12,-1.0254119096641e-12,-0.0017467042119216,0.0017467042121444,-0.0019434813116266,0.0019434813122769,-0.0019434813125883,0.0019434813117968,-0.0019434813116889,0.0019434813129849,-0.0019434813127182,0.0019434813124036,-0.0014816316187012,0.0014816316214502,-0.0014816316216972,0.001481631619988,-0.0015360992668085,0.0015360992654154,-0.0015360992663253,0.0015360992667225,4.7513094095825e-13,3.754984846614e-13,-0.00077431902345399,0.00077431902376651,-8.7733775675729e-13,1.3775193377666e-12,-0.0009072949874053,0.00090729498720876,-0.00090729498664211,0.0009072949879635,-0.00090729498786935,0.00090729498761257,-0.00090729498712665,0.0009072949883588,-0.0007913541632234,0.0007913541648334,-0.0007913541630647,0.00079135416487131,0.67661895266594,131490,2924,0.0039119827628205,0.0072503764417188,0.0032239269401691,26.134524921674,0.00012427619937339,0.00012427619937339,0.00012427619937339,2683509.2604484,0.014490793770415
31419200,0.99992886822151,0.015697388444937,0.0048954894964941,0.006517201001934,0.0042846979465086,-0.00094412318305432,0.00094412318180621,-3.5925251772924e-13,-2.6541842312914e-13,1.8864059745335e-13,-1.0640492587314e-12,-0.0010863422947754,0.0010863422939242,-0.0010863422951999,0.0010863422944888,-0.0010863422951748,0.0010863422935562,-0.001086342295668,0.0010863422940308,-0.00088315841329094,0.00088315841198663,-0.00088315841360442,0.00088315841239917,-4.0599109725066e-13,7.4599641620391e-13,1.0872404914317e-12,-7.6680063359053e-13,-0.0017509631039586,0.0017509631042761,-0.0019483772741518,0.0019483772746638,-0.0019483772751194,0.0019483772744748,-0.0019483772742391,0.0019483772755754,-0.0019483772752743,0.0019483772752851,-0.0014853404752442,0.0014853404777619,-0.0014853404778693,0.0014853404767568,-0.0015396554703125,0.0015396554688988,-0.0015396554696144,0.0015396554705096,1.2168291502341e-13,2.1492108136732e-14,-0.00077860956131662,0.00077860956058593,-1.0267857794581e-12,8.0049756373127e-13,-0.00091117021091809,0.00091117021002533,-0.00091117021029839,0.00091117021063752,-0.00091117021146857,0.00091117021051519,-0.00091117021086849,0.00091117021111801,-0.00079551203917753,0.00079551203984499,-0.00079551203904026,0.00079551203990543,0.72613761593707,131490,2924,0.003927512412102,0.0072680034451445,0.0032417446558089,28.445480594107,0.00014276384475285,0.00014276384475285,0.00014276384475285,2670562.9737359,0.014542505217673
32419200,0.9999506055867,0.015697738096763,0.004895592986726,0.0065173436044875,0.0042848015055499,-0.00094486508013137,0.00094486508009972,4.5969744552918e-14,1.3975866279875e-13,5.0321626495617e-13,-5.3052873388782e-13,-0.0010895876775061,0.0010895876775451,-0.0010895876777494,0.0010895876779286,-0.0010895876778327,0.0010895876772509,-0.0010895876781462,0.0010895876775456,-0.00088365962205193,0.00088365962173577,-0.00088365962239234,0.00088365962217506,-3.3261763287728e-13,6.0967622775092e-13,1.1879132394777e-12,-9.2766518987699e-13,-0.0017569954899155,0.0017569954901725,-0.0019521671067918,0.0019521671074094,-0.0019521671076312,0.001952167106908,-0.0019521671067815,0.0019521671080767,-0.0019521671076886,0.001952167107474,-0.0014933036144488,0.0014933036170897,-0.0014933036172592,0.0014933036157607,-0.0015471558351449,0.0015471558337856,-0.0015471558345796,0.0015471558351187,6.3337275383831e-13,5.3321609296732e-13,-0.00078049125625755,0.00078049125705232,-6.3652737805494e-13,1.4622574117604e-12,-0.00091578096359984,0.00091578096382215,-0.00091578096288715,0.00091578096452588,-0.00091578096402459,0.00091578096418631,-0.00091578096333286,0.00091578096488198,-0.00079637663226937,0.00079637663418677,-0.00079637663209153,0.00079637663420652,0.76212228763608,131490,2924,0.003930622543665,0.0072928972657743,0.0032495797937261,29.298069039678,0.00014958455231742,0.00014958455231742,0.00014958455231742,2605276.4118282,0.014578888924415
33419200,0.99996571224123,0.015697983934354,0.0048956657544452,0.006517443672769,0.0042848745071396,-0.00094315958517276,0.00094315958585793,2.8651836103133e-13,3.8029399625005e-13,6.4214478181476e-13,-1.6337647954893e-13,-0.0010895216872395,0.0010895216877655,-0.0010895216873816,0.0010895216880478,-0.0010895216874918,0.0010895216875478,-0.0010895216877044,0.0010895216877417,-0.00088219821493555,0.00088219821523923,-0.00088219821529382,0.00088219821569633,-2.5509238357337e-13,4.6418679000043e-13,1.3286239996841e-12,-1.1333960814101e-12,-0.0017591207152574,0.0017591207154491,-0.0019532838097781,0.0019532838105231,-0.0019532838106087,0.0019532838097795,-0.0019532838097452,0.0019532838110172,-0.0019532838106435,0.0019532838101722,-0.0014962843199991,0.0014962843228393,-0.0014962843231077,0.0014962843211304,-0.0015498343128185,0.0015498343114954,-0.0015498343124301,0.0015498343125668,9.3659691701886e-13,8.3646257899532e-13,-0.00077972573572621,0.00077972573741527,-4.9739401083675e-13,1.9515762363841e-12,-0.00091666617236521,0.0009166661731739,-0.00091666617153503,0.0009166661739944,-0.00091666617271875,0.00091666617346688,-0.00091666617191018,0.00091666617427994,-0.00079535769280172,0.00079535769552165,-0.00079535769259963,0.00079535769551711,0.77026491249198,131490,2924,0.0039235656341628,0.0073016500672035,0.0032464155866839,29.317375135443,0.00014973900108354,0.00014973900108354,0.00014973900108354,2562697.3231212,0.014577409672466
34419200,0.99997714738008,0.015698163083866,0.0048957186046708,0.0065175168336121,0.0042849276455826,-0.00094584239041441,0.00094584238931881,-3.0617462819292e-13,-2.1245324235093e-13,1.4445331315338e-13,-8.9412327338304e-13,-0.0010927477696036,0.0010927477687934,-0.0010927477700188,0.0010927477693487,-0.0010927477699345,0.0010927477684969,-0.001092747770418,0.0010927477689616,-0.00088527895747853,0.00088527895635818,-0.00088527895780271,0.00088527895678109,-3.2737564595756e-13,6.1122406281856e-13,1.2442722824535e-12,-9.7720291182771e-13,-0.0017635364585898,0.0017635364588536,-0.0019576528586899,0.0019576528593395,-0.0019576528597495,0.0019576528590009,-0.0019576528588256,0.0019576528601598,-0.0019576528599529,0.0019576528597198,-0.0015008140007399,0.0015008140034943,-0.0015008140036916,0.0015008140020938,-0.0015541297248212,0.0015541297234411,-0.0015541297243037,0.0015541297248107,1.8497084926752e-13,8.4891083106271e-14,-0.0007833317933238,0.0007833317927705,-1.1356516595625e-12,1.0580640546268e-12,-0.00092071777329543,0.00092071777241272,-0.00092071777255386,0.00092071777314649,-0.00092071777383907,0.00092071777289583,-0.00092071777311727,0.00092071777362034,-0.00079898856607128,0.00079898856699654,-0.00079898856592281,0.0007989885670455,0.74167920846881,131490,2924,0.0039347103232462,0.0073199021590635,0.0032613958306194,31.489046347801,0.00016711237078241,0.00016711237078241,0.00016711237078241,2532998.9849996,0.014622433822739
35419200,0.99998611657994,0.015698298782953,0.004895758551612,0.0065175723479678,0.0042849678833729,-0.0009539371003734,0.0009539370972935,-9.7080693810267e-13,-8.7712184796942e-13,-2.7894041054722e-13,-1.8553273210239e-12,-0.0010998628016455,0.0010998627994344,-0.0010998628023573,0.0010998628002863,-0.0010998628021525,0.0010998627989573,-0.001099862802931,0.001099862799717,-0.00089361549581534,0.00089361549301131,-0.00089361549610558,0.00089361549340023,-4.9962626617229e-13,9.604920693913e-13,9.3968029341206e-13,-5.0284022681153e-13,-0.0017706240121858,0.00177062401262,-0.0019658180153097,0.001965818015685,-0.0019658180164575,0.0019658180159643,-0.0019658180155419,0.0019658180169577,-0.0019658180167574,0.0019658180171358,-0.0015071005643567,0.0015071005666945,-0.0015071005666488,0.0015071005661576,-0.0015602763368087,0.0015602763353529,-0.0015602763358856,0.0015602763373414,-6.6039801647038e-13,-7.604404602424e-13,-0.00079206337629446,0.00079206337323873,-1.6069048219254e-12,-2.0544784962834e-13,-0.00092838263527115,0.00092838263266301,-0.00092838263479649,0.00092838263313206,-0.0009283826360216,0.00092838263335295,-0.00092838263556467,0.00092838263381071,-0.00080777511352442,0.00080777511227037,-0.00080777511343268,0.00080777511237599,0.71639793499949,131490,2924,0.0039683002602845,0.0073492411828849,0.0032976472340532,35.943766250855,0.00020275013000684,0.00020275013000684,0.00020275013000684,2523960.7441258,0.01472305899167
36419200,0.99999185512052,0.015698387397037,0.0048957847383036,0.0065176083932005,0.0042849942655332,-0.00095627935285212,0.0009562793522051,-1.6445044673997e-13,-7.0807733758827e-14,4.0717143986848e-13,-8.7391800828708e-13,-0.0011013751268093,0.0011013751264355,-0.0011013751271446,0.0011013751269109,-0.001101375127216,0.0011013751260583,-0.0011013751276214,0.001101375126445,-0.00089605897248623,0.00089605897161789,-0.00089605897281817,0.00089605897204846,-4.1312964387885e-13,7.7170468965733e-13,1.0206323497941e-12,-6.8225733397736e-13,-0.0017726654346564,0.0017726654349919,-0.0019689153698249,0.0019689153703011,-0.0019689153706365,0.0019689153700475,-0.0019689153698167,0.0019689153711329,-0.0019689153706959,0.0019689153707781,-0.0015082343780679,0.0015082343804636,-0.0015082343805072,0.0015082343795723,-0.0015613462115969,0.0015613462102172,-0.0015613462108254,0.0015613462118216,3.6079655144243e-13,2.6079766516329e-13,-0.00079468777631284,0.00079468777631722,-7.0961773343005e-13,9.7398264255766e-13,-0.00093015333025105,0.00093015332997966,-0.00093015332967719,0.00093015333054524,-0.0009301533307384,0.00093015333040653,-0.00093015333018493,0.0009301533309635,-0.00081042951023403,0.00081042951140235,-0.00081042951007475,0.00081042951144037,0.73062862473437,131490,2924,0.0039780185160103,0.0073577048789597,0.0033085418165952,37.485517565927,0.00021508414052742,0.00021508414052742,0.00021508414052742,2524916.9462375,0.014752557020566
37419200,0.99999524333233,0.015698438912512,0.0048957999540044,0.0065176293567593,0.0042850096017482,-0.00095573306429994,0.00095573306481826,2.2560721631029e-13,3.1925483987211e-13,6.6238935269525e-13,-3.1578135309642e-13,-0.0011016768537769,0.0011016768542312,-0.0011016768539392,0.0011016768545336,-0.0011016768540843,0.0011016768539558,-0.0011016768543177,0.0011016768541703,-0.00089548774578896,0.00089548774590409,-0.00089548774614522,0.00089548774635894,-3.1729207165089e-13,5.741275196219e-13,1.1732616282509e-12,-9.325089830789e-13,-0.0017745906790645,0.001774590679302,-0.0019703236754132,0.0019703236760303,-0.0019703236761551,0.0019703236754318,-0.0019703236753434,0.0019703236766001,-0.001970323676153,0.0019703236759003,-0.001510578244449,0.001510578247042,-0.0015105782472239,0.0015105782456991,-0.0015634827358764,0.0015634827345487,-0.0015634827353316,0.0015634827358036,8.5417947893266e-13,7.5417498988351e-13,-0.00079472931471732,0.00079472931618444,-4.0856698914717e-13,1.6859913654446e-12,-0.00093109768750002,0.0009310976882553,-0.00093109768678744,0.00093109768895835,-0.00093109768786616,0.00093109768856095,-0.00093109768717514,0.00093109768925656,-0.00081011826997032,0.00081011827239358,-0.00081011826977451,0.00081011827239506,0.7195711909426,131490,2924,0.0039757650761465,0.00736564867178,0.003308723068051,37.681073175168,0.00021664858540134,0.00021664858540134,0.00021664858540134,2498718.2493923,0.01475852263093
38419200,0.99999719066537,0.015698469637665,0.00489580906413,0.0065176417874881,0.0042850187860471,-0.00095380456051231,0.00095380456164808,4.3542103458334e-13,5.2913520109164e-13,7.0381585736456e-13,8.120769563123e-14,-0.0010995835104937,0.0010995835113326,-0.0010995835105668,0.0010995835115459,-0.0010995835106866,0.0010995835111762,-0.0010995835108305,0.0010995835113014,-0.00089364547891078,0.00089364547961728,-0.00089364547927939,0.00089364548008463,-2.0642072340036e-13,3.3491956255491e-13,1.4130927721623e-12,-1.2955903617802e-12,-0.0017736363450323,0.0017736363451461,-0.0019699127700491,0.0019699127708602,-0.0019699127708813,0.001969912769952,-0.0019699127700102,0.0019699127712282,-0.00196991277091,0.0019699127702187,-0.0015091253198384,0.0015091253227831,-0.0015091253231726,0.0015091253208167,-0.0015619651339069,0.0015619651325964,-0.0015619651336761,0.0015619651334753,1.1235979101492e-12,1.0235267319609e-12,-0.00079302267068608,0.00079302267293654,-4.3134376392057e-13,2.2670594827787e-12,-0.00092922861719266,0.00092922861838306,-0.00092922861627891,0.00092922861928665,-0.00092922861749535,0.00092922861862522,-0.00092922861660371,0.00092922861952191,-0.0008084114072722,0.00080841141050331,-0.00080841140705768,0.00080841141048622,0.74580972051198,131490,2924,0.0039677647417668,0.0073617059031832,0.0033016382733116,37.194402236549,0.0002127552178924,0.0002127552178924,0.0002127552178924,2495632.4133169,0.014739211962024
38880000,0.99999787074274,0.015698480429067,0.004895812265984,0.0065176461487399,0.0042850220143435,-0.00095322595531792,0.0009532259560609,3.0687251863755e-13,4.0058356271138e-13,5.6228038705838e-13,-3.804048494812e-14,-0.0011001261698656,0.001100126170377,-0.0011001261700062,0.0011001261706577,-0.0011001261700525,0.0011001261702278,-0.0011001261702629,0.0011001261704194,-0.00089305552119266,0.00089305552161126,-0.00089305552155721,0.00089305552207454,-1.9155205998076e-13,3.2373131611286e-13,1.4820864291593e-12,-1.3607526064125e-12,-0.0017752432887976,0.0017752432889152,-0.001970603085186,0.0019706030860487,-0.0019706030861319,0.0019706030851715,-0.0019706030852105,0.0019706030864672,-0.0019706030862241,0.0019706030854886,-0.001511509978996,0.0015115099820692,-0.0015115099824722,0.0015115099799792,-0.0015641845917471,0.0015641845904233,-0.0015641845915564,0.0015641845912891,9.6124626693931e-13,8.6118010330369e-13,-0.00079292082125099,0.00079292082300516,-6.5721321670501e-13,2.1702422208105e-12,-0.00093027676085133,0.00093027676159609,-0.00093027675989589,0.00093027676254184,-0.00093027676120063,0.00093027676188488,-0.0009302767602668,0.00093027676282322,-0.00080802400641279,0.00080802400931365,-0.00080802400620684,0.00080802400930513,0.74996903551789,131490,2924,0.0039653766047008,0.0073683265573627,0.0033012240686451,37.193613676141,0.00021274890940913,0.00021274890940913,0.00021274890940913,2470147.9786735,0.014743095661314
