time,ASR_ext,ASR_strain,ASR_strain_xx,ASR_strain_yy,ASR_strain_zz,disp_x_101,disp_x_102,disp_x_103,disp_x_104,disp_x_105,disp_x_106,disp_x_p1_neg,disp_x_p1_pos,disp_x_p2_neg,disp_x_p2_pos,disp_x_p3_neg,disp_x_p3_pos,disp_x_p4_neg,disp_x_p4_pos,disp_x_p5_neg,disp_x_p5_pos,disp_x_p6_neg,disp_x_p6_pos,disp_y_101,disp_y_102,disp_y_103,disp_y_104,disp_y_105,disp_y_106,disp_y_p1_neg,disp_y_p1_pos,disp_y_p2_neg,disp_y_p2_pos,disp_y_p3_neg,disp_y_p3_pos,disp_y_p4_neg,disp_y_p4_pos,disp_y_p5_neg,disp_y_p5_pos,disp_y_p6_neg,disp_y_p6_pos,disp_y_p7_neg,disp_y_p7_pos,disp_y_p8_neg,disp_y_p8_pos,disp_z_101,disp_z_102,disp_z_103,disp_z_104,disp_z_105,disp_z_106,disp_z_p1_neg,disp_z_p1_pos,disp_z_p2_neg,disp_z_p2_pos,disp_z_p3_neg,disp_z_p3_pos,disp_z_p4_neg,disp_z_p4_pos,disp_z_p5_neg,disp_z_p5_pos,disp_z_p6_neg,disp_z_p6_pos,humidity,ndof,nelem,strain_xx,strain_yy,strain_zz,temp,thermal_strain_xx,thermal_strain_yy,thermal_strain_zz,vonmises,vstrain
2419200,0,0,0,0,0,0,0,0,0,0,0,0,0,0,0,0,0,0,0,0,0,0,0,0,0,0,0,0,0,0,0,0,0,0,0,0,0,0,0,0,0,0,0,0,0,0,0,0,0,0,0,0,0,0,0,0,0,0,0,0,0,0,0,0,0,0,0,0,0,0,0,0,0,0,0
3419200,0.15971932813928,0.0026614135266323,0.00088713784221078,0.00088713784221078,0.00088713784221078,-0.0002449185611977,0.00024491855214589,-2.3613687340487e-12,-4.9464425562515e-12,5.4757450538466e-12,-1.309376218573e-11,-0.00024928959465709,0.00024928959384517,-0.00024928959606039,0.0002492895935233,-0.00024928960053654,0.00024928958761799,-0.00024928960201563,0.00024928958737582,-0.00024484324562566,0.00024484323430567,-0.00024484324843341,0.00024484323205194,-6.0960966397557e-12,1.2481943244025e-11,-1.5439030142345e-11,2.1532544791125e-11,-0.00025895518565882,0.00025895519178793,-0.00026181671426097,0.00026181670212117,-0.00026181670304968,0.00026181671515891,-0.0002618167089536,0.00026181670896377,-0.00026181669774002,0.00026181672200337,-0.000255308122158,0.00025530809812104,-0.00025530808672891,0.0002553081352518,-0.00025530811017298,0.00025530811040218,-0.00025530809242085,0.00025530812934035,-6.8445445178339e-12,-4.2596126989618e-12,-0.00024491856311342,0.000244918550234,1.2429224457489e-11,-2.4165443980565e-11,-0.00024928959425509,0.00024928959405693,-0.00024928960639722,0.00024928958192826,-0.00024928959399093,0.00024928959551415,-0.000249289606136,0.00024928958339224,-0.00024484325083588,0.00024484322967813,-0.00024484325312191,0.00024484322689968,0.75746877217741,122718,2924,0.0010199727979391,0.001078395699976,0.001019972797947,31.872947273627,0.00017018357818901,0.00017018357818901,0.00017018357818901,1102263.556671,0.0031232100992268
4419200,0.351271105372,0.0057220103294089,0.0018638062390043,0.0019943978513771,0.0018638062390275,-0.00046953665700018,0.00046953663733693,-7.0750342439942e-12,-9.6627556149118e-12,5.6143078865641e-12,-2.3219052394476e-11,-0.00048387254507819,0.00048387253761824,-0.0004838725476407,0.00048387253845155,-0.00048387255426143,0.00048387252790232,-0.00048387255698932,0.00048387252891031,-0.00047062010946703,0.00047062008493413,-0.00047062011322987,0.00047062008363218,-6.8808283468878e-12,2.2074745778728e-11,-1.26167856688e-11,2.7310825187743e-11,-0.00053600709643757,0.0005360071112159,-0.00054951221051842,0.00054951220251167,-0.00054951219994956,0.00054951221822478,-0.00054951220347957,0.00054951221446772,-0.00054951219290494,0.00054951223018593,-0.00051975115711229,0.00051975114229929,-0.00051975112042871,0.00051975118382331,-0.0005197511498803,0.00051975114987757,-0.00051975112360328,0.00051975118038582,-1.2244660904603e-11,-9.6571860604772e-12,-0.00046953665958684,0.0004695366347606,7.9346813656368e-12,-3.1166503680202e-11,-0.0004838725466007,0.00048387253587388,-0.00048387255945732,0.00048387252291572,-0.00048387254751928,0.00048387253851233,-0.00048387256044011,0.00048387252562775,-0.00047062011500058,0.00047062008184427,-0.00047062011640098,0.00047062007817326,0.73992840791513,122718,2924,0.001954501740752,0.002230855642286,0.0019545017407735,33.606623196848,0.00018405298557478,0.00018405298557478,0.00018405298557478,2174450.1843167,0.0061587598340577
5419200,0.55150441320326,0.0088088254996748,0.0028018718773305,0.003205081744996,0.0028018718773483,-0.00068094286799055,0.00068094285640597,-3.5805497048996e-12,-6.1707608955212e-12,7.6100933698125e-12,-1.7645231332648e-11,-0.00070932258386951,0.00070932258226173,-0.00070932258610763,0.0007093225827695,-0.00070932259192924,0.00070932257377622,-0.00070932259431393,0.00070932257443899,-0.00068258465562902,0.00068258463922365,-0.00068258465906436,0.00068258463758904,-7.0035505610437e-12,1.8478064022534e-11,-1.2106176164628e-11,2.3208199917188e-11,-0.00084348088225651,0.00084348089338844,-0.00087643643742279,0.00087643642846777,-0.00087643642740073,0.00087643644158453,-0.0008764364305069,0.00087643643826925,-0.00087643642047832,0.00087643645139203,-0.00080408766856778,0.00080408765351289,-0.00080408763441174,0.0008040876885595,-0.00080408766205747,0.00080408766022946,-0.00080408763734672,0.00080408768548068,-7.4532791309681e-12,-4.863290679808e-12,-0.00068094286923915,0.00068094285516505,1.0769409913684e-11,-2.3712115852406e-11,-0.0007093225842682,0.00070932258171067,-0.00070932259557563,0.00070932257029899,-0.00070932258482688,0.00070932258399116,-0.00070932259620493,0.00070932257265873,-0.00068258465932811,0.00068258463724321,-0.00068258466110622,0.00068258463394533,0.72499638738019,122718,2924,0.0028333178514704,0.0035082727590893,0.0028333178514864,36.277814904154,0.00020542251923324,0.00020542251923324,0.00020542251923324,2954891.3813081,0.0092171689596783
6419200,0.70768055767735,0.010768404225465,0.0033650538008031,0.004038296623844,0.0033650538008178,-0.0007947990662379,0.00079479905718272,-2.5207645548732e-12,-5.1123602279011e-12,8.7182072713699e-12,-1.7111287791315e-11,-0.00084027173083242,0.00084027173173514,-0.00084027173263031,0.00084027173180179,-0.00084027173910376,0.00084027172304949,-0.00084027174106606,0.000840271723289,-0.00079144159579907,0.00079144158159342,-0.00079144159868991,0.00079144157941179,-5.8646228250925e-12,2.0180638201238e-11,-1.1263957893818e-11,2.5173778164239e-11,-0.0010577526083693,0.0010577526223252,-0.0011180387186522,0.0011180387119359,-0.0011180387080719,0.0011180387252918,-0.0011180387113959,0.0011180387217669,-0.001118038700809,0.0011180387351287,-0.00098888137624166,0.00098888136309805,-0.00098888134157769,0.00098888139981764,-0.00098888136934982,0.00098888137023165,-0.00098888134465882,0.00098888139656508,-6.7909644524622e-12,-4.1996014550583e-12,-0.0007947990678975,0.00079479905552922,1.1698154688228e-11,-2.3866873348935e-11,-0.00084027173155627,0.00084027173083096,-0.00084027174321369,0.00084027171906285,-0.00084027173171746,0.00084027173271489,-0.00084027174344494,0.00084027172102543,-0.00079144159946032,0.00079144157859568,-0.000791441601765,0.00079144157582149,0.59839168540088,122718,2924,0.0033063825701662,0.004397478208587,0.0033063825701789,36.740412350384,0.00020912329880307,0.00020912329880307,0.00020912329880307,3289035.2150493,0.011071179147839
7419200,0.83279351059904,0.012138095580848,0.0037519124277033,0.0046342707254279,0.0037519124277163,-0.00086979774181772,0.0008697977326916,-2.4233412498383e-12,-5.0158518646419e-12,8.6409604841474e-12,-1.6878145648942e-11,-0.00092852191491455,0.00092852191592491,-0.00092852191672775,0.00092852191600637,-0.00092852192309442,0.00092852190735705,-0.00092852192505849,0.00092852190759776,-0.00086167210060684,0.0008616720866434,-0.0008616721034495,0.00086167208441187,-6.1344158625121e-12,1.9591940509078e-11,-1.1542376211859e-11,2.4601544086774e-11,-0.0012225446264125,0.0012225446395109,-0.0013099042035153,0.0013099041961288,-0.0013099041929913,0.0013099042093657,-0.0013099041963546,0.0013099042058521,-0.0013099041858241,0.001309904219095,-0.0011258709216517,0.0011258709078309,-0.0011258708872712,0.0011258709442779,-0.0011258709147318,0.0011258709149597,-0.0011258708903778,0.001125870941024,-6.3594048421944e-12,-3.7671290932627e-12,-0.00086979774313241,0.00086979773138203,1.1983114600545e-11,-2.330163584863e-11,-0.00092852191529564,0.00092852191538178,-0.00092852192686242,0.00092852190370801,-0.00092852191545725,0.0009285219172667,-0.00092852192709177,0.00092852190566923,-0.00086167210388135,0.00086167208391908,-0.00086167210624473,0.00086167208120192,0.52694121020036,122718,2924,0.0036179457170772,0.0050807976307991,0.0036179457170879,40.777849910875,0.000241422799287,0.000241422799287,0.000241422799287,3395693.1072254,0.012393014754498
8419200,0.90820228129017,0.01287593103989,0.0039591960068702,0.0049575390261374,0.0039591960068825,-0.00089555200509921,0.00089555199836939,-1.5725550551107e-12,-4.1652547280175e-12,9.0924754167791e-12,-1.5645688446722e-11,-0.00096439276257828,0.000964392765302,-0.0009643927641158,0.00096439276510768,-0.00096439277050905,0.00096439275700421,-0.00096439277219386,0.00096439275696557,-0.00088491708246973,0.00088491707064552,-0.00088491708524002,0.00088491706834127,-5.9734331333652e-12,1.8982062978653e-11,-1.1306734822307e-11,2.392890198847e-11,-0.0013157633113359,0.0013157633239941,-0.0014202267179603,0.0014202267106994,-0.0014202267074727,0.0014202267233635,-0.0014202267107952,0.0014202267198993,-0.0014202267003012,0.0014202267325694,-0.0012008704520651,0.0012008704384338,-0.0012008704185063,0.0012008704739351,-0.0012008704452346,0.0012008704454678,-0.0012008704215769,0.0012008704707209,-5.446088802196e-12,-2.8536228973087e-12,-0.00089555200634956,0.00089555199712365,1.2434176967958e-11,-2.1940511556881e-11,-0.0009643927629234,0.00096439276480562,-0.00096439277418255,0.00096439275343697,-0.00096439276280678,0.00096439276641238,-0.00096439277413515,0.0009643927551215,-0.00088491708558633,0.00088491706793243,-0.00088491708801937,0.00088491706528466,0.47156008474719,122718,2924,0.0037250051962597,0.0054670930872419,0.0037250051962693,41.436037207658,0.00024668829766126,0.00024668829766126,0.00024668829766126,3307614.4270025,0.013001100916415
9419200,0.94991946417943,0.013228243823599,0.0040582299413855,0.005111783940816,0.0040582299413976,-0.00089867525217657,0.00089867524665407,-1.1355781618078e-12,-3.7282098713151e-12,9.2994862692103e-12,-1.4975072139473e-11,-0.00097452742949374,0.00097452743308361,-0.00097452743089123,0.00097452743274935,-0.00097452743727749,0.00097452742494667,-0.00097452743881927,0.00097452742476506,-0.00088664823302761,0.00088664822231798,-0.00088664823577891,0.00088664821999491,-5.8804392683816e-12,1.8616176259182e-11,-1.1133205594094e-11,2.3489796638131e-11,-0.0013636105212382,0.0013636105336291,-0.0014781178835384,0.0014781178763696,-0.0014781178730921,0.0014781178886662,-0.0014781178763664,0.001478117885255,-0.0014781178659136,0.0014781178975576,-0.0012376719900603,0.0012376719766077,-0.0012376719570519,0.0012376720114652,-0.0012376719833303,0.0012376719835377,-0.0012376719600779,0.0012376720082984,-4.9708313209859e-12,-2.3784316199584e-12,-0.0008986752533879,0.00089867524544704,1.2606947484055e-11,-2.1156376906877e-11,-0.00097452742982896,0.00097452743260407,-0.00097452744088249,0.00097452742144021,-0.00097452742957058,0.00097452743406898,-0.00097452744069363,0.00097452742298319,-0.00088664823606167,0.00088664821964861,-0.00088664823851164,0.00088664821701794,0.40621133923259,122718,2924,0.0037380806250479,0.0056652878070725,0.0037380806250569,41.14427471976,0.00024435419775808,0.00024435419775808,0.00024435419775808,3179379.0532288,0.013228420363846
10419200,0.97077503174879,0.013418611251452,0.0041126636087925,0.0051932840338552,0.0041126636088044,-0.00089370703698232,0.00089370703382751,-3.1003122361187e-13,-2.9025225293202e-12,9.8057919122145e-12,-1.3812020052268e-11,-0.00097283633730624,0.00097283634262712,-0.00097283633842744,0.00097283634201669,-0.0009728363448772,0.00097283633471399,-0.00097283634614237,0.00097283633425585,-0.00088144736131706,0.0008814473526618,-0.000881447364058,0.00088144735032862,-5.7099544765749e-12,1.8146502430925e-11,-1.0849242151335e-11,2.2916154397802e-11,-0.0013839718725471,0.001383971884647,-0.0015033722564133,0.0015033722494637,-0.0015033722459404,0.0015033722611538,-0.0015033722491453,0.0015033722578169,-0.0015033722386659,0.0015033722695129,-0.0012523558603149,0.0012523558471952,-0.0012523558280496,0.0012523558811213,-0.0012523558537273,0.0012523558539782,-0.0012523558310119,0.0012523558780214,-4.1168399245427e-12,-1.5245752046858e-12,-0.00089370703816488,0.00089370703264909,1.3039398067104e-11,-1.9858496564503e-11,-0.00097283633765275,0.00097283634214326,-0.00097283634841434,0.00097283633126855,-0.00097283633711642,0.00097283634333013,-0.00097283634794996,0.00097283633253591,-0.00088144736427686,0.00088144735004531,-0.00088144736673515,0.00088144734742326,0.43665130715676,122718,2924,0.0037175233367269,0.0057496076622585,0.0037175233367355,38.087766249746,0.00021990212999797,0.00021990212999797,0.00021990212999797,3113366.8826893,0.01327220981321
11419200,0.98282369015128,0.013520579530028,0.0041418460973565,0.0052368873353027,0.0041418460973683,-0.00088854608270522,0.00088854607797099,-8.4118225834177e-13,-3.4335076469565e-12,9.2161539068685e-12,-1.4284693730059e-11,-0.00097305083876051,0.00097305084274389,-0.00097305084007973,0.00097305084233162,-0.00097305084630053,0.00097305083487112,-0.00097305084775848,0.00097305083460593,-0.00087634020247951,0.00087634019267409,-0.0008763402052145,0.00087634019033529,-5.6714405060915e-12,1.8050639124189e-11,-1.0700199351549e-11,2.2712811727428e-11,-0.0014010796279385,0.0014010796399834,-0.001522258718056,0.0015222587111945,-0.0015222587078915,0.0015222587229791,-0.0015222587110272,0.0015222587197157,-0.0015222587008562,0.0015222587315063,-0.001266545457711,0.0012665454448432,-0.0012665454258289,0.0012665454784569,-0.0012665454512653,0.0012665454514805,-0.0012665454287232,0.0012665454754276,-4.6283934439926e-12,-2.0363018659052e-12,-0.00088854608386806,0.00088854607681221,1.236380714712e-11,-2.0202311721112e-11,-0.00097305083912545,0.00097305084224499,-0.00097305084978078,0.00097305083147948,-0.00097305083878607,0.00097305084362867,-0.00097305084950996,0.00097305083294027,-0.00087634020537786,0.00087634019010705,-0.0008763402078407,0.00087634018748988,0.40445605707229,122718,2924,0.0036961695419884,0.0058204097932754,0.0036961695419968,37.62614127246,0.00021620913017968,0.00021620913017968,0.00021620913017968,2995581.1096524,0.013300699044503
12419200,0.98973344996802,0.013586362703772,0.0041609123380117,0.0052645380277365,0.0041609123380235,-0.0008855456900313,0.00088554568569145,-7.0665199314903e-13,-3.2988670630981e-12,9.291298258319e-12,-1.4086525401612e-11,-0.00097149781820676,0.00097149782247385,-0.0009714978194775,0.0009714978220132,-0.000971497825708,0.00097149781464378,-0.00097149782711651,0.00097149781432926,-0.000873376918724,0.00087337690926338,-0.0008733769214587,0.00087337690692447,-5.6429011132444e-12,1.7958461851906e-11,-1.0585966194235e-11,2.2537105977471e-11,-0.0014092719975343,0.0014092720095173,-0.0015323316378099,0.0015323316310243,-0.0015323316276831,0.0015323316426538,-0.001532331630765,0.0015323316394475,-0.0015323316206317,0.0015323316510831,-0.0012723690941158,0.0012723690814298,-0.0012723690624983,0.0012723691147408,-0.0012723690877797,0.0012723690879537,-0.0012723690653401,0.0012723691117667,-4.4788354687685e-12,-1.886851725622e-12,-0.00088554569117894,0.00088554568454778,1.2372693110954e-11,-1.9904362161502e-11,-0.00097149781858589,0.00097149782196302,-0.00097149782914468,0.00097149781129381,-0.00097149781819721,0.00097149782329729,-0.00097149782882478,0.00097149781270539,-0.00087337692157927,0.00087337690673854,-0.00087337692404185,0.00087337690412128,0.45322610794666,122718,2924,0.0036837463319152,0.0058543268892152,0.0036837463319235,36.800802159216,0.00020960641727373,0.00020960641727373,0.00020960641727373,2956479.2027002,0.013309893850233
13419200,0.99359198684575,0.013619996640276,0.0041706370777268,0.0052787224848102,0.0041706370777386,-0.00087680044178607,0.00087680043847864,-3.5823395877199e-13,-2.9502254951661e-12,9.5436810040817e-12,-1.3627173669787e-11,-0.000966664174666,0.00096666417964847,-0.0009666641758232,0.00096666417907443,-0.00096666418210049,0.00096666417188955,-0.00096666418339476,0.00096666417146093,-0.00086482633301755,0.0008648263244159,-0.00086482633574266,0.00086482632206789,-5.5719623391988e-12,1.7827962103289e-11,-1.0431167923215e-11,2.2326367297746e-11,-0.0014137643247561,0.0014137643366826,-0.0015370107026024,0.0015370106959535,-0.0015370106924608,0.0015370107073221,-0.0015370106954904,0.0015370107041711,-0.0015370106853423,0.0015370107155458,-0.0012758362494117,0.0012758362369589,-0.0012758362180905,0.0012758362698525,-0.0012758362431827,0.0012758362433731,-0.0012758362208816,0.0012758362669306,-4.121128058249e-12,-1.529370896416e-12,-0.00087680044292446,0.0008768004373442,1.2555246857591e-11,-1.9354101233544e-11,-0.00096666417506475,0.0009666641791209,-0.00096666418549975,0.00096666416857452,-0.00096666417456181,0.00096666418034079,-0.0009666641850662,0.00096666416987233,-0.00086482633582712,0.00086482632191759,-0.00086482633829794,0.00086482631930909,0.4150894025916,122718,2924,0.003647488808115,0.0058728803694409,0.0036474888081232,34.786205539327,0.00019348964431462,0.00019348964431462,0.00019348964431462,2877080.9779461,0.01325523138746
14419200,0.99582019092729,0.013637941347778,0.0041758366643114,0.0052862680191434,0.0041758366643233,-0.00087133567264593,0.00087133566950985,-2.9887546882429e-13,-2.8907830465011e-12,9.524763008484e-12,-1.3486175506596e-11,-0.00096094753799964,0.00096094754309384,-0.00096094753913286,0.00096094754249586,-0.0009609475453834,0.00096094753538904,-0.00096094754665303,0.00096094753493583,-0.00085926754994411,0.00085926754152738,-0.00085926755267726,0.00085926753918757,-5.5301887918226e-12,1.7711611334196e-11,-1.0310870068821e-11,2.2133950881817e-11,-0.001412294494878,0.0014122945067322,-0.0015370404704073,0.0015370404638421,-0.0015370404603391,0.0015370404750778,-0.0015370404633194,0.001537040471979,-0.0015370404532446,0.0015370404832207,-0.001272794510529,0.0012727944982582,-0.0012727944795111,0.0012727945308417,-0.0012727945044003,0.0012727945045686,-0.0012727944822547,0.00127279452797,-4.0487417401896e-12,-1.457067369945e-12,-0.0008713356737712,0.00087133566838849,1.2475548174684e-11,-1.9122928352702e-11,-0.00096094753841216,0.00096094754255453,-0.00096094754874384,0.0009609475321113,-0.00096094753788453,0.00096094754374965,-0.0009609475482858,0.00096094753338455,-0.0008592675527235,0.00085926753907526,-0.00085926755518579,0.0008592675364584,0.38312450045663,122718,2924,0.0036248104725698,0.0058667969699523,0.0036248104725779,32.634956999041,0.00017627965599233,0.00017627965599233,0.00017627965599233,2875351.9581319,0.013203107999084
15419200,0.99697993824192,0.013650435150166,0.0041795019231339,0.0052914313038861,0.0041795019231457,-0.00085972994115458,0.00085972994063689,5.9242752674572e-13,-1.9992268977043e-12,1.0171827774188e-11,-1.2323350088937e-11,-0.00094929056010653,0.00094929056713436,-0.00094929056093411,0.00094929056623093,-0.00094929056732017,0.00094929055960387,-0.00094929056828611,0.00094929055884715,-0.00084766835218759,0.00084766834594369,-0.00084766835492459,0.00084766834360821,-5.3779679420651e-12,1.7368835041071e-11,-1.0056364255563e-11,2.1695867382615e-11,-0.0014035119983472,0.0014035120100171,-0.0015290177840238,0.0015290177776858,-0.0015290177738425,0.0015290177883334,-0.0015290177767591,0.0015290177853016,-0.0015290177665713,0.0015290177959552,-0.001263195857059,0.0012631958451131,-0.0012631958266089,0.0012631958769126,-0.0012631958510596,0.0012631958512906,-0.0012631958292935,0.0012631958741025,-3.1427170362694e-12,-5.5129482008638e-13,-0.00085972994226528,0.0008597299395301,1.3043818196778e-11,-1.784843588316e-11,-0.00094929056053972,0.00094929056657844,-0.00094929057063211,0.00094929055637112,-0.00094929055970566,0.00094929056746697,-0.00094929056987089,0.00094929055734101,-0.00084766835492426,0.00084766834354198,-0.00084766835738127,0.00084766834092029,0.51103778709309,122718,2924,0.0035766338346232,0.0058304172256054,0.0035766338346313,27.046978035692,0.00013157582428554,0.00013157582428554,0.00013157582428554,2888834.9944422,0.013068631309718
16419200,0.99772509422706,0.013657732253504,0.0041816253144579,0.0052944816245767,0.0041816253144698,-0.00084718524636993,0.00084718524378262,-1.1206577315873e-13,-2.7034078872392e-12,9.5001907848839e-12,-1.3065803613374e-11,-0.00094256456257053,0.00094256456788767,-0.0009425645636587,0.00094256456724502,-0.00094256456981313,0.00094256456033314,-0.00094256457103507,0.00094256455983262,-0.00083559659294181,0.0008355965851013,-0.00083559659566363,0.00083559658275127,-5.3640065744576e-12,1.7433470595911e-11,-9.9570572305011e-12,2.1675465535289e-11,-0.0014053231935874,0.0014053232053359,-0.0015293687253143,0.0015293687190574,-0.0015293687154415,0.0015293687299553,-0.0015293687183037,0.0015293687269803,-0.0015293687084243,0.0015293687378842,-0.001265303610132,0.001265303598406,-0.0012653035798519,0.0012653036301341,-0.0012653036042434,0.0012653036044708,-0.0012653035824817,0.0012653036273797,-3.8455790349061e-12,-1.2544711914721e-12,-0.00084718524747911,0.00084718524267731,1.2289256395182e-11,-1.8502966306823e-11,-0.00094256456303105,0.0009425645673053,-0.00094256457309484,0.00094256455712985,-0.00094256456245728,0.00094256456845391,-0.00094256457259015,0.00094256455835606,-0.00083559659563353,0.00083559658271461,-0.00083559659810463,0.00083559658010765,0.46538451425637,122718,2924,0.0035246104240373,0.0058378326402392,0.0035246104240453,24.407508046773,0.00011046006437418,0.00011046006437418,0.00011046006437418,2779506.2202486,0.012970767184739
17419200,0.99822560169167,0.013663279354049,0.004183254945163,0.0052967694637111,0.0041832549451748,-0.00084140314724336,0.00084140314452443,-1.5908960683348e-13,-2.7503485461801e-12,9.471528781812e-12,-1.3135569129144e-11,-0.00093529686322872,0.0009352968685011,-0.00093529686432056,0.00093529686786219,-0.00093529687048524,0.00093529686093337,-0.00093529687171055,0.00093529686043628,-0.00082967154753948,0.00082967153957907,-0.0008296715502749,0.0008296715372428,-5.395133329439e-12,1.7443443791236e-11,-9.933098021262e-12,2.1629972748592e-11,-0.0014009826110107,0.0014009826227377,-0.0015269163032409,0.0015269162969717,-0.0015269162933967,0.001526916307853,-0.0015269162962243,0.0015269163049153,-0.0015269162863736,0.0015269163158027,-0.0012591773943283,0.0012591773826626,-0.0012591773641354,0.0012591774143412,-0.0012591773885106,0.0012591773886531,-0.0012591773667302,0.0012591774116246,-3.8798123273378e-12,-1.2887868490347e-12,-0.00084140314833967,0.00084140314343197,1.222073790014e-11,-1.8504156469913e-11,-0.00093529686369497,0.00093529686791355,-0.00093529687373672,0.0009352968577603,-0.00093529686312439,0.00093529686906528,-0.00093529687323532,0.00093529685898975,-0.00082967155021418,0.00082967153723656,-0.00082967155267173,0.00082967153461624,0.52521873377382,122718,2924,0.0035006004841206,0.0058198756476018,0.0035006004841286,21.970372473322,9.0962979786576e-05,9.0962979786576e-05,9.0962979786576e-05,2796925.9475611,0.012903927385721
18419200,0.99853656578082,0.013666590665386,0.004184223819891,0.0052981430255923,0.0041842238199028,-0.00082786311824769,0.00082786311715705,3.8555039817058e-13,-2.2054420963631e-12,9.9303662867e-12,-1.2482270586966e-11,-0.00092450406044191,0.00092450406689332,-0.00092450406135067,0.00092450406607152,-0.00092450406763361,0.0009245040593923,-0.00092450406867651,0.00092450405871298,-0.00081630177196377,0.0008163017653062,-0.00081630177469554,0.00081630176296688,-5.3257345377597e-12,1.7328904437394e-11,-9.8099654887587e-12,2.146461127086e-11,-0.0013961381649541,0.0013961381766385,-0.0015219063037508,0.0015219062976066,-0.0015219062937904,0.0015219063081704,-0.0015219062965843,0.0015219063052678,-0.0015219062866174,0.0015219063158377,-0.0012539502199145,0.0012539502084241,-0.001253950189917,0.0012539502397374,-0.0012539502141653,0.0012539502143449,-0.0012539501924796,0.0012539502370533,-3.3321388230933e-12,-7.4138033663374e-13,-0.00082786311934115,0.0008278631160674,1.2631879134175e-11,-1.7796242331498e-11,-0.00092450406092373,0.00092450406629213,-0.00092450407086405,0.00092450405623859,-0.00092450406016976,0.00092450406726028,-0.00092450407018075,0.00092450405728594,-0.00081630177461481,0.00081630176298022,-0.00081630177707468,0.00081630176036277,0.50516361584657,122718,2924,0.0034444133422447,0.0057997652636002,0.0034444133422526,17.468055197384,5.4944441579069e-05,5.4944441579069e-05,5.4944441579069e-05,2747545.5954871,0.012769754502944
19419200,0.99879421512713,0.013670147692702,0.0041852748732926,0.0052995979461053,0.0041852748733044,-0.00082679322390942,0.0008267932194151,-7.5592907784145e-13,-3.3468868812819e-12,8.9257529824615e-12,-1.3797805486514e-11,-0.00092278815586545,0.00092278815977545,-0.00092278815716707,0.00092278815934653,-0.00092278816316408,0.00092278815216887,-0.00092278816459585,0.00092278815187845,-0.00081513942547373,0.0008151394161273,-0.00081513942821232,0.00081513941379472,-5.429640598795e-12,1.7509875702964e-11,-9.8924126759361e-12,2.1620264398116e-11,-0.0013969871728365,0.0013969871845944,-0.001523895955583,0.0015238959493128,-0.0015238959459822,0.0015238959604197,-0.0015238959487618,0.0015238959575326,-0.0015238959391544,0.0015238959686455,-0.0012536846570138,0.001253684645467,-0.001253684626946,0.0012536846771671,-0.0012536846512939,0.0012536846513569,-0.001253684629492,0.0012536846745012,-4.4667270592603e-12,-1.8760019100176e-12,-0.00082679322499593,0.00082679321833239,1.1610639244117e-11,-1.9079806095609e-11,-0.00092278815634722,0.00092278815917293,-0.00092278816638115,0.00092278814903008,-0.00092278815598603,0.00092278816053382,-0.00092278816608651,0.00092278815046603,-0.00081513942811716,0.00081513941382301,-0.00081513943057093,0.00081513941119942,0.65325215552177,122718,2924,0.0034399728614051,0.0058032923964938,0.003439972861413,17.551688956141,5.5613511649125e-05,5.5613511649125e-05,5.5613511649125e-05,2742289.0296179,0.012764327815043
20419200,0.99901846550071,0.01367346438163,0.004186253103944,0.0053009581737301,0.0041862531039558,-0.00082134426462588,0.00082134425941585,-1.0040418400786e-12,-3.5947967779334e-12,8.843488206991e-12,-1.4222699241595e-11,-0.0009226168797009,0.00092261688312078,-0.00092261688108567,0.00092261688277514,-0.00092261688711111,0.00092261687540073,-0.00092261688862474,0.0009226168751923,-0.00081005819125287,0.00081005818124082,-0.00081005819398044,0.00081005817889766,-5.5260865347908e-12,1.7749071513343e-11,-9.9991381214294e-12,2.1865722370132e-11,-0.0014050364385425,0.0014050364504393,-0.0015307294774678,0.0015307294711053,-0.0015307294678434,0.0015307294824249,-0.0015307294706286,0.0015307294795315,-0.0015307294609977,0.001530729490857,-0.0012619284800061,0.001261928468365,-0.0012619284496153,0.0012619285004326,-0.0012619284742752,0.0012619284742674,-0.0012619284521634,0.0012619284977633,-4.7240640801439e-12,-2.1335480862764e-12,-0.00082134426572169,0.0008213442583238,1.1524186855767e-11,-1.952067987446e-11,-0.00092261688018797,0.00092261688251123,-0.00092261689034039,0.00092261687225103,-0.00092261687991021,0.00092261688395543,-0.00092261689012786,0.00092261687376899,-0.00081005819389693,0.00081005817891411,-0.00081005819636148,0.00081005817630175,0.70012779305903,122718,2924,0.0034174056601756,0.0058365528329704,0.0034174056601835,18.599612989575,6.3996903916603e-05,6.3996903916603e-05,6.3996903916603e-05,2624848.2044458,0.012752325484013
21419200,0.99917094195463,0.0136755593053,0.004186871514659,0.0053018162759707,0.0041868715146708,-0.00080953663657041,0.00080953663484738,1.5547098576222e-13,-2.4350015324114e-12,9.879247405332e-12,-1.28938898064e-11,-0.00091206689353287,0.00091206689955784,-0.00091206689451223,0.000912066898807,-0.00091206690084325,0.00091206689193873,-0.00091206690195446,0.00091206689132808,-0.00079828700429806,0.00079828699702453,-0.00079828700703436,0.00079828699469065,-5.4403406836795e-12,1.7566828051344e-11,-9.915500441209e-12,2.1689796038678e-11,-0.0014015293449855,0.0014015293567896,-0.0015284611121975,0.0015284611059438,-0.0015284611021989,0.0015284611166912,-0.0015284611049868,0.0015284611137954,-0.0015284610949816,0.0015284611245488,-0.0012567660169931,0.0012567660054152,-0.0012567659866865,0.0012567660370691,-0.0012567660112571,0.0012567660113223,-0.0012567659892397,0.0012567660343949,-3.5626805302024e-12,-9.7244964527203e-13,-0.00080953663766452,0.000809536633757,1.2567605744742e-11,-1.8196066408507e-11,-0.00091206689401802,0.00091206689895265,-0.0009120669040708,0.00091206688878824,-0.00091206689333458,0.00091206689999099,-0.0009120669034564,0.00091206688990417,-0.00079828700695111,0.00079828699470635,-0.00079828700940577,0.00079828699208464,0.64990944923706,122718,2924,0.0033684022989916,0.0058220049891751,0.0033684022989994,15.218210660037,3.6945685280296e-05,3.6945685280296e-05,3.6945685280296e-05,2585900.0991236,0.012638345003035
22419200,0.99929721788312,0.013677339843621,0.0041873987478245,0.0053025423479603,0.0041873987478363,-0.00080815536130636,0.00080815535728805,-6.0607243894713e-13,-3.1965301517079e-12,9.1684055622388e-12,-1.3736349011026e-11,-0.0009086485241035,0.00090864852843272,-0.00090864852534391,0.00090864852794296,-0.00090864853146084,0.00090864852076859,-0.00090864853283051,0.00090864852041642,-0.00079662379205809,0.0007966237830029,-0.00079662379480192,0.00079662378067656,-5.4945895558254e-12,1.7627616194308e-11,-9.9717424877589e-12,2.1750815762803e-11,-0.0014005492364348,0.0014005492482438,-0.0015295227324983,0.0015295227261551,-0.0015295227227588,0.0015295227372564,-0.0015295227255478,0.00152952273436,-0.0015295227158018,0.0015295227454672,-0.0012540389913765,0.0012540389797328,-0.0012540389610806,0.0012540390116209,-0.0012540389856384,0.001254038985641,-0.0012540389636341,0.0012540390089473,-4.3169226209772e-12,-1.7266972358788e-12,-0.00080815536239314,0.00080815535620496,1.1865421666572e-11,-1.9031841777798e-11,-0.00090864852458069,0.00090864852783514,-0.00090864853468208,0.00090864851762489,-0.00090864852415818,0.00090864852913438,-0.00090864853432606,0.00090864851899913,-0.00079662379471197,0.00079662378069921,-0.00079662379715934,0.00079662377807023,0.66642562144511,122718,2924,0.0033626572653165,0.0058179778492744,0.0033626572653242,14.858153797116,3.4065230376931e-05,3.4065230376931e-05,3.4065230376931e-05,2598786.2102746,0.012622621144418
23419200,0.99940936989426,0.013678830741868,0.0041878389417573,0.005303152858342,0.0041878389417691,-0.00080771989032204,0.000807719885372,-9.1848392072611e-13,-3.5089110340943e-12,8.9566559391327e-12,-1.4163011065028e-11,-0.00090887539931589,0.00090887540298036,-0.00090887540066467,0.00090887540259899,-0.00090887540674385,0.00090887539524437,-0.0009088754082209,0.00090887539499961,-0.00079614097936504,0.00079614096953091,-0.00079614098210405,0.00079614096719983,-5.5664084500428e-12,1.7763145553979e-11,-1.0064513830129e-11,2.190430066218e-11,-0.0014036776671678,0.0014036776790378,-0.0015329732169056,0.0015329732104671,-0.0015329732072093,0.00153297322178,-0.0015329732100108,0.0015329732188702,-0.0015329732003079,0.001532973230189,-0.0012567531074778,0.001256753095724,-0.0012567530769838,0.0012567531278953,-0.0012567531017141,0.0012567531016589,-0.0012567530795479,0.0012567531252106,-4.6306349049293e-12,-2.0404474304375e-12,-0.00080771989141017,0.00080771988428754,1.1669856729182e-11,-1.94783772063e-11,-0.00090887539978708,0.00090887540238744,-0.00090887540997337,0.00090887539209357,-0.00090887539947312,0.00090887540379521,-0.00090887540972467,0.00090887539357511,-0.00079614098202169,0.00079614096721503,-0.00079614098447407,0.00079614096459113,0.62875729639221,122718,2924,0.0033608606040963,0.0058309260613985,0.003360860604104,15.707577897846,4.0860623182768e-05,4.0860623182768e-05,4.0860623182768e-05,2568277.669643,0.012632097426276
24419200,0.99951525428841,0.013680315433059,0.0041882789588633,0.0053037575153202,0.0041882789588751,-0.00081207593624138,0.00081207593023825,-1.2736788289567e-12,-3.8642063934725e-12,8.7326168973422e-12,-1.4665912995837e-11,-0.00091206333372961,0.00091206333666087,-0.00091206333519767,0.00091206333639872,-0.00091206334124866,0.00091206332883125,-0.00091206334284437,0.0009120633287051,-0.00080035518831051,0.00080035517758086,-0.00080035519104676,0.00080035517524682,-5.6627315956721e-12,1.7937541402776e-11,-1.0204620902895e-11,2.2118361063958e-11,-0.0014075740475972,0.0014075740595414,-0.0015377995361931,0.0015377995296157,-0.0015377995265194,0.001537799541191,-0.0015377995293481,0.001537799538253,-0.0015377995196678,0.0015377995498343,-0.0012599074931758,0.0012599074812406,-0.0012599074623873,0.00125990751381,-0.0012599074873571,0.0012599074872316,-0.0012599074649758,0.0012599075111002,-4.9867411437752e-12,-2.3964473637074e-12,-0.00081207593733036,0.00081207592915293,1.1484478362952e-11,-2.0022862421915e-11,-0.0009120633341865,0.00091206333608023,-0.00091206334449384,0.00091206332566667,-0.00091206333399209,0.0009120633376076,-0.00091206334436352,0.00091206332726665,-0.00080035519097891,0.00080035517524783,-0.00080035519343485,0.0008003551726273,0.66255127740754,122718,2924,0.0033789426990646,0.0058470848106409,0.0033789426990722,17.886371122464,5.8290968979715e-05,5.8290968979715e-05,5.8290968979715e-05,2569162.7804444,0.012685076729854
25419200,0.99961178207246,0.013681910032467,0.0041887534016684,0.0053044032291182,0.0041887534016802,-0.00081388110507725,0.00081388109917153,-1.243302348849e-12,-3.8338347393319e-12,8.8295202734077e-12,-1.4704004979212e-11,-0.00091533823937621,0.00091533824242038,-0.00091533824083132,0.00091533824214524,-0.0009153382469382,0.00091533823454623,-0.00091533824852119,0.00091533823440734,-0.00080221826817758,0.00080221825747413,-0.00080221827091131,0.00080221825513758,-5.7068652768302e-12,1.802859962101e-11,-1.0295384306606e-11,2.2254274264844e-11,-0.0014133170176527,0.0014133170296423,-0.001543237699454,0.0015432376928046,-0.0015432376896938,0.0015432377044404,-0.0015432376925517,0.0015432377014714,-0.0015432376827849,0.0015432377131132,-0.0012657081904753,0.0012657081784067,-0.0012657081594605,0.0012657082111961,-0.0012657081845972,0.0012657081844593,-0.0012657081620769,0.0012657082084569,-4.963027647618e-12,-2.3727283383074e-12,-0.00081388110617291,0.00081388109807951,1.1618126368332e-11,-2.0113189487853e-11,-0.0009153382398239,0.00091533824184798,-0.00091533825020508,0.00091533823136055,-0.00091533823961678,0.00091533824336266,-0.00091533825006209,0.00091533823294786,-0.00080221827086491,0.00080221825511694,-0.00080221827332345,0.00080221825249901,0.77991302017261,122718,2924,0.0033864557650217,0.0058708499147069,0.0033864557650292,19.931081930845,7.464865544676e-05,7.464865544676e-05,7.464865544676e-05,2526848.0832312,0.012724367418344
26419200,0.99969091196372,0.013683300522153,0.0041891676019986,0.005304965318144,0.0041891676020103,-0.00080903738363656,0.00080903737900861,-8.1704575304838e-13,-3.4073915896601e-12,9.2185660261946e-12,-1.4223457806657e-11,-0.00091431613516017,0.00091431613915378,-0.0009143161364697,0.0009143161387332,-0.00091431614269102,0.00091431613131193,-0.00091431614412909,0.00091431613102825,-0.00079764693152669,0.00079764692182383,-0.00079764693426002,0.00079764691948723,-5.6748431668484e-12,1.7977370480143e-11,-1.0296818674552e-11,2.2238463512558e-11,-0.0014184494687939,0.0014184494807659,-0.0015475830766064,0.001547583069982,-0.0015475830666844,0.0015475830814364,-0.0015475830695641,0.0015475830784444,-0.0015475830596355,0.0015475830899048,-0.0012708629582674,0.0012708629461641,-0.0012708629272012,0.0012708629788787,-0.0012708629523453,0.0012708629522626,-0.0012708629298402,0.0012708629761153,-4.5444350088652e-12,-1.9543228850127e-12,-0.00080903738474002,0.00080903737790878,1.2032797347477e-11,-1.9675815045114e-11,-0.00091431613560455,0.00091431613858573,-0.00091431614597566,0.00091431612810703,-0.00091431613525193,0.00091431613995477,-0.00091431614568826,0.00091431612954982,-0.00079764693423285,0.00079764691944717,-0.00079764693669085,0.00079764691682907,0.82922923068302,122718,2924,0.0033663870818589,0.0058920466679197,0.0033663870818665,20.395173347779,7.8361386782229e-05,7.8361386782229e-05,7.8361386782229e-05,2442959.9679466,0.012705202454325
27419200,0.99975993157782,0.013684393638166,0.0041894930509409,0.0053054075362719,0.0041894930509527,-0.00080885708926593,0.00080885708354064,-1.1842063030897e-12,-3.7745341309168e-12,8.8897708923514e-12,-1.4643842699481e-11,-0.00091518602021027,0.00091518602338287,-0.00091518602164484,0.00091518602308733,-0.00091518602777332,0.00091518601551046,-0.00091518602933481,0.00091518601535022,-0.00079745305385156,0.00079745304328461,-0.00079745305658068,0.00079745304094394,-5.7042300926274e-12,1.8031029164436e-11,-1.0350693499301e-11,2.2315890029584e-11,-0.0014242221714567,0.0014242221834522,-0.0015541193303694,0.0015541193236894,-0.0015541193205472,0.0015541193353384,-0.0015541193234426,0.0015541193323302,-0.0015541193136139,0.0015541193439853,-0.0012755679109169,0.0012755678987387,-0.0012755678797761,0.0012755679316337,-0.0012755679049635,0.0012755679048696,-0.0012755678824303,0.001275567928855,-4.9130497332325e-12,-2.3229541088759e-12,-0.00080885709037076,0.00080885708243942,1.1725831401547e-11,-2.0121662617791e-11,-0.00091518602064788,0.00091518602282168,-0.00091518603106708,0.00091518601229634,-0.00091518602042024,0.00091518602431566,-0.00091518603090323,0.00091518601386262,-0.00079745305656277,0.00079745304089424,-0.00079745305902492,0.00079745303828038,0.74718867332314,122718,2924,0.0033656599567868,0.0059159405796258,0.0033656599567943,22.256950457229,9.3255603657829e-05,9.3255603657829e-05,9.3255603657829e-05,2395431.5506884,0.012727929889161
28419200,0.99981665010149,0.013685416486505,0.0041897997116284,0.0053058170632364,0.0041897997116401,-0.0008120583475748,0.00081205834239274,-1.0033462252998e-12,-3.5937498132205e-12,9.0601046097292e-12,-1.4447076239973e-11,-0.00091552253457905,0.00091552253818764,-0.00091552253594608,0.00091552253782455,-0.00091552254213239,0.00091552253032446,-0.0009155225436272,0.0009155225300975,-0.00080032997392183,0.00080032996377415,-0.00080032997666095,0.00080032996144322,-5.7060324199205e-12,1.8007483824906e-11,-1.0376932580068e-11,2.231656589129e-11,-0.0014251639218148,0.0014251639337848,-0.0015571321003563,0.001557132093654,-0.0015571320904525,0.0015571321052338,-0.0015571320933635,0.0015571321022095,-0.0015571320834531,0.0015571321137953,-0.0012748933076028,0.0012748932953635,-0.0012748932764191,0.0012748933282705,-0.0012748933016172,0.0012748933015262,-0.001274893279089,0.0012748933254759,-4.7289241522603e-12,-2.1387536331328e-12,-0.00081205834867631,0.00081205834129479,1.1923838323159e-11,-1.9946298553168e-11,-0.00091552253500525,0.00091552253763783,-0.00091552254543092,0.00091552252710542,-0.00091552253471004,0.0009155225390643,-0.0009155225452003,0.00091552252860499,-0.00080032997664801,0.0008003299613889,-0.00080032997910052,0.0008003299587652,0.8493285419621,122718,2924,0.0033789329330144,0.0059198890491669,0.0033789329330218,23.444427179106,0.00010275541743285,0.00010275541743285,0.00010275541743285,2422556.5656146,0.012758798599221
29419200,0.99986273570507,0.013686010439371,0.0041899754509861,0.0053060595373868,0.0041899754509979,-0.00081026746911044,0.00081026746382951,-1.0352044542586e-12,-3.6255252550428e-12,9.0308466230259e-12,-1.4481784856119e-11,-0.00091700684049914,0.00091700684401534,-0.00091700684188175,0.00091700684366789,-0.00091700684805501,0.000917006836151,-0.00091700684956461,0.00091700683593888,-0.00079869265404772,0.0007986926438259,-0.00079869265678024,0.00079869264148855,-5.7045179955969e-12,1.8012394704294e-11,-1.0390929387769e-11,2.2337548015006e-11,-0.0014311228659679,0.0014311228779448,-0.0015621519886908,0.0015621519819818,-0.0015621519787909,0.0015621519935896,-0.0015621519817117,0.0015621519905545,-0.0015621519718053,0.0015621520021683,-0.0012812669309146,0.0012812669186493,-0.0012812668996952,0.0012812669515895,-0.0012812669249091,0.0012812669248333,-0.001281266902375,0.0012812669487839,-4.7652186170187e-12,-2.1751333894033e-12,-0.00081026747021646,0.00081026746272704,1.1904791552084e-11,-2.0001488857032e-11,-0.00091700684092471,0.00091700684346655,-0.00091700685136248,0.00091700683292233,-0.00091700684064509,0.00091700684490857,-0.00091700685114696,0.00091700683443695,-0.00079869265677684,0.00079869264142456,-0.00079869265923538,0.00079869263880707,0.60881578646039,122718,2924,0.003371532271065,0.0059445160402418,0.0033715322710724,24.783777898859,0.00011347022319088,0.00011347022319088,0.00011347022319088,2348434.3289704,0.012768765339453
30419200,0.99989939394696,0.013686410538316,0.0041900941568926,0.0053062222245191,0.0041900941569044,-0.00081980481952645,0.00081980481421108,-1.0460204749396e-12,-3.6365737962801e-12,9.0103365381978e-12,-1.4485961257945e-11,-0.00091879237301534,0.00091879237654695,-0.00091879237439334,0.00091879237619476,-0.00091879238056495,0.000918792368687,-0.00091879238207116,0.00091879236847136,-0.00080768935608848,0.00080768934584411,-0.00080768935883632,0.00080768934352164,-5.7158946480479e-12,1.7986731723575e-11,-1.0418444076626e-11,2.2326703346303e-11,-0.0014277690951253,0.0014277691070641,-0.0015623467284283,0.0015623467216808,-0.0015623467185253,0.0015623467332954,-0.0015623467214561,0.0015623467302502,-0.0015623467115466,0.0015623467418708,-0.0012756196197748,0.00127561960745,-0.001275619588559,0.0012756196404259,-0.0012756196137481,0.0012756196136541,-0.001275619591249,0.0012756196376112,-4.7667613198902e-12,-2.1764416288493e-12,-0.00081980482062301,0.00081980481311805,1.1910101301639e-11,-2.0011882667265e-11,-0.00091879237342599,0.00091879237601231,-0.00091879238386918,0.00091879236546257,-0.00091879237314178,0.00091879237744987,-0.00091879238364968,0.00091879236697334,-0.00080768935882898,0.00080768934346202,-0.00080768936127345,0.00080768934083,0.51512748248588,122718,2924,0.0034110647566049,0.0059307517574225,0.0034110647566122,26.134523740908,0.00012427618992726,0.00012427618992726,0.00012427618992726,2471602.5474872,0.012834865509372
31419200,0.99992907121111,0.01368682886989,0.0041902190573422,0.0053063907551936,0.0041902190573539,-0.00082862536953127,0.00082862536341852,-1.3128612974003e-12,-3.903609963675e-12,8.7978214035511e-12,-1.4815953029864e-11,-0.00092581419179823,0.00092581419472611,-0.00092581419327293,0.00092581419447049,-0.00092581419938634,0.00092581418682561,-0.00092581420098903,0.00092581418670632,-0.00081629103863072,0.00081629102774332,-0.00081629104137254,0.00081629102541444,-5.7534682354948e-12,1.80602403897e-11,-1.0475897968508e-11,2.2417918795028e-11,-0.0014297864250921,0.0014297864370649,-0.001564024664766,0.0015640246579604,-0.0015640246549235,0.0015640246697393,-0.001564024657866,0.0015640246666813,-0.0015640246480169,0.0015640246784663,-0.0012785629453838,0.0012785629329861,-0.0012785629140551,0.0012785629661381,-0.0012785629393327,0.0012785629392158,-0.0012785629167558,0.001278562963312,-5.0347137664798e-12,-2.444198272597e-12,-0.0008286253706289,0.00082862536232445,1.1713884001826e-11,-2.0361164348053e-11,-0.00092581419220298,0.00092581419419585,-0.00092581420269858,0.00092581418359463,-0.00092581419201575,0.00092581419573052,-0.00092581420257518,0.00092581418520164,-0.00081629104137214,0.0008162910253483,-0.00081629104382336,0.00081629102272264,0.66479676253864,122718,2924,0.0034476629596473,0.0059391355937311,0.0034476629596547,28.445480069927,0.00014276384055942,0.00014276384055942,0.00014276384055942,2508964.3228344,0.012917491112229
32419200,0.9999507465466,0.01368718893202,0.0041903265729249,0.0053065357861581,0.0041903265729367,-0.00082497502318623,0.00082497501826325,-9.1103551591682e-13,-3.5016506444799e-12,9.1600090191151e-12,-1.4360548118642e-11,-0.00092842794716795,0.00092842795097998,-0.00092842794850987,0.00092842795059165,-0.00092842795472432,0.00092842794311231,-0.00092842795619469,0.00092842794286077,-0.00081315559990198,0.00081315558995355,-0.00081315560263846,0.00081315558761959,-5.7157351235095e-12,1.8012671931119e-11,-1.0445682479806e-11,2.2380250357538e-11,-0.0014362054830115,0.0014362054949766,-0.001567422947519,0.0015674229407657,-0.0015674229375452,0.0015674229523598,-0.001567422940493,0.0015674229492958,-0.0015674229305127,0.0015674229608958,-0.0012869457186273,0.001286945706257,-0.0012869456873028,0.0012869457392843,-0.0012869457125661,0.0012869457124986,-0.0012869456900094,0.0012869457364505,-4.642429809309e-12,-2.0520483113327e-12,-0.00082497502429353,0.00082497501715952,1.2074302314823e-11,-1.9924704774424e-11,-0.00092842794757998,0.00092842795044357,-0.00092842795804774,0.00092842793986876,-0.00092842794725996,0.00092842795184539,-0.00092842795779256,0.00092842794134392,-0.00081315560265022,0.00081315558754079,-0.00081315560510572,0.00081315558491968,0.7835582016357,122718,2924,0.0034325617659119,0.0059656211059643,0.0034325617659194,29.298069701955,0.00014958455761564,0.00014958455761564,0.00014958455761564,2401234.6491364,0.012913755319155
33419200,0.99996581009148,0.01368744778241,0.0041904041289765,0.0053066395244447,0.0041904041289883,-0.00081937226715471,0.00081937226295074,-6.7300836652696e-13,-3.263463197109e-12,9.3465059835256e-12,-1.4058285411384e-11,-0.00092649028467211,0.0009264902889852,-0.00092649028593408,0.00092649028851702,-0.00092649029219115,0.00092649028115749,-0.00092649029358128,0.00092649028082581,-0.00080788184378787,0.00080788183442333,-0.00080788184652256,0.00080788183208787,-5.6719292264555e-12,1.7945204109862e-11,-1.0397219313263e-11,2.2310585603395e-11,-0.0014400669985193,0.0014400670104628,-0.0015705885802181,0.001570588573524,-0.0015705885701878,0.0015705885849792,-0.0015705885731336,0.0015705885819177,-0.0015705885630968,0.0015705885933789,-0.0012906623790225,0.0012906623667081,-0.0012906623477706,0.0012906623995787,-0.0012906623729661,0.0012906623729447,-0.0012906623504763,0.0012906623967459,-4.4072598612365e-12,-1.8170300645082e-12,-0.00081937226826491,0.0008193722618441,1.2254991971349e-11,-1.9622529188585e-11,-0.00092649028508896,0.00092649028844553,-0.00092649029551518,0.00092649027791165,-0.00092649028468876,0.00092649028976705,-0.00092649029518023,0.00092649027930693,-0.00080788184653616,0.00080788183200686,-0.00080788184899252,0.00080788182938691,0.80945760226261,122718,2924,0.0034093419090859,0.0059815540684462,0.0034093419090933,29.317375146495,0.00014973900117196,0.00014973900117196,0.00014973900117196,2326191.4732679,0.012882869372208
34419200,0.99997721259626,0.013687625513539,0.0041904573820885,0.0053067107493499,0.0041904573821003,-0.00082098832112795,0.00082098831516624,-1.2619571557957e-12,-3.8524315485674e-12,8.8131518304377e-12,-1.4726381589739e-11,-0.00092835501186959,0.00092835501486487,-0.00092835501333123,0.0009283550145964,-0.00092835501943601,0.00092835500699165,-0.00092835502102348,0.00092835500685727,-0.0008094045365465,0.0008094045258004,-0.00080940453927543,0.00080940452345926,-5.7133589608056e-12,1.8025019200977e-11,-1.0438535580492e-11,2.2388914975192e-11,-0.0014454634325084,0.001445463444489,-0.0015769393590756,0.0015769393523253,-0.0015769393492335,0.0015769393640612,-0.0015769393521791,0.0015769393610002,-0.0015769393423305,0.001576939372742,-0.0012949576487307,0.0012949576363809,-0.0012949576174472,0.0012949576694498,-0.0012949576426747,0.0012949576426165,-0.0012949576201518,0.0012949576666185,-4.9948566458522e-12,-2.4046137906993e-12,-0.00082098832223668,0.00082098831406107,1.1722033517569e-11,-2.0287853686908e-11,-0.00092835501228499,0.0009283550143264,-0.00092835502275845,0.00092835500374748,-0.00092835501208433,0.00092835501584738,-0.00092835502262085,0.00092835500534016,-0.00080940453928753,0.00080940452337988,-0.00080940454174965,0.0008094045207659,0.73398852679868,122718,2924,0.0034160644047852,0.0060039012776502,0.0034160644047926,31.489045061008,0.00016711236048806,0.00016711236048806,0.00016711236048806,2295504.6872554,0.012919121975172
35419200,0.99998615619824,0.013687748865159,0.0041904943108541,0.0053067602434395,0.0041904943108659,-0.00083119524821193,0.00083119524029585,-1.9183244167264e-12,-4.5090129793111e-12,8.309954461963e-12,-1.5563615277531e-11,-0.0009358818742696,0.00093588187583615,-0.00093588187595646,0.00093588187579275,-0.00093588188194674,0.00093588186785013,-0.00093588188375788,0.00093588186793929,-0.00081927686080556,0.00081927684846259,-0.00081927686352326,0.00081927684610969,-5.823105137547e-12,1.8234011287001e-11,-1.057303811859e-11,2.2617799806447e-11,-0.0014523839172138,0.0014523839292891,-0.0015854839745293,0.0015854839676338,-0.0015854839648278,0.0015854839797638,-0.0015854839677883,0.0015854839766876,-0.0015854839580802,0.0015854839888237,-0.0013007326052086,0.0013007325927073,-0.0013007325736601,0.001300732626219,-0.0013007325991227,0.0013007325989735,-0.0013007325763769,0.0013007326233762,-5.6496179668727e-12,-3.059162574095e-12,-0.00083119524931886,0.00083119523919243,1.1241065622573e-11,-2.1144194231255e-11,-0.00093588187467443,0.00093588187530589,-0.00093588188527624,0.00093588186460126,-0.00093588187469922,0.00093588187705252,-0.0009358818853618,0.00093588186641721,-0.00081927686354049,0.00081927684602523,-0.00081927686601531,0.00081927684342323,0.64952121200817,122718,2924,0.0034584242532876,0.0060326087991602,0.003458424253295,35.943761939583,0.00020275009551666,0.00020275009551666,0.00020275009551666,2312814.4386848,0.013034007597951
36419200,0.99999187836285,0.013687831675078,0.0041905191698696,0.0053067933353266,0.0041905191698814,-0.00083663966829049,0.00083663966277951,-1.1155203297079e-12,-3.7063422555208e-12,9.0661273136073e-12,-1.4687700006729e-11,-0.0009390258812781,0.00093902588471519,-0.00093902588267852,0.00093902588438526,-0.00093902588891106,0.00093902587677045,-0.0009390258904392,0.00093902587657655,-0.00082449324660493,0.0008244932361225,-0.00082449324934404,0.00082449323379069,-5.7951044929474e-12,1.8162130306445e-11,-1.0569777571139e-11,2.2571342990377e-11,-0.0014534958787528,0.001453495890785,-0.0015874667111422,0.0015874667042736,-0.0015874667011372,0.0015874667160465,-0.0015874667041133,0.0015874667129535,-0.0015874666941017,0.0015874667247324,-0.0013014554988863,0.0013014554863502,-0.0013014554672878,0.0013014555197219,-0.0013014554927678,0.0013014554926495,-0.0013014554700207,0.0013014555168619,-4.8470132506017e-12,-2.2564263765466e-12,-0.00083663966939752,0.00083663966167598,1.202213790841e-11,-2.0294285575896e-11,-0.00093902588167484,0.00093902588419326,-0.00093902589224881,0.00093902587351318,-0.00093902588141318,0.00093902588565354,-0.00093902589205127,0.00093902587504609,-0.00082449324936967,0.00082449323369791,-0.00082449325182344,0.00082449323107459,0.6811981079479,122718,2924,0.0034810068331738,0.0060372518305898,0.0034810068331811,37.485516754555,0.00021508413403644,0.00021508413403644,0.00021508413403644,2345172.8122914,0.013084456608821
37419200,0.99999525690602,0.013687878652557,0.0041905332362552,0.0053068121800352,0.004190533236267,-0.00083567625126545,0.00083567624690577,-7.2476825772429e-13,-3.3155568087525e-12,9.3534668297e-12,-1.4177203984385e-11,-0.00093975571671121,0.00093975572098087,-0.00093975571798228,0.00093975572052158,-0.0009397557242706,0.00093975571311156,-0.00093975572567014,0.00093975571278907,-0.00082364517383132,0.00082364516430382,-0.00082364517657474,0.00082364516197646,-5.7249023434573e-12,1.8017269673014e-11,-1.0500155874504e-11,2.24304111781e-11,-0.0014551511987529,0.0014551512107135,-0.0015882325992209,0.0015882325924297,-0.0015882325891361,0.0015882326039759,-0.0015882325921131,0.0015882326008816,-0.0015882325820218,0.0015882326124338,-0.0013037682725629,0.0013037682600877,-0.0013037682411172,0.0013037682932024,-0.0013037682664425,0.0013037682663897,-0.0013037682438531,0.0013037682903388,-4.4581357187787e-12,-1.8675795055516e-12,-0.00083567625237443,0.00083567624580031,1.2310526804209e-11,-1.9789157250786e-11,-0.00093975571711002,0.0009397557204584,-0.00093975572760989,0.00093975570985105,-0.00093975571671886,0.00093975572178916,-0.00093975572728403,0.00093975571125562,-0.00082364517660313,0.00082364516188085,-0.00082364517905182,0.00082364515925257,0.65495763090949,122718,2924,0.0034770212460532,0.0060440791314,0.0034770212460605,37.681073039505,0.00021664858431604,0.00021664858431604,0.00021664858431604,2315600.2554305,0.013083306433487
38419200,0.99999719868214,0.013687908734548,0.0041905422852446,0.0053068241640473,0.0041905422852564,-0.00083478227281896,0.00083478226904913,-5.2337241390554e-13,-3.1141481341562e-12,9.4489511167647e-12,-1.3860235402852e-11,-0.00093849643690579,0.00093849644157915,-0.00093849643810971,0.00093849644105273,-0.00093849644439325,0.00093849643378408,-0.00093849644572593,0.00093849643339473,-0.00082275319506907,0.00082275318606756,-0.00082275319781768,0.00082275318374544,-5.6559405972501e-12,1.7870033935671e-11,-1.0411846572293e-11,2.2266864174349e-11,-0.0014540401716007,0.0014540401834858,-0.0015873995758466,0.0015873995691382,-0.0015873995657669,0.0015873995805199,-0.0015873995687323,0.001587399577438,-0.0015873995586461,0.0015873995888257,-0.0013023968279445,0.0013023968155683,-0.0013023967967204,0.0013023968484116,-0.0013023968218478,0.0013023968218459,-0.0013023967994468,0.001302396845558,-4.2539829113892e-12,-1.6634406683235e-12,-0.00083478227392517,0.00083478226794641,1.2392536063589e-11,-1.9452515619515e-11,-0.00093849643730875,0.00093849644105406,-0.00093849644772315,0.00093849643053145,-0.00093849643685019,0.00093849644231742,-0.00093849644733056,0.00093849643186934,-0.00082275319783759,0.00082275318365815,-0.00082275320028062,0.00082275318102426,0.72891346290552,122718,2924,0.0034733073382203,0.0060394835741058,0.0034733073382275,37.194402189676,0.00021275521751741,0.00021275521751741,0.00021275521751741,2322064.2524146,0.013071123702493
38880000,0.99999787681884,0.013687919476519,0.0041905455156483,0.0053068284452106,0.0041905455156601,-0.0008320958217835,0.00083209581764433,-6.4665213492704e-13,-3.2373440292688e-12,9.2892024951372e-12,-1.3946835551394e-11,-0.00093825336607997,0.00093825337041517,-0.00093825336733325,0.00093825336993815,-0.0009382533735456,0.00093825336264457,-0.00093825337492633,0.00093825336230334,-0.00082025171859409,0.00082025170933953,-0.00082025172133501,0.00082025170700987,-5.623992190899e-12,1.782442965238e-11,-1.0353133307119e-11,2.2196124217759e-11,-0.0014561460999401,0.0014561461118129,-0.0015885673020872,0.0015885672954306,-0.0015885672921,0.0015885673068241,-0.0015885672950487,0.0015885673037596,-0.001588567285055,0.0015885673151592,-0.0013050040428731,0.0013050040305877,-0.0013050040117815,0.001305004063308,-0.0013050040368105,0.0013050040368306,-0.001305004014492,0.0013050040604705,-4.376859760527e-12,-1.7864020001745e-12,-0.00083209582288934,0.000832095816542,1.220806531669e-11,-1.9512936100917e-11,-0.00093825336649181,0.0009382533698823,-0.000938253376866,0.00093825335940052,-0.00093825336608237,0.00093825337119474,-0.00093825337652172,0.00093825336078664,-0.0008202517213459,0.00082025170693133,-0.00082025172379608,0.00082025170430474,0.74537476942469,122718,2924,0.003462177592161,0.0060481646895702,0.0034621775921683,37.193613676963,0.0002127489094157,0.0002127489094157,0.0002127489094157,2277847.4872719,0.013057379205411
