time,ASR_ext,ASR_strain,ASR_strain_xx,ASR_strain_yy,ASR_strain_zz,disp_x_101,disp_x_102,disp_x_103,disp_x_104,disp_x_105,disp_x_106,disp_x_p1_neg,disp_x_p1_pos,disp_x_p2_neg,disp_x_p2_pos,disp_x_p3_neg,disp_x_p3_pos,disp_x_p4_neg,disp_x_p4_pos,disp_x_p5_neg,disp_x_p5_pos,disp_x_p6_neg,disp_x_p6_pos,disp_y_101,disp_y_102,disp_y_103,disp_y_104,disp_y_105,disp_y_106,disp_y_p1_neg,disp_y_p1_pos,disp_y_p2_neg,disp_y_p2_pos,disp_y_p3_neg,disp_y_p3_pos,disp_y_p4_neg,disp_y_p4_pos,disp_y_p5_neg,disp_y_p5_pos,disp_y_p6_neg,disp_y_p6_pos,disp_y_p7_neg,disp_y_p7_pos,disp_y_p8_neg,disp_y_p8_pos,disp_z_101,disp_z_102,disp_z_103,disp_z_104,disp_z_105,disp_z_106,disp_z_p1_neg,disp_z_p1_pos,disp_z_p2_neg,disp_z_p2_pos,disp_z_p3_neg,disp_z_p3_pos,disp_z_p4_neg,disp_z_p4_pos,disp_z_p5_neg,disp_z_p5_pos,disp_z_p6_neg,disp_z_p6_pos,humidity,ndof,nelem,strain_xx,strain_yy,strain_zz,temp,thermal_strain_xx,thermal_strain_yy,thermal_strain_zz,vonmises,vstrain
2419200,0,0,0,0,0,0,0,0,0,0,0,0,0,0,0,0,0,0,0,0,0,0,0,0,0,0,0,0,0,0,0,0,0,0,0,0,0,0,0,0,0,0,0,0,0,0,0,0,0,0,0,0,0,0,0,0,0,0,0,0,0,0,0,0,0,0,0,0,0,0,0,0,0,0,0
3419200,0.15867881677768,0.0030041858488544,0.0010013952829515,0.0010013952829515,0.0010013952829515,-0.00027334284681666,0.00027333764768645,-1.8319341839678e-09,-1.8319340976335e-09,-1.5363410828915e-09,-2.1257940714062e-09,-0.00027879761402623,0.00027879369951843,-0.00027879853455142,0.00027879462004348,-0.00027879781922817,0.00027879350541096,-0.00027879872168991,0.00027879440788753,-0.00027078208639647,0.0002707780044644,-0.00027078263149343,0.00027077854956887,-1.774795032333e-10,3.7175900482274e-10,-7.220021321687e-10,9.0832300873793e-10,-0.00028953471539384,0.00028953490246731,-0.00029307953399351,0.00029307892627185,-0.00029307983109233,0.00029308040740149,-0.00029307981749697,0.0002930796113577,-0.00029308011459573,0.0002930810924973,-0.00028282561631588,0.00028282441410175,-0.00028282458084628,0.00028282653464677,-0.00028625293430578,0.00028625315285674,-0.0002862528579792,0.0002862541440496,-4.6106444526129e-09,-4.6106445262136e-09,-0.00025957632037105,0.00025956455314634,-3.7000692521962e-09,-5.420756081344e-09,-0.00026601727678779,0.00026600777974829,-0.00026601786952805,0.00026600719506635,-0.00026601773318821,0.00026600823613588,-0.00026601831829222,0.00026600764382885,-0.00026336938711963,0.00026335917417816,-0.00026336903105859,0.00026335881813483,0.75746877217741,122718,2924,0.0011382671545055,0.0012056634743811,0.0010809621906176,31.800136635881,0.00016960109308705,0.00016960109308705,0.00016960109308705,1900392.8007166,0.0034307669636927
4419200,0.34973104907913,0.0064389696426872,0.0021349071074549,0.002317381239406,0.0019866812958263,-0.00053584651148923,0.00053583178175875,-5.9035212889016e-09,-5.9035234850964e-09,-4.902640711301e-09,-7.1122740302046e-09,-0.00055711694014305,0.00055710457890311,-0.00055711956451303,0.00055710720325108,-0.0005571177223374,0.00055710384023182,-0.00055712028305696,0.00055710640096293,-0.0005227599577541,0.00052274695748922,-0.00052276132272137,0.00052274832244839,-5.4544348392892e-10,1.4536999969262e-09,-6.8598583319191e-10,1.5630795572572e-09,-0.00062012785566502,0.00062012873665718,-0.00064163148343242,0.00064163080773187,-0.00064163385991047,0.00064163484379803,-0.00064163306470675,0.00064163382509532,-0.00064163544132534,0.00064163786122844,-0.00058426651608111,0.00058426589906337,-0.00058426633366968,0.00058427008130651,-0.00060248956838671,0.00060248931829553,-0.00060248981776306,0.00060249347240179,-9.9708084929389e-09,-9.9708109519888e-09,-0.00047515373748717,0.00047512993732818,-8.6346733886109e-09,-1.1170275579869e-08,-0.00049504468662748,0.00049502341684392,-0.00049504558579467,0.0004950225489529,-0.00049504600493141,0.00049502473510241,-0.00049504687142863,0.00049502383459239,-0.00049179295065483,0.00049177146936183,-0.00049179176799662,0.00049177028671724,0.73992840791513,122718,2924,0.0022301699975673,0.0025804968431136,0.0019778845985657,33.600040214232,0.00018400032171386,0.00018400032171386,0.00018400032171386,3454333.9513755,0.0068116681261781
5419200,0.54984764306975,0.0098867726474462,0.0032340311029416,0.0037895302012948,0.0028632113432099,-0.00078461282892316,0.00078460361524767,-3.9535500374569e-09,-3.9535523128089e-09,-3.3251402050544e-09,-3.4973677757563e-09,-0.00082809358278304,0.00082808481271046,-0.00082809500333094,0.00082808623323589,-0.00082809369063907,0.00082808473620373,-0.00082809509418349,0.00082808613975555,-0.00075529793311035,0.00075528930052396,-0.00075529813680562,0.00075528950424176,2.221980064299e-10,2.0726891782684e-10,7.2525302781195e-10,-3.0244900330232e-10,-0.00099398624396628,0.00099398666919121,-0.001048604898611,0.0010486057784922,-0.0010486066600956,0.001048606686497,-0.0010486060170708,0.0010486068294027,-0.0010486077785616,0.0010486077374479,-0.00091100384194871,0.00091100523942696,-0.00091100444762178,0.00091100388505007,-0.00094807191782912,0.00094807201975398,-0.00094807084892162,0.00094807096359413,-2.1708786019724e-09,-2.1708812450534e-09,-0.00066150058995914,0.00066149411907263,-2.4256806687971e-09,-1.5185864170642e-09,-0.00070016244884512,0.00070015596404077,-0.00070016214770859,0.00070015627551473,-0.00070016333856113,0.00070015685366024,-0.00070016302264713,0.00070015715040167,-0.0006912488709811,0.00069124418176766,-0.00069124807752061,0.00069124338831531,0.72499638738019,122718,2924,0.0032639013400756,0.0041329108784471,0.0027528312105852,36.268494835642,0.00020534795868514,0.00020534795868514,0.00020534795868514,4264270.4731668,0.010201401446465
6419200,0.70634430913408,0.012074946641924,0.0038849265633829,0.0048200074856108,0.0033700125929307,-0.00091740314808744,0.00091739664312792,-2.5340983363423e-09,-2.5340993210929e-09,-2.8115849491145e-09,-2.6735314569198e-09,-0.00098489700680872,0.00098489088499797,-0.00098489764481587,0.00098489152295798,-0.00098489698152117,0.00098489092780221,-0.00098489761619619,0.00098489156246463,-0.00087122883643647,0.00087122359705404,-0.00087122844274289,0.00087122320335769,-1.0085556196122e-10,-3.0906323821258e-10,2.6128805341756e-10,-6.6538564404296e-10,-0.0012588556435805,0.001258855237744,-0.0013544946974538,0.0013544946677498,-0.0013544962747755,0.0013544956322277,-0.001354495964522,0.0013544957947284,-0.0013544975419063,0.0013544967592773,-0.0011241937246554,0.0011241941594302,-0.0011241962404041,0.0011241948545034,-0.001176417769595,0.0011764172443712,-0.0011764188155609,0.0011764179363936,-2.0338414647158e-09,-2.0338425622117e-09,-0.00075384009889114,0.00075383404395624,-2.9524356521469e-09,-2.0668209866143e-09,-0.00081360022802983,0.00081359413362532,-0.00081359992902176,0.00081359443902302,-0.00081360076290706,0.00081359466841468,-0.00081360045976525,0.00081359496971554,-0.00078471295986279,0.00078470916673799,-0.00078471315887741,0.00078470936574198,0.59839168540088,122718,2924,0.0038153622666719,0.005231258262239,0.0031368763670033,36.738726188441,0.00020910980950753,0.00020910980950753,0.00020910980950753,4466371.2813787,0.012258179358043
7419200,0.83188415653116,0.013608363472203,0.0043278659806289,0.0055499179165592,0.0037305795750146,-0.0010030788944156,0.0010030726818224,-2.3440426482311e-09,-2.3440471456988e-09,-2.68102849619e-09,-2.2579464377568e-09,-0.0010888191787572,0.0010888134345557,-0.0010888199395055,0.0010888141952607,-0.001088819061689,0.0010888135732331,-0.001088819816771,0.0010888143283091,-0.00094483704220719,0.00094483222840716,-0.00094483691471296,0.00094483210089544,3.6883518645588e-11,-4.4783236535217e-10,3.172216705663e-10,-7.1887735555495e-10,-0.0014579629782089,0.0014579625754247,-0.0015905111155246,0.0015905112191375,-0.001590512601618,0.0015905120174526,-0.0015905123579604,0.0015905121404459,-0.0015905138441252,0.0015905129388279,-0.0012815319753661,0.0012815324258962,-0.0012815342509824,0.0012815326685713,-0.0013425544639143,0.0013425541764409,-0.0013425555631795,0.0013425543714911,-2.1314393143156e-09,-2.1314434218371e-09,-0.00081614624342526,0.00081613978468039,-2.9322781382686e-09,-1.9395916908843e-09,-0.00089171470297951,0.0008917085130476,-0.00089171437091596,0.00089170885059434,-0.00089171520647646,0.00089170901643207,-0.00089171486988492,0.00089170934948669,-0.00084582845259044,0.00084582442433947,-0.0008458285916194,0.00084582456334869,0.52694121020036,122718,2924,0.0041710851383446,0.0060560985381554,0.0033960720080647,40.763654552627,0.00024130923642102,0.00024130923642102,0.00024130923642102,4402346.6385898,0.013716725817652
8419200,0.90767161779668,0.01443758996415,0.0045635216532547,0.0059424247387329,0.0039316435721622,-0.0010320506769118,0.0010320470333157,-1.3713501185812e-09,-1.3713551171849e-09,-1.9573799503328e-09,-1.0273240599552e-09,-0.0011301733366441,0.0011301696550529,-0.0011301738145014,0.0011301701328658,-0.0011301730482349,0.0011301699648243,-0.0011301735253589,0.0011301704419469,-0.00096798532538741,0.00096798273183282,-0.00096798520492786,0.00096798261135492,1.6849485815657e-10,-7.9484397138581e-10,4.9067821523499e-10,-1.1009702712904e-09,-0.0015705885808728,0.0015705879689645,-0.0017266928428075,0.0017266931091314,-0.0017266942408605,0.0017266934162872,-0.0017266940369918,0.0017266936459762,-0.0017266954351117,0.0017266939531956,-0.0013671053365738,0.0013671059545652,-0.0013671080426995,0.0013671055508067,-0.0014315420324151,0.001431541808643,-0.0014315434914951,0.0014315414278437,-6.8710551666282e-10,-6.8710992724867e-10,-0.00083612729716014,0.00083612456189615,-1.7754907180361e-09,-1.9499464562004e-10,-0.0009236455008803,0.00092364239609367,-0.00092364496598045,0.00092364293270275,-0.00092364582076088,0.0009236427158617,-0.00092364528520622,0.00092364325185227,-0.00086378299777578,0.00086378222151686,-0.00086378316098768,0.00086378238470283,0.47156008474719,122718,2924,0.0042914722967295,0.0065223306674477,0.0034794048984018,41.433598090086,0.00024666878472069,0.00024666878472069,0.00024666878472069,4178719.9923389,0.014396168157242
9419200,0.94962397383811,0.014834729647854,0.0046750507434505,0.0061288331766265,0.004030845727777,-0.0010351075804588,0.0010351053741859,-8.0657998311238e-10,-8.0658516457921e-10,-1.6527052261865e-09,-1.7762708961434e-10,-0.0011414065280406,0.0011414039579261,-0.0011414068828903,0.0011414043127312,-0.0011414060608102,0.001141404451126,-0.0011414064161261,0.0011414048064397,-0.00096911695273598,0.00096911572411114,-0.00096911686304969,0.00096911563440794,3.2108380790419e-10,-1.1709873273468e-09,7.3700829590246e-10,-1.5633246711515e-09,-0.0016275041089653,0.0016275032803836,-0.0017962351191106,0.0017962355904551,-0.0017962365858028,0.0017962354849239,-0.001796236346802,0.0017962358030687,-0.0017962378135628,0.0017962356976023,-0.0014099994763073,0.0014100003942905,-0.0014100028101463,0.0014099992320624,-0.0014749077097179,0.0014749075458286,-0.0014749096114571,0.0014749065688915,6.7857034955338e-12,6.7812649987738e-12,-0.00083774856602832,0.00083774757385884,-1.4304664163211e-09,8.7158662153692e-10,-0.00093375823051829,0.00093375646548666,-0.00093375745245941,0.00093375724352892,-0.00093375846150795,0.00093375669636348,-0.00093375768455542,0.00093375747554805,-0.00086345823925706,0.00086345916455175,-0.00086345838192281,0.00086345930719139,0.40621133923259,122718,2924,0.0043042950257272,0.0067578177832237,0.0034863699512646,41.145279471362,0.00024436223577089,0.00024436223577089,0.00024436223577089,3931425.4386355,0.014655198679461
10419200,0.97060774588855,0.015049852855208,0.0047362553496221,0.006226484489265,0.0040871130163207,-0.0010299511889904,0.0010299516507662,2.1298980542346e-10,2.1298462879615e-10,-9.7402008471346e-10,1.2205988853066e-09,-0.0011400252548289,0.0011400247844102,-0.0011400253276451,0.0011400248571826,-0.0011400245495,0.0011400255195958,-0.0011400246267515,0.0011400255968452,-0.00096372935259768,0.00096373051396814,-0.00096372925751402,0.00096373041886697,5.2519021547589e-10,-1.658721018035e-09,1.1432169319192e-09,-2.2433767161459e-09,-0.0016524371564761,0.0016524360532281,-0.0018271551495205,0.0018271559621787,-0.0018271566554011,0.0018271551460624,-0.0018271563611471,0.0018271556819783,-0.0018271578670959,0.0018271548659259,-0.0014280375774711,0.001428039048625,-0.0014280418481974,0.0014280367031643,-0.0014929496701138,0.0014929495369589,-0.0014929521072325,0.001492947739104,1.4947335685037e-09,1.4947291531386e-09,-0.00083254383710918,0.00083254660477684,-4.9140572245132e-10,2.9265206118097e-09,-0.00093261005510046,0.0009326112733297,-0.00093260889884476,0.00093261242602057,-0.00093261010471834,0.00093261132283425,-0.00093260895307894,0.00093261248017744,-0.00085763531190316,0.00085763973951914,-0.00085763544270205,0.00085763987029026,0.43665130715676,122718,2924,0.0042829910209103,0.0068609463552906,0.003464894856132,38.098430372744,0.00021998744298195,0.00021998744298195,0.00021998744298195,3807512.7390934,0.014716455012086
11419200,0.98272532083519,0.0151651330335,0.0047689930454317,0.0062785521765179,0.0041175878115504,-0.0010235947282725,0.0010235934973613,-4.1564576626855e-10,-4.1565090751251e-10,-1.7110281194934e-09,7.0799522005555e-10,-0.0011395769051333,0.0011395748917041,-0.0011395772170943,0.001139575203621,-0.0011395761348725,0.0011395757011873,-0.0011395764446551,0.0011395760109678,-0.00095817513072434,0.0009581750355318,-0.00095817508302839,0.00095817498781911,6.2022061692118e-10,-1.8065956050973e-09,1.3316465971105e-09,-2.4811735846148e-09,-0.0016721958325257,0.0016721946794452,-0.0018489010920676,0.0018489020473407,-0.0018489029446056,0.0018489013327841,-0.0018489025189254,0.0018489018440741,-0.0018489043715311,0.0018489011295812,-0.0014449853573292,0.0014449871268019,-0.0014449901005412,0.0014449844038289,-0.0015090173018942,0.0015090172245594,-0.0015090200456415,0.0015090152454374,3.8810618318133e-10,3.8810179803589e-10,-0.00082828294573565,0.00082828289267042,-1.7746351217622e-09,2.0351665991254e-09,-0.00093482359415957,0.00093482216890467,-0.00093482231537478,0.00093482344728234,-0.00093482378060446,0.00093482235523657,-0.00093482250319932,0.00093482363502965,-0.00085246029684559,0.0008524625301284,-0.00085246040578126,0.00085246263903508,0.40445605707229,122718,2924,0.0042567040881299,0.0069426013338329,0.0034473179112809,37.627839702432,0.00021622271761946,0.00021622271761946,0.00021622271761946,3615846.1950109,0.01475483479534
12419200,0.98967508248172,0.015239595441735,0.0047903745513653,0.0063113953793498,0.0041378255110194,-0.0010205179138174,0.0010205170867787,-2.6395325501586e-10,-2.6395846530482e-10,-1.6108815232175e-09,9.1150588141512e-10,-0.0011381913636452,0.0011381896749874,-0.0011381916508876,0.0011381899621859,-0.0011381905598868,0.001138190519162,-0.0011381908448691,0.0011381908041429,-0.00095555653055423,0.0009555568122339,-0.00095555647419968,0.00095555675586325,6.4705262492764e-10,-1.8782267671086e-09,1.4049512001758e-09,-2.5976812142691e-09,-0.0016810623079547,0.0016810611115514,-0.001859046798707,0.0018590478074624,-0.0018590486807099,0.0018590469957561,-0.0018590482307097,0.0018590475433318,-0.0018590501127799,0.0018590467316906,-0.0014524653617038,0.0014524672415266,-0.0014524702647382,0.0014524643058295,-0.0015164460830459,0.001516445995129,-0.0015164489006497,0.0015164438958754,5.8817869714749e-10,5.8817441233721e-10,-0.00082581903379338,0.00082581949898038,-1.6705385079894e-09,2.3326167945156e-09,-0.00093407202163512,0.00093407099774682,-0.00093407067839953,0.00093407234044455,-0.00093407218965519,0.00093407116565496,-0.00093407084798965,0.00093407250995764,-0.00085019599931581,0.00085019874751314,-0.0008501961151006,0.00085019886326835,0.45322610794666,122718,2924,0.0042439721496352,0.0069792506605235,0.0034371336589087,36.80368327969,0.00020962946623752,0.00020962946623752,0.00020962946623752,3536415.064603,0.014768775743441
13419200,0.99355643499109,0.015277684677768,0.0048012762375284,0.0063282176846511,0.0041481907555883,-0.001010401060523,0.0010104013854797,1.6171319860735e-10,1.6170801493901e-10,-1.313923522564e-09,1.5051492293713e-09,-0.0011322483451334,0.0011322475088205,-0.0011322485106497,0.0011322476742926,-0.0011322474434029,0.0011322484526356,-0.0011322476080663,0.0011322486172969,-0.00094607692477558,0.00094607819565592,-0.0009460768843038,0.00094607815516756,7.5918576498424e-10,-2.0534881042009e-09,1.6426863437657e-09,-2.8946100877076e-09,-0.0016872759874338,0.0016872747314505,-0.0018662076662098,0.0018662088995121,-0.0018662095724098,0.0018662077448306,-0.0018662090711268,0.0018662084089976,-0.0018662109773938,0.0018662072543793,-0.0014568720204931,0.0014568742656566,-0.0014568773727984,0.0014568707357474,-0.0015199465372904,0.0015199464889797,-0.0015199495508958,0.0015199440223961,1.1953694363284e-09,1.1953651442683e-09,-0.00081790531540559,0.00081790734281999,-1.320973635721e-09,3.2266355850924e-09,-0.00093067682398762,0.00093067694945066,-0.00093067529671123,0.00093067847477918,-0.00093067690977679,0.00093067703512716,-0.00093067538542873,0.00093067856341948,-0.00084134362323342,0.00084134781746622,-0.00084134371503176,0.00084134790923463,0.4150894025916,122718,2924,0.0042020678213765,0.0070048871717979,0.0034043589761526,34.793187366265,0.00019354549893012,0.00019354549893012,0.00019354549893012,3425933.8535357,0.01471903433856
14419200,0.99579759817372,0.015298019871717,0.0048070924076618,0.0063371546892356,0.0041537727748193,-0.0010047537536757,0.0010047542980287,2.485823375611e-10,2.4857714635945e-10,-1.3488090346812e-09,1.716771650628e-09,-0.0011263094980401,0.0011263087956264,-0.0011263096424659,0.0011263089400085,-0.0011263085173125,0.0011263098222206,-0.0011263086603171,0.0011263099652235,-0.00094031585487708,0.00094031739014995,-0.00094031582133227,0.0009403173565885,8.263738508461e-10,-2.229084388855e-09,1.8348886906453e-09,-3.1913623446592e-09,-0.0016861518251231,0.0016861504642867,-0.0018668232181257,0.0018668245891474,-0.0018668252557703,0.0018668232435058,-0.0018668246792564,0.0018668239943845,-0.0018668267169681,0.0018668226488059,-0.0014539086838948,0.0014539112240366,-0.0014539145091228,0.0014539072067574,-0.001517011023973,0.0015170109450414,-0.0015170142734189,0.0015170082354635,1.3098831753064e-09,1.3098788618205e-09,-0.00081237781017005,0.00081238012055627,-1.446597652023e-09,3.5891791826003e-09,-0.00092482838491145,0.00092482862303144,-0.00092482669544287,0.00092483031025976,-0.00092482845434552,0.00092482869235248,-0.00092482676811223,0.0009248303828517,-0.00083572962333033,0.00083573422056224,-0.00083572970812879,0.00083573430533069,0.38312450045663,122718,2924,0.0041786478864726,0.0070002453825508,0.0033814214466542,32.642399777084,0.00017633919821667,0.00017633919821667,0.00017633919821667,3419852.0359925,0.014667282759831
15419200,0.99696456100133,0.015312183885609,0.0048112035252122,0.0063432557301658,0.0041577246302308,-0.0009932140884793,0.00099321750730013,1.3262204577577e-09,1.3262152309071e-09,-5.1510066503929e-10,3.0797935609502e-09,-0.0011147245870351,0.0011147261812359,-0.0011147244116129,0.0011147260057699,-0.0011147234289046,0.0011147273861742,-0.0011147232569615,0.0011147272142295,-0.00092866345112326,0.00092866744770324,-0.0009286633977512,0.00092866739431451,9.8099769484087e-10,-2.5756764067361e-09,2.2121023460271e-09,-3.7535029944718e-09,-0.0016777193188709,0.0016777177725505,-0.0018592883233699,0.0018592900174093,-0.0018592903234408,0.0018592879760869,-0.0018592896916103,0.0018592889746727,-0.0018592916917483,0.0018592869334133,-0.0014444362480573,0.0014444393475954,-0.0014444428492957,0.0014444342768948,-0.0015076777982908,0.0015076777005818,-0.0015076813797977,0.0015076743440314,2.9560529305092e-09,2.956048649787e-09,-0.00080036258997798,0.00080036909574368,-2.7933644993379e-10,5.7292788597687e-09,-0.00091280741591831,0.00091281102530828,-0.00091280539499575,0.00091281304009144,-0.00091280728366681,0.00091281089294379,-0.00091280526979998,0.00091281291481824,-0.00082381625623047,0.00082382464821166,-0.00082381633085392,0.00082382472280503,0.51103778709309,122718,2924,0.0041307783712797,0.0069653554327427,0.0033315489910469,27.065915241567,0.00013172732193254,0.00013172732193254,0.00013172732193254,3435576.3280588,0.014532715212192
16419200,0.99771381497755,0.015320450704686,0.0048135808230872,0.0063468630473258,0.0041600068342725,-0.0009791595443364,0.00097916068034031,4.6388206707605e-10,4.6387688509764e-10,-1.3952641814274e-09,2.2363622289043e-09,-0.0011069911334822,0.0011069906968827,-0.001106991249395,0.0011069908127521,-0.0011069899718692,0.0011069919124564,-0.0011069900842795,0.0011069920248647,-0.0009160300870672,0.00091603227257553,-0.00091603007125155,0.000916032256744,1.0540775072145e-09,-2.5648613803925e-09,2.3865519784753e-09,-3.8436155323603e-09,-0.0016800065317617,0.0016800050695055,-0.0018596360269993,0.0018596378785901,-0.0018596383907629,0.001859636068091,-0.0018596376134972,0.0018596370392771,-0.001859639977328,0.0018596352288408,-0.0014479620668944,0.0014479655015454,-0.0014479690030534,0.0014479602310114,-0.0015101275098288,0.0015101274824242,-0.0015101312457455,0.0015101241456856,1.5815477366993e-09,1.5815434731825e-09,-0.00078934762960701,0.00078935064393444,-1.7496361910212e-09,4.4847200211925e-09,-0.00090834575642615,0.00090834615289985,-0.00090834366919771,0.00090834823772338,-0.00090834580024087,0.00090834619660199,-0.00090834371612376,0.00090834828457206,-0.00081231201457255,0.00081231759034591,-0.00081231207884931,0.00081231765459214,0.46538451425637,122718,2924,0.0040725305412318,0.0069746878783122,0.0032858854903743,24.416510956277,0.00011053208765022,0.00011053208765022,0.00011053208765022,3271147.233216,0.0144368007935
17419200,0.99821700014906,0.015326739465849,0.0048154047702789,0.0063495580686641,0.0041617766269061,-0.0009733292417441,0.00097333025265397,4.2140258397709e-10,4.2139736361083e-10,-1.4572362437731e-09,2.2022631420786e-09,-0.0010995106027467,0.0010995100921227,-0.0010995107272183,0.0010995102165508,-0.0010995094329406,0.0010995113175698,-0.0010995095533404,0.001099511437968,-0.00090992049177638,0.00090992259619487,-0.00090992048098171,0.00090992258538426,1.0363409338488e-09,-2.6089345797806e-09,2.441805616691e-09,-3.9594227887046e-09,-0.0016756738824965,0.0016756723596846,-0.0018574671450286,0.0018574690002091,-0.0018574695744418,0.0018574671452312,-0.0018574687473677,0.0018574681598371,-0.0018574711768477,0.001857466304922,-0.0014414888447042,0.0014414923789899,-0.0014414959665153,0.0014414869566822,-0.00150383437511,0.0015038342554159,-0.0015038381617919,0.0015038309175952,1.5111621811797e-09,1.511157903031e-09,-0.00078321942744791,0.0007832222547375,-1.9057422326477e-09,4.4971393101005e-09,-0.00090051414060638,0.00090051435962395,-0.00090051199802308,0.00090051649984252,-0.00090051418746,0.00090051440636458,-0.00090051204810382,0.00090051654984603,-0.00080622232580691,0.00080622780950176,-0.00080622238816145,0.00080622787182568,0.52521873377382,122718,2924,0.0040483327138835,0.0069567979674226,0.0032604323475988,21.978556848772,9.1028454790177e-05,9.1028454790177e-05,9.1028454790177e-05,3293471.6414235,0.014368275381804
18419200,0.99852971738353,0.015330494273579,0.0048164889271119,0.0063511777579043,0.0041628275885632,-0.00095899296519395,0.00095899572401757,1.0629840898378e-09,1.0629788821578e-09,-9.0239801739309e-10,2.9707230595085e-09,-0.0010881353238046,0.0010881361915107,-0.0010881352694463,0.0010881361371091,-0.0010881340810947,0.0010881374888782,-0.0010881340253395,0.0010881374331217,-0.00089616776336905,0.00089617131103093,-0.00089616774913771,0.00089617129678377,1.1221306518553e-09,-2.7221862337556e-09,2.6499156707188e-09,-4.1926914774475e-09,-0.0016710942601589,0.0016710927119749,-0.001852574583598,0.0018525766432828,-0.0018525769512544,0.0018525744135024,-0.0018525760909744,0.0018525755621034,-0.0018525784586975,0.0018525733323856,-0.0014368848080874,0.0014368886775615,-0.0014368922533914,0.0014368827209979,-0.0014987316436735,0.0014987315409773,-0.0014987355055534,0.0014987278910269,2.4599805585914e-09,2.4599763008832e-09,-0.00077031661798733,0.00077032189854109,-1.175377709959e-09,5.6878936523681e-09,-0.00089067770504371,0.00089067987154868,-0.00089067540492735,0.00089068216734664,-0.00089067763497527,0.00089067980136718,-0.00089067533997931,0.00089068210232122,-0.00079303564488315,0.00079304329547778,-0.00079303569306814,0.00079304334363174,0.50516361584657,122718,2924,0.0039888849587615,0.0069377866378262,0.0032068978933697,17.483017833859,5.506414267087e-05,5.506414267087e-05,5.506414267087e-05,3218291.3828859,0.014234411417122
19419200,0.99878856889067,0.015334525722952,0.0048176654226268,0.006352886933282,0.0041639733670429,-0.00095784785182694,0.00095784779337339,3.8272565082496e-11,3.8267332276075e-11,-1.8971621826667e-09,1.9416415568891e-09,-0.0010865692613844,0.0010865677383345,-0.0010865692020794,0.0010865676789862,-0.0010865680314393,0.0010865690233264,-0.0010865679707285,0.0010865689626142,-0.00089513066362938,0.00089513183734891,-0.00089513064980254,0.00089513182350617,1.1148165817951e-09,-2.7456346124237e-09,2.65292081809e-09,-4.2260457880256e-09,-0.0016715855053443,0.0016715839268358,-0.001853486199047,0.0018534882463578,-0.0018534885720652,0.001853485997641,-0.0018534877065817,0.0018534871542115,-0.0018534900796666,0.0018534849055573,-0.001437017670474,0.0014370215400486,-0.0014370251590938,0.0014370155553299,-0.0014988611013121,0.001498860971631,-0.0014988649828257,0.0014988573096922,6.9352946788611e-10,6.9352518132588e-10,-0.00076939109882216,0.00076939179369971,-2.8911317317337e-09,3.917578731851e-09,-0.00088931165690713,0.00088930980167683,-0.00088930937699696,0.00088931207718003,-0.00088931158340128,0.00088930972805803,-0.00088930930870759,0.0008893120088133,-0.00079220125868312,0.00079220489651208,-0.00079220130783426,0.00079220494563222,0.65325215552177,122718,2924,0.0039841270726381,0.0069398256644379,0.0032030420365294,17.551533867283,5.5612270938263e-05,5.5612270938263e-05,5.5612270938263e-05,3205718.6694104,0.01422773790134
20419200,0.99901382780382,0.015338284178601,0.0048187601253626,0.0063544841286848,0.0041650399245533,-0.00095071578913267,0.00095071413982746,-5.779769250105e-10,-5.7798210887816e-10,-2.4719258130121e-09,1.2392651328891e-09,-0.001084548265224,0.0010845454423378,-0.0010845486750407,0.0010845458521116,-0.0010845470841657,0.0010845466844797,-0.0010845474844803,0.0010845470847929,-0.00088900814797912,0.00088900805585767,-0.00088900830572872,0.00088900821359225,1.1100900507757e-09,-2.6129452394636e-09,2.625218683136e-09,-4.0725998811045e-09,-0.0016798840835891,0.0016798826308328,-0.0018611954394127,0.0018611974614908,-0.0018611982346821,0.0018611958095504,-0.0018611972562876,0.0018611968042902,-0.0018612000516235,0.0018611951524119,-0.0014455819298971,0.0014455858062562,-0.0014455895290506,0.0014455802709911,-0.0015065533387134,0.0015065532748713,-0.0015065573680877,0.0015065500200546,-7.838605840384e-11,-7.8390312170949e-11,-0.00076602659617032,0.00076602537531203,-3.5989874289927e-09,3.0601518260662e-09,-0.00089091685853855,0.00089091342496099,-0.00089091463642879,0.00089091564772036,-0.00089091707948683,0.00089091364579647,-0.00089091485754411,0.00089091586875811,-0.00078829097381752,0.00078829306899756,-0.0007882909256893,0.0007882930208377,0.70012779305904,122718,2924,0.0039546036975717,0.0069740557004059,0.0031891376224457,18.596144682744,6.3969157461951e-05,6.3969157461951e-05,6.3969157461951e-05,3036787.1753554,0.014218438059253
21419200,0.99916711836182,0.015340661908043,0.0048194512368258,0.0063554909365133,0.0041657197347037,-0.00093795314021005,0.00093795520845395,7.9135210273279e-10,7.9134689461605e-10,-1.1409314615936e-09,2.6786652619679e-09,-0.0010733407101958,0.0010733409779889,-0.0010733407549074,0.0010733410226576,-0.0010733394870697,0.0010733422570229,-0.0010733395281352,0.0010733422980874,-0.00087685059940898,0.00087685356133435,-0.0008768506293923,0.00087685359130241,1.130227240216e-09,-2.6676044159574e-09,2.707115113021e-09,-4.187847252494e-09,-0.0016766921858613,0.0016766906998108,-0.0018590473548593,0.0018590494687228,-0.0018590498158988,0.001859047310703,-0.0018590488906813,0.0018590484530372,-0.0018590513517871,0.0018590462950798,-0.001440981873541,0.0014409858755403,-0.0014409893841116,0.0014409798763681,-0.0015011750233995,0.0015011749240353,-0.0015011788586863,0.0015011713357394,1.9593755035263e-09,1.9593712759348e-09,-0.00075501979860576,0.00075502384563727,-1.6820151715911e-09,5.220767332774e-09,-0.00088157477824577,0.00088157581612142,-0.00088157246772944,0.00088157812373439,-0.00088157475968347,0.00088157579744638,-0.0008815724530311,0.00088157810895858,-0.00077668203974528,0.00077668865716554,-0.0007766820600556,0.00077668867744407,0.64990944923706,122718,2924,0.0039016841601404,0.0069608206936739,0.0031434705702095,15.229369680278,3.7034957442226e-05,3.7034957442226e-05,3.7034957442226e-05,2982331.4997249,0.014105039038926
22419200,0.99929398528744,0.015342682211186,0.0048200401162049,0.0063563409476029,0.0041663011473785,-0.00093664022803544,0.00093664048437901,1.4019250102599e-10,1.4018726246187e-10,-1.7738227112242e-09,2.0230866434447e-09,-0.00107053338841,0.001070532142601,-0.0010705334271607,0.0010705321813087,-0.0010705321737076,0.0010705334135713,-0.0010705322088493,0.0010705334487118,-0.00087552044198622,0.00087552188653953,-0.00087552047243399,0.00087552191697196,1.1105876389864e-09,-2.6956802174668e-09,2.6927663843059e-09,-4.2209232892203e-09,-0.0016755034625092,0.0016755019291017,-0.0018585415070556,0.0018585435833608,-0.0018585439686786,0.0018585414131127,-0.0018585430414679,0.0018585425600664,-0.0018585455031573,0.0018585403898805,-0.0014392461906519,0.0014392501608929,-0.001439253728859,0.0014392441526017,-0.0014994606295559,0.0014994604842029,-0.0014994644799763,0.0014994568948932,8.2853993142383e-10,8.2853566886287e-10,-0.00075354428734939,0.00075354538025517,-2.778990063967e-09,4.0842327615074e-09,-0.00087868737809627,0.00087868584992879,-0.00087868508201126,0.00087868814293073,-0.0008786873555221,0.00087868582724182,-0.00087868506344151,0.00087868812428359,-0.00077526268230365,0.00077526672161603,-0.00077526270260519,0.0007752667418859,0.66642562144511,122718,2924,0.0038962195195198,0.0069559312436711,0.0031373204510526,14.859435723234,3.4075485785875e-05,3.4075485785875e-05,3.4075485785875e-05,2999108.9188484,0.01408829107215
23419200,0.99940663563698,0.01534437338655,0.0048205317578554,0.00635705524847,0.0041667863802245,-0.0009356242477445,0.00093562286710228,-4.7128393318758e-10,-4.7128916355663e-10,-2.2763867891998e-09,1.2226424725823e-09,-0.0010693751731908,0.0010693726812162,-0.0010693755928639,0.0010693731008464,-0.0010693740618214,0.0010693738519407,-0.0010693744711968,0.001069374261315,-0.00087437393627727,0.0008743740874085,-0.00087437399531313,0.0008743741464294,1.0095926542845e-09,-2.4980514013621e-09,2.5183444067776e-09,-3.9541924695461e-09,-0.0016787568985988,0.0016787554578402,-0.0018636573617265,0.0018636592457404,-0.0018636600936255,0.0018636576853786,-0.001863659115489,0.001863658669867,-0.0018636618474541,0.0018636571095675,-0.0014408715899404,0.0014408753331776,-0.0014408788878677,0.0014408699314795,-0.0015007505104126,0.0015007503259518,-0.0015007542879162,0.0015007472409684,4.3612537225748e-11,4.3608292678946e-11,-0.00075350734866528,0.00075350643701557,-3.3763898234027e-09,3.060502383991e-09,-0.00087860060025294,0.00087859753278949,-0.00087859845464567,0.0008785996798563,-0.00087860082063264,0.00087859775305609,-0.00087859867471965,0.00087859989985282,-0.00077465673920559,0.00077465913379229,-0.00077465677133412,0.00077465916588926,0.62875729639221,122718,2924,0.0038920176903266,0.0069693997938991,0.0031371745434155,15.704778044964,4.0838224359711e-05,4.0838224359711e-05,4.0838224359711e-05,2957459.0920475,0.014097542926032
24419200,0.99951296956806,0.01534605749518,0.0048210229947977,0.0063577623947119,0.0041672721056708,-0.000939946240951,0.00093994371489154,-8.9650060838577e-10,-8.9650583884053e-10,-2.5806879114396e-09,6.5325648881562e-10,-0.0010723857591666,0.0010723823874481,-0.0010723863006716,0.0010723829289102,-0.0010723847353757,0.0010723834693363,-0.0010723852648653,0.0010723839988246,-0.00087856829846937,0.00087856745300505,-0.00087856836639167,0.00087856752091193,9.1297651757643e-10,-2.3403250562054e-09,2.3363750463461e-09,-3.7147034160664e-09,-0.0016825830684567,0.0016825816855765,-0.0018684885603025,0.0018684902671893,-0.0018684912906609,0.0018684889973564,-0.0018684903349069,0.0018684898884693,-0.0018684930653315,0.0018684886186987,-0.001443915932656,0.0014439194080314,-0.0014439228863243,0.0014439144844253,-0.0015037541222639,0.0015037538903334,-0.0015037577251357,0.0015037511299293,-5.9176696869002e-10,-5.9177122755991e-10,-0.00075790045050174,0.00075789790796881,-3.8003803569888e-09,2.2020106750358e-09,-0.00088174478327715,0.00088174044245976,-0.00088174278509141,0.0008817424435887,-0.00088174508167658,0.00088174074074631,-0.00088174308182763,0.00088174274024791,-0.00077891595048424,0.00077891685318411,-0.00077891598693286,0.00077891688960123,0.66255127740754,122718,2924,0.0039099457919003,0.0069852591917279,0.0031554052311017,17.879139880874,5.8233119046991e-05,5.8233119046991e-05,5.8233119046991e-05,2959570.9827353,0.014150288229887
25419200,0.99960991868557,0.015347866447801,0.0048215531655361,0.0063585172173662,0.0041677960648987,-0.00094132314813699,0.00094132070537993,-8.6702213032642e-10,-8.6702735175359e-10,-2.5400705573785e-09,6.7058548277969e-10,-0.0010749795034376,0.0010749762071629,-0.0010749800463006,0.0010749767499833,-0.0010749784868369,0.0010749772812029,-0.0010749790178045,0.001074977812169,-0.00088015918905493,0.00088015840584085,-0.00088015925698401,0.00088015847375481,9.1180159344015e-10,-2.3171368600595e-09,2.3259001091718e-09,-3.6827171053439e-09,-0.0016875614670077,0.0016875601056515,-0.0018733514013135,0.0018733531078911,-0.0018733541182062,0.0018733518520497,-0.0018733531680024,0.0018733527370572,-0.0018733558849617,0.001873351481278,-0.0014489708950348,0.0014489743583756,-0.0014489778042077,0.0014489694735071,-0.0015087393695072,0.0015087391497163,-0.0015087429453817,0.0015087364102095,-5.4894698051715e-10,-5.4895122362282e-10,-0.00076032857739788,0.00076032615092195,-3.7390103409183e-09,2.2241427635802e-09,-0.0008852537743857,0.00088524954591522,-0.00088525178908062,0.00088525153421564,-0.00088525407358544,0.00088524984500267,-0.00088525208659156,0.00088525183164944,-0.00078131303599398,0.00078131402571792,-0.0007813130732304,0.00078131406292305,0.77991302017261,122718,2924,0.0039156792080655,0.0070058314022663,0.0031655033968402,19.924258304153,7.4594066433222e-05,7.4594066433222e-05,7.4594066433222e-05,2893276.2934655,0.014187214375852
26419200,0.99968942193548,0.015349444519799,0.0048220159849037,0.0063591740223309,0.0041682545125643,-0.0009351321452362,0.00093513108560449,-3.6224127271159e-10,-3.6224648570882e-10,-1.9810443940896e-09,1.1531650888628e-09,-0.0010732465368052,0.0010732444102961,-0.0010732469279092,0.0010732448013573,-0.0010732455400753,0.0010732454590169,-0.0010732459229344,0.0010732458418747,-0.00087514626209882,0.00087514653257409,-0.00087514633054728,0.00087514660100784,9.0292873976444e-10,-2.2378223046823e-09,2.2673479104895e-09,-3.5555588278243e-09,-0.0016934967714655,0.0016934954789237,-0.0018779051107113,0.0018779068143221,-0.0018779075958377,0.0018779054261675,-0.0018779067135031,0.0018779063224753,-0.0018779091986955,0.0018779049343828,-0.0014559340421831,0.0014559374144187,-0.0014559406807532,0.0014559326321816,-0.0015144832170613,0.0015144830362791,-0.0015144866017456,0.0015144802849081,1.7631121090177e-10,1.7630700103038e-10,-0.00075767121326663,0.00075767067805605,-2.9249865129934e-09,2.8723990013403e-09,-0.00088697977971539,0.00088697722555,-0.00088697784464206,0.00088697916187604,-0.00088697997960143,0.00088697742532303,-0.00088697804460158,0.0008869793617581,-0.00077793547303593,0.00077793794557635,-0.00077793549756553,0.00077793797007395,0.82922923068302,122718,2924,0.0038900554682434,0.0070302941920221,0.0031545256622765,20.39358062836,7.8348645026884e-05,7.8348645026884e-05,7.8348645026884e-05,2783563.2298265,0.014174926870821
27419200,0.99975875340418,0.015350685723726,0.0048223790577473,0.0063596899878493,0.0041686166781291,-0.00093410571541785,0.00093410346512058,-8.0423339345717e-10,-8.0423860738015e-10,-2.345146549822e-09,6.1174124172498e-10,-0.0010732790191702,0.0010732759523705,-0.0010732795385156,0.0010732764716733,-0.001073278082319,0.0010732769413218,-0.001073278591493,0.001073277450495,-0.0008745747099584,0.00087457397699677,-0.00087457479344021,0.00087457406046377,8.4613498059833e-10,-2.127666602834e-09,2.1322770941631e-09,-3.3692672942557e-09,-0.0016991561744025,0.0016991549332929,-0.0018842757222988,0.0018842773031,-0.0018842782424396,0.0018842761773981,-0.0018842773772811,0.0018842769835019,-0.0018842798974877,0.0018842758578622,-0.0014608733302507,0.0014608764981805,-0.0014608797240287,0.0014608720962512,-0.0015188565396427,0.0015188563579182,-0.0015188598370766,0.0015188538448735,-4.8838497451251e-10,-4.8838919301599e-10,-0.00075871211073849,0.00075870987133034,-3.4269288443232e-09,2.0358606320647e-09,-0.00088901778113391,0.00088901386590824,-0.00088901596038567,0.00088901568943776,-0.00088901806258028,0.00088901414724213,-0.00088901624047482,0.00088901596944989,-0.00077853115547649,0.00077853210792187,-0.00077853118110555,0.00077853213351772,0.74718867332313,122718,2924,0.0038858245807563,0.0070536883665119,0.003158865362386,22.250737180384,9.3205897443075e-05,9.3205897443075e-05,9.3205897443075e-05,2717877.6010063,0.014198766473478
28419200,0.99981573945153,0.01535184767323,0.0048227215010095,0.0063601670201572,0.0041689591520632,-0.00093754007823367,0.00093753841122289,-5.8670950103042e-10,-5.8671473633682e-10,-2.0975344310405e-09,7.9944927543222e-10,-0.0010735064921382,0.0010735039525872,-0.0010735069457506,0.0010735044061569,-0.0010735055726417,0.0010735049220949,-0.0010735060175573,0.0010735053670097,-0.00087754109800573,0.00087754081231959,-0.00087754117314714,0.0008775408874463,8.0301045893463e-10,-2.1047651551634e-09,2.0311392627956e-09,-3.2890565167576e-09,-0.0017000027447916,0.0017000014829215,-0.0018874323667504,0.0018874338532539,-0.0018874347612074,0.0018874327121946,-0.001887433947551,0.0018874334962991,-0.001887436342074,0.0018874323553017,-0.0014598235040108,0.0014598264920652,-0.0014598296965343,0.001459822248538,-0.0015179323087513,0.0015179320982828,-0.0015179355165265,0.0015179296291749,-1.7123314312149e-10,-1.7123738315372e-10,-0.00076136050600188,0.00076135908223706,-3.0262128939498e-09,2.2633683082722e-09,-0.00088872548091902,0.00088872234044367,-0.00088872371606902,0.00088872410735384,-0.00088872571854802,0.00088872257795982,-0.00088872395319841,0.0008887243444059,-0.00078102625707229,0.00078102782820298,-0.00078102628337939,0.00078102785447779,0.8493285419621,122718,2924,0.0039000531761791,0.0070572604031231,0.0031698395149788,23.440407688268,0.00010272326150614,0.00010272326150614,0.00010272326150614,2755201.197611,0.014227932339361
29419200,0.99986204433282,0.01535252240603,0.004822917272932,0.0063604500880015,0.004169155045096,-0.00093473468009913,0.00093473289337023,-6.3444860454718e-10,-6.3445379103976e-10,-2.1089509440055e-09,7.2093766111403e-10,-0.0010742115371844,0.001074208903827,-0.0010742120094763,0.0010742093760761,-0.0010742106390661,0.0010742098505177,-0.0010742111028063,0.0010742103142569,-0.00087547303962764,0.00087547262934082,-0.00087547312652463,0.00087547271622364,7.9756199573438e-10,-2.0451048020109e-09,1.9673537786925e-09,-3.1725018039535e-09,-0.0017059580825437,0.0017059568735375,-0.0018922085074724,0.001892209964945,-0.0018922108583583,0.0018922088994313,-0.0018922100767119,0.0018922096400506,-0.0018922124276635,0.0018922085745989,-0.0014667935667199,0.0014667964522777,-0.0014667995846808,0.001466792388128,-0.0015241454939216,0.0015241453336101,-0.001524148635037,0.0015241429257445,-2.5988893976246e-10,-2.5989318566216e-10,-0.00076129948922183,0.00076129785150715,-3.0233914981121e-09,2.0863739003832e-09,-0.00089198966847869,0.00089198638911371,-0.00089198796329965,0.00089198809661725,-0.00089198991778157,0.00089198663830359,-0.0008919882118198,0.0008919883450606,-0.00078048325966831,0.00078048458329944,-0.00078048327892039,0.00078048460251892,0.60881578646039,122718,2924,0.0038884610276986,0.0070818240272151,0.0031696224209013,24.779251277488,0.0001134340102199,0.0001134340102199,0.0001134340102199,2654395.2028489,0.014240888297999
30419200,0.99989887969823,0.015352977160547,0.0048230494612815,0.0063606397310048,0.0041692879682608,-0.00094581980186457,0.00094581799221971,-6.3521442240932e-10,-6.3521970528544e-10,-2.1006954788238e-09,6.9012179931157e-10,-0.0010767610825743,0.0010767584830981,-0.0010767615454617,0.0010767589459427,-0.0010767601967213,0.0010767594173887,-0.0010767606512708,0.0010767598719374,-0.00088508958911743,0.00088508916273437,-0.00088508966125822,0.00088508923486037,7.386525279076e-10,-2.0630611522215e-09,1.8397930659377e-09,-3.1217560518484e-09,-0.0017024543088924,0.0017024530232165,-0.0018929338037705,0.0018929351134283,-0.00189293610215,0.0018929341125488,-0.0018929353648277,0.0018929348063736,-0.0018929376632731,0.0018929338055558,-0.0014598046323346,0.0014598072792867,-0.0014598104996795,0.0014598034150104,-0.0015182416362247,0.0015182414160737,-0.0015182447685486,0.0015182390820264,-2.5032984812439e-10,-2.5033410309734e-10,-0.00076817173227416,0.00076817010042958,-2.933853044774e-09,1.9971662812315e-09,-0.00089081297213218,0.00089080978816522,-0.00089081132664535,0.00089081143585826,-0.00089081321504825,0.00089081003096847,-0.00089081156907487,0.00089081167821054,-0.00078779271164084,0.00078779399579338,-0.00078779274094321,0.00078779402506379,0.51512748248588,122718,2924,0.0039343712182347,0.0070675096199616,0.0031980806995644,26.129936652357,0.00012423949321885,0.00012423949321885,0.00012423949321885,2824490.5881758,0.014301752942357
31419200,0.99992869877315,0.01535345219767,0.0048231889669234,0.0063608363490313,0.0041694268817156,-0.00095541886113965,0.00095541616913924,-9.6265653782526e-10,-9.6266182376769e-10,-2.3610581182161e-09,2.8078946372168e-10,-0.0010844423810049,0.0010844390678877,-0.0010844429383615,0.0010844396252012,-0.0010844415449654,0.0010844399517723,-0.0010844420926657,0.0010844404994717,-0.00089405748132394,0.00089405630812311,-0.00089405754764358,0.00089405637442746,6.9142031714275e-10,-1.9709556710689e-09,1.6922771890935e-09,-2.9317894459037e-09,-0.0017044922516457,0.001704491008584,-0.0018947042138469,0.001894705398712,-0.0018947065096755,0.0018947046288444,-0.0018947058118015,0.0018947052284307,-0.0018947081076962,0.0018947044586252,-0.0014625046608914,0.0014625070686752,-0.0014625102412583,0.0014625035756703,-0.0015213637374372,0.0015213635393367,-0.0015213667804552,0.0015213613880438,-7.3793234027648e-10,-7.3793658342627e-10,-0.00077613924819485,0.00077613636501101,-3.2525460050698e-09,1.3310433536293e-09,-0.0008969225231856,0.00089691834680772,-0.00089692099564299,0.00089691987773791,-0.00089692282855965,0.00089691865206891,-0.00089692129931935,0.00089692018133711,-0.00079588622184631,0.00079588635941364,-0.00079588626283482,0.00079588640037038,0.66479676253864,122718,2924,0.0039741703811217,0.0070759801436112,0.0032311321052936,28.43760590681,0.00014270084725448,0.00014270084725448,0.00014270084725448,2880060.1032936,0.014384233681745
32419200,0.99995048525865,0.015353861060973,0.0048233091697519,0.0063610057615822,0.004169546129639,-0.000950504082223,0.00095050267587177,-4.8915688989793e-10,-4.8916213735987e-10,-1.89614828826e-09,7.9644494638888e-10,-0.0010864286132161,0.0010864263550041,-0.0010864290380624,0.0010864267798074,-0.0010864277568788,0.0010864272559347,-0.0010864281751955,0.0010864276742497,-0.00089049726542662,0.00089049711613447,-0.00089049734118176,0.00089049719187517,7.3742209340829e-10,-1.9647344351822e-09,1.7107355123809e-09,-2.8980570256413e-09,-0.0017110651752058,0.0017110639842675,-0.0018976432201056,0.0018976444813387,-0.0018976453588803,0.0018976435440532,-0.0018976447137884,0.0018976441680264,-0.0018976468526288,0.0018976432308023,-0.0014721077240987,0.0014721101499337,-0.0014721132143559,0.0014721066046594,-0.0015299888639254,0.0015299887578973,-0.0015299918510995,0.0015299864763169,-5.1423385080296e-11,-5.1427574511135e-11,-0.00077470121690786,0.0007747001133938,-2.5619777766317e-09,2.0260400894754e-09,-0.00090209584155931,0.00090209320423156,-0.00090209430782523,0.00090209473970311,-0.00090209606322683,0.00090209342578666,-0.00090209452933322,0.00090209496113436,-0.00079410781057887,0.00079410940027238,-0.00079410783325995,0.00079410942292101,0.7835582016357,122718,2924,0.0039538521346599,0.0071030262614678,0.0032252306035155,29.295105782261,0.00014956084625809,0.00014956084625809,0.00014956084625809,2730140.5364019,0.014385109103888
33419200,0.99996562865689,0.015354155241013,0.0048233958116186,0.006361126722555,0.004169632706839,-0.00094399490475434,0.00094399425528227,-2.2155350635239e-10,-2.2155895033153e-10,-1.8135748358204e-09,1.2865330568276e-09,-0.0010836646648387,0.0010836629126949,-0.0010836650373659,0.0010836632851776,-0.0010836636763509,0.0010836639502129,-0.001083664042612,0.0010836643164841,-0.00088525591827878,0.00088525646014453,-0.00088525606399588,0.00088525660585082,8.8593890802743e-10,-2.2166196157335e-09,1.8954906482383e-09,-3.1804191545544e-09,-0.0017142867934277,0.0017142855043465,-0.0018997994936587,0.0018998009491771,-0.0018998017131932,0.0018997997777435,-0.0018998010597526,0.0018998004410689,-0.0018998032793724,0.0018997992696986,-0.0014759486635392,0.0014759513131869,-0.0014759546082369,0.0014759473114703,-0.0015330470020597,0.0015330470309126,-0.0015330503648931,0.0015330443377791,3.3818173350077e-10,3.3817758411282e-10,-0.00077088012656997,0.000770880065078,-2.3945419490342e-09,2.6664200721576e-09,-0.00090182221047911,0.00090182032642511,-0.00090182051745986,0.0009018220205387,-0.00090182239695237,0.00090182051278239,-0.00090182070431089,0.00090182220731309,-0.00078997452184476,0.0007899770838419,-0.00078997447716448,0.00078997703914905,0.80945760226261,122718,2924,0.0039268949202863,0.0071162716277089,0.0032094070779654,29.317284739854,0.00014973827791884,0.00014973827791884,0.00014973827791884,2618107.2933424,0.014355165255098
34419200,0.99997708835129,0.015354357271146,0.0048234552445496,0.0063612096253731,0.0041696924012237,-0.00094470150624927,0.00094469899598617,-9.0063924220335e-10,-9.0064461369642e-10,-2.422392078833e-09,4.9344126629626e-10,-0.0010847892961437,0.0010847860295221,-0.0010847898503951,0.0010847865837305,-0.0010847883723782,0.0010847870040894,-0.001084788916999,0.001084787548709,-0.0008859344510016,0.00088593349801331,-0.00088593455020515,0.00088593359720219,8.2765031343928e-10,-2.1071966481771e-09,1.8035457173281e-09,-3.0392712414675e-09,-0.0017201237860988,0.0017201225463837,-0.0019067252733793,0.0019067266242996,-0.0019067276171316,0.0019067257567393,-0.0019067269385165,0.0019067263426588,-0.0019067292823347,0.0019067254751602,-0.0014807292728547,0.0014807318085394,-0.0014807350455796,0.0014807280790787,-0.0015374792809023,0.0015374792814413,-0.0015374825591321,0.001537476825556,-6.8352292968192e-10,-6.8352699564595e-10,-0.00077346077952411,0.00077345805962866,-3.2979005109914e-09,1.5071055083362e-09,-0.00090467386507982,0.00090466974978336,-0.00090467226305001,0.00090467135512942,-0.00090467416676066,0.00090467005135168,-0.0009046725629523,0.00090467165495472,-0.00079217970587286,0.00079218003058606,-0.00079217972311,0.0007921800477904,0.73398852679868,122718,2924,0.0039298487644015,0.0071404168544778,0.0032201350806206,31.481616070654,0.00016705292856523,0.00016705292856523,0.00016705292856523,2583599.6909013,0.014393536391691
35419200,0.99998607590774,0.015354497514163,0.0048234964152342,0.0063612672108337,0.0041697338880947,-0.00095510396849474,0.00095509929977339,-1.7006198280882e-09,-1.7006252388467e-09,-3.0271094187767e-09,-5.4825408156709e-10,-0.0010921604645076,0.0010921555068195,-0.0010921612467344,0.0010921562890035,-0.0010921596863944,0.0010921563345447,-0.0010921604555236,0.0010921571036731,-0.00089592674781615,0.00089592394727009,-0.0008959268401741,0.00089592403961339,6.7556125436152e-10,-1.8427977592934e-09,1.5200214985043e-09,-2.6491077875755e-09,-0.0017268856490411,0.0017268845164879,-0.0019153157879032,0.0019153168621211,-0.0019153181688792,0.001915316504328,-0.001915317515985,0.0019153169359706,-0.0019153198970271,0.0019153165782393,-0.0014861427835588,0.0014861449112299,-0.0014861480103673,0.0014861419475835,-0.0015429131466546,0.0015429130783186,-0.0015429161478856,0.0015429111607416,-1.8598322630775e-09,-1.8598363267769e-09,-0.00078337063376976,0.00078336488619475,-4.1367507144876e-09,-3.0441801136004e-11,-0.0009118270060799,0.00091182047682069,-0.0009118256423602,0.00091182184664061,-0.00091182745550099,0.00091182092612906,-0.0009118260873734,0.00091182229157682,-0.00080183644571306,0.00080183405104162,-0.00080183649078025,0.00080183409607627,0.64952121200817,122718,2924,0.0039729881792528,0.0071684562865885,0.0032612536548342,35.928267063176,0.00020262613650541,0.00020262613650541,0.00020262613650541,2608657.7063095,0.01450743948834
36419200,0.99999183021486,0.01535459171395,0.0048235241678632,0.0063613057358859,0.0041697618102006,-0.000961064317399,0.00096106226228544,-7.3297150943675e-10,-7.329769425279e-10,-2.0570189113427e-09,4.5029351419518e-10,-0.0010955763536939,0.0010955736156938,-0.0010955768474442,0.0010955741094013,-0.0010955755582078,0.001095574454394,-0.0010955760449048,0.0010955749410902,-0.0009013964621323,0.00090139573888126,-0.00090139654014289,0.00090139581687678,6.656064801201e-10,-1.8559004103988e-09,1.4778078491611e-09,-2.6301726665599e-09,-0.0017279835314948,0.0017279823757926,-0.0019174515160089,0.0019174525817626,-0.0019174535698982,0.0019174518968202,-0.0019174530070463,0.0019174523893514,-0.0019174550610016,0.0019174517044708,-0.0014865665070634,0.001486568538536,-0.0014865715466474,0.0014865655228614,-0.0015435969651139,0.0015435968854384,-0.0015435998219028,0.0015435948281617,-4.3180140051362e-10,-4.3180546174249e-10,-0.00078808673730736,0.00078808467274352,-2.6962151338902e-09,1.3857996958441e-09,-0.00091421695675784,0.0009142136526433,-0.00091421559280777,0.00091421501922569,-0.0009142172196638,0.0009142139154365,-0.00091421585485555,0.00091421528119647,-0.00080656409778082,0.00080656472445237,-0.0008065641274147,0.00080656475405372,0.6811981079479,122718,2924,0.003997697627097,0.0071730515658203,0.0032808175796411,37.480019530909,0.00021504015624727,0.00021504015624727,0.00021504015624727,2653995.7066424,0.014557006156195
37419200,0.99999522870599,0.015354645158748,0.0048235398742458,0.006361327701007,0.0041697775834954,-0.00095978139520814,0.00095978060785828,-2.6187526163684e-10,-2.6188067946886e-10,-1.6506166102257e-09,1.0128709536641e-09,-0.0010961589475234,0.0010961572341883,-0.001096159308388,0.0010961575950099,-0.0010961580983222,0.0010961581255753,-0.0010961584545715,0.0010961584818236,-0.00090042405420318,0.000900424382746,-0.00090042413884528,0.00090042446737351,7.2003266079058e-10,-1.946198127042e-09,1.5489355754343e-09,-2.7354447622167e-09,-0.0017296881847751,0.0017296869947772,-0.0019181117919014,0.0019181129442929,-0.0019181137548979,0.0019181120341436,-0.001918113215116,0.001918112577243,-0.0019181151781785,0.0019181116671556,-0.001489202937252,0.0014892050541195,-0.0014892080861743,0.0014892018087732,-0.0015459767932894,0.001545976757376,-0.0015459797153826,0.0015459744844653,2.556066198491e-10,2.5560257609028e-10,-0.00078774952334131,0.00078774922715988,-2.0996004751467e-09,2.1748802593467e-09,-0.00091563294732697,0.00091563112273019,-0.00091563151551593,0.00091563255558691,-0.00091563312449998,0.00091563129979041,-0.00091563169336333,0.00091563273335737,-0.00080611765906531,0.00080611980059835,-0.00080611767050321,0.00080611981200389,0.65495763090949,122718,2924,0.0039923966600888,0.0071800631461921,0.0032794366317883,37.680345096714,0.00021664276077371,0.00021664276077371,0.00021664276077371,2613956.8160361,0.014557351651583
38419200,0.99999718213658,0.015354679386822,0.004823549984753,0.0063613416562686,0.0041697877458,-0.00095893542408269,0.00095893528658151,-1.7890334894535e-11,-1.7895758452826e-11,-1.4848249437073e-09,1.3455325451397e-09,-0.0010949111372684,0.0010949099301433,-0.0010949114289897,0.0010949102218217,-0.0010949102329625,0.0010949108775923,-0.0010949105210404,0.0010949111656692,-0.00089955649138356,0.00089955739398654,-0.00089955657423111,0.00089955747681932,7.6884252191812e-10,-2.0576005257752e-09,1.6343899149218e-09,-2.8811561773035e-09,-0.0017285699473188,0.0017285686968774,-0.0019172998968666,0.0019173011251054,-0.0019173018595462,0.0019173000540719,-0.0019173013139049,0.0019173006411398,-0.0019173032766504,0.0019172995701681,-0.001487780552569,0.0014877827805558,-0.0014877858964055,0.0014877792793471,-0.0015445966184774,0.0015445965995251,-0.0015445996631399,0.0015445941350622,6.1391317730031e-10,6.1390912845341e-10,-0.00078673251097292,0.00078673312957846,-1.8581604195923e-09,2.6546608287418e-09,-0.00091424569931165,0.00091424460157352,-0.00091424418659699,0.00091424611448152,-0.00091424583147981,0.00091424473362891,-0.00091424432026919,0.00091424624807667,-0.00080514691361779,0.00080514989188731,-0.00080514691988446,0.00080514989812143,0.72891346290552,122718,2924,0.0039888841239586,0.007175445285729,0.0032752132954739,37.196088016722,0.00021276870413378,0.00021276870413378,0.00021276870413378,2622339.1716399,0.014544815484783
38880000,0.99999786427966,0.015354691607788,0.0048235535939407,0.0063613466416797,0.0041697913721676,-0.00095573527737059,0.00095573473552044,-1.7236688614634e-10,-1.723730386217e-10,-1.6431565207238e-09,1.203092914102e-09,-0.0010939760187318,0.0010939744402887,-0.0010939763460134,0.0010939747675779,-0.0010939751100027,0.0010939753929804,-0.0010939754329324,0.0010939757159074,-0.00089668347493621,0.00089668403489821,-0.00089668358637651,0.0008966841462236,7.8776180280002e-10,-2.0596017502862e-09,1.658836457979e-09,-2.8884683298635e-09,-0.0017304691491829,0.0017304679158114,-0.0019186086316088,0.0019186098910132,-0.0019186106354918,0.0019186088440661,-0.0019186100763955,0.0019186094235785,-0.0019186120803934,0.0019186083767411,-0.0014901230642288,0.0014901253339865,-0.0014901284634857,0.0014901218253653,-0.0015467453432604,0.0015467453521262,-0.0015467484266031,0.0015467428844654,3.7423185040032e-10,3.7422786227216e-10,-0.00078503242755941,0.00078503243779998,-2.1049579788904e-09,2.4328190765187e-09,-0.00091455808031513,0.0009145564217128,-0.00091455655997239,0.00091455794268239,-0.00091455823403431,0.00091455657527606,-0.00091455671481491,0.00091455809742277,-0.00080339676568691,0.00080339921735133,-0.00080339675350186,0.00080339920532044,0.74537476942469,122718,2924,0.0039756354040027,0.0071832521846148,0.0032681784673209,37.193650549537,0.0002127492043963,0.0002127492043963,0.0002127492043963,2558999.5324657,0.014532170267276
