time,ASR_ext,ASR_strain,ASR_strain_xx,ASR_strain_yy,ASR_strain_zz,disp_x_101,disp_x_102,disp_x_103,disp_x_104,disp_x_105,disp_x_106,disp_x_p1_neg,disp_x_p1_pos,disp_x_p2_neg,disp_x_p2_pos,disp_x_p3_neg,disp_x_p3_pos,disp_x_p4_neg,disp_x_p4_pos,disp_x_p5_neg,disp_x_p5_pos,disp_x_p6_neg,disp_x_p6_pos,disp_y_101,disp_y_102,disp_y_103,disp_y_104,disp_y_105,disp_y_106,disp_y_p1_neg,disp_y_p1_pos,disp_y_p2_neg,disp_y_p2_pos,disp_y_p3_neg,disp_y_p3_pos,disp_y_p4_neg,disp_y_p4_pos,disp_y_p5_neg,disp_y_p5_pos,disp_y_p6_neg,disp_y_p6_pos,disp_y_p7_neg,disp_y_p7_pos,disp_y_p8_neg,disp_y_p8_pos,disp_z_101,disp_z_102,disp_z_103,disp_z_104,disp_z_105,disp_z_106,disp_z_p1_neg,disp_z_p1_pos,disp_z_p2_neg,disp_z_p2_pos,disp_z_p3_neg,disp_z_p3_pos,disp_z_p4_neg,disp_z_p4_pos,disp_z_p5_neg,disp_z_p5_pos,disp_z_p6_neg,disp_z_p6_pos,humidity,ndof,nelem,strain_xx,strain_yy,strain_zz,temp,thermal_strain_xx,thermal_strain_yy,thermal_strain_zz,vonmises,vstrain
2419200,0,0,0,0,0,0,0,0,0,0,0,0,0,0,0,0,0,0,0,0,0,0,0,0,0,0,0,0,0,0,0,0,0,0,0,0,0,0,0,0,0,0,0,0,0,0,0,0,0,0,0,0,0,0,0,0,0,0,0,0,0,0,0,0,0,0,0,0,0,0,0,0,0,0,0
3419200,0.15846859816502,0.0027326334037038,0.00091087780123459,0.00091087780123459,0.00091087780123459,-0.00025106953018975,0.00025009492160616,8.1111733348307e-08,-1.2001318299274e-06,-8.3770014117345e-08,-1.0017315892424e-06,-0.00025550356872558,0.00025552787313671,-0.00025590346743169,0.00025509505938651,-0.00025587615402527,0.00025506050610731,-0.00025624815939565,0.00025457555272164,-0.00024859873214438,0.00024830683778313,-0.00024951618330655,0.00024702634023194,1.8219199776047e-06,2.7660746625858e-06,4.6152470749824e-06,-2.4221744537185e-07,-0.00026610672346598,0.00027051982203819,-0.00026827320845843,0.00027384513782694,-0.00026990901930799,0.00027230150563628,-0.00026788382044448,0.00027417977962841,-0.00026949642048423,0.00027258206388748,-0.00025726132908754,0.00026664987111212,-0.00026214628743191,0.0002620872932208,-0.00026402312791394,0.00026635410405131,-0.00026341328882588,0.0002673243071926,-1.1592545216976e-06,1.4021023013658e-07,-0.0002370102973516,0.00023603254519659,-2.9160662786828e-06,1.8875869678699e-06,-0.00024392234821419,0.00024095933591166,-0.00024228332590847,0.00024254896576345,-0.00024352942776781,0.00024143337509716,-0.00024188796117631,0.00024305978140809,-0.00023883598659932,0.00024076218367309,-0.00023977019920026,0.00023941575546629,0.78396790137269,131688,2924,0.0010435459788464,0.0011173433598336,0.00098502423175629,31.785376215432,0.00016948300972346,0.00016948300972346,0.00016948300972346,2031540.0243339,0.0031508692223685
4419200,0.34933549435147,0.0058982370837844,0.0019462324156294,0.0021430071263232,0.0018089975418319,-0.00049120303648168,0.0004888312005921,7.1457894732461e-07,-3.3950785483351e-06,4.2666791936335e-07,-3.006409056292e-06,-0.00051052760769437,0.00051114010439075,-0.00051180769114814,0.00050974840960423,-0.0005117646807865,0.00050967322384099,-0.00051299727843311,0.00050817390422259,-0.00047802290526458,0.00047806987184303,-0.0004815381247933,0.00047395650044955,3.1917619216035e-06,6.6723378738988e-06,8.0385349251604e-06,1.4534528581859e-06,-0.00057321759483817,0.00058277248629737,-0.00059180640826816,0.00060212715933161,-0.00059413875116425,0.00060009910819433,-0.00059047708271015,0.00060331446236524,-0.00059276169726396,0.00060116832057716,-0.0005348392963513,0.00055185987488703,-0.00054155573921487,0.00054567960664081,-0.00055814041495401,0.00056277367060176,-0.00055494173701143,0.00056612706613641,-3.2907732733239e-06,8.6181573300901e-07,-0.00043425235753324,0.00043192002432402,-4.4503468378453e-06,2.012961956924e-06,-0.00045568088417755,0.00044987372469686,-0.00045345646471349,0.00045203683206805,-0.00045438444453521,0.00045135262586448,-0.00045213844859776,0.00045358476140786,-0.00044592504226489,0.00044988971600347,-0.00044944454606673,0.0004455730363697,0.77882048941956,131688,2924,0.0020396541512389,0.0024053773204733,0.0018029793227706,33.598604763628,0.00018398883810903,0.00018398883810903,0.00018398883810903,3343954.1050878,0.0062675892122311
5419200,0.54948670775838,0.0091299797878892,0.0029697211960473,0.0035162628722694,0.0026439957195725,-0.00072153488042289,0.00072028199716152,1.3759643073665e-06,-2.9367685173732e-06,6.7826436397674e-07,-2.0809855071912e-06,-0.00076212272937787,0.00076359630342753,-0.00076349600076109,0.0007621290558425,-0.00076312168616168,0.0007624462586609,-0.00076447073121351,0.0007609267069764,-0.00069245829338901,0.00069414107676588,-0.00069645153715655,0.00068993647790314,2.4185124564889e-06,5.1985202518174e-06,6.372667068159e-06,1.128876747546e-06,-0.00092411529685317,0.00093156816951757,-0.00097658717174567,0.00098463699163396,-0.00097844061771803,0.00098301348405793,-0.00097548758509835,0.00098555288260135,-0.00097729533401242,0.0009838274972807,-0.00083935159841971,0.00085294215888964,-0.00084472944782546,0.00084791353500348,-0.00087812718131943,0.00088135872683113,-0.00087531099427658,0.00088395600537722,-2.911826199863e-06,1.4409556446571e-06,-0.00060993342754174,0.00060858320165734,-3.3028766158766e-06,1.8614186021828e-06,-0.00064828961363873,0.00064382442052222,-0.00064649401296634,0.00064554684619211,-0.00064690644275118,0.00064534279215743,-0.00064510162363623,0.00064712265582129,-0.00063306295935498,0.00063765660709548,-0.00063690604802581,0.00063313512125288,0.77319620118794,131688,2924,0.002999319180725,0.0038584107356114,0.0025357125232073,36.266592204119,0.00020533273763296,0.00020533273763296,0.00020533273763296,4174148.9726018,0.0094377633146425
6419200,0.70608271697274,0.01147750136688,0.0036743751212893,0.0046008745681119,0.0032022516774792,-0.00086585767117343,0.00086489377967279,1.5930575024628e-06,-2.8727442147775e-06,1.6406765784238e-07,-1.2683429767548e-06,-0.00093096800177642,0.00093237119352345,-0.00093238006427865,0.00093085198081048,-0.00093154094239423,0.00093165066231112,-0.00093294273877744,0.00093007480894875,-0.00081987246482445,0.00082238813754759,-0.00082391662219332,0.00081799089309673,3.0224342966758e-06,4.4555221778313e-06,7.2146169019204e-06,9.8327000798038e-08,-0.0012026001464185,0.0012098924690299,-0.0012928004123748,0.0013017704641013,-0.0012952841930076,0.0012995058131321,-0.0012921497080052,0.0013022339030613,-0.0012945884648021,0.0012998778140689,-0.0010644943110033,0.0010792489178787,-0.0010717019979308,0.0010724270162322,-0.001117668077078,0.0011215175419697,-0.0011162089606516,0.001122802155143,-2.8235802098715e-06,1.6839010067157e-06,-0.00071271204537386,0.00071168492598296,-4.0696036114407e-06,2.9543226010158e-06,-0.00077352469423183,0.00076872555652063,-0.00077109790170422,0.00077106309864785,-0.00077207715857216,0.00077028836908411,-0.00076964735903709,0.00077268363986979,-0.00073780652988339,0.00074353713354978,-0.00074176267596862,0.00073889817346861,0.72914357053134,131688,2924,0.0035994007880877,0.0050131494814429,0.0029638914968563,36.738372753,0.000209106982024,0.000209106982024,0.000209106982024,4424309.4285607,0.011643857278956
7419200,0.83170337349141,0.013294369947369,0.0041942999975937,0.0054674278107829,0.0036326421389925,-0.00096224488835899,0.00096187686980065,2.1529638534388e-06,-2.8248291133276e-06,-3.2222949515213e-07,-1.6170658587851e-07,-0.0010511731841681,0.0010527943052211,-0.0010527747127972,0.0010511177677817,-0.0010512380243596,0.0010526175198263,-0.0010528027958627,0.0010508852844083,-0.00090309880852961,0.00090725081712125,-0.00090764682504134,0.00090237044267885,3.2241775978903e-06,3.0642309091055e-06,7.2280155855204e-06,-1.0732286066756e-06,-0.001438507629827,0.0014446417242999,-0.0015688352943226,0.0015775725716549,-0.0015716762969371,0.0015748903607989,-0.001568713290234,0.0015775067877083,-0.0015715092169162,0.0015747402431075,-0.0012486440392199,0.0012628718626917,-0.0012569661687743,0.0012548737360797,-0.0013114023627349,0.0013152292461323,-0.0013114930439633,0.0013149335873331,-2.9059870966391e-06,2.1124534160605e-06,-0.00078262831431634,0.00078195512998873,-4.4684611989071e-06,3.7324522831914e-06,-0.00086473141446199,0.00085969932126942,-0.00086191134620199,0.00086245661654746,-0.00086311079321091,0.00086144169676192,-0.00086028005231162,0.00086423535477024,-0.00080752364531919,0.00081450087403682,-0.00081200210992024,0.00080939224254487,0.71234622092301,131688,2924,0.004000932921957,0.0059881268267707,0.0032556030691482,40.76078069794,0.00024128624558352,0.00024128624558352,0.00024128624558352,4430074.9685346,0.013333022458188
8419200,0.90756414938974,0.014368812580051,0.0044948255086497,0.0059808689187599,0.003893118152641,-0.00099880434962172,0.00099833844982825,2.1623141833096e-06,-2.9309962538468e-06,-2.3274144387723e-07,-3.3739377556478e-07,-0.0011053862088453,0.001107035690674,-0.0011070357817271,0.0011053224011574,-0.0011055419726021,0.0011067737976718,-0.0011071527609657,0.0011049971888352,-0.00093362127642953,0.00093770230609709,-0.00093831681772638,0.00093272824300841,3.0407875404984e-06,3.1421557417926e-06,7.4836693589505e-06,-1.4429333706982e-06,-0.0015830827582592,0.0015890890469067,-0.0017413817052644,0.001750091882385,-0.0017444190887064,0.0017471916082463,-0.0017411681735303,0.001750108062415,-0.0017441732763293,0.0017471449998161,-0.0013582733033312,0.0013730941593568,-0.0013671997548974,0.0013644482736986,-0.0014254541005359,0.0014287107057646,-0.00142526436042,0.0014286694828868,-2.9050263406953e-06,2.2303501615266e-06,-0.0008086558202734,0.00080810772337661,-4.7040318688631e-06,4.1180926855113e-06,-0.0009079323580783,0.00090277885821596,-0.00090491235242772,0.00090574111920483,-0.00090627709515171,0.00090456314593057,-0.00090324344494851,0.00090754597245928,-0.00083179985289344,0.0008391831148899,-0.00083640079735796,0.00083398038827646,0.6984878697031,131688,2924,0.0041526795282949,0.0065863023440938,0.003364444617516,41.433084670189,0.00024666467736151,0.00024666467736151,0.00024666467736151,4162463.7447191,0.014203709666079
9419200,0.94956368182551,0.014950936122387,0.0046565357264424,0.0062550684666385,0.0040393319293056,-0.0010057574800362,0.0010052306093923,2.116037236981e-06,-2.946603959558e-06,-1.3749975456959e-07,-4.8842288280678e-07,-0.0011241379833268,0.0011257925382393,-0.0011257749933388,0.0011240897873989,-0.001124371632793,0.0011254499395311,-0.0011259759194161,0.001123688756594,-0.00093806397479985,0.00094196579444626,-0.00094272188076354,0.00093700526351836,2.9316001235534e-06,3.2740649765878e-06,7.6764136801332e-06,-1.6028132237005e-06,-0.0016641744700491,0.0016702168038806,-0.0018399095926021,0.0018486997826082,-0.0018430586259159,0.0018456868792981,-0.0018396171945362,0.0018488036461508,-0.0018427362432897,0.0018457141095183,-0.0014181896079397,0.0014334603828042,-0.001427448260702,0.0014244580356272,-0.0014863755938159,0.0014892948263106,-0.0014859415147148,0.0014894860161435,-2.8352048896516e-06,2.2690349082604e-06,-0.00081405225025147,0.00081360531662668,-4.8194559653783e-06,4.353254408634e-06,-0.00092528567307306,0.00092011970426907,-0.00092214523574108,0.00092318470447714,-0.00092363488881115,0.00092188101184948,-0.00092048317511826,0.0009249841557611,-0.00083485528726628,0.00084245188051508,-0.00083942608752915,0.00083725577923225,0.6799498508998,131688,2924,0.0041816142113029,0.0069218380110237,0.0033874127595586,41.145479029816,0.00024436383223853,0.00024436383223853,0.00024436383223853,3873272.3236309,0.014596797703275
10419200,0.97057352116436,0.015250112610735,0.0047404448252462,0.0063919937111661,0.0041176740743223,-0.00099938515161066,0.00099864478617896,1.983622094667e-06,-3.0246270481964e-06,3.2839168746985e-07,-1.1880959148051e-06,-0.0011234520415811,0.0011252574892743,-0.001125063250792,0.0011235664210261,-0.0011240507846951,0.0011245284173473,-0.00112563977194,0.0011227888318363,-0.00093146885675783,0.0009347236188932,-0.00093609016082989,0.00092983627596127,2.5520248716316e-06,4.0576237165347e-06,7.0909353938535e-06,-6.2630639216834e-07,-0.0017000289910735,0.0017064637594313,-0.0018859577950216,0.0018942524887248,-0.0018886133423556,0.0018917686396164,-0.0018852998376012,0.0018947415745889,-0.0018879160817098,0.0018921735131563,-0.0014435677975104,0.0014581001641899,-0.0014513144336101,0.0014506260429461,-0.0015109832594405,0.0015136639713674,-0.0015094100728223,0.0015150216111186,-2.9553060170687e-06,2.0945423727376e-06,-0.00080971792714665,0.00080897876516219,-4.2084078088628e-06,3.4190363225873e-06,-0.00092660232239309,0.00092169082776729,-0.00092398148952113,0.00092424389130461,-0.00092496574801041,0.00092342984176589,-0.00092233700119767,0.00092602317575565,-0.00082929923781304,0.00083602077595463,-0.0008338257374886,0.00083088649247799,0.69329668258896,131688,2924,0.0041548709467143,0.0070709222915171,0.0033689994890012,38.100583853089,0.00022000467082471,0.00022000467082471,0.00022000467082471,3650438.7868875,0.014702277983093
11419200,0.98270521406852,0.015420045388645,0.0047883330980761,0.0064685074263048,0.0041632048642642,-0.00099454972020046,0.00099377362726973,1.9300249315001e-06,-3.0058588659396e-06,3.9272013425788e-07,-1.2916383458627e-06,-0.0011241453141279,0.0011259472994797,-0.0011257334196142,0.0011242815053754,-0.0011247994714554,0.0011251631527962,-0.0011263649734807,0.0011234477441294,-0.00092679924598316,0.00092989159755593,-0.00093134680721869,0.00092507103484409,2.4908761719015e-06,4.1628166517881e-06,7.1464011062151e-06,-6.412274432256e-07,-0.0017272839449564,0.0017337596051387,-0.0019177259786245,0.0019260309482222,-0.0019204054594844,0.0019235218698023,-0.0019170164766594,0.0019265755733039,-0.0019196567620912,0.0019239849972652,-0.0014651786464364,0.0014798710709499,-0.0014729889940855,0.0014723312593277,-0.0015318543414352,0.0015343903426828,-0.0015301190481074,0.0015359161038501,-2.9129252502611e-06,2.0644792597685e-06,-0.00080729385655015,0.00080656604669821,-4.2357831422639e-06,3.4604594330292e-06,-0.00093022168046139,0.00092531941888229,-0.00092757531494152,0.0009278957301635,-0.00092860753072152,0.00092703384462833,-0.00092595465757733,0.00092964907908396,-0.00082536576085972,0.00083205330991594,-0.00082982129073644,0.00082699209890806,0.67906583977638,131688,2924,0.0041348507323152,0.0071836632882951,0.0033591038987366,37.628197151843,0.00021622557721475,0.00021622557721475,0.00021622557721475,3460572.2253931,0.01478635922765
12419200,0.98966315858487,0.015520086366324,0.0048167606693861,0.0065127434323164,0.0041905822646211,-0.00098908702047229,0.0009883059744922,1.8838824398795e-06,-2.9742306427308e-06,4.279156311704e-07,-1.3187783565548e-06,-0.0011211344698612,0.001122903254501,-0.0011226733392752,0.0011212607481081,-0.0011217827849911,0.0011221115895744,-0.0011233381863981,0.0011204388666536,-0.00092169049124914,0.0009246790259881,-0.00092618173692701,0.00091993826288715,2.458642954819e-06,4.1870788744632e-06,7.136660043035e-06,-6.675738695839e-07,-0.0017403099520263,0.001746764126457,-0.0019344345782285,0.0019427359750379,-0.0019371260796259,0.0019402282329325,-0.0019337271826252,0.0019432921130671,-0.0019363760722655,0.0019406539810145,-0.0014743297247944,0.0014890238799219,-0.0014821217788964,0.0014813844437307,-0.0015406157824336,0.0015430919978881,-0.0015388034802928,0.0015446497114292,-2.834228288488e-06,2.0642298684265e-06,-0.00080374191938439,0.00080307614069407,-4.2076138225398e-06,3.503267315624e-06,-0.00092904776097966,0.00092423297693606,-0.00092641770707387,0.00092681241421565,-0.0009274675500051,0.00092590345117422,-0.00092482539021852,0.00092855803364453,-0.00082132941310659,0.00082802632536484,-0.00082570503204785,0.00082300391974378,0.69355173707374,131688,2924,0.0041122394669544,0.0072374642254003,0.0033445588047355,36.80426716666,0.00020963413733328,0.00020963413733328,0.00020963413733328,3352817.30425,0.014803258339632
13419200,0.99354917605776,0.015574591117268,0.0048322682868654,0.0065367011624124,0.0042056216679901,-0.00098190174637361,0.00098110245646618,1.8606504235764e-06,-2.9602008898833e-06,4.4597380289137e-07,-1.3671180752102e-06,-0.0011164367846275,0.0011182172008892,-0.001117988163133,0.001116591100407,-0.0011171310088273,0.0011173921179993,-0.0011186592709106,0.0011157180301388,-0.00091476338161518,0.00091767338151841,-0.00091920156430721,0.00091296886472088,2.4424199317194e-06,4.2422144012094e-06,7.1904649677699e-06,-6.5859249831844e-07,-0.001747424338198,0.001753928224356,-0.0019429754537863,0.0019512866945073,-0.0019456733157837,0.0019487578662253,-0.0019422262663458,0.0019518747074681,-0.0019448856422698,0.0019492604482159,-0.0014795753588291,0.0014944000478368,-0.0014874443332905,0.0014867880852712,-0.0015450097173265,0.0015474308668825,-0.0015431442659784,0.0015490828823607,-2.8562973250719e-06,2.0056711325085e-06,-0.00079895150023566,0.00079822125951578,-4.2670690098286e-06,3.4912468754703e-06,-0.00092714627365763,0.00092225853720011,-0.00092448005327429,0.00092485541512989,-0.00092557020180089,0.00092393238162778,-0.00092289557334917,0.0009265704235711,-0.00081529805713521,0.00082189188083117,-0.00081964011358311,0.0008169391840017,0.67550368784762,131688,2924,0.0040824481821077,0.0072669468742487,0.0033245910816498,34.794598025399,0.0001935567842032,0.0001935567842032,0.0001935567842032,3232879.3344533,0.014782700967384
14419200,0.99579298681697,0.015605658328726,0.0048411189252702,0.0065502758911412,0.0042142635123147,-0.00097486627813165,0.00097406511450193,1.8787354943303e-06,-2.9784002558598e-06,4.4980601707501e-07,-1.376197974789e-06,-0.001109559342677,0.0011113551186838,-0.0011111200229459,0.0011097149293526,-0.0011102579715804,0.0011105262192486,-0.001111799183882,0.0011088400406316,-0.00090794180934123,0.00091088678213417,-0.00091241856379598,0.00090614931958146,2.4404161932755e-06,4.2522898578584e-06,7.1516272007889e-06,-6.0873864734228e-07,-0.0017471020315206,0.0017536155614284,-0.0019450487395972,0.0019533382004664,-0.0019477189337286,0.0019508388008276,-0.0019442964219067,0.0019539297482417,-0.0019469268558178,0.0019513449905664,-0.0014770656254881,0.0014918189260541,-0.001484851029311,0.0014842999163529,-0.0015420117066819,0.0015444571341056,-0.0015401410571568,0.0015461246252058,-2.8795490531162e-06,2.0187833623732e-06,-0.00079353614951524,0.00079279640047975,-4.2293668760691e-06,3.4412200600458e-06,-0.00092181121728159,0.00091693407435971,-0.00091917541088344,0.0009195013075783,-0.00092022196623525,0.00091861931394175,-0.00091757966336767,0.0009212285723712,-0.00080945330428921,0.00081604216437415,-0.00081383589550709,0.00081105913260528,0.66543916136164,131688,2924,0.0040532751343833,0.0072656383665412,0.0033021013906836,32.643906427214,0.00017635125141771,0.00017635125141771,0.00017635125141771,3173532.5822867,0.014728944342398
15419200,0.99696142173489,0.015622763737126,0.0048460488869411,0.0065576215332807,0.0042190933169039,-0.00096297858409277,0.00096217334642425,1.8755948915298e-06,-2.9760898862646e-06,4.8749022417195e-07,-1.4199498429675e-06,-0.0010974720257177,0.001099282406537,-0.0010990195183071,0.0010976415021869,-0.0010981902787393,0.0010984298665282,-0.0010997287415739,0.0010967346870081,-0.00089639998057556,0.0008993183298114,-0.00090086317367702,0.00089455198220951,2.4180635787588e-06,4.312167422283e-06,7.0718243274049e-06,-4.880734934788e-07,-0.0017378680872206,0.0017444174960219,-0.0019368889510008,0.001945121884679,-0.0019395049978606,0.0019426903170543,-0.0019361160235663,0.0019457366076997,-0.0019386879504149,0.0019432345446903,-0.0014672663989563,0.00148187918788,-0.0014748733844606,0.0014746070995891,-0.0015315475256233,0.0015340021073492,-0.0015295926200044,0.0015357641049944,-2.8709907286729e-06,2.0215534306232e-06,-0.00078388735810539,0.0007831448019774,-4.1392195349627e-06,3.3327939595342e-06,-0.00091186850444717,0.00090705736996289,-0.00090930105146701,0.00090956091264777,-0.00091028361688932,0.00090874126383975,-0.00090770700909099,0.00091128154954712,-0.00079922130439083,0.00080575617826871,-0.00080360304783145,0.0008007753665279,0.70138893961867,131688,2924,0.0040039472568332,0.0072275239498496,0.0032620165082509,27.069722678281,0.00013175778142625,0.00013175778142625,0.00013175778142625,3092460.7320436,0.014599542416696
16419200,0.99771151321614,0.015633366266085,0.0048491023149594,0.0065621649862726,0.0042220989648531,-0.00095618995754835,0.00095539840530896,1.8666479857968e-06,-2.9623114329037e-06,5.2306423106481e-07,-1.4307399707557e-06,-0.0010930464930299,0.0010948745716328,-0.0010945740839309,0.0010932361838562,-0.0010937723188148,0.0010940100757969,-0.001095317318077,0.0010923261616314,-0.00088968765883241,0.00089255846450413,-0.00089411620359232,0.0008878280614284,2.3961683993974e-06,4.3346607921668e-06,7.0557286398706e-06,-4.7566721833507e-07,-0.0017387820869976,0.0017453280210479,-0.0019363747602591,0.0019445821589597,-0.0019389769992149,0.0019421553831562,-0.001935590464699,0.0019452064039985,-0.0019381392719831,0.0019427073962276,-0.0014693808497719,0.0014839881719731,-0.0014769397996578,0.0014766779408034,-0.0015329968598789,0.0015354178564937,-0.0015309683866375,0.0015372098170864,-2.821794895385e-06,2.0454888032258e-06,-0.00077917863816579,0.00077849560844147,-4.0897968168033e-06,3.3531641734439e-06,-0.00090982413630679,0.00090509322036812,-0.00090728886711176,0.00090758082016734,-0.00090824570312664,0.00090676177688127,-0.00090570177771509,0.00090929908364566,-0.00079343378385189,0.0007999847538024,-0.00079776845579589,0.00079502626520756,0.67697638767949,131688,2924,0.0039758424166305,0.0072312417301035,0.0032426102819412,24.418335321123,0.00011054668256899,0.00011054668256899,0.00011054668256899,2985864.9546858,0.014555133702092
17419200,0.99821524483318,0.01564068514398,0.0048512207727695,0.0065652708475983,0.0042241935236126,-0.00094954164572799,0.00094874099485239,1.8710079525748e-06,-2.965280257537e-06,5.2669349573816e-07,-1.4544631751762e-06,-0.0010857582159384,0.0010875880620337,-0.0010872930928034,0.0010859494020514,-0.0010864962554906,0.0010867128524913,-0.0010880276955654,0.0010850166070624,-0.00088351411816174,0.00088640183412349,-0.00088796637969406,0.00088163725198531,2.3887080402762e-06,4.356889683985e-06,7.0080077497558e-06,-4.0866080539993e-07,-0.0017333903619138,0.0017399546948009,-0.0019323246882337,0.0019405037894419,-0.0019349022589109,0.0019381226910817,-0.0019315327535426,0.0019411410207389,-0.0019340659586076,0.0019386946184293,-0.0014631377334879,0.0014776425090686,-0.0014706119816315,0.0014705362566537,-0.0015263075357198,0.0015287479893848,-0.0015242799513955,0.0015305902248614,-2.8628640162412e-06,2.0137463026794e-06,-0.00077372605868997,0.00077297889924815,-4.0740633166902e-06,3.2560333274371e-06,-0.00090364229571637,0.00089888001802387,-0.00090112093247776,0.00090133817816657,-0.00090206624646148,0.00090055817566952,-0.00089953255269686,0.00090304946053811,-0.00078793221743851,0.00079440230737362,-0.00079230037797181,0.00078943409740175,0.69394003842051,131688,2924,0.00394823349151,0.0072089935510027,0.0032198224941012,21.980202011765,9.1041616094121e-05,9.1041616094121e-05,9.1041616094121e-05,2955743.0772508,0.014481421924122
18419200,0.99852818636837,0.015645158604397,0.00485251644225,0.0065671649514272,0.0042254772107202,-0.00094008038801969,0.0009392487777767,1.8551147865411e-06,-2.9846888633745e-06,5.1845784938653e-07,-1.4775465745118e-06,-0.0010771400549543,0.0010789549268544,-0.0010786941565393,0.0010773207780427,-0.0010778932004998,0.0010780705100027,-0.001079429498206,0.0010763910911648,-0.00087429344088863,0.00087713244456684,-0.00087874548357372,0.00087240497536046,2.3814575719715e-06,4.3628750688775e-06,6.9579362078205e-06,-3.6374590834001e-07,-0.0017269666034905,0.0017335299422695,-0.0019252731334114,0.0019334118300846,-0.0019278031989003,0.0019310593777027,-0.0019244673009054,0.0019340601495015,-0.0019269561750024,0.001931623318125,-0.0014575611832284,0.0014719918516921,-0.0014649261802402,0.0014649132515857,-0.0015199219359448,0.0015223935804663,-0.0015178825425335,0.0015242299125608,-2.901150093226e-06,1.9797396082556e-06,-0.00076637154766594,0.00076556657986728,-4.0495994697091e-06,3.1854566843359e-06,-0.0008972971803618,0.00089250683193733,-0.00089480710098154,0.00089492972243428,-0.00089571172586038,0.00089418542927695,-0.00089321661009011,0.00089665074271969,-0.00077971007209529,0.00078608082891469,-0.00078407362149758,0.00078111324544194,0.68267067352212,131688,2924,0.0039089216020167,0.0071823976239398,0.0031891559486403,17.477991088746,5.502392870997e-05,5.502392870997e-05,5.502392870997e-05,2869464.4428436,0.014383462114268
19419200,0.99878730777952,0.015649086259095,0.0048536651514196,0.0065688022629989,0.0042266188446761,-0.00093783660546844,0.00093702352647002,1.8706414817099e-06,-2.9811690970657e-06,4.8260802418467e-07,-1.4223124179785e-06,-0.0010748821874732,0.001076689867423,-0.0010764380369694,0.0010750492917099,-0.0010756057816991,0.0010758355441641,-0.0010771457318426,0.0010741505574039,-0.00087226687285533,0.00087516894252044,-0.00087673903913981,0.00087043669755252,2.4106534190079e-06,4.3009901539773e-06,6.9400194861009e-06,-3.775901892334e-07,-0.0017277083859757,0.0017342407248396,-0.0019270681089676,0.0019352061258217,-0.0019295981801587,0.0019328555646786,-0.0019262920694547,0.0019358238369042,-0.0019287820368745,0.0019333890042753,-0.0014573334626288,0.0014716983117583,-0.0014646932869872,0.0014646217112614,-0.0015194586292542,0.0015219920272158,-0.0015175124150239,0.0015237389081332,-2.9054009737565e-06,1.9873700854008e-06,-0.00076477609922611,0.00076397723417344,-4.0442168117142e-06,3.1872713204472e-06,-0.00089564537851086,0.00089086001987777,-0.0008931561217441,0.00089328122272618,-0.00089405716027602,0.00089254194310648,-0.00089156143247073,0.00089500552416421,-0.00077808710483608,0.00078446554968488,-0.00078246567015629,0.00077948962967131,0.72158242959372,131688,2924,0.0038996583639386,0.0071854052448098,0.0031825511000889,17.551568050536,5.5612544404288e-05,5.5612544404288e-05,5.5612544404288e-05,2851090.2517104,0.014370412926497
20419200,0.99901281478965,0.015652541229348,0.0048546771787062,0.0065702384997372,0.0042276255509046,-0.00093768422231256,0.00093688515520337,1.8730324006335e-06,-2.9691769852164e-06,4.4578898748435e-07,-1.3697318861807e-06,-0.0010771463051387,0.0010789356071957,-0.0010786990407485,0.0010772982205881,-0.0010778422842586,0.0010781111680396,-0.0010793791768094,0.0010764294824293,-0.00087213105559703,0.0008750672837354,-0.00087659419862723,0.00087034546475997,2.4296172329216e-06,4.2311055985989e-06,6.9496624318828e-06,-4.3609491784068e-07,-0.0017348374750617,0.0017413209816392,-0.0019326634019813,0.0019408042273925,-0.0019352151833489,0.0019384312469042,-0.0019319153872429,0.0019413928036105,-0.0019344275681412,0.0019389351209073,-0.0014655584547035,0.0014799127275906,-0.0014729846917283,0.0014727666083436,-0.0015272187854733,0.0015297680122923,-0.0015253601614459,0.0015314249342372,-2.8972472253814e-06,1.9858690189894e-06,-0.0007655786570177,0.00076478676973304,-4.0737424001964e-06,3.2253101955832e-06,-0.0008991681514202,0.00089437035696511,-0.00089665630458101,0.00089681371975955,-0.00089758307997882,0.00089604869491953,-0.00089506482874063,0.00089853502772613,-0.00077821070802876,0.0007846087162361,-0.00078257980099876,0.00077964248091195,0.72910480593176,131688,2924,0.0038990905081765,0.0072147381651909,0.0031859311744047,18.597312354036,6.3978498832292e-05,6.3978498832292e-05,6.3978498832292e-05,2793576.8243261,0.014403044446182
21419200,0.99916623098329,0.015654829258712,0.0048553450792935,0.0065711924835924,0.0042282916958263,-0.00092984804251551,0.00092904705145146,1.8642006034515e-06,-2.9622578605488e-06,4.6387548945521e-07,-1.390027758999e-06,-0.0010697796743582,0.001071571183177,-0.0010713197390191,0.0010699370875323,-0.0010704837119775,0.0010707362970498,-0.0010720152480318,0.0010690527698449,-0.00086474506837497,0.00086765293075403,-0.00086918742887472,0.00086292640492749,2.4161908082291e-06,4.2565614912273e-06,6.8996894757627e-06,-3.7040311426803e-07,-0.0017287769858852,0.00173527215401,-0.0019265406950078,0.0019346405165469,-0.0019290601656677,0.00193230639258,-0.0019257823069923,0.0019352388878932,-0.0019282598046667,0.0019328315256694,-0.0014598145543284,0.0014740787251747,-0.0014671412128082,0.0014670784288777,-0.0015209855717802,0.0015235374955772,-0.0015190849434799,0.0015252400594877,-2.8855826115834e-06,1.9814544128116e-06,-0.0007593937356536,0.00075860009492133,-4.0225368861397e-06,3.1618798285661e-06,-0.00089336648743476,0.00088861227418075,-0.00089089613580805,0.00089101875521682,-0.00089178844624282,0.00089028589563971,-0.00088930948665503,0.0008927312408295,-0.00077179216606447,0.00077814541386293,-0.0007761443780091,0.0007731902161337,0.70951084608101,131688,2924,0.0038665734731219,0.0071896817787714,0.0031602351430943,15.225615260312,3.7004922082496e-05,3.7004922082496e-05,3.7004922082496e-05,2734336.1066034,0.014318578700528
22419200,0.99929322988572,0.015656743123114,0.0048559056537393,0.0065719852858198,0.004228852183555,-0.00092710323599953,0.00092630363994403,1.8717208314066e-06,-2.9680813954347e-06,4.4749570939273e-07,-1.3721970477596e-06,-0.001066643814451,0.0010684325575558,-0.0010681951602485,0.0010667957953498,-0.0010673405779249,0.0010676071447259,-0.0010688768925389,0.0010659262353458,-0.00086230894417828,0.0008652420653003,-0.00086676966597629,0.00086052109284524,2.4310772885047e-06,4.2366356127132e-06,6.8818969360583e-06,-3.6144825712793e-07,-0.0017275378666671,0.0017340280481104,-0.0019265052644243,0.0019346051843942,-0.001929011886094,0.0019322793596482,-0.001925756425117,0.0019351946720195,-0.0019282227066251,0.0019327847894467,-0.0014575772965869,0.0014717983381538,-0.0014648658087677,0.0014647981976814,-0.0015185477399677,0.0015211452312168,-0.0015166840866571,0.0015228085285175,-2.9042690380849e-06,1.976414538772e-06,-0.00075724832623942,0.000756439374324,-4.0134048533946e-06,3.1444391795787e-06,-0.0008907508538442,0.0008859842925449,-0.00088828567527961,0.00088838107330687,-0.00088916618188743,0.00088766186644841,-0.00088669487058582,0.00089010126738994,-0.00076973999022401,0.0007760730407687,-0.00077410772140849,0.0007711095605614,0.71604798229563,131688,2924,0.0038551883360864,0.0071845565726527,0.0031512944813939,14.858990533535,3.4071924268278e-05,3.4071924268278e-05,3.4071924268278e-05,2722880.2105337,0.014292754930022
23419200,0.99940600652944,0.015658413762458,0.0048563946466356,0.0065726775579586,0.0042293415578643,-0.00092661966042162,0.00092582404124863,1.8724566095506e-06,-2.9680478127305e-06,4.4525478500032e-07,-1.3612001012333e-06,-0.0010669941767788,0.0010687810324682,-0.0010685454451287,0.0010671441247557,-0.0010676846932875,0.0010679609992065,-0.0010692241696786,0.0010662828335695,-0.00086195744145697,0.00086489165897214,-0.00086641873013191,0.00086017703946745,2.4346676648159e-06,4.2269143249543e-06,6.9060328006128e-06,-3.9389658700434e-07,-0.001730983825158,0.0017374672239501,-0.0019300019730359,0.0019381199788033,-0.0019325253489242,0.0019357747936272,-0.0019292581456049,0.0019387038389141,-0.001931739834538,0.001936270341775,-0.0014608199431389,0.0014750852911761,-0.0014681532242134,0.001468008160143,-0.0015216478161518,0.0015242326344327,-0.0015197855896175,0.0015258776547198,-2.8955980760753e-06,1.9858332772058e-06,-0.00075731470185307,0.00075652277715174,-4.0300426202977e-06,3.1839062944709e-06,-0.00089170559146279,0.00088693583311144,-0.00088922442021882,0.0008893503808479,-0.00089012052686676,0.00088861228084326,-0.00088763367184617,0.0008910729337404,-0.00076965326229345,0.00077601897191216,-0.0007740142916201,0.00077105091755535,0.70404422443125,131688,2924,0.003853207250904,0.0071987790677051,0.0031516227647833,15.705719502743,4.0845756021947e-05,4.0845756021947e-05,4.0845756021947e-05,2699717.5531289,0.014305510194456
24419200,0.9995124668182,0.015660017954211,0.0048568653970509,0.0065733396032773,0.0042298129538824,-0.00092825434078365,0.00092746705096469,1.8823717929113e-06,-2.9661674096586e-06,4.1791425901887e-07,-1.3287630278991e-06,-0.0010687614658095,0.0010705408925646,-0.00107031597585,0.0010689012524556,-0.0010694347218668,0.0010697400183997,-0.0010709735075813,0.001068054871461,-0.00086373962616331,0.00086671777039543,-0.00086821090626024,0.00086198897170607,2.4512447952195e-06,4.184196107935e-06,6.9450412730515e-06,-4.5636857133678e-07,-0.0017358656980745,0.0017423241848345,-0.0019359018391082,0.0019440451285155,-0.0019384596646222,0.0019416664008098,-0.0019351764950291,0.0019446105537291,-0.0019376944839667,0.0019421497350389,-0.0014645216742597,0.0014788402869856,-0.0014719610359286,0.0014716843282507,-0.0015253649810397,0.0015279492897958,-0.0015235713251483,0.0015295420918042,-2.8977718390855e-06,1.9917635447252e-06,-0.00075896207419578,0.00075817546335862,-4.0791190980468e-06,3.236153729607e-06,-0.00089349494070686,0.00088869375985312,-0.00089097653402766,0.00089114310016721,-0.00089190780706779,0.00089037450877803,-0.00088938215876161,0.00089286492691329,-0.00077142640702141,0.00077783990252135,-0.00077580334765571,0.00077286885457844,0.71549404807352,131688,2924,0.0038600212319135,0.0072189213410498,0.0031584939685349,17.881578703145,5.8252629625162e-05,5.8252629625162e-05,5.8252629625162e-05,2704222.2703061,0.014339819909266
25419200,0.99960952730086,0.015661553978834,0.004857318489356,0.0065739692541785,0.0042302662352991,-0.00092988088274191,0.00092909994120668,1.8832669168411e-06,-2.9624837776181e-06,3.976109093658e-07,-1.2991116967251e-06,-0.0010715376018746,0.0010733059565468,-0.001073092565267,0.0010716677940155,-0.0010721950745845,0.0010725217229838,-0.0010737344462381,0.001070840802069,-0.00086543462105433,0.00086842760641707,-0.00086990228493478,0.00086370856525896,2.4662081951971e-06,4.1490346834266e-06,6.9875979617203e-06,-5.1922083442698e-07,-0.0017422357997792,0.0017486747909261,-0.0019421428232012,0.0019503182191184,-0.0019447320511144,0.0019479042360491,-0.001941432855146,0.0019508672090911,-0.001943982344128,0.0019483665424965,-0.0014707139667154,0.0014851034377142,-0.001478250255133,0.0014778239218778,-0.0015314611986642,0.0015340419971417,-0.0015297123526937,0.0015355789408835,-2.8886837333599e-06,1.9979261669431e-06,-0.00076086365320672,0.0007600929786672,-4.1205526208501e-06,3.299127753655e-06,-0.00089664993444719,0.00089183033121201,-0.00089409863939616,0.00089431321353956,-0.0008950633524716,0.00089350916573779,-0.00089250551097249,0.00089603579024345,-0.00077318479048543,0.00077964293788166,-0.0007775542591769,0.00077467351753477,0.75065157269371,131688,2924,0.0038668070488226,0.0072452052920352,0.0031664499882066,19.926560985447,7.4612487883573e-05,7.4612487883573e-05,7.4612487883573e-05,2687772.415736,0.014381444406047
26419200,0.99968910911441,0.015662841253085,0.0048576985747915,0.0065744960294137,0.0042306466488796,-0.00092888780706755,0.00092810678961122,1.8690423672123e-06,-2.9521067450464e-06,3.9533017033043e-07,-1.2933910701999e-06,-0.0010723522677909,0.0010741095672396,-0.0010738968200114,0.0010724788984448,-0.0010730056871327,0.0010733284993166,-0.0010745413239355,0.0010716588323354,-0.00086460085028689,0.00086756200154991,-0.00086903844805277,0.00086287288254788,2.4669245319023e-06,4.1408478475722e-06,7.0098252123171e-06,-5.4943032031974e-07,-0.0017462159894446,0.001752646015181,-0.0019451318080662,0.001953316638958,-0.001947734549677,0.0019508845291658,-0.0019444249851937,0.0019538629917713,-0.0019469856359592,0.0019513406792794,-0.001475381743875,0.0014898180200425,-0.0014829625605635,0.0014824587731109,-0.0015358522272685,0.0015384155842805,-0.0015341015672185,0.001539936358091,-2.8625062599693e-06,1.9989440078034e-06,-0.00076074878944972,0.00076000131134012,-4.1319260461902e-06,3.3388621218786e-06,-0.00089843687173462,0.00089363232774516,-0.00089587625693588,0.00089612945588318,-0.00089685735824781,0.00089530053219048,-0.00089429023978417,0.00089784610293776,-0.00077274208150948,0.00077921464497512,-0.00077707837246049,0.00077426704849024,0.76692112597511,131688,2924,0.0038627123908125,0.0072616081817527,0.0031660443768579,20.393280622158,7.8346244977262e-05,7.8346244977262e-05,7.8346244977262e-05,2643058.0508412,0.01439353512899
27419200,0.99975850622938,0.015663921087132,0.004858016114213,0.0065749397748346,0.0042309651980847,-0.00092957883825642,0.00092882749858491,1.8853939543787e-06,-2.9327550486203e-06,2.9805053666678e-07,-1.1682720711114e-06,-0.0010744281163319,0.0010761404997368,-0.0010759726698665,0.0010745113674102,-0.0010750124659715,0.0010754334916059,-0.001076542165134,0.0010737603507462,-0.00086569650687358,0.00086877420114625,-0.00087013611603326,0.00086407557695639,2.5357655312181e-06,3.9886981945107e-06,6.9487035339796e-06,-5.6510557294253e-07,-0.0017515431995867,0.001757895866726,-0.0019502335056278,0.00195840093074,-0.0019528263026784,0.0019559846806373,-0.001949597158424,0.0019588730389932,-0.0019521497482185,0.0019563724765375,-0.0014807546726693,0.0014949884336895,-0.0014883046676484,0.0014877170276704,-0.0015408744003167,0.0015435879578899,-0.0015393542814437,0.0015448987095313,-2.877058907235e-06,1.981879246122e-06,-0.00076192775612888,0.00076115144442915,-4.1289100062303e-06,3.2979449758369e-06,-0.00090095877660701,0.00089614138596335,-0.00089840438717925,0.00089862698579394,-0.0008993812375341,0.00089781138861668,-0.00089682096041145,0.00090034002444428,-0.00077408909677069,0.00078052255753176,-0.00077843590944539,0.00077558174760018,0.73788855884129,131688,2924,0.0038656636184597,0.007283451735085,0.0031709058268844,22.249487837461,9.3195902699688e-05,9.3195902699688e-05,9.3195902699688e-05,2623696.8171997,0.014423624596478
28419200,0.9998155484346,0.015664854935578,0.0048582922726707,0.0065753204711053,0.0042312421918017,-0.00092978120329095,0.00092903365793333,1.8944063469404e-06,-2.9385578905702e-06,3.0238606037699e-07,-1.1664922009555e-06,-0.0010741809066011,0.0010759000248885,-0.0010757324575978,0.0010742671637111,-0.0010747660003009,0.0010751930471159,-0.0010762979844514,0.0010735209177347,-0.00086619410383642,0.00086929043103619,-0.00087065794595093,0.00086458425704497,2.5368861458657e-06,3.9921439439726e-06,6.9588408340609e-06,-5.7577822905422e-07,-0.0017530679992442,0.001759424868528,-0.0019529736834259,0.0019611605442871,-0.0019555749114379,0.0019587407941305,-0.0019523371713766,0.0019616321262932,-0.001954904694268,0.0019591133947251,-0.0014811708576219,0.0014954235823019,-0.0014887397078902,0.0014881270308826,-0.0015413427516578,0.0015440571697291,-0.0015398239417663,0.001545361379685,-2.8920592606104e-06,1.9820976437239e-06,-0.00076216804638777,0.00076138197230449,-4.143405278523e-06,3.3038816710316e-06,-0.0009006737817793,0.00089583477022237,-0.00089810769797157,0.00089832944194743,-0.00089909348720609,0.00089750860113703,-0.00089652239159309,0.00090005016388778,-0.0007746715027891,0.00078111687124649,-0.00077903418196942,0.00077615329322333,0.77520834859482,131688,2924,0.0038665130223107,0.007289778484331,0.003171889906714,23.439579031657,0.00010271663225326,0.00010271663225326,0.00010271663225326,2634188.4418934,0.014431891457635
29419200,0.999861899381,0.01566552742078,0.0048584887996939,0.006575598982135,0.0042314396389516,-0.0009303357732871,0.00092959248347622,1.891344836146e-06,-2.9315651200472e-06,2.7093896822046e-07,-1.1305507277534e-06,-0.0010766008918762,0.0010783012984325,-0.0010781479940207,0.0010766710270278,-0.001077164620144,0.0010776159867895,-0.0010786961343829,0.0010759415910374,-0.00086678276995944,0.0008698914966851,-0.00087122794050112,0.00086519142549333,2.5554326085273e-06,3.9438624079539e-06,6.9947375631921e-06,-6.3626228470766e-07,-0.001758935120206,0.001765263009982,-0.0019579694568768,0.0019661709197589,-0.0019605989853037,0.0019637156119358,-0.0019573533194436,0.0019666219398535,-0.0019599431489849,0.0019640819806619,-0.0014874352427307,0.0015017386826307,-0.0014950956111597,0.0014943423670817,-0.0015473739874796,0.0015500880543618,-0.0015459133866938,0.001551332076048,-2.8724470067356e-06,1.9912626786129e-06,-0.00076338551681235,0.00076262401784604,-4.1776905383605e-06,3.3656886598309e-06,-0.00090385755685574,0.00089901356071348,-0.00090126468888212,0.0009015374966337,-0.00090227863697687,0.00090068504916361,-0.00089967930623695,0.00090325191465327,-0.00077551886719241,0.00078200732286859,-0.00077986781853549,0.0007770610093429,0.68889126627295,131688,2924,0.0038688543516289,0.0073139434917612,0.0031770269479389,24.778337395782,0.00011342669916626,0.00011342669916626,0.00011342669916626,2598276.843851,0.01446401113931
30419200,0.99989877193226,0.015666053075966,0.004858642155902,0.0065758169859576,0.0042315939341067,-0.00093146691135517,0.00093072769072179,1.9148235267315e-06,-2.9506702044771e-06,2.8968292156389e-07,-1.1458392317038e-06,-0.0010745146059819,0.0010762432976988,-0.001076075331077,0.0010745987294108,-0.0010750882739702,0.0010755470847288,-0.0010766339265736,0.0010738585832595,-0.00086794624569572,0.00087109192118068,-0.00087243357073183,0.00086634785716762,2.5480173914005e-06,3.9696198117663e-06,6.9733832393574e-06,-5.972047034527e-07,-0.001757290546772,0.0017636357966926,-0.0019602658735928,0.0019684546119566,-0.0019628762072968,0.0019660189708385,-0.0019596391215857,0.0019689156784811,-0.0019622093994324,0.0019663955188266,-0.0014822456257173,0.0014965175089215,-0.0014898487862849,0.0014891865956295,-0.0015425675109316,0.0015452861089753,-0.0015410752010201,0.0015465637935838,-2.8942527293533e-06,2.0120138633622e-06,-0.00076368005913884,0.00076291700209992,-4.1494932789625e-06,3.3339885435767e-06,-0.00090073733678509,0.00089589802719456,-0.00089816461495683,0.00089840244709765,-0.00089914427798146,0.00089758395301488,-0.00089656536791783,0.00090013106622985,-0.0007764715711404,0.00078298251280403,-0.00078086436904417,0.00077799432932125,0.6766345681924,131688,2924,0.0038735349364376,0.0073072568603082,0.0031782359106265,26.129009144292,0.00012423207315433,0.00012423207315433,0.00012423207315433,2663336.9839555,0.014463167215029
31419200,0.99992862078296,0.01566651014575,0.0048587768001099,0.0065760044367627,0.0042317289088771,-0.00093405998147335,0.00093332670371788,1.9211894391431e-06,-2.9512067011934e-06,2.7746301117479e-07,-1.126799016966e-06,-0.0010770610219971,0.0010787874082711,-0.0010786242524554,0.0010771406857163,-0.0010776247020357,0.0010781017677822,-0.0010791726636005,0.0010764108804795,-0.00087052541587131,0.00087369392529756,-0.00087502003913468,0.00086894349438905,2.557395647042e-06,3.9476330035421e-06,7.0040627872015e-06,-6.4016159291817e-07,-0.0017624114325907,0.0017687443784293,-0.0019662885346022,0.0019744993281193,-0.0019689223049607,0.0019720389632579,-0.0019656716333663,0.0019749498766464,-0.0019682656541029,0.0019724051573699,-0.0014862519158494,0.0015005735489895,-0.0014939257757097,0.0014931682808426,-0.0015466688592236,0.0015493817636697,-0.0015452068286565,0.0015506274741979,-2.8921086813043e-06,2.0210612349642e-06,-0.00076604483080202,0.00076529315750438,-4.1793773149324e-06,3.3771331257122e-06,-0.00090308678701731,0.00089823178133342,-0.00090048984977127,0.00090076039044631,-0.00090149158630961,0.00089991999649247,-0.00089888824122446,0.00090249117836079,-0.00077892165487863,0.00078547447528439,-0.00078332110077654,0.00078047933180775,0.72615477803916,131688,2924,0.0038843196977108,0.0073284147789981,0.0031880983993771,28.436007460712,0.00014268805968569,0.00014268805968569,0.00014268805968569,2676159.9614782,0.014505577153058
32419200,0.99995043054359,0.015666860863243,0.0048588805061044,0.0065761476088696,0.0042318327482688,-0.00093431549882283,0.00093358005775908,1.9060474806955e-06,-2.9390194946609e-06,2.5799077393521e-07,-1.10795039631e-06,-0.00108009943642,0.001081802995809,-0.0010816552436234,0.0010801659000533,-0.0010806518291535,0.0010811293866366,-0.0010821902530492,0.0010794473727026,-0.00087067185995533,0.00087381970565741,-0.00087513772322319,0.00086909796925859,2.5667791413157e-06,3.9196598374754e-06,7.0317103331932e-06,-6.8568608654146e-07,-0.0017688383493338,0.0017751533779781,-0.001970500580462,0.0019787268986226,-0.0019731567426165,0.0019762430615219,-0.0019698948580957,0.0019791665090318,-0.0019725118991518,0.0019765988754426,-0.0014944609878688,0.0015088273141295,-0.0015022038201373,0.0015013395437662,-0.001554487536381,0.0015571954882476,-0.0015530590899122,0.0015584027784544,-2.876342143175e-06,2.0096586747357e-06,-0.00076717479601544,0.00076642787062197,-4.2117777627242e-06,3.4176684085434e-06,-0.00090724410795521,0.00090237744179043,-0.00090462290608731,0.00090492964081807,-0.00090565820152787,0.00090405678021931,-0.00090302965872436,0.00090665032061027,-0.00077930768429166,0.00078585939755426,-0.00078367671014637,0.00078089110452446,0.76213985050508,131688,2924,0.0038854102043818,0.007354893643212,0.0031928298471339,29.29448690667,0.00014955589525336,0.00014955589525336,0.00014955589525336,2619560.6087428,0.014538377194516
33419200,0.99996559066121,0.015667107463374,0.0048589534039298,0.0065762481659493,0.004231905893495,-0.00093254920325982,0.00093179805112944,1.8946194952199e-06,-2.9415767897282e-06,2.9196887761149e-07,-1.1614123015654e-06,-0.0010800438859192,0.0010817579811939,-0.0010815942666861,0.0010801225542614,-0.001080624304203,0.0010810556362585,-0.001082160215683,0.0010793768928386,-0.00086924480105931,0.0008723443807587,-0.00087370350087652,0.0008676296926006,2.5359649670816e-06,3.9759907774501e-06,6.9042346730824e-06,-5.3305090244002e-07,-0.0017710091832799,0.0017773495492412,-0.001971676046784,0.0019798104761461,-0.0019742442419587,0.0019774199758883,-0.0019710438860437,0.0019802784676623,-0.0019735721769475,0.0019778033205808,-0.0014976472469043,0.0015117896351487,-0.0015051228140621,0.001504592417661,-0.0015572485895584,0.0015599884399624,-0.0015557408214422,0.0015612856277225,-2.8910134374287e-06,1.9859630617883e-06,-0.00076632994689265,0.00076554409995482,-4.0964222070501e-06,3.2550409750181e-06,-0.00090809487829552,0.00090328740178987,-0.0009055654095772,0.00090574780064193,-0.00090651100193782,0.00090496292118247,-0.00090397571198736,0.00090746663614978,-0.00077835718040365,0.00078477274792955,-0.00078272199359907,0.00077981441670797,0.77028159873532,131688,2924,0.0038780688405744,0.0073638836575048,0.0031892566994653,29.317262035562,0.00014973809628449,0.00014973809628449,0.00014973809628449,2577118.9138474,0.014536437888993
34419200,0.99997706235011,0.015667287129056,0.0048590063381055,0.0065763216696405,0.0042319591213097,-0.00093410836776404,0.00093335521297945,1.8917848637739e-06,-2.9490554708859e-06,2.8051763756956e-07,-1.1435111921925e-06,-0.0010825306165582,0.0010842331506627,-0.0010840852099568,0.0010825999981702,-0.0010831011158952,0.001083541794899,-0.0010846469197294,0.00108188054938,-0.00087115732609389,0.00087425243490248,-0.00087562562690788,0.00086956565997373,2.5472584773783e-06,3.9539708560142e-06,6.946077365362e-06,-5.967505184199e-07,-0.0017762013965346,0.0017825252761922,-0.0019770095847849,0.0019851848869352,-0.0019796047550464,0.0019827582418512,-0.0019763897542843,0.0019856398845046,-0.0019789440192203,0.0019830999058954,-0.0015025267875332,0.0015167448978614,-0.0015100732434884,0.0015093645703814,-0.0015621503991844,0.0015648763081012,-0.0015606543102453,0.0015661176324151,-2.8933104358159e-06,1.9871201201087e-06,-0.00076805266303676,0.00076727164236597,-4.1362149719458e-06,3.316448872784e-06,-0.00091070979119053,0.00090587310631221,-0.00090815500413535,0.00090836374691172,-0.0009091204757388,0.00090754345265905,-0.00090656590533232,0.00091009526294805,-0.00078037171345109,0.00078682078621801,-0.00078472433722167,0.0007818483233521,0.74169710826802,131688,2924,0.0038845526116037,0.0073853019120885,0.0031964439066503,31.480106692944,0.00016704085354355,0.00016704085354355,0.00016704085354355,2570252.6564489,0.014572039821621
35419200,0.99998605912636,0.015667423166095,0.0048590462983541,0.0065763775397174,0.0042319993280232,-0.00093995838474541,0.00093920694674985,1.9017628790471e-06,-2.9565926984047e-06,2.2595776885014e-07,-1.0857581299574e-06,-0.0010882670369099,0.0010899407454891,-0.0010898423336309,0.0010883073306328,-0.0010888063274212,0.0010892864124377,-0.0010903539295265,0.0010876314376513,-0.00087714897148656,0.00088030081084297,-0.00088164790374943,0.00087563034866558,2.5827264489326e-06,3.8783911207056e-06,7.0151879877313e-06,-7.1415076536733e-07,-0.0017849583543919,0.001791242515869,-0.0019870183582908,0.001995261435931,-0.0019896707589351,0.0019927731420542,-0.0019864318152223,0.0019956795745263,-0.0019890497149961,0.0019930588848425,-0.0015097623909791,0.0015240760556736,-0.0015174715246423,0.0015164856359875,-0.0015696478172883,0.0015723892860232,-0.0015682637265596,0.0015735158961266,-2.9231733090218e-06,1.9767937628958e-06,-0.00077307701746757,0.00077227415673212,-4.2339127935156e-06,3.4039108430511e-06,-0.00091565681273462,0.00091072578713292,-0.00091302702090569,0.00091328185993966,-0.00091406011744315,0.00091240430968639,-0.0009114366636102,0.00091502445999919,-0.00078586938099155,0.00079235983436855,-0.00079024060387547,0.00078737343177293,0.7164184443978,131688,2924,0.0039088431962002,0.0074214406140203,0.0032172899779711,35.925106813553,0.00020260085450842,0.00020260085450842,0.00020260085450842,2609306.2080124,0.014654496015375
36419200,0.9999918201514,0.015667512005794,0.0048590724468149,0.0065764139745342,0.0042320255844446,-0.00094151730169516,0.00094079122974737,1.9269362994584e-06,-2.949015535418e-06,2.3701696394551e-07,-1.0781196610034e-06,-0.0010890619514866,0.0010907673564791,-0.0010906264383907,0.0010891195985189,-0.0010895976322392,0.0010901119032089,-0.0010911472427136,0.0010884203510173,-0.00087857313800027,0.00088178299258265,-0.00088307239912745,0.00087703057471114,2.5800511417495e-06,3.8814484830172e-06,7.036635135328e-06,-7.1503625031955e-07,-0.0017876739338113,0.0017939648029973,-0.0019913385818981,0.0019995728234076,-0.0019940070013884,0.0019970761957882,-0.0019907505254805,0.0019999937523336,-0.0019933791270151,0.0019974125015922,-0.0015106683269619,0.0015250225044162,-0.0015184450894088,0.0015175104188251,-0.0015707251790077,0.0015734466426399,-0.0015693505807687,0.0015746049761497,-2.8895995137583e-06,2.0270911032151e-06,-0.00077438304981335,0.00077364039711526,-4.2274520930012e-06,3.4361956283476e-06,-0.0009161681240359,0.00091128483804339,-0.00091353515639923,0.0009138489798595,-0.00091457113080987,0.00091297374487193,-0.00091193235270185,0.00091558108043715,-0.00078722946509297,0.00079382999686309,-0.00079163337216542,0.00078883270457174,0.73065039212071,131688,2924,0.0039153704509694,0.0074327071314203,0.0032228505429765,37.478875580647,0.00021503100464518,0.00021503100464518,0.00021503100464518,2628845.3917881,0.014678185835828
37419200,0.99999522281133,0.015667563660007,0.0048590876309853,0.0065764352035793,0.0042320408254423,-0.00094080917330411,0.00094007653492782,1.9178332749589e-06,-2.9489891613381e-06,2.4401888385214e-07,-1.0897398943112e-06,-0.0010892944086082,0.0010909961075629,-0.0010908560340591,0.0010893517827296,-0.001089834714907,0.0010903345741389,-0.0010913834305424,0.0010886476467467,-0.0008778671374625,0.0008810488128787,-0.00088235457555509,0.0008763081840391,2.5737846186756e-06,3.893845808337e-06,7.0411396178404e-06,-7.147512008037e-07,-0.0017897280911084,0.001796023903374,-0.001992919994821,0.0020011529185985,-0.0019955880981749,0.001998654803111,-0.0019923263539889,0.0020015804453558,-0.0019949527283132,0.0019989962796874,-0.0015130762967992,0.0015274480999916,-0.0015208513008866,0.0015199164440414,-0.0015729641418519,0.001575669745821,-0.0015715623826773,0.001576844712167,-2.8813145182683e-06,2.026374299174e-06,-0.00077419650012312,0.00077345984461202,-4.2249551266321e-06,3.4430342900216e-06,-0.00091698219689889,0.0009121055171972,-0.00091435042238271,0.00091467012605147,-0.00091538776297571,0.00091379082162849,-0.00091274999680763,0.00091640005802077,-0.00078675791407466,0.00079335583481283,-0.00079114710978642,0.0007883646432824,0.71959281478646,131688,2924,0.0039124333701575,0.0074411907835493,0.0032221001773206,37.680188805261,0.00021664151044209,0.00021664151044209,0.00021664151044209,2603888.2895157,0.014683062647726
38419200,0.9999971786777,0.015667594466864,0.0048590967218559,0.006576447791712,0.0042320499532957,-0.00093909754414239,0.0009383598256036,1.9191350707244e-06,-2.9529493150972e-06,2.6346431187002e-07,-1.11730421986e-06,-0.001087326822892,0.0010890413949882,-0.0010888904445306,0.0010873951540093,-0.0010878840566049,0.0010883639997419,-0.0010894325705292,0.0010866747588123,-0.00087625646925904,0.00087942824354312,-0.00088075109725577,0.00087467973206509,2.5582688078406e-06,3.9251387037717e-06,7.0152757161905e-06,-6.7244276244081e-07,-0.001788612656416,0.0017949248294058,-0.0019923011442743,0.002000514069536,-0.0019949486721155,0.0019980391726612,-0.001991692186264,0.0020009573061105,-0.0019942998675757,0.0019983964621865,-0.001511590484796,0.0015259261105432,-0.0015193062575762,0.0015184760237854,-0.0015713550103098,0.0015740552013379,-0.0015699164718675,0.0015752779388932,-2.8935453210608e-06,2.0193224597614e-06,-0.00077283831567005,0.00077208391277732,-4.2022695380827e-06,3.3980005619407e-06,-0.00091536421604199,0.00091049189963555,-0.00091275229663881,0.00091303481717089,-0.00091376801016746,0.00091217914813864,-0.00091115068865786,0.00091476602388685,-0.00078534764594133,0.00079191283004972,-0.00078974741880903,0.00078691844695463,0.74583042908302,131688,2924,0.0039053208006246,0.0074366179507454,0.0032164213806793,37.196433269656,0.00021277146615725,0.00021277146615725,0.00021277146615725,2595738.3014774,0.014665439966499
38880000,0.99999786165846,0.015667605286415,0.0048590999175197,0.0065764522058206,0.0042320531630742,-0.00093845835791953,0.00093771109133666,1.9057022308339e-06,-2.9488489200822e-06,2.8092765441535e-07,-1.1454533307732e-06,-0.0010878908520475,0.0010896055498113,-0.0010894474651312,0.0010879640580847,-0.001088462585522,0.001088912595231,-0.0010900049805738,0.0010872286054355,-0.00087568864088287,0.00087881857004513,-0.00088016623704451,0.00087408761362422,2.5421909916629e-06,3.9548006788888e-06,6.8875777290654e-06,-5.3129644643514e-07,-0.0017902372390354,0.0017965627965599,-0.0019930142020028,0.0020011372914338,-0.0019955761946163,0.0019987528583267,-0.0019923908579729,0.0020015960183861,-0.0019949130148687,0.0019991260012135,-0.0015141710752407,0.0015282717954064,-0.001521627675582,0.0015210898876204,-0.001573608810684,0.0015763668132849,-0.001572126606519,0.0015776357534562,-2.9015380213473e-06,1.9937772323817e-06,-0.00077270037599642,0.00077191215842588,-4.0884594058586e-06,3.2450503494804e-06,-0.00091643193238046,0.00091162201726931,-0.00091390854142871,0.00091407632212031,-0.00091484161521563,0.00091330324834277,-0.00091231266567033,0.00091580138304565,-0.00078503397985689,0.0007914585135567,-0.00078941664651792,0.00078648213266249,0.74998939262426,131688,2924,0.0039026621526543,0.0074433353717277,0.0032157881818248,37.193663116545,0.00021274930493236,0.00021274930493236,0.00021274930493236,2568986.2810057,0.014668927959738
