time,ASR_ext,ASR_strain,ASR_strain_xx,ASR_strain_yy,ASR_strain_zz,disp_x_101,disp_x_102,disp_x_103,disp_x_104,disp_x_105,disp_x_106,disp_x_p1_neg,disp_x_p1_pos,disp_x_p2_neg,disp_x_p2_pos,disp_x_p3_neg,disp_x_p3_pos,disp_x_p4_neg,disp_x_p4_pos,disp_x_p5_neg,disp_x_p5_pos,disp_x_p6_neg,disp_x_p6_pos,disp_y_101,disp_y_102,disp_y_103,disp_y_104,disp_y_105,disp_y_106,disp_y_p1_neg,disp_y_p1_pos,disp_y_p2_neg,disp_y_p2_pos,disp_y_p3_neg,disp_y_p3_pos,disp_y_p4_neg,disp_y_p4_pos,disp_y_p5_neg,disp_y_p5_pos,disp_y_p6_neg,disp_y_p6_pos,disp_y_p7_neg,disp_y_p7_pos,disp_y_p8_neg,disp_y_p8_pos,disp_z_101,disp_z_102,disp_z_103,disp_z_104,disp_z_105,disp_z_106,disp_z_p1_neg,disp_z_p1_pos,disp_z_p2_neg,disp_z_p2_pos,disp_z_p3_neg,disp_z_p3_pos,disp_z_p4_neg,disp_z_p4_pos,disp_z_p5_neg,disp_z_p5_pos,disp_z_p6_neg,disp_z_p6_pos,humidity,ndof,nelem,strain_xx,strain_yy,strain_zz,temp,thermal_strain_xx,thermal_strain_yy,thermal_strain_zz,vonmises,vstrain
2419200,0,0,0,0,0,0,0,0,0,0,0,0,0,0,0,0,0,0,0,0,0,0,0,0,0,0,0,0,0,0,0,0,0,0,0,0,0,0,0,0,0,0,0,0,0,0,0,0,0,0,0,0,0,0,0,0,0,0,0,0,0,0,0,0,0,0,0,0,0,0,0,0,0,0,0
3419200,0.15867881677737,0.0030041858488481,0.0010013952829494,0.0010013952829494,0.0010013952829494,-0.00027334294194771,0.0002733377538644,-1.8264913983119e-09,-1.82649136574e-09,-1.5565212808341e-09,-2.0937815768365e-09,-0.00027879818923507,0.00027879426870676,-0.00027879911017811,0.0002787951896326,-0.00027879837800194,0.00027879409217949,-0.00027879928047605,0.00027879499465982,-0.0002707827310019,0.0002707786775177,-0.00027078327568692,0.00027077922221205,-1.6035294190123e-10,3.3661042933391e-10,-6.4976092611737e-10,8.1888368070978e-10,-0.00028953455302393,0.00028953472279263,-0.00029307765988343,0.00029307710486496,-0.0002930780084879,0.00029307853184709,-0.00029307795995476,0.00029307777253203,-0.00029307830855344,0.00029307919950237,-0.00028282597470919,0.00028282489669795,-0.00028282509510602,0.00028282685569199,-0.00028625300211026,0.0002862532008866,-0.00028625297629012,0.00028625413935493,-4.5971796431705e-09,-4.5971796539974e-09,-0.00025957627855413,0.00025956453860882,-3.7649867161593e-09,-5.325872059295e-09,-0.00026601834524684,0.00026600882192201,-0.00026601888502743,0.00026600829014825,-0.00026601880167991,0.00026600927834985,-0.00026601933378179,0.00026600873890946,-0.00026336978602449,0.00026335965389808,-0.00026336943005212,0.00026335929792368,0.75746877217741,122718,2924,0.0011382675733229,0.0012056627623909,0.0010809620731119,31.800136635858,0.00016960109308687,0.00016960109308687,0.00016960109308687,1900365.436117,0.0034307665515826
4419200,0.34973104574301,0.0064389693115132,0.0021349113891898,0.0023173754171805,0.001986682505143,-0.0005358475146355,0.00053583280694487,-5.8926433859108e-09,-5.8926475726549e-09,-4.9261354202706e-09,-7.064804852973e-09,-0.00055711936816832,0.00055710700537138,-0.00055712199358402,0.0005571096307186,-0.00055712012778805,0.00055710629084613,-0.00055712268864457,0.00055710885169685,-0.00052276190463993,0.00052274895021813,-0.0005227632688464,0.00052275031443682,-5.3085420148913e-10,1.3967555065707e-09,-6.0819321626178e-10,1.4443382706043e-09,-0.00062012613348048,0.00062012697321474,-0.00064162606376459,0.00064162543580408,-0.00064162850481791,0.00064162940626941,-0.0006416276681684,0.00064162842925739,-0.00064163010936932,0.00064163239977366,-0.00058426689033538,0.00058426640093444,-0.00058426689817135,0.00058427038865985,-0.00060248907175425,0.00060248878401111,-0.00060248938917364,0.00060249286677018,-9.9583545103922e-09,-9.9583588592667e-09,-0.00047515415234841,0.00047513037716838,-8.7167035760862e-09,-1.1059101220097e-08,-0.00049504770475732,0.00049502639507573,-0.00049504854010363,0.00049502559132585,-0.00049504902319213,0.00049502771347647,-0.00049504982566061,0.00049502687688312,-0.00049179454045647,0.00049177314974974,-0.0004917933579552,0.00049177196725659,0.73992840791513,122718,2924,0.0022301742124904,0.002580489595823,0.0019778863718682,33.600040214221,0.00018400032171377,0.00018400032171377,0.00018400032171377,3454328.4445603,0.0068116668581243
5419200,0.54984763359587,0.0098867709398089,0.0032340351271083,0.0037895221756518,0.0028632136370488,-0.00078461318846963,0.0007846039941086,-3.9442798872271e-09,-3.9442891772088e-09,-3.3776677816597e-09,-3.4229258066133e-09,-0.00082809037129472,0.00082808157882653,-0.00082809179232469,0.00082808299977572,-0.00082809043877054,0.00082808154481366,-0.0008280918421081,0.00082808294811488,-0.00075529783321238,0.00075528926126769,-0.00075529803580973,0.00075528946386407,2.6651875837311e-10,1.236155328068e-10,8.4767318725423e-10,-4.6247042531655e-10,-0.0009939882597116,0.00099398864723851,-0.0010486070767713,0.0010486080540694,-0.0010486089302425,0.0010486088684539,-0.0010486082361037,0.0010486090625511,-0.0010486100895913,0.0010486098769514,-0.00091100506156076,0.00091100665622147,-0.00091100594215213,0.00091100502208364,-0.00094807036505086,0.00094807046041604,-0.00094806941609633,0.00094806927286518,-2.1598128921987e-09,-2.1598224144813e-09,-0.00066149807576733,0.00066149162679554,-2.5516713586327e-09,-1.365779897908e-09,-0.00070015730092788,0.00070015074426535,-0.00070015690730691,0.00070015114811771,-0.00070015819080203,0.00070015163407115,-0.00070015778228102,0.00070015202304985,-0.00069124607334483,0.00069124150033769,-0.00069124527848295,0.00069124070550045,0.72499638738019,122718,2924,0.0032639028773318,0.0041329191711663,0.002752820808635,36.268494835665,0.00020534795868532,0.00020534795868532,0.00020534795868532,4264421.081026,0.010201400867184
6419200,0.70634430647217,0.012074946052174,0.0038849211834576,0.0048200277467803,0.0033699971219357,-0.00091740380241965,0.00091739732281923,-2.5216928541907e-09,-2.5217037665583e-09,-2.8671155491028e-09,-2.5901323788514e-09,-0.00098488510030777,0.0009848789576563,-0.00098488574019342,0.00098487959750807,-0.00098488503061824,0.00098487904739098,-0.000984885665994,0.00098487968278321,-0.00087122455781819,0.00087121939012232,-0.00087122416348755,0.00087121899573996,-7.6850934786107e-11,-4.2474956982456e-10,3.6373886308624e-10,-8.569285114222e-10,-0.0012588536220728,0.0012588531266807,-0.0013545043498857,0.0013545043741825,-0.0013545060229565,0.0013545052403856,-0.0013545056619106,0.0013545054546372,-0.0013545073350992,0.0013545063209401,-0.0011241696731757,0.00112417026087,-0.0011241724744956,0.0011241706646658,-0.001176395863346,0.001176395285588,-0.0011763970412425,0.0011763958364239,-2.0142881676291e-09,-2.0142996576164e-09,-0.00075384058761406,0.0007538345721055,-3.0743292352933e-09,-1.8992872819638e-09,-0.00081358723924872,0.00081358108699191,-0.00081358684482129,0.00081358148831993,-0.00081358777444133,0.00081358162212908,-0.0008135873756274,0.00081358201908623,-0.00078471203623691,0.00078470838055076,-0.00078471223473741,0.00078470857901964,0.59839168540088,122718,2924,0.0038153650711249,0.0052312498221139,0.0031368785199442,36.738726188434,0.00020910980950748,0.00020910980950748,0.00020910980950748,4466191.6853383,0.01225817582972
7419200,0.83188415386405,0.013608362106982,0.0043278578149472,0.0055499365368858,0.0037305677551493,-0.0010028970898966,0.0010028908884487,-2.3396327487685e-09,-2.3396496206103e-09,-2.733404202218e-09,-2.1882847307565e-09,-0.0010883517047201,0.0010883459323274,-0.0010883524712563,0.0010883466988707,-0.0010883515484858,0.0010883461121271,-0.0010883523084641,0.0010883468721762,-0.00094416627550938,0.00094416151056852,-0.00094416615494686,0.00094416138993251,6.222074843414e-11,-5.4515744202024e-10,4.2569824503436e-10,-8.9711884157637e-10,-0.0014585251733893,0.0014585247005366,-0.0015921556059457,0.0015921557754311,-0.0015921571870376,0.0015921564790161,-0.0015921568883761,0.0015921566562742,-0.0015921584696135,0.0015921573599751,-0.0012804940364459,0.0012804946577266,-0.0012804965775558,0.0012804946031701,-0.0013417729903945,0.001341772655885,-0.0013417741990842,0.0013417727207248,-2.1220340947415e-09,-2.1220519108737e-09,-0.00081594032958816,0.00081593389345024,-3.0559037195331e-09,-1.7804944434524e-09,-0.00089105681316417,0.00089105055149288,-0.00089105638772627,0.0008910509827305,-0.00089105731811444,0.00089105105636956,-0.00089105688794159,0.00089105148288429,-0.00084548071648467,0.00084547680352028,-0.00084548085000889,0.00084547693698587,0.52694121020036,122718,2924,0.00417033604355,0.0060584362448841,0.0033952245308555,40.763654562118,0.00024130923649695,0.00024130923649695,0.00024130923649695,4421988.9831695,0.013717478025659
7919200,0.87916974192099,0.014142531795373,0.0044790780993701,0.0058040037739274,0.0038594499220757,-0.0010249813760745,0.0010249776266205,-1.4152135850806e-09,-1.4152309398734e-09,-2.0556312877263e-09,-1.0085600662411e-09,-0.0011177805200173,0.0011177766912995,-0.0011177809884151,0.0011177771597152,-0.0011177801948199,0.0011177770398178,-0.0011177806620614,0.0011177775071432,-0.00096224245731225,0.0009622398080331,-0.00096224229638939,0.0009622396470346,1.9874743693164e-10,-8.8500360633555e-10,6.2243748966783e-10,-1.290390054999e-09,-0.0015285031092191,0.001528502439295,-0.00167657216819,0.001676572522555,-0.0016765736617429,0.00167657271214,-0.0016765734063155,0.0016765730256821,-0.0016765749000172,0.0016765732153861,-0.0013342984948584,0.0013342993303473,-0.0013343014975448,0.0013342985930232,-0.0013978727361265,0.0013978724639198,-0.0013978742921883,0.0013978719442325,-6.2664608101002e-10,-6.2666446352198e-10,-0.00083169322771336,0.0008316906140958,-1.8749375333571e-09,2.3370122708609e-11,-0.00091379861069872,0.00091379550582278,-0.00091379797054664,0.00091379614803401,-0.00091379893544088,0.00091379583048597,-0.00091379829427079,0.00091379647169521,-0.00085995099723744,0.00085995044282823,-0.00085995117191074,0.00085995061743644,0.48708931878001,122718,2924,0.0042620644777205,0.0063481558704952,0.0034608460788954,40.956028212879,0.00024284822570303,0.00024284822570303,0.00024284822570303,4332465.2652651,0.014170825927968
8919200,0.93498824450694,0.014677622929238,0.0046292657803977,0.0060583643195319,0.0039899928293088,-0.0010351828958961,0.0010351797077021,-1.1699466706529e-09,-1.1699643730208e-09,-2.024021344177e-09,-5.3678863294632e-10,-0.0011382234138363,0.0011382200087783,-0.0011382238754414,0.0011382204704093,-0.0011382229450679,0.00113822050598,-0.0011382234046999,0.0011382209657076,-0.00096898623999754,0.00096898424153789,-0.00096898614686746,0.0009689841483312,3.1120695787047e-10,-1.2021052250105e-09,7.7874055101072e-10,-1.6451397144639e-09,-0.0016064968570999,0.0016064959882106,-0.0017722401401222,0.0017722406079953,-0.0017722417443306,0.0017722405721671,-0.0017722414469856,0.0017722408948585,-0.0017722430513456,0.0017722408591549,-0.0013928007311501,0.0013928017272829,-0.001392804215865,0.0013928004678672,-0.001457744754666,0.0014577445321311,-0.0014577467132248,0.001457743569217,-5.3606477820664e-10,-5.3608352992791e-10,-0.00083814279986022,0.00083814039579067,-2.0248127124792e-09,3.854519158308e-10,-0.00093053760989896,0.00093053458474837,-0.0009305367991082,0.00093053539704977,-0.00093053790911202,0.00093053488388328,-0.00093053709805896,0.00093053569593608,-0.00086404019823638,0.00086404000936858,-0.00086404033984258,0.00086404015090346,0.41296021651308,122718,2924,0.004304549169626,0.0066709260285156,0.0034879118257695,41.891136684621,0.00025032909347697,0.00025032909347697,0.00025032909347697,4037719.019689,0.014568844035243
9919200,0.96351721165631,0.014944923435722,0.0047047936954649,0.0061816008585685,0.0040585288816886,-0.0010322971053127,0.0010322967379952,-9.2123730817451e-11,-9.2141451939341e-11,-1.275611330126e-09,9.0512151921771e-10,-0.0011402842400726,0.0011402830792812,-0.0011402843990927,0.0011402832383319,-0.0011402835405652,0.0011402838098538,-0.0011402837022988,0.0011402839716879,-0.00096523136932426,0.00096523187335591,-0.0009652312706019,0.00096523177455781,5.0237120402221e-10,-1.6748041855876e-09,1.1402290008455e-09,-2.2788716469178e-09,-0.0016410960110013,0.0016410948691163,-0.001815298070415,0.0018152988449641,-0.0018152996687734,0.0018152981096466,-0.0018152993418746,0.0018152986360111,-0.0018153009403859,0.0018152979008176,-0.0014180082932834,0.0014180097630765,-0.0014180126239104,0.0014180074096106,-0.0014830854988515,0.0014830853105411,-0.0014830879613721,0.0014830835515291,1.0471109743756e-09,1.0470922639619e-09,-0.00083485732468889,0.00083485892571394,-9.4981546043672e-10,2.4890134102569e-09,-0.00093247032678692,0.00093247053471307,-0.0009324691659866,0.00093247169322886,-0.00093247043291781,0.0009324706407656,-0.00093246927567021,0.00093247180284705,-0.00085960389538582,0.00085960737887057,-0.00085960402864024,0.00085960751205264,0.40055244745217,122718,2924,0.0042926826961309,0.0068140608337114,0.0034744362479239,39.825548443785,0.00023380438755028,0.00023380438755028,0.00023380438755028,3873209.8427749,0.014688388427678
10919200,0.97869410004353,0.015080501203243,0.0047432214282163,0.0062432185665668,0.0040940612084597,-0.0010250569836077,0.001025056906735,2.9169247274518e-11,2.9151577024581e-11,-1.3822843097661e-09,1.2794194387908e-09,-0.0011379161869536,0.0011379151223958,-0.0011379163541214,0.001137915289595,-0.0011379153340074,0.001137916014021,-0.0011379155017108,0.0011379161818256,-0.00095829644073411,0.00095829735828134,-0.00095829636630527,0.00095829728377678,6.5789783149638e-10,-1.9984617624238e-09,1.4544069351018e-09,-2.754446066681e-09,-0.0016598525261463,0.0016598512221979,-0.0018374831535779,0.0018374841816898,-0.0018374849817989,0.0018374831611926,-0.0018374845461761,0.00183748378113,-0.0018374863745495,0.0018374827607566,-0.0014325999583575,0.0014326018841617,-0.0014326050307027,0.0014325987201321,-0.001497136480887,0.0014971363376113,-0.0014971393820999,0.0014971340709893,1.1094232459108e-09,1.1094045554377e-09,-0.00082880558597044,0.00082880732941609,-1.2619577250872e-09,2.9595379923288e-09,-0.00093177446013766,0.00093177452706353,-0.00093177304043955,0.00093177594470765,-0.00093177456117644,0.00093177462802371,-0.00093177314472311,0.00093177604892551,-0.00085268389724034,0.00085268777508177,-0.00085268401079625,0.00085268788856366,0.38048843952028,122718,2924,0.004262726004981,0.0068915987421428,0.0034494249647086,37.954272390855,0.00021883417912684,0.00021883417912684,0.00021883417912684,3712801.5656612,0.014711317024566
11919200,0.98734374769479,0.01516761638127,0.0047681950420691,0.0062819071102547,0.0041175142289458,-0.0010211004150946,0.0010210997313369,-1.9341299564332e-10,-1.9343058951715e-10,-1.7148844968639e-09,1.1711856259066e-09,-0.0011367101449625,0.0011367084901756,-0.0011367104033425,0.0011367087485879,-0.0011367092229694,0.0011367094566411,-0.0011367094787773,0.0011367097125511,-0.00095478299709839,0.00095478351800026,-0.0009547829439717,0.00095478346479865,7.3358777798517e-10,-2.1530567875048e-09,1.635065721394e-09,-3.0105626024379e-09,-0.0016720636882315,0.0016720623084644,-0.0018516207867871,0.0018516219476735,-0.0018516228317078,0.0018516208711403,-0.0018516223003683,0.0018516215254453,-0.001851624345441,0.0018516204490356,-0.0014423330542388,0.0014423352613019,-0.0014423385724978,0.0014423316797226,-0.0015064903151269,0.0015064901799673,-0.0015064934681728,0.001506487707169,6.9670310327196e-10,6.9668448084086e-10,-0.00082588894210293,0.00082588962948186,-1.8754112723553e-09,2.7679382932041e-09,-0.00093184980349479,0.00093184879886708,-0.00093184824693881,0.00093185035460468,-0.00093184995442525,0.000931848949718,-0.00093184839987357,0.00093185050747337,-0.00084941267919647,0.0008494158318967,-0.00084941278255982,0.00084941593518489,0.4268724117517,122718,2924,0.004246361807628,0.0069420783438459,0.0034373837965093,37.104289298854,0.00021203431439083,0.00021203431439083,0.00021203431439083,3616610.5903768,0.014733729699806
12919200,0.99232698737622,0.015215432183397,0.0047818755340238,0.0063030981013333,0.0041304585480395,-0.0010134435194645,0.0010134430686515,-1.1146953632556e-10,-1.1148715819078e-10,-1.7007571760541e-09,1.3404174964597e-09,-0.0011335902556925,0.0011335887207266,-0.0011335905075798,0.0011335889726454,-0.0011335892842416,0.001133589738927,-0.0011335895328265,0.0011335899876132,-0.00094802971284121,0.00094803046398868,-0.00094802967076204,0.00094803042183525,8.0553172070593e-10,-2.235345767133e-09,1.7982597301643e-09,-3.1819849631318e-09,-0.001680985659296,0.0016809842710432,-0.0018607117485813,0.001860713062034,-0.0018607138756559,0.0018607118478546,-0.0018607132856813,0.001860712561801,-0.0018607154129066,0.0018607113477441,-0.0014504780157586,0.0014504804918723,-0.0014504838291405,0.0014504765483625,-0.0015138560828934,0.0015138559795396,-0.0015138593533354,0.0015138533191966,7.7884300964538e-10,7.7882431853991e-10,-0.00082031053704834,0.00082031144944062,-1.9491805768419e-09,3.0272438498896e-09,-0.00093113349757346,0.00093113254705865,-0.00093113183051423,0.000931134213371,-0.00093113363960399,0.00093113268900981,-0.0009311319744303,0.00093113435722122,-0.00084330023541787,0.00084330367912498,-0.00084330032870184,0.00084330377233376,0.40627070885187,122718,2924,0.0042146573615646,0.0069789073805683,0.0034143010334036,36.135290955331,0.00020428232764265,0.00020428232764265,0.00020428232764265,3478588.2812059,0.01471553055945
13919200,0.99511519653129,0.015241433823704,0.0047893300989091,0.0063145195846404,0.0041375841401544,-0.0010065048480547,0.0010065055988191,3.3684647557139e-10,3.3682895876805e-10,-1.3643886471446e-09,1.9186078353182e-09,-0.0011273458723019,0.0011273452922662,-0.0011273459932636,0.0011273454132605,-0.001127344820399,0.0011273463919969,-0.0011273449398279,0.0011273465115285,-0.00094118814828213,0.00094118993418185,-0.00094118810173251,0.00094118988755841,8.7396804699373e-10,-2.3963097322943e-09,1.9818593295579e-09,-3.4545536915796e-09,-0.0016811185720536,0.0016811170945726,-0.0018623069123651,0.0018623083763017,-0.0018623090436059,0.0018623068503019,-0.0018623084137077,0.0018623076789316,-0.0018623105450996,0.0018623061530548,-0.0014489246882178,0.0014489274425466,-0.0014489308864915,0.0014489229940113,-0.0015121924044506,0.0015121922797814,-0.0015121958335405,0.0015121893294567,1.4499454573674e-09,1.449926828466e-09,-0.00081388034104588,0.00081388297114437,-1.508023357951e-09,3.9377097131243e-09,-0.00092541013472042,0.00092541054076648,-0.00092540830856592,0.00092541236462907,-0.00092541019153652,0.00092541059750319,-0.00092540836884701,0.00092541242484421,-0.0008367297355053,0.00083673475523438,-0.00083672982224174,0.00083673484189505,0.39395082495196,122718,2924,0.0041858927091421,0.006979447208621,0.0033876322405562,33.831386817862,0.00018585109454289,0.00018585109454289,0.00018585109454289,3447824.4500607,0.014659832593703
14919200,0.99668428774901,0.015256336303313,0.0047936149615151,0.0063210298805077,0.0041416914612899,-0.00099812381365845,0.00099812543220844,6.6304388919777e-10,6.6302636871578e-10,-1.1789880885173e-09,2.4033214002398e-09,-0.0011197178670239,0.0011197179359542,-0.0011197178983873,0.0011197179673504,-0.0011197167174217,0.0011197191362173,-0.0011197167478804,0.001119719166779,-0.00093289317807128,0.00093289575469273,-0.00093289313286371,0.00093289570941143,9.6799583874453e-10,-2.5932154426365e-09,2.2264943117742e-09,-3.7978889287473e-09,-0.001678030613772,0.0016780290372284,-0.0018599911985794,0.0018599928616829,-0.0018599934177154,0.0018599910269985,-0.0018599927153699,0.0018599919820898,-0.0018599949346568,0.0018599901475283,-0.001444892925826,0.0014448960593141,-0.0014448996533961,0.0014448909892081,-0.0015080651729153,0.0015080650354957,-0.0015080688383012,0.0015080617497718,1.9339380921217e-09,1.933919478808e-09,-0.00080576926313245,0.00080577312430311,-1.3143081957574e-09,4.7261283729893e-09,-0.00091811283761928,0.00091811413045493,-0.00091811081197843,0.00091811615275039,-0.00091811283569454,0.00091811412845063,-0.00091811081452006,0.00091811615522615,-0.00082851794466764,0.00082852418272499,-0.00082851802238903,0.00082852426037054,0.40081297763593,122718,2924,0.0041511366348583,0.0069666563173695,0.0033539759273998,30.576363942269,0.00015981091153815,0.00015981091153815,0.00015981091153815,3426832.8713003,0.014577446351574
15919200,0.99753866276245,0.015268738786065,0.0047972370145197,0.0063263304508152,0.0041451713207302,-0.00098534084500363,0.00098534411596356,1.2789180018594e-09,1.2789004791682e-09,-7.401140749054e-10,3.2287001964841e-09,-0.0011083555947571,0.0011083569352087,-0.0011083554518723,0.0011083567923565,-0.001108354317495,0.0011083582653413,-0.0011083541757527,0.0011083581237015,-0.00092039088620059,0.00092039490144572,-0.00092039083192113,0.00092039484709294,1.0953160781398e-09,-2.8373233356315e-09,2.5421391475117e-09,-4.2251159464316e-09,-0.0016714382581536,0.0016714365695606,-0.0018536125823964,0.0018536145181012,-0.0018536148472626,0.0018536122198668,-0.001853614071381,0.0018536133532785,-0.0018536163363978,0.0018536110551669,-0.0014377805665643,0.001437784188506,-0.0014377879255959,0.0014377782989901,-0.0015008194520764,0.0015008193134761,-0.0015008233788553,0.0015008155610287,2.8619555969269e-09,2.8619369587022e-09,-0.00079327475259644,0.00079328098611189,-7.5562021143887e-10,6.0437647263403e-09,-0.0009071398305979,0.00090714293552369,-0.00090713754870932,0.00090714521202985,-0.00090713971664409,0.00090714282149042,-0.00090713744115801,0.0009071451044125,-0.00081603597787733,0.00081604442992965,-0.00081603604757843,0.00081604449955501,0.6105949319646,122718,2924,0.0040981199447503,0.0069393489468558,0.003302125734586,25.363850716488,0.00011811080573191,0.00011811080573191,0.00011811080573191,3401762.9867392,0.014443362145761
16919200,0.99812878259756,0.015278757350099,0.0048001562437377,0.0063306209097184,0.004147980196643,-0.00096930991493698,0.00096931035081724,2.0568151843293e-10,2.0566386479169e-10,-1.7634739372729e-09,2.1016485497265e-09,-0.0011011521442047,0.0011011510289135,-0.001101152353349,0.0011011512380876,-0.0011011509093452,0.0011011523223011,-0.001101151112182,0.0011011525252366,-0.00090644804782113,0.00090644975774121,-0.00090644804804427,0.00090644975789273,1.1412813853136e-09,-2.717545848428e-09,2.6388319049673e-09,-4.1577173078843e-09,-0.001678567249016,0.0016785657244168,-0.0018580400890036,0.0018580421344974,-0.0018580427029014,0.0018580402132662,-0.0018580417968176,0.0018580412669187,-0.0018580444108638,0.0018580393458078,-0.0014466004442413,0.0014466042972334,-0.0014466079372809,0.0014465984662755,-0.001508096228848,0.0015080961881311,-0.0015081002051994,0.0015080926169687,1.1545900439785e-09,1.1545712002894e-09,-0.00078204843127873,0.00078205033944432,-2.4398833513561e-09,4.3463131407769e-09,-0.00090487077548178,0.00090487002110975,-0.00090486850761403,0.0009048722879989,-0.00090487087512572,0.0009048701206744,-0.00090486860909194,0.00090487238941158,-0.000804143722753,0.00080414857663541,-0.00080414377514968,0.00080414862895675,0.71401690074734,122718,2924,0.0040317033116441,0.0069686628522461,0.0032556142105481,23.781827238578,0.00010545461790862,0.00010545461790862,0.00010545461790862,3162770.3581342,0.014358590626799
17919200,0.99849309974293,0.015283126534327,0.0048014093981992,0.0063325137838818,0.0041492033522458,-0.00095098389528328,0.00095098665080433,1.0450048090263e-09,1.0449872725991e-09,-9.8372124923374e-10,3.0520091370394e-09,-0.0010861544129442,0.0010861551570049,-0.0010861543822597,0.0010861551263507,-0.0010861531181996,0.0010861565084343,-0.0010861530848973,0.001086156475232,-0.00088896573513015,0.00088896931254776,-0.00088896573055571,0.00088896930790151,1.1987898289407e-09,-2.8098788818054e-09,2.8025814858829e-09,-4.3536630317593e-09,-0.0016757822569596,0.0016757807000379,-0.0018563711961283,0.0018563734029279,-0.0018563736489263,0.0018563710541026,-0.0018563727316021,0.0018563722437324,-0.0018563751845488,0.0018563698950274,-0.0014422290432115,0.001442233158226,-0.0014422367374628,0.0014422268338822,-0.0015029579731429,0.0015029579181502,-0.0015029619356245,0.001502954045211,2.382739398844e-09,2.3827205883745e-09,-0.00076663564116367,0.00076664076051605,-1.388777804409e-09,5.7827974798125e-09,-0.0008926826536084,0.00089268450821055,-0.00089268025189442,0.00089268690646226,-0.00089268259181788,0.00089268444634063,-0.00089268019455025,0.00089268684905229,-0.0007882393391288,0.00078824694537937,-0.00078823937309386,0.00078824697926806,0.50452036832971,122718,2924,0.0039557223735925,0.006957073653591,0.0031916747007781,19.501139765905,7.1209118127237e-05,7.1209118127237e-05,7.1209118127237e-05,3047264.946051,0.014204930611483
18919200,0.99874914990295,0.015286900162282,0.0048025109599702,0.0063341028466871,0.0041502863556249,-0.00095171750091377,0.00095171900769959,6.1629703347147e-10,6.1627974287583e-10,-1.4661625927245e-09,2.6164573264953e-09,-0.0010781155770768,0.001078115416413,-0.0010781156576442,0.0010781154970167,-0.001078114270501,0.0010781167846418,-0.0010781143459782,0.0010781168602249,-0.00088791936002145,0.00088792201454674,-0.00088791937059038,0.00088792202504254,1.1259891557454e-09,-2.9334041234294e-09,2.7932796593414e-09,-4.538301209778e-09,-0.0016652772086388,0.0016652754578512,-0.0018515679690348,0.0018515700449942,-0.0018515706215591,0.0018515677970875,-0.001851569636639,0.0018515689937007,-0.0018515722893151,0.0018515667459178,-0.0014267919139246,0.0014267959958583,-0.0014267999157399,0.0014267896272477,-0.0014886703647926,0.0014886701081499,-0.0014886745300281,0.0014886663362434,1.7461011983364e-09,1.7460827329005e-09,-0.00076374575159934,0.00076374915711275,-2.1231680050572e-09,5.20847388797e-09,-0.00088110923141075,0.00088110971573184,-0.00088110678008769,0.00088111216453906,-0.00088110924147446,0.00088110972571471,-0.00088110679400027,0.00088111217838512,-0.00078568773248943,0.00078569401933444,-0.00078568776764857,0.00078569405441634,0.61713023305391,122718,2924,0.0039586840850462,0.0069137941231739,0.0031795871246376,16.882294937706,5.0258359501652e-05,5.0258359501652e-05,5.0258359501652e-05,3221123.0788399,0.01415173277891
19919200,0.99898278289942,0.015290441408371,0.0048035390967493,0.0063356145036293,0.004151287807992,-0.00094897754758446,0.00094897538516077,-7.4725115788344e-10,-7.4726871387711e-10,-2.6438991277921e-09,1.0271291087931e-09,-0.0010805550791286,0.0010805518911874,-0.0010805555848355,0.001080552396926,-0.0010805539140324,0.0010805531193302,-0.0010805544073533,0.0010805536127528,-0.00088623012055501,0.00088622973312305,-0.0008862301623622,0.00088622977485829,1.0517250793737e-09,-2.6339375561333e-09,2.6339770764554e-09,-4.1607032023732e-09,-0.0016740429353123,0.0016740414031915,-0.0018580063975153,0.0018580083459569,-0.001858009320195,0.0018580067749569,-0.0018580082783304,0.001858007788829,-0.0018580112011591,0.0018580062179502,-0.0014377095705868,0.0014377134837473,-0.0014377172156691,0.0014377077918304,-0.0014985210054898,0.0014985207984685,-0.0014985249919554,0.0014985175703089,-3.4059256436625e-10,-3.4061129419112e-10,-0.00076401993585169,0.00076401798813256,-3.9191637982656e-09,2.8294862097452e-09,-0.0008867051869518,0.00088670114822986,-0.00088670294012856,0.00088670339762103,-0.00088670546743614,0.00088670142863467,-0.0008867032192398,0.00088670367666659,-0.00078524091699594,0.00078524259536198,-0.00078524096366649,0.00078524264195558,0.63658889967781,122718,2924,0.0039473670776107,0.0069499538598683,0.0031807697427332,18.683395150902,6.4667161207218e-05,6.4667161207218e-05,6.4667161207218e-05,3073951.0988308,0.01417815841876
20919200,0.99915929864509,0.015293062906424,0.0048043008008031,0.0063367264488803,0.0041520356567407,-0.00094300409596405,0.0009430039802931,2.2969667042439e-13,2.121912038257e-13,-1.9109845587004e-09,1.7687231444867e-09,-0.001075297943038,0.0010752965123876,-0.0010752984499069,0.0010752970192882,-0.0010752967739137,0.0010752977441394,-0.0010752972684665,0.0010752982387943,-0.00088070138454735,0.00088070272246588,-0.000880701428245,0.00088070276609183,1.0394127587713e-09,-2.6176142995623e-09,2.6139451958862e-09,-4.1369297596355e-09,-0.0016724141711151,0.0016724126427921,-0.001856553739298,0.001856555667867,-0.0018565566483083,0.0018565541119417,-0.0018565556104804,0.001856555119646,-0.0018565585196394,0.0018565535638419,-0.0014359289953353,0.0014359328786689,-0.0014359365914953,0.0014359272239184,-0.0014966703975293,0.0014966701806263,-0.0014966743529661,0.0014966669780757,9.216391251456e-10,9.2162044252517e-10,-0.00075881961028971,0.00075882093740258,-2.6845574372307e-09,4.0849051962425e-09,-0.00088215345936763,0.00088215231120999,-0.00088215120413604,0.00088215456905309,-0.00088215373969266,0.00088215259145499,-0.00088215148309183,0.00088215484794319,-0.00078030875997363,0.00078031330163436,-0.00078030880520903,0.00078031334679259,0.62261669282111,122718,2924,0.0039225951424917,0.0069431917453995,0.0031591924352577,17.272357726072,5.3378861808573e-05,5.3378861808573e-05,5.3378861808573e-05,3019377.1024878,0.014124296044771
21919200,0.99928138748933,0.015294836530231,0.0048048166674797,0.0063374766993097,0.0041525431634412,-0.00093399746315414,0.00093399964631087,8.5878621779187e-10,8.5876874976174e-10,-1.1140875261978e-09,2.774994706346e-09,-0.0010661046633278,0.0010661050913828,-0.0010661047012319,0.0010661051293199,-0.0010661034159391,0.0010661063947174,-0.0010661034502851,0.0010661064291664,-0.00087157252729609,0.00087157564379391,-0.00087157255513896,0.00087157567156537,1.0947839469254e-09,-2.7673643640947e-09,2.7272774700748e-09,-4.3418593017081e-09,-0.0016680108904706,0.0016680092704887,-0.001853825709853,0.0018538277720839,-0.0018538282133321,0.0018538255386453,-0.0018538272551988,0.0018538267211376,-0.0018538297588272,0.0018538244878204,-0.0014296780618592,0.0014296820789623,-0.0014296857549789,0.0014296759206958,-0.0014901229600816,0.0014901227277944,-0.0014901268690429,0.0014901190912286,2.0409939243601e-09,2.0409752841061e-09,-0.00075027098682863,0.00075027518249045,-1.6943207134005e-09,5.3855633402919e-09,-0.00087355069072704,0.00087355189151322,-0.00087354832101748,0.00087355425838694,-0.00087355066734149,0.00087355186804803,-0.00087354830184693,0.00087355423915055,-0.0007712432528407,0.00077125009367866,-0.00077124326941915,0.00077125011017963,0.60875358308609,122718,2924,0.0038852351947539,0.0069249841626243,0.0031237076570534,14.000823792087,2.7206590336695e-05,2.7206590336695e-05,2.7206590336695e-05,3029780.4412894,0.014031962268058
22919200,0.99939388217116,0.015296330230547,0.0048052493720391,0.0063381115228481,0.0041529693356593,-0.00093562482995927,0.00093562411809591,-1.9594143946176e-10,-1.9595891195774e-10,-2.1358764115355e-09,1.7153031501368e-09,-0.001067603201237,0.0010676011602411,-0.0010676032375707,0.0010676011966078,-0.0010676019677103,0.0010676024498876,-0.0010676020004475,0.0010676024827281,-0.00087322995447341,0.00087323062679517,-0.00087322998286973,0.00087323065511987,1.0947594837904e-09,-2.782306864141e-09,2.7317515963933e-09,-4.3611479306302e-09,-0.0016708501069335,0.0016708484721355,-0.0018568620639691,0.0018568641242082,-0.0018568645720018,0.0018568618796867,-0.0018568636117599,0.0018568630658442,-0.0018568661199422,0.0018568608214444,-0.0014323406559314,0.0014323446766443,-0.0014323483801044,0.0014323385027721,-0.0014927723239639,0.0014927720835194,-0.001492776250761,0.0014927684354557,2.3148540245632e-10,2.314667520702e-10,-0.00075224245124511,0.00075224195170139,-3.4444966654913e-09,3.5657852379035e-09,-0.00087536736018202,0.00087536443471248,-0.00087536501575895,0.00087536677626941,-0.00087536733590804,0.00087536441035896,-0.0008753649957135,0.00087536675615817,-0.00077317804089292,0.00077318076574569,-0.00077317805833459,0.00077318078310981,0.55669926264336,122718,2924,0.0038919855435623,0.0069367352061516,0.0031318841486035,15.355469764282,3.8043758114257e-05,3.8043758114257e-05,3.8043758114257e-05,3011283.2991895,0.014059013233507
23919200,0.99949762264667,0.015298125788461,0.0048057757191434,0.0063388623350598,0.0041534877342583,-0.00093995657362813,0.00093995461103963,-6.7287183494423e-10,-6.7288927444088e-10,-2.4910697874121e-09,1.0194674617335e-09,-0.0010701184030743,0.0010701154505821,-0.0010701188914491,0.0010701159389909,-0.0010701172884797,0.0010701166256261,-0.0010701177650454,0.0010701171022962,-0.00087729308859616,0.0008772928103829,-0.00087729313514963,0.00087729285686418,9.6603584835618e-10,-2.5566163361553e-09,2.4873231318092e-09,-4.0246048649075e-09,-0.0016733999992515,0.0016733984569598,-0.0018607560771877,0.0018607578717458,-0.0018607588874481,0.0018607563715493,-0.0018607578847983,0.001860757345156,-0.0018607606952089,0.0018607558450815,-0.0014338737939558,0.0014338774718166,-0.001433881157364,0.0014338720548114,-0.0014942632873408,0.0014942630022005,-0.0014942671114211,0.0014942599360059,-2.6246604771005e-10,-2.6248463856859e-10,-0.00075632091736594,0.00075631917824895,-3.7021725447877e-09,2.7661707126041e-09,-0.00087773948140012,0.00087773572173168,-0.00087773732748064,0.00087773787824054,-0.00087773974606332,0.00087773598631531,-0.00087773759105203,0.00087773814174588,-0.00077706251192845,0.00077706426896473,-0.00077706255392518,0.00077706431088349,0.72396878325088,122718,2924,0.0039099491565667,0.0069473248839093,0.0031488053938308,17.00811716871,5.1264937349678e-05,5.1264937349678e-05,5.1264937349678e-05,3032577.0681144,0.014105119169694
24919200,0.99958989114634,0.015299434355329,0.0048061547335299,0.0063394186579438,0.0041538609638554,-0.00093391524981135,0.00093391355413805,-5.8111992015592e-10,-5.811375048751e-10,-2.3660962060395e-09,1.0878790613061e-09,-0.0010701072885987,0.001070104555866,-0.0010701077586081,0.0010701050259074,-0.0010701061909209,0.001070105711451,-0.0010701066500519,0.0010701061706835,-0.0008723426501797,0.00087234256144381,-0.0008723426976621,0.00087234260885441,9.8747678226213e-10,-2.477225664427e-09,2.4874070739507e-09,-3.9252740429842e-09,-0.0016817138600437,0.0016817124171865,-0.0018672376117666,0.0018672394569679,-0.0018672403617814,0.0018672379571322,-0.0018672393775454,0.001867238924081,-0.0018672421277087,0.0018672374243657,-0.0014435767797738,0.0014435804781611,-0.0014435840161855,0.0014435751297543,-0.0015031456385791,0.0015031454300894,-0.0015031493711436,0.0015031423861554,-1.4515515285972e-10,-1.4517389471364e-10,-0.00075427241886649,0.0007542710060269,-3.5364556611188e-09,2.8393008370851e-09,-0.00088141355047003,0.00088141008529063,-0.00088141142610358,0.00088141221208371,-0.00088141380300473,0.00088141033774603,-0.00088141167766501,0.00088141246357948,-0.00077462676276584,0.00077462875173425,-0.00077462680508672,0.00077462879397683,0.59464798027023,122718,2924,0.0038849586942777,0.0069815949518323,0.0031403716037984,18.349673890592,6.1997391124736e-05,6.1997391124736e-05,6.1997391124736e-05,2858638.8034525,0.014106010745376
25919200,0.99967488650294,0.015300853692914,0.0048065711370176,0.0063400082401703,0.0041542743157262,-0.00094173826059858,0.00094173566270041,-9.1470187026148e-10,-9.1471925794784e-10,-2.5815336483327e-09,6.136127914916e-10,-0.0010733558075893,0.0010733524115137,-0.0010733563655714,0.0010733529695299,-0.0010733547951863,0.0010733534808617,-0.0010733553410616,0.0010733540268417,-0.00087971824921993,0.00087971735545819,-0.00087971830552371,0.00087971741169031,8.6738127597977e-10,-2.3457678080801e-09,2.2589392222515e-09,-3.6883361966845e-09,-0.0016832885123918,0.0016832870784139,-0.0018712786204751,0.0018712802294223,-0.0018712813225388,0.0018712789994174,-0.0018712803828096,0.0018712798648549,-0.0018712830850235,0.001871278634972,-0.0014430844345204,0.0014430877703375,-0.0014430912802327,0.0014430829420951,-0.0015027550406849,0.001502754750442,-0.0015027585977438,0.0015027520266779,-6.3609170809966e-10,-6.361102499891e-10,-0.00076060425526825,0.00076060157643792,-3.7956985251626e-09,2.1036169211327e-09,-0.00088346826871991,0.0008834638696706,-0.00088346630511816,0.00088346583676929,-0.00088346857634294,0.00088346417721394,-0.00088346661090617,0.00088346614249094,-0.00078082517515655,0.00078082595791596,-0.00078082521751066,0.00078082600019174,0.69720981015325,122718,2924,0.0039173799650844,0.006988211696387,0.0031666200690388,20.730233638645,8.1041869109163e-05,8.1041869109163e-05,8.1041869109163e-05,2941077.089805,0.014172191105898
26919200,0.99974416295003,0.015302019564504,0.0048069119471294,0.0063404961285134,0.0041546114888607,-0.00093730416643552,0.00093730312443116,-3.4315231869692e-10,-3.4316984741424e-10,-1.9839873446919e-09,1.190347571287e-09,-0.0010730874957144,0.0010730854062097,-0.0010730878892679,0.0010730857997951,-0.0010730864848349,0.0010730864688458,-0.0010730868701917,0.0010730868543052,-0.00087608829242908,0.00087608861466261,-0.00087608834661679,0.00087608866877927,8.7941109394767e-10,-2.2992616922512e-09,2.2236172797243e-09,-3.595762515394e-09,-0.0016883154891444,0.0016883141125219,-0.0018746815593974,0.0018746831921237,-0.0018746840369236,0.0018746817968538,-0.0018746831681124,0.0018746826807332,-0.0018746856457874,0.0018746812855837,-0.0014494910888991,0.0014494943608503,-0.0014494977183397,0.0014494895764761,-0.0015083888115741,0.0015083885820432,-0.0015083922260147,0.0015083857891792,1.9696545214946e-10,1.969467580735e-10,-0.00075877847105548,0.00075877795515254,-2.9068148765361e-09,2.8886336678052e-09,-0.00088571586645082,0.00088571336895669,-0.00088571393201928,0.00088571530495607,-0.00088571606855116,0.0008857135709779,-0.00088571413419247,0.00088571550706387,-0.00077851561988466,0.00077851813711471,-0.00077851565013169,0.00077851816728415,0.70377665155898,122718,2924,0.003899034262685,0.0070089222788675,0.0031590862876044,21.292339971621,8.5538719772966e-05,8.5538719772966e-05,8.5538719772966e-05,2831219.1665335,0.014166973361749
27919200,0.99980312114719,0.015303087601979,0.0048072255035026,0.0063409388002239,0.0041549232982521,-0.00093817232201566,0.00093817037587912,-6.7896845954948e-10,-6.7898593839993e-10,-2.2684745847376e-09,7.8701762021076e-10,-0.0010740048202858,0.0010740020107443,-0.0010740053114012,0.0010740025018929,-0.0010740038498367,0.0010740030332982,-0.0010740043312605,0.0010740035148249,-0.00087718087116764,0.00087718043628782,-0.00087718093683535,0.00087718050188462,8.3849231810584e-10,-2.2291879312212e-09,2.1080455080097e-09,-3.4523861583256e-09,-0.0016922952501297,0.0016922939014515,-0.0018793882650131,0.0018793897936342,-0.0018793907649972,0.0018793886034561,-0.0018793899183537,0.0018793894077654,-0.0018793924184868,0.001879388217708,-0.0014527833460517,0.0014527864318378,-0.001452789776343,0.0014527819523787,-0.0015113851537585,0.0015113849326342,-0.0015113885187978,0.0015113823065391,-3.1108229063485e-10,-3.111009348594e-10,-0.00076065915646357,0.00076065733908158,-3.2838102450864e-09,2.2423881420383e-09,-0.0008876513885851,0.00088764785374115,-0.00088764954606734,0.00088764969899223,-0.00088765165239954,0.0008876481174761,-0.00088764980885969,0.00088764996171879,-0.00078016023611358,0.0007801615871912,-0.00078016026651273,0.000780161617512,0.75604148014822,122718,2924,0.0039026482540525,0.0070253884230669,0.0031669013470006,22.916741737638,9.8533933901105e-05,9.8533933901105e-05,9.8533933901105e-05,2800155.43823,0.014195262220543
28919200,0.99985082028817,0.015303917034969,0.004807468522011,0.0063412830659331,0.0041551654470252,-0.00093629233047694,0.00093629087456778,-5.0027525597845e-10,-5.0029275941507e-10,-2.0708759514369e-09,9.5737329713824e-10,-0.0010737826635915,0.0010737802711908,-0.0010737831048441,0.0010737807124763,-0.0010737817002464,0.0010737812847331,-0.0010737821330947,0.0010737817176841,-0.00087574665671496,0.0008757465961327,-0.00087574672576926,0.00087574666511629,8.3303044719754e-10,-2.2030755717594e-09,2.055862085648e-09,-3.3801700224202e-09,-0.0016965008206287,0.0016964994920625,-0.001883534744498,0.0018835362482499,-0.0018835371469007,0.0018835350344686,-0.0018835363415924,0.0018835358217552,-0.0018835387441438,0.0018835346080941,-0.0014569868489446,0.0014569898407551,-0.0014569931294011,0.0014569854588011,-0.0015150878198742,0.0015150876273099,-0.0015150911201083,0.0015150850006687,-5.9241744911241e-11,-5.9260405797046e-11,-0.0007605727288305,0.0007605715713887,-2.9720734493139e-09,2.4373586144216e-09,-0.0008891576113589,0.0008891546818762,-0.00088915580596038,0.00088915648947124,-0.00088915784200148,0.00088915491243953,-0.00088915603615688,0.00088915671960182,-0.00077971235190852,0.00077971420057133,-0.00077971237580751,0.00077971422439184,0.72577449252184,122718,2924,0.0038948778272832,0.0070427539813505,0.0031665656940672,23.983460846919,0.00010706768677536,0.00010706768677536,0.00010706768677536,2736414.012519,0.014204661578828
29919200,0.99988948889718,0.015304575400812,0.0048076616571815,0.0063415552416727,0.0041553585019576,-0.00093858062039009,0.00093857880754296,-6.3142395592974e-10,-6.3144141187475e-10,-2.1771441733411e-09,7.9132048117307e-10,-0.0010747909510516,0.0010747882855002,-0.001074791429859,0.0010747887643413,-0.0010747900076828,0.0010747892789812,-0.0010747904776051,0.0010747897490071,-0.00087793847644991,0.00087793811583727,-0.00087793854801034,0.00087793818732681,8.0491311275104e-10,-2.1741878042903e-09,1.9685214353743e-09,-3.2927128211188e-09,-0.0016991114061512,0.0016991100777971,-0.0018874005340507,0.0018874019579247,-0.0018874029230397,0.00188740085036,-0.0018874021450969,0.0018874015857942,-0.001887404534235,0.0018874004783503,-0.0014585496401815,0.0014585524806938,-0.0014585557748606,0.0014585482945521,-0.0015165464548945,0.0015165462656288,-0.0015165497276547,0.0015165437231918,-2.603213413323e-10,-2.6033995295491e-10,-0.00076306083663424,0.00076305916231288,-3.0871616068614e-09,2.1437010325557e-09,-0.00089047885208926,0.0008904755387706,-0.00089047710700714,0.00089047728651191,-0.0008904791061329,0.00089047579273467,-0.00089047736021022,0.00089047753964907,-0.00078200056193661,0.00078200192595727,-0.00078200058744941,0.00078200195139125,0.70999701566689,122718,2924,0.003904369646734,0.0070535830408672,0.0031768898862566,25.464188869739,0.00011891351095792,0.00011891351095792,0.00011891351095792,2735823.1352747,0.014235734534007
30919200,0.99992030193597,0.015305122318052,0.004807822407365,0.0063417807375949,0.004155519173092,-0.00094128464294088,0.00094128267033684,-6.9036022983099e-10,-6.9037769447927e-10,-2.2098921109526e-09,7.0198044086174e-10,-0.0010770465252753,0.0010770437446482,-0.001077047021398,0.0010770442408046,-0.0010770456002077,0.001077044719106,-0.0010770460874159,0.0010770452064182,-0.00088063059784284,0.00088063009278161,-0.00088063067023076,0.00088063016509872,7.8364063458123e-10,-2.1403572977302e-09,1.891959516759e-09,-3.2044707063843e-09,-0.0017024011778497,0.0017023998612684,-0.0018911713290425,0.0018911726908488,-0.0018911736845914,0.0018911716597881,-0.0018911729368913,0.0018911723528553,-0.0018911752925893,0.0018911713219154,-0.0014615218286688,0.0014615245378076,-0.0014615278126128,0.0014615205239668,-0.0015193764851575,0.0015193763088999,-0.0015193797146729,0.0015193738316941,-3.5474403841607e-10,-3.5476264642114e-10,-0.00076611730273302,0.00076611538825984,-3.1007611919329e-09,1.964348188968e-09,-0.00089315260989911,0.00089314914251206,-0.00089315092020898,0.00089315083508789,-0.00089315287494788,0.0008931494074814,-0.00089315118422447,0.00089315109903763,-0.00078486570800944,0.0007848668177905,-0.00078486573457623,0.00078486684427847,0.7399361211588,122718,2924,0.0039155921663548,0.0070672034841995,0.0031895792875447,27.12057182409,0.00013216457459272,0.00013216457459272,0.00013216457459272,2724750.0106786,0.014273799799411
31919200,0.99994462516451,0.015305560611525,0.0048079512604291,0.0063419613231002,0.0041556480279961,-0.00094320998533866,0.00094320756720184,-8.5680302731447e-10,-8.5682052623744e-10,-2.3358299029061e-09,4.8932023419096e-10,-0.0010801548786327,0.0010801517442741,-0.0010801554241428,0.0010801522898173,-0.0010801539823445,0.0010801526893941,-0.001080154518383,0.0010801532255357,-0.00088288803392446,0.00088288714520377,-0.00088288811117599,0.00088288722238458,7.6097818557996e-10,-2.0806987769041e-09,1.8106246075435e-09,-3.0874486863855e-09,-0.0017078015164715,0.0017078002356814,-0.0018962531103341,0.0018962544105802,-0.0018962554541214,0.0018962535037342,-0.0018962547313881,0.0018962541437584,-0.0018962570753241,0.0018962532370329,-0.0014672375963263,0.0014672401753873,-0.0014672434081151,0.0014672363767828,-0.0015247183996645,0.0015247182464263,-0.0015247215712502,0.0015247158721606,-6.0887347348039e-10,-6.0889210192601e-10,-0.00076935970884139,0.00076935714711559,-3.2550957659117e-09,1.6074297631076e-09,-0.00089751936886386,0.00089751540125066,-0.00089751774753942,0.00089751702606607,-0.00089751966583447,0.00089751569814186,-0.00089751804288592,0.00089751732134677,-0.00078784674792712,0.00078784725274033,-0.00078784677579295,0.00078784728052751,0.7510827120325,122718,2924,0.0039236020109212,0.007089520822775,0.0032030561176577,29.2661972317,0.0001493295778536,0.0001493295778536,0.0001493295778536,2677460.401868,0.014318236154056
32919200,0.99996146137123,0.015305830796716,0.0048080304437378,0.0063420729130048,0.004155727439973,-0.0009412778466739,0.00094127690129003,-3.183204073058e-10,-3.1833789894762e-10,-1.8147732868042e-09,1.0308874589781e-09,-0.0010786429118067,0.0010786410379476,-0.0010786434583185,0.0010786415844927,-0.0010786420080282,0.001078641990428,-0.0010786425450891,0.0010786425275922,-0.00088114709163393,0.00088114744940743,-0.00088114717081958,0.00088114752852255,7.5885293215206e-10,-2.0764074258255e-09,1.803595493631e-09,-3.0783300241896e-09,-0.0017080612669488,0.0017080599882606,-0.0018965844871722,0.0018965857821471,-0.0018965868264299,0.0018965848813341,-0.0018965861062423,0.0018965855174949,-0.0018965884456487,0.0018965846168024,-0.0014674398214822,0.0014674423888944,-0.0014674456135519,0.0014674386023,-0.0015248791270831,0.0015248789750049,-0.0015248822905021,0.0015248766052445,3.0143564878902e-10,3.0141703000487e-10,-0.00076797447207172,0.00076797426968482,-2.3724559135415e-09,2.5207505749721e-09,-0.00089649504395409,0.00089649315509467,-0.00089649341134467,0.00089649479121649,-0.00089649534107914,0.00089649345214029,-0.00089649370683617,0.0008964950866422,-0.00078653592706681,0.000786538500374,-0.00078653595331029,0.00078653852653871,0.66890277800232,122718,2924,0.003915595045838,0.00709058370596,0.0031973138918944,29.173893424779,0.00014859114739823,0.00014859114739823,0.00014859114739823,2646451.1978891,0.014305369335024
33919200,0.99997361471539,0.01530604603612,0.0048080939262045,0.0063421610028526,0.0041557911070625,-0.00094468716275238,0.00094468605493523,-3.6110487734313e-10,-3.6112231012164e-10,-1.8551004999255e-09,9.9204019514712e-10,-0.0010803087740983,0.0010803067775556,-0.0010803091695941,0.0010803071730854,-0.0010803078684502,0.0010803077298119,-0.0010803082567159,0.0010803081181818,-0.00088426399388305,0.00088426422681208,-0.000884263967933,0.00088426420079157,7.5447416097933e-10,-2.100533313355e-09,1.8027013451819e-09,-3.1056769138786e-09,-0.0017089532807485,0.0017089519738634,-0.0018980083342118,0.0018980096284378,-0.0018980105288342,0.0018980085507164,-0.001898009849427,0.0018980092376508,-0.0018980120441986,0.0018980081600504,-0.0014678748475985,0.0014678774039993,-0.001467880535674,0.0014678734641559,-0.0015253103233112,0.0015253101510222,-0.0015253133939355,0.0015253076514301,7.9180938179632e-11,7.9162385172884e-11,-0.00077078849603194,0.0007707876950636,-2.5831980506904e-09,2.2976109975262e-09,-0.00089775375071781,0.00089775133652471,-0.00089775212129216,0.00089775296811958,-0.00089775395219855,0.00089775153792605,-0.00089775232246618,0.00089775316922781,-0.00078915143681113,0.00078915347839452,-0.00078915153404894,0.00078915357555356,0.73730748580442,122718,2924,0.0039297241600171,0.007094315485015,0.0032089798023663,30.072251963351,0.00015577801570681,0.00015577801570681,0.00015577801570681,2704926.1932938,0.014335308590666
34919200,0.99998313481509,0.015306219637199,0.0048081450417908,0.0063422322854969,0.0041558423099112,-0.00094870578337681,0.00094870212602436,-1.3174143509271e-09,-1.3174318795152e-09,-2.7173754922995e-09,-7.1670318579787e-11,-0.0010862288618452,0.0010862247361454,-0.0010862295438564,0.0010862254181896,-0.0010862280261914,0.0010862256206095,-0.0010862286966701,0.0010862262911915,-0.00088871841519869,0.00088871648572518,-0.00088871850128551,0.00088871657174148,7.0601473876377e-10,-1.9676850546899e-09,1.6641400178412e-09,-2.8854007862219e-09,-0.0017173561351104,0.0017173549100953,-0.0019061115511447,0.0019061127226148,-0.0019061139301336,0.0019061120971228,-0.00190611323089,0.001906112636143,-0.0019061156100274,0.0019061120107714,-0.0014766688219927,0.0014766711752083,-0.0014766743596332,0.0014766677803364,-0.001533611049383,0.0015336109082991,-0.0015336141301998,0.0015336087704222,-1.3028350527834e-09,-1.3028536840672e-09,-0.00077662514731751,0.00077662080901206,-3.7727349286847e-09,7.2760936929701e-10,-0.000905370074468,0.00090536467983259,-0.00090536857690134,0.00090536618254418,-0.00090537045899714,0.00090536506428252,-0.00090536895820378,0.00090536656378087,-0.00079463724138586,0.00079463615899242,-0.00079463727540732,0.00079463619293471,0.7596633380136,122718,2924,0.0039464282439072,0.0071290373834736,0.0032332326305735,33.574629789594,0.00018379703831675,0.00018379703831675,0.00018379703831675,2618044.598016,0.01441208714701
35919200,0.99999011617478,0.015306345453508,0.0048081821319838,0.0063422837389131,0.0041558795826114,-0.00095450148432072,0.00095449733951245,-1.499976608542e-09,-1.499994118753e-09,-2.8057612679468e-09,-3.6010041229723e-10,-0.001092634550327,0.0010926300730309,-0.0010926352825229,0.0010926308052602,-0.0010926337797151,0.0010926308903554,-0.0010926345001544,0.001092631610898,-0.00089482810687451,0.00089482572462986,-0.00089482819104869,0.00089482580873352,6.4198786138798e-10,-1.8362047627932e-09,1.5003947968512e-09,-2.6569292159892e-09,-0.0017256967594203,0.0017256955993877,-0.0019144789786646,0.001914480016908,-0.0019144812875648,0.0019144795845125,-0.0019144806392241,0.0019144800431061,-0.0019144829482729,0.0019144796108311,-0.0014850226568296,0.0014850247561513,-0.0014850278350337,0.0014850217699914,-0.0015415952869812,0.0015415951514774,-0.0015415982024607,0.0015415932327741,-1.574380224956e-09,-1.5743988325493e-09,-0.00078380840965398,0.0007838033803916,-3.8512596267797e-09,2.536046731754e-10,-0.00091308676296054,0.00091308089411085,-0.00091308539776583,0.0009130822650613,-0.00091308718041843,0.00091308131148931,-0.00091308581145849,0.0009130826786883,-0.00080154515830528,0.00080154337295662,-0.00080154520040141,0.00080154341497339,0.74999929572479,122718,2924,0.0039704957673412,0.0071635302754596,0.0032630689531133,37.530816873059,0.00021544653498447,0.00021544653498447,0.00021544653498447,2574272.7221139,0.014501763002162
36919200,0.99999411764091,0.015306407753645,0.0048082004314274,0.0063423092945292,0.0041558980276879,-0.00095205121530159,0.00095205133618703,8.0825078797853e-11,8.080759009585e-11,-1.3395951757649e-09,1.4014644026363e-09,-0.0010899461295215,0.0010899451746103,-0.0010899464068462,0.0010899454519686,-0.0010899452522659,0.0010899460926416,-0.0010899455263447,0.0010899463668241,-0.00089239850390551,0.00089239960266745,-0.00089239856488737,0.00089239966357892,7.2160787205131e-10,-2.0117600746401e-09,1.6105770041545e-09,-2.8596383100714e-09,-0.0017247554000624,0.0017247541473313,-0.0019141599722605,0.001914161156251,-0.0019141618869183,0.0019141600629119,-0.0019141613299754,0.0019141606713175,-0.0019141632447819,0.0019141595780988,-0.001483510322099,0.0014835125335359,-0.001483515579864,0.0014835090355386,-0.0015399797963271,0.0015399796965667,-0.0015399827069908,0.0015399772852293,7.4698228817443e-10,7.469637011099e-10,-0.00078161974686031,0.00078162069615224,-1.7049681483934e-09,2.7678871507995e-09,-0.00091072406119712,0.00091072327423287,-0.00091072256131489,0.00091072477453416,-0.00091072418231504,0.00091072339527132,-0.00091072268404217,0.00091072489719563,-0.00079923521131732,0.00079923847859637,-0.00079923522992363,0.0007992384971234,0.64796848759399,122718,2924,0.0039603395427507,0.0071596412947763,0.003253994378941,36.859294265444,0.00021007435412355,0.00021007435412355,0.00021007435412355,2568919.0410791,0.014478306683293
37919200,0.99999656396525,0.015306443076486,0.0048082108089764,0.0063423237756089,0.0041559084919005,-0.000956893317838,0.00095689211413189,-4.0452224495765e-10,-4.0453966789064e-10,-1.8894545691584e-09,9.5879394156205e-10,-0.0010915925060006,0.0010915904171259,-0.0010915929220399,0.0010915908331999,-0.0010915915981052,0.0010915913705455,-0.001091592007889,0.0010915917804345,-0.00089667553252491,0.00089667561723888,-0.00089667561140018,0.00089667569604336,7.4746129868805e-10,-2.1045028111484e-09,1.6402895905731e-09,-2.9542952959537e-09,-0.0017240167522334,0.001724015434376,-0.0019149412592651,0.0019149424422361,-0.0019149433689127,0.0019149414815236,-0.001914942775058,0.0019149420507431,-0.0019149448848552,0.0019149410901518,-0.0014815914698787,0.0014815937045564,-0.0014815969389193,0.0014815901667568,-0.001538416835025,0.0015384167493698,-0.0015384199607132,0.001538414314476,2.9814474952962e-11,2.9795942960278e-11,-0.00078487503411314,0.00078487412518665,-2.4776392980555e-09,2.1005376645236e-09,-0.00091104591893051,0.00091104350064529,-0.00091104438803299,0.00091104503352502,-0.00091104612984001,0.00091104371147537,-0.00091104459896362,0.00091104524438981,-0.0008025770759605,0.00080257884429682,-0.00080257709102302,0.00080257885928007,0.60087736858174,122718,2924,0.0039803945384054,0.0071566531048487,0.0032674776774323,37.67237253988,0.00021657898031904,0.00021657898031904,0.00021657898031904,2629716.8552862,0.014509282891551
38880000,0.99999793762678,0.015306466623171,0.0048082177689022,0.0063423333728117,0.0041559154814571,-0.00095777329749622,0.00095777329815582,4.8408188740269e-11,4.8390731754438e-11,-1.5382298919764e-09,1.5319251492088e-09,-0.0010917726392935,0.001091771515032,-0.0010917729247797,0.0010917718005528,-0.0010917716568434,0.0010917725431664,-0.0010917719382526,0.0010917728246806,-0.00089730894508213,0.00089731006435722,-0.00089730901836183,0.00089731013756615,8.1208478113208e-10,-2.2501066956379e-09,1.7535554442025e-09,-3.1457597279055e-09,-0.0017222938092456,0.0017222924129622,-0.0019131659073295,0.0019131671958046,-0.0019131679755141,0.001913165976198,-0.0019131673845256,0.0019131666167493,-0.0019131694528596,0.0019131653972639,-0.0014800243636226,0.0014800267446893,-0.0014800300733858,0.0014800228555645,-0.0015370490676022,0.001537049003264,-0.0015370523332616,0.001537046297713,6.9996791200488e-10,6.9994935274833e-10,-0.00078494313823759,0.0007849439389122,-1.9643725535316e-09,2.9330869391311e-09,-0.00091047074102418,0.00091046972262104,-0.00091046910051286,0.00091047136348991,-0.00091047086895109,0.00091046985046833,-0.00091046923003297,0.00091047149294406,-0.00080274789915354,0.00080275118778624,-0.00080274790651418,0.00080275119506774,0.71321963924284,122718,2924,0.0039840348491654,0.0071495392394113,0.0032677529652303,37.196137007155,0.00021276909605724,0.00021276909605724,0.00021276909605724,2655143.0320804,0.01450603616752
