time,ASR_ext,ASR_strain,ASR_strain_xx,ASR_strain_yy,ASR_strain_zz,disp_x_101,disp_x_102,disp_x_103,disp_x_104,disp_x_105,disp_x_106,disp_x_p1_neg,disp_x_p1_pos,disp_x_p2_neg,disp_x_p2_pos,disp_x_p3_neg,disp_x_p3_pos,disp_x_p4_neg,disp_x_p4_pos,disp_x_p5_neg,disp_x_p5_pos,disp_x_p6_neg,disp_x_p6_pos,disp_y_101,disp_y_102,disp_y_103,disp_y_104,disp_y_105,disp_y_106,disp_y_p1_neg,disp_y_p1_pos,disp_y_p2_neg,disp_y_p2_pos,disp_y_p3_neg,disp_y_p3_pos,disp_y_p4_neg,disp_y_p4_pos,disp_y_p5_neg,disp_y_p5_pos,disp_y_p6_neg,disp_y_p6_pos,disp_y_p7_neg,disp_y_p7_pos,disp_y_p8_neg,disp_y_p8_pos,disp_z_101,disp_z_102,disp_z_103,disp_z_104,disp_z_105,disp_z_106,disp_z_p1_neg,disp_z_p1_pos,disp_z_p2_neg,disp_z_p2_pos,disp_z_p3_neg,disp_z_p3_pos,disp_z_p4_neg,disp_z_p4_pos,disp_z_p5_neg,disp_z_p5_pos,disp_z_p6_neg,disp_z_p6_pos,humidity,ndof,nelem,strain_xx,strain_yy,strain_zz,temp,thermal_strain_xx,thermal_strain_yy,thermal_strain_zz,vonmises,vstrain
2419200,0,0,0,0,0,0,0,0,0,0,0,0,0,0,0,0,0,0,0,0,0,0,0,0,0,0,0,0,0,0,0,0,0,0,0,0,0,0,0,0,0,0,0,0,0,0,0,0,0,0,0,0,0,0,0,0,0,0,0,0,0,0,0,0,0,0,0,0,0,0,0,0,0,0,0
3419200,0.15971950135976,0.0027545092244344,0.00091816974147813,0.00091816974147813,0.00091816974147813,-0.0002436497510357,0.0002436497414862,-3.3262443515109e-12,-3.2370148899672e-12,-1.9928043013436e-12,-4.5941980842256e-12,-0.00024987104718684,0.0002498710405379,-0.0002498710482554,0.00024987104166594,-0.0002498710480353,0.00024987103966402,-0.00024987104909604,0.00024987104078424,-0.00024416219111874,0.00024416218287361,-0.00024416219136088,0.00024416218329049,-8.2674059658345e-13,1.7097667310353e-12,-8.0748442014054e-13,1.6526939083944e-12,-0.00027133240703112,0.00027133240788035,-0.00027491366665141,0.00027491366578662,-0.00027491366696042,0.00027491366777947,-0.00027491366694064,0.00027491366780147,-0.00027491366724966,0.00027491366979432,-0.00026522389773714,0.0002652238970337,-0.00026522389583635,0.00026522389993432,-0.00026522389777852,0.00026522389698959,-0.00026522389579061,0.00026522389998213,-3.2297112536558e-12,-3.3189407189334e-12,-0.00024364975102822,0.00024364974149368,-2.0344032253779e-12,-4.535600213275e-12,-0.0002498710471504,0.00024987104055468,-0.00024987104799816,0.00024987103972132,-0.00024987104828036,0.00024987104162516,-0.00024987104911596,0.00024987104077964,-0.00024416219142779,0.00024416218322619,-0.00024416219101668,0.0002441621829898,0.78394575003053,131490,2924,0.0010146935736789,0.001129908639232,0.0010146935736789,31.872959353544,0.00017018367482835,0.00017018367482835,0.00017018367482835,2111028.4580433,0.0031642942634033
4419200,0.35050511489179,0.005907140205328,0.0018675784221191,0.0021719833610898,0.0018675784221191,-0.00045216913650298,0.00045216911913525,-6.4145270939092e-12,-6.3252018084029e-12,-3.0457487540986e-12,-1.0271204530576e-11,-0.00047512210898929,0.00047512209616085,-0.00047512211175883,0.00047512209898994,-0.00047512211136057,0.00047512209372805,-0.00047512211410633,0.00047512209653336,-0.00045425737554166,0.00045425735926671,-0.0004542573759702,0.00045425735987019,-1.9201955158157e-12,5.0485371677138e-12,-2.1172465254543e-12,5.1180837342904e-12,-0.0005889187856243,0.00058891878863995,-0.00061138264189308,0.0006113826400732,-0.00061138264367089,0.00061138264674857,-0.000611382643771,0.00061138264664673,-0.00061138264554881,0.00061138265332211,-0.00055732992896501,0.00055732992723415,-0.00055732992452199,0.0005573299369441,-0.00055732992874359,0.0005573299274549,-0.00055732992454204,0.00055732993692493,-6.3360436073347e-12,-6.425369474079e-12,-0.0004521691365137,0.00045216911912453,-2.9694137864471e-12,-1.036914000103e-11,-0.00047512210890339,0.00047512209619804,-0.00047512211140863,0.00047512209372927,-0.00047512211173796,0.00047512209897306,-0.0004751221142079,0.000475122096469,-0.00045425737610661,0.00045425735974216,-0.00045425737552177,0.00045425735933225,0.77879543345062,131490,2924,0.0018823163164568,0.0024507753075835,0.0018823163164568,33.606624220073,0.00018405299376059,0.00018405299376059,0.00018405299376059,3866695.3305514,0.0062347865211458
5419200,0.55036576086082,0.0091016044346084,0.0027461017616177,0.003609400911373,0.0027461017616177,-0.00063910816667229,0.00063910816264964,-1.0433912942298e-12,-9.5403073682308e-13,4.986220560414e-13,-2.1666790447366e-12,-0.00068448184834844,0.00068448184556621,-0.00068448184979082,0.00068448184706816,-0.0006844818492549,0.00068448184466796,-0.00068448185069304,0.00068448184616566,-0.00063851844888673,0.00063851844498666,-0.00063851844846141,0.00063851844473634,-2.7997700571819e-13,2.2180826361568e-12,-1.7898920847313e-13,2.0310525115635e-12,-0.00095668783090309,0.00095668783276135,-0.0010198280122114,0.0010198280125384,-0.0010198280127047,0.0010198280144389,-0.0010198280126318,0.0010198280145249,-0.0010198280131251,0.0010198280164254,-0.00087725673078019,0.00087725673126768,-0.00087725672826542,0.00087725673314436,-0.00087725673090231,0.00087725673113637,-0.00087725672813605,0.00087725673327991,-9.1785606306849e-13,-1.0072176125463e-12,-0.00063910816663593,0.00063910816268601,3.6123272929396e-13,-1.948741935562e-12,-0.00068448184835116,0.00068448184556724,-0.0006844818491234,0.0006844818447965,-0.00068448184985295,0.00068448184700947,-0.00068448185062047,0.00068448184623402,-0.00063851844845563,0.00063851844474842,-0.00063851844871394,0.0006385184451817,0.77316831870882,131490,2924,0.0026596778919696,0.0039781018894802,0.0026596778919696,36.277816649601,0.00020542253319681,0.00020542253319681,0.00020542253319681,4812311.9065671,0.0093408914592118
6419200,0.70664608367082,0.011414662345365,0.0033310053356121,0.0047526516741411,0.0033310053356121,-0.00074801062067108,0.00074801061738235,-8.1226148376335e-13,-7.2316346951946e-13,1.3100976796211e-13,-2.7465257131718e-12,-0.00081927594149376,0.00081927593972321,-0.00081927594210071,0.00081927594038955,-0.00081927594244837,0.00081927593876366,-0.00081927594305931,0.00081927593943396,-0.00073896704387401,0.00073896704104811,-0.00073896704326937,0.00073896704061794,-8.7865171661672e-13,1.9344761824923e-12,-7.0672793935834e-13,1.7054756047733e-12,-0.0012512220307626,0.001251222031761,-0.0013598962262102,0.0013598962254522,-0.001359896226475,0.0013598962273144,-0.0013598962263512,0.0013598962274454,-0.001359896226616,0.0013598962293077,-0.0011173014148502,0.0011173014144109,-0.0011173014140984,0.0011173014184077,-0.0011173014150689,0.0011173014141776,-0.0011173014139464,0.0011173014185698,-6.7560503720046e-13,-7.6470362412332e-13,-0.00074801062062277,0.00074801061743067,-3.1321778435287e-14,-2.4718688491549e-12,-0.00081927594149156,0.00081927593972575,-0.00081927594230125,0.00081927593891436,-0.00081927594215591,0.00081927594033071,-0.00081927594296959,0.00081927593952335,-0.00073896704323749,0.0007389670406535,-0.00073896704367261,0.00073896704126306,0.72911593730516,131490,2924,0.0031125057242499,0.0051995421048615,0.0031125057242499,36.740412958235,0.00020912330366588,0.00020912330366588,0.00020912330366588,5031134.4110517,0.011490236193177
7419200,0.83209626270655,0.013208446009263,0.0037746434116904,0.0056591591858819,0.0037746434116904,-0.00082285250560434,0.00082285250196745,-9.1796716996837e-13,-8.2881213721704e-13,1.5783017655821e-13,-2.479587603242e-12,-0.00091734755041359,0.00091734754846252,-0.00091734755124392,0.00091734754935228,-0.00091734755129172,0.00091734754758457,-0.00091734755212306,0.00091734754847531,-0.00080648436503479,0.00080648436197637,-0.00080648436469468,0.00080648436181082,-7.8835821031547e-13,1.7802682904963e-12,-5.9078336373847e-13,1.526527542102e-12,-0.0014966960683906,0.0014966960693267,-0.0016512595153816,0.0016512595147392,-0.0016512595154852,0.0016512595162481,-0.0016512595153443,0.0016512595163947,-0.0016512595154479,0.0016512595179037,-0.001310351051835,0.0013103510515419,-0.0013103510506889,0.001310351054568,-0.0013103510520899,0.0013103510512748,-0.0013103510505204,0.001310351054745,-7.8889981141699e-13,-8.7805479367583e-13,-0.00082285250556446,0.00082285250200732,-3.7507030656548e-14,-2.1883225489836e-12,-0.00091734755042937,0.00091734754844817,-0.00091734755114368,0.00091734754773401,-0.0009173475513179,0.00091734754927729,-0.00091734755203278,0.00091734754856374,-0.00080648436466372,0.00080648436184708,-0.00080648436483397,0.00080648436219188,0.71231678900356,131490,2924,0.0034238154021209,0.0062163423070992,0.0034238154021209,40.777855443562,0.0002414228435485,0.0002414228435485,0.0002414228435485,4872641.6318349,0.013149968563614
8419200,0.90778940415351,0.0142718022551,0.0040420140867084,0.0061877740816836,0.0040420140867084,-0.00085102915963484,0.00085102915900798,6.571238591407e-14,1.5489439394426e-13,8.2216410036286e-13,-1.1633596072214e-12,-0.00096341141941734,0.00096341141967274,-0.00096341141991422,0.00096341142022904,-0.00096341142008077,0.00096341141901515,-0.00096341142058046,0.00096341141957424,-0.00083010442669816,0.00083010442615933,-0.00083010442650082,0.00083010442613661,-6.1305906558401e-13,1.3287471135701e-12,-3.4218784051401e-13,1.0109051175426e-12,-0.0016447640573619,0.0016447640580305,-0.0018292472730511,0.0018292472726229,-0.0018292472730432,0.001829247273496,-0.0018292472728577,0.0018292472736891,-0.0018292472728498,0.0018292472745623,-0.0014235446070552,0.0014235446070306,-0.0014235446066284,0.0014235446092838,-0.001423544607402,0.0014235446066694,-0.0014235446064212,0.0014235446095011,2.011830745834e-13,1.1200072551354e-13,-0.00085102915958868,0.00085102915905415,5.7031643016572e-13,-7.998530475752e-13,-0.00096341141945235,0.00096341141964379,-0.00096341141990236,0.00096341141919075,-0.00096341142000653,0.00096341142013856,-0.00096341142046031,0.0009634114196893,-0.00083010442644145,0.00083010442620086,-0.00083010442646725,0.00083010442640127,0.69845760321313,131490,2924,0.0035412451823709,0.0068290902259655,0.0035412451823709,41.436038114058,0.00024668830491247,0.00024668830491247,0.00024668830491247,4482519.7203717,0.014009187289007
9419200,0.94968622327769,0.014849131793534,0.0041909875765353,0.0064671566404636,0.0041909875765353,-0.00085710366428768,0.00085710366504614,5.1613186304058e-13,6.0530889339655e-13,1.0652801292174e-12,-4.5127550796065e-13,-0.00098141232252095,0.00098141232378454,-0.0009814123228679,0.00098141232419087,-0.0009814123230309,0.00098141232328506,-0.00098141232338104,0.00098141232369454,-0.00083329359152087,0.00083329359218592,-0.00083329359144967,0.00083329359228937,-4.9246233796656e-13,9.9565561281624e-13,-1.4005578021558e-13,6.0310581082559e-13,-0.0017264634162249,0.0017264634166874,-0.0019288299350775,0.0019288299348044,-0.0019288299350138,0.0019288299352111,-0.0019288299347778,0.0019288299354571,-0.0019288299347141,0.0019288299358637,-0.0014841451791437,0.0014841451793586,-0.0014841451792303,0.0014841451809312,-0.0014841451795937,0.0014841451788913,-0.0014841451789772,0.0014841451811966,6.59351166098e-13,5.7017402275146e-13,-0.00085710366423381,0.00085710366510001,7.4834196219615e-13,-3.6047345469516e-15,-0.00098141232257611,0.00098141232373857,-0.00098141232281858,0.00098141232349194,-0.00098141232297956,0.00098141232408261,-0.00098141232322717,0.00098141232384115,-0.00083329359135728,0.00083329359238639,-0.00083329359125578,0.00083329359245947,0.67991952503125,131490,2924,0.0035667815657598,0.0071669765369738,0.0035667815657598,41.144274324973,0.00024435419459979,0.00024435419459979,0.00024435419459979,4103763.8986955,0.014403742406446
10419200,0.97063656286077,0.015146275119271,0.0042703336013732,0.0066056079165244,0.0042703336013732,-0.00085073919298157,0.00085073919686515,1.5446703444695e-12,1.633922369892e-12,1.7197618043691e-12,1.0326177189434e-12,-0.00098126800258313,0.00098126800613658,-0.00098126800257246,0.00098126800618537,-0.00098126800282092,0.00098126800591661,-0.00098126800281522,0.00098126800597036,-0.0008258659160307,0.00082586591933102,-0.0008258659161059,0.00082586591958098,-2.6505325574615e-13,4.2475643574716e-13,2.2169446268046e-13,-9.0297182659523e-14,-0.0017630655290484,0.0017630655291785,-0.0019754000739671,0.0019754000739975,-0.0019754000737627,0.001975400073546,-0.0019754000734439,0.0019754000738793,-0.0019754000732395,0.0019754000734278,-0.0015091461959228,0.0015091461965698,-0.0015091461968958,0.0015091461969647,-0.0015091461965419,0.0015091461959282,-0.0015091461965675,0.0015091461973088,1.7021256335832e-12,1.6128734778224e-12,-0.00085073919291356,0.00085073919693316,1.2973937184536e-12,1.6198342063534e-12,-0.00098126800267034,0.00098126800606426,-0.0009812680025507,0.00098126800617658,-0.00098126800271498,0.00098126800604944,-0.00098126800260393,0.00098126800617038,-0.0008258659159578,0.00082586591973324,-0.00082586591570794,0.00082586591965812,0.69326653990346,131490,2924,0.0035405502717813,0.0073182948116001,0.0035405502717813,38.087762836894,0.00021990210269515,0.00021990210269515,0.00021990210269515,3862217.4458819,0.014504060678808
11419200,0.98274156948052,0.015315229292193,0.0043161558268666,0.0066829176384597,0.0043161558268666,-0.00084803758275656,0.00084803758424974,7.5496395842812e-13,8.4425629127041e-13,9.2481271635633e-13,2.3624201826262e-13,-0.00098424635686151,0.00098424635849217,-0.00098424635714966,0.00098424635883982,-0.00098424635710557,0.00098424635826959,-0.00098424635739491,0.00098424635861841,-0.00082213766001093,0.00082213766151088,-0.00082213766006613,0.00082213766174091,-2.5375021869324e-13,4.1562056778283e-13,3.3529328643202e-13,-2.0165583955252e-13,-0.0017899531195495,0.0017899531196818,-0.0020066351806733,0.0020066351807625,-0.0020066351808511,0.0020066351805698,-0.0020066351804671,0.0020066351809716,-0.002006635180645,0.0020066351807789,-0.00153027309504,0.0015302730959113,-0.0015302730962971,0.0015302730961401,-0.0015302730957916,0.0015302730951331,-0.0015302730959039,0.001530273096552,9.2136539703722e-13,8.3207300721138e-13,-0.00084803758267961,0.00084803758432668,4.1200179598088e-13,9.3615247471391e-13,-0.00098424635697436,0.00098424635839466,-0.00098424635679365,0.00098424635857159,-0.00098424635731733,0.00098424635867812,-0.00098424635714176,0.00098424635886022,-0.00082213765987536,0.00082213766193594,-0.00082213765964535,0.00082213766188076,0.6790370572899,131490,2924,0.0035294736403252,0.0074293987351478,0.0035294736403252,37.626140711486,0.00021620912569188,0.00021620912569188,0.00021620912569188,3628747.5789093,0.014594339071391
12419200,0.98968412101907,0.015414777325846,0.0043436506182234,0.0067274760893991,0.0043436506182234,-0.0008438902781204,0.00084389028009207,9.0729786723177e-13,9.9664813146721e-13,1.0392100800513e-12,4.4106064354716e-13,-0.00098228613235595,0.0009822861343571,-0.00098228613259082,0.00098228613465149,-0.00098228613256997,0.00098228613416537,-0.00098228613280604,0.00098228613446095,-0.00081771970571231,0.00081771970759988,-0.00081771970580591,0.00081771970786843,-2.3854515378577e-13,3.4565320523773e-13,4.4186467780799e-13,-3.6163242296595e-13,-0.0018028594792657,0.0018028594793445,-0.0020236310060829,0.0020236310062384,-0.0020236310062641,0.0020236310058706,-0.0020236310058225,0.0020236310063333,-0.0020236310060038,0.0020236310059655,-0.001538542992831,0.0015385429938812,-0.0015385429943246,0.0015385429938241,-0.0015385429937002,0.0015385429929813,-0.0015385429938744,0.0015385429942959,1.0840137811819e-12,9.9466334901157e-13,-0.00084389027803322,0.00084389028017925,4.4976031895451e-13,1.2425247880442e-12,-0.00098228613248938,0.0009822861342399,-0.0009822861322189,0.00098228613450629,-0.00098228613277851,0.00098228613446952,-0.00098228613251365,0.00098228613474155,-0.00081771970557532,0.00081771970810338,-0.0008177197053065,0.00081771970800951,0.69352359007156,131490,2924,0.0035123343167815,0.0074827421605276,0.0035123343167815,36.800801299901,0.00020960641039921,0.00020960641039921,0.00020960641039921,3504696.943161,0.014613692441855
13419200,0.9935611100537,0.015469018658589,0.0043587214634221,0.0067515757317449,0.0043587214634221,-0.00083742839945828,0.00083742840273834,1.3345036748435e-12,1.4238433433548e-12,1.3626458757803e-12,1.0195328539711e-12,-0.00097888483243766,0.00097888483539853,-0.00097888483253061,0.00097888483555101,-0.00097888483256714,0.00097888483529289,-0.00097888483266205,0.00097888483544729,-0.00081075639271621,0.00081075639567093,-0.00081075639288296,0.00081075639601262,-1.5431743276718e-13,1.8565674007874e-13,6.0297522657955e-13,-5.9551386628369e-13,-0.0018101966895716,0.0018101966895774,-0.0020319881581745,0.0020319881584776,-0.0020319881582856,0.0020319881577702,-0.0020319881577954,0.0020319881582837,-0.0020319881579066,0.0020319881575763,-0.0015441373983025,0.0015441373995834,-0.0015441374001121,0.0015441373990703,-0.0015441373992699,0.0015441373985827,-0.0015441373996155,0.0015441373995903,1.5164928633605e-12,1.427153019102e-12,-0.00083742839936579,0.00083742840283083,7.0603863688664e-13,1.90150816115e-12,-0.00097888483259201,0.00097888483526202,-0.00097888483218562,0.00097888483566308,-0.00097888483273875,0.00097888483534924,-0.00097888483233924,0.00097888483575721,-0.00081075639262226,0.00081075639627757,-0.00081075639227992,0.00081075639611013,0.67547695236208,131490,2924,0.0034855718238783,0.0075130209811133,0.0034855718238783,34.786203340733,0.00019348962672587,0.00019348962672587,0.00019348962672587,3381128.9220797,0.014590126073005
14419200,0.99580001610357,0.015499939301517,0.0043673545953995,0.0067652301107175,0.0043673545953995,-0.00083026425972124,0.0008302642632171,1.4046096618302e-12,1.4939341875941e-12,1.3500657656088e-12,1.17777801969e-12,-0.00097212751966579,0.00097212752276606,-0.00097212751973406,0.00097212752289385,-0.00097212751974037,0.0009721275227177,-0.00097212751981026,0.00097212752284709,-0.0008036217554639,0.00080362175863884,-0.00080362175564786,0.00080362175899769,-1.1534697622905e-13,5.7328219250489e-14,7.0952191282789e-13,-7.8870408210227e-13,-0.0018103704222148,0.0018103704221339,-0.0020346915620188,0.0020346915623903,-0.0020346915621877,0.0020346915615431,-0.0020346915616555,0.0020346915621013,-0.0020346915618245,0.0020346915612541,-0.0015416363854871,0.0015416363869201,-0.0015416363875816,0.0015416363861032,-0.0015416363865408,0.00154163638583,-0.0015416363870444,0.0015416363866659,1.595250251494e-12,1.5059256420642e-12,-0.00083026425962012,0.00083026426331821,6.3954555055773e-13,2.1344633515142e-12,-0.00097212751983455,0.00097212752261663,-0.00097212751932876,0.00097212752311703,-0.00097212751995607,0.00097212752267864,-0.00097212751945736,0.00097212752318615,-0.00080362175535696,0.00080362175929284,-0.00080362175499695,0.00080362175910771,0.66541368792551,131490,2924,0.0034558585066307,0.0075137391689051,0.0034558585066307,32.634954750633,0.00017627963800506,0.00017627963800506,0.00017627963800506,3333480.6965318,0.014530562672352
15419200,0.99696534610182,0.015516957090106,0.0043721676372999,0.0067726218155061,0.0043721676372999,-0.00081606381433316,0.00081606382142643,2.5891518186304e-12,2.6786073287028e-12,2.1764843940869e-12,2.8069727194984e-12,-0.00095853748646929,0.00095853749223017,-0.00095853748612118,0.00095853749194164,-0.00095853748627931,0.00095853749245259,-0.00095853748593528,0.00095853749216812,-0.0007894905530462,0.0007894905592001,-0.00078949055337125,0.0007894905597003,1.1167035325324e-13,-4.844668469292e-13,1.0654828619946e-12,-1.4483390483539e-12,-0.0018030522880048,0.0018030522876195,-0.0020290816347871,0.0020290816354716,-0.0020290816347562,0.0020290816337287,-0.0020290816341446,0.0020290816343708,-0.0020290816341137,0.0020290816326278,-0.0015323898148329,0.0015323898166953,-0.0015323898177685,0.0015323898147348,-0.0015323898160487,0.0015323898154379,-0.0015323898171591,0.0015323898153734,2.7939481026857e-12,2.704492644312e-12,-0.00081606381421804,0.00081606382154155,1.3649740656851e-12,3.8982899200291e-12,-0.00095853748666851,0.00095853749205573,-0.00095853748581157,0.00095853749290343,-0.00095853748637252,0.00095853749170015,-0.00095853748552669,0.00095853749255899,-0.00078949055302643,0.00078949056004889,-0.00078949055252345,0.00078949055972105,0.7013629739556,131490,2924,0.003396925509895,0.0074834659010357,0.003396925509895,27.046974626357,0.00013157579701086,0.00013157579701086,0.00013157579701086,3306558.042724,0.014380284437596
16419200,0.99771409491394,0.015527505023252,0.0043751439848777,0.0067772170534962,0.0043751439848777,-0.00080909758478969,0.00080909758888089,1.6035311584444e-12,1.6930155074221e-12,1.2728778185005e-12,1.7039992675215e-12,-0.00095468649243835,0.00095468649581043,-0.00095468649245944,0.00095468649589115,-0.00095468649231924,0.00095468649596322,-0.00095468649234051,0.00095468649604408,-0.00078186107339194,0.00078186107722061,-0.00078186107364043,0.0007818610776443,9.4128712667735e-14,-3.3267301353838e-13,1.147526179157e-12,-1.3998171189008e-12,-0.0018047710806915,0.0018047710804369,-0.002029205126364,0.0020292051271047,-0.0020292051267769,0.0020292051258124,-0.0020292051261001,0.0020292051265219,-0.0020292051265131,0.0020292051252296,-0.0015350085131687,0.0015350085152601,-0.0015350085162403,0.0015350085133596,-0.0015350085145151,0.0015350085138695,-0.0015350085155641,0.001535008514067,1.8118282822426e-12,1.722343589468e-12,-0.00080909758467098,0.00080909758899959,3.6318561081124e-13,2.9031296275591e-12,-0.0009546864926675,0.000954686495605,-0.0009546864918152,0.0009546864964519,-0.00095468649274055,0.00095468649561845,-0.00095468649189533,0.00095468649647245,-0.00078186107325811,0.00078186107803067,-0.00078186107283228,0.00078186107778003,0.67695251042898,131490,2924,0.0033680425149591,0.0074904984974793,0.0033680425149591,24.4075061279,0.0001104600490232,0.0001104600490232,0.0001104600490232,3209521.3080562,0.014328847085865
17419200,0.9982170181831,0.015534787175507,0.0043772125813563,0.0067803620127942,0.0043772125813563,-0.00080157214600117,0.00080157214990364,1.5372013833029e-12,1.6266585933177e-12,1.2619039901405e-12,1.5680204804036e-12,-0.00094658778464937,0.00094658778792956,-0.00094658778468635,0.00094658778802614,-0.00094658778457077,0.000946587788041,-0.00094658778460774,0.00094658778813755,-0.0007746644459854,0.00077466444962709,-0.00077466444622374,0.00077466445004058,3.4075135498589e-14,-2.6777370205015e-13,1.1351044998073e-12,-1.3835916734006e-12,-0.0018001884390657,0.001800188438815,-0.0020267113779219,0.0020267113786153,-0.0020267113783462,0.0020267113773547,-0.0020267113776397,0.0020267113780964,-0.0020267113780641,0.0020267113768358,-0.0015284400010483,0.0015284400031573,-0.0015284400041035,0.0015284400012959,-0.0015284400024567,0.0015284400017016,-0.0015284400033962,0.0015284400020367,1.7544426676867e-12,1.6649852976068e-12,-0.00080157214587353,0.00080157215003127,3.1532833752397e-13,2.8253666116218e-12,-0.0009465877848855,0.0009465877877169,-0.00094658778404353,0.00094658778855366,-0.0009465877849741,0.00094658778774591,-0.00094658778413916,0.00094658778858973,-0.0007746644458168,0.0007746644504517,-0.00077466444540115,0.00077466445021118,0.69391687943886,131490,2924,0.0033368033683466,0.0074715653778637,0.0033368033683466,21.970371097058,9.0962968776466e-05,9.0962968776466e-05,9.0962968776466e-05,3201771.5469898,0.014246264460656
18419200,0.99852944724032,0.015539236344824,0.0043784765933578,0.0067822831581087,0.0043784765933578,-0.00079039396174444,0.00079039396939975,2.7727730197905e-12,2.8621919827544e-12,2.26196088578e-12,3.1408016977229e-12,-0.00093720510140077,0.00093720510749861,-0.00093720510101244,0.00093720510716986,-0.00093720510113046,0.00093720510780392,-0.00093720510074527,0.00093720510747828,-0.00076322660541464,0.00076322661207661,-0.0007632266058153,0.00076322661265234,2.1809563144581e-13,-6.2536686605975e-13,1.3844022956955e-12,-1.7996993733607e-12,-0.0017953386341264,0.0017953386337084,-0.0020214613036959,0.0020214613046503,-0.0020214613037925,0.002021461302594,-0.0020214613030453,0.0020214613033778,-0.0020214613031419,0.0020214613013215,-0.0015235670210153,0.0015235670234208,-0.0015235670245605,0.0015235670207542,-0.0015235670225053,0.0015235670218821,-0.0015235670238174,0.0015235670215318,2.9923077782279e-12,2.9028889510881e-12,-0.00079039396161444,0.00079039396952975,1.2592690890173e-12,4.460441882702e-12,-0.00093720510165718,0.00093720510726884,-0.00093720510057872,0.00093720510833814,-0.00093720510131994,0.00093720510687203,-0.00093720510025245,0.00093720510795234,-0.00076322660538571,0.00076322661308577,-0.000763226604807,0.00076322661268212,0.68264893512132,131490,2924,0.0032904144626568,0.0074514653624672,0.0032904144626568,17.465812501883,5.4926500015068e-05,5.4926500015068e-05,5.4926500015068e-05,3152586.8841292,0.014131798551186
19419200,0.99878834880626,0.015543144608978,0.0043795973813772,0.0067839498462233,0.0043795973813772,-0.00078875754113126,0.00078875754252194,7.0880794566851e-13,7.9827099339553e-13,5.0400375376658e-13,6.2594634835696e-13,-0.0009354475351171,0.00093544753643537,-0.00093544753545394,0.00093544753683181,-0.00093544753510328,0.00093544753648316,-0.00093544753543705,0.00093544753687651,-0.00076173514288698,0.00076173514457253,-0.00076173514305186,0.00076173514491256,-1.1706436494048e-14,-1.5153204727056e-13,1.1667070637824e-12,-1.3471971381698e-12,-0.0017959294462694,0.0017959294460869,-0.0020231125680382,0.0020231125687217,-0.0020231125688178,0.0020231125678426,-0.0020231125680615,0.0020231125686367,-0.0020231125688411,0.0020231125677576,-0.001523115599351,0.0015231156015848,-0.0015231156024953,0.0015231155998133,-0.0015231156008606,0.0015231156000247,-0.0015231156017366,0.0015231156006077,9.3218297833224e-13,8.4271985842797e-13,-0.00078875754099748,0.00078875754265572,-5.1399609188986e-13,1.9701431765298e-12,-0.00093544753537307,0.00093544753620217,-0.0009354475345452,0.00093544753702789,-0.00093544753576127,0.00093544753653078,-0.00093544753493737,0.0009354475373605,-0.00076173514261272,0.00076173514535618,-0.0007617351422708,0.0007617351451894,0.72156127329437,131490,2924,0.0032836278113425,0.0074539142404927,0.0032836278113425,17.551723109354,5.5613784874835e-05,5.5613784874835e-05,5.5613784874835e-05,3125573.9309365,0.014120513475116
20419200,0.99901369522271,0.015546583525721,0.0043805862755571,0.0067854109746068,0.0043805862755571,-0.00079018810574566,0.00079018810575541,2.4071635767757e-13,3.3010418524732e-13,3.5855132591488e-13,-1.9065273451336e-13,-0.00093925615539166,0.0009392561557961,-0.0009392561558867,0.0009392561563507,-0.00093925615559428,0.00093925615561927,-0.00093925615608644,0.00093925615617095,-0.00076254797082894,0.00076254797122882,-0.00076254797095694,0.00076254797153183,-2.0020773673225e-13,3.1828854120943e-13,9.0824337143551e-13,-8.1743114568667e-13,-0.0018024800344795,0.001802480034569,-0.0020278789299369,0.0020278789304078,-0.002027878930653,0.0020278789299899,-0.002027878929938,0.0020278789307392,-0.0020278789306541,0.0020278789303213,-0.0015309336099712,0.0015309336119231,-0.0015309336123878,0.0015309336109688,-0.0015309336113952,0.0015309336104529,-0.0015309336116641,0.0015309336117254,4.5026390651144e-13,3.6087890186785e-13,-0.00079018810562557,0.00079018810587549,-6.156498687897e-13,1.077675794656e-12,-0.0009392561556366,0.00093925615556895,-0.00093925615507256,0.00093925615613197,-0.00093925615618399,0.0009392561560568,-0.00093925615562267,0.00093925615662257,-0.00076254797055211,0.00076254797194149,-0.00076254797024874,0.00076254797181312,0.72908504895766,131490,2924,0.0032895959239041,0.0074809466527161,0.0032895959239041,18.600134566133,6.4001076529063e-05,6.4001076529063e-05,6.4001076529063e-05,3038963.3875368,0.014160054436816
21419200,0.99916689791622,0.015548860024482,0.0043812405187027,0.0067863789870768,0.0043812405187027,-0.00078111605043957,0.00078111605662641,2.2909039666622e-12,2.380318310081e-12,1.6605830129759e-12,2.7770167816906e-12,-0.00093119868195273,0.00093119868675969,-0.0009311986817555,0.00093119868662203,-0.00093119868160974,0.00093119868714204,-0.00093119868141326,0.0009311986870051,-0.00075367882750847,0.00075367883314621,-0.00075367882787892,0.00075367883369172,3.2606780355831e-13,-7.712281453919e-13,1.5120326319704e-12,-1.9628192136909e-12,-0.0017975540503031,0.0017975540498493,-0.0020231807871267,0.002023180788209,-0.0020231807875318,0.0020231807862851,-0.0020231807867714,0.0020231807870813,-0.0020231807871764,0.0020231807851573,-0.0015255947357302,0.001525594738307,-0.0015255947395981,0.0015255947353859,-0.0015255947372449,0.0015255947367443,-0.0015255947388446,0.0015255947361735,2.5058731237668e-12,2.4164593994123e-12,-0.00078111605031411,0.00078111605675187,6.3472537428139e-13,4.1099868655166e-12,-0.00093119868222072,0.00093119868651939,-0.00093119868105501,0.00093119868767808,-0.00093119868207455,0.00093119868631366,-0.00093119868091758,0.00093119868748111,-0.00075367882744755,0.00075367883412693,-0.00075367882689884,0.00075367883375328,0.70949276287797,131490,2924,0.0032519413809479,0.0074605490260626,0.0032519413809479,15.2165294318,3.6932235454397e-05,3.6932235454397e-05,3.6932235454397e-05,3007241.4047707,0.01406300122358
22419200,0.99929378805847,0.015550764577917,0.0043817894905032,0.0067871855969103,0.0043817894905032,-0.00077858377011826,0.00077858377217582,9.258865401694e-13,1.0153076702891e-12,5.8708197865148e-13,1.0134843916887e-12,-0.00092821854220527,0.00092821854394625,-0.00092821854247691,0.00092821854427747,-0.00092821854209239,0.00092821854409565,-0.0009282185423611,0.00092821854442391,-0.00075145404118829,0.00075145404347442,-0.00075145404139831,0.00075145404385951,9.7744896313454e-14,-3.4104228727458e-13,1.3215202755215e-12,-1.578576128524e-12,-0.0017963610198772,0.0017963610196177,-0.0020232702537235,0.0020232702545602,-0.002023270254529,0.0020232702534485,-0.0020232702537437,0.0020232702542721,-0.0020232702545492,0.0020232702531604,-0.0015232240280778,0.0015232240305139,-0.0015232240315558,0.0015232240283188,-0.0015232240296448,0.0015232240288958,-0.0015232240307711,0.0015232240291397,1.148299964342e-12,1.0588794754883e-12,-0.00077858376998537,0.00077858377230872,-4.7396549126782e-13,2.399577052105e-12,-0.00092821854247776,0.00092821854369809,-0.00092821854151967,0.00092821854465352,-0.00092821854280051,0.00092821854396128,-0.00092821854184689,0.0009282185449212,-0.00075145404094557,0.00075145404431657,-0.00075145404055821,0.00075145404410427,0.71603060868652,131490,2924,0.0032414298884721,0.0074556273043272,0.0032414298884721,14.857969006718,3.4063752053743e-05,3.4063752053743e-05,3.4063752053743e-05,2994819.2253895,0.014036684295542
23419200,0.99940648967702,0.015552427361633,0.0043822686677486,0.0067878900261362,0.0043822686677486,-0.00077920226743115,0.00077920226778723,3.5575605101449e-13,4.4519790579979e-13,3.144502724365e-13,1.0154251559291e-13,-0.00092950387636158,0.00092950387693978,-0.00092950387682387,0.00092950387746167,-0.00092950387645634,0.0009295038768751,-0.00092950387691515,0.00092950387739348,-0.0007519774597369,0.00075197746051351,-0.00075197745988952,0.00075197746084127,-9.9041856692204e-14,8.6434212435317e-14,1.0849867955746e-12,-1.120074606019e-12,-0.0017993528893574,0.0017993528893206,-0.0020261687750089,0.0020261687756219,-0.0020261687758279,0.0020261687749918,-0.0020261687750662,0.0020261687757906,-0.0020261687758852,0.0020261687751605,-0.0015261618706329,0.0015261618728193,-0.0015261618735009,0.001526161871375,-0.0015261618721525,0.0015261618712501,-0.0015261618727337,0.0015261618721776,5.7347686302843e-13,4.8403218373728e-13,-0.00077920226730298,0.00077920226791542,-7.2037078728458e-13,1.450413041061e-12,-0.00092950387662441,0.00092950387669718,-0.00092950387590206,0.00092950387741848,-0.00092950387713847,0.00092950387715163,-0.00092950387641896,0.00092950387787581,-0.00075197745945277,0.00075197746128268,-0.00075197745912396,0.00075197746112894,0.70402771110808,131490,2924,0.0032440108837425,0.0074679845477311,0.0032440108837425,15.708000065716,4.0864000525726e-05,4.0864000525726e-05,4.0864000525726e-05,2952518.3404163,0.014054454137347
24419200,0.99951289623028,0.015554024825709,0.0043827310109287,0.0067885628038518,0.0043827310109287,-0.00078251387624025,0.00078251387461748,-3.2201922135736e-13,-2.32582316013e-13,4.6447658261805e-13,-1.4817042055418e-12,-0.00093249482032139,0.00093249481986289,-0.00093249482098693,0.000932494820588,-0.00093249482097283,0.00093249481921984,-0.00093249482163746,0.00093249481994403,-0.00075541525437044,0.00075541525304429,-0.00075541525445537,0.00075541525330432,-6.5327551346973e-13,1.2484074208338e-12,8.8971046701478e-14,4.5999753562634e-13,-0.0018032769534958,0.001803276954045,-0.0020308592581275,0.0020308592579058,-0.002030859258388,0.0020308592584153,-0.0020308592579032,0.0020308592589235,-0.0020308592581637,0.002030859259433,-0.0015293887196703,0.0015293887204811,-0.0015293887201262,0.0015293887216839,-0.001529388720628,0.0015293887194895,-0.0015293887196192,0.0015293887222152,-1.4510640533422e-13,-2.34540173194e-13,-0.00078251387615304,0.00078251387470469,-2.0180209979026e-13,-6.0002611262884e-13,-0.00093249482047345,0.00093249481971815,-0.00093249482060446,0.00093249481958751,-0.00093249482119404,0.00093249482037917,-0.00093249482132653,0.00093249482025004,-0.00075541525420046,0.00075541525356491,-0.00075541525394259,0.00075541525348212,0.71547766069909,131490,2924,0.0032577664366201,0.0074842219240025,0.0032577664366201,17.887456908293,5.8299655266347e-05,5.8299655266347e-05,5.8299655266347e-05,2926872.9849646,0.014098813552385
25419200,0.99960989840071,0.015555555163381,0.0043831770771843,0.0067892010090121,0.0043831770771843,-0.00078594416720385,0.00078594416577588,-2.569272834008e-13,-1.6757615470417e-13,4.6296313252939e-13,-1.3386320762972e-12,-0.00093671263100961,0.00093671263065946,-0.00093671263165589,0.00093671263136526,-0.00093671263161415,0.00093671263006446,-0.00093671263226001,0.00093671263076981,-0.00075866617240067,0.00075866617126982,-0.00075866617249556,0.00075866617153964,-6.0663899700682e-13,1.1504688245554e-12,5.3564834219318e-15,4.9436136818778e-13,-0.001808718010303,0.0018087180108027,-0.0020358718619707,0.0020358718617108,-0.0020358718621665,0.0020358718622302,-0.0020358718617646,0.0020358718626508,-0.0020358718619604,0.0020358718631701,-0.0015350947761139,0.0015350947767109,-0.0015350947764417,0.0015350947780181,-0.0015350947769023,0.0015350947758942,-0.0015350947760195,0.0015350947784605,-9.4011025086539e-14,-1.8336150137317e-13,-0.00078594416713062,0.00078594416584912,-8.9034103598662e-14,-6.048966274409e-13,-0.00093671263113183,0.00093671263054475,-0.00093671263130123,0.00093671263037553,-0.00093671263183374,0.00093671263118713,-0.00093671263200479,0.0009367126310196,-0.00075866617229787,0.00075866617174285,-0.00075866617202999,0.00075866617164989,0.75063515068132,131490,2924,0.0032720232093066,0.0075067040825916,0.0032720232093066,19.932102692967,7.4656821543739e-05,7.4656821543739e-05,7.4656821543739e-05,2878142.1310639,0.014150535771843
26419200,0.99968941213787,0.015556838010321,0.0043835522354683,0.0067897335393843,0.0043835522354683,-0.00078606036487074,0.00078606036580064,5.2231071472208e-13,6.1167448411709e-13,1.0567015953298e-12,-3.0355093260973e-13,-0.00093860074232767,0.00093860074370962,-0.00093860074271203,0.00093860074415351,-0.00093860074278599,0.00093860074326335,-0.00093860074317186,0.00093860074370873,-0.00075854805888211,0.00075854805967867,-0.00075854805907371,0.00075854806004524,-4.6687785484907e-13,8.6787084008274e-13,1.1692907495585e-13,2.4557590958924e-13,-0.0018123601749697,0.0018123601753318,-0.0020382541543963,0.0020382541542754,-0.0020382541543731,0.0020382541543201,-0.0020382541539899,0.0020382541547205,-0.0020382541539666,0.0020382541547651,-0.0015396306096415,0.0015396306103085,-0.0015396306102127,0.0015396306111589,-0.0015396306103909,0.0015396306095325,-0.0015396306098134,0.0015396306115771,6.8092349237236e-13,5.915571048071e-13,-0.00078606036480184,0.00078606036586955,5.3230953242682e-13,3.922230031506e-13,-0.00093860074244526,0.00093860074360185,-0.00093860074248561,0.00093860074355932,-0.0009386007428852,0.00093860074398225,-0.00093860074292955,0.00093860074394376,-0.00075854805889074,0.00075854806023339,-0.00075854805852544,0.00075854806004304,0.76690557153245,131490,2924,0.0032725262879696,0.0075217204660574,0.0032725262879696,20.395176074017,7.8361408592135e-05,7.8361408592135e-05,7.8361408592135e-05,2816291.078046,0.014166799803366
27419200,0.99975876659426,0.015557914530261,0.0043838663843928,0.0067901817614751,0.0043838663843928,-0.00078864023066249,0.0007886402301965,6.3396500780418e-14,1.523622751533e-13,5.815884883856e-13,-7.744515469192e-13,-0.00094203972106621,0.00094203972133803,-0.00094203972161286,0.00094203972194395,-0.00094203972152631,0.00094203972089184,-0.00094203972207292,0.0009420397214977,-0.00076130568447497,0.00076130568421935,-0.00076130568461685,0.00076130568453542,-4.6056481241407e-13,8.5937721720415e-13,1.214179966459e-13,2.3917645802927e-13,-0.0018167486396181,0.0018167486399783,-0.0020422765215035,0.0020422765213769,-0.0020422765216825,0.0020422765216287,-0.0020422765213005,0.0020422765220279,-0.0020422765214795,0.0020422765222797,-0.0015442710057698,0.0015442710064452,-0.0015442710064059,0.001544271007334,-0.0015442710065168,0.0015442710056717,-0.0015442710060082,0.0015442710077506,2.2120797754225e-13,1.3224209244779e-13,-0.00078864023059399,0.000788640230265,5.8713147530116e-14,-8.1105272289605e-14,-0.00094203972118383,0.00094203972123038,-0.0009420397212269,0.00094203972118663,-0.00094203972178579,0.00094203972177308,-0.00094203972183134,0.00094203972173184,-0.00076130568443451,0.00076130568472296,-0.00076130568411965,0.00076130568458226,0.73787290475512,131490,2924,0.0032832519354395,0.0075398440151855,0.0032832519354395,22.256951371339,9.3255610970708e-05,9.3255610970708e-05,9.3255610970708e-05,2766899.3807218,0.014206938433397
28419200,0.99981576030949,0.015558845829472,0.0043841402444909,0.0067905653404897,0.0043841402444909,-0.00078981430398994,0.00078981430420578,2.8925043933292e-13,3.782545520624e-13,7.4591053279818e-13,-4.7642629844479e-13,-0.00094232564534571,0.00094232564612082,-0.00094232564581352,0.00094232564664792,-0.00094232564576166,0.00094232564571973,-0.00094232564622988,0.00094232564624721,-0.0007627977242682,0.00076279772457652,-0.0007627977244312,0.00076279772491378,-4.2366520437765e-13,7.6843005440108e-13,1.6876378555867e-13,1.3960267641053e-13,-0.0018177030047881,0.0018177030050959,-0.0020445955798549,0.0020445955797718,-0.0020445955799863,0.0020445955798744,-0.0020445955795982,0.0020445955802802,-0.0020445955797296,0.0020445955803827,-0.0015440430776864,0.0015440430784097,-0.0015440430784449,0.0015440430791343,-0.0015440430784461,0.001544043077623,-0.0015440430780422,0.0015440430795563,4.4886889030469e-13,3.5986265350178e-13,-0.00078981430391969,0.00078981430427603,2.1648438655059e-13,2.2761502813478e-13,-0.00094232564546524,0.00094232564601209,-0.00094232564545711,0.0009423256460189,-0.00094232564598823,0.00094232564647579,-0.00094232564598326,0.00094232564648579,-0.00076279772424416,0.00076279772510598,-0.00076279772390783,0.0007627977249439,0.77519218307135,131490,2924,0.0032881267035198,0.0075438130021991,0.0032881267035199,23.444426246053,0.00010275540996842,0.00010275540996842,0.00010275540996842,2762453.4925642,0.014220840544726
29419200,0.99986206954209,0.015559516409537,0.0043843353871032,0.0067908456353303,0.0043843353871032,-0.00079200888802529,0.00079200888809015,2.3828653484816e-13,3.2778321102856e-13,6.8439835864405e-13,-5.0833326488534e-13,-0.00094621621078132,0.0009462162114194,-0.00094621621127147,0.00094621621196917,-0.00094621621118814,0.00094621621102798,-0.0009462162116784,0.00094621621157784,-0.00076470691527765,0.00076470691547726,-0.00076470691544317,0.00076470691581801,-4.0730614531214e-13,7.5366047618979e-13,2.0814217081132e-13,1.020791756689e-13,-0.0018228608176884,0.001822860817998,-0.0020483714134147,0.0020483714133674,-0.0020483714135905,0.0020483714134653,-0.0020483714131875,0.0020483714138864,-0.0020483714133633,0.0020483714139843,-0.0015502154590376,0.0015502154598284,-0.0015502154598651,0.0015502154604705,-0.0015502154598269,0.0015502154590114,-0.0015502154594479,0.0015502154609074,3.9922883324495e-13,3.0973199378255e-13,-0.00079200888795418,0.00079200888816127,1.3330775106912e-13,2.1964957478273e-13,-0.00094621621090766,0.0009462162113041,-0.0009462162108749,0.00094621621133571,-0.00094621621145323,0.00094621621179005,-0.00094621621142341,0.00094621621182463,-0.00076470691524812,0.00076470691601818,-0.00076470691490831,0.00076470691585358,0.68887568164681,131490,2924,0.0032972587859613,0.0075650981153739,0.0032972587859613,24.783779185066,0.00011347023348052,0.00011347023348052,0.00011347023348052,2700876.5103563,0.01426096793795
30419200,0.99989890567893,0.015560040697677,0.0043844880464493,0.0067910646047787,0.0043844880464493,-0.00079347067276016,0.00079347067280994,2.3607369068433e-13,3.2552977131031e-13,6.6322745209189e-13,-5.1434984578881e-13,-0.00094418616320528,0.00094418616384605,-0.00094418616368902,0.00094418616438939,-0.00094418616360745,0.0009441861634598,-0.00094418616409117,0.00094418616400309,-0.00076679412561517,0.00076679412581866,-0.00076679412576779,0.00076679412614643,-4.1806808124827e-13,7.285921831854e-13,2.0519896660654e-13,6.9761927644526e-14,-0.0018206681574974,0.0018206681577718,-0.0020500178981845,0.0020500178981161,-0.0020500178983753,0.0020500178982105,-0.002050017897968,0.0020500178986367,-0.0020500178981587,0.002050017898731,-0.0015448029299443,0.0015448029307244,-0.0015448029308283,0.0015448029313648,-0.0015448029307435,0.0015448029298965,-0.0015448029304067,0.0015448029318067,4.0091894337795e-13,3.1146285267071e-13,-0.00079347067268515,0.00079347067288495,1.0986482017575e-13,2.249399067329e-13,-0.00094418616333036,0.00094418616373228,-0.00094418616328835,0.00094418616377325,-0.00094418616386935,0.00094418616421168,-0.00094418616383029,0.00094418616425563,-0.00076679412556656,0.00076679412635285,-0.00076679412523953,0.00076679412620094,0.67661895266532,131490,2924,0.003303306988112,0.0075561231199531,0.003303306988112,26.134524923399,0.0001242761993872,0.0001242761993872,0.0001242761993872,2757993.4105269,0.014264101680106
31419200,0.99992872696803,0.015560496758951,0.0043846220016488,0.006791252755653,0.0043846220016488,-0.00079768118995968,0.00079768118897715,-1.0784282312284e-13,-1.8722018157448e-14,4.961207445871e-13,-1.0658139989375e-12,-0.00094793448008608,0.00094793448002313,-0.00094793448068473,0.00094793448068117,-0.00094793448061312,0.00094793447950808,-0.00094793448121143,0.00094793448016573,-0.00077098878599913,0.00077098878529204,-0.00077098878611797,0.00077098878558537,-5.353152641332e-13,9.8658806629415e-13,3.9742903528637e-14,3.7059709027799e-13,-0.0018247974405838,0.001824797440994,-0.0020547538416926,0.0020547538414754,-0.0020547538418789,0.0020547538418788,-0.0020547538415013,0.002054753842274,-0.0020547538416876,0.0020547538426773,-0.0015483433402329,0.0015483433408171,-0.0015483433407116,0.0015483433419657,-0.001548343340972,0.001548343340051,-0.001548343340316,0.0015483433423806,5.22258310073e-14,-3.6894946414125e-14,-0.00079768118988914,0.00079768118904769,-1.9421583154554e-14,-3.7502757533412e-13,-0.00094793448019891,0.00094793447991899,-0.00094793448031471,0.00094793447980319,-0.00094793448085309,0.0009479344805138,-0.00094793448097079,0.00094793448039994,-0.00077098878593567,0.00077098878577313,-0.0007709887856438,0.00077098878565573,0.72613761593608,131490,2924,0.0033207923881891,0.0075732115268531,0.0033207923881891,28.445480597071,0.00014276384477657,0.00014276384477657,0.00014276384477657,2741743.7344316,0.014316901707902
32419200,0.99995050749762,0.01556084673974,0.004384725315743,0.0067913961082541,0.004384725315743,-0.00079937732678628,0.00079937732731853,3.8977859069337e-13,4.7889566323602e-13,8.8858653076202e-13,-4.0857666532216e-13,-0.00095224225419746,0.00095224225524792,-0.00095224225463061,0.00095224225574044,-0.00095224225463645,0.00095224225482228,-0.00095224225507057,0.00095224225531574,-0.00077198389494142,0.00077198389545869,-0.00077198389512655,0.00077198389581831,-4.4864152960335e-13,8.2063869475707e-13,1.2267272302075e-13,2.1177653037237e-13,-0.0018307277658527,0.0018307277661867,-0.0020582709308137,0.0020582709306957,-0.0020582709308585,0.002058270930786,-0.0020582709304835,0.0020582709311779,-0.0020582709305284,0.0020582709312682,-0.0015561840204845,0.0015561840211421,-0.001556184021113,0.0015561840219704,-0.0015561840212174,0.001556184020383,-0.0015561840207226,0.0015561840223794,5.4720435681193e-13,4.5808675576406e-13,-0.00079937732671835,0.00079937732738645,3.7639276616524e-13,2.7276041919466e-13,-0.00095224225431199,0.00095224225514352,-0.00095224225434114,0.00095224225511271,-0.00095224225480057,0.00095224225557274,-0.00095224225483324,0.00095224225554548,-0.00077198389494866,0.00077198389600139,-0.00077198389459013,0.00077198389581732,0.76212228763474,131490,2924,0.0033278591436319,0.0075976684206498,0.0033278591436319,29.298069040757,0.00014958455232605,0.00014958455232605,0.00014958455232605,2664432.8074859,0.014356070000639
33419200,0.99996564415082,0.015561092851161,0.0043847981080749,0.0067914966350116,0.0043847981080749,-0.0007984628090278,0.00079846281044287,6.8262436872058e-13,7.7175173604294e-13,1.0583199411111e-12,4.1237151998019e-14,-0.00095291930684267,0.00095291930849559,-0.00095291930718287,0.00095291930889516,-0.00095291930719037,0.00095291930816376,-0.00095291930753186,0.00095291930856459,-0.00077104030061976,0.00077104030189799,-0.0007710403008436,0.00077104030229634,-3.5456469770363e-13,6.4143525753436e-13,2.4577060952364e-13,7.0960185156229e-15,-0.0018327221930147,0.0018327221932668,-0.002059158157572,0.0020591581575761,-0.0020591581575988,0.002059158157427,-0.0020591581572059,0.0020591581578375,-0.0020591581572326,0.0020591581576884,-0.0015590125562246,0.0015590125570298,-0.001559012557126,0.0015590125574896,-0.0015590125569934,0.001559012556234,-0.0015590125567203,0.0015590125579145,8.4171552146271e-13,7.5259030300049e-13,-0.0007984628089582,0.00079846281051247,5.2234574857829e-13,7.5050032456848e-13,-0.00095291930696573,0.00095291930838437,-0.00095291930688345,0.00095291930846421,-0.00095291930736109,0.00095291930872036,-0.00095291930728308,0.00095291930880449,-0.00077104030065514,0.00077104030248985,-0.00077104030025742,0.00077104030226661,0.77026491249064,131490,2924,0.0033240781527145,0.0076058738644991,0.0033240781527145,29.31737513547,0.00014973900108376,0.00014973900108376,0.00014973900108376,2613888.2887048,0.014356733516757
34419200,0.99997710199744,0.015561272227136,0.0043848510669544,0.0067915700932274,0.0043848510669544,-0.00080193402594345,0.00080193402513084,-5.3107254448066e-14,3.5958202627512e-14,4.2251676519697e-13,-8.4827782098897e-13,-0.00095679490836396,0.0009567949083354,-0.00095679490895603,0.00095679490898679,-0.00095679490879767,0.00095679490791727,-0.00095679490938898,0.00095679490856788,-0.0007747224026802,0.00077472240218901,-0.00077472240282384,0.00077472240250702,-4.3242558381289e-13,7.9997241433304e-13,1.8388973523599e-13,1.4663034407305e-13,-0.0018369532734994,0.0018369532738294,-0.0020632843540774,0.002063284353997,-0.0020632843543527,0.0020632843542469,-0.0020632843539491,0.0020632843546688,-0.0020632843542244,0.0020632843549188,-0.0015633265557249,0.0015633265564949,-0.0015633265565237,0.0015633265572403,-0.0015633265565158,0.0015633265556761,-0.0015633265561052,0.0015633265576787,1.0759331603923e-13,1.8527801635437e-14,-0.00080193402587216,0.00080193402520212,-1.2989176718979e-13,-1.1840604178405e-13,-0.00095679490849048,0.0009567949082195,-0.00095679490848429,0.00095679490822554,-0.00095679490913772,0.0009567949088074,-0.0009567949091335,0.00095679490881545,-0.00077472240262775,0.00077472240270834,-0.00077472240231073,0.00077472240256569,0.74167920846692,131490,2924,0.0033384988759367,0.0076233569070712,0.0033384988759367,31.489046350485,0.00016711237080388,0.00016711237080388,0.00016711237080388,2578109.17476,0.01440372272402
35419200,0.99998608900835,0.015561408114434,0.0043848911534018,0.0067916258076304,0.0043848911534018,-0.00081058304820318,0.00081058304491613,-8.7410857231842e-13,-7.8504996019114e-13,-1.0414968778382e-13,-2.0355620502708e-12,-0.00096434023187011,0.00096434023009189,-0.00096434023273525,0.00096434023101636,-0.00096434023252027,0.00096434022945192,-0.00096434023338324,0.00096434023037419,-0.00078354155763015,0.00078354155504527,-0.00078354155768677,0.00078354155527625,-6.4308526595126e-13,1.2290355420431e-12,-9.5106859256616e-14,6.354046476477e-13,-0.0018438580854149,0.0018438580859553,-0.0020712519350262,0.0020712519346741,-0.0020712519354015,0.0020712519355469,-0.0020712519350399,0.002071251935925,-0.0020712519354153,0.0020712519367978,-0.0015693867963953,0.0015693867968393,-0.0015693867965643,0.0015693867984562,-0.0015693867971015,0.0015693867961072,-0.0015693867961817,0.0015693867988574,-7.1849010944388e-13,-8.0754869758867e-13,-0.000810583048137,0.00081058304498231,-6.0229165922677e-13,-1.3722883541872e-12,-0.00096434023197779,0.00096434022999073,-0.00096434023223514,0.00096434022973574,-0.0009643402328988,0.0009643402308524,-0.00096434023315565,0.00096434023059694,-0.00078354155751662,0.00078354155545207,-0.00078354155728774,0.00078354155539754,0.71639793499667,131490,2924,0.0033744061109126,0.0076519362671394,0.0033744061109126,35.94376625644,0.00020275013005152,0.00020275013005152,0.00020275013005152,2566294.1886919,0.014505556190204
36419200,0.99999183894513,0.015561496853112,0.0043849174389106,0.0067916619752911,0.0043849174389106,-0.00081316852307663,0.00081316852283798,1.3068017692794e-13,2.197615336212e-13,7.5674061187317e-13,-8.1982574900377e-13,-0.00096604801557776,0.00096604801610445,-0.00096604801609562,0.00096604801668165,-0.00096604801610753,0.00096604801558519,-0.00096604801662622,0.0009660480161632,-0.00078621171813718,0.00078621171797526,-0.00078621171829591,0.0007862117183084,-5.3899629873894e-13,1.0033616715191e-12,-2.6523130913027e-14,4.4962332313964e-13,-0.0018458001802701,0.001845800180693,-0.002074249740015,0.0020742497397636,-0.0020742497400432,0.0020742497400965,-0.0020742497397051,0.0020742497404498,-0.0020742497397333,0.0020742497407826,-0.0015703893211615,0.0015703893216199,-0.0015703893214515,0.001570389322868,-0.0015703893218198,0.0015703893209373,-0.0015703893210953,0.0015703893232415,2.8291938641871e-13,1.9383785779826e-13,-0.00081316852301389,0.00081316852290072,2.9357144335863e-13,-1.9996263392585e-13,-0.0009660480156772,0.00096604801601315,-0.00096604801583687,0.0009660480158526,-0.00096604801625094,0.00096604801652755,-0.00096604801641339,0.00096604801636981,-0.00078621171814187,0.00078621171846785,-0.00078621171781027,0.00078621171831065,0.73062862473102,131490,2924,0.0033851388912315,0.0076599904021161,0.0033851388912315,37.485517567888,0.00021508414054311,0.00021508414054311,0.00021508414054311,2566540.5008666,0.014535497042577
37419200,0.99999523388577,0.01556154844256,0.0043849327176741,0.0067916830072122,0.0043849327176741,-0.00081311644591325,0.00081311644712326,6.1075516905471e-13,6.9983514811886e-13,1.0757408703107e-12,-1.348729679587e-13,-0.00096684579950408,0.00096684580106322,-0.00096684579986289,0.00096684580148136,-0.00096684579991385,0.00096684580066691,-0.00096684580027436,0.00096684580108674,-0.00078595226878018,0.00078595226983572,-0.00078595226899501,0.00078595227022496,-4.2384434596382e-13,7.647514020755e-13,1.0856309523667e-13,1.9591630900889e-13,-0.0018476455549496,0.0018476455552535,-0.0020755119689166,0.0020755119688018,-0.0020755119688657,0.0020755119687891,-0.0020755119685157,0.0020755119691547,-0.0020755119684647,0.002075511969142,-0.0015726317629357,0.0015726317635362,-0.0015726317635358,0.0015726317643351,-0.0015726317636176,0.0015726317628295,-0.0015726317631713,0.0015726317647172,7.6423347672129e-13,6.7515381569085e-13,-0.00081311644584926,0.00081311644718725,5.9846568787227e-13,5.0211097243534e-13,-0.00096684579960953,0.00096684580096817,-0.00096684579963491,0.00096684580094046,-0.00096684580002389,0.00096684580132319,-0.00096684580005348,0.00096684580129972,-0.0007859522688341,0.00078595227039103,-0.00078595226844578,0.0007859522701771,0.71957119093909,131490,2924,0.0033849327901777,0.0076675998688705,0.0033849327901777,37.681073175418,0.00021664858540335,0.00021664858540335,0.00021664858540335,2535366.5816829,0.01454280683014
38419200,0.99999718508614,0.015561579212624,0.0043849418683047,0.0067916954760141,0.0043849418683047,-0.00081137188066092,0.00081137188266178,8.8150698233149e-13,9.7062724681477e-13,9.9863455673802e-13,5.1289739016033e-13,-0.00096492092724627,0.0009649209292112,-0.00096492092752404,0.00096492092954833,-0.00096492092742332,0.00096492092905674,-0.00096492092770168,0.00096492092939444,-0.00078425856227748,0.00078425856418491,-0.00078425856251877,0.00078425856460069,-1.9486401762626e-13,2.7603942012637e-13,5.1618046633519e-13,-4.6141490409141e-13,-0.0018466323275172,0.0018466323275706,-0.0020750310419104,0.0020750310421347,-0.0020750310420944,0.0020750310416555,-0.0020750310416328,0.0020750310421385,-0.0020750310418168,0.0020750310416593,-0.0015711003379258,0.0015711003390842,-0.0015711003395271,0.0015711003387927,-0.0015711003388347,0.001571100338144,-0.0015711003390578,0.0015711003392841,1.0520760656807e-12,9.6295256775417e-13,-0.00081137188057982,0.00081137188274287,3.7349382531413e-13,1.3389920193453e-12,-0.00096492092739598,0.00096492092907727,-0.00096492092706873,0.00096492092940166,-0.00096492092772797,0.00096492092934988,-0.00096492092740546,0.00096492092967904,-0.00078425856228395,0.00078425856484025,-0.0007842585618677,0.00078425856459848,0.74580972050862,131490,2924,0.0033776914130117,0.00766341599542,0.0033776914130117,37.194402235941,0.00021275521788753,0.00021275521788753,0.00021275521788753,2531280.5625563,0.014523866717073
38880000,0.99999786651412,0.015561590019917,0.0043849450848061,0.0067916998503045,0.0043849450848061,-0.00081119491410499,0.00081119491559241,7.1135781997748e-13,8.0048933434687e-13,8.6389657914075e-13,3.0266045981306e-13,-0.00096585766979955,0.00096585767137105,-0.00096585767013957,0.00096585767177043,-0.00096585767000189,0.00096585767119098,-0.00096585767034186,0.0009658576715903,-0.00078391042471316,0.0007839104262053,-0.00078391042494264,0.0007839104266093,-2.0919881500215e-13,3.3285553737417e-13,5.4587179457961e-13,-4.4986513928174e-13,-0.0018481929784763,0.0018481929785711,-0.0020756161454707,0.0020756161457141,-0.0020756161457327,0.0020756161453056,-0.0020756161452426,0.0020756161458183,-0.0020756161455046,0.0020756161454098,-0.0015734315202915,0.0015734315215341,-0.0015734315219249,0.0015734315212373,-0.0015734315212579,0.0015734315205349,-0.0015734315214264,0.0015734315217591,8.848200575899e-13,7.9568819227191e-13,-0.00081119491402097,0.00081119491567644,1.973358244672e-13,1.177480373452e-12,-0.00096585766996111,0.00096585767122491,-0.00096585766963009,0.00096585767155365,-0.00096585767035522,0.00096585767155965,-0.0009658576700283,0.00096585767189253,-0.00078391042469002,0.00078391042686672,-0.00078391042428576,0.00078391042663694,0.74996903551459,131490,2924,0.0033769664363128,0.0076698404154269,0.0033769664363128,37.193613676135,0.00021274890940908,0.00021274890940908,0.00021274890940908,2501344.8178309,0.014528923002729
