time,ASR_ext,ASR_strain,ASR_strain_xx,ASR_strain_yy,ASR_strain_zz,disp_x_101,disp_x_102,disp_x_103,disp_x_104,disp_x_105,disp_x_106,disp_x_p1_neg,disp_x_p1_pos,disp_x_p2_neg,disp_x_p2_pos,disp_x_p3_neg,disp_x_p3_pos,disp_x_p4_neg,disp_x_p4_pos,disp_x_p5_neg,disp_x_p5_pos,disp_x_p6_neg,disp_x_p6_pos,disp_y_101,disp_y_102,disp_y_103,disp_y_104,disp_y_105,disp_y_106,disp_y_p1_neg,disp_y_p1_pos,disp_y_p2_neg,disp_y_p2_pos,disp_y_p3_neg,disp_y_p3_pos,disp_y_p4_neg,disp_y_p4_pos,disp_y_p5_neg,disp_y_p5_pos,disp_y_p6_neg,disp_y_p6_pos,disp_y_p7_neg,disp_y_p7_pos,disp_y_p8_neg,disp_y_p8_pos,disp_z_101,disp_z_102,disp_z_103,disp_z_104,disp_z_105,disp_z_106,disp_z_p1_neg,disp_z_p1_pos,disp_z_p2_neg,disp_z_p2_pos,disp_z_p3_neg,disp_z_p3_pos,disp_z_p4_neg,disp_z_p4_pos,disp_z_p5_neg,disp_z_p5_pos,disp_z_p6_neg,disp_z_p6_pos,humidity,ndof,nelem,strain_xx,strain_yy,strain_zz,temp,thermal_strain_xx,thermal_strain_yy,thermal_strain_zz,vonmises,vstrain
2419200,0,0,0,0,0,0,0,0,0,0,0,0,0,0,0,0,0,0,0,0,0,0,0,0,0,0,0,0,0,0,0,0,0,0,0,0,0,0,0,0,0,0,0,0,0,0,0,0,0,0,0,0,0,0,0,0,0,0,0,0,0,0,0,0,0,0,0,0,0,0,0,0,0,0,0
3419200,0.15873497103282,0.0030052737465645,0.0010017579155215,0.0010017579155215,0.0010017579155215,-0.00026188896223528,0.00026187852376687,-3.9922374690539e-09,-3.9922377441849e-09,-3.3328134284381e-09,-4.6070750637839e-09,-0.00026912681008117,0.00026911841317112,-0.00026912763550061,0.00026911923860189,-0.00026912724349583,0.00026911798061284,-0.00026912805363583,0.00026911879075489,-0.00026288516725272,0.0002628763598108,-0.00026288560913578,0.00026287680167037,-3.8146238911527e-10,7.9984302432994e-10,-4.3812545165643e-10,8.3968298198187e-10,-0.00029226083079875,0.00029226123384436,-0.00029654946408321,0.00029654895856175,-0.00029654984285378,0.00029655027484861,-0.00029654987550614,0.00029655024108023,-0.00029655025428384,0.00029655155736562,-0.00028603306506135,0.00028603264035627,-0.00028603238712568,0.00028603443219629,-0.0002860329994339,0.00028603270712437,-0.00028603240890711,0.00028603440964477,-3.9999342469787e-09,-3.9999339535832e-09,-0.00026188896996174,0.00026187851603808,-3.2995984036661e-09,-4.6571067761861e-09,-0.00026912679676615,0.00026911841775845,-0.00026912727179515,0.00026911796093181,-0.00026912762333465,0.00026911924433365,-0.00026912808091789,0.00026911877003973,-0.00026288563232797,0.00026287678000451,-0.00026288519285256,0.00026287634051919,0.75746877217741,122718,2924,0.0010905889683759,0.0012170079025189,0.001090588968371,31.80407681496,0.00016963261451968,0.00016963261451968,0.00016963261451968,2297811.1961161,0.0034039694466233
4419200,0.34942740223814,0.0064053396340489,0.0020175493810146,0.0023702408720362,0.0020175493809981,-0.00048592674880519,0.00048590362111061,-9.5777469575832e-09,-9.5777463035409e-09,-8.7147292636188e-09,-1.0751255942805e-08,-0.00051068718619464,0.00051066634178916,-0.00051068937215426,0.00051066852775322,-0.00051068791474326,0.00051066564453368,-0.00051069005561998,0.00051066778538558,-0.00048793590559386,0.00048791539889216,-0.0004879367656038,0.00048791625886244,-2.9958984655936e-10,1.4450699389288e-09,-3.0830921618861e-10,1.4210099626799e-09,-0.00063801289163237,0.00063801400957254,-0.00066608692017912,0.00066608674176104,-0.00066608980069566,0.00066609090779237,-0.00066608980282266,0.00066609090875997,-0.00066609268348334,0.00066609507490576,-0.00060233676916285,0.00060233680887685,-0.0006023375938777,0.00060234100545627,-0.00060233675993771,0.00060233681579309,-0.00060233757464745,0.00060234102618633,-9.5710332028217e-09,-9.5710320080714e-09,-0.00048592674188696,0.00048590362802055,-8.7288821086433e-09,-1.0722523980374e-08,-0.00051068718376354,0.00051066633921567,-0.00051068790370993,0.00051066566082508,-0.00051068936998781,0.00051066852545109,-0.00051069004407233,0.00051066780115639,-0.00048793675239068,0.00048791627384724,-0.00048793589457701,0.00048791541601391,0.73992840791513,122718,2924,0.0020226635681561,0.0026548084941826,0.0020226635681389,33.600419234838,0.00018400335387871,0.00018400335387871,0.00018400335387871,4159708.7521685,0.0067226609082277
5419200,0.54935610104767,0.0098037446226364,0.0029367051251548,0.0039303343723422,0.0029367051251394,-0.00068255203443002,0.00068254739207681,-1.5305902744222e-09,-1.5306100139533e-09,-1.980383182201e-09,-3.6727049284443e-10,-0.00073189013148318,0.0007318852915058,-0.00073189112714539,0.00073188628711454,-0.00073188961394513,0.00073188583733689,-0.00073189061260427,0.00073188683592928,-0.00068137223290583,0.00068136897647181,-0.00068137225141489,0.00068136899498651,5.299369426284e-10,-1.1396938094894e-09,6.2827509927404e-10,-1.2161261772095e-09,-0.0010355464652827,0.0010355458733607,-0.0011076288592059,0.0011076296031954,-0.0011076305594213,0.0011076299058574,-0.0011076304984157,0.0011076299662305,-0.001107632198785,0.0011076302689987,-0.00095030982257853,0.00095031042441026,-0.00095031026533601,0.00095030734749298,-0.00095030993310415,0.00095031031133755,-0.00095031022351363,0.00095030739107089,-1.5148822373728e-09,-1.5149014785938e-09,-0.0006825520184885,0.00068254740801091,-2.0427215256419e-09,-2.6934959617099e-10,-0.00073189015868935,0.00073188528350464,-0.0007318895560865,0.00073188587706735,-0.00073189115141001,0.00073188627619994,-0.00073189055659233,0.00073188687751444,-0.00068137220537909,0.0006813690390926,-0.00068137218146177,0.00068136901513915,0.72499638738019,122718,2924,0.0028402354042183,0.004305299532561,0.0028402354042029,36.269004065014,0.00020535203252011,0.00020535203252011,0.00020535203252011,5061423.5186509,0.010035897470363
6419200,0.70588745384169,0.011958827902065,0.0034637262363212,0.0050313754294364,0.0034637262363079,-0.00077925124993576,0.00077924648820775,-1.5115472817534e-09,-1.5115707264786e-09,-2.6541974999559e-09,-1.5237769654538e-09,-0.00085357754659636,0.00085357280381713,-0.00085357791178159,0.00085357316892904,-0.00085357717324872,0.00085357319187322,-0.00085357754374727,0.00085357356227531,-0.00076877346055982,0.00076877068586134,-0.00076877284367537,0.00076877006854717,1.064125931095e-10,-9.9672188980103e-10,2.1503537605216e-10,-1.0827700768821e-09,-0.0013193575984877,0.0013193567266209,-0.0014418575738267,0.0014418574671308,-0.00144185907829,0.0014418581428554,-0.0014418590079107,0.0014418582117732,-0.0014418605124656,0.0014418588875567,-0.001180065075382,0.0011800650892683,-0.001180067686834,0.001180065195205,-0.0011800652135753,0.0011800649511385,-0.0011800676370453,0.0011800652448462,-1.5122329186312e-09,-1.5122559282224e-09,-0.0007792512509459,0.00077924648719279,-2.7424222904403e-09,-1.4353895423357e-09,-0.00085357758446945,0.00085357277447653,-0.0008535771378129,0.00085357321830342,-0.00085357794944029,0.00085357313939154,-0.00085357750898907,0.00085357358940136,-0.00076877281415864,0.00076877009836705,-0.00076877342765322,0.000768770712258,0.59839168540088,122718,2924,0.0032423102957358,0.0054819405076056,0.0032423102957258,36.738820862644,0.00020911056690115,0.00020911056690115,0.00020911056690115,5186187.2955087,0.012038650347621
7419200,0.83158233828603,0.013473590495535,0.0038357678834776,0.0058020547285899,0.0038357678834673,-0.00084325187790872,0.00084324749129664,-1.2579468235108e-09,-1.2579809780766e-09,-2.2238847072219e-09,-1.0158109782895e-09,-0.0009354254363375,0.00093542140134579,-0.00093542592054547,0.00093542188540369,-0.00093542503849881,0.0009354218135026,-0.00093542552428371,0.0009354222991163,-0.00082475930611838,0.00082475697739016,-0.00082475905636678,0.00082475672714825,1.4616143869191e-10,-1.0346497201024e-09,2.6761743194174e-10,-1.1327978774495e-09,-0.0015302906058961,0.0015302897376655,-0.0016971376880328,0.0016971376720597,-0.0016971390319949,0.0016971380943722,-0.0016971389553061,0.0016971381715498,-0.0016971402993696,0.0016971385939159,-0.0013454705864603,0.0013454706690352,-0.0013454728409701,0.0013454702265446,-0.0013454707399605,0.001345470513665,-0.0013454727842894,0.0013454702844052,-1.2505033296875e-09,-1.2505375486422e-09,-0.00084325187047701,0.00084324749872398,-2.3145763137824e-09,-9.0686056917457e-10,-0.00093542546856289,0.00093542137652965,-0.00093542499256907,0.00093542185254782,-0.00093542595187346,0.00093542185970417,-0.00093542547871946,0.00093542233853764,-0.00082475901411559,0.00082475676875118,-0.00082475926045359,0.00082475701554311,0.52694121020036,122718,2924,0.0035084943135481,0.0063555491071848,0.003508494313539,40.764431658051,0.00024131545326441,0.00024131545326441,0.00024131545326441,5046892.790311,0.013462655344078
7669200,0.85867126210393,0.01378545553944,0.0039132323088242,0.0059589909218019,0.003913232308814,-0.0008568903620033,0.00085688926690956,8.404748635919e-12,8.3700161558419e-12,-1.2132618303107e-09,5.2439453598924e-10,-0.00095251631131146,0.00095251497608427,-0.00095251655349314,0.00095251521810259,-0.00095251573501456,0.00095251556777697,-0.00095251598287341,0.00095251581545435,-0.00083658951161861,0.00083659003230819,-0.00083658925766269,0.00083658977786502,2.9716326445449e-10,-1.3800764266125e-09,4.5800430234177e-10,-1.5107315319534e-09,-0.0015712021651972,0.0015712011089931,-0.001746712337703,0.0017467125180321,-0.0017467136018066,0.001746712453994,-0.0017467135013916,0.001746712555867,-0.0017467147656,0.0017467124918869,-0.0013776198222594,0.0013776200996021,-0.0013776225002256,0.0013776189766541,-0.0013776200238014,0.0013776198950537,-0.0013776224244014,0.0013776190544285,2.014257295234e-11,2.0107977038634e-11,-0.00085689035026681,0.00085688927864122,-1.3319700565526e-09,6.7126850617942e-10,-0.00095251635296961,0.00095251494500195,-0.00095251567155825,0.00095251562135938,-0.00095251659371958,0.0009525151856064,-0.0009525159201395,0.00095251586976908,-0.00083658919954054,0.00083658983486181,-0.00083658944908924,0.00083659008486345,0.50204220845296,122718,2924,0.0035652147021792,0.0065249030361349,0.0035652147021692,40.869036735842,0.00024215229388673,0.00024215229388673,0.00024215229388673,5061683.4058658,0.013749322225621
8169200,0.89910727033887,0.014223104799843,0.0040219015525371,0.0061793016947784,0.004021901552527,-0.00086598813054244,0.00086598760268655,2.3432069630879e-10,2.3428513445337e-10,-1.1746685069187e-09,9.736157947352e-10,-0.00096894372167404,0.00096894280650054,-0.00096894394423084,0.00096894302888142,-0.00096894301157121,0.00096894353596639,-0.00096894323934214,0.0009689437635421,-0.00084333910494071,0.0008433402437102,-0.0008433389279137,0.00084334006618944,4.0799026973614e-10,-1.6710989744558e-09,6.2929365586372e-10,-1.8564965410109e-09,-0.0016342893581571,0.001634288127135,-0.0018241278153782,0.0018241281285505,-0.0018241291589914,0.0018241277998373,-0.0018241290210567,0.00182412794094,-0.0018241303647744,0.0018241276122839,-0.0014255794603615,0.0014255799369567,-0.0014255826051522,0.001425578266284,-0.0014255797382358,0.0014255796540054,-0.0014255824958965,0.0014255783789291,2.5275387648375e-10,2.5271853173998e-10,-0.00086598811209883,0.00086598762112601,-1.3403423260502e-09,1.1831932387992e-09,-0.00096894377699205,0.00096894276397119,-0.00096894292200609,0.00096894361381163,-0.00096894399756955,0.00096894298438479,-0.0009689431506778,0.00096894384229636,-0.00084333884444195,0.00084334014834533,-0.00084333901626159,0.00084334032062034,0.47213642910707,122718,2924,0.0036031743139425,0.0067859618157797,0.0036031743139339,41.121066992016,0.00024416853593612,0.00024416853593612,0.00024416853593612,4850082.6127533,0.014091036381118
8669200,0.9291500439194,0.014543575640786,0.0041031869026203,0.0063372018355557,0.0041031869026103,-0.00087010903251938,0.00087010814785641,9.6318078328234e-11,9.6282351533806e-11,-1.3955168713127e-09,9.468577653511e-10,-0.00097936224502022,0.00097936098059954,-0.00097936251615953,0.00097936125155297,-0.00097936147330001,0.00097936177464204,-0.00097936174790935,0.00097936204904444,-0.00084601069227425,0.00084601161029354,-0.00084601057979308,0.00084601149731919,4.5846132726233e-10,-1.8170506422913e-09,7.3922555351971e-10,-2.0592243834027e-09,-0.0016828708811366,0.0016828695571826,-0.0018829157617903,0.0018829161448162,-0.0018829172076306,0.0018829157180849,-0.0018829170321535,0.0018829158984792,-0.0018829184781,0.0018829154718078,-0.0014630165935011,0.0014630172215407,-0.0014630200388631,0.0014630152349259,-0.0014630169476486,0.0014630168601512,-0.0014630198941529,0.001463015384553,1.2105719177118e-10,1.2102165831259e-10,-0.00087010900776423,0.00087010817260754,-1.6101784469478e-09,1.2204509502285e-09,-0.00097936231387605,0.0009793609254207,-0.00097936135859669,0.0009793618771506,-0.00097936258264092,0.00097936119401468,-0.00097936163409108,0.00097936215244967,-0.0008460104710844,0.00084601160473902,-0.00084601057801072,0.0008460117121231,0.46279425885039,122718,2924,0.0036204476079054,0.0069869244489183,0.0036204476078971,41.744449439095,0.00024915559551276,0.00024915559551276,0.00024915559551276,4601763.1038014,0.014329931087931
9669200,0.96105602036975,0.014833150206219,0.004177394518406,0.0064783611694165,0.0041773945183961,-0.00086476881934556,0.00086477075142801,1.1754915461872e-09,1.1754559230692e-09,-5.3662213758595e-10,2.2997629947015e-09,-0.00098233666648532,0.00098233772083544,-0.00098233675588583,0.00098233781004474,-0.00098233572830407,0.00098233868261597,-0.00098233582372172,0.00098233877782293,-0.00083911456926732,0.00083911794245994,-0.00083911453755287,0.00083911791025425,5.9623417992566e-10,-2.1433372484301e-09,9.4599032946832e-10,-2.4484963236474e-09,-0.0017271269803014,0.0017271254735378,-0.0019372814831735,0.0019372820609409,-0.0019372828597983,0.0019372811453619,-0.0019372826413164,0.0019372813705876,-0.0019372840180494,0.0019372804550702,-0.0014958765680761,0.0014958774357035,-0.0014958804610858,0.0014958747366407,-0.0014958770091744,0.001495876985075,-0.0014958802776665,0.0014958749265997,1.206260302664e-09,1.2062249031425e-09,-0.00086476878856948,0.0008647707822003,-8.0687254121537e-10,2.6436326742326e-09,-0.0009823367526586,0.000982337650682,-0.00098233558534819,0.00098233881146675,-0.00098233683912442,0.00098233773697171,-0.0009823356817789,0.00098233890769738,-0.00083911440146802,0.00083911804485987,-0.00083911442688621,0.0008391180707328,0.39226871417186,122718,2924,0.003598484821046,0.0071699096375106,0.0035984848210382,40.701605567059,0.00024081284453647,0.00024081284453647,0.00024081284453647,4247403.9715135,0.014471043138381
10669200,0.97728543239072,0.01498616144885,0.0042180870819137,0.006549987285033,0.0042180870819038,-0.00085873225441376,0.00085873631118135,1.9990808048139e-09,1.9990446386838e-09,-2.260073797841e-11,3.4658962069559e-09,-0.00097906462047548,0.00097906735760174,-0.00097906456713121,0.00097906730406096,-0.00097906346760714,0.00097906853902762,-0.00097906342169943,0.00097906849290377,-0.00083261863607397,0.00083262396982277,-0.00083261865361794,0.00083262398687047,7.7933792793773e-10,-2.5883864530412e-09,1.2271926266959e-09,-2.9830338550104e-09,-0.0017446054183465,0.0017446036576705,-0.0019599783622735,0.0019599791820648,-0.0019599798053055,0.0019599777771396,-0.0019599795259508,0.0019599780661633,-0.0019599809690908,0.0019599766612996,-0.0015074797978327,0.0015074809985705,-0.0015074843984646,0.0015074774118786,-0.0015074803624642,0.0015074804209416,-0.001507484160174,0.0015074776591428,2.0402215177655e-09,2.04018561073e-09,-0.00085873221327163,0.00085873635232,-3.7015911889301e-10,3.911679279748e-09,-0.00097906472995349,0.00097906726815848,-0.00097906328225583,0.00097906870687646,-0.00097906467277854,0.0009790672108021,-0.00097906323764012,0.00097906866205564,-0.0008326184766996,0.00083262416195715,-0.00083261845166593,0.00083262413738278,0.4038705059947,122718,2924,0.0035735221087707,0.0072421761772204,0.0035735221087635,38.026942814619,0.00021941554251695,0.00021941554251695,0.00021941554251695,4120634.6279253,0.014493725051895
11669200,0.98658446673657,0.015074394929098,0.0042418420818128,0.0065907107654821,0.0042418420818029,-0.00085439971074153,0.00085440170884127,1.2018993508476e-09,1.2018642439943e-09,-8.711537998733e-10,2.7378621088978e-09,-0.00097959833750616,0.00097959920977427,-0.00097959845245501,0.00097959932452941,-0.00097959715247368,0.00097960042898664,-0.00097959727053617,0.00097960054683559,-0.00082821291004104,0.00082821660111742,-0.00082821294540702,0.00082821663599608,8.403307902653e-10,-2.6700898419411e-09,1.3799109097866e-09,-3.1546075964328e-09,-0.001759232635437,0.0017592308556555,-0.001975849041808,0.0019758499712213,-0.0019758507494749,0.0019758486428767,-0.001975850411774,0.0019758489929456,-0.0019758521195521,0.0019758476646656,-0.0015199127506645,0.0015199142123305,-0.0015199177160797,0.0015199103440863,-0.0015199134333023,0.0015199135134416,-0.0015199174211911,0.0015199106502498,1.2503560863181e-09,1.2503212770579e-09,-0.00085439966222509,0.00085440175735427,-1.2992789322734e-09,3.2823518902751e-09,-0.00097959847083698,0.00097959909761739,-0.00097959692985293,0.00097960063353046,-0.00097959858145866,0.00097959920806077,-0.0009795970491388,0.00097960075261416,-0.00082821273119312,0.0008282168484778,-0.0008282126881557,0.00082821680589168,0.40522046859491,122718,2924,0.0035556224834975,0.0073025828913274,0.0035556224834903,37.365942590246,0.00021412754072197,0.00021412754072197,0.00021412754072197,3931875.167771,0.014518717166619
12669200,0.99196142570772,0.015123661066756,0.0042552462240275,0.0066131686187112,0.0042552462240177,-0.00085025160650066,0.0008502537133017,1.2375456826542e-09,1.2375109574307e-09,-8.7630051512262e-10,2.8293742789991e-09,-0.00097828014733214,0.00097828107216754,-0.00097828026194211,0.00097828118658414,-0.00097827893138449,0.00097828232369913,-0.00097827904854076,0.00097828244064199,-0.00082406766609462,0.00082407147174381,-0.00082406771859972,0.00082407152376325,8.7719425381768e-10,-2.728655184016e-09,1.5024999192471e-09,-3.297538146179e-09,-0.0017670424906105,0.0017670406903853,-0.0019847109463136,0.0019847119740778,-0.0019847127212745,0.0019847105388626,-0.0019847123292115,0.001984710946017,-0.0019847141042839,0.0019847095108667,-0.0015260238920761,0.0015260255627197,-0.001526029095688,0.0015260214108693,-0.0015260246851138,0.0015260247501958,-0.0015260287473686,0.0015260217727489,1.293461381128e-09,1.2934269739585e-09,-0.00085025155047084,0.00085025376932789,-1.3790761398764e-09,3.466907875403e-09,-0.00097828030211905,0.00097828093939929,-0.0009782786736228,0.00097828256308166,-0.00097828041194279,0.0009782810490451,-0.00097827879191846,0.00097828268117538,-0.0008240674689261,0.00082407177170047,-0.00082406740861772,0.00082407171184144,0.39006475012701,122718,2924,0.003538459832161,0.0073348291551677,0.0035384598321535,36.663006149876,0.00020850404919901,0.00020850404919901,0.00020850404919901,3812585.3119625,0.01451662295601
13669200,0.99492895279945,0.015150341213522,0.0042625666926604,0.0066252078282106,0.0042625666926506,-0.00084354339966087,0.00084354744699673,1.9786621108741e-09,1.9786274105665e-09,-2.8405221894197e-10,3.7462734176245e-09,-0.00097281172431382,0.00097281423283679,-0.00097281170267749,0.00097281421100627,-0.00097281039954708,0.0009728155945569,-0.00097281038225769,0.00097281557705351,-0.00081734447095744,0.00081734996022785,-0.0008173445511687,0.00081735003995293,9.7466860154326e-10,-2.9360116508006e-09,1.6851453777301e-09,-3.5858451705385e-09,-0.0017674224791113,0.0017674205729443,-0.0019861172467392,0.0019861184429348,-0.0019861190004627,0.0019861166585816,-0.0019861185550571,0.0019861171217901,-0.0019861203088917,0.0019861153375015,-0.0015250486509199,0.0015250505708918,-0.0015250542270617,0.0015250458735843,-0.0015250495523416,0.0015250496468192,-0.0015250538281402,0.0015250462882915,2.0426661065408e-09,2.0426317018125e-09,-0.00084354333550635,0.00084354751114788,-8.5772832534137e-10,4.474314537049e-09,-0.00097281190001876,0.00097281408132299,-0.00097281010598538,0.00097281586809632,-0.00097281187298221,0.00097281405410792,-0.0009728100899206,0.00097281585182899,-0.00081734426621617,0.00081735032295395,-0.00081734417765529,0.00081735023484325,0.38188995148964,122718,2924,0.0035106447317858,0.0073363770422307,0.0035106447317788,34.268915004196,0.00018935132003357,0.00018935132003357,0.00018935132003357,3761673.4468576,0.014461763850691
14669200,0.9966251413591,0.015165549524692,0.0042667591305282,0.0066320312636455,0.0042667591305184,-0.00083647398798,0.0008364783817004,2.1111265693229e-09,2.1110919505936e-09,-2.8890967561251e-10,4.0306679548607e-09,-0.00096686502404948,0.00096686773931254,-0.00096686498288648,0.00096686769795561,-0.00096686360627146,0.00096686919771752,-0.00096686356891254,0.00096686916014482,-0.00081028790025992,0.00081029376688744,-0.00081028799440688,0.00081029386054847,1.0697449752018e-09,-3.1265888659446e-09,1.8786453320276e-09,-3.8708746116142e-09,-0.0017656847292128,0.0017656827311897,-0.0019849084155201,0.0019849097732137,-0.0019849102894481,0.0019849077932817,-0.0019849097821199,0.0019849083215146,-0.0019849116561594,0.0019849063416475,-0.0015225108900239,0.0015225130932644,-0.0015225169116499,0.0015225079019356,-0.0015225119171358,0.0015225120398842,-0.0015225164535666,0.0015225083783495,2.1842447419989e-09,2.1842104536347e-09,-0.00083647391465857,0.00083647845501828,-9.4574466273798e-10,4.8639899298343e-09,-0.00096686522422195,0.00096686756557181,-0.00096686327143419,0.00096686951089704,-0.00096686517698577,0.00096686751815718,-0.00096686323536713,0.00096686947462762,-0.00081028766865389,0.00081029418419259,-0.00081028756563226,0.0008102940816204,0.38040406899866,122718,2924,0.0034813185731541,0.007329165992865,0.0034813185731468,31.608678768529,0.00016806943014823,0.00016806943014823,0.00016806943014823,3723125.4118933,0.014394956821788
15669200,0.99751444177938,0.015177279734607,0.0042700542161392,0.0066371713023386,0.0042700542161294,-0.00082302306573562,0.00082303082353917,3.396608668547e-09,3.3965742141939e-09,7.1579377330591e-10,5.6448729433005e-09,-0.00095466903556994,0.00095467446759956,-0.00095466875735754,0.00095467418919337,-0.00095466741434109,0.00095467613235377,-0.0009546671431315,0.0009546758609307,-0.00079695824768129,0.00079696704778175,-0.00079695838074864,0.00079696718036469,1.2598308578556e-09,-3.5125950104571e-09,2.1729083851992e-09,-4.3532306524388e-09,-0.001757765506122,0.0017577633194241,-0.0019773015429676,0.0019773031896917,-0.0019773033716037,0.0019773006224515,-0.0019773027994434,0.001977301218592,-0.0019773046281909,0.0019772986514169,-0.0015139469668618,0.0015139495425331,-0.0015139535935571,0.0015139434431679,-0.001513948125286,0.0015139483542765,-0.0015139530759303,0.0015139439816133,3.478810570725e-09,3.4787764277387e-09,-0.00082302298327591,0.00082303090599548,-2.6525492546763e-11,6.5857446437176e-09,-0.00095466926246452,0.00095467427104708,-0.00095466703600263,0.00095467648570977,-0.00095466897732169,0.00095467398572628,-0.00095466676635681,0.00095467621586202,-0.0007969580131225,0.00079696754544537,-0.00079695787018008,0.00079696740295172,0.55762342773158,122718,2924,0.0034255016263958,0.0072963813818973,0.0034255016263888,25.864385776636,0.00012211508621309,0.00012211508621309,0.00012211508621309,3703700.1470983,0.014248477881258
16669200,0.9981191504693,0.015187519578213,0.0042729366611684,0.0066416462558855,0.0042729366611587,-0.00081149948530503,0.00081150293822264,1.7277436680985e-09,1.7277109835754e-09,-8.6817530678517e-10,3.8977190439469e-09,-0.00095103157902756,0.00095103325271775,-0.0009510316318781,0.00095103330538208,-0.00095103002191465,0.00095103485807093,-0.00095103007514477,0.00095103491109478,-0.00078597131089312,0.00078597652297677,-0.00078597144986535,0.00078597666148061,1.2865253289755e-09,-3.3673050384072e-09,2.2795659607658e-09,-4.2901168642276e-09,-0.0017630909146144,0.0017630888975988,-0.0019797782960051,0.0019797800398796,-0.00197978049819,0.0019797778644425,-0.001979779873612,0.0019797785143684,-0.0019797820759128,0.0019797763390008,-0.001520635584153,0.0015206384279809,-0.0015206423866094,0.001520632401157,-0.0015206368469351,0.0015206371336239,-0.0015206418161537,0.0015206329936414,1.8071006413894e-09,1.8070683448613e-09,-0.0008114994054812,0.00081150301804323,-1.6946712181046e-09,4.9189956938522e-09,-0.00095103183554001,0.00095103302564588,-0.00095102961936678,0.00095103523671625,-0.00095103188149725,0.00095103307143329,-0.00095102967394537,0.0009510352911007,-0.00078597105768618,0.00078597705135424,-0.00078597090950886,0.00078597690360948,0.71531904593683,122718,2924,0.0033777521671915,0.0073182190653878,0.0033777521671848,24.097126523682,0.00010797701218946,0.00010797701218946,0.00010797701218946,3435975.1769051,0.014173814045463
17669200,0.99850840843129,0.015192596270988,0.0042743592469402,0.0066438777771173,0.0042743592469304,-0.00079600794181837,0.00079601310843408,2.3542767541983e-09,2.3542447308053e-09,-2.4751882544221e-10,4.5815386304044e-09,-0.00094071964903482,0.0009407227145959,-0.00094071959017299,0.0009407226555493,-0.00094071806821718,0.00094072434227664,-0.00094071801124566,0.00094072428510099,-0.00077081229033841,0.00077081888455368,-0.00077081247026391,0.00077081906401352,1.3272710944262e-09,-3.3746197394481e-09,2.3901712807904e-09,-4.3665474474434e-09,-0.0017632778435616,0.0017632758607148,-0.0019796435977036,0.0019796454684672,-0.0019796456936374,0.0019796430487535,-0.0019796450246765,0.0019796437450824,-0.0019796471207265,0.0019796413254383,-0.0015200109878452,0.0015200140282127,-0.001520017850777,0.0015200077004887,-0.0015200123405614,0.0015200126416019,-0.0015200172362467,0.0015200083386319,2.4348007129801e-09,2.4347690585354e-09,-0.00079600786071315,0.00079601318953585,-1.1402932667058e-09,5.6740016772042e-09,-0.00094071992767102,0.00094072246558478,-0.0009407176416916,0.00094072474497758,-0.00094071986174419,0.00094072239948955,-0.00094071758597722,0.00094072468907009,-0.00077081205393988,0.00077081947796482,-0.00077081186494498,0.00077081928939947,0.55048731539432,122718,2924,0.0033135181434216,0.007318868813441,0.0033135181434144,20.717879468843,8.0943035750748e-05,8.0943035750748e-05,8.0943035750748e-05,3225041.5198563,0.014044219181938
18669200,0.99876592961478,0.015196025996273,0.004275336815712,0.0066453523648582,0.0042753368157023,-0.00078981051648141,0.00078981604581931,2.5143597742021e-09,2.5143255452722e-09,-1.7973107986462e-10,4.791246503914e-09,-0.00092763653057792,0.00092763999782747,-0.000927636426836,0.00092763989389092,-0.00092763490342748,0.00092764167430617,-0.00092763480202812,0.00092764157269226,-0.0007640902895424,0.0007640972574665,-0.00076409047041657,0.00076409743785237,1.2969075514234e-09,-3.5371180499716e-09,2.4289038675365e-09,-4.5945675838789e-09,-0.0017530119777255,0.0017530098055872,-0.0019750555721549,0.0019750573924036,-0.0019750577204958,0.0019750548443968,-0.0019750570101725,0.0019750555867615,-0.001975059158623,0.0019750530388174,-0.0015049647108684,0.0015049677787237,-0.0015049718872605,0.0015049612412771,-0.0015049661516964,0.0015049662988473,-0.0015049712322482,0.0015049619235412,2.6141908008831e-09,2.6141570708106e-09,-0.00078981041624715,0.00078981614605066,-1.1146180650656e-09,5.9698429247844e-09,-0.000927636813686,0.00092763974656112,-0.00092763443714076,0.00092764211547674,-0.00092763670194862,0.00092763963464443,-0.00092763433700576,0.00092764201513832,-0.00076409001347439,0.00076409789236751,-0.00076408982252173,0.00076409770186603,0.55979201955681,122718,2924,0.0032877234283135,0.0072765845983072,0.0032877234283076,17.18192015826,5.2655361266081e-05,5.2655361266081e-05,5.2655361266081e-05,3381860.9208936,0.013948990313904
19669200,0.99899073793475,0.015199379357058,0.004276289542541,0.0066468002719858,0.0042762895425313,-0.00079070172596329,0.00079070230553499,6.3573500046742e-10,6.3570099642697e-10,-1.7989117585596e-09,2.5980712392953e-09,-0.00092938152607706,0.00092938088635345,-0.00092938178704127,0.00092938114712529,-0.00092938009495624,0.00092938236657055,-0.00092938035220401,0.00092938262360609,-0.0007648209365961,0.00076482371189509,-0.00076482106248269,0.00076482383729957,1.1343356034142e-09,-3.1761245329875e-09,2.2970640974451e-09,-4.272417531283e-09,-0.0017565884953003,0.0017565865139953,-0.0019784021336325,0.0019784037716455,-0.0019784045784241,0.0019784018686783,-0.0019784038462152,0.0019784026334991,-0.0019784062911186,0.0019784007305972,-0.0015087946645085,0.001508797668182,-0.0015088016075008,0.0015087917694052,-0.0015087961489813,0.0015087961437805,-0.0015088009257384,0.0015087924791543,7.3651320680651e-10,7.3647969681551e-10,-0.00079070162475202,0.00079070240674284,-2.7704992779429e-09,3.8160349563627e-09,-0.00092938181793412,0.00092938062296685,-0.00092937961822436,0.00092938282177548,-0.00092938207116592,0.00092938087602186,-0.00092937987625408,0.00092938307960446,-0.00076482059262994,0.0007648243053265,-0.00076482045775878,0.00076482417090063,0.6279465123332,122718,2924,0.0032914242952371,0.0072913581755707,0.0032914242952301,18.20071741546,6.0805739323678e-05,6.0805739323678e-05,6.0805739323678e-05,3328936.5969439,0.013971483388764
20669200,0.9991765879866,0.015201674724299,0.0042769365766207,0.0066478015710671,0.0042769365766109,-0.00078772094158602,0.00078772225939777,9.1154260219406e-10,9.1150917568483e-10,-1.515614217401e-09,2.8622646658086e-09,-0.00092851551333622,0.00092851551882105,-0.00092851577806183,0.00092851578335627,-0.00092851408743325,0.00092851699296697,-0.00092851434851843,0.00092851725384193,-0.00076212510036414,0.00076212850180309,-0.00076212523426671,0.00076212863522796,1.1365824240107e-09,-3.1409826550183e-09,2.2995195484915e-09,-4.238126988012e-09,-0.0017590548744277,0.0017590529298735,-0.0019805759195799,0.0019805775732211,-0.0019805783525938,0.0019805756789413,-0.0019805776198582,0.0019805764439412,-0.0019805800529849,0.0019805745497277,-0.0015114338963086,0.0015114369163654,-0.0015114408014704,0.0015114310422439,-0.0015114353811765,0.0015114353915856,-0.0015114401189737,0.0015114317527196,1.0083178532582e-09,1.0082849277199e-09,-0.0007877208443212,0.00078772235665916,-2.4925726187057e-09,4.0772716944592e-09,-0.00092851580906316,0.00092851525104127,-0.00092851361443164,0.00092851744491756,-0.0009285160661633,0.0009285155079667,-0.00092851387623911,0.00092851770652629,-0.00076212476805589,0.00076212909970846,-0.0007621246253226,0.00076212895741612,0.52050687160376,122718,2924,0.0032790800942403,0.0073015012715311,0.0032790800942332,18.405865256045,6.2446922048362e-05,6.2446922048362e-05,6.2446922048362e-05,3200519.1443441,0.013956747015842
21669200,0.99929887612838,0.015203418667608,0.0042774358223861,0.0066485470228452,0.0042774358223763,-0.00078065050502509,0.00078065590274297,2.4714982377452e-09,2.4714636957116e-09,-2.091528618104e-12,4.4264148169187e-09,-0.00091913212067614,0.00091913571116399,-0.00091913233697845,0.00091913592727241,-0.00091913067566816,0.00091913720380059,-0.00091913088898153,0.0009191374169001,-0.00075507055182067,0.00075507750667044,-0.00075507065790689,0.00075507761227072,1.1022927674185e-09,-3.1540388648953e-09,2.2659186879159e-09,-4.252016318879e-09,-0.0017501492042387,0.0017501472123406,-0.001972365330591,0.0019723669284351,-0.0019723677069044,0.0019723649858208,-0.00197236697415,0.0019723657514401,-0.0019723693505747,0.0019723638088902,-0.0015019746596181,0.0015019776188163,-0.001501981496883,0.0015019717165715,-0.0015019761457941,0.0015019760927447,-0.0015019808138061,0.0015019724276534,2.5752399235998e-09,2.5752058944188e-09,-0.00078065040092917,0.00078065600683599,-9.7171330867837e-10,5.6487386576596e-09,-0.00091913240982734,0.00091913545010601,-0.00091913019617464,0.00091913766218183,-0.00091913261842656,0.00091913565852664,-0.00091913041020377,0.00091913787600843,-0.00075507018484134,0.0007550780835751,-0.00075507006987212,0.00075507796905491,0.59902593015027,122718,2924,0.0032497001179349,0.0072647193461558,0.0032497001179289,14.402197748435,3.0417581987482e-05,3.0417581987482e-05,3.0417581987482e-05,3322603.0005885,0.013859860793122
22669200,0.9994078194505,0.015205113884765,0.0042779192661062,0.0066492753525621,0.0042779192660965,-0.00077920693526275,0.00077920774829632,7.1595399141319e-10,7.1592029282073e-10,-1.5687289165206e-09,2.5362359549678e-09,-0.00092068276547094,0.00092068241614028,-0.00092068301938126,0.00092068266985993,-0.00092068142639946,0.00092068379944241,-0.00092068167738413,0.00092068405021657,-0.00075343802852597,0.00075344088690028,-0.00075343817674343,0.00075344103464013,1.0436792440214e-09,-2.9720489811496e-09,2.2042194476089e-09,-4.0709027447744e-09,-0.0017554206751958,0.0017554188029942,-0.0019773644819522,0.0019773660383223,-0.0019773668125618,0.0019773642108873,-0.0019773660803677,0.0019773649751557,-0.0019773684110907,0.0019773631477873,-0.0015069445557407,0.001506947475381,-0.0015069511969298,0.0015069418544886,-0.0015069460395243,0.001506945952064,-0.0015069505120856,0.0015069425671142,8.1322629661251e-10,8.1319312292006e-10,-0.00077920683755128,0.00077920784600431,-2.5461372419021e-09,3.7525284702842e-09,-0.00092068305939996,0.00092068214825788,-0.00092068095431033,0.0009206842523758,-0.00092068330592754,0.00092068239461057,-0.00092068120577941,0.00092068450364583,-0.00075343771012793,0.0007534414996999,-0.00075343755366398,0.00075344134367685,0.65449642435143,122718,2924,0.0032437407176537,0.0072864603684267,0.0032437407176466,15.219466975211,3.6955735801686e-05,3.6955735801686e-05,3.6955735801686e-05,3198419.8803686,0.013869840228373
23669200,0.99950570785807,0.015206698048046,0.0042783733960254,0.0066499512560049,0.0042783733960156,-0.0007783938841724,0.0007783943037918,5.5884042038964e-10,5.5880700817065e-10,-1.5930102413475e-09,2.2439928963221e-09,-0.00092181256378685,0.00092181195200001,-0.00092181284677465,0.00092181223479785,-0.00092181131124095,0.00092181324574269,-0.00092181159131665,0.00092181352560858,-0.00075275858409367,0.00075276102494901,-0.00075275873499194,0.00075276117537119,9.6208131237043e-10,-2.7895904676025e-09,2.1033566118993e-09,-3.8728174529676e-09,-0.0017599175630439,0.0017599157883766,-0.0019815628934874,0.0019815643590341,-0.0019815651582357,0.0019815626649611,-0.0019815644375841,0.0019815634170868,-0.0019815667024459,0.0019815617230802,-0.0015113145365533,0.0015113173483319,-0.0015113208954079,0.0015113120312777,-0.0015113159969907,0.0015113158490239,-0.0015113202194967,0.001511312734497,6.5226059343072e-10,6.522277224202e-10,-0.00077839379028853,0.00077839439767238,-2.5586820313144e-09,3.4401228477729e-09,-0.00092181285456236,0.00092181168539652,-0.00092181084955713,0.00092181368998732,-0.00092181313050676,0.00092181196116662,-0.00092181112993681,0.00092181397016868,-0.00075275827783596,0.00075276163112542,-0.00075275811925749,0.00075276147298651,0.67939911874978,122718,2924,0.0032403969606322,0.0073050137406783,0.0032403969606254,16.357188828799,4.605751063039e-05,4.605751063039e-05,4.605751063039e-05,3103233.9879211,0.013881880207771
24669200,0.99959538943405,0.015208324427972,0.0042788432825938,0.0066506378627937,0.004278843282584,-0.00077957752828257,0.00077957737386332,3.3924077899508e-10,3.39207325439e-10,-1.7950879898879e-09,2.0126121909614e-09,-0.00092353395963606,0.00092353285254149,-0.00092353424395045,0.00092353313666537,-0.00092353271685994,0.00092353413626218,-0.00092353299827127,0.00092353441746323,-0.00075402219976893,0.00075402413346104,-0.00075402235388357,0.0007540242870984,9.5543844457018e-10,-2.7783294882354e-09,2.0946929183927e-09,-3.8597203684275e-09,-0.0017639215718098,0.0017639198016084,-0.0019857850092504,0.001985786466286,-0.0019857872659912,0.0019857847784882,-0.0019857865466856,0.0019857855293002,-0.0019857888035391,0.0019857838415685,-0.0015150939063102,0.0015150967070257,-0.0015151002445367,0.0015150914121702,-0.0015150953642244,0.0015150952102856,-0.0015150995697429,0.0015150921142382,4.3227563871714e-10,4.3224272363444e-10,-0.00077957743479944,0.00077957746734294,-2.7591434914426e-09,3.2064013359012e-09,-0.00092353425004934,0.00092353258612338,-0.00092353225637062,0.00092353457946021,-0.00092353452736345,0.00092353286326274,-0.00092353253807109,0.00092353486096189,-0.00075402189781922,0.00075402474180994,-0.00075402173605342,0.00075402458048485,0.75984354709348,122718,2924,0.0032453219970165,0.0073215606686979,0.0032453219970093,18.114724520558,6.0117796164462e-05,6.0117796164462e-05,6.0117796164462e-05,3035226.5852197,0.013908644925633
25669200,0.99967925051835,0.015209905077053,0.0042793009845014,0.0066513031080595,0.0042793009844916,-0.00078149553722113,0.00078149430155735,-7.7164792284373e-11,-7.7197896076067e-11,-2.0507064639116e-09,1.4128111523832e-09,-0.00092768870861132,0.00092768679071725,-0.00092768911205709,0.00092768719397381,-0.00092768757930477,0.00092768795854412,-0.00092768797844282,0.00092768835747329,-0.0007558934114863,0.00075589437581585,-0.00075589355983732,0.00075589452369262,8.487148129921e-10,-2.5452421006304e-09,1.953822607884e-09,-3.5972822577316e-09,-0.0017722520115067,0.0017722503632613,-0.001993958057685,0.0019939593767412,-0.001993960326111,0.0019939579805036,-0.0019939596274365,0.0019939587095048,-0.0019939618959754,0.0019939573133343,-0.0015230325451605,0.0015230351893571,-0.0015230385588124,0.0015230303562525,-0.0015230339610736,0.0015230337358804,-0.0015230379014819,0.001523031039987,1.0187784270184e-11,1.015523769093e-11,-0.00078149544940762,0.00078149438936751,-2.9916302114859e-09,2.5706463932268e-09,-0.00092768899266424,0.00092768652824968,-0.00092768713583541,0.00092768838688618,-0.00092768938958031,0.00092768692499243,-0.00092768753503833,0.00092768878589225,-0.0007558931196816,0.00075589496274316,-0.00075589296437751,0.0007558948078763,0.78928372385596,122718,2924,0.0032533275216595,0.0073559654082899,0.0032533275216526,20.73144732043,8.1051578563439e-05,8.1051578563439e-05,8.1051578563439e-05,2922452.3795842,0.013959776186295
26669200,0.99974577910031,0.015211186745571,0.0042796741881303,0.0066518383693204,0.0042796741881205,-0.00077892464316814,0.00077892583810034,8.471096102009e-10,8.4707636855649e-10,-1.1505830104568e-09,2.3357002683424e-09,-0.00092555819545105,0.00092555840702016,-0.00092555860122651,0.00092555881260601,-0.00092555705721553,0.00092555958344275,-0.00092555745869717,0.0009255599847151,-0.00075353022255595,0.00075353329915351,-0.00075353037616964,0.00075353345229163,8.3908293382764e-10,-2.5308932632128e-09,1.9408203331534e-09,-3.5798417672325e-09,-0.0017729303848647,0.0017729287410993,-0.001994884900721,0.0019948862063556,-0.0019948871604898,0.0019948848215158,-0.0019948864640196,0.0019948855483296,-0.0019948887239013,0.0019948841635565,-0.0015234788818094,0.0015234815084441,-0.0015234848614561,0.0015234767011882,-0.0015234802935061,0.0015234800592755,-0.0015234842060207,0.0015234773829622,9.3434628789168e-10,9.3431359939029e-10,-0.00077892455549574,0.00077892592576939,-2.0883525196758e-09,3.4901766997127e-09,-0.00092555847842328,0.00092555814541896,-0.00092555661515354,0.00092556001056293,-0.00092555887771674,0.0009255585445386,-0.00092555701668115,0.00092556041189292,-0.00075352993727141,0.00075353389013377,-0.00075352977674388,0.00075353373004498,0.80529350443997,122718,2924,0.0032426667573431,0.0073587547660514,0.0032426667573362,20.74529596046,8.1162367683684e-05,8.1162367683684e-05,8.1162367683684e-05,2856855.5674175,0.013940985800956
27669200,0.99980344362612,0.015212254338536,0.0042799854423408,0.0066522834538639,0.0042799854423311,-0.00078060065257484,0.00078060026576266,2.4074452823609e-10,2.4071114423547e-10,-1.6502339257308e-09,1.6568372006726e-09,-0.00092726970998255,0.00092726857295993,-0.00092727005788057,0.00092726892066755,-0.00092726862841915,0.00092726968958156,-0.0009272689733857,0.00092727003433812,-0.00075487731221001,0.00075487891104064,-0.00075487748005142,0.00075487907840503,7.8783740522571e-10,-2.4415392539753e-09,1.8484600974599e-09,-3.4513940613982e-09,-0.0017781826715977,0.0017781810641579,-0.0020014648844083,0.0020014661165923,-0.002001466997668,0.0020014647210965,-0.0020014663272191,0.0020014654208746,-0.0020014684405915,0.0020014640254447,-0.0015271802895594,0.0015271827786317,-0.0015271860215961,0.0015271781612706,-0.0015271816487753,0.0015271813830268,-0.0015271853905938,0.0015271788178712,3.250023829297e-10,3.2496955640312e-10,-0.00078060056793843,0.00078060035039585,-2.5524226626221e-09,2.7684658733608e-09,-0.00092726998182144,0.00092726832129333,-0.0009272682031767,0.00092727010090707,-0.00092727032350574,0.00092726866280295,-0.00092726854809499,0.00092727044562674,-0.00075487705739947,0.00075487950011666,-0.00075487688286272,0.00075487932602033,0.77359752480842,122718,2924,0.0032496407838977,0.0073804876924533,0.0032496407838911,22.583597704007,9.5868781632053e-05,9.5868781632053e-05,9.5868781632053e-05,2816535.1845434,0.013977165958377
28669200,0.99985039528661,0.015213206696468,0.0042802646320633,0.0066526774323509,0.0042802646320535,-0.00078225566382382,0.00078225610165561,5.5319909922997e-10,5.5316528964231e-10,-1.3220561587021e-09,1.9597420241676e-09,-0.00092772420672813,0.00092772379307593,-0.00092772449469774,0.00092772408085336,-0.00092772313089787,0.00092772490216566,-0.00092772341720581,0.00092772518826178,-0.00075638735719768,0.00075638961541938,-0.00075638753715645,0.00075638979489762,7.6998787010499e-10,-2.426165395989e-09,1.7877896651941e-09,-3.3936817258822e-09,-0.0017801008374995,0.0017800992271965,-0.0020046017604945,0.0020046029491596,-0.0020046037619422,0.002004601510419,-0.0020046031188988,0.0020046021816862,-0.0020046051204579,0.0020046007430104,-0.0015280436448462,0.0015280460223599,-0.0015280492296224,0.0015280414939842,-0.001528044948738,0.001528044683369,-0.0015280486255437,0.001528042122773,6.3550902148857e-10,6.3547578104816e-10,-0.00078225558121626,0.00078225618425985,-2.1845702526725e-09,3.0264072004036e-09,-0.00092772446603136,0.00092772355347513,-0.00092772272188205,0.00092772529755029,-0.00092772474796791,0.00092772383523528,-0.00092772300814498,0.00092772558361277,-0.00075638713062859,0.00075639020054092,-0.00075638694396575,0.00075639001432165,0.84638991630947,122718,2924,0.0032565077839023,0.0073884536402857,0.0032565077838954,23.679035441345,0.00010463228353076,0.00010463228353076,0.00010463228353076,2815874.741802,0.013999162568249
29669200,0.99988863104645,0.015213778942974,0.0042804304116639,0.0066529181196563,0.0042804304116541,-0.00078261455770332,0.00078261456349544,3.8538186482467e-10,3.8534848446304e-10,-1.45733531464e-09,1.7632998238713e-09,-0.00093030525361843,0.00093030448050641,-0.00093030557618623,0.00093030480288449,-0.00093030419827968,0.00093030556872262,-0.00093030451880517,0.00093030588903855,-0.000756812296633,0.00075681417708738,-0.00075681248214238,0.0007568143621209,7.5766699905797e-10,-2.3816654362264e-09,1.7446219761138e-09,-3.3193291655372e-09,-0.0017851278460687,0.001785126267014,-0.0020087911736344,0.002008792331923,-0.0020087931732864,0.0020087909724635,-0.0020087925492819,0.0020087916232039,-0.0020087945490469,0.0020087902638108,-0.0015335674234383,0.001533569736986,-0.0015335729047368,0.0015335653345581,-0.0015335686879639,0.0015335684390239,-0.0015335723193495,0.0015335659434974,4.621442731038e-10,4.6211148050265e-10,-0.00078261448063331,0.00078261464056206,-2.2967373297217e-09,2.7940023318875e-09,-0.00093030550793471,0.00093030424521911,-0.00093030380449289,0.00093030594925612,-0.00093030582476662,0.00093030456187673,-0.00093030412497204,0.00093030626953687,-0.00075681209104826,0.00075681475237639,-0.00075681189905295,0.00075681456082013,0.62580607713811,122718,2924,0.0032580283080424,0.007409188546318,0.0032580283080354,25.15096222438,0.00011640769779504,0.00011640769779504,0.00011640769779504,2720480.3805022,0.014023284933931
30669200,0.99991902275723,0.015214238416143,0.0042805649428626,0.0066531085304272,0.0042805649428528,-0.00078997007225302,0.00078997008054075,3.9686380201525e-10,3.9682834036105e-10,-1.4356574652988e-09,1.7326634771142e-09,-0.00093044659448848,0.00093044586277321,-0.00093044690781783,0.00093044617590373,-0.0009304455558419,0.00093044693357831,-0.00093044586734949,0.00093044724486758,-0.00076378745247403,0.00076378934120259,-0.00076378761059643,0.00076378949883084,7.1533777656901e-10,-2.371475172826e-09,1.6598881566739e-09,-3.2670432927171e-09,-0.0017829101264838,0.001782908515085,-0.0020106764264862,0.0020106774909955,-0.0020106783906701,0.0020106761856871,-0.0020106777946852,0.0020106768084525,-0.0020106797589767,0.0020106755032056,-0.0015282884406246,0.0015282906043188,-0.0015282938183137,0.0015282863673216,-0.0015282896500912,0.0015282893614695,-0.0015282932601132,0.0015282869490532,4.7907014076546e-10,4.7903528112451e-10,-0.00078996998993954,0.00078997016285064,-2.2270948759568e-09,2.7261847307633e-09,-0.00093044682923628,0.00093044564683924,-0.00093044517175085,0.00093044730473115,-0.00093044713675593,0.00093044595417586,-0.00093044548318518,0.00093044761595842,-0.00076378722839714,0.00076378988035358,-0.0007637870634771,0.00076378971589032,0.63064965946469,122718,2924,0.0032884929764798,0.0074002004432606,0.0032884929764724,26.625669248597,0.00012820535398878,0.00012820535398878,0.00012820535398878,2905694.0604043,0.01407591386634
31669200,0.99994361637172,0.015214598360237,0.0042806694480238,0.0066532594641991,0.004280669448014,-0.00079565348572987,0.00079565225654168,-7.837360454165e-11,-7.8408317955616e-11,-1.8205671845637e-09,1.1615060165238e-09,-0.00093767267921051,0.00093767091929038,-0.00093767308336957,0.00093767132325483,-0.00093767170325666,0.00093767192669761,-0.00093767210437179,0.00093767232759866,-0.00076939137387658,0.0007693921886465,-0.00076939151905511,0.00076939233334022,6.6842286940487e-10,-2.2451879856364e-09,1.5740864685624e-09,-3.1045521194167e-09,-0.0017883309769213,0.00178832944235,-0.0020144640116375,0.0020144650017861,-0.002014466003854,0.0020144638994014,-0.0020144654313998,0.0020144644965943,-0.0020144674237275,0.0020144633942742,-0.0015353596554925,0.0015353617136994,-0.0015353648315131,0.0015353577581989,-0.0015353608160572,0.00153536052201,-0.0015353642955466,0.0015353583161422,-3.2073410473444e-12,-3.2414362704646e-12,-0.00079565341042015,0.00079565233184793,-2.5844508624473e-09,2.1109466159334e-09,-0.00093767290762321,0.00093767070834154,-0.00093767133832426,0.00093767227968075,-0.00093767330639152,0.00093767110693096,-0.00093767173930848,0.00093767268046219,-0.00076939115598283,0.00076939269584061,-0.00076939100447092,0.00076939254477687,0.61212957396105,122718,2924,0.0033120970171018,0.0074225802874768,0.0033120970170947,29.147740252677,0.00014838192202141,0.00014838192202141,0.00014838192202141,2865755.5953624,0.014146495017021
32669200,0.99996081066502,0.015214850759663,0.0042807429323345,0.0066533648950036,0.0042807429323247,-0.00079605224610396,0.00079605333863961,8.0469386993037e-10,8.0465926135245e-10,-9.652874435301e-10,2.0486007065076e-09,-0.00093828367800675,0.00093828394903053,-0.0009382840824139,0.0009382843532434,-0.00093828269025612,0.00093828496804475,-0.00093828309166691,0.00093828536924156,-0.00076981252023045,0.00076981535526017,-0.00076981266760915,0.00076981550215463,6.6482953829632e-10,-2.2357660480878e-09,1.5670178130344e-09,-3.0918394617209e-09,-0.0017886160082927,0.0017886144793767,-0.00201462513039,0.0020146261155164,-0.0020146271169966,0.0020146250203554,-0.0020146265466835,0.0020146256152574,-0.0020146285334013,0.002014624520161,-0.0015357284331663,0.0015357304818704,-0.0015357335852072,0.0015357265412791,-0.0015357295893015,0.001535729294739,-0.0015357330512866,0.0015357270970824,8.7924521579455e-10,8.7921122562704e-10,-0.00079605217140148,0.00079605341333876,-1.7265858370173e-09,2.9940569300039e-09,-0.00093828390582175,0.00093828373857708,-0.00093828232704404,0.00093828531938515,-0.00093828430486777,0.0009382841374445,-0.00093828272831926,0.00093828572045785,-0.00076981230625325,0.00076981586294346,-0.00076981215257092,0.00076981570970861,0.61349182905545,122718,2924,0.0033137604251237,0.0074237535258186,0.0033137604251168,29.246743226174,0.00014917394580939,0.00014917394580939,0.00014917394580939,2864183.4174297,0.014151059864998
33669200,0.99997298223971,0.015215074855605,0.0042808086334217,0.0066534575887709,0.0042808086334119,-0.00079664297043402,0.00079664413098233,8.3232872040319e-10,8.3229436230609e-10,-9.7812695762815e-10,2.1716975610126e-09,-0.0009397793091773,0.00093977957364139,-0.00093977954435442,0.00093977980862511,-0.00093977827297942,0.00093978063945766,-0.00093977850829193,0.00093978087455701,-0.00077053062980301,0.00077053343840822,-0.00077053081200148,0.00077053362012435,7.1636128233103e-10,-2.3406793416175e-09,1.593938637857e-09,-3.1701621627808e-09,-0.0017899142210676,0.0017899126406474,-0.0020151455496859,0.0020151465941972,-0.0020151473596619,0.0020151452285396,-0.0020151468053177,0.0020151458064045,-0.0020151486154053,0.0020151444408119,-0.0015376449029838,0.0015376469430673,-0.0015376500609401,0.0015376428115343,-0.0015376460263278,0.0015376457900069,-0.0015376495442964,0.0015376433491348,9.0335013522934e-10,9.0331639265721e-10,-0.0007966428992574,0.00079664420215565,-1.7174258930826e-09,3.0868148863864e-09,-0.00093977953229069,0.00093977936854122,-0.00093977792092547,0.00093978097875361,-0.00093977976219113,0.00093977959826412,-0.00093977815625251,0.00093978121387911,-0.00077053046269555,0.00077053396866477,-0.00077053027401707,0.00077053378043179,0.7685755484364,122718,2924,0.0033162220450861,0.0074290982894568,0.0033162220450793,29.694918549014,0.00015275934839212,0.00015275934839212,0.00015275934839212,2841445.7472772,0.014161477620913
34669200,0.99998227282118,0.015215249829363,0.0042808598723668,0.0066535300846391,0.004280859872357,-0.00079766614626187,0.00079766482916017,-1.1940525346471e-10,-1.1943851529684e-10,-1.8545441504363e-09,1.1332844102039e-09,-0.00094568274824495,0.0009456809142726,-0.00094568316495145,0.0009456813307903,-0.00094568177021604,0.00094568192361908,-0.00094568218403213,0.00094568233722674,-0.00077185725086943,0.00077185797576968,-0.00077185742667333,0.00077185815110075,6.8537934904312e-10,-2.2335364935521e-09,1.5429814205062e-09,-3.0450045306135e-09,-0.0017987925335056,0.0017987910273619,-0.0020216175298788,0.0020216185199637,-0.0020216194949393,0.0020216174498572,-0.0020216189524111,0.0020216180146938,-0.0020216209175855,0.0020216169446549,-0.0015481001162989,0.0015481021121041,-0.0015481051985188,0.0015480982414089,-0.0015481012148422,0.00154810098521,-0.0015481046928417,0.001548098767069,-5.4841491909479e-11,-5.4874123221438e-11,-0.00079766608147515,0.00079766489394362,-2.583324056341e-09,2.0235401536748e-09,-0.00094568297093347,0.00094568070861386,-0.00094568143050297,0.00094568225125916,-0.00094568338270491,0.00094568112021239,-0.00094568184429046,0.00094568266484973,-0.00077185708981112,0.00077185848730757,-0.00077185690793389,0.0007718583058671,0.78620661498195,122718,2924,0.0033205287394828,0.0074656920459725,0.003320528739476,32.286430643577,0.00017349144514862,0.00017349144514862,0.00017349144514862,2669460.9813417,0.014207353017686
35669200,0.99998941840138,0.015215358403976,0.0042808916947446,0.0066535750144965,0.0042808916947348,-0.00080509854328138,0.000805094998219,-9.6445820958689e-10,-9.6449164072285e-10,-2.5304191869418e-09,7.9075123809247e-11,-0.00095285703064059,0.00095285340066344,-0.00095285760524177,0.00095285397507394,-0.00095285617934038,0.00095285428177504,-0.00095285674883631,0.00095285485106043,-0.0007792344546575,0.00077923325771293,-0.00077923459157881,0.00077923339415734,5.6410751199096e-10,-1.9981446007305e-09,1.3844789567065e-09,-2.7770494328696e-09,-0.0018075964563034,0.0018075950599756,-0.0020312177476837,0.0020312185679222,-0.0020312197757337,0.0020312178627198,-0.0020312192562936,0.0020312184038036,-0.0020312212844562,0.0020312176986672,-0.0015560700243914,0.0015560718369104,-0.0015560747926529,0.0015560684811357,-0.0015560710768201,0.0015560707569541,-0.0015560743066854,0.0015560689864942,-9.0216185429521e-10,-9.0219465601373e-10,-0.00080509848079069,0.00080509506070635,-3.2289307280003e-09,9.3359517971528e-10,-0.00095285724261004,0.0009528532034852,-0.00095285585464192,0.00095285459648638,-0.00095285781263909,0.00095285377333969,-0.00095285642389853,0.00095285516554465,-0.00077923426839245,0.00077923371697574,-0.00077923412596056,0.00077923357498362,0.63350901269064,122718,2924,0.0033513939872922,0.0075021104842988,0.0033513939872853,36.729157732044,0.00020903326185635,0.00020903326185635,0.00020903326185635,2616865.8269643,0.014306896200335
36669200,0.99999373155114,0.015215417682824,0.0042809091264689,0.0066535994298959,0.0042809091264591,-0.00080831215458499,0.00080831339691437,8.571385454047e-10,8.5710376903528e-10,-8.2411452038916e-10,2.0591597252309e-09,-0.00095123665274998,0.00095123707920323,-0.00095123687853094,0.00095123730478853,-0.00095123570102274,0.00095123805642332,-0.00095123592792343,0.00095123828310844,-0.00078209702752189,0.00078209980843836,-0.00078209721488017,0.00078209999530826,6.2662606429799e-10,-2.1622203367117e-09,1.4167455501018e-09,-2.9078287799444e-09,-0.0018050136175832,0.0018050121226542,-0.0020316390542603,0.0020316399545872,-0.0020316407110309,0.0020316387210618,-0.0020316402120401,0.0020316392412231,-0.00203164186892,0.0020316380077603,-0.0015512274521023,0.0015512292335463,-0.0015512321828136,0.0015512255392176,-0.0015512284636666,0.0015512281950872,-0.0015512317187739,0.0015512260222051,9.2066487362891e-10,9.2063075183307e-10,-0.00080831209097136,0.00080831346052484,-1.4884659467694e-09,2.8813331752769e-09,-0.00095123685338882,0.00095123689436057,-0.00095123538546033,0.00095123836093391,-0.00095123707450211,0.00095123711529366,-0.00095123561227818,0.00095123858754758,-0.00078209690134177,0.00078210030826017,-0.0007820967079733,0.00078210011534276,0.57247526605721,122718,2924,0.0033646945872669,0.0074915544080109,0.0033646945872603,37.062998554983,0.00021170398843987,0.00021170398843987,0.00021170398843987,2738189.9497041,0.014323143297208
37669200,0.99999636454832,0.015215452700033,0.0042809193813883,0.0066536139372659,0.0042809193813785,-0.00081199576879206,0.00081199636517814,6.1641229741163e-10,6.1637735932323e-10,-1.1323636642254e-09,1.8804783890878e-09,-0.00095379772003462,0.00095379754901193,-0.00095379799383828,0.00095379782261986,-0.00095379672871489,0.00095379856856208,-0.00095379700251196,0.00095379884214364,-0.00078561858755332,0.00078562089273712,-0.00078561876609072,0.0007856210707872,6.6899961710915e-10,-2.2562518666425e-09,1.4435335818635e-09,-2.9844148247051e-09,-0.0018056325765318,0.0018056310316226,-0.0020323435052573,0.00203234442688,-0.0020323452566912,0.0020323432276887,-0.0020323447677816,0.0020323437370133,-0.0020323465193257,0.0020323425378857,-0.0015520888191917,0.0015520906096458,-0.0015520936831455,0.0015520868428227,-0.0015520898098914,0.0015520895929143,-0.0015520932307817,0.0015520873135351,6.7859220601803e-10,6.7855791525676e-10,-0.0008119957065521,0.00081199642741478,-1.7815611805877e-09,2.6839089919658e-09,-0.00095379791708443,0.00095379736859854,-0.0009537964191658,0.0009537988661038,-0.00095379818620219,0.00095379763753622,-0.00095379669301291,0.00095379913974698,-0.00078561845937451,0.00078562137685737,-0.00078561827454103,0.00078562119247439,0.55480828721452,122718,2924,0.0033799675546196,0.0074941414401612,0.0033799675546127,37.978988713057,0.00021903190970445,0.00021903190970445,0.00021903190970445,2778327.7590459,0.014356747250234
38669200,0.99999785301822,0.015215477259804,0.0042809266103505,0.006653624039113,0.0042809266103407,-0.00081090457283178,0.00081090717296853,1.3839281507685e-09,1.3838934372484e-09,-5.2926907138435e-10,2.8419686333973e-09,-0.00095319226596474,0.000953193724375,-0.0009531923981755,0.00095319385639118,-0.00095319115463959,0.00095319486531231,-0.00095319128902732,0.00095319499948572,-0.00078458058837637,0.00078458464092464,-0.00078458079495524,0.00078458484701868,7.7769747961113e-10,-2.4857201359267e-09,1.558251393666e-09,-3.2154394437675e-09,-0.0018041981244843,0.0018041964629433,-0.0020302846048743,0.0020302856549218,-0.0020302862917888,0.0020302841442894,-0.0020302857997526,0.0020302846565671,-0.0020302874867781,0.0020302831459992,-0.0015512516911472,0.0015512535858808,-0.001551256805835,0.0015512493984182,-0.0015512526876638,0.0015512525635339,-0.001551256353534,0.0015512498689078,1.4457903773758e-09,1.4457563157252e-09,-0.00081090451090553,0.00081090723489146,-1.1809818763437e-09,3.6471324444492e-09,-0.00095319246578146,0.00095319354318938,-0.00095319084284292,0.00095319516307204,-0.00095319259309818,0.00095319367032722,-0.00095319097752376,0.00095319529755004,-0.00078458048745759,0.0007845851536041,-0.00078458027402416,0.00078458494061851,0.68805946982557,122718,2924,0.0033754416026919,0.007488195203785,0.003375441602685,37.197453419011,0.00021277962735209,0.00021277962735209,0.00021277962735209,2782899.9809125,0.014341537493112
38880000,0.99999812672916,0.015215481868839,0.0042809279662456,0.0066536259363571,0.0042809279662358,-0.00080775106469889,0.00080775278688704,1.0393132331463e-09,1.0392797494006e-09,-8.7152994559554e-10,2.516425819095e-09,-0.00095379319170847,0.00095379384337025,-0.00095379337618909,0.00095379402767782,-0.00095379207643999,0.00095379498944657,-0.0009537922621574,0.00095379517494606,-0.00078161626521889,0.0007816195539402,-0.00078161651125287,0.00078161979950938,8.0357238112123e-10,-2.4868083252715e-09,1.5867334938515e-09,-3.218883394263e-09,-0.0018072888126275,0.0018072871760529,-0.0020320371705175,0.0020320382587579,-0.0020320389147939,0.0020320367904394,-0.0020320384208735,0.0020320373043483,-0.0020320401652724,0.0020320358360425,-0.0015552010140555,0.0015552029571072,-0.0015552061918605,0.0015551987694591,-0.0015552020136846,0.001555201931729,-0.0015552057382029,0.0015551992412852,1.0980010428954e-09,1.0979678633207e-09,-0.00080775100585978,0.00080775284568319,-1.5292948200048e-09,3.3210183939646e-09,-0.00095379339559258,0.00095379365810483,-0.00095379176641673,0.00095379528522985,-0.00095379357520198,0.00095379383763777,-0.00095379195245909,0.00095379547107885,-0.00078161620594789,0.00078162010392243,-0.00078161595311014,0.00078161985148663,0.70225278578562,122718,2924,0.0033623996911053,0.0075008781131112,0.0033623996910161,37.193742921341,0.00021274994337073,0.00021274994337073,0.00021274994337073,2652028.9888893,0.014327967802259
