time,ASR_ext,ASR_strain,ASR_strain_xx,ASR_strain_yy,ASR_strain_zz,disp_x_101,disp_x_102,disp_x_103,disp_x_104,disp_x_105,disp_x_106,disp_x_p1_neg,disp_x_p1_pos,disp_x_p2_neg,disp_x_p2_pos,disp_x_p3_neg,disp_x_p3_pos,disp_x_p4_neg,disp_x_p4_pos,disp_x_p5_neg,disp_x_p5_pos,disp_x_p6_neg,disp_x_p6_pos,disp_y_101,disp_y_102,disp_y_103,disp_y_104,disp_y_105,disp_y_106,disp_y_p1_neg,disp_y_p1_pos,disp_y_p2_neg,disp_y_p2_pos,disp_y_p3_neg,disp_y_p3_pos,disp_y_p4_neg,disp_y_p4_pos,disp_y_p5_neg,disp_y_p5_pos,disp_y_p6_neg,disp_y_p6_pos,disp_y_p7_neg,disp_y_p7_pos,disp_y_p8_neg,disp_y_p8_pos,disp_z_101,disp_z_102,disp_z_103,disp_z_104,disp_z_105,disp_z_106,disp_z_p1_neg,disp_z_p1_pos,disp_z_p2_neg,disp_z_p2_pos,disp_z_p3_neg,disp_z_p3_pos,disp_z_p4_neg,disp_z_p4_pos,disp_z_p5_neg,disp_z_p5_pos,disp_z_p6_neg,disp_z_p6_pos,humidity,ndof,nelem,strain_xx,strain_yy,strain_zz,temp,thermal_strain_xx,thermal_strain_yy,thermal_strain_zz,vonmises,vstrain
2419200,0,0,0,0,0,0,0,0,0,0,0,0,0,0,0,0,0,0,0,0,0,0,0,0,0,0,0,0,0,0,0,0,0,0,0,0,0,0,0,0,0,0,0,0,0,0,0,0,0,0,0,0,0,0,0,0,0,0,0,0,0,0,0,0,0,0,0,0,0,0,0,0,0,0,0
3419200,0.1587349710331,0.0030052737465697,0.0010017579155233,0.0010017579155233,0.0010017579155233,-0.00026188898976231,0.00026187854421251,-3.9957293017145e-09,-3.9957292553622e-09,-3.3158974691788e-09,-4.6317696546164e-09,-0.00026912649688648,0.00026911810662515,-0.00026912732223062,0.00026911893195555,-0.00026912694353879,0.00026911766017546,-0.00026912775368669,0.00026911847031561,-0.00026288494435036,0.00026287611596796,-0.00026288538633222,0.00026287655794877,-3.9513322289245e-10,8.2787133856579e-10,-4.5561783308501e-10,8.708904819377e-10,-0.00029226084762236,0.00029226126445896,-0.00029655033057947,0.00029654980921577,-0.00029655069383419,0.00029655114182154,-0.00029655072879605,0.00029655110564859,-0.00029655109205865,0.00029655243824793,-0.00028603279006867,0.000286032345055,-0.00028603206523502,0.00028603418560223,-0.00028603271975987,0.00028603241661068,-0.00028603208889369,0.00028603416115988,-4.0040160337535e-09,-4.0040160555433e-09,-0.00026188899808234,0.00026187853589573,-3.2800688712505e-09,-4.6857106756464e-09,-0.00026912648277645,0.00026911811164161,-0.00026912697377616,0.00026911763887301,-0.00026912730932014,0.00026911893817936,-0.00026912778285754,0.00026911844796874,-0.00026288541128175,0.00026287653459887,-0.00026288497177677,0.00026287609510415,0.75746877217741,122718,2924,0.0010905890683247,0.0012170080013996,0.0010905890683315,31.804076814979,0.00016963261451983,0.00016963261451983,0.00016963261451983,2297824.3680194,0.0034039697464553
4419200,0.34942740799353,0.0064053401864207,0.0020175486512899,0.0023702428838245,0.0020175486513063,-0.00048592718250976,0.00048590405082567,-9.5797535110022e-09,-9.5797548553877e-09,-8.6940737327883e-09,-1.0776756373476e-08,-0.00051068856784057,0.00051066773485819,-0.00051069075374918,0.00051066992071746,-0.00051068931142139,0.00051066702204362,-0.00051069145229679,0.00051066916288433,-0.0004879365253253,0.00048791599872541,-0.00048793738571413,0.000487916859105,-3.0582614730936e-10,1.4849760144359e-09,-3.1767280972549e-10,1.4629996028664e-09,-0.00063801225737713,0.00063801340816954,-0.00066608606867642,0.00066608589027329,-0.00066608893210762,0.00066609007363233,-0.00066608893621713,0.00066609007273074,-0.00066609179978748,0.00066609425619607,-0.00060233687481348,0.00060233691239651,-0.00060233764965527,0.00060234115935319,-0.00060233686146809,0.0006023369233611,-0.0006023376316162,0.00060234117891308,-9.5731435891817e-09,-9.5731450838125e-09,-0.00048592717569032,0.0004859040576526,-8.7061636239422e-09,-1.0750358927404e-08,-0.00051068856465904,0.00051066773284674,-0.00051068930129179,0.00051066703756971,-0.00051069075083842,0.00051066991900861,-0.00051069144164355,0.00051066917793285,-0.00048793737340016,0.00048791687330648,-0.00048793651524393,0.00048791601516939,0.73992840791513,122718,2924,0.0020226653629812,0.0026548059245233,0.0020226653629967,33.600419234839,0.00018400335387871,0.00018400335387871,0.00018400335387871,4159633.4993804,0.006722661935389
5419200,0.54935610475626,0.0098037450065255,0.00293671272928,0.0039303195479552,0.0029367127292903,-0.00068255150162365,0.00068254688332317,-1.5190339693086e-09,-1.5190566603663e-09,-2.0255252022958e-09,-2.9568325384427e-10,-0.00073188885297357,0.00073188399878711,-0.00073188984919576,0.00073188499491461,-0.0007318882986953,0.00073188458361694,-0.00073188929742986,0.00073188558228018,-0.00068137102297334,0.00068136782736887,-0.00068137104314308,0.00068136784753798,5.6385406918935e-10,-1.2228575842314e-09,6.6755009400874e-10,-1.3028682643277e-09,-0.0010355482183163,0.0010355475786446,-0.0011076308397568,0.0011076316155138,-0.0011076325807639,0.0011076318765058,-0.0011076325166116,0.001107631940105,-0.0011076342577469,0.0011076322012054,-0.00095030999557566,0.0009503106351391,-0.00095031055840049,0.0009503074306084,-0.00095031011212749,0.00095031051581409,-0.00095031051484248,0.00095030747606071,-1.5022371589066e-09,-1.5022598094352e-09,-0.00068255148457582,0.00068254690037085,-2.0905213204792e-09,-1.9270247149181e-10,-0.00073188888124769,0.00073188399079838,-0.00073188823759912,0.00073188462554156,-0.00073188987434726,0.00073188498383868,-0.00073188923829875,0.00073188562619188,-0.00068137099457971,0.00068136789414269,-0.00068137096867857,0.00068136786824006,0.72499638738019,122718,2924,0.0028402332477887,0.0043053067100047,0.0028402332477884,36.269004065045,0.00020535203252036,0.00020535203252036,0.00020535203252036,5061660.6502368,0.010035900364216
6419200,0.70588746071373,0.011958829333607,0.0034637149895562,0.0050313993544951,0.0034637149895557,-0.00077924676115989,0.00077924200574961,-1.5082958512883e-09,-1.5083208132941e-09,-2.6830919895579e-09,-1.48772032493e-09,-0.00085356071013727,0.00085355595194716,-0.00085356107585272,0.00085355631753703,-0.00085356031621068,0.00085355636180155,-0.00085356068694687,0.00085355673242308,-0.00076876671141649,0.00076876396646483,-0.00076876609284463,0.00076876334759856,1.1122447063936e-10,-1.056999553948e-09,2.2535370371669e-10,-1.1471062009283e-09,-0.0013193682392225,0.0013193673130636,-0.0014418721434448,0.0014418720292712,-0.0014418736735277,0.0014418726807743,-0.0014418735996464,0.0014418727531494,-0.0014418751298345,0.0014418734047387,-0.0011800686157595,0.0011800686274944,-0.0011800713014728,0.0011800686611432,-0.0011800687610461,0.001180068482192,-0.0011800712494352,0.0011800687130755,-1.5088195682891e-09,-1.5088444782781e-09,-0.00077924676201948,0.00077924200488684,-2.7752911952884e-09,-1.3949189956399e-09,-0.00085356074957529,0.00085355592140593,-0.00085356027893713,0.00085355638966551,-0.00085356111503218,0.00085355628678445,-0.00085356065037695,0.00085355676102015,-0.00076876606180896,0.0007687633790746,-0.00076876667682187,0.00076876399437889,0.59839168540088,122718,2924,0.0032422916969244,0.0054819845774772,0.0032422916969178,36.738820862653,0.00020911056690123,0.00020911056690123,0.00020911056690123,5186231.8947425,0.012038657299336
7419200,0.83158234427574,0.013473593060454,0.0038357499088545,0.0058020932427498,0.0038357499088498,-0.00084325286856493,0.00084324848788719,-1.2551436226816e-09,-1.2551763373363e-09,-2.2555513921371e-09,-9.7699657524879e-10,-0.00093540423737851,0.00093540018454819,-0.00093540472199219,0.00093540066898883,-0.00093540381699524,0.00093540062029092,-0.00093540430291671,0.0009354011060561,-0.00082475722054522,0.00082475492084972,-0.00082475697112235,0.00082475467110626,1.5636559519722e-10,-1.0948890409502e-09,2.8371335804578e-10,-1.1974726369741e-09,-0.0015302871339994,0.0015302862169979,-0.0016971458108613,0.001697145796623,-0.0016971471821709,0.0016971461926031,-0.0016971471018137,0.0016971462734858,-0.0016971484732281,0.0016971466695488,-0.001345444903798,0.0013454449938799,-0.0013454472364943,0.0013454444709184,-0.0013454450647472,0.0013454448309063,-0.0013454471773546,0.0013454445313161,-1.2472209143454e-09,-1.2472538528833e-09,-0.0008432528606557,0.00084324849579578,-2.350222234824e-09,-8.6292108279535e-10,-0.00093540427096086,0.00093540015873699,-0.00093540376881243,0.00093540066123471,-0.00093540475460404,0.00093540064224861,-0.00093540425512443,0.00093540114740927,-0.00082475692686168,0.00082475471479706,-0.00082475717268818,0.00082475496093211,0.52694121020036,122718,2924,0.0035084985054893,0.0063555349050665,0.003508498505488,40.764431657949,0.00024131545326359,0.00024131545326359,0.00024131545326359,5046556.8851673,0.013462649437278
8419200,0.90749425443792,0.014295021209253,0.0040403946164069,0.0062142319764425,0.0040403946164032,-0.0008632627652456,0.0008632617762201,2.9912862482217e-11,2.9879586562594e-11,-1.1839544955286e-09,5.6833590249301e-10,-0.00096873065515508,0.00096872941490726,-0.00096873091686377,0.00096872967642336,-0.00096873007317653,0.0009687300116075,-0.00096873033975026,0.00096873027800461,-0.00084058350957631,0.00084058410505845,-0.0008405833535109,0.00084058394867352,2.874726524078e-10,-1.4030459650265e-09,4.4678084062259e-10,-1.5318238375391e-09,-0.001647865646257,0.0016478645579217,-0.0018400629520075,0.0018400631112481,-0.0018400642094633,0.0018400630310125,-0.0018400641098641,0.0018400631317907,-0.0018400653674292,0.0018400630516362,-0.0014361594762827,0.0014361597267133,-0.0014361621709485,0.0014361586014862,-0.0014361596763121,0.0014361595237878,-0.001436162096455,0.001436158677834,4.0343438638584e-11,4.0309955955574e-11,-0.00086326275483633,0.00086326178662812,-1.3019206809522e-09,7.1180987862972e-10,-0.00096873069671462,0.00096872938288133,-0.00096873001245353,0.00096873006346137,-0.00096873095709086,0.00096872964310327,-0.00096873027964668,0.00096873033049756,-0.00084058329751184,0.00084058400380367,-0.00084058344913402,0.00084058415573795,0.47156008474719,122718,2924,0.003591919718305,0.006842106468728,0.0035919197183024,41.433736082278,0.00024666988865823,0.00024666988865823,0.00024666988865823,4690072.5451435,0.014125159270653
9419200,0.94952394279467,0.014689354379183,0.0041407853756876,0.0064077836278112,0.0041407853756841,-0.00086416227633445,0.0008641628793649,6.464842034212e-10,6.4645068943963e-10,-8.1058462185614e-10,1.4777547592535e-09,-0.00097839964890125,0.00097839966947217,-0.00097839982244458,0.00097839984281649,-0.00097839889044581,0.00097840044674352,-0.00097839906949048,0.00097840062560617,-0.00083931278845873,0.00083931487028783,-0.00083931271873512,0.00083931480024321,4.4056681019225e-10,-1.7673880414203e-09,6.5892340193061e-10,-1.9482255252828e-09,-0.0017066230706642,0.0017066217776716,-0.0019122733776657,0.0019122737247648,-0.001912274668837,0.0019122732506628,-0.0019122745328526,0.0019122733894294,-0.0019122758241337,0.0019122729154104,-0.0014802574178863,0.0014802579052451,-0.0014802606385312,0.0014802560766626,-0.0014802576916271,0.0014802576267015,-0.0014802605326448,0.0014802561857258,6.6276672324037e-10,6.627330909884e-10,-0.00086416226007264,0.00086416289562524,-9.7395261144568e-10,1.680503506765e-09,-0.00097839970479658,0.00097839962598012,-0.00097839880457867,0.0009784005212011,-0.00097839987642794,0.00097839979745219,-0.00097839898449076,0.00097840070095213,-0.00083931263894781,0.0008393148789057,-0.00083931270329257,0.00083931494356102,0.40621133923259,122718,2924,0.0035958820193992,0.0070851270130523,0.0035958820193961,41.145225260725,0.0002443618020858,0.0002443618020858,0.0002443618020858,4352573.125072,0.014379735111459
10419200,0.97054802976181,0.014903380971151,0.0041974946977204,0.0065083915757133,0.0041974946977169,-0.00085849267682429,0.00085849668765391,1.9650032585838e-09,1.9649695757424e-09,1.1608275615957e-10,3.2379249273514e-09,-0.00097686329022501,0.00097686605830814,-0.00097686323135593,0.00097686599923649,-0.00097686225546952,0.00097686711700323,-0.00097686220508142,0.00097686706642972,-0.00083311634788163,0.00083312149687852,-0.00083311634228282,0.00083312149095799,6.7852742586467e-10,-2.3259583911266e-09,9.938231646198e-10,-2.5929151211641e-09,-0.0017322354450085,0.0017322338414893,-0.0019441286637243,0.0019441293185161,-0.001944129961234,0.0019441281745213,-0.0019441297655174,0.0019441283757749,-0.0019441310631367,0.001944127231862,-0.0014986981749172,0.0014986990396,-0.0014987022051404,0.0014986961085096,-0.0014986985696816,0.001498698636812,-0.0014987020470338,0.0014986962720317,1.9912189045116e-09,1.9911851593514e-09,-0.00085849265062331,0.00085849671385364,-1.2210504706875e-10,3.5389662935788e-09,-0.00097686336964255,0.00097686599626806,-0.00097686212769441,0.0009768672289556,-0.00097686330788543,0.00097686593434629,-0.0009768620785902,0.00097686717968636,-0.00083311622291402,0.00083312160868827,-0.00083311622167526,0.00083312160776118,0.43665130715676,122718,2924,0.0035724759999773,0.0071910247464398,0.0035724759999747,38.097848213558,0.00021998278570847,0.00021998278570847,0.00021998278570847,4183917.9907475,0.014439698012003
11419200,0.98268987418026,0.015018173693609,0.0042281505651198,0.0065618725633732,0.0042281505651163,-0.00085352916912213,0.00085353060370041,9.6787065411663e-10,9.6783786450826e-10,-9.574994393821e-10,2.3415246779107e-09,-0.00097828591755534,0.00097828634441801,-0.00097828607072423,0.00097828649738628,-0.00097828483418613,0.00097828745920272,-0.00097828499034557,0.00097828761517918,-0.00082798576463197,0.00082798886828071,-0.00082798578573926,0.00082798888907422,7.6142152209516e-10,-2.4479181697214e-09,1.1804682310353e-09,-2.8158978252544e-09,-0.0017520995641552,0.0017520979239584,-0.0019658161986992,0.0019658169876331,-0.0019658178258013,0.0019658159356122,-0.0019658175642631,0.0019658162058085,-0.0019658191914769,0.0019658151538717,-0.0015155013828844,0.0015155025564448,-0.0015155058717497,0.0015154992676502,-0.0015155019108298,0.0015155020167573,-0.0015155056502539,0.001515499497185,1.0029998267203e-09,1.0029669869735e-09,-0.00085352913394495,0.00085353063887646,-1.285598522877e-09,2.7543071689436e-09,-0.00097828602341606,0.00097828625752457,-0.00097828466355539,0.00097828761306514,-0.0009782861730936,0.00097828640703977,-0.00097828482095804,0.00097828777030483,-0.00082798562368317,0.00082798904959469,-0.0008279855954388,0.00082798902165494,0.40445605707229,122718,2924,0.0035519833390549,0.0072730696451616,0.0035519833390525,37.62774379366,0.00021622195034928,0.00021622195034928,0.00021622195034928,3934723.6373708,0.01448138731357
12419200,0.98965375674225,0.015092403203152,0.0042484720029563,0.0065954591972427,0.0042484720029528,-0.00085063305540957,0.00085063498507724,1.1554540562949e-09,1.1554211858186e-09,-8.4771924975147e-10,2.618706965388e-09,-0.00097706584307755,0.00097706665363053,-0.00097706596533743,0.00097706677568817,-0.00097706470495419,0.00097706782478766,-0.00097706483016474,0.0009770679498138,-0.00082507765303154,0.00082508121552781,-0.00082507769286697,0.00082508125504755,8.0826444784064e-10,-2.5625480962088e-09,1.3108180089978e-09,-3.0116319347705e-09,-0.0017617566596577,0.001761754953932,-0.0019776512269291,0.0019776521153005,-0.0019776529078373,0.0019776508988402,-0.0019776525936498,0.001977651224438,-0.0019776542746692,0.001977650008061,-0.0015224450284163,0.0015224464021178,-0.0015224498090128,0.0015224427657264,-0.0015224456635594,0.0015224457519819,-0.0015224495364117,0.0015224430486625,1.1991005275961e-09,1.1990676150427e-09,-0.0008506330116856,0.00085063502879997,-1.2461711909726e-09,3.1223870499395e-09,-0.00097706596862674,0.00097706654830849,-0.00097706449897311,0.00097706801329838,-0.00097706608686799,0.00097706666638604,-0.00097706462539619,0.00097706813955682,-0.00082507749531198,0.00082508145100592,-0.00082507744801894,0.00082508140401929,0.45322610794666,122718,2924,0.0035400147017247,0.0073129845903549,0.0035400147017221,36.8035257567,0.0002096282060536,0.0002096282060536,0.0002096282060536,3847232.534146,0.014497605221935
13419200,0.99354303611039,0.015130388979419,0.0042588662677489,0.0066126564439251,0.0042588662677454,-0.0008423548639389,0.00084235817445156,1.673590161315e-09,1.6735579314695e-09,-4.5359102526546e-10,3.3028579584565e-09,-0.00097322268204901,0.00097322456475861,-0.00097322271757829,0.00097322460008793,-0.00097322144797188,0.00097322583375777,-0.00097322148716671,0.0009732258727702,-0.00081689482651492,0.00081689959269017,-0.0008168949035889,0.00081689966945376,9.1710795204042e-10,-2.7311833106364e-09,1.510378285039e-09,-3.267453265428e-09,-0.0017670756545987,0.0017670738923125,-0.0019828502718017,0.0019828513565671,-0.0019828519696673,0.001982849846323,-0.0019828515981767,0.0019828502317691,-0.0019828532961546,0.00198284872161,-0.0015270083744027,0.0015270100427747,-0.0015270135124408,0.0015270058742689,-0.0015270091252695,0.0015270092738994,-0.0015270131851217,0.0015270062140435,1.7233353863604e-09,1.7233031232137e-09,-0.00084235481403623,0.00084235822435318,-9.313685189193e-10,3.9013340584924e-09,-0.00097322283234809,0.00097322443651932,-0.00097322120603986,0.00097322605687515,-0.00097322286332971,0.00097322446733953,-0.00097322124648866,0.00097322609716186,-0.00081689467063354,0.0008168999006675,-0.00081689458576363,0.00081689981609899,0.4150894025916,122718,2924,0.0035057212248942,0.0073348879289213,0.003505721224892,34.792806965221,0.00019354245572176,0.00019354245572176,0.00019354245572176,3688302.9678366,0.014450270770634
14419200,0.99578881073188,0.015150679792979,0.0042644581562412,0.0066217634805003,0.0042644581562377,-0.00083674160791359,0.00083674515827443,1.7681103663703e-09,1.768077823881e-09,-4.7464523563445e-10,3.514447525717e-09,-0.00096728348443911,0.00096728552464773,-0.00096728350259677,0.00096728554260356,-0.00096728217554928,0.00096728687155386,-0.00096728219699351,0.00096728689281404,-0.0008111982666659,0.00081120331053399,-0.00081119835363639,0.0008112033971905,9.8002111111601e-10,-2.8968151181101e-09,1.6608362327108e-09,-3.5171002092381e-09,-0.0017659388818654,0.0017659370201573,-0.0019834984202365,0.001983499614583,-0.0019835002219063,0.0019834979438653,-0.0019834997955981,0.0019834983872175,-0.0019835015973791,0.0019834967165835,-0.0015239950475792,0.0015239969337033,-0.0015240005728766,0.0015239923665728,-0.0015239959103615,0.001523996049343,-0.0015240001929448,0.0015239927614678,1.8277033840339e-09,1.8276707892796e-09,-0.00083674154814363,0.00083674521804313,-1.0242648698231e-09,4.2082991450502e-09,-0.00096728365470655,0.00096728537840756,-0.00096728189552493,0.00096728713139715,-0.00096728366766949,0.00096728539120721,-0.00096728191826823,0.00096728715397645,-0.00081119808276404,0.00081120366618516,-0.00081119798745558,0.00081120357118167,0.38312450045663,122718,2924,0.0034824301211358,0.0073301988793253,0.0034824301211332,32.641994104413,0.0001763359528353,0.0001763359528353,0.0001763359528353,3678538.414906,0.014398257504352
15419200,0.99695815560365,0.015164814669286,0.0042684198478475,0.0066279749735947,0.0042684198478441,-0.00082475524212478,0.00082476258484585,3.2231906236617e-09,3.2231579290654e-09,6.8289499114994e-10,5.3102256990147e-09,-0.0009553147531437,0.00095531990003706,-0.00095531449936773,0.00095531964605854,-0.00095531323006623,0.00095532146351724,-0.00095531298354674,0.0009553212168127,-0.00079920673309257,0.00079921507564801,-0.00079920686072441,0.00079921520296505,1.1660324746848e-09,-3.3101903922204e-09,1.9484443448921e-09,-4.0239341132809e-09,-0.0017576174572406,0.0017576153757504,-0.0019761356770376,0.0019761371483034,-0.0019761374028765,0.0019761348427097,-0.0019761369135373,0.0019761353522189,-0.0019761386394873,0.0019761330467085,-0.0015146208061914,0.0015146230417489,-0.0015146269488172,0.0015146175455946,-0.0015146217968842,0.001514622025862,-0.0015146265112482,0.0015146180006682,3.2931491051289e-09,3.2931163527471e-09,-0.00082475517196688,0.00082476265500274,5.2083643556912e-11,6.1099462540795e-09,-0.00095531494799597,0.00095531973327939,-0.00095531290630202,0.0009553217636515,-0.00095531468812035,0.00095531947323972,-0.00095531266136822,0.00095532151855301,-0.00079920654770621,0.000799215513656,-0.00079920641063298,0.00079921537688852,0.51103778709309,122718,2924,0.0034326806030006,0.0072957802943363,0.0034326806029985,27.064893033147,0.00013171914426518,0.00013171914426518,0.00013171914426518,3696712.7583209,0.01426242270735
16419200,0.99770897046293,0.015173064102478,0.0042707071224997,0.0066316498574825,0.0042707071224962,-0.00081311964262278,0.00081312379400479,1.9851140212249e-09,1.9850823815967e-09,-5.5210057472848e-10,4.083898201125e-09,-0.00095011028746218,0.00095011257861145,-0.00095011028589551,0.00095011257684635,-0.00095010877111196,0.00095011414096654,-0.00095010877117412,0.00095011414084837,-0.00078795244446869,0.00078795817164343,-0.00078795257445994,0.00078795830132933,1.2340206331638e-09,-3.2858609443801e-09,2.1128924455273e-09,-4.0960304401993e-09,-0.0017595671413554,0.0017595651519726,-0.0019757935916638,0.00197579520954,-0.0019757956623643,0.0019757931304643,-0.0019757951107705,0.0019757937043829,-0.0019757971815845,0.0019757916253931,-0.0015177030704083,0.0015177056287867,-0.0015177095293303,0.0015176999706152,-0.0015177041857725,0.0015177044856071,-0.001517709030462,0.0015177004888197,2.0566401039536e-09,2.0566083812168e-09,-0.00081311957072267,0.00081312386590371,-1.2764499741824e-09,4.9831221274127e-09,-0.00095011051339011,0.0009501123811103,-0.0009501084134471,0.00095011447503875,-0.000950110505473,0.00095011237303427,-0.00095010841497626,0.00095011447640769,-0.00078795222758828,0.00078795864600202,-0.00078795208843087,0.00078795850714098,0.46538451425637,122718,2924,0.0033844462392058,0.007303691918202,0.0033844462392033,24.416022038352,0.00011052817630682,0.00011052817630682,0.00011052817630682,3489197.1674929,0.014172643032987
17419200,0.99821320942532,0.015179344348255,0.0042724785498632,0.0066343872485317,0.0042724785498598,-0.00080699813136115,0.00080700210147127,1.9192568285838e-09,1.91922468508e-09,-6.2701295205052e-10,4.0110768515908e-09,-0.00094227853175795,0.0009422807049546,-0.00094227853725392,0.00094228071024982,-0.00094227701555882,0.00094228226827797,-0.00094227702225794,0.00094228227479394,-0.00078175071324345,0.00078175630287363,-0.00078175084073335,0.00078175643005187,1.2079689503778e-09,-3.3133368973616e-09,2.1644155476496e-09,-4.2001477895446e-09,-0.0017552271355062,0.0017552250935654,-0.0019737236225356,0.0019737252387675,-0.0019737257546491,0.0019737231205773,-0.0019737251546001,0.0019737237464206,-0.0019737272868248,0.0019737216283142,-0.0015111817366627,0.0015111843957783,-0.0015111883710191,0.0015111786058801,-0.0015111829522099,0.0015111831484723,-0.0015111878236005,0.0015111791753997,2.0021703972011e-09,2.0021381714061e-09,-0.00080699804808263,0.00080700218474853,-1.4135525466753e-09,4.9994402477849e-09,-0.00094227877248059,0.00094228049348097,-0.00094227662222173,0.00094228263785779,-0.00094227877106652,0.00094228049190448,-0.00094227663028989,0.00094228264576277,-0.00078175045733306,0.00078175681123978,-0.00078175032038597,0.00078175667459535,0.52521873377382,122718,2924,0.0033590235930153,0.0072857856609339,0.0033590235930127,21.978116124899,9.1024928999189e-05,9.1024928999189e-05,9.1024928999189e-05,3515117.263526,0.014102907822611
18419200,0.99852657734317,0.015183093742588,0.0042735304541696,0.0066360328342521,0.0042735304541662,-0.0007937824625262,0.00079378865170557,2.7548586910812e-09,2.7548268768657e-09,1.0933415268507e-10,4.9933790269042e-09,-0.00093206627501855,0.00093207025027203,-0.00093206613077054,0.00093207010582493,-0.00093206467460501,0.00093207189746163,-0.00093206453366735,0.00093207175634245,-0.00076864617602148,0.00076865363373359,-0.00076864634264905,0.00076865380005376,1.3024622021738e-09,-3.4447128555633e-09,2.3318635795801e-09,-4.4019622047822e-09,-0.0017504821894468,0.0017504801129462,-0.0019685119002944,0.0019685136984775,-0.0019685139509718,0.0019685112356019,-0.0019685133045555,0.0019685119095367,-0.0019685153553453,0.0019685094467457,-0.0015063537859143,0.0015063566909904,-0.001506360658815,0.0015063504226544,-0.0015063550946473,0.0015063553484276,-0.001506360066938,0.0015063510381059,2.8404844259153e-09,2.8404525996081e-09,-0.0007937823764494,0.00079378873778104,-7.4378630295665e-10,6.0559999622764e-09,-0.00093206653769672,0.0009320700180668,-0.00093206425439236,0.00093207229300602,-0.00093206638620168,0.00093206986641098,-0.00093206411484769,0.00093207215329995,-0.0007686459328434,0.00076865420749688,-0.00076864575660574,0.00076865403155809,0.50516361584657,122718,2924,0.0033041954374699,0.0072660877080635,0.0033041954374672,17.482216563247,5.5057732505976e-05,5.5057732505976e-05,5.5057732505976e-05,3420108.140908,0.013971756499837
19419200,0.99878598107534,0.015187120988108,0.0042746771054918,0.0066377667771278,0.0042746771054883,-0.00079279928724001,0.00079280130117731,1.1699732754467e-09,1.1699412014483e-09,-1.425573052867e-09,3.3986929202937e-09,-0.00093062632180024,0.00093062666601933,-0.00093062617367424,0.0009306265176932,-0.00093062474340758,0.00093062829158292,-0.0009306245985847,0.00093062814657754,-0.00076776968961322,0.00076777351883018,-0.00076776985510382,0.00076777368401093,1.2964018084911e-09,-3.4707086750853e-09,2.3328643856532e-09,-4.4345492353884e-09,-0.0017509255547023,0.0017509234466391,-0.0019693855830784,0.0019693873680683,-0.0019693876384176,0.0019693848873091,-0.0019693869878048,0.0019693855659205,-0.0019693890432559,0.0019693830852455,-0.0015064283346256,0.0015064312345587,-0.0015064352494345,0.0015064249421185,-0.0015064296524385,0.0015064298825928,-0.0015064346534711,0.0015064255618846,1.2581439755358e-09,1.2581118885013e-09,-0.00079279919866482,0.0007928013897513,-2.2821779577946e-09,4.4704710822883e-09,-0.0009306265844052,0.00093062643415174,-0.00093062431860395,0.0009306286915142,-0.00093062642895842,0.00093062627854324,-0.00093062417518773,0.00093062854793552,-0.00076776944067735,0.00076777409609104,-0.0007677692654693,0.00076777392118404,0.65325215552179,122718,2924,0.0033001017816259,0.0072679301665655,0.0033001017816234,17.551537821777,5.5612302574215e-05,5.5612302574215e-05,5.5612302574215e-05,3405232.3250468,0.013965317987106
20419200,0.99901172287535,0.015190875675672,0.0042757443274184,0.0066393870208386,0.0042757443274149,-0.00078874988639664,0.00078875013686756,4.8422411457429e-10,4.841927514689e-10,-1.9349440391849e-09,2.4455993785295e-09,-0.00093174903955937,0.00093174805088724,-0.00093174932447643,0.00093174833560721,-0.00093174761477064,0.00093174952455264,-0.00093174789576378,0.00093174980536656,-0.00076383920212786,0.00076384165451362,-0.00076383934620234,0.00076384179828453,1.1800713707767e-09,-3.1204767180488e-09,2.2557986004306e-09,-4.1304306562963e-09,-0.0017589124447085,0.001758910564063,-0.0019762096965737,0.0019762113702361,-0.001976212140627,0.0019762095873552,-0.0019762114628651,0.0019762102937149,-0.0019762139070314,0.0019762085109201,-0.0015145908745931,0.0015145938027901,-0.0015145976600889,0.0015145881066355,-0.0015145922463627,0.0015145923958058,-0.0015145970331322,0.0015145887581688,5.6839124977277e-10,5.6835991125956e-10,-0.00078874980167725,0.00078875022158542,-2.8408507781352e-09,3.5595403843762e-09,-0.00093174931869128,0.00093174779940719,-0.00093174718109508,0.00093174993654658,-0.00093174959661757,0.00093174807717439,-0.00093174746305953,0.00093175021835207,-0.00076383892102816,0.00076384222160178,-0.00076383876833708,0.00076384206920479,0.70012779305904,122718,2924,0.0032833626630435,0.0073008448729213,0.0032833626630403,18.5963298786,6.3970639028801e-05,6.3970639028801e-05,6.3970639028801e-05,3198556.6221175,0.013964777729456
21419200,0.99916533537531,0.015193252547271,0.0042764234780144,0.0066404055912454,0.004276423478011,-0.00077808147553939,0.0007780858574806,2.0549325486146e-09,2.0549011043737e-09,-4.0877207051443e-10,4.0175202833954e-09,-0.00092200288272922,0.00092200551266251,-0.00092200317049374,0.00092200580022965,-0.00092200144065296,0.00092200700326958,-0.00092200172449235,0.00092200728692936,-0.00075370441206885,0.0007537104586429,-0.00075370456345441,0.00075371060972377,1.1658343505314e-09,-3.1005257810951e-09,2.2436898567562e-09,-4.1128117606592e-09,-0.0017539909472801,0.0017539890722112,-0.0019715575569078,0.0019715592151256,-0.001971559991362,0.0019715574423741,-0.0019715593124335,0.001971558150198,-0.0019715617470005,0.001971556377532,-0.001509407552757,0.0015094104686817,-0.0015094142995146,0.0015094047920613,-0.0015094089274417,0.0015094090586297,-0.0015094136709705,0.0015094054452806,2.1394356261367e-09,2.1394042078759e-09,-0.00077808139051025,0.00077808594250844,-1.3162617339311e-09,5.1341013301348e-09,-0.00092200316215497,0.00092200526064426,-0.00092200100624433,0.00092200741623365,-0.00092200344296756,0.00092200554129778,-0.00092200129102399,0.00092200770085377,-0.0007537041373362,0.00075371103407387,-0.00075370397736755,0.00075371087440032,0.64990944923706,122718,2924,0.003239088971679,0.0072804506668893,0.0032390889716763,15.228774955849,3.7030199646795e-05,3.7030199646795e-05,3.7030199646795e-05,3106021.4129858,0.013854322327757
22419200,0.99929247321145,0.015195272747467,0.0042770045582529,0.0066412636309651,0.0042770045582494,-0.00077594842777826,0.00077595074155237,1.274021073516e-09,1.2739891459445e-09,-1.1466492071409e-09,3.2311210975566e-09,-0.0009187110067393,0.00091871182107364,-0.00091871104632718,0.00091871186046205,-0.00091870957942741,0.0009187132938817,-0.00091870961834053,0.00091871333261311,-0.00075134050648715,0.00075134472814093,-0.0007513405049268,0.00075134472627201,1.1557480970419e-09,-3.1469559054808e-09,2.236783794614e-09,-4.1618533882946e-09,-0.0017535701821694,0.0017535682512709,-0.0019722415434402,0.0019722431972223,-0.0019722437083727,0.0019722411021833,-0.0019722430279928,0.0019722418120838,-0.001972245193037,0.0019722397171292,-0.0015079653309724,0.001507968215737,-0.0015079718717649,0.0015079622545118,-0.0015079667096502,0.0015079668013694,-0.0015079712416317,0.00150796290954,1.3626773595244e-09,1.3626454609989e-09,-0.00077594833868723,0.00077595083064232,-2.0515410839164e-09,4.3540740950785e-09,-0.00091871128298457,0.00091871157240117,-0.00091870914056216,0.00091871371122427,-0.00091871131553704,0.00091871160479261,-0.00091870918041182,0.00091871375091231,-0.00075134007410926,0.00075134515532489,-0.00075134006697226,0.00075134514848708,0.66642562144511,122718,2924,0.0032302168317687,0.0072787472174801,0.0032302168317665,14.859364069456,3.4074912555652e-05,3.4074912555652e-05,3.4074912555652e-05,3139308.5954332,0.01383459712408
23419200,0.9994053656031,0.015196963619469,0.0042774890697146,0.0066419854800435,0.0042774890697112,-0.00077571743324856,0.00077571821732912,6.9631460051545e-10,6.9628268113929e-10,-1.6935643591758e-09,2.6548301206445e-09,-0.00091875353572478,0.00091875298932582,-0.00091875368127465,0.00091875313467633,-0.00091875211813569,0.00091875445308985,-0.00091875226212345,0.00091875459689571,-0.00075102283398735,0.00075102566667528,-0.00075102296657915,0.00075102579895877,1.1452638940918e-09,-3.1297055861721e-09,2.2278498738333e-09,-4.1466141087265e-09,-0.0017563173499337,0.0017563154253632,-0.0019757881667195,0.0019757898029579,-0.0019757904269324,0.0019757878258237,-0.0019757897455061,0.0019757885369513,-0.0019757920058309,0.0019757865599014,-0.0015099621912853,0.0015099650672282,-0.0015099688487155,0.0015099592710311,-0.00150996357206,0.0015099636503402,-0.0015099682172757,0.0015099599276509,7.8469083396895e-10,7.8465894669308e-10,-0.00077571734444915,0.00077571830612714,-2.6008376206077e-09,3.7797463630444e-09,-0.00091875381287886,0.00091875273963407,-0.00091875167906228,0.00091875487082296,-0.00091875395135507,0.00091875287794931,-0.00091875182395255,0.00091875501555138,-0.00075102253534469,0.00075102622847117,-0.00075102239403905,0.0007510260874646,0.62875729639221,122718,2924,0.0032292638605768,0.0072901085543341,0.0032292638605739,15.704927158867,4.0839417270938e-05,4.0839417270938e-05,4.0839417270938e-05,3084766.7385577,0.013844186176928
24419200,0.99951192917848,0.015198647550298,0.0042779740797676,0.0066426993907668,0.0042779740797641,-0.00078008273761321,0.00078008180271487,3.3098964652659e-11,3.3066755902239e-11,-2.1493260984215e-09,1.7266723961377e-09,-0.00092137268228108,0.00092137084978204,-0.00092137305626692,0.00092137122356682,-0.00092137142219626,0.00092137215445073,-0.00092137179112274,0.00092137252319407,-0.00075482005888994,0.00075482139925822,-0.00075482018947955,0.0007548215295369,9.7941954525814e-10,-2.8285379454309e-09,2.0599841024879e-09,-3.8497376385695e-09,-0.0017607554968688,0.0017607537018412,-0.0019827043818033,0.0019827058110107,-0.0019827067768793,0.0019827043038606,-0.001982706095852,0.0019827050152502,-0.0019827084910391,0.0019827035081839,-0.0015118004741375,0.0015118031865711,-0.0015118068537414,0.0015117980156303,-0.0015118018550664,0.0015118017683858,-0.0015118062182062,0.0015117986772697,1.2423098571102e-10,1.241988187084e-10,-0.00078008264610371,0.00078008189422315,-3.0567412747699e-09,2.8580728609977e-09,-0.0009213729554163,0.00092137060133515,-0.00092137098233641,0.00092137257599915,-0.00092137332249227,0.00092137096824884,-0.00092137135174682,0.00092137294524602,-0.00075481975501072,0.00075482196272023,-0.00075481961636075,0.00075482182437176,0.66255127740754,122718,2924,0.0032473901795461,0.0073085203736344,0.0032473901795435,17.879526796143,5.8236214369147e-05,5.8236214369147e-05,5.8236214369147e-05,3095908.3779656,0.013899602170549
25419200,0.99960908711268,0.015200456484807,0.0042784973250577,0.0066434618346947,0.0042784973250542,-0.00078238730629751,0.0007823864819333,7.3140703829645e-11,7.3108704873023e-11,-2.0935120568937e-09,1.7509324581271e-09,-0.0009247709021002,0.00092476917381733,-0.00092477127793292,0.00092476954944979,-0.00092476965178527,0.00092477046803226,-0.00092477002264714,0.00092477083871172,-0.00075715074005012,0.00075715216320141,-0.00075715087387792,0.00075715229672004,9.7422398891999e-10,-2.8003491531674e-09,2.0532066181825e-09,-3.8205745609521e-09,-0.0017657024895287,0.0017657007169108,-0.0019875079644424,0.0019875093934928,-0.001987510347302,0.0019875078973093,-0.001987509666985,0.0019875086077253,-0.0019875120499559,0.0019875071116257,-0.0015168146652849,0.0015168173758676,-0.0015168210068418,0.001516812237446,-0.0015168160443619,0.0015168159596058,-0.0015168203717601,0.0015168128985911,1.6194445923735e-10,1.619125019048e-10,-0.0007823872170863,0.00078238657114309,-3.0025768742493e-09,2.8790453111788e-09,-0.00092477117689528,0.00092476892332775,-0.0009247692146678,0.00092477088719088,-0.000924771545892,0.00092476929216281,-0.0009247695859698,0.00092477125833021,-0.00075715044205151,0.0007571527273185,-0.00075715030027971,0.00075715258584649,0.77991302017261,122718,2924,0.0032569770280985,0.0073289549926219,0.0032569770280955,19.924624743312,7.4596997946499e-05,7.4596997946499e-05,7.4596997946499e-05,3019313.2671299,0.013939768638566
26419200,0.99968876014752,0.015202034849006,0.0042789550164803,0.0066441248160491,0.0042789550164768,-0.00077911762609825,0.00077911828606254,6.3380174623656e-10,6.3377025744772e-10,-1.5377441732082e-09,2.3065529432144e-09,-0.00092437049743921,0.00092437006792715,-0.00092437087097568,0.00092437044126525,-0.00092436924570445,0.00092437136268278,-0.00092436961446328,0.00092437173126094,-0.00075420650832476,0.00075420921003826,-0.00075420664916823,0.00075420935057618,9.7958587897087e-10,-2.7666778537142e-09,2.0570819673226e-09,-3.7859344356547e-09,-0.0017692224609858,0.0017692207268936,-0.0019905502856531,0.001990551734657,-0.0019905526494351,0.0019905502384859,-0.0019905519696641,0.0019905509478887,-0.0019905543335582,0.0019905494518024,-0.0015206282102512,0.0015206309384944,-0.0015206345066325,0.0015206258153332,-0.0015206295875248,0.0015206295242324,-0.0015206338719791,0.0015206264759255,7.1782021389402e-10,7.1778877566326e-10,-0.00077911754160353,0.00077911837055612,-2.4512094181466e-09,3.4290482324524e-09,-0.00092437077628248,0.00092436981286627,-0.00092436881357968,0.00092437177726747,-0.00092437114313383,0.0009243701795578,-0.0009243691827324,0.00092437214625936,-0.00075420622236797,0.00075420977624523,-0.00075420607373977,0.00075420962791318,0.82922923068302,122718,2924,0.0032434464655562,0.0073434338677255,0.0032434464655538,20.393667694532,7.8349341556253e-05,7.8349341556253e-05,7.8349341556253e-05,2861902.8480075,0.013927026834732
27419200,0.99975824042904,0.015203276546414,0.0042793159008396,0.0066446447447382,0.0042793159008362,-0.00077978534112203,0.00077978471029906,1.3409099571139e-10,1.3405947114222e-10,-1.8822525019285e-09,1.680336774365e-09,-0.00092717685988865,0.00092717537868767,-0.00092717722058039,0.0009271757391807,-0.00092717569848818,0.00092717657934066,-0.00092717605525143,0.00092717693592328,-0.00075478006865545,0.00075478153003351,-0.0007547802331458,0.00075478169421894,8.9553289776116e-10,-2.5954734961545e-09,1.9528372474567e-09,-3.5982802688313e-09,-0.0017761659427856,0.0017761642924956,-0.001996846679755,0.0019968480358949,-0.0019968489249393,0.0019968466092675,-0.0019968482572328,0.0019968473059048,-0.0019968505025292,0.0019968458793618,-0.0015273256942945,0.001527328302273,-0.0015273316937876,0.001527323457635,-0.0015273270472904,0.0015273269135415,-0.0015273310684106,0.001527324108063,2.1561120397572e-10,2.1557972539325e-10,-0.00077978525914549,0.00077978479227443,-2.7815048250545e-09,2.7827403518091e-09,-0.00092717713394108,0.00092717512657516,-0.0009271752757511,0.00092717698614917,-0.00092717748833628,0.00092717548081053,-0.00092717563275045,0.00092717734298789,-0.00075477981483998,0.00075478211143234,-0.00075477964321246,0.0007547819401009,0.74718867332313,122718,2924,0.0032462552932525,0.0073721098769395,0.00324625529325,22.251070346269,9.3208562770156e-05,9.3208562770156e-05,9.3208562770156e-05,2798902.8081181,0.01396180884661
28419200,0.99981534821185,0.015204439464743,0.0042796573078772,0.0066451248489924,0.0042796573078737,-0.00078254215138043,0.00078254226200659,4.1722718051809e-10,4.171950682476e-10,-1.5387023451371e-09,1.8988837590223e-09,-0.00092692488856047,0.000926924097767,-0.00092692519280215,0.00092692440180787,-0.00092692376515733,0.00092692525774285,-0.00092692406670594,0.00092692555910844,-0.00075726336431899,0.00075726539033111,-0.00075726353316216,0.00075726555886363,8.343680614814e-10,-2.5246722712304e-09,1.8597064247159e-09,-3.4971230389976e-09,-0.0017770732892676,0.0017770716472303,-0.0020001595659905,0.0020001608316914,-0.0020001616836272,0.0020001593967884,-0.002000161036667,0.0020001600725702,-0.0020001631544142,0.0020001586377501,-0.001526251796473,0.0015262542621493,-0.0015262575852273,0.0015262495918675,-0.0015262531086179,0.001526252914457,-0.0015262569789375,0.0015262502230985,5.0085270305843e-10,5.0082066389014e-10,-0.00078254206741792,0.00078254234596802,-2.4051251646654e-09,2.9723960099011e-09,-0.00092692514960724,0.00092692385781327,-0.00092692335172551,0.00092692565611401,-0.00092692544762647,0.00092692415567023,-0.00092692365341558,0.00092692595764135,-0.00075726312327033,0.00075726596780505,-0.00075726294731785,0.00075726579215387,0.8493285419621,122718,2924,0.0032576784256135,0.0073759424119636,0.0032576784256112,23.440625043521,0.00010272500034817,0.00010272500034817,0.00010272500034817,2843872.2882569,0.013988842751343
29419200,0.99986175191663,0.015205114738283,0.004279852456854,0.0066454098245781,0.0042798524568506,-0.00078204749943214,0.00078204742660592,3.4126374829954e-10,3.4123208374082e-10,-1.5612773855439e-09,1.7804404872653e-09,-0.00092965743087203,0.00092965650088213,-0.0009296577529634,0.00092965682277502,-0.00092965633823198,0.00092965762869509,-0.00092965665766945,0.00092965794795215,-0.00075685934247623,0.00075686117580889,-0.00075685952451241,0.0007568613575396,8.1544566222418e-10,-2.449837841665e-09,1.8139209814297e-09,-3.3971521765094e-09,-0.0017825859499649,0.0017825843622287,-0.0020042372893471,0.0020042385290218,-0.0020042393727812,0.0020042371565917,-0.0020042387418988,0.0020042378145859,-0.0020042408254449,0.0020042364422403,-0.0015327417776281,0.0015327441858561,-0.0015327474200739,0.0015327396552984,-0.0015327430559475,0.0015327428738595,-0.0015327468291499,0.0015327402698795,4.1785413026962e-10,4.1782254758739e-10,-0.00078204742246461,0.00078204750357233,-2.4109260649813e-09,2.8211327284576e-09,-0.00092965768961155,0.00092965626219261,-0.00092965594006657,0.0009296580125059,-0.00092965800585459,0.0009296565782756,-0.00092965625960807,0.00092965833188634,-0.00075685913000325,0.00075686175115132,-0.00075685894124612,0.0007568615626898,0.60881578646039,122718,2924,0.0032556652313478,0.0073986607848497,0.0032556652313455,24.779495609622,0.00011343596487698,0.00011343596487698,0.00011343596487698,2721697.1385985,0.01400781626502
30419200,0.99989866575757,0.015205570013041,0.0042799847816092,0.0066456004498262,0.0042799847816058,-0.00078958081822782,0.00078958075198266,3.5638878417022e-10,3.5635558649439e-10,-1.5266812883886e-09,1.7411303225756e-09,-0.00092924249299327,0.00092924162384617,-0.0009292428043718,0.00092924193501979,-0.00092924142400803,0.00092924272720442,-0.00092924173295099,0.00092924303596065,-0.00076399870191476,0.00076400054226462,-0.00076399885552985,0.00076400069556069,7.5810724113829e-10,-2.4328334774602e-09,1.7209639822611e-09,-3.3449883315496e-09,-0.0017796691865209,0.0017796675581361,-0.0020058402566147,0.0020058413846094,-0.0020058423013342,0.0020058400683537,-0.0020058416944049,0.0020058407030405,-0.0020058437392327,0.0020058393868659,-0.0015264480171236,0.0015264502662901,-0.0015264535508964,0.0015264459121314,-0.0015264492491864,0.0015264489999414,-0.0015264529827655,0.0015264465043595,4.4125396142084e-10,4.412209201067e-10,-0.0007895807332197,0.00078958083698973,-2.331847590745e-09,2.7544756323256e-09,-0.00092924273166623,0.00092924140504973,-0.00092924103085444,0.00092924310640788,-0.00092924303702303,0.00092924171024029,-0.00092924133984453,0.00092924341523094,-0.00076399846492235,0.00076400108546848,-0.00076399830421189,0.00076400092506698,0.51512748248588,122718,2924,0.0032868604525926,0.0073867990047852,0.0032868604525904,26.130184784859,0.00012424147827888,0.00012424147827888,0.00012424147827888,2928298.1599622,0.014059007586333
31419200,0.99992854844893,0.015206045275437,0.004280123351279,0.0066457985728829,0.0042801233512755,-0.00079784597601834,0.00079784478034894,-7.3149803470775e-11,-7.3183151180656e-11,-1.8586185613354e-09,1.1967161185558e-09,-0.00093570206359494,0.00093570027037689,-0.00093570245447814,0.0009357006610557,-0.00093570106544777,0.00093570130167142,-0.00093570145283933,0.00093570168887626,-0.00077200011518913,0.00077200097103478,-0.00077200024296018,0.0007720010984881,6.9390943010205e-10,-2.2970934374311e-09,1.6113652414274e-09,-3.1668581814799e-09,-0.0017819963576914,0.0017819947980215,-0.0020080500377513,0.0020080510626691,-0.0020080520933663,0.0020080499570763,-0.0020080515143557,0.0020080505620132,-0.0020080535700801,0.0020080494565022,-0.001529454123244,0.0015294562284216,-0.0015294594235288,0.0015294522017609,-0.0015294552980181,0.0015294550213653,-0.0015294588816229,0.001529452766424,7.9743851968296e-12,7.9412058721999e-12,-0.00079784589479002,0.00079784486157612,-2.6263956658564e-09,2.1629796049955e-09,-0.00093570229048718,0.00093570006190414,-0.00093570069081321,0.00093570166356263,-0.00093570267569106,0.00093570044694193,-0.00093570107815913,0.00093570205074182,-0.00077199987039681,0.0007720014705285,-0.00077199973590043,0.00077200133634002,0.66479676253864,122718,2924,0.0033211437091529,0.0073964669445186,0.0033211437091505,28.43803209617,0.00014270425676936,0.00014270425676936,0.00014270425676936,2998792.1301803,0.014138338174149
32419200,0.9999503810102,0.015206454221564,0.00428024237616,0.0066459694692472,0.0042802423761565,-0.00079584976017517,0.00079585019590188,5.3916686370844e-10,5.3913480379496e-10,-1.2561739303186e-09,1.863705908652e-09,-0.00094023308353314,0.00094023267025336,-0.00094023336447161,0.00094023295099294,-0.00094023205995714,0.00094023372479474,-0.00094023233979857,0.00094023400445463,-0.0007704163971019,0.00077041857617203,-0.00077041657196077,0.00077041875072485,7.3040778848461e-10,-2.3088379046163e-09,1.6170728105945e-09,-3.1476779403643e-09,-0.0017880932898172,0.0017880917550054,-0.0020102148040203,0.0020102158824602,-0.002010216704045,0.002010214612241,-0.0020102161436394,0.0020102151961463,-0.0020102180437765,0.0020102139260119,-0.0015385098557391,0.0015385119504307,-0.0015385150504753,0.0015385078520201,-0.0015385109907966,0.0015385107857999,-0.0015385145278176,0.0015385083954968,6.0840223456759e-10,6.0837031804262e-10,-0.00079584969069207,0.00079585026538377,-2.0071776894523e-09,2.7866037492684e-09,-0.00094023331164752,0.0009402324602441,-0.00094023170586587,0.00094023406590183,-0.00094023358734981,0.00094023273578529,-0.00094023198577365,0.00094023434564847,-0.00077041622114476,0.00077041910081233,-0.00077041603989894,0.00077041891986412,0.7835582016357,122718,2924,0.0033129288418281,0.0074215174918344,0.0033129288418255,29.295268218944,0.00014956214575155,0.00014956214575155,0.00014956214575155,2815523.168897,0.014147118004468
33419200,0.99996555629428,0.015206748616916,0.0042803286881107,0.0066460912406985,0.0042803286881072,-0.0007916146526032,0.00079161604252377,8.9413067976708e-10,8.9409904710967e-10,-9.4970997087259e-10,2.2950813408404e-09,-0.00093954002790939,0.00093954037842148,-0.00093954024679162,0.00093954059710553,-0.0009395389621848,0.00093954147533142,-0.00093953918090464,0.00093954169387083,-0.00076649894342669,0.00076650192645053,-0.00076649914518079,0.00076650212790013,7.7777291736538e-10,-2.377434780617e-09,1.6509490415812e-09,-3.2012222655631e-09,-0.0017913898715328,0.0017913883169434,-0.0020123856286316,0.0020123867630201,-0.0020123874679687,0.0020123853658881,-0.0020123869163897,0.0020123859403152,-0.0020123887558393,0.0020123845432681,-0.0015421814934683,0.0015421836126737,-0.0015421867156991,0.0015421793738172,-0.0015421826102759,0.0015421824670976,-0.0015421862029737,0.0015421799067393,9.592328466538e-10,9.5920134214566e-10,-0.00079161458721398,0.00079161610791173,-1.6905551574945e-09,3.1987800967882e-09,-0.00093954025566227,0.00093954016923943,-0.0009395386161447,0.00093954180770562,-0.00093954046941266,0.0009395403828305,-0.00093953883504235,0.00093954202644292,-0.00076649880320822,0.00076650246901945,-0.00076649859498997,0.00076650226109605,0.80945760226261,122718,2924,0.0032953989313122,0.0074350619187634,0.0032953989313096,29.317290526334,0.00014973832421067,0.00014973832421067,0.00014973832421067,2686814.8960805,0.014125315986497
34419200,0.99997704029326,0.015206950890804,0.0042803881547262,0.0066461745813549,0.0042803881547228,-0.00079386983231084,0.00079386878077418,-3.3513466363078e-11,-3.3545187735033e-11,-1.8198747786777e-09,1.275482637528e-09,-0.00094186084028298,0.00094185914981969,-0.00094186123155078,0.00094185954088876,-0.00094185982847184,0.00094186019459857,-0.00094186021668899,0.0009418605826347,-0.00076869374683869,0.00076869469818179,-0.0007686939274412,0.00076869487847814,7.3438762869734e-10,-2.2939622712331e-09,1.5916872198715e-09,-3.1033163389925e-09,-0.001796325897462,0.0017963243816027,-0.0020181766457513,0.0020181777012964,-0.0020181786490865,0.0020181765955179,-0.0020181781075688,0.0020181771597726,-0.0020181801110154,0.0020181760540781,-0.0015461628015247,0.0015461648555436,-0.0015461679912694,0.001546160883493,-0.0015461638984484,0.0015461637300585,-0.0015461674876109,0.0015461614071799,3.0868198865361e-11,3.0836610521539e-11,-0.00079386976766428,0.00079386884541957,-2.5470268754008e-09,2.1638176218119e-09,-0.00094186106338271,0.00094185894461248,-0.00094185948853779,0.00094186052148678,-0.00094186144963994,0.0009418593307095,-0.00094185987686997,0.0009418609096579,-0.00076869359116309,0.00076869521405593,-0.00076869340422779,0.00076869502741727,0.73398852679868,122718,2924,0.0033047711829022,0.007455477388598,0.0033047711828998,31.482018397126,0.00016705614717701,0.00016705614717701,0.00016705614717701,2634983.5381837,0.014165027843611
35419200,0.99998604696215,0.015207091321047,0.0042804294536865,0.0066462324136775,0.0042804294536831,-0.00080386470217399,0.0008038609788644,-1.0512176909108e-09,-1.0512501986542e-09,-2.7884901803442e-09,2.2002648175378e-10,-0.00094957346263249,0.00094956945784268,-0.00094957398297307,0.000949569977977,-0.00094957248195982,0.00094957047289434,-0.00094957299750988,0.00094957098824104,-0.00077850671838726,0.00077850534436954,-0.00077850696739577,0.00077850559309752,7.0720859688046e-10,-2.2617761244684e-09,1.5602560963649e-09,-3.0675366205089e-09,-0.0018032410329118,0.001803239521458,-0.0020260817715838,0.0020260827764278,-0.0020260839031096,0.0020260818565659,-0.002026083364423,0.0020260824182409,-0.0020260854960898,0.0020260814984763,-0.0015523720233528,0.0015523740378476,-0.0015523772887734,0.0015523702710641,-0.0015523731151258,0.0015523729173933,-0.0015523767873715,0.0015523707925474,-9.8444672938699e-10,-9.8447821608686e-10,-0.00080386463521087,0.00080386104583323,-3.5093153540307e-09,1.1070418700775e-09,-0.0009495736820559,0.00094956925616602,-0.00094957214133069,0.00094957080066084,-0.00094957419736408,0.00094956977133466,-0.0009495726569617,0.00094957131614354,-0.00077850663008131,0.00077850592975929,-0.00077850637472789,0.00077850567466633,0.64952121200817,122718,2924,0.0033462390870853,0.0074841380665133,0.0033462390870971,35.929112784313,0.0002026329022745,0.0002026329022745,0.0002026329022745,2666690.1771171,0.01427819558568
36419200,0.99999181328889,0.015207185633294,0.0042804572645396,0.0066462711042187,0.0042804572645361,-0.00080877324507892,0.00080877284268142,2.1834378847508e-10,2.1831073901149e-10,-1.5229341362549e-09,1.4703268983166e-09,-0.00095162601332906,0.00095162492377189,-0.00095162635296943,0.00095162526320988,-0.00095162503233128,0.00095162593522916,-0.00095162537009661,0.00095162627280952,-0.0007830881621979,0.00078308962059767,-0.00078308833037406,0.00078308978846028,6.831346798221e-10,-2.2371144489245e-09,1.5079938224121e-09,-3.0154207543776e-09,-0.0018043861124023,0.0018043846009281,-0.002029192329495,0.0020291933051461,-0.0020291942235053,0.0020291921952037,-0.0020291937028925,0.0020291927382077,-0.0020291955970131,0.0020291916283478,-0.001552164702204,0.0015521666252014,-0.001552169707324,0.0015521628081272,-0.0015521657576342,0.0015521655416358,-0.001552169223239,0.0015521633119851,2.8462990061956e-10,2.8459791044978e-10,-0.00080877317864913,0.00080877290911022,-2.2170250348776e-09,2.3288897595339e-09,-0.0009516262234721,0.00095162473075001,-0.00095162470196003,0.0009516262533316,-0.00095162655817392,0.00095162506528863,-0.00095162503976216,0.00095162659096982,-0.00078308800286302,0.0007830901154055,-0.00078308782835127,0.00078308994119601,0.6811981079479,122718,2924,0.0033665992327423,0.0074889447716756,0.0033665992327402,37.480324097296,0.00021504259277837,0.00021504259277837,0.00021504259277837,2720648.4852488,0.014324360236164
37419200,0.99999521882552,0.015207239132641,0.0042804729748514,0.0066462931829418,0.004280472974848,-0.00080828983682917,0.00080829104130134,8.2880297793941e-10,8.2877026102049e-10,-9.8322149269765e-10,2.1812952150461e-09,-0.00095287857382524,0.0009528788190329,-0.00095287880183743,0.00095287904684427,-0.000952877533678,0.00095287988916239,-0.00095287776176836,0.00095288011706936,-0.00078267714310784,0.00078267995659773,-0.00078267734298703,0.00078268015616708,7.3820425892544e-10,-2.3374990942719e-09,1.5499570922865e-09,-3.1008425123898e-09,-0.0018059626274299,0.0018059610723699,-0.0020296404304592,0.002029641471942,-0.0020296422216131,0.0020296401590088,-0.0020296417093702,0.0020296406926865,-0.0020296435006356,0.002029639379837,-0.0015546611348661,0.0015546630821936,-0.0015546661885856,0.0015546590701287,-0.0015546621725347,0.0015546620174578,-0.0015546657143465,0.0015546595633886,8.9163284275811e-10,8.9160118253413e-10,-0.00080828977383746,0.00080829110429205,-1.6668215584808e-09,3.0213579772817e-09,-0.00095287878310666,0.00095287862755423,-0.00095287721047883,0.00095288019922189,-0.00095287900623916,0.00095287885052515,-0.00095287743873647,0.00095288042731702,-0.00078267702356989,0.00078268047486773,-0.00078267681720466,0.00078268026880101,0.65495763090949,122718,2924,0.0033646125442163,0.0074954197591455,0.0033646125442142,37.680386537022,0.00021664309229617,0.00021664309229617,0.00021664309229617,2672506.0507937,0.014326908646904
38419200,0.99999717629536,0.01520727339861,0.0042804830968062,0.0066463072050008,0.0042804830968028,-0.00080729653270254,0.00080729856778149,1.1475979623501e-09,1.1475651527608e-09,-7.623962309012e-10,2.6086884674462e-09,-0.00095151578085915,0.00095151668587898,-0.00095151594991915,0.00095151685473764,-0.0009515146724932,0.00095151782558114,-0.000951514842417,0.00095151799532109,-0.00078170446442164,0.00078170802364783,-0.00078170467579835,0.00078170823471356,7.9998831593549e-10,-2.4735565926323e-09,1.6127018821233e-09,-3.2351120130781e-09,-0.0018048626797162,0.0018048610529348,-0.0020288603969035,0.00202886150476,-0.002028862178839,0.002028860045248,-0.0020288616665878,0.0020288605789602,-0.0020288634486344,0.0020288591195316,-0.0015532571017191,0.0015532591027051,-0.0015532623146991,0.0015532548659246,-0.0015532581393813,0.0015532580379777,-0.0015532618423368,0.0015532553572837,1.2109076642932e-09,1.2108759155573e-09,-0.00080729646924664,0.00080729863123639,-1.4439970160294e-09,3.4477551303674e-09,-0.00095151599026826,0.00095151649547968,-0.000951514348287,0.00095151813543868,-0.00095151615430724,0.00095151665935664,-0.00095151451852138,0.00095151830551015,-0.00078170435617042,0.0007817085534868,-0.00078170413792548,0.00078170833554143,0.72891346290552,122718,2924,0.0033604874735507,0.0074908799288723,0.0033604874735486,37.195996344835,0.00021276797075868,0.00021276797075868,0.00021276797075868,2682433.6691976,0.014313932897107
38880000,0.99999785985238,0.015207285632865,0.0042804867090032,0.0066463122148617,0.0042804867089997,-0.00080536912802974,0.000805370606269,9.2992387624883e-10,9.2989069329127e-10,-9.8180087699722e-10,2.4050049829545e-09,-0.00095159921814666,0.00095159961403814,-0.00095159941849526,0.00095159981422409,-0.00095159810546842,0.00095160075857227,-0.00095159830612673,0.00095160095926747,-0.00077986194122176,0.00077986501791617,-0.00077986217746809,0.0007798652537551,8.1660797686332e-10,-2.4789279487469e-09,1.630396684971e-09,-3.2414504888538e-09,-0.001806588865717,0.0018065872502819,-0.0020299442024773,0.0020299453333229,-0.0020299460211493,0.0020299438981418,-0.0020299455081033,0.0020299444324748,-0.0020299473268791,0.0020299429974923,-0.0015553930531333,0.0015553950822235,-0.0015553983118248,0.0015553908436162,-0.0015553940920133,0.0015553940163741,-0.0015553978388431,0.001555391335467,9.911291025539e-10,9.91095262073e-10,-0.00080536906662537,0.00080537066767144,-1.6668024509469e-09,3.243039486072e-09,-0.00095159942994112,0.0009515994209934,-0.00095159778266936,0.00095160106696247,-0.00095159962544673,0.00095159961641823,-0.00095159798374464,0.00095160126804018,-0.00077986185960039,0.00077986557081215,-0.00077986161646721,0.00077986532813488,0.74537476942469,122718,2924,0.0033525125168525,0.0074979657371431,0.0033525125168484,37.193647442962,0.00021274917954369,0.00021274917954369,0.00021274917954369,2607474.8831743,0.014304954658126
