time,ASR_ext,ASR_strain,ASR_strain_xx,ASR_strain_yy,ASR_strain_zz,disp_x_101,disp_x_102,disp_x_103,disp_x_104,disp_x_105,disp_x_106,disp_x_p1_neg,disp_x_p1_pos,disp_x_p2_neg,disp_x_p2_pos,disp_x_p3_neg,disp_x_p3_pos,disp_x_p4_neg,disp_x_p4_pos,disp_x_p5_neg,disp_x_p5_pos,disp_x_p6_neg,disp_x_p6_pos,disp_y_101,disp_y_102,disp_y_103,disp_y_104,disp_y_105,disp_y_106,disp_y_p1_neg,disp_y_p1_pos,disp_y_p2_neg,disp_y_p2_pos,disp_y_p3_neg,disp_y_p3_pos,disp_y_p4_neg,disp_y_p4_pos,disp_y_p5_neg,disp_y_p5_pos,disp_y_p6_neg,disp_y_p6_pos,disp_y_p7_neg,disp_y_p7_pos,disp_y_p8_neg,disp_y_p8_pos,disp_z_101,disp_z_102,disp_z_103,disp_z_104,disp_z_105,disp_z_106,disp_z_p1_neg,disp_z_p1_pos,disp_z_p2_neg,disp_z_p2_pos,disp_z_p3_neg,disp_z_p3_pos,disp_z_p4_neg,disp_z_p4_pos,disp_z_p5_neg,disp_z_p5_pos,disp_z_p6_neg,disp_z_p6_pos,humidity,ndof,nelem,strain_xx,strain_yy,strain_zz,temp,thermal_strain_xx,thermal_strain_yy,thermal_strain_zz,vonmises,vstrain
2419200,0,0,0,0,0,0,0,0,0,0,0,0,0,0,0,0,0,0,0,0,0,0,0,0,0,0,0,0,0,0,0,0,0,0,0,0,0,0,0,0,0,0,0,0,0,0,0,0,0,0,0,0,0,0,0,0,0,0,0,0,0,0,0,0,0,0,0,0,0,0,0,0,0,0,0
3419200,0.15846859824455,0.0027326334048034,0.00091087780160112,0.00091087780160112,0.00091087780160112,-0.00023925325710255,0.00023836828443389,1.8926046511162e-06,-2.8199432415414e-06,-2.3560323684767e-06,1.3583368181915e-06,-0.00024565202594186,0.00024541541940568,-0.00024732845834202,0.00024376238057072,-0.00024457202799938,0.00024646359702803,-0.00024609729571417,0.00024492000289684,-0.00023739456144375,0.00024206735755618,-0.000241465972541,0.00023782198728627,2.8166139272077e-06,-8.849150833387e-07,2.6362605299547e-06,-7.5259229096385e-07,-0.00027004927283906,0.00027197385576068,-0.00027243390573551,0.00027657812780686,-0.0002735083629776,0.0002755599474735,-0.00027349129905283,0.00027540979573457,-0.00027464633606653,0.00027425454476423,-0.00026319961185506,0.00026721131010149,-0.00026669727742339,0.00026392956745872,-0.00026280373388051,0.00026757587191217,-0.00026701813352673,0.00026396152025123,-4.1842389737542e-06,5.5123692416591e-07,-0.00024060663558972,0.00023705069811854,-3.455738315421e-06,-1.5664643925077e-07,-0.00024860296524906,0.00024239183807525,-0.00024746649548302,0.00024350280344874,-0.0002470145929907,0.00024408042852444,-0.00024590538352798,0.00024515389993857,-0.00023853862288588,0.00024044426260445,-0.00024289444607964,0.00023625137729615,0.78396790128527,131688,2924,0.00099455223664304,0.001128572429287,0.00099462672974273,31.785376221023,0.00016948300976818,0.00016948300976818,0.00016948300976818,2452564.093536,0.0031226194116779
4419200,0.34897970376396,0.0058666112756242,0.0018367211948955,0.0021930196889425,0.0018368703917862,-0.00044427643085936,0.00044186864401298,1.2079216968425e-06,-3.7201469433668e-06,-3.6754210308699e-06,1.0377503350692e-06,-0.00046820847895382,0.00046649228193978,-0.00047006978980576,0.00046462891310779,-0.00046691468728394,0.00046764247364662,-0.00046840890043276,0.00046608580840098,-0.00044306248810262,0.00044648643557028,-0.00044695343146856,0.00044234027779672,4.2925041027685e-06,-3.8859372304096e-07,5.3883570232542e-06,-1.5360207849895e-06,-0.00059294211436076,0.00059685936401713,-0.00061635362138923,0.00062391348666025,-0.00061864340260336,0.00062185027076222,-0.00061759802852838,0.00062251759128409,-0.00062013089526799,0.00062012267630004,-0.0005561896550922,0.00056542752852249,-0.0005634030205005,0.00055857383379459,-0.00055740808684305,0.0005641984484353,-0.00056286908801474,0.00055951684525956,-5.9109425217716e-06,-9.2749759980465e-07,-0.00044642994770802,0.00043978881984371,-6.7291822456779e-06,-4.2256047202185e-08,-0.00047250368840432,0.00046200720325618,-0.00047020810513768,0.00046429186468049,-0.00047081629818564,0.00046390117815172,-0.00046856912101443,0.00046609583359309,-0.00044440101530974,0.00044440612043214,-0.00044883808124596,0.00044017711328753,0.77882048931954,131688,2924,0.0018444938515072,0.0024756296476229,0.0018446472309163,33.598604763555,0.00018398883810844,0.00018398883810844,0.00018398883810844,3999785.6581675,0.006183836817248
5419200,0.54897363636204,0.0090569621518152,0.0027077268354895,0.0036413927955249,0.0027078425208008,-0.00062898978491688,0.00062760656218123,2.6248467320897e-06,-4.1388104413194e-06,-2.3846597131717e-06,7.9731814951691e-07,-0.00067507268912089,0.00067530913038921,-0.00067748371910934,0.00067288176098502,-0.00067413186484083,0.00067607621825123,-0.00067627383263296,0.00067388794435353,-0.0006233041443492,0.0006291947314676,-0.00062931135572443,0.00062311869371471,2.9013717226623e-06,-2.3147564218482e-07,6.2353623808341e-06,-3.5512086284501e-06,-0.00096392197016699,0.00096662832528734,-0.0010305619505401,0.0010374209724185,-0.0010338054097998,0.0010343140232451,-0.0010313702515571,0.0010364693756405,-0.0010347356204471,0.0010331128525225,-0.00087591162509099,0.00088731911515835,-0.00088578988513472,0.00087755430549095,-0.00088015677491883,0.00088297714737327,-0.00088372074729695,0.00087979820944396,-4.1990550600867e-06,2.618190258436e-06,-0.00062899846221762,0.00062765607745647,-5.5385832971781e-06,4.0741474044862e-06,-0.00067847661032601,0.0006717407055622,-0.00067523293006885,0.00067497119828551,-0.00067620732846153,0.00067415759645893,-0.00067296539373262,0.00067737067954598,-0.00062200144190695,0.00063012787219629,-0.00062839268392747,0.00062387627750083,0.77319620108007,131688,2924,0.0026147782097581,0.0040137244393333,0.002614899426011,36.266592204158,0.00020533273763326,0.00020533273763326,0.00020533273763326,4917541.4754702,0.009286339263044
6419200,0.70561958979654,0.011372937449961,0.0032887658938198,0.0047952759825149,0.0032888955736262,-0.0007370740599455,0.00073571833898454,2.9142942560837e-06,-4.3996618048731e-06,-2.5555030828941e-06,9.7136284379505e-07,-0.00080933935793126,0.00080975797651899,-0.00081193974638724,0.0008071326391026,-0.00080834407722179,0.00081061682139467,-0.00081066037822858,0.00080823528957773,-0.00072277283549839,0.0007292681148042,-0.00072914415871269,0.00072269387698938,3.5195417499901e-06,3.0288713783401e-08,7.8193140187262e-06,-4.2600838498349e-06,-0.0012605542650964,0.0012641406941387,-0.001373336562049,0.0013819628110825,-0.0013773085454429,0.0013780801497332,-0.0013742779872276,0.0013808948485291,-0.0013784002669417,0.0013767516127762,-0.0011166816979232,0.0011310861653916,-0.0011287904120834,0.0011190550862076,-0.0011221190312917,0.0011254623456496,-0.0011261431561792,0.0011219477141532,-5.0696118191115e-06,2.3013868938913e-06,-0.00073769460777077,0.00073516163065857,-7.2497159542853e-06,4.6240904032788e-06,-0.00081391105464814,0.00080505374558995,-0.00080988632322454,0.00080901846897767,-0.0008114306068762,0.00080767093775653,-0.00080744251624398,0.00081160340169492,-0.00072165243513257,0.00072983609131203,-0.00072852576440667,0.00072318786967577,0.7291435704175,131688,2924,0.003064301049244,0.0052456319461517,0.003064434124428,36.738372753008,0.00020910698202406,0.00020910698202406,0.00020910698202406,5090660.8913223,0.011439485963382
7419200,0.8313971019089,0.013169896039482,0.0037308977813139,0.0057079758537256,0.003731022404443,-0.0008088612808446,0.00080832727444491,3.6391437850626e-06,-4.2992079160963e-06,-3.8017004460759e-06,3.0986843140766e-06,-0.00090567409904019,0.00090596175687591,-0.00090848518085175,0.00090314478139378,-0.00090358878286738,0.00090796686595871,-0.00090611259658167,0.00090539235806351,-0.0007865444505719,0.00079562561678035,-0.0007935509375161,0.00078843574610359,4.3239827264179e-06,-2.5188638946384e-06,7.0597372588171e-06,-5.2008689169923e-06,-0.0015096288890999,0.0015115025206196,-0.0016689576386148,0.0016770300156695,-0.0016729683984983,0.0016730454175875,-0.0016709603151892,0.0016748340363239,-0.0016751189858123,0.0016706025310652,-0.0013125751065424,0.0013243137985578,-0.0013248208549009,0.001312142382058,-0.0013159279774581,0.0013207540614635,-0.0013231680544959,0.0013138940252727,-4.9059316316771e-06,3.0917033851408e-06,-0.0008094121726044,0.00080784311525988,-6.861867012736e-06,5.202598746253e-06,-0.00090986335864239,0.00090168814627231,-0.00090577256807141,0.0009057296768757,-0.00090718698069448,0.00090452577023017,-0.00090311385589264,0.00090852238338598,-0.0007859110648832,0.00079575389198394,-0.00079343044582436,0.00078850054542849,0.71234622079915,131688,2924,0.0033646789357781,0.00627373287394,0.0033648179177296,40.760780706036,0.00024128624564829,0.00024128624564829,0.00024128624564829,5002817.1060993,0.013088446486391
8419200,0.90738470838088,0.014235464254457,0.0039956784806755,0.0062439783472724,0.0039958074265093,-0.00083480330863173,0.00083436396176259,3.6299741539601e-06,-4.1976850315244e-06,-3.9929217900077e-06,3.4096642383612e-06,-0.00095019360244638,0.00095037061558477,-0.00095297771459439,0.00094759236008669,-0.00094794649037304,0.00095254326466497,-0.00095043356005597,0.00094999712230548,-0.00080819530480696,0.0008174176292229,-0.0008151115556762,0.00081034571405693,4.2399089651213e-06,-3.1031862497612e-06,6.7944316106475e-06,-5.5926228797812e-06,-0.0016607442261255,0.0016619508317165,-0.0018509616842693,0.0018585692530742,-0.001855017145532,0.001854538414923,-0.0018531159589333,0.001856199263804,-0.0018573318002643,0.0018519451374345,-0.0014275721590117,0.0014386210003477,-0.0014399316911287,0.0014263007381736,-0.0014307416953966,0.0014353407363963,-0.0014384465535521,0.0014279738425448,-4.868858216623e-06,3.0167818597183e-06,-0.00083541686303719,0.0008338158520491,-6.9375998167097e-06,5.256483663194e-06,-0.00095434843926271,0.00094613192257047,-0.00095021771268373,0.00095022794696479,-0.00095170991749982,0.00094893389826076,-0.00094759999018039,0.00095296312234678,-0.00080766963266132,0.00081737770938223,-0.00081507219158171,0.00081024531475838,0.69848786957279,131688,2924,0.0034730656650683,0.0068976630262331,0.0034732020909658,41.433084672077,0.00024666467737661,0.00024666467737661,0.00024666467737661,4616114.9848861,0.013940618934721
9419200,0.94946282869681,0.014814274154218,0.0041432791590664,0.0065275862595476,0.0041434087356036,-0.00083945201674628,0.00083885538506552,3.5738173122227e-06,-4.2982787871186e-06,-3.6762379166725e-06,2.9259616277485e-06,-0.00096702690863655,0.00096732182966468,-0.00096981892575594,0.00096452944339969,-0.0009650337448741,0.00096922917747772,-0.00096753704765435,0.00096667053448759,-0.00081028829093232,0.00081912953719326,-0.00081725217145113,0.00081200265295554,3.9200335427019e-06,-2.6239541567231e-06,7.1745092163605e-06,-5.8142765090069e-06,-0.0017440491620174,0.0017454174222153,-0.0019527708422775,0.0019604775549975,-0.0019570187727838,0.0019562550971868,-0.0019546731394116,0.0019583834301033,-0.0019590800794378,0.0019539254673711,-0.0014885554577654,0.0015006182405965,-0.0015014921653942,0.0014876885981171,-0.0014926340820612,0.0014963906404845,-0.0014995474792453,0.0014898245421668,-4.8484290351949e-06,3.082222068487e-06,-0.00083994461076598,0.00083842788306576,-7.1852033038129e-06,5.6072196077414e-06,-0.00097130912406808,0.00096296016633221,-0.00096697895208407,0.00096724252217807,-0.00096865035194437,0.00096576497560143,-0.00096434451702856,0.00096999785878866,-0.00080941210119338,0.00081946232981021,-0.0008168609663804,0.0008122596226322,0.67994985076621,131688,2924,0.0034923814219795,0.0072424929189272,0.0034925171916137,41.145479030313,0.00024436383224251,0.00024436383224251,0.00024436383224251,4229338.4284152,0.014329576513854
10419200,0.97051382047923,0.015112344006257,0.0042220500235326,0.0066681142884508,0.004222179694274,-0.00083424190525321,0.00083335829044613,3.4624059196935e-06,-4.4733693042559e-06,-2.9494943922242e-06,1.8797983235575e-06,-0.00096745630733037,0.00096807278239885,-0.0009702634179301,0.00096525229138262,-0.00096602540776771,0.00096938896306718,-0.00096855045390461,0.00096681466000271,-0.00080424925665737,0.00081227302268311,-0.000811282726967,0.00080509624143537,3.3907904002126e-06,-1.382849748258e-06,7.0803191488711e-06,-5.0321221930618e-06,-0.0017801697218062,0.0017822304306052,-0.001999284102475,0.0020068206594595,-0.0020032550925019,0.0020028967417872,-0.0020006282799239,0.0020053186660603,-0.002004754848717,0.0020011479001339,-0.0015132251930846,0.0015257208138887,-0.0015253130073575,0.0015136242584331,-0.0015178814109888,0.001520891945074,-0.0015230746741455,0.0015160911239734,-4.940682563306e-06,3.0529524147639e-06,-0.00083465197903659,0.00083301130007516,-6.8207457187991e-06,5.1063885244384e-06,-0.0009718139160865,0.00096361585177212,-0.00096777708077132,0.00096760675682604,-0.00096913013254798,0.00096643228528994,-0.00096511980159035,0.00097038076456696,-0.00080315654215707,0.00081285026940891,-0.0008106702440876,0.00080558374843573,0.69329668245296,131688,2924,0.003470345492089,0.0073932452049287,0.0034704771014007,38.100583853094,0.00022000467082475,0.00022000467082475,0.00022000467082475,3942532.6208959,0.014437820279026
11419200,0.98266985190579,0.015281850687808,0.0042677258730066,0.0067462693428091,0.0042678554719924,-0.00083106382466142,0.00083021053556263,3.5200043668094e-06,-4.5005288088367e-06,-3.0320247214206e-06,1.9971221606099e-06,-0.00097019419123572,0.00097080270850055,-0.00097302988762201,0.000967954441956,-0.00096870024125755,0.00097218594067434,-0.00097125378093175,0.00096958250587231,-0.00080017749206331,0.00080838059473889,-0.00080729265089636,0.00080111669774334,3.45491791871e-06,-1.5196828588667e-06,7.0152839004929e-06,-5.0382612938623e-06,-0.0018075010820995,0.0018094905455788,-0.0020309639805901,0.0020384774487862,-0.002034917393176,0.0020345718633323,-0.0020323729388036,0.0020369074234583,-0.0020364833279092,0.0020327584315018,-0.0015347196428614,0.001547015301873,-0.0015467456838431,0.0015349794289811,-0.0015392048784213,0.0015423613355086,-0.0015445919969989,0.0015373587430103,-4.9890782046418e-06,3.0891966340967e-06,-0.00083149526373686,0.00082984183750427,-6.7977856527218e-06,5.0713192661549e-06,-0.00097456218025835,0.00096634029794572,-0.00097054165331732,0.00097031194627559,-0.00097184984374154,0.00096918471518732,-0.00096785678177916,0.00097311281992533,-0.00079914405445869,0.00080888983274425,-0.00080673917245808,0.00080154010857237,0.67906583963861,131688,2924,0.0034573612761838,0.0075060221256019,0.0034574921886557,37.628197151686,0.00021622557721349,0.00021622557721349,0.00021622557721349,3703669.3050744,0.014525924776286
12419200,0.98964193226595,0.015381725910733,0.0042951499576397,0.0067912964458044,0.0042952795072885,-0.00082705223907187,0.00082618377011025,3.4698666748292e-06,-4.4740494904873e-06,-2.9521283772093e-06,1.9156585317781e-06,-0.00096850768230097,0.00096912027864354,-0.0009713109943379,0.00096628892380889,-0.00096705738039946,0.00097045094041756,-0.00096959043686967,0.00096789705647765,-0.00079609609217157,0.00080412250973244,-0.00080313599649211,0.00079697788551908,3.5953655286744e-06,-1.2113225675534e-06,7.2669062503647e-06,-4.8565563237091e-06,-0.0018201224462349,0.0018225533361356,-0.0020472572363236,0.0020551923697168,-0.002051227828052,0.00205127531515,-0.002048612985177,0.0020536735135323,-0.0020527496215754,0.0020494638464275,-0.0015432075303695,0.0015560695209875,-0.0015552982418055,0.0015439016246814,-0.0015478647056275,0.0015513024416266,-0.001553076875831,0.0015464260058647,-4.9339419309429e-06,3.067507218607e-06,-0.0008274596459473,0.00082583591792598,-6.8170962302437e-06,5.1221914217322e-06,-0.00097284158408405,0.00096466006803935,-0.00096881250815543,0.00096865706102187,-0.00097015735266956,0.0009674675903286,-0.00096615911095539,0.0009714493230108,-0.00079500139241935,0.00080471596881742,-0.00080249801676112,0.00079742225241454,0.69355173693331,131688,2924,0.0034407510476872,0.0075590888018606,0.0034408753863963,36.804267166657,0.00020963413733325,0.00020963413733325,0.00020963413733325,3568831.426493,0.014546062055243
13419200,0.9935358971995,0.015436165925842,0.0043102012536939,0.0068156339495549,0.004310330722593,-0.00082174930567853,0.0008208521288546,3.4013451152955e-06,-4.4266444551311e-06,-2.896686721456e-06,1.8137418412836e-06,-0.00096585896869905,0.00096646723359024,-0.0009686318849899,0.00096368271800522,-0.00096447076440063,0.0009677433952223,-0.00096695900435657,0.00096520688815656,-0.00079030906495555,0.00079816587893197,-0.00079723411765028,0.00079109874486653,3.4745646498744e-06,-1.1764845868399e-06,7.2445614892748e-06,-4.9045428218801e-06,-0.0018269980609855,0.0018293476915654,-0.0020553240340682,0.0020631180190716,-0.0020593063381004,0.0020591820665958,-0.0020566290445963,0.0020616591625787,-0.0020607691873461,0.0020574729477601,-0.0015480427928994,0.0015609064787722,-0.0015601662663705,0.0015487662115067,-0.0015528061659072,0.0015559801933616,-0.0015578808013703,0.0015512961431886,-4.889285768257e-06,2.9964499264761e-06,-0.00082215549735098,0.00082050916856333,-6.8419175601621e-06,5.123125292006e-06,-0.00097020764163261,0.00096202578771761,-0.000966153357112,0.00096602632062744,-0.00096755795930052,0.00096480378625791,-0.00096353136296688,0.00096876357777264,-0.0007891795770255,0.00079877191709314,-0.00079658175522209,0.00079161022007179,0.67550368770612,131688,2924,0.0034187356507113,0.0075872992217019,0.0034188676296264,34.794598025409,0.00019355678420327,0.00019355678420327,0.00019355678420327,3420839.9766903,0.014530040653105
14419200,0.99578431431712,0.015467209720198,0.004318841416826,0.0068293974257978,0.0043189708775744,-0.00081602025590894,0.00081511494767826,3.3556081392943e-06,-4.3873503423379e-06,-2.8743971399595e-06,1.7798683381317e-06,-0.00096012629386871,0.00096071431221091,-0.0009628682896413,0.00095795755708849,-0.0009587522425209,0.00096197338953216,-0.0009612132400555,0.00095946505472568,-0.00078453708168086,0.00079229089992486,-0.00079138141252334,0.00078530484415612,3.3707438810854e-06,-1.2278786150306e-06,7.1369684945337e-06,-4.9554459264753e-06,-0.0018264574984549,0.0018286509353022,-0.0020571074497792,0.0020647143595534,-0.0020610731040699,0.002060796604379,-0.0020583982706208,0.0020632704234699,-0.0020625190232433,0.0020591048097038,-0.0015451546441496,0.0015578198087533,-0.0015572211503148,0.0015457424307655,-0.001549910537879,0.0015528893927557,-0.001554933452949,0.0015482645266755,-4.8489139208484e-06,2.9518202216643e-06,-0.00081642408729159,0.00081477356950258,-6.8167450203192e-06,5.0925397318513e-06,-0.000964441119933,0.00095630311019813,-0.00096040828463683,0.00096028715341074,-0.00096181895401648,0.00095905269658403,-0.00095781520706213,0.00096299573647236,-0.00078341121566126,0.00079289926167121,-0.00079073588434943,0.00078582397069747,0.66543916121878,131688,2924,0.0033949518266599,0.0075847507589302,0.0033950821722411,32.643906427214,0.00017635125141772,0.00017635125141772,0.00017635125141772,3347272.1347504,0.014479191176692
15419200,0.99695515293705,0.015484306450659,0.0043236707184662,0.006836835561659,0.0043238001705333,-0.00080601146963623,0.00080509968664987,3.2600214774611e-06,-4.2926901624978e-06,-2.8554772490476e-06,1.7480466160022e-06,-0.00094973361472795,0.00095026077522321,-0.00095240496731537,0.00094756651095789,-0.00094836520853949,0.00095150615554307,-0.00095076010331555,0.00094905305253857,-0.00077447513226,0.00078203249529246,-0.00078113407523949,0.00077521534016924,3.1280969995557e-06,-1.4272525743382e-06,6.8355248260996e-06,-5.1108600746609e-06,-0.0018170260379911,0.0018187680255773,-0.0020485947293029,0.0020556911201777,-0.0020525225380682,0.0020518230789612,-0.0020498793437614,0.0020542588080233,-0.0020539566327166,0.0020501567258756,-0.0015350144597221,0.0015470824235763,-0.0015469532033995,0.0015351984460067,-0.001539694580798,0.0015422264724787,-0.0015446769904367,0.0015376625482804,-4.7647952017997e-06,2.8460471397563e-06,-0.00080642527018361,0.00080474813780084,-6.7657095356958e-06,4.999009481634e-06,-0.00095396876918901,0.00094591926793403,-0.00094998993464906,0.00094986508254204,-0.00095141083017603,0.00094860837452054,-0.00094745847760334,0.00095250302660918,-0.0007733721738627,0.00078260654063074,-0.00078052140226971,0.00077572428603822,0.70138893947408,131688,2924,0.0033533738245861,0.0075448299759182,0.0033535037162367,27.069722678281,0.00013175778142625,0.00013175778142625,0.00013175778142625,3248950.5047076,0.014354333558755
16419200,0.99770678928244,0.015494906736745,0.0043266736150719,0.0068414300595391,0.0043268030621343,-0.00080097131778165,0.00080005178912742,3.1771157332355e-06,-4.2259871472628e-06,-2.8362821747427e-06,1.7267716169033e-06,-0.00094722096389075,0.00094770559549102,-0.00094983274822365,0.00094505943064152,-0.00094586297918558,0.00094893722714323,-0.00094822049222915,0.00094653708684512,-0.00076891038897635,0.00077628498033949,-0.000775419612742,0.00076962804521857,3.203982330218e-06,-1.3088171225935e-06,6.9250402813447e-06,-5.0093162225179e-06,-0.0018175755415773,0.0018195106100205,-0.0020474850802271,0.0020547548481395,-0.0020514017575018,0.0020508883712841,-0.0020487557543481,0.0020533369259305,-0.0020528185007175,0.0020492375086187,-0.0015366760310547,0.0015489470842401,-0.0015485933547737,0.0015370226466247,-0.0015413806398136,0.001544074074537,-0.0015463122159383,0.0015395503454379,-4.6710162268687e-06,2.790701555072e-06,-0.00080136346128494,0.00079971460275396,-6.7434160752416e-06,5.0102421513895e-06,-0.00095137564802546,0.00094341492515847,-0.00094742400064929,0.00094735095862697,-0.00094886758247416,0.0009460464041012,-0.00094493905759779,0.00094994719900376,-0.00076777841423101,0.00077688730198097,-0.00077477111079698,0.00077014383783781,0.67697638753338,131688,2924,0.0033324582352255,0.007547439596306,0.0033325729518191,24.418335321129,0.00011054668256903,0.00011054668256903,0.00011054668256903,3121035.9753117,0.014314560269566
17419200,0.99821155931991,0.015502226218388,0.0043287649848303,0.0068445668182561,0.0043288944153019,-0.00079528973695743,0.00079437358830936,3.1392274608729e-06,-4.1737808022006e-06,-2.8262373939004e-06,1.7121143565756e-06,-0.00094074359784391,0.00094120574574567,-0.00094333201973131,0.00093859020529473,-0.00093939313584663,0.00094242910061908,-0.00094170457923571,0.00094005235874599,-0.00076352139115612,0.00077082223635814,-0.00076995096611205,0.00076423318601137,3.0676201727208e-06,-1.4221513703903e-06,6.7548303608952e-06,-5.0890910050892e-06,-0.0018120283161884,0.0018137125587667,-0.0020431972804805,0.002050179162398,-0.0020470969614225,0.0020463502129775,-0.0020444639045979,0.0020487703382643,-0.0020485137715876,0.0020447082789763,-0.0015301804657828,0.0015421089961743,-0.0015420282109952,0.0015303469413344,-0.0015348379028058,0.0015372837375535,-0.0015397602963031,0.0015327882352887,-4.6545272262965e-06,2.7167078852152e-06,-0.00079571148431912,0.00079401464284945,-6.7295043579693e-06,4.9357468145611e-06,-0.00094489798099772,0.00093694341151217,-0.00094095206696737,0.00094086022066358,-0.0009424219802549,0.00093955338990729,-0.00093849809210701,0.00094341433713715,-0.00076243033810992,0.00077137827589168,-0.00076935147502079,0.00076472921461482,0.6939400382725,131688,2924,0.0033088640419544,0.0075240038432983,0.0033089950870814,21.980202011767,9.1041616094137e-05,9.1041616094137e-05,9.1041616094137e-05,3083799.6049535,0.014242929997404
18419200,0.99852514635587,0.015506700641836,0.0043300463759574,0.0068464784608608,0.0043301758050177,-0.00078758332124,0.00078666697059564,3.0596678519483e-06,-4.1023123396589e-06,-2.8308844479834e-06,1.7231962388323e-06,-0.00093390450624115,0.00093431697191041,-0.00093645255659782,0.000931753919217,-0.00093255692843265,0.00093554618352395,-0.000934825012562,0.00093323167706,-0.00075554280013698,0.00076268568546215,-0.00076181595607097,0.00075626511699621,3.1209000705669e-06,-1.3846115367776e-06,6.7468490692648e-06,-4.9848334654137e-06,-0.0018051834001179,0.0018069649255195,-0.0020354903902683,0.0020425407761145,-0.0020393384400436,0.0020387442544135,-0.0020367525222815,0.0020411263011486,-0.0020407548828882,0.0020370824516571,-0.0015241038202117,0.0015360267348539,-0.0015358255751542,0.001524309940459,-0.001528679048863,0.0015312754856043,-0.0015336090594906,0.0015267480902014,-4.5874223918075e-06,2.6322105127039e-06,-0.00078801143438533,0.00078630123666915,-6.6727458602385e-06,4.8796693338749e-06,-0.00093800140115464,0.00093011915629852,-0.00093409079221808,0.00093398765487062,-0.00093557228652473,0.00093267459263476,-0.00093169147916625,0.00093650240421896,-0.00075448423299284,0.00076322973271683,-0.00076124014159712,0.00075672389075873,0.68267067337403,131688,2924,0.0032768636535808,0.0074958772786784,0.0032769938333748,17.477991088751,5.5023928710007e-05,5.5023928710007e-05,5.5023928710007e-05,2980104.8101729,0.014149502636027
19419200,0.99878480241456,0.015510630003176,0.0043311857343289,0.0068481291071338,0.0043313151617129,-0.00078586312771876,0.00078495254368612,3.0455345639272e-06,-4.081874614139e-06,-2.8528599486381e-06,1.7516349525757e-06,-0.00093209669609218,0.00093248992960529,-0.00093463162778006,0.00092993693872329,-0.00093073687205394,0.00093373301993818,-0.00093299274334575,0.00093142869902158,-0.00075394886130752,0.00076107935959914,-0.00076019108419244,0.0007546948356067,3.3109214909762e-06,-1.2393348580932e-06,6.9200205692851e-06,-4.8128119856917e-06,-0.0018056035714525,0.0018077240582345,-0.0020369455388679,0.0020443465673872,-0.0020407972529721,0.002040549910627,-0.0020382221883495,0.0020429188576059,-0.0020422285795668,0.0020388755740029,-0.0015234817997314,0.0015357359508904,-0.0015352027606561,0.0015240193119451,-0.0015280353716052,0.0015310136467835,-0.0015330119159647,0.0015264392530528,-4.5674963938273e-06,2.6177011214013e-06,-0.00078629101535448,0.00078458670191601,-6.6697030602073e-06,4.8833517425505e-06,-0.00093617691523147,0.00092831118775527,-0.00093226339609888,0.00093217774431544,-0.00093375925799401,0.00093085489194524,-0.00092987455714377,0.00093468039979079,-0.00075289794673277,0.00076161151839883,-0.00075962161643815,0.00075513980138377,0.72158242944382,131688,2924,0.0032697417361721,0.007498321165386,0.0032698712357533,17.551568050536,5.5612544404289e-05,5.5612544404289e-05,5.5612544404289e-05,2957385.4197379,0.014137530827416
20419200,0.99901077490186,0.015514086705123,0.0043321903793596,0.0068495765209737,0.0043323198047897,-0.00078647983174272,0.00078557643508674,3.0225949705905e-06,-4.0515014870726e-06,-2.8697083106187e-06,1.7766870585741e-06,-0.00093533163015721,0.00093570126254827,-0.00093784884179612,0.00093316607037567,-0.00093395964183412,0.00093695797113135,-0.00093619797574357,0.00093467136053279,-0.00075421552158811,0.00076131498705285,-0.00076040552959768,0.00075498266642583,3.3379255161733e-06,-1.2535964290889e-06,6.9710901765132e-06,-4.8490468621108e-06,-0.0018126373474334,0.00181477198495,-0.0020422879984795,0.0020497444672888,-0.0020461674493708,0.0020459191790782,-0.0020435775652452,0.002048303881508,-0.002047612142756,0.0020442313548149,-0.0015315563982054,0.0015438990937778,-0.0015433629643419,0.0015320931779653,-0.0015361407872919,0.0015391453971416,-0.0015411591455584,0.0015345282910514,-4.5371033476688e-06,2.5947589919403e-06,-0.00078690754640323,0.00078521051127882,-6.7085786349157e-06,4.9312821077054e-06,-0.00093940239021493,0.00093153276577445,-0.00093545994613328,0.00093542740322426,-0.00093700256028616,0.00093405834826108,-0.00093308890505174,0.00093791274755456,-0.0007531566098609,0.00076185443283243,-0.00075982801864394,0.00075543453346748,0.72910480578249,131688,2924,0.0032723519949073,0.0075273730692865,0.003272480969484,18.597312354036,6.3978498832292e-05,6.3978498832292e-05,6.3978498832292e-05,2888637.9901032,0.014172314806549
21419200,0.99916450792284,0.015516376268678,0.0043328547515684,0.0068505373412734,0.0043329841758356,-0.00078004519139824,0.00077913381546005,2.962958999062e-06,-3.9974985033047e-06,-2.8506344658104e-06,1.7450924521123e-06,-0.00092921591558518,0.00092955304944106,-0.00093169079149407,0.00092705461191269,-0.00092785444371366,0.0009307946830687,-0.00093005301533502,0.00092854041013445,-0.00074792981918489,0.00075489896986893,-0.00075400726745674,0.00074866509140135,3.1491880057587e-06,-1.3956993484616e-06,6.7667423588529e-06,-4.9843504632671e-06,-0.0018064333095744,0.0018082312975273,-0.002035892240422,0.0020429727187115,-0.0020397527879082,0.0020391716233123,-0.0020371694651765,0.0020415472923654,-0.0020411836953997,0.0020375084410266,-0.0015255731145844,0.0015375213810523,-0.0015373247365127,0.0015258131148484,-0.0015301355601496,0.0015327825753698,-0.0015351128217966,0.0015282214990589,-4.4812624728775e-06,2.5370586081732e-06,-0.00078047196392232,0.00077876808407771,-6.6833733068755e-06,4.8892600993264e-06,-0.0009332386544321,0.0009254248945313,-0.00092932455110737,0.00092930325867449,-0.00093087782510242,0.00092791384804019,-0.00092698949404231,0.0009317460536979,-0.0007468700132001,0.00075543418178504,-0.00075343577597288,0.00074912669830208,0.70951084593275,131688,2924,0.0032456118993345,0.0075010122236134,0.0032457392825469,15.225615260312,3.7004922082494e-05,3.7004922082494e-05,3.7004922082494e-05,2817630.8305406,0.014091342342561
22419200,0.99929176912239,0.015518291741709,0.0043334135701498,0.006851335178465,0.0043335429930945,-0.00077778483515977,0.00077688057856342,2.9493570050148e-06,-3.9788548092358e-06,-2.8645445234244e-06,1.7700472577956e-06,-0.0009264665647262,0.00092678945585305,-0.00092893475449016,0.00092430263847941,-0.00092509678624143,0.00092804285203259,-0.00092728643378343,0.00092580485741754,-0.00074590998110126,0.00075286262433376,-0.00075195678725546,0.00074667266229931,3.3002145444889e-06,-1.2803658211654e-06,6.8879187001718e-06,-4.8327653101201e-06,-0.0018048983718926,0.001806967422944,-0.0020355360235,0.0020428921415983,-0.0020393839426277,0.002039099674587,-0.0020368228155959,0.0020414542872411,-0.0020408250460541,0.0020374153998593,-0.0015229949562371,0.0015351747544849,-0.0015347043935452,0.0015234715504411,-0.0015275204059966,0.0015304803174122,-0.0015325266295732,0.001525876915588,-4.4694835922445e-06,2.5165416876926e-06,-0.00077821753732662,0.00077650968358581,-6.665947477819e-06,4.8754768603873e-06,-0.00093047813108035,0.00092267922421907,-0.00092656874205375,0.00092654220848524,-0.00092812648897809,0.000925156399073,-0.00092424620745372,0.00092897843501697,-0.00074487091681701,0.00075338257205501,-0.00075140012614524,0.00074710669019393,0.71604798214718,131688,2924,0.0032362420145357,0.0074952391486769,0.0032363710221924,14.858990533535,3.4071924268279e-05,3.4071924268279e-05,3.4071924268279e-05,2803211.9415932,0.014066476215295
23419200,0.99940477872709,0.015519963892981,0.004333901416098,0.0068520316386577,0.0043340308382254,-0.00077774826715167,0.00077684685236262,2.9375426213424e-06,-3.966891600806e-06,-2.8684155175953e-06,1.7801962666876e-06,-0.00092727502990847,0.00092758927581019,-0.00092973520478461,0.00092511052846189,-0.00092590231329694,0.00092884664495823,-0.0009280861459551,0.00092661931748526,-0.00074586859426275,0.00075279946103169,-0.00075189218669203,0.00074663967624084,3.4260148306029e-06,-1.1654999941992e-06,7.0379436882621e-06,-4.738822980147e-06,-0.0018081402010428,0.0018104514546918,-0.0020387776426872,0.0020463971638705,-0.0020426418996912,0.0020425857796414,-0.002040067531508,0.00204495592021,-0.0020440863957983,0.0020408935091587,-0.0015259982800466,0.0015384741274511,-0.001537757398665,0.0015266980344494,-0.0015305603115831,0.0015337544548738,-0.0015355726411103,0.0015291366896311,-4.4514868330459e-06,2.5106802300776e-06,-0.00077817667566762,0.00077648034863344,-6.6858235629457e-06,4.9106729775134e-06,-0.00093128123930536,0.00092348364366906,-0.00092735398037006,0.00092736162626263,-0.00092893740646515,0.00092595062029498,-0.00092503986137275,0.00092979267736337,-0.00074481677142832,0.00075333214556093,-0.00075131734585428,0.00074707617738622,0.70404422428322,131688,2924,0.0032361140969003,0.0075091263028503,0.0032362433357378,15.705719502769,4.0845756022149e-05,4.0845756022149e-05,4.0845756022149e-05,2775221.818002,0.014080306165542
24419200,0.99951145896416,0.015521569621386,0.0043343713438477,0.0068526975123642,0.0043345007651738,-0.00077936626248394,0.00077846591461418,2.9519933237471e-06,-3.9772758525153e-06,-2.8765779215138e-06,1.7864365566425e-06,-0.00092901679707973,0.0009293371046264,-0.00093148584947924,0.00092685005354654,-0.00092764171896243,0.00093059841259522,-0.00092983093629826,0.00092835888347009,-0.00074764024519983,0.00075460638284337,-0.00075368908279888,0.00074841524536077,3.4322490610324e-06,-1.1727203227421e-06,7.076674447083e-06,-4.7745896362023e-06,-0.0018129973939432,0.001815308556216,-0.0020446723429237,0.0020523173717094,-0.0020485631088157,0.0020484811454659,-0.0020459663084004,0.0020508729557614,-0.0020500118838042,0.0020467911792062,-0.001529661544347,0.001542208024499,-0.0015414966001775,0.0015303758306277,-0.0015342607125428,0.0015374432263846,-0.0015392922636405,0.0015328144051735,-4.4610827320571e-06,2.5259949228196e-06,-0.00077979198771784,0.00077810235183974,-6.7202433229112e-06,4.9508478388743e-06,-0.000933042845288,0.00092521703811655,-0.00092908705371788,0.00092912109030871,-0.00093069072454427,0.00092769454071491,-0.00092676348368354,0.00093155685206146,-0.00074657485878092,0.00075514718250094,-0.00075310536094016,0.00074887016001615,0.71549404792502,131688,2924,0.003242853184665,0.0075292118622987,0.0032429829530709,17.881578703146,5.8252629625166e-05,5.8252629625166e-05,5.8252629625166e-05,2779982.8737519,0.014114341449915
25419200,0.99960872001678,0.015523107051328,0.0043348233972632,0.0068533308363093,0.0043349528177559,-0.00078120049982574,0.0007803034763207,2.9543361964882e-06,-3.978353008778e-06,-2.8832954927543e-06,1.7993314141438e-06,-0.00093206417704595,0.00093238226108026,-0.00093453501701757,0.00092989459276061,-0.00093068268504692,0.00093365027756333,-0.0009328746145753,0.0009314120034681,-0.00074943094846367,0.00075640600882032,-0.0007554824262198,0.00075021623474589,3.4381404586057e-06,-1.1863336244871e-06,7.1052161351653e-06,-4.8117128628165e-06,-0.0018193527789841,0.0018216568250593,-0.0020508645460179,0.0020585310787654,-0.0020547735870331,0.0020546731521634,-0.0020521635040454,0.0020570803013962,-0.0020562281674684,0.0020529730911363,-0.0015358325569116,0.0015484317405266,-0.0015477285734675,0.0015365182351114,-0.0015404639993713,0.0015436377589974,-0.0015455115375612,0.0015389854372436,-4.4582509222232e-06,2.5321709968979e-06,-0.00078162327466437,0.00077994273110196,-6.746374806865e-06,4.9900645499783e-06,-0.00093609501985552,0.00092825575624104,-0.00093211943204076,0.000932179809158,-0.00093374192240145,0.0009307330467008,-0.00092979522019944,0.00093461871031847,-0.00074835555200294,0.00075696033323389,-0.00075488533056192,0.00075067778001675,0.7506515725457,131688,2924,0.0032505027650676,0.0075554490676083,0.0032506322708463,19.926560985447,7.4612487883573e-05,7.4612487883573e-05,7.4612487883573e-05,2760132.0623966,0.014156475555462
26419200,0.99968846631741,0.015524395553237,0.004335202768405,0.0068538605965904,0.0043353321882413,-0.00078093925217559,0.00078004455680013,2.9332390513532e-06,-3.9556464959955e-06,-2.8885844178614e-06,1.808084681931e-06,-0.0009336843324231,0.00093398475376271,-0.00093613985365651,0.00093151187064222,-0.00093229701564974,0.00093525793401293,-0.00093447509159213,0.00093303350371253,-0.00074908212792374,0.00075602030114315,-0.00075508910522769,0.00074987269777396,3.395783588175e-06,-1.2444676198173e-06,7.058090958035e-06,-4.8678535780555e-06,-0.0018232876299657,0.0018254902386042,-0.0020536344411071,0.0020612074616469,-0.0020575454343988,0.0020573467129868,-0.0020549386003729,0.0020597513684665,-0.0020590046138451,0.0020556432492204,-0.001540502715128,0.0015530034120752,-0.0015524095996925,0.0015410778486007,-0.0015451293225001,0.001548214662037,-0.0015501902859374,0.0015435474994562,-4.4365619007573e-06,2.510095441814e-06,-0.00078136390770695,0.00077968163211031,-6.7519294068033e-06,4.9934225227094e-06,-0.00093769925588283,0.00092987112673224,-0.00093372376414489,0.00093379795375624,-0.00093536096471191,0.00093233354932835,-0.0009314136639708,0.00093622219774599,-0.00074800905461671,0.00075657252978455,-0.00075449467530387,0.0007503327238965,0.76692112584287,131688,2924,0.0032494473854687,0.0075714623679984,0.0032495762687451,20.393280622158,7.8346244977262e-05,7.8346244977262e-05,7.8346244977262e-05,2706940.2363634,0.014170592732489
27419200,0.99975800687692,0.015525476583021,0.0043355202730857,0.0068543066175602,0.0043356496923753,-0.00078200258211401,0.00078112014490213,2.9388543201277e-06,-3.9462552167614e-06,-2.9354830988392e-06,1.8661523552395e-06,-0.00093606245172187,0.00093633791863214,-0.00093851649281405,0.00093386565613612,-0.00093464028098607,0.00093764675627913,-0.00093681583347521,0.00093542308772802,-0.00075042045132974,0.00075740801240551,-0.00075642526521776,0.00075126049566022,3.3713822692549e-06,-1.3750366254898e-06,6.9526560538592e-06,-4.9171893072379e-06,-0.0018285895244044,0.0018306380140048,-0.0020587470431617,0.0020661852823465,-0.0020626424178747,0.0020623432481797,-0.0020600865164623,0.0020646927883972,-0.0020641365552402,0.0020606039546245,-0.0015457639350915,0.001558016632242,-0.0015576180644152,0.0015461622320932,-0.0015502802353742,0.0015533325290994,-0.0015554486410929,0.001548562069127,-4.4404160558694e-06,2.5024429687567e-06,-0.00078243864229802,0.00078074561074352,-6.731435032862e-06,4.9589122032914e-06,-0.00094006184936563,0.00093224192089803,-0.0009361025684743,0.00093615344231727,-0.00093772448383975,0.00093470429596087,-0.00093379450080803,0.00093857566375916,-0.00074938721420768,0.00075792079707329,-0.00075587402270278,0.00075168697740834,0.73788855871034,131688,2924,0.0032539137811899,0.0075930330193568,0.0032540422186704,22.249487837461,9.3195902699688e-05,9.3195902699688e-05,9.3195902699688e-05,2683695.4265488,0.014201534711069
28419200,0.99981516700863,0.015526411477388,0.004335796426189,0.006854689206257,0.0043359258449418,-0.00078221496070353,0.00078133251099681,2.9479432832323e-06,-3.9557408596254e-06,-2.9358004402529e-06,1.8679649838957e-06,-0.00093575593390371,0.00093603601225825,-0.00093821882239277,0.00093355802040033,-0.00093433397604642,0.00093734591721613,-0.00093651410867533,0.00093512185021213,-0.00075097208400821,0.00075797792757082,-0.0007570007463221,0.00075181760352508,3.4667827075033e-06,-1.279427879951e-06,7.0553379197014e-06,-4.8263123743175e-06,-0.0018299655004583,0.0018322056822062,-0.0020613703122041,0.0020690080394938,-0.002065270653335,0.0020651655595997,-0.0020627108136772,0.0020675133776875,-0.0020667686335606,0.0020634096209789,-0.0015460214597529,0.0015584751863774,-0.0015578820852129,0.0015466040925422,-0.0015505495534314,0.0015537880624875,-0.0015557158067136,0.0015490090013207,-4.4519807140581e-06,2.5091278617245e-06,-0.00078265252414059,0.00078095862450133,-6.7369423288562e-06,4.9655201077401e-06,-0.0009397677224602,0.00093193521176969,-0.00093579717454478,0.00093585100928904,-0.00093742471972647,0.0009344026032799,-0.00093348609766385,0.0009382820242546,-0.00074994114478479,0.00075849605338518,-0.00075644409789752,0.00075223818533867,0.77520834846411,131688,2924,0.0032548011368924,0.0075991321317912,0.0032549340721064,23.439579031658,0.00010271663225326,0.00010271663225326,0.00010271663225326,2695491.5866711,0.01420951294889
29419200,0.99986161378769,0.015527084780551,0.0043359931448128,0.0068549690721486,0.0043361225635892,-0.00078332084768745,0.00078243939468386,2.9383585707737e-06,-3.9453112454568e-06,-2.9389140838234e-06,1.8715549620313e-06,-0.00093876575580023,0.00093904056227976,-0.00094121981946378,0.00093656892285254,-0.00093734320492241,0.00094035116156457,-0.00093951807005883,0.00093812775895072,-0.00075190164535257,0.00075888954937425,-0.00075790472945922,0.00075274384392139,3.4627375778674e-06,-1.2901844317471e-06,7.0626506992347e-06,-4.8467618293017e-06,-0.0018357751469861,0.0018380011599663,-0.0020662362773344,0.0020738640746636,-0.0020701439143379,0.0020700093326829,-0.0020675768513379,0.0020723706215045,-0.0020716402236509,0.0020682684557327,-0.0015522209858868,0.0015646927415974,-0.0015641144593019,0.0015527939341505,-0.0015567623115619,0.0015599871252002,-0.0015619380585885,0.0015552072324564,-4.4370647673744e-06,2.5043175351328e-06,-0.00078375493868856,0.00078206711142757,-6.7478278677108e-06,4.9818919131278e-06,-0.0009427699199434,0.00093494231748076,-0.00093879612513106,0.00093886477479503,-0.00094043316218388,0.00093740363805371,-0.00093648818244017,0.00094128653491977,-0.00075085958583361,0.00075940930059995,-0.00075734366119929,0.00075317561216196,0.68889126614444,131688,2924,0.003259426850177,0.0076230777496931,0.0032595558881698,24.778337395782,0.00011342669916626,0.00011342669916626,0.00011342669916626,2652751.4408408,0.014243199187806
30419200,0.99989856258119,0.015527611130256,0.0043361468240365,0.0068551880636048,0.004336276242615,-0.00078372932490292,0.00078285040288606,2.9716011430785e-06,-3.9757989869179e-06,-2.9392223118741e-06,1.8739744013159e-06,-0.00093583165171204,0.00093612681750873,-0.00093830629737179,0.0009336339053417,-0.00093440548785312,0.00093743958262006,-0.00093660154669666,0.00093519554575568,-0.00075269753194877,0.00075975259969465,-0.00075876373777264,0.00075354461284897,3.3951325781974e-06,-1.3619735354304e-06,6.971822313099e-06,-4.8984995724619e-06,-0.0018342126607168,0.0018362980710023,-0.002068775217495,0.0020762538892543,-0.0020726706499712,0.002072411199265,-0.0020701176678914,0.0020747571649789,-0.0020741676405419,0.0020706677506214,-0.0015470977519077,0.0015593849879709,-0.0015589511093706,0.0015475294557459,-0.0015516083339817,0.0015547071722444,-0.0015567858213542,0.0015499252744337,-4.4678636338887e-06,2.5372943809793e-06,-0.00078416341327853,0.0007824780821316,-6.7276526830778e-06,4.9632865529995e-06,-0.0009398478957559,0.00093201459018169,-0.0009358883965445,0.00093592612124527,-0.00093748967515737,0.00093449756517706,-0.00093355962520866,0.00093836858296815,-0.00075166453393761,0.00076026622076952,-0.00075821216932353,0.00075397127945736,0.67663456806431,131688,2924,0.0032611147871125,0.007616417382022,0.0032612437323333,26.129009144291,0.00012423207315433,0.00012423207315433,0.00012423207315433,2728606.4946848,0.01423982987171
31419200,0.99992847315279,0.015528068703295,0.0043362814055686,0.006855376473831,0.0043364108238956,-0.00078611096661322,0.00078523073882273,2.9880894063192e-06,-3.9938076382858e-06,-2.9346166996473e-06,1.868096700272e-06,-0.00093818811203469,0.00093849710357836,-0.00094067436686158,0.00093599282943328,-0.00093676565808892,0.00093980631883384,-0.00093897323114613,0.00093755089634937,-0.00075511936288187,0.00076220296604514,-0.00076121966591814,0.00075596126902436,3.4017654683787e-06,-1.3444700494674e-06,7.0101447247115e-06,-4.9121948866789e-06,-0.0018393529836717,0.0018414626209876,-0.0020748560137763,0.0020823719461074,-0.0020787678551225,0.00207851190553,-0.0020761946950344,0.0020808790690104,-0.0020802614423214,0.0020767720042358,-0.0015511167955429,0.0015634842538781,-0.0015630208056764,0.0015515752312172,-0.0015556686309079,0.0015587643365939,-0.0015608357795291,0.0015539920849586,-4.4810353659813e-06,2.5586137759655e-06,-0.00078654029314563,0.00078486319279512,-6.7486839723125e-06,4.993850280017e-06,-0.00094222175563082,0.0009343678757818,-0.00093824517200907,0.00093829613027486,-0.00093985211639305,0.00093686208480912,-0.00093590481611393,0.00094075013164775,-0.00075407112096756,0.00076273206451523,-0.00076065245696239,0.00075640255606209,0.72615477790923,131688,2924,0.0032710191676608,0.0076377250180934,0.0032711481438812,28.436007460712,0.00014268805968569,0.00014268805968569,0.00014268805968569,2743297.2633286,0.014281532421406
32419200,0.99995032801819,0.015528419783011,0.0043363849809411,0.0068555204030161,0.0043365143990541,-0.0007870862293144,0.00078620919510009,2.9701793151104e-06,-3.9734285711896e-06,-2.948320097865e-06,1.8868325044064e-06,-0.0009421035101453,0.00094239266861061,-0.0009445782124139,0.00093990172414648,-0.00094067093636833,0.00094371221643957,-0.00094286490620683,0.00094146836582739,-0.00075562785428785,0.00076268537639132,-0.00076168893544327,0.00075648013409831,3.3798468339182e-06,-1.399434101657e-06,6.9969239478913e-06,-4.97701001387e-06,-0.0018457683165012,0.0018478013595049,-0.002078901297621,0.0020863663519451,-0.0020828287750904,0.0020824905798699,-0.0020802500885579,0.0020848644052589,-0.0020843334904537,0.0020807422929969,-0.0015593031962197,0.0015716357953856,-0.0015712594390603,0.0015596691069498,-0.0015638695100199,0.0015669059869654,-0.0015690685159353,0.0015621003327902,-4.4609082700551e-06,2.5403561624821e-06,-0.00078751676443089,0.00078584113888674,-6.7729234369375e-06,5.0212729675863e-06,-0.0009461291883484,0.00093827190293144,-0.00094213561088374,0.00094221671029943,-0.00094377318640952,0.00094075351213786,-0.00093980688118209,0.00094465668324075,-0.00075457507401552,0.00076321600090911,-0.00076111710702142,0.00075692356469553,0.76213985037628,131688,2924,0.003275106712128,0.0076640177189941,0.0032752371589184,29.29448690667,0.00014955589525336,0.00014955589525336,0.00014955589525336,2676393.8626384,0.014316527656937
33419200,0.99996551949106,0.01552866667349,0.0043364579078727,0.0068556214397261,0.0043365873258912,-0.00078607039550866,0.00078519879376508,2.9530133360935e-06,-3.9493053412979e-06,-2.9734283124202e-06,1.9164320456126e-06,-0.00094279209832665,0.00094305474946888,-0.00094525148700168,0.00094057646426608,-0.00094134169076391,0.00094439288664276,-0.00094352282508371,0.00094216355749261,-0.00075468711894825,0.00076173176251116,-0.00076070863735891,0.00075556735048929,3.4061455638119e-06,-1.4276937131417e-06,6.8936473404089e-06,-4.8743775731865e-06,-0.0018478322918184,0.0018498641370258,-0.0020798409228406,0.0020872579324929,-0.0020837038203786,0.0020834500855772,-0.0020812083826422,0.0020857362719797,-0.0020852258729425,0.0020816815429013,-0.001562343268162,0.0015744508336754,-0.0015740990236746,0.0015626982049737,-0.0015667373624889,0.0015698919861215,-0.0015719911636536,0.0015650342886578,-4.4551415208617e-06,2.5048988518206e-06,-0.00078651806059883,0.00078481259738163,-6.6884425344335e-06,4.9015399742696e-06,-0.00094677764843712,0.00093897344743513,-0.00094285126555609,0.00094285146503472,-0.00094443432781355,0.00094144130285795,-0.00094053760828491,0.00094527925021487,-0.00075369694061528,0.00076220148422687,-0.0007602007423412,0.00075595133652115,0.77028159860917,131688,2924,0.0032709177073365,0.0076725041377385,0.0032710460247588,29.317262035562,0.00014973809628449,0.00014973809628449,0.00014973809628449,2626207.7970766,0.014316649251143
34419200,0.9999770149046,0.015528846576943,0.0043365109502742,0.0068556952584678,0.0043366403682011,-0.00078774664347749,0.00078687935548087,2.9572336061165e-06,-3.9586054448126e-06,-2.9662200595084e-06,1.9239374706598e-06,-0.00094535912436574,0.00094563284260973,-0.0009478252014696,0.00094315105319758,-0.00094391330926678,0.00094696996537425,-0.00094610683212988,0.00094475372172946,-0.0007566912907452,0.00076373523097382,-0.00076272680013854,0.00075758675975992,3.6143791335369e-06,-1.2154504093235e-06,7.1106643703839e-06,-4.6654225290499e-06,-0.0018527840048357,0.0018552409301247,-0.002084954731282,0.0020928003978217,-0.0020888043634703,0.0020889949258103,-0.0020863124379452,0.0020912794220882,-0.0020903245688588,0.0020871954492601,-0.0015670049994555,0.0015795631362051,-0.0015787538343907,0.001567720989629,-0.0015714207084346,0.0015750008066132,-0.0015766589841718,0.0015701123804274,-4.4607271026072e-06,2.5124645753787e-06,-0.00078819269050762,0.00078649257250656,-6.682389936429e-06,4.9148231722631e-06,-0.00094934532444486,0.00094154411739514,-0.0009454226915368,0.0009454135248919,-0.00094699697123407,0.00094400767240252,-0.00094310854872921,0.00094786033304085,-0.00075570392509424,0.00076422508608485,-0.00076220335272503,0.00075794649716793,0.74169710814432,131688,2924,0.0032779095817746,0.0076938316798169,0.0032780333389567,31.480106692909,0.00016704085354327,0.00016704085354327,0.00016704085354327,2618101.0732708,0.014352464260167
35419200,0.99998603028668,0.015528982800749,0.0043365510101445,0.0068557513626552,0.0043366804279489,-0.0007928513878231,0.00079198132513874,2.9972384910286e-06,-4.003949826098e-06,-2.9644960198591e-06,1.9247915019628e-06,-0.00095039134114971,0.00095069614945502,-0.00095289776425126,0.0009481881545554,-0.00094895612538991,0.00095203085681425,-0.0009511767062285,0.00094979673282795,-0.00076212346409378,0.00076923989758322,-0.00076824812863521,0.00076302690682268,3.9454895858618e-06,-8.7580088509447e-07,7.4737351101933e-06,-4.3441291607236e-06,-0.0018613089841762,0.0018644432109353,-0.0020948546231058,0.0021033882481091,-0.0020987125124231,0.0020995691929489,-0.0020962048072922,0.0021018704427637,-0.0021002310472042,0.002097750409235,-0.0015740730832132,0.0015873610768318,-0.0015858445721429,0.0015754396069748,-0.0015785271172791,0.0015827652293921,-0.001583753663683,0.0015778630152288,-4.508244526392e-06,2.5500148658074e-06,-0.00079329766438959,0.00079159863634716,-6.694921157853e-06,4.9423106353753e-06,-0.00095442872433481,0.00094658011041778,-0.00095047459171369,0.00095045582461678,-0.00095205096008756,0.00094907116634458,-0.00094813654514516,0.00095293856871819,-0.00076113311533236,0.00076974602653642,-0.0007677087728872,0.00076337578444454,0.71641844427519,131688,2924,0.0032991238066365,0.0077304813685442,0.0032992566130003,35.925106813898,0.00020260085451118,0.00020260085451118,0.00020260085451118,2663746.9421862,0.014432683183264
36419200,0.99999180322884,0.015529071751669,0.0043365771838421,0.0068557879661713,0.0043367066016556,-0.00079420988399409,0.00079332990776707,3.0143858212649e-06,-4.0192920949578e-06,-2.9394081807928e-06,1.872896527987e-06,-0.0009509576898023,0.00095128365154294,-0.00095346080431721,0.00094876169037545,-0.00094953578537421,0.00095259472251097,-0.00095176067102722,0.0009503219772878,-0.00076346139990348,0.00077059943059402,-0.0007696129619483,0.00076430762711944,3.5283678587626e-06,-1.2236550018659e-06,7.092290551359e-06,-4.7400427097709e-06,-0.0018644369651837,0.0018667960137088,-0.0020996446166018,0.0021073795954659,-0.0021035285756218,0.002103549553203,-0.0021009848928014,0.0021058855069461,-0.0021050237609933,0.0021018081645495,-0.0015753854680526,0.0015879159646713,-0.0015872021885395,0.001576097276582,-0.0015798778547717,0.0015832586879591,-0.0015850533969479,0.0015784791923517,-4.5152004878819e-06,2.5761910207249e-06,-0.00079464751046235,0.0007929538316464,-6.7133980249334e-06,4.9400969925563e-06,-0.00095500353735066,0.00094714574891574,-0.00095105354262258,0.00095104234786814,-0.00095261585664753,0.0009496564969388,-0.00094869637500207,0.00095351407311493,-0.00076243718833102,0.00077110231326828,-0.00076906893821315,0.00076472221709368,0.73065039199848,131688,2924,0.0033047555343991,0.0077418365806323,0.0033048840337108,37.47887558065,0.0002150310046452,0.0002150310046452,0.0002150310046452,2686136.5603131,0.014455617032696
37419200,0.99999521292815,0.015529123469534,0.0043365923777536,0.00685580929624,0.0043367217955408,-0.00079393725859701,0.00079305445560295,2.9973115564396e-06,-4.0073141711017e-06,-2.9293639495889e-06,1.8621365087288e-06,-0.00095164646733568,0.00095196625673961,-0.00095414059664089,0.00094945395059332,-0.00095022966947191,0.00095327054094857,-0.0009524456587244,0.0009510084533188,-0.00076304342875988,0.00077013770101367,-0.00076916322378709,0.00076387731175693,3.4733274003015e-06,-1.2596463744722e-06,7.0439157175998e-06,-4.7870112640002e-06,-0.0018664754575384,0.001868742391753,-0.0021011469052643,0.0021087829315293,-0.0021050278105095,0.002104954501323,-0.0021024804546368,0.0021072960849244,-0.0021065168903,0.0021032182396414,-0.0015777574961701,0.0015902021317148,-0.001589574003521,0.0015783720433876,-0.0015822631530908,0.0015855360989767,-0.0015874164871007,0.0015807728644973,-4.4990188374095e-06,2.5632903168761e-06,-0.00079437269425856,0.00079268102739565,-6.7109940796735e-06,4.9409443126183e-06,-0.00095568102020206,0.00094783643710278,-0.00095173490892159,0.00095173143049999,-0.00095330379424917,0.00095033658853894,-0.00094938663443419,0.00095419443610547,-0.00076201252726709,0.00077064974782946,-0.00076861170340077,0.00076429610719948,0.71959281466577,131688,2924,0.0033036307424268,0.0077500501036434,0.003303760205688,37.680188805261,0.00021664151044208,0.00021664151044208,0.00021664151044208,2656412.7670303,0.014461679260504
38419200,0.99999717284095,0.01552915431523,0.0043366014780418,0.006855821941372,0.004336730895816,-0.00079251594458284,0.00079163168517365,2.9870363452074e-06,-3.996390538312e-06,-2.9255440404328e-06,1.8543077994841e-06,-0.00094994684020997,0.00095026020667208,-0.00095243361117563,0.00094775517051651,-0.00094853200528989,0.00095156201774686,-0.00095074040229366,0.00094930674983299,-0.00076165739210037,0.0007687312840945,-0.00076775872854179,0.00076248877085159,3.3850190022841e-06,-1.3385047445169e-06,6.9544428185886e-06,-4.8682359084065e-06,-0.0018653675475316,0.0018674660986344,-0.0021004997553508,0.0021079651499033,-0.0021043793903785,0.0021041387703437,-0.0021018316121773,0.0021064800468032,-0.0021058661447853,0.0021024054161577,-0.001576234624323,0.0015884997293544,-0.0015880422917492,0.0015766895831627,-0.0015807357973072,0.0015838314100978,-0.0015858814075792,0.0015790824749547,-4.491252242371e-06,2.5498873294685e-06,-0.00079295262349773,0.00079125647832449,-6.710251657945e-06,4.9343486790867e-06,-0.00095397607083847,0.00094613571920391,-0.00095003140346543,0.00095003134902035,-0.00095160520198521,0.00094862983138928,-0.00094769073990715,0.00095248640302392,-0.00076062894688954,0.00076924032217697,-0.00076721180979671,0.00076290997334282,0.74583042896342,131688,2924,0.0032977248939829,0.0077451296484982,0.0032978532293839,37.196433269656,0.00021277146615725,0.00021277146615725,0.00021277146615725,2646382.1511181,0.014444700074031
38880000,0.99999785723466,0.015529165148697,0.0043366046780412,0.0068558263748466,0.0043367340958095,-0.00079227728125669,0.00079140433643129,2.9763813941853e-06,-3.9743470295932e-06,-2.9645035232445e-06,1.9063934915143e-06,-0.00095094597695187,0.00095122953492321,-0.00095342143019826,0.00094873503620872,-0.00094950172679078,0.00095256139912332,-0.0009516990995633,0.00095031657895626,-0.00076131453771242,0.00076839805394966,-0.00076738385287123,0.00076218735011394,3.4088284416804e-06,-1.4056661678733e-06,6.886481071105e-06,-4.8425053169964e-06,-0.0018669725683369,0.0018690290289563,-0.002101078826634,0.002108501370334,-0.0021049287169791,0.002104706734255,-0.0021024397847329,0.0021069860796335,-0.0021064446223245,0.0021029434663005,-0.0015787225333684,0.0015908238338892,-0.0015904401592107,0.001579106540964,-0.0015831047146834,0.0015862783726405,-0.0015883389886619,0.0015814383452604,-4.4811839662924e-06,2.52724605978e-06,-0.00079272601163161,0.00079101703904003,-6.6711106016631e-06,4.8805918568408e-06,-0.00095494536684251,0.00094713456810009,-0.00095103172376297,0.00095099939331634,-0.00095258572468284,0.00094961793013956,-0.00094870192043777,0.00095344353010702,-0.00076032876267281,0.00076886409502524,-0.00076687955920786,0.00076256585952114,0.74998939250576,131688,2924,0.0032967683949003,0.0077516461942517,0.0032968966439304,37.193663116545,0.00021274930493236,0.00021274930493236,0.00021274930493236,2614887.5537906,0.014449383021174
