time,ASR_ext,ASR_strain,ASR_strain_xx,ASR_strain_yy,ASR_strain_zz,disp_x_101,disp_x_102,disp_x_103,disp_x_104,disp_x_105,disp_x_106,disp_x_p1_neg,disp_x_p1_pos,disp_x_p2_neg,disp_x_p2_pos,disp_x_p3_neg,disp_x_p3_pos,disp_x_p4_neg,disp_x_p4_pos,disp_x_p5_neg,disp_x_p5_pos,disp_x_p6_neg,disp_x_p6_pos,disp_y_101,disp_y_102,disp_y_103,disp_y_104,disp_y_105,disp_y_106,disp_y_p1_neg,disp_y_p1_pos,disp_y_p2_neg,disp_y_p2_pos,disp_y_p3_neg,disp_y_p3_pos,disp_y_p4_neg,disp_y_p4_pos,disp_y_p5_neg,disp_y_p5_pos,disp_y_p6_neg,disp_y_p6_pos,disp_y_p7_neg,disp_y_p7_pos,disp_y_p8_neg,disp_y_p8_pos,disp_z_101,disp_z_102,disp_z_103,disp_z_104,disp_z_105,disp_z_106,disp_z_p1_neg,disp_z_p1_pos,disp_z_p2_neg,disp_z_p2_pos,disp_z_p3_neg,disp_z_p3_pos,disp_z_p4_neg,disp_z_p4_pos,disp_z_p5_neg,disp_z_p5_pos,disp_z_p6_neg,disp_z_p6_pos,humidity,ndof,nelem,strain_xx,strain_yy,strain_zz,temp,thermal_strain_xx,thermal_strain_yy,thermal_strain_zz,vonmises,vstrain
2419200,0,0,0,0,0,0,0,0,0,0,0,0,0,0,0,0,0,0,0,0,0,0,0,0,0,0,0,0,0,0,0,0,0,0,0,0,0,0,0,0,0,0,0,0,0,0,0,0,0,0,0,0,0,0,0,0,0,0,0,0,0,0,0,0,0,0,0,0,0,0,0,0,0,0,0
3419200,0.15846859894364,0.0027326334159691,0.00091087780532303,0.00091087780532303,0.00091087780532303,-0.00023846915963528,0.00023916070400246,-1.3446867643413e-06,2.1405237107391e-06,6.4184578121881e-07,-8.1481886009939e-09,-0.00024563597068892,0.00024541192251491,-0.00024446431328644,0.00024658764773622,-0.00024595320741562,0.00024511538961715,-0.00024477961721517,0.00024635281280454,-0.00024105817767284,0.00023821022227352,-0.0002376269347276,0.00024167412005913,1.8875805316324e-06,2.6078494469095e-06,3.8237307440132e-06,8.8750278704284e-07,-0.00026880176775465,0.00027325062268905,-0.00027203502185195,0.0002769453270633,-0.00027291024831009,0.00027595247002927,-0.00027173698056459,0.00027727710191797,-0.00027275226180143,0.00027622318912218,-0.00026150877193844,0.00026948749646505,-0.00026425875891768,0.00026625443718341,-0.00026380722192158,0.00026680334624441,-0.00026344487960299,0.00026739393334478,2.3985456901964e-06,-1.0928720277098e-06,-0.00023816742195139,0.0002394661560498,-7.216331369049e-07,2.1952270244439e-06,-0.0002448200324646,0.00024627949421838,-0.00024384447660687,0.0002471670200078,-0.00024602024267933,0.00024501311928912,-0.00024499037537505,0.00024601486377462,-0.00024004778369931,0.00023893997575116,-0.00023686019105604,0.00024245929484829,0.78396790101979,131688,2924,0.00099456950461463,0.0011286332808386,0.00099457725564243,31.785376270005,0.00016948301016004,0.00016948301016004,0.00016948301016004,2452812.2046189,0.0031226481464876
4419200,0.34898013154619,0.0058666487637036,0.001836797190073,0.0021930674028625,0.001836784170768,-0.00044261806181286,0.00044355990024597,-1.6363672614692e-06,2.8056518997613e-06,1.9896364179299e-06,-1.1959943144416e-06,-0.00046701573085278,0.00046762070121755,-0.00046552716245137,0.0004690901422804,-0.00046828915750645,0.00046638740396062,-0.0004667889999863,0.00046803431267874,-0.00044677222169493,0.00044243720089093,-0.0004423603108615,0.00044695326503635,3.2939251072551e-06,6.7022883276501e-06,6.4831014105813e-06,4.0641657666813e-06,-0.00058991848047843,0.00059991142515252,-0.00061552236395829,0.00062464978924163,-0.00061622010534579,0.00062389493361707,-0.00061423451168663,0.0006260363647596,-0.00061526727530552,0.00062507115563783,-0.00055408238042303,0.00056836668338771,-0.00055647034232382,0.00056537108621842,-0.00055785867824553,0.00056393320363239,-0.00055518931642655,0.00056709603156384,3.0078113450347e-06,-1.448019709169e-06,-0.00044232458889329,0.00044385275322956,-2.9970088548622e-07,2.1205477616591e-06,-0.00046627817866547,0.0004684845942378,-0.00046546542230702,0.00046907844078789,-0.00046785178471374,0.00046675555068455,-0.00046690228809864,0.00046761183849768,-0.00044533142345176,0.00044339501269658,-0.00044139376727425,0.00044793279936466,0.7788204890502,131688,2924,0.001844562194277,0.0024756885388074,0.0018445609101248,33.5986047388,0.0001839888379104,0.0001839888379104,0.0001839888379104,4000002.4531616,0.0061838779796048
5419200,0.54897392890441,0.0090569881115948,0.0027078001602766,0.003641391838395,0.0027077961129232,-0.00062824191760341,0.00062838702416013,-2.3323545425553e-06,2.6663208144867e-06,1.8733248781397e-06,-1.8467685322102e-06,-0.00067530373643523,0.00067504850774494,-0.00067361684874146,0.00067666845509234,-0.00067665848234574,0.00067368732146153,-0.00067494696681447,0.00067546496696166,-0.00062916156178923,0.00062330643906852,-0.00062411548115156,0.00062828008656086,1.7809308234671e-06,5.6987615751597e-06,2.6741091613811e-06,5.2451642356701e-06,-0.00096155641367034,0.0009689982500166,-0.0010315120381423,0.0010363323272052,-0.0010305776546386,0.0010372668994451,-0.0010300633970887,0.0010378333264678,-0.0010293766233431,0.0010385980999977,-0.00087828753703346,0.00088518898335693,-0.00087603670750096,0.00088736669714695,-0.00087933238637429,0.00088389926710148,-0.0008759141269537,0.00088760815570404,2.2353193718247e-06,-2.7748831932577e-06,-0.00062863052412707,0.00062800036152852,9.9418239636486e-07,-1.5066390934403e-06,-0.00067425259115553,0.00067613343513887,-0.00067510765583394,0.00067514478546818,-0.00067600493036828,0.00067428977857002,-0.00067672312713863,0.00067351619972255,-0.00062909004842962,0.00062288703322496,-0.00062455945294689,0.00062793451126098,0.77319620081062,131688,2924,0.0026148458909938,0.0040137331853085,0.0026148498973919,36.266592193148,0.00020533273754518,0.00020533273754518,0.00020533273754518,4917588.9321443,0.0092863663992887
6419200,0.70561979578525,0.0113729580798,0.0032888221437415,0.0047953030732274,0.0032888328628306,-0.00073604144909981,0.00073677410636711,-1.7999716773135e-06,2.7328407893804e-06,1.9252944490529e-06,-1.303321695306e-06,-0.00080935805423402,0.00080969194408788,-0.00080782928976783,0.00081117966715314,-0.00081059090874381,0.00080848677232429,-0.00080903922165019,0.00081012553162879,-0.0007282686026679,0.00072363231385572,-0.00072368964202981,0.00072816515237446,2.5626289707314e-06,5.9742577192765e-06,3.238607132959e-06,5.7720566859794e-06,-0.0012581004206611,0.0012666156066401,-0.0013745469639247,0.0013806214377293,-0.0013736194611559,0.0013815165633925,-0.0013732691046746,0.0013819601331975,-0.001372609367548,0.0013826790577166,-0.0011200879821965,0.0011279754831697,-0.0011178419947401,0.0011300980417151,-0.0011208207860822,0.0011269516859007,-0.0011179318626684,0.0011301374530748,2.5239122202443e-06,-2.0210126533701e-06,-0.00073619350432897,0.00073663100481309,1.5132189462374e-06,-9.4811512467136e-07,-0.00080816622270183,0.00081092219476498,-0.00080902083458416,0.00080997091433963,-0.00080977414617887,0.0008092435265365,-0.00081049337844216,0.00080850038704645,-0.00072803583225936,0.00072335740611892,-0.00072398264248528,0.0007279656343563,0.72914357015483,131688,2924,0.0030643490324621,0.0052456750368107,0.003064367594629,36.738372752574,0.0002091069820206,0.0002091069820206,0.0002091069820206,5090724.8357675,0.011439510769045
7419200,0.83139722529809,0.013169914056981,0.0037309481392134,0.0057080023231931,0.003730963594574,-0.00080822632199085,0.0008089894211586,-1.416465851081e-06,2.3739646446247e-06,1.0952929045068e-06,-4.0840111713009e-07,-0.00090579991358815,0.00090583008580383,-0.00090451316460135,0.00090705190592779,-0.00090644813918915,0.00090521005940133,-0.00090514641951914,0.00090658789712912,-0.00079269172880254,0.00078940177660544,-0.00078882124056774,0.00079322108770131,2.6782392351528e-06,4.3609870152614e-06,2.08139165647e-06,5.4444635141583e-06,-0.0015070483669219,0.0015140871174932,-0.0016704534501446,0.0016753653802973,-0.0016692656592954,0.0016765187091905,-0.001669702710625,0.0016761004773085,-0.0016687856940904,0.001677123362476,-0.0013159981728457,0.0013209965070811,-0.0013129864701116,0.0013240131050427,-0.0013151227040965,0.0013217049344848,-0.0013138924474665,0.0013232371064531,1.9292187663327e-06,-1.8728476763217e-06,-0.00080862743330894,0.00080860437173455,1.6690337674028e-06,-1.610476688846e-06,-0.00090465775716108,0.00090699060739257,-0.00090580433371879,0.00090580124948294,-0.0009060152042235,0.00090557684442158,-0.00090702281491819,0.00090457234693009,-0.00079312600173365,0.00078841814037561,-0.00078979431782359,0.00079235890320278,0.71234622056107,131688,2924,0.0033647351470496,0.0062737406008732,0.0033647684837374,40.760780658639,0.00024128624526911,0.00024128624526911,0.00024128624526911,5002778.1441111,0.013088461156529
8419200,0.907384777579,0.01423548016737,0.0039957320297233,0.0062439951816435,0.0039957529560034,-0.00083410668750525,0.00083508648213766,-1.3571941658579e-06,2.5396721799727e-06,6.2661422996247e-07,3.1144703468629e-07,-0.00095037314656102,0.00095019176452265,-0.00094905173051967,0.00095143953922349,-0.00095064481800713,0.00094994724447366,-0.00094930164463159,0.00095136085515747,-0.00081413487006528,0.0008113739419452,-0.00081016926889422,0.00081527758069348,3.0112298883303e-06,3.5027917572353e-06,1.7220100851664e-06,5.3002114813517e-06,-0.0016580895778383,0.0016646113101875,-0.0018523254819121,0.0018570240121778,-0.0018510709781529,0.0018582808163072,-0.001851955216408,0.0018573707310271,-0.0018509664233927,0.0018584602766312,-0.0014311981419308,0.001435122429476,-0.0014280109052133,0.0014383273298695,-0.0014294342410177,0.0014367558128375,-0.0014293803517584,0.0014370376250989,2.0082570607947e-06,-1.9009210583192e-06,-0.00083458904916062,0.00083461844645708,1.7960736820298e-06,-1.6966735356056e-06,-0.00094904033657364,0.00095154043945389,-0.00095025706615622,0.00095027363799036,-0.00095044347086642,0.00095009849542296,-0.00095151872862006,0.00094901873045795,-0.00081488258324672,0.00081008010355316,-0.00081147945837043,0.00081410224924915,0.69848786935103,131688,2924,0.0034731192136715,0.0068976742768214,0.0034731489298531,41.433084665969,0.00024666467732775,0.00024666467732775,0.00024666467732775,4616110.0889868,0.013940630702529
9419200,0.94946286695147,0.014814289069634,0.004143332721531,0.0065276014229749,0.0041433549251283,-0.0008387185928164,0.00083961464820965,-1.4046568417495e-06,2.4965295345928e-06,7.175837252992e-07,1.4044552668236e-07,-0.00096726246989384,0.00096707761258413,-0.00096594087420735,0.00096832852360257,-0.00096761867834166,0.00096675476947596,-0.00096627313444595,0.00096816855104932,-0.00081613945936246,0.0008131736744349,-0.00081216500812309,0.0008170937454629,2.8373365339252e-06,3.5885730933263e-06,9.2035378211292e-07,6.0023599494044e-06,-0.0017415244832909,0.0017479477362136,-0.0019545240557283,0.0019585416029455,-0.0019527850022411,0.0019602981145262,-0.001954071748999,0.0019589786725634,-0.0019526018504445,0.0019605720022647,-0.0014934348771724,0.0014958539286345,-0.0014887784957758,0.0015005444907203,-0.0014908479366813,0.001498323931599,-0.0014905177555028,0.0014988525898688,1.9381902943327e-06,-1.974270056928e-06,-0.00083923095247991,0.00083911724320539,2.4545352521379e-06,-2.5269587743273e-06,-0.00096574634871273,0.00096861054253012,-0.00096746027957865,0.00096684941013408,-0.00096715150833939,0.0009671654930655,-0.00096872575509472,0.00096559441581539,-0.00081712725426408,0.00081167349224229,-0.00081368818059219,0.00081568032631803,0.67994985054823,131688,2924,0.0034924348593116,0.0072425037579274,0.0034924659117139,41.145479045437,0.0002443638323635,0.0002443638323635,0.0002443638323635,4229335.540031,0.014329589660769
10419200,0.97051384295196,0.01511235853886,0.0042221035296942,0.0066681288804972,0.0042221261286687,-0.00083352103258245,0.00083410167151668,-1.5752844870021e-06,2.3498549831969e-06,1.4887544252342e-06,-9.8743191202318e-07,-0.00096768999347466,0.00096781280424294,-0.0009663676786774,0.00096908172271934,-0.00096865936830609,0.00096686907976091,-0.00096730498036516,0.00096828871920652,-0.00081018249067466,0.00080624740331922,-0.00080618965080827,0.00081018455836343,2.2248466775793e-06,4.8690884801648e-06,2.2826928073201e-06,5.2699453477929e-06,-0.0017776717234057,0.0017847392343468,-0.0020006072180636,0.0020053406524813,-0.0019995338172761,0.0020063938766096,-0.0019995636124435,0.0020064113920605,-0.0019987546790633,0.0020073007801574,-0.0015166932705693,0.0015224185355149,-0.001514048049435,0.0015250275424034,-0.0015166729339553,0.0015222416191592,-0.0015144880468152,0.0015246830077146,2.0974436845586e-06,-1.8390358782143e-06,-0.00083372491583084,0.00083391211002842,1.5892246693408e-06,-1.3177001704088e-06,-0.00096651915587304,0.00096899076885302,-0.00096754957238255,0.00096792680027272,-0.00096792902471156,0.00096753496846327,-0.00096881805542399,0.00096665704632627,-0.00081021057262595,0.00080572034259623,-0.00080674449509454,0.00080974534475146,0.69329668224057,131688,2924,0.0034703920441729,0.0073932667747087,0.0034704217518647,38.100583821415,0.00022000467057132,0.00022000467057132,0.00022000467057132,3942547.8522516,0.014437833198055
11419200,0.98266986515491,0.015281865024011,0.0042677791975882,0.0067462839286455,0.0042678018977777,-0.00083036547951256,0.00083093125841296,-1.587037724525e-06,2.3470978845555e-06,1.5101745610893e-06,-1.0244345754409e-06,-0.00097042406120352,0.0009705483064759,-0.00096909920863464,0.00097182082599814,-0.00097141188142011,0.00096958541389951,-0.00097005552515698,0.00097100760381794,-0.00080621773231495,0.00080224217359491,-0.00080221875700281,0.00080618726966887,2.1996040005044e-06,4.8998177718421e-06,2.3290231633228e-06,5.2268708437432e-06,-0.0018049656888273,0.0018120367285915,-0.0020322697939343,0.0020370164884339,-0.0020312244191056,0.0020380401173416,-0.0020312078063192,0.0020381055755688,-0.002030426954434,0.0020389651133968,-0.0015380321592502,0.0015438692831971,-0.0015354733481978,0.0015463847087715,-0.0015381053156034,0.0015435951933899,-0.0015358670595507,0.0015460906377065,2.1135598081392e-06,-1.8319878405237e-06,-0.00083054979039587,0.00083076118821454,1.5571663413083e-06,-1.2594615507205e-06,-0.00096925493922827,0.00097172401733784,-0.00097025740886145,0.00097069024416184,-0.00097066881151117,0.0009702655215211,-0.00097152846942883,0.00096941889373776,-0.00080620227409343,0.00080175873672866,-0.0008027301441563,0.00080579104004427,0.679065839439,131688,2924,0.0034574075592849,0.0075060436550167,0.0034574370938953,37.628197100395,0.00021622557680316,0.00021622557680316,0.00021622557680316,3703682.1655338,0.01452593763966
12419200,0.98964194021487,0.015381740138122,0.0042952031812571,0.0067913110271444,0.0042952259297204,-0.00082633479890081,0.0008269167542516,-1.5955088129561e-06,2.3752954471224e-06,1.4741792355033e-06,-9.7135846512816e-07,-0.00096873539365075,0.00096883560384759,-0.00096740889644366,0.00097011489249838,-0.00096971006972004,0.0009679052523804,-0.00096833477271784,0.00096934619271077,-0.00080203948709335,0.0007980693635423,-0.00079799555573477,0.0008020680402675,2.2492705758291e-06,4.8583596415333e-06,2.3638820795683e-06,5.2034034988577e-06,-0.0018178135145221,0.0018248992693049,-0.0020487531505723,0.0020535578999124,-0.0020477233525302,0.0020545724018418,-0.002047722000881,0.0020546385518935,-0.0020469745240827,0.0020554704688123,-0.0015467827604317,0.0015526738796404,-0.0015442783237739,0.0015551062659091,-0.0015468299343436,0.0015524188913621,-0.001544706953777,0.0015548219496556,2.1364715007126e-06,-1.8473936587149e-06,-0.00082651943163748,0.00082674103061491,1.5362420095038e-06,-1.2242524755772e-06,-0.00096755292179711,0.00097001882425164,-0.00096853316893387,0.00096901590952173,-0.00096897963351114,0.00096854647457673,-0.00096981657279178,0.00096772864694644,-0.00080203452668428,0.0007975724272571,-0.00079853186768034,0.0008016627375009,0.69355173673158,131688,2924,0.0034407832088582,0.0075591646439712,0.0034408016151984,36.804267200479,0.00020963413760383,0.00020963413760383,0.00020963413760383,3568932.1920111,0.014546096742853
13419200,0.99353590216026,0.015436180154986,0.0043102542708305,0.0068156489177036,0.0043102769664516,-0.00082101965707888,0.0008216044475049,-1.6253921389343e-06,2.4040455898365e-06,1.4298871594549e-06,-9.1988125111539e-07,-0.00096612451666989,0.00096617422681303,-0.00096476983769729,0.00096747748541779,-0.00096705352188936,0.00096527168378881,-0.00096566351752627,0.00096672647998334,-0.00079618585627701,0.00079219119558084,-0.00079208803786511,0.00079623720224636,2.2475812119677e-06,4.7625923986435e-06,2.3265861872535e-06,5.1393251076097e-06,-0.0018246856308718,0.001831669696157,-0.0020567707508861,0.0020615216728321,-0.0020557523857775,0.0020625154492156,-0.0020557681104988,0.0020625490390504,-0.0020550145446592,0.0020633788605992,-0.0015516741249003,0.0015574373863759,-0.0015491932726178,0.0015598721978916,-0.0015516807801871,0.001557238279395,-0.0015496192142554,0.0015595453188091,2.1719888604887e-06,-1.8687283630681e-06,-0.00082120253290008,0.00082143686443935,1.5269839179135e-06,-1.2049158977309e-06,-0.00096490464023894,0.00096739941685163,-0.0009658789966073,0.00096639735120331,-0.00096634993584096,0.00096591047331304,-0.00096718387435911,0.00096509182152717,-0.00079618736416642,0.00079169391826729,-0.0007926157611058,0.00079582724824109,0.67550368751975,131688,2924,0.0034187825688564,0.0075873182491865,0.0034188142992629,34.794597943972,0.00019355678355177,0.00019355678355177,0.00019355678355177,3420843.9707498,0.014530053411271
14419200,0.99578431754848,0.015467223915759,0.0043188944085326,0.0068294123809653,0.004318917126261,-0.00081528553281479,0.00081587143987453,-1.5922574679965e-06,2.3713314988961e-06,1.4284088383415e-06,-9.1741693937004e-07,-0.00096036922989061,0.00096043983038986,-0.00095903649243359,0.00096172331454282,-0.00096129802870272,0.00095954216279263,-0.00095993089181739,0.0009609737441165,-0.00079033054776076,0.00078640603492502,-0.00078630036429475,0.00079037992539582,2.2491656013888e-06,4.7598141481591e-06,2.366497808384e-06,5.0996565231933e-06,-0.0018240686949774,0.001831051828357,-0.0020584484438908,0.0020632250330396,-0.0020574552915713,0.0020641931183118,-0.0020574472316412,0.0020642513014802,-0.0020567188549972,0.0020650550653884,-0.0015486492552424,0.0015544941301925,-0.0015462475883256,0.0015568483373426,-0.0015487072569652,0.0015542384101788,-0.001546648961718,0.0015565446606781,2.1461662775731e-06,-1.8289496767944e-06,-0.00081546208222532,0.00081570913474881,1.4948731008328e-06,-1.158610754711e-06,-0.00095917853460352,0.00096163698464273,-0.00096012847134703,0.00096066126304578,-0.00096060281336303,0.00096016997588118,-0.00096140997446016,0.00095937933642814,-0.00079031196469107,0.0007859279423855,-0.00078680699558531,0.00078998901037641,0.6654391610471,131688,2924,0.0033949968635758,0.0075847749685493,0.0033950264071044,32.643906339658,0.00017635125071727,0.00017635125071727,0.00017635125071727,3347283.5456849,0.014479204813324
15419200,0.99695515525791,0.01548432062916,0.0043237236946054,0.0068368505157079,0.0043237464188463,-0.0008052713792463,0.00080586176953723,-1.5940675848127e-06,2.3751526117507e-06,1.4322676735623e-06,-9.0806526686832e-07,-0.00094995057885047,0.00095001835445424,-0.00094861415678021,0.00095130560371468,-0.00095087639709218,0.0009491202287336,-0.00094950540635455,0.00095055335663524,-0.0007801712002531,0.00077624294194316,-0.0007761407159371,0.00078022350895529,2.2525228280917e-06,4.7576573610907e-06,2.3943788479321e-06,5.0631471443719e-06,-0.0018144123949347,0.0018213908244965,-0.002049668353506,0.0020544614788108,-0.0020486993786213,0.0020554074749435,-0.0020486675934633,0.0020554820621871,-0.0020479562889475,0.002056269793193,-0.0015382009596431,0.0015440853803799,-0.0015358628327235,0.0015463938882809,-0.0015383005584545,0.0015438126037484,-0.0015362270797706,0.0015461058830752,2.1502861146274e-06,-1.8304495554377e-06,-0.00080544847527091,0.0008056992836281,1.4628294958172e-06,-1.126574263267e-06,-0.00094876219359626,0.00095120715454875,-0.00094969128966854,0.00095025776936697,-0.00095018959463163,0.00094974163666758,-0.00095097887397755,0.00094897072067053,-0.00078014422222694,0.0007757762471734,-0.0007766263484434,0.00077984032016992,0.70138893928277,131688,2924,0.003353419262504,0.0075448479817804,0.0033534495706077,27.069722384384,0.00013175777907507,0.00013175777907507,0.00013175777907507,3248946.3702041,0.014354342950808
16419200,0.99770679103193,0.015494920902936,0.0043267265886736,0.0068414449960571,0.0043267493182053,-0.00080020161157553,0.00080083852673285,-1.5556664517789e-06,2.3809490167269e-06,1.4443836065402e-06,-8.8007710142763e-07,-0.00094734494834053,0.00094747143273464,-0.00094603142959805,0.00094874803347155,-0.00094828344779086,0.00094659020704287,-0.00094691722739518,0.00094801632387765,-0.000774463734802,0.00077060886386741,-0.00077044937127271,0.00077457574300185,2.2399969138718e-06,4.7318346916107e-06,2.3405617957361e-06,5.0600831839173e-06,-0.0018150835764596,0.0018220216496329,-0.0020487248948595,0.002053478004053,-0.002047726692638,0.0020544336713907,-0.0020477340598686,0.0020544948614719,-0.0020469983068596,0.0020552903250488,-0.0015399758761985,0.0015457438891289,-0.0015375715023651,0.001548083924131,-0.0015400154525693,0.0015455167736343,-0.0015379479600064,0.0015478102237779,2.1299332209642e-06,-1.8203736987152e-06,-0.00080039962818461,0.00080064558679683,1.4882640113256e-06,-1.155868868538e-06,-0.00094618008198003,0.00094861635370371,-0.00094712956438203,0.00094766457375404,-0.00094758856772158,0.00094717106293597,-0.00094840100674225,0.00094638714366745,-0.00077448126486515,0.00077009991748367,-0.00077097939515326,0.00077415394054626,0.676976387361,131688,2924,0.0033324936404804,0.0075474790435785,0.0033325040344265,24.418335341183,0.00011054668272946,0.00011054668272946,0.00011054668272946,3121052.6136183,0.014314566213101
17419200,0.99821156068628,0.015502240376397,0.0043288179222008,0.0068445818182623,0.0043288406359334,-0.00079455698829075,0.00079512849647998,-1.5819947798239e-06,2.343621745284e-06,1.4120346398544e-06,-9.0215572115776e-07,-0.00094094621062728,0.00094099918611843,-0.00093962376655314,0.00094227205410487,-0.00094186124227895,0.00094010733309086,-0.00094050181067837,0.00094152524841126,-0.00076907500779494,0.00076517694006942,-0.00076508709822383,0.00076911985245625,2.2529884570184e-06,4.7311057949014e-06,2.3704563872163e-06,5.0558861267846e-06,-0.0018094024811444,0.0018163531352868,-0.0020442097177547,0.0020489770316354,-0.0020432405636825,0.0020499311498545,-0.0020432160269474,0.0020499861101769,-0.0020424995937473,0.0020507857826774,-0.0015333534447849,0.001539175521965,-0.0015309988938403,0.0015415112005617,-0.0015334286335058,0.0015389463544478,-0.0015313738628026,0.0015412083340092,2.1291324231434e-06,-1.806382655712e-06,-0.00079472339363049,0.00079497774070407,1.471502968623e-06,-1.1332175345097e-06,-0.00093975150191654,0.00094219023180476,-0.00094068654473033,0.00094124070536183,-0.00094116436900893,0.00094074392219177,-0.00094196191711475,0.00093996513964103,-0.00076904560707673,0.00076471508173092,-0.00076556923993099,0.00076873983196077,0.69394003809457,131688,2924,0.0033089097533434,0.007524033032141,0.0033089422476124,21.980202071738,9.1041616573908e-05,9.1041616573908e-05,9.1041616573908e-05,3083818.0407711,0.014242952348822
18419200,0.99852514748221,0.015506714797005,0.0043300993180493,0.006846493443523,0.004330122035433,-0.00078684125159754,0.000787430075911,-1.5835388182557e-06,2.364155596654e-06,1.4093269410113e-06,-8.9445277328831e-07,-0.00093406120112549,0.00093412666687768,-0.0009327343867424,0.00093540512643821,-0.00093497758056561,0.0009332443442041,-0.00093361615982093,0.00093467029973887,-0.00076101586200041,0.00075712117570036,-0.00075700228348388,0.00076108143366075,2.2596728890248e-06,4.7286284214067e-06,2.3796114346511e-06,5.0615405658419e-06,-0.0018026000117679,0.0018095613839638,-0.0020365471753989,0.0020413351136566,-0.0020355706919274,0.0020422844182881,-0.002035560476431,0.0020423464711809,-0.0020348475173696,0.0020431322586582,-0.0015272308295503,0.0015330803040749,-0.0015248770300779,0.0015353880804335,-0.0015272911533569,0.0015328274211222,-0.0015252680698106,0.0015350914917513,2.1425480246571e-06,-1.8167515860364e-06,-0.00078701444937157,0.00078727156273875,1.4747472524548e-06,-1.1278776710147e-06,-0.00093287409398031,0.00093532066362799,-0.00093380736611072,0.0009343629341096,-0.00093429272876836,0.00093385950514415,-0.00093508479270624,0.0009330860930439,-0.00076099309521634,0.00075664782506965,-0.00075749885738045,0.00076069234733239,0.68267067320174,131688,2924,0.0032769071677134,0.0074959035042597,0.0032769376381369,17.477991042026,5.5023928336205e-05,5.5023928336205e-05,5.5023928336205e-05,2980113.7672973,0.014149516330664
19419200,0.99878480334256,0.015510644154667,0.0043312386731116,0.0068481440893652,0.0043312613921905,-0.0007851263101885,0.00078571090631133,-1.5913118466741e-06,2.368595352476e-06,1.4129955884623e-06,-9.0233513653938e-07,-0.0009322454947204,0.00093230588524089,-0.00093091480012381,0.00093358898968836,-0.00093316554401809,0.00093141923349545,-0.00093179929888246,0.0009328494546764,-0.00075942435354239,0.00075551237210533,-0.00075539800217121,0.00075948279398631,2.2549774363892e-06,4.7352223246e-06,2.3945425078918e-06,5.0508282726746e-06,-0.0018031877068615,0.0018101518873302,-0.0020381783713865,0.0020429719561331,-0.0020372097278744,0.002043913764389,-0.002037186762375,0.0020439874634596,-0.0020364821996972,0.0020447656621909,-0.0015267520352561,0.0015326404788129,-0.0015244240828753,0.0015349197559879,-0.001526839925113,0.0015323562519649,-0.0015248091444205,0.0015346325368465,2.1521245548091e-06,-1.8193351267991e-06,-0.00078529403169649,0.00078555730278014,1.4654049768554e-06,-1.1118595287586e-06,-0.00093105454798621,0.00093350200928248,-0.00093198056877765,0.00093255390912443,-0.0009324778800854,0.00093203740420276,-0.0009332612762491,0.00093127300187852,-0.00075939054992259,0.00075505088330272,-0.00075588824819021,0.00075910856342095,0.7215824292666,131688,2924,0.0032697863353139,0.0074983451407151,0.0032698156181808,17.551568034682,5.5612544277453e-05,5.5612544277453e-05,5.5612544277453e-05,2957394.4818826,0.01413754392679
20419200,0.99901077565796,0.015514100853339,0.0043322433153165,0.0068495915026072,0.0043322660354153,-0.00078575178222304,0.00078632590422739,-1.6075237003812e-06,2.3741679450963e-06,1.4294757222489e-06,-9.3096766802525e-07,-0.00093546995551504,0.00093552823442905,-0.00093413183066031,0.00093681876138408,-0.00093640516658291,0.00093462684081249,-0.00093503146517614,0.00093606424705674,-0.00075969859764517,0.00075574037759856,-0.00075565107254376,0.00075973230527246,2.2359668273455e-06,4.7615967830187e-06,2.3673316956895e-06,5.0836289595609e-06,-0.0018102253372931,0.0018171964435046,-0.0020435617034398,0.00204832819093,-0.0020425737809733,0.0020492899654602,-0.0020425557447451,0.0020493587267799,-0.0020418320053634,0.00205015704845,-0.0015348889818396,0.0015407386512931,-0.0015325027671551,0.0015430788921407,-0.0015349664180208,0.0015404654612999,-0.001532892320523,0.0015427884754819,2.1598744768015e-06,-1.833373563609e-06,-0.00078591724849296,0.00078617439725286,1.491529548299e-06,-1.1451894924421e-06,-0.00093426716330297,0.00093673542316505,-0.00093521320034593,0.00093576826914673,-0.00093569778575776,0.00093526378117216,-0.00093650130911748,0.0009344801774157,-0.00075966536416645,0.00075527801827239,-0.00075614180954174,0.00075935743585913,0.72910480562426,131688,2924,0.0032723963390729,0.0075273980449278,0.0032724252922025,18.597312401887,6.3978499215098e-05,6.3978499215098e-05,6.3978499215098e-05,2888647.4177653,0.014172328601017
21419200,0.99916450856082,0.015516390414736,0.0043329076855838,0.0068505523227904,0.004332930406362,-0.00077929656613177,0.00077990237337147,-1.5724843901213e-06,2.3702598292898e-06,1.4389748467158e-06,-8.9920849941131e-07,-0.0009293120677724,0.0009294020429354,-0.00092798769501115,0.00093068225407461,-0.00093023959251969,0.00092850903419312,-0.00092887717612428,0.00092993221192369,-0.00075329985958529,0.00074941970630363,-0.00074929687430231,0.00075337360456357,2.2310221053542e-06,4.7342530100353e-06,2.3709500173767e-06,5.0347867470004e-06,-0.001803875510007,0.0018108078357676,-0.0020370069016217,0.0020417595204578,-0.0020360353949899,0.0020427028371916,-0.0020360071751896,0.002042778718887,-0.0020352965360621,0.0020435607276397,-0.0015286999281983,0.0015345383400812,-0.0015263664511738,0.0015368347848457,-0.0015287981419293,0.0015342679974095,-0.0015267252648846,0.001536555646196,2.1408537241388e-06,-1.8135909230788e-06,-0.00077947657107174,0.00077973593624206,1.4655077066144e-06,-1.1196896880321e-06,-0.00092813499056556,0.0009305775320473,-0.00092906660250548,0.00092963241506992,-0.00092955428293971,0.00092912166052216,-0.00093034290471031,0.00092835561623025,-0.00075327795505515,0.00074894769174828,-0.00074979195547811,0.0007529863188695,0.70951084579226,131688,2924,0.0032456532656876,0.0075010504869629,0.0032456814011484,15.225615175098,3.7004921400784e-05,3.7004921400784e-05,3.7004921400784e-05,2817685.3418445,0.014091364360577
22419200,0.99929176966364,0.01551830588657,0.004333466500283,0.0068513501649265,0.0043334892213608,-0.00077705382728979,0.00077763304221944,-1.5766181127804e-06,2.3481946502892e-06,1.4183515742629e-06,-9.1318573326133e-07,-0.00092657383911343,0.00092664596006262,-0.00092525516799495,0.00092791790375685,-0.00092749976271822,0.00092575445978508,-0.00092614508418451,0.00092717286198901,-0.00075128459748617,0.00074739616658273,-0.0007472927763922,0.00075133187540375,2.246423145138e-06,4.7429258377823e-06,2.4076264189907e-06,5.0357229697518e-06,-0.0018024573799588,0.0018094205521921,-0.002036745359515,0.0020415422284805,-0.002035785539888,0.0020424744359729,-0.0020357485494993,0.002042563058741,-0.0020350529135328,0.0020433317286469,-0.0015262124267349,0.0015321324453966,-0.0015239117196385,0.0015343837756789,-0.0015263291391736,0.0015318191036523,-0.0015242817973086,0.0015341114165792,2.1374579310357e-06,-1.7988915513279e-06,-0.00077721580228608,0.00077748508036698,1.4546394757102e-06,-1.094653429909e-06,-0.00092539614161487,0.0009278283374149,-0.00092631360099634,0.00092689049665888,-0.00092680804004601,0.00092637576796274,-0.00092758266472064,0.00092562134192407,-0.00075123824540674,0.00074694848923546,-0.00074777011783977,0.00075097119945975,0.71604798200998,131688,2924,0.0032362864398472,0.0074952634901709,0.0032363155045276,14.858990590166,3.407192472133e-05,3.407192472133e-05,3.407192472133e-05,2803219.9550492,0.01406648960965
23419200,0.99940477918197,0.015519978036261,0.0043339543449025,0.0068520466248779,0.0043339770664807,-0.00077701912275647,0.00077759700405808,-1.5725053729217e-06,2.3424612458715e-06,1.4242565136752e-06,-9.2247975228987e-07,-0.00092737264382038,0.00092745374725065,-0.00092605857500784,0.00092872128871974,-0.00092830549042883,0.00092655784196109,-0.0009269534555603,0.00092797294855341,-0.00075123026699527,0.00074734432468705,-0.00074724541367708,0.00075127182640846,2.2420465622971e-06,4.7534720123076e-06,2.395644882368e-06,5.0535416689475e-06,-0.0018058178290536,0.0018127881190747,-0.002040121077444,0.0020449123867242,-0.0020391516553466,0.0020458540236539,-0.002039120175365,0.0020459386991054,-0.0020384159819846,0.0020467166273021,-0.0015293725413259,0.001535273131314,-0.0015270415119495,0.0015375530027108,-0.0015294780862942,0.0015349704577876,-0.0015274172162258,0.0015372808897647,2.1309079101104e-06,-1.7956325131438e-06,-0.00077718182280171,0.00077744807658747,1.4678177831098e-06,-1.1112230777351e-06,-0.00092619775362242,0.00092863238586402,-0.00092712426462688,0.00092768585175514,-0.00092760551650234,0.00092718352537308,-0.00092838978568701,0.00092641949481511,-0.00075118791885643,0.00074689297391462,-0.00074772782506928,0.00075090906579694,0.70404422414915,131688,2924,0.0032361576057106,0.007509155110511,0.0032361861733017,15.705719495687,4.0845755965492e-05,4.0845755965492e-05,4.0845755965492e-05,2775235.9149425,0.014080321491366
24419200,0.99951145933749,0.015521583763282,0.0043344242711481,0.0068527124991052,0.0043344469930292,-0.00077863959151808,0.00077921462602879,-1.5728469698963e-06,2.3407007421429e-06,1.4286873675326e-06,-9.280984227557e-07,-0.00092912053356072,0.00092920073007114,-0.00092780554216766,0.00093046864655378,-0.00093005378160926,0.00092829951496731,-0.00092870263178633,0.00092971435544295,-0.00075302158079533,0.00074913142072667,-0.00074903987882096,0.00075305748895077,2.2333623425087e-06,4.7549353540209e-06,2.3737941483418e-06,5.0693282779313e-06,-0.0018106760593608,0.0018176381390035,-0.0020460400224186,0.002050804642714,-0.0020450591158793,0.0020517594217004,-0.0020450345409261,0.0020518339422724,-0.0020443172781087,0.0020526254226634,-0.0015330881270763,0.0015389506272068,-0.0015307211484822,0.0015412693119225,-0.0015331788242046,0.0015386641217908,-0.0015311080429161,0.0015409818366107,2.1282078655286e-06,-1.7967976760726e-06,-0.00077880341135289,0.00077906542873718,1.4837887006634e-06,-1.1324140989841e-06,-0.00092794071335575,0.00093038499054682,-0.00092888079819604,0.00092942497806794,-0.00092934898935301,0.00092893608076724,-0.00093014639930943,0.00092815869880515,-0.0007529849931197,0.00074867587971624,-0.00074952791371347,0.00075268971791568,0.71549404779265,131688,2924,0.0032428988168274,0.0075292281538638,0.0032429291525163,17.881578696203,5.8252629569624e-05,5.8252629569624e-05,5.8252629569624e-05,2779975.2782365,0.014114349644297
25419200,0.99960872031649,0.015523121191542,0.0043348763236121,0.006853345821879,0.004334899046051,-0.0007804775520962,0.00078104771567229,-1.5711740397505e-06,2.334016611457e-06,1.4332329053305e-06,-9.4040098174189e-07,-0.00093216259770238,0.00093224811503022,-0.00093085153602728,0.00093351224394829,-0.0009331028813303,0.00093134227807381,-0.00093175393261803,0.00093275479199394,-0.000754817636732,0.00075092502815656,-0.00075084186952589,0.00075484410661952,2.2288480737666e-06,4.7671680052849e-06,2.3454655677192e-06,5.1030757618148e-06,-0.0018170266444302,0.0018239960122492,-0.0020522532767786,0.0020570002741742,-0.0020512511886985,0.0020579764268561,-0.0020512430529379,0.0020580361241684,-0.0020505070290613,0.0020588469445365,-0.0015393100051499,0.0015451244521518,-0.0015368850789411,0.0015475008572741,-0.0015393665026175,0.0015448686343158,-0.0015372856313266,0.0015472041515564,2.1202914818719e-06,-1.7963731673478e-06,-0.00078064226771799,0.00078089714981914,1.5107063801033e-06,-1.1671679152271e-06,-0.00093098020697925,0.00093343446750487,-0.00093194066161501,0.00093245442644596,-0.00093238498484698,0.00093198825400418,-0.00093320246802019,0.00093119158191235,-0.00075478947890431,0.00075046065218901,-0.00075134112972216,0.00075446724933498,0.75065157248568,131688,2924,0.0032505468637636,0.0075554753027767,0.0032505762140585,19.926561128836,7.4612489030685e-05,7.4612489030685e-05,7.4612489030685e-05,2760143.0905423,0.014156489992875
26419200,0.99968846655599,0.015524409692342,0.0043352556937125,0.0068538755821772,0.0043352784164523,-0.0007802179544454,0.00078078753091958,-1.5728351784621e-06,2.3348702644047e-06,1.4406164521535e-06,-9.4932100814896e-07,-0.00093376791707401,0.00093385810773483,-0.00093245688705715,0.00093512306206297,-0.0009347146082436,0.00093294754479483,-0.00093336415745202,0.00093436111667296,-0.00075445239049245,0.00075054985631558,-0.0007504725358675,0.00075447515506545,2.2188734383125e-06,4.7738451899273e-06,2.3183171213863e-06,5.122589121731e-06,-0.0018209140053334,0.0018278782332633,-0.0020549964795378,0.0020597197856265,-0.0020539789680751,0.0020607095417574,-0.0020539826834796,0.002060759394677,-0.0020532290089818,0.0020615855202704,-0.0015439487951344,0.0015497082943673,-0.0015414751159215,0.0015521348537677,-0.0015439828238472,0.0015494793738717,-0.0015418804108854,0.0015518331752232,2.1183795571476e-06,-1.8008622595692e-06,-0.00078038493072321,0.00078063461936837,1.5307977847298e-06,-1.1939169700481e-06,-0.00093258151333616,0.00093504663045727,-0.00093355714876181,0.00093405307178975,-0.00093398557181695,0.00093360145710047,-0.00093482068866576,0.00093278816514153,-0.00075443307751785,0.00075007575768031,-0.00075097840752855,0.00075408934083436,0.76692112576563,131688,2924,0.0032494923574677,0.0075714914603071,0.0032495215350717,20.393280605255,7.8346244842044e-05,7.8346244842044e-05,7.8346244842044e-05,2706975.1416869,0.014170612300965
27419200,0.99975800706209,0.01552549072136,0.0043355731972656,0.0068543216038513,0.0043355959202427,-0.00078128862125459,0.00078185544834441,-1.569997093042e-06,2.3289910479412e-06,1.440989666515e-06,-9.499552245677e-07,-0.00093613857651425,0.00093622719884709,-0.00093482828159475,0.0009374903577225,-0.00093708406583762,0.00093531612301343,-0.00093573767035046,0.000936725745337,-0.00075581551388549,0.00075192056947935,-0.00075184865475527,0.00075583137698966,2.2189172448559e-06,4.7746916021196e-06,2.3050876934777e-06,5.1403722035658e-06,-0.0018261365921979,0.0018331033898798,-0.0020600372685474,0.0020647511469919,-0.0020590111953135,0.0020657525523494,-0.0020590216231353,0.002065791565743,-0.0020582597417257,0.0020666296383854,-0.0015491056097359,0.0015548438302398,-0.0015466043414747,0.0015573027767319,-0.0015491256602549,0.0015546302461759,-0.0015470213443932,0.0015569831111801,2.113416252153e-06,-1.7970952998238e-06,-0.00078145540173264,0.00078170261286218,1.5444861820062e-06,-1.2105473179035e-06,-0.00093494919237715,0.00093741987682345,-0.00093593553562312,0.00093641492927639,-0.00093635256316271,0.0009359762386215,-0.00093719618120704,0.00093515433762023,-0.00075579920815878,0.00075144364725534,-0.00075235618694277,0.00075544189193831,0.73788855863044,131688,2924,0.0032539579776716,0.0075930579897235,0.0032539869030809,22.249487793028,9.3195902344225e-05,9.3195902344225e-05,9.3195902344225e-05,2683703.1158581,0.014201548717043
28419200,0.99981516715006,0.01552642561489,0.004335849349671,0.0068547041923947,0.0043358720728248,-0.0007815037059758,0.00078206462947096,-1.5708541632939e-06,2.3251245641586e-06,1.4344519931264e-06,-9.4656745463954e-07,-0.00093583954545065,0.00093591896547629,-0.0009345288033194,0.00093717809434308,-0.00093678020276002,0.00093500812872208,-0.00093543541527632,0.00093641655274437,-0.00075637735754942,0.00075248286566959,-0.00075241254137636,0.00075638767385329,2.2280664663064e-06,4.7725457676182e-06,2.3176402807759e-06,5.1429493277452e-06,-0.001827604611572,0.0018345829838351,-0.002062752991734,0.0020674814815418,-0.0020617346287523,0.0020684872534667,-0.0020617374243152,0.0020685241403457,-0.0020609901531334,0.0020693600069601,-0.0015494456870851,0.001555217556538,-0.0015469632090425,0.0015576603150039,-0.0015494697247882,0.0015549974597783,-0.0015473902997746,0.0015573313313271,2.1135964211704e-06,-1.7931738924591e-06,-0.00078166757809836,0.00078191646766057,1.5400614194682e-06,-1.2026061548386e-06,-0.00093464996468785,0.00093711754061266,-0.00093563077993522,0.00093611318746098,-0.00093605553471758,0.00093567131963633,-0.00093689025104973,0.00093485569917602,-0.00075635302296276,0.00075201353976935,-0.00075292041754052,0.00075600489747947,0.77520834840673,131688,2924,0.003254844356162,0.0075991653408362,0.003254876966548,23.439579026491,0.00010271663221193,0.00010271663221193,0.00010271663221193,2695517.242947,0.014209532505834
