time,ASR_ext,ASR_strain,ASR_strain_xx,ASR_strain_yy,ASR_strain_zz,disp_x_101,disp_x_102,disp_x_103,disp_x_104,disp_x_105,disp_x_106,disp_x_p1_neg,disp_x_p1_pos,disp_x_p2_neg,disp_x_p2_pos,disp_x_p3_neg,disp_x_p3_pos,disp_x_p4_neg,disp_x_p4_pos,disp_x_p5_neg,disp_x_p5_pos,disp_x_p6_neg,disp_x_p6_pos,disp_y_101,disp_y_102,disp_y_103,disp_y_104,disp_y_105,disp_y_106,disp_y_p1_neg,disp_y_p1_pos,disp_y_p2_neg,disp_y_p2_pos,disp_y_p3_neg,disp_y_p3_pos,disp_y_p4_neg,disp_y_p4_pos,disp_y_p5_neg,disp_y_p5_pos,disp_y_p6_neg,disp_y_p6_pos,disp_y_p7_neg,disp_y_p7_pos,disp_y_p8_neg,disp_y_p8_pos,disp_z_101,disp_z_102,disp_z_103,disp_z_104,disp_z_105,disp_z_106,disp_z_p1_neg,disp_z_p1_pos,disp_z_p2_neg,disp_z_p2_pos,disp_z_p3_neg,disp_z_p3_pos,disp_z_p4_neg,disp_z_p4_pos,disp_z_p5_neg,disp_z_p5_pos,disp_z_p6_neg,disp_z_p6_pos,humidity,ndof,nelem,strain_xx,strain_yy,strain_zz,temp,thermal_strain_xx,thermal_strain_yy,thermal_strain_zz,vonmises,vstrain
2419200,0,0,0,0,0,0,0,0,0,0,0,0,0,0,0,0,0,0,0,0,0,0,0,0,0,0,0,0,0,0,0,0,0,0,0,0,0,0,0,0,0,0,0,0,0,0,0,0,0,0,0,0,0,0,0,0,0,0,0,0,0,0,0,0,0,0,0,0,0,0,0,0,0,0,0
3419200,0.15971932813928,0.0026614135266323,0.00088713784221078,0.00088713784221078,0.00088713784221078,-0.00024491856119717,0.00024491855214629,-2.3609380546505e-12,-4.945961071894e-12,5.4741132167496e-12,-1.3091121545811e-11,-0.00024928959465714,0.00024928959384472,-0.00024928959606042,0.00024928959352287,-0.00024928960053523,0.00024928958761897,-0.0002492896020143,0.00024928958737681,-0.00024484324562456,0.00024484323430683,-0.00024484324843228,0.00024484323205317,-6.0947052190274e-12,1.2479055295486e-11,-1.5438584655954e-11,2.153068908311e-11,-0.00025895518565967,0.00025895519178736,-0.00026181671426062,0.00026181670212158,-0.00026181670305006,0.00026181671515852,-0.0002618167089546,0.00026181670896274,-0.00026181669774177,0.00026181672200156,-0.00025530812215871,0.00025530809812116,-0.00025530808673181,0.00025530813524965,-0.00025530811017244,0.0002553081104036,-0.00025530809242445,0.00025530812933746,-6.8442755260514e-12,-4.2593953085442e-12,-0.0002449185631131,0.00024491855023418,1.2428357248688e-11,-2.4164039105054e-11,-0.00024928959425503,0.00024928959405662,-0.00024928960639641,0.00024928958192871,-0.00024928959399089,0.00024928959551383,-0.00024928960613522,0.00024928958339267,-0.00024484325083536,0.00024484322967879,-0.00024484325312129,0.00024484322690034,0.75746877217741,122718,2924,0.0010199727979388,0.0010783956999766,0.0010199727979467,31.872947273627,0.00017018357818901,0.00017018357818901,0.00017018357818901,1102263.5566719,0.0031232100992268
4419200,0.351271105372,0.0057220103294088,0.0018638062390038,0.001994397851378,0.0018638062390269,-0.00046953665699935,0.00046953663733748,-7.0743559770309e-12,-9.6620628699901e-12,5.6135710285599e-12,-2.3216790463576e-11,-0.00048387254507758,0.00048387253761799,-0.00048387254764009,0.00048387253845132,-0.00048387255425986,0.00048387252790307,-0.00048387255698774,0.00048387252891107,-0.00047062010946592,0.00047062008493534,-0.00047062011322875,0.00047062008363344,-6.8804377705843e-12,2.2072091573047e-11,-1.2617462265777e-11,2.7309323498325e-11,-0.00053600709643891,0.00053600711121504,-0.00054951221051895,0.00054951220251131,-0.00054951219995036,0.00054951221822412,-0.00054951220348107,0.00054951221446633,-0.00054951219290671,0.00054951223018427,-0.00051975115711396,0.0005197511422986,-0.00051975112043114,0.00051975118382179,-0.00051975114988063,0.0005197511498783,-0.00051975112360646,0.00051975118038348,-1.2244367656208e-11,-9.6569085248381e-12,-0.00046953665958642,0.00046953663476075,7.9346108972013e-12,-3.1165796115421e-11,-0.00048387254660012,0.0004838725358736,-0.0004838725594565,0.00048387252291571,-0.00048387254751872,0.00048387253851208,-0.0004838725604393,0.00048387252562774,-0.00047062011500027,0.00047062008184477,-0.00047062011640061,0.00047062007817374,0.73992840791513,122718,2924,0.0019545017407514,0.002230855642287,0.0019545017407729,33.606623196848,0.00018405298557478,0.00018405298557478,0.00018405298557478,2174450.1843165,0.0061587598340575
5419200,0.55150441320325,0.0088088254996746,0.0028018718773302,0.0032050817449964,0.002801871877348,-0.00068094286798659,0.0006809428564018,-3.580634702303e-12,-6.1708544128849e-12,7.6109750101584e-12,-1.764630838798e-11,-0.00070932258385995,0.00070932258225258,-0.00070932258609807,0.00070932258276036,-0.00070932259192032,0.00070932257376641,-0.000709322594305,0.00070932257442918,-0.00068258465564328,0.00068258463923706,-0.00068258465907866,0.00068258463760252,-7.0039452107521e-12,1.8479572888204e-11,-1.2105885644092e-11,2.3208969305448e-11,-0.00084348088226553,0.00084348089339854,-0.00087643643740516,0.00087643642845043,-0.00087643642738292,0.00087643644156735,-0.00087643643048866,0.00087643643825255,-0.00087643642045991,0.00087643645137548,-0.00080408766862826,0.00080408765357461,-0.00080408763447171,0.00080408768862163,-0.0008040876621188,0.00080408766029022,-0.00080408763740626,0.00080408768554336,-7.4532619109059e-12,-4.863267283464e-12,-0.00068094286923507,0.00068094285516101,1.0769711757404e-11,-2.3712325267424e-11,-0.00070932258425875,0.00070932258170143,-0.00070932259556637,0.00070932257028957,-0.00070932258481743,0.00070932258398191,-0.00070932259619566,0.00070932257264931,-0.00068258465934202,0.00068258463725695,-0.00068258466112016,0.00068258463395911,0.72499638738019,122718,2924,0.0028333178514536,0.003508272759129,0.0028333178514695,36.277814904154,0.00020542251923324,0.00020542251923324,0.00020542251923324,2954891.3813781,0.0092171689596842
6419200,0.70768055767733,0.010768404225451,0.003365053800787,0.0040382966238627,0.0033650538008017,-0.00079479906624073,0.00079479905718303,-2.522058673427e-12,-5.1135276241658e-12,8.7248168176146e-12,-1.7120644740761e-11,-0.00084027173082553,0.00084027173173098,-0.00084027173262331,0.0008402717317976,-0.00084027173910195,0.00084027172303998,-0.00084027174106421,0.00084027172327953,-0.00079144159581186,0.00079144158159831,-0.0007914415987026,0.00079144157941686,-5.8697573152961e-12,2.0191442356472e-11,-1.1277249193661e-11,2.5192477034178e-11,-0.0010577526083733,0.0010577526223346,-0.001118038718662,0.0011180387119354,-0.0011180387080714,0.0011180387253019,-0.0011180387114006,0.0011180387217717,-0.0011180387008034,0.0011180387351442,-0.00098888137627161,0.00098888136310728,-0.00098888134157667,0.00098888139985873,-0.00098888136936929,0.00098888137025161,-0.00098888134466284,0.00098888139660103,-6.7935431972127e-12,-4.2023090635192e-12,-0.00079479906790173,0.00079479905552813,1.1711078469886e-11,-2.3885633604866e-11,-0.00084027173154799,0.00084027173082806,-0.00084027174321592,0.00084027171904944,-0.00084027173170921,0.00084027173271192,-0.0008402717434472,0.00084027172101197,-0.00079144159947716,0.00079144157859653,-0.00079144160178176,0.00079144157582251,0.59839168540088,122718,2924,0.0033063825701727,0.0043974782086148,0.0033063825701854,36.740412350384,0.00020912329880307,0.00020912329880307,0.00020912329880307,3289035.2151932,0.01107117914788
7419200,0.83279351059904,0.012138095580841,0.0037519124276937,0.0046342707254409,0.0037519124277067,-0.00086979774167088,0.00086979773254174,-2.4250130553834e-12,-5.0171269115702e-12,8.647582342516e-12,-1.6888181342358e-11,-0.00092852191465258,0.00092852191566539,-0.00092852191646556,0.00092852191574684,-0.00092852192283777,0.00092852190709191,-0.00092852192480168,0.00092852190733272,-0.00086167210043761,0.00086167208646532,-0.0008616721032799,0.00086167208423427,-6.1385129432315e-12,1.9604503566461e-11,-1.155197303633e-11,2.4619273898082e-11,-0.0012225446265786,0.0012225446396852,-0.0013099042037478,0.001309904196355,-0.001309904193215,0.0013099042096011,-0.0013099041965818,0.0013099042060839,-0.0013099041860425,0.0013099042193359,-0.0011258709216648,0.0011258709078307,-0.0011258708872578,0.001125870944305,-0.0011258709147377,0.0011258709149668,-0.0011258708903679,0.0011258709410479,-6.3618915015228e-12,-3.7700131228046e-12,-0.00086979774298677,0.00086979773123099,1.1993591398133e-11,-2.3318121584892e-11,-0.00092852191503292,0.00092852191512289,-0.0009285219266086,0.00092852190344021,-0.00092852191519462,0.00092852191700762,-0.00092852192683806,0.00092852190540126,-0.00086167210371493,0.00086167208373785,-0.00086167210607803,0.00086167208102125,0.52694121020036,122718,2924,0.0036179457164617,0.0050807976315055,0.0036179457164723,40.777849910875,0.000241422799287,0.000241422799287,0.000241422799287,3395693.1118641,0.012393014753967
8419200,0.90820228129013,0.012875931039842,0.0039591960067169,0.0049575390263959,0.0039591960067293,-0.00089555200506225,0.00089555199833034,-1.5737697680021e-12,-4.1660950892361e-12,9.0972541421159e-12,-1.5652828140374e-11,-0.00096439276250278,0.00096439276522829,-0.00096439276404008,0.000964392765034,-0.00096439277043736,0.0009643927569265,-0.00096439277212204,0.00096439275688796,-0.00088491708243735,0.00088491707060673,-0.00088491708520733,0.00088491706830296,-5.9758654120019e-12,1.8991558938558e-11,-1.1314161183672e-11,2.3943165905658e-11,-0.0013157633114004,0.0013157633240656,-0.0014202267180526,0.0014202267107876,-0.0014202267075581,0.001420226723459,-0.0014202267108838,0.0014202267199914,-0.0014202267003828,0.0014202267326688,-0.0012008704521117,0.0012008704384699,-0.001200870418532,0.0012008704739929,-0.0012008704452749,0.0012008704455106,-0.0012008704216057,0.0012008704707756,-5.4480084788453e-12,-2.8559195036195e-12,-0.00089555200631366,0.00089555199708353,1.2442485037682e-11,-2.1953561298845e-11,-0.00096439276284719,0.00096439276473254,-0.00096439277411337,0.00096439275335682,-0.00096439276273065,0.00096439276633912,-0.00096439277406607,0.00096439275504121,-0.00088491708555662,0.00088491706789096,-0.00088491708798932,0.00088491706524361,0.47156008474719,122718,2924,0.003725005196102,0.0054670930875239,0.0037250051961116,41.436037207658,0.00024668829766126,0.00024668829766126,0.00024668829766126,3307614.4268158,0.013001100916381
9419200,0.94991946417941,0.013228243823552,0.0040582299412356,0.0051117839410691,0.0040582299412477,-0.00089867525212643,0.00089867524660221,-1.136615087851e-12,-3.7288732654561e-12,9.3036899183652e-12,-1.498125556822e-11,-0.00097452742935867,0.00097452743295019,-0.00097452743075595,0.00097452743261596,-0.00097452743714576,0.00097452742480975,-0.00097452743868739,0.00097452742462826,-0.00088664823298142,0.00088664822226625,-0.00088664823573242,0.00088664821994364,-5.8824019437173e-12,1.8624612324996e-11,-1.1139657808748e-11,2.3502518896533e-11,-0.0013636105212959,0.0013636105336932,-0.001478117883661,0.0014781178764888,-0.0014781178732085,0.0014781178887918,-0.0014781178764857,0.0014781178853777,-0.0014781178660267,0.0014781178976867,-0.0012376719900007,0.0012376719765391,-0.0012376719569739,0.0012376720114156,-0.0012376719832649,0.001237671983475,-0.0012376719600026,0.0012376720082461,-4.9724434776179e-12,-2.3804211180041e-12,-0.0008986752533387,0.00089867524539425,1.2614340022924e-11,-2.1167848226473e-11,-0.00097452742969323,0.00097452743247125,-0.00097452744075295,0.00097452742130116,-0.00097452742943493,0.00097452743393599,-0.0009745274405642,0.000974527422844,-0.00088664823601787,0.00088664821959451,-0.00088664823846748,0.00088664821696424,0.40621133923259,122718,2924,0.0037380806248369,0.0056652878073252,0.0037380806248458,41.14427471976,0.00024435419775808,0.00024435419775808,0.00024435419775808,3179379.0542963,0.013228420363674
10419200,0.97077503174878,0.013418611251404,0.004112663608641,0.0051932840341097,0.004112663608653,-0.00089370703694746,0.00089370703379106,-3.1100863676728e-13,-2.9030868730059e-12,9.809662898738e-12,-1.3817736465871e-11,-0.00097283633723003,0.00097283634255237,-0.00097283633835097,0.00097283634194201,-0.00097283634480408,0.00097283633463599,-0.00097283634606897,0.00097283633417802,-0.00088144736128676,0.00088144735262631,-0.00088144736402731,0.00088144735029368,-5.7116493659737e-12,1.8154405483609e-11,-1.0854809451846e-11,2.2927739514473e-11,-0.0013839718726088,0.0013839718847147,-0.0015033722565028,0.0015033722495505,-0.0015033722460245,0.0015033722612464,-0.0015033722492317,0.0015033722579069,-0.0015033722387468,0.0015033722696087,-0.0012523558603533,0.001252355847226,-0.0012523558280715,0.0012523558811692,-0.0012523558537607,0.0012523558540141,-0.0012523558310362,0.0012523558780671,-4.1182260880787e-12,-1.526377943731e-12,-0.00089370703813082,0.00089370703261184,1.3046006012295e-11,-1.986875375391e-11,-0.00097283633757594,0.00097283634206907,-0.00097283634834307,0.00097283633118878,-0.00097283633703968,0.00097283634325576,-0.00097283634787876,0.00097283633245594,-0.00088144736424866,0.00088144735000774,-0.00088144736670658,0.00088144734738621,0.43665130715676,122718,2924,0.003717523336579,0.0057496076625266,0.0037175233365877,38.087766249746,0.00021990212999797,0.00021990212999797,0.00021990212999797,3113366.8824856,0.013272209813182
11419200,0.98282369015127,0.01352057952998,0.0041418460972058,0.0052368873355561,0.0041418460972177,-0.00088854608267302,0.0008885460779373,-8.42125428058e-13,-3.4340363627669e-12,9.2200449846899e-12,-1.4290319264085e-11,-0.00097305083868663,0.00097305084267158,-0.00097305084000563,0.00097305084225936,-0.00097305084622971,0.00097305083479561,-0.00097305084768748,0.00097305083453054,-0.00087634020245114,0.00087634019264064,-0.00087634020518576,0.00087634019030234,-5.6731456598825e-12,1.8058459238231e-11,-1.0705241844563e-11,2.2723780627629e-11,-0.0014010796280064,0.0014010796400573,-0.0015222587181519,0.001522258711288,-0.0015222587079823,0.0015222587230779,-0.0015222587111201,0.0015222587198124,-0.0015222587009439,0.0015222587316083,-0.0012665454577596,0.0012665454448852,-0.001266545425862,0.0012665454785149,-0.0012665454513096,0.0012665454515269,-0.0012665454287584,0.0012665454754835,-4.6296541995951e-12,-2.0379774911866e-12,-0.00088854608383659,0.0008885460767778,1.2369987193618e-11,-2.0211860387127e-11,-0.00097305083905108,0.00097305084217314,-0.00097305084971154,0.00097305083140243,-0.00097305083871179,0.00097305084355662,-0.00097305084944085,0.00097305083286306,-0.00087634020535126,0.00087634019007182,-0.00087634020781371,0.00087634018745507,0.40445605707229,122718,2924,0.0036961695418517,0.0058204097935692,0.0036961695418602,37.62614127246,0.00021620913017968,0.00021620913017968,0.00021620913017968,2995581.1094899,0.013300699044524
12419200,0.98973344996802,0.013586362703724,0.0041609123378615,0.0052645380279892,0.0041609123378733,-0.00088554568999521,0.00088554568565394,-7.0754039799416e-13,-3.2993759500106e-12,9.2949909138932e-12,-1.4091888473068e-11,-0.00097149781813026,0.00097149782239884,-0.00097149781940078,0.00097149782193823,-0.00097149782563438,0.00097149781456572,-0.00097149782704275,0.00097149781425128,-0.00087337691869236,0.00087337690922695,-0.00087337692142672,0.00087337690688851,-5.6444566245482e-12,1.7965974563574e-11,-1.0590866338656e-11,2.2547762298986e-11,-0.0014092719975966,0.0014092720095854,-0.0015323316378991,0.0015323316311111,-0.0015323316277672,0.0015323316427458,-0.0015323316308513,0.0015323316395374,-0.0015323316207129,0.0015323316511781,-0.0012723690941552,0.0012723690814627,-0.0012723690625227,0.0012723691147893,-0.0012723690878148,0.001272369087991,-0.0012723690653666,0.0012723691118132,-4.4800866217231e-12,-1.888488969723e-12,-0.00088554569114358,0.00088554568450955,1.2378686898436e-11,-1.9913652374016e-11,-0.00097149781850888,0.00097149782188844,-0.00097149782907269,0.00097149781121418,-0.00097149781812028,0.00097149782322254,-0.00097149782875288,0.00097149781262561,-0.00087337692154953,0.00087337690670033,-0.0008733769240117,0.00087337690408353,0.45322610794666,122718,2924,0.0036837463317626,0.0058543268894857,0.0036837463317709,36.800802159216,0.00020960641727373,0.00020960641727373,0.00020960641727373,2956479.2025262,0.013309893850197
13419200,0.99359198684575,0.013619996640228,0.0041706370775768,0.0052787224850627,0.0041706370775886,-0.00087680044175338,0.00087680043844451,-3.591472231518e-13,-2.9507271295428e-12,9.5475966105655e-12,-1.3632759793252e-11,-0.00096666417458923,0.0009666641795733,-0.0009666641757462,0.00096666417899931,-0.00096666418202675,0.00096666417181119,-0.00096666418332085,0.00096666417138269,-0.00086482633298599,0.00086482632437934,-0.00086482633571078,0.00086482632203181,-5.5736644342598e-12,1.7835764129649e-11,-1.043567431496e-11,2.2336793861574e-11,-0.0014137643248148,0.0014137643367473,-0.0015370107026963,0.0015370106960452,-0.0015370106925499,0.0015370107074189,-0.0015370106955812,0.0015370107042661,-0.0015370106854284,0.0015370107156457,-0.0012758362494371,0.0012758362369787,-0.0012758362181014,0.0012758362698872,-0.0012758362432046,0.0012758362433967,-0.0012758362208944,0.0012758362669637,-4.1222926844352e-12,-1.5309498922964e-12,-0.00087680044289243,0.00087680043730944,1.2561023769346e-11,-1.9362998270569e-11,-0.00096666417498756,0.00096666417904608,-0.00096666418542736,0.00096666416849486,-0.00096666417448471,0.00096666418026577,-0.00096666418499394,0.0009666641697925,-0.00086482633579712,0.00086482632187953,-0.00086482633826758,0.00086482631927141,0.4150894025916,122718,2924,0.0036474888079764,0.0058728803696966,0.0036474888079847,34.786205539327,0.00019348964431462,0.00019348964431462,0.00019348964431462,2877080.9777657,0.013255231387438
14419200,0.99582019092729,0.013637941347731,0.0041758366641615,0.0052862680193957,0.0041758366641734,-0.00087133567261258,0.00087133566947513,-2.9976632028586e-13,-2.8912312480547e-12,9.5284549655502e-12,-1.3491462492141e-11,-0.00096094753792527,0.00096094754302096,-0.00096094753905823,0.00096094754242304,-0.00096094754531192,0.00096094753531317,-0.00096094754658134,0.00096094753486005,-0.00085926754991508,0.00085926754149357,-0.00085926755264786,0.00085926753915427,-5.5317310976474e-12,1.7719057665539e-11,-1.0315227406295e-11,2.2144037456032e-11,-0.0014122944949395,0.0014122945067994,-0.001537040470496,0.0015370404639288,-0.0015370404604231,0.0015370404751693,-0.0015370404634052,0.0015370404720687,-0.0015370404533257,0.0015370404833152,-0.0012727945105669,0.0012727944982907,-0.0012727944795351,0.0012727945308886,-0.0012727945044346,0.0012727945046049,-0.0012727944822804,0.0012727945280153,-4.0498419124624e-12,-1.4586132050737e-12,-0.00087133567373848,0.00087133566835313,1.2481112092946e-11,-1.9131544982852e-11,-0.00096094753833734,0.00096094754248202,-0.00096094754867367,0.00096094753203411,-0.00096094753780982,0.00096094754367694,-0.00096094754821574,0.00096094753330717,-0.000859267552696,0.00085926753903988,-0.00085926755515791,0.0008592675364235,0.38312450045663,122718,2924,0.0036248104724286,0.0058667969702192,0.0036248104724367,32.634956999041,0.00017627965599233,0.00017627965599233,0.00017627965599233,2875351.9579495,0.013203107999068
15419200,0.99697993824192,0.013650435150118,0.004179501922984,0.0052914313041383,0.0041795019229959,-0.00085972994112077,0.00085972994060169,5.9152589252532e-13,-1.9996904126688e-12,1.0175612746795e-11,-1.2328774540871e-11,-0.00094929056003198,0.00094929056706137,-0.00094929056085932,0.000949290566158,-0.00094929056724859,0.00094929055952778,-0.00094929056821433,0.00094929055877118,-0.00084766835215804,0.00084766834590923,-0.00084766835489467,0.0008476683435743,-5.3795828044968e-12,1.7376442543961e-11,-1.0060798002468e-11,2.1706107599195e-11,-0.0014035119984072,0.001403512010083,-0.001529017784112,0.001529017777772,-0.001529017773926,0.0015290177884245,-0.0015290177768443,0.0015290177853909,-0.0015290177666518,0.0015290177960494,-0.0012631958570935,0.0012631958451421,-0.0012631958266293,0.0012631958769562,-0.0012631958510905,0.0012631958513233,-0.0012631958293156,0.0012631958741445,-3.1438398843201e-12,-5.5286031637919e-13,-0.00085972994223211,0.00085972993949425,1.3049479347363e-11,-1.7857178409281e-11,-0.00094929056046474,0.00094929056650584,-0.00094929057056186,0.00094929055629373,-0.00094929055963078,0.00094929056739416,-0.00094929056980077,0.00094929055726346,-0.00084766835489628,0.00084766834350597,-0.00084766835735285,0.00084766834088476,0.51103778709309,122718,2924,0.0035766338344801,0.0058304172258663,0.0035766338344882,27.046978035692,0.00013157582428554,0.00013157582428554,0.00013157582428554,2888834.9942669,0.013068631309692
16419200,0.99772509422706,0.013657732253457,0.0041816253143081,0.0052944816248288,0.00418162531432,-0.00084718524633705,0.00084718524374842,-1.1292772660606e-13,-2.7038393289073e-12,9.5036795496281e-12,-1.3070834783205e-11,-0.0009425645624956,0.00094256456781415,-0.00094256456358353,0.00094256456717157,-0.00094256456974094,0.00094256456025675,-0.00094256457096267,0.00094256455975636,-0.00083559659291246,0.00083559658506739,-0.00083559659563397,0.00083559658271792,-5.3653467393989e-12,1.7440601231016e-11,-9.961545975726e-12,2.1685533580658e-11,-0.001405323193649,0.0014053232054031,-0.0015293687254042,0.0015293687191453,-0.0015293687155266,0.0015293687300481,-0.0015293687183908,0.001529368727071,-0.0015293687085068,0.0015293687379798,-0.0012653036101683,0.0012653035984364,-0.0012653035798742,0.001265303630179,-0.0012653036042756,0.0012653036045055,-0.0012653035825059,0.0012653036274229,-3.8466822512036e-12,-1.2560269086519e-12,-0.0008471852474469,0.00084718524264246,1.2294870841312e-11,-1.8511621359513e-11,-0.00094256456295562,0.00094256456723223,-0.00094256457302408,0.00094256455705203,-0.00094256456238196,0.00094256456838062,-0.00094256457251952,0.00094256455827809,-0.00083559659560586,0.00083559658267897,-0.00083559659807651,0.00083559658007245,0.46538451425637,122718,2924,0.0035246104238981,0.0058378326405062,0.0035246104239062,24.407508046773,0.00011046006437418,0.00011046006437418,0.00011046006437418,2779506.2200748,0.012970767184727
17419200,0.99822560169167,0.013663279354001,0.0041832549450132,0.0052967694639632,0.004183254945025,-0.00084140314724484,0.00084140314452438,-1.600711687592e-13,-2.7508840059825e-12,9.4759260647574e-12,-1.3141773674894e-11,-0.0009352968639019,0.00093529686917614,-0.00093529686499351,0.00093529686853731,-0.00093529687116182,0.00093529686160487,-0.00093529687238694,0.00093529686110792,-0.00082967154778722,0.00082967153982132,-0.00082967155052224,0.00082967153748556,-5.3972080895859e-12,1.7451975148256e-11,-9.9350663140732e-12,2.1638206144126e-11,-0.0014009826112046,0.0014009826229379,-0.0015269163024404,0.0015269162961707,-0.0015269162925929,0.0015269163070554,-0.0015269162954204,0.0015269163041178,-0.0015269162855665,0.0015269163150085,-0.0012591773966872,0.0012591773850214,-0.0012591773664845,0.0012591774167102,-0.0012591773908698,0.0012591773910116,-0.0012591773690792,0.0012591774139938,-3.8806485223808e-12,-1.2900720450669e-12,-0.00084140314834145,0.00084140314343163,1.222451925521e-11,-1.8510366486083e-11,-0.00093529686436836,0.00093529686858835,-0.00093529687441334,0.0009352968584318,-0.00093529686379788,0.00093529686973988,-0.00093529687391209,0.00093529685966107,-0.00082967155046214,0.00082967153747859,-0.00082967155291929,0.00082967153485873,0.52521873377382,122718,2924,0.0035006004841175,0.0058198756484077,0.0035006004841256,21.970372473322,9.0962979786576e-05,9.0962979786576e-05,9.0962979786576e-05,2796925.944583,0.012903927386531
18419200,0.99853656578082,0.013666590665339,0.0041842238197416,0.0052981430258439,0.0041842238197534,-0.00082786311821507,0.000827863117123,3.8455616751423e-13,-2.2059027992581e-12,9.9345269353303e-12,-1.2488062115922e-11,-0.00092450406038079,0.00092450406683397,-0.0009245040612893,0.00092450406601226,-0.00092450406757573,0.00092450405932958,-0.00092450406861841,0.00092450405865044,-0.00081630177193947,0.00081630176527662,-0.00081630177467095,0.00081630176293802,-5.3275769226526e-12,1.7337006307534e-11,-9.8122594186808e-12,2.1472946486813e-11,-0.0013961381650182,0.0013961381767087,-0.0015219063038243,0.0015219062976794,-0.0015219062938605,0.0015219063082467,-0.0015219062966546,0.0015219063053439,-0.0015219062866843,0.0015219063159173,-0.0012539502199917,0.0012539502085003,-0.001253950189984,0.0012539502398241,-0.0012539502142421,0.0012539502144218,-0.0012539501925467,0.00125395023714,-3.3329917088029e-12,-7.4277075003992e-13,-0.00082786311930892,0.000827863116033,1.2635814808061e-11,-1.7802695293372e-11,-0.00092450406086267,0.00092450406623263,-0.00092450407080637,0.00092450405617566,-0.00092450406010885,0.00092450406720057,-0.00092450407012324,0.00092450405722283,-0.0008163017745913,0.00081630176295039,-0.00081630177705064,0.00081630176033341,0.50516361584657,122718,2924,0.0034444133421062,0.0057997652638784,0.0034444133421143,17.468055197384,5.4944441579069e-05,5.4944441579069e-05,5.4944441579069e-05,2747545.5953341,0.012769754502945
19419200,0.99879421512713,0.013670147692655,0.0041852748731432,0.0052995979463569,0.004185274873155,-0.00082679322387596,0.00082679321938027,-7.5684643216984e-13,-3.3472905490971e-12,8.9297508529764e-12,-1.380341778565e-11,-0.00092278815580061,0.00092278815971228,-0.00092278815710196,0.00092278815928347,-0.00092278816310231,0.00092278815210248,-0.00092278816453388,0.0009227881518122,-0.00081513942544811,0.00081513941609665,-0.00081513942818624,0.00081513941376467,-5.431388633629e-12,1.7517747962471e-11,-9.8951542392421e-12,2.1628919074898e-11,-0.0013969871729015,0.0013969871846654,-0.0015238959556618,0.0015238959493907,-0.0015238959460573,0.0015238959605014,-0.0015238959488375,0.0015238959576137,-0.0015238959392264,0.0015238959687304,-0.0012536846570893,0.0012536846455405,-0.0012536846270106,0.0012536846772519,-0.0012536846513681,0.0012536846514315,-0.0012536846295571,0.0012536846745856,-4.4675973562027e-12,-1.8773894999806e-12,-0.00082679322496289,0.00082679321829711,1.1614917201664e-11,-1.9086679043733e-11,-0.0009227881562823,0.00092278815910969,-0.00092278816631987,0.00092278814896317,-0.00092278815592123,0.00092278816047039,-0.00092278816602538,0.00092278815039898,-0.00081513942809223,0.00081513941379156,-0.00081513943054554,0.00081513941116856,0.65325215552177,122718,2924,0.0034399728612634,0.0058032923967756,0.0034399728612712,17.551688956141,5.5613511649125e-05,5.5613511649125e-05,5.5613511649125e-05,2742289.0294848,0.012764327815041
20419200,0.99901846550071,0.013673464381583,0.0041862531037946,0.0053009581739817,0.0041862531038064,-0.00082134426465657,0.00082134425944695,-1.0040533213455e-12,-3.5943810621176e-12,8.8400749381023e-12,-1.4218804419403e-11,-0.00092261687830356,0.00092261688172134,-0.00092261687968816,0.00092261688137582,-0.00092261688571147,0.0009226168740037,-0.00092261688722493,0.00092261687379541,-0.00081005819130152,0.00081005818129183,-0.00081005819402874,0.00081005817894921,-5.5219193679772e-12,1.7745794319341e-11,-9.9946222005641e-12,2.1862159773085e-11,-0.0014050364388783,0.0014050364507761,-0.0015307294800253,0.0015307294736688,-0.0015307294704034,0.0015307294849856,-0.0015307294731884,0.0015307294820925,-0.00153072946356,0.0015307294934153,-0.0012619284786062,0.0012619284669716,-0.0012619284482233,0.0012619284990312,-0.0012619284728757,0.0012619284728737,-0.0012619284507713,0.001261928496362,-4.723984803154e-12,-2.1338984726311e-12,-0.00082134426575271,0.00082134425835459,1.1520117656549e-11,-1.9516825585037e-11,-0.00092261687879098,0.00092261688111153,-0.00092261688894072,0.00092261687085395,-0.00092261687851335,0.00092261688255557,-0.00092261688872835,0.00092261687237178,-0.00081005819394583,0.00081005817896486,-0.00081005819640991,0.00081005817635291,0.70012779305903,122718,2924,0.0034174056603097,0.0058365528343788,0.0034174056603176,18.599612989575,6.3996903916603e-05,6.3996903916603e-05,6.3996903916603e-05,2624848.2106583,0.012752325485709
21419200,0.99917094195463,0.013675559305253,0.0041868715145092,0.005301816276223,0.0041868715145211,-0.00080953663654177,0.00080953663481851,1.5514721256504e-13,-2.4348928036845e-12,9.8785179717333e-12,-1.2893435084997e-11,-0.00091206689345219,0.00091206689947644,-0.00091206689443136,0.0009120668987257,-0.00091206690076223,0.0009120668918577,-0.00091206690187325,0.00091206689124718,-0.00079828700427604,0.00079828699700214,-0.00079828700701195,0.00079828699466878,-5.438343656452e-12,1.7567648379224e-11,-9.9129293432837e-12,2.169001814954e-11,-0.0014015293450527,0.0014015293568596,-0.0015284611123091,0.0015284611060593,-0.0015284611023112,0.0015284611168059,-0.0015284611050987,0.0015284611139105,-0.0015284610950942,0.0015284611246631,-0.0012567660170393,0.0012567660054661,-0.0012567659867349,0.0012567660371176,-0.001256766011304,0.0012567660113725,-0.0012567659892879,0.0012567660344439,-3.562871127321e-12,-9.7306772933116e-13,-0.00080953663763615,0.00080953663372785,1.2565923972589e-11,-1.8195265855758e-11,-0.00091206689393769,0.00091206689887089,-0.00091206690398961,0.00091206688870733,-0.00091206689325441,0.00091206689990907,-0.00091206690337534,0.0009120668898231,-0.00079828700692911,0.00079828699468388,-0.00079828700938331,0.0007982869920626,0.64990944923706,122718,2924,0.0033684022988723,0.0058220049894597,0.0033684022988801,15.218210660037,3.6945685280296e-05,3.6945685280296e-05,3.6945685280296e-05,2585900.098963,0.012638345003081
22419200,0.99929721788312,0.013677339843574,0.0041873987476748,0.0053025423482126,0.0041873987476866,-0.00080815536127821,0.00080815535725936,-6.065509537406e-13,-3.1965763944646e-12,9.1691626769771e-12,-1.3737730439412e-11,-0.0009086485240221,0.0009086485283514,-0.00090864852526233,0.00090864852786173,-0.00090864853138017,0.00090864852068654,-0.00090864853274966,0.00090864852033451,-0.00079662379203655,0.00079662378297964,-0.00079662379478001,0.00079662378065385,-5.493826549723e-12,1.7630531164081e-11,-9.9705848172426e-12,2.1753272393637e-11,-0.0014005492365003,0.0014005492483129,-0.0015295227326124,0.0015295227262717,-0.0015295227228724,0.0015295227373733,-0.0015295227256612,0.0015295227344772,-0.0015295227159146,0.0015295227455849,-0.0012540389914187,0.0012540389797781,-0.0012540389611216,0.0012540390116674,-0.0012540389856812,0.0012540389856859,-0.0012540389636749,0.0012540390089943,-4.317259595977e-12,-1.7274687270162e-12,-0.00080815536236526,0.00080815535617601,1.1865396932033e-11,-1.9033031223998e-11,-0.0009086485244996,0.00090864852775354,-0.00090864853460133,0.00090864851754291,-0.00090864852407722,0.00090864852905261,-0.00090864853424546,0.00090864851891701,-0.00079662379469051,0.00079662378067573,-0.00079662379713743,0.00079662377804721,0.66642562144511,122718,2924,0.0033626572651986,0.0058179778495537,0.0033626572652063,14.858153797116,3.4065230376931e-05,3.4065230376931e-05,3.4065230376931e-05,2598786.2101184,0.012622621144463
23419200,0.99940936989425,0.013678830741821,0.0041878389416076,0.0053031528585943,0.0041878389416194,-0.00080771989029396,0.00080771988534314,-9.1908735265932e-13,-3.5090791061369e-12,8.9583603061831e-12,-1.4165644455168e-11,-0.00090887539923506,0.00090887540290008,-0.00090887540058364,0.0009088754025188,-0.00090887540666443,0.00090887539516262,-0.0009088754081413,0.00090887539491799,-0.00079614097934488,0.00079614096950806,-0.00079614098208351,0.00079614096717753,-5.5663739510967e-12,1.7767522155571e-11,-1.0064378657788e-11,2.1908460770386e-11,-0.0014036776672337,0.001403677679108,-0.0015329732170186,0.0015329732105816,-0.0015329732073208,0.0015329732218958,-0.0015329732101223,0.0015329732189861,-0.0015329732004181,0.0015329732303062,-0.0012567531075235,0.0012567530957716,-0.0012567530770257,0.0012567531279469,-0.0012567531017599,0.0012567531017063,-0.0012567530795896,0.0012567531252623,-4.6311361249115e-12,-2.0413826959834e-12,-0.0008077198913824,0.00080771988425837,1.1670980724256e-11,-1.9481111689859e-11,-0.00090887539970648,0.00090887540230692,-0.000908875409894,0.00090887539201176,-0.00090887539939264,0.00090887540371449,-0.00090887540964544,0.00090887539349316,-0.0007961409820018,0.0007961409671919,-0.00079614098445374,0.00079614096456847,0.62875729639221,122718,2924,0.0033608606039782,0.005830926061681,0.0033608606039858,15.707577897846,4.0860623182768e-05,4.0860623182768e-05,4.0860623182768e-05,2568277.669487,0.012632097426323
24419200,0.99951525428841,0.013680315433012,0.0041882789587136,0.0053037575155724,0.0041882789587254,-0.00081207593623083,0.00081207593022777,-1.273863257146e-12,-3.8639445966104e-12,8.731259164923e-12,-1.466448098076e-11,-0.00091206333401929,0.00091206333694959,-0.00091206333548717,0.00091206333668756,-0.0009120633415375,0.00091206332912089,-0.00091206334313304,0.00091206332899487,-0.00080035518847546,0.00080035517774632,-0.00080035519121132,0.00080035517541284,-5.6603459038475e-12,1.7937039535755e-11,-1.0200382914716e-11,2.2116004312426e-11,-0.0014075740479497,0.0014075740598959,-0.0015377995363592,0.0015377995297867,-0.0015377995266875,0.0015377995413598,-0.001537799529515,0.001537799538423,-0.0015377995198367,0.0015377995500021,-0.0012599074941321,0.0012599074822043,-0.0012599074633499,0.0012599075147671,-0.0012599074883157,0.0012599074881929,-0.0012599074659373,0.0012599075120585,-4.9866040597277e-12,-2.3967597365176e-12,-0.00081207593731991,0.00081207592914235,1.1481156258557e-11,-2.0019672004674e-11,-0.0009120633344768,0.00091206333636838,-0.00091206334478194,0.00091206332595698,-0.00091206333428253,0.00091206333789558,-0.00091206334465178,0.00091206332755682,-0.00080035519114336,0.00080035517541376,-0.00080035519359884,0.00080035517279369,0.66255127740754,122718,2924,0.0033789426990206,0.005847084812105,0.0033789426990283,17.886371122464,5.8290968979715e-05,5.8290968979715e-05,5.8290968979715e-05,2569162.7807903,0.012685076731248
25419200,0.99961178207246,0.01368191003242,0.0041887534015187,0.0053044032293705,0.0041887534015306,-0.0008138811050494,0.00081388109914324,-1.2437487157275e-12,-3.8338305611795e-12,8.8299694765966e-12,-1.4704933980243e-11,-0.00091533823930025,0.00091533824234433,-0.00091533824075516,0.0009153382420693,-0.00091533824686271,0.00091533823446969,-0.00091533824844551,0.00091533823433093,-0.00080221826816055,0.00080221825745559,-0.00080221827089381,0.00080221825511961,-5.7058401904988e-12,1.8031012517886e-11,-1.0292721035026e-11,2.2254961596788e-11,-0.001413317017724,0.001413317029717,-0.001543237699569,0.001543237692923,-0.0015432376898093,0.0015432377045582,-0.0015432376926661,0.0015432377015903,-0.0015432376828999,0.0015432377132314,-0.0012657081905284,0.0012657081784656,-0.0012657081595157,0.001265708211253,-0.0012657081846523,0.001265708184516,-0.0012657081621308,0.0012657082085149,-4.9631741431427e-12,-2.373328511149e-12,-0.00081388110614521,0.00081388109805108,1.1616652883934e-11,-2.0112568430539e-11,-0.0009153382397485,0.00091533824177134,-0.00091533825012895,0.00091533823128458,-0.00091533823954153,0.00091533824328584,-0.00091533824998612,0.00091533823287177,-0.00080221827084766,0.00080221825509906,-0.00080221827330558,0.00080221825248152,0.77991302017261,122718,2924,0.0033864557649052,0.0058708499150094,0.0033864557649128,19.931081930845,7.464865544676e-05,7.464865544676e-05,7.464865544676e-05,2526848.0830851,0.012724367418414
26419200,0.99969091196372,0.013683300522106,0.0041891676018489,0.0053049653183963,0.0041891676018607,-0.00080903738360986,0.00080903737898113,-8.1763816693584e-13,-3.4075580420946e-12,9.2200935475446e-12,-1.4225887997122e-11,-0.00091431613508731,0.00091431613908137,-0.00091431613639665,0.00091431613866088,-0.00091431614261946,0.00091431613123818,-0.00091431614405736,0.00091431613095463,-0.00079764693151117,0.00079764692180576,-0.00079764693424413,0.00079764691946969,-5.6746487610227e-12,1.7981527647262e-11,-1.0295425952392e-11,2.2241320601746e-11,-0.001418449468865,0.0014184494808413,-0.001547583076719,0.001547583070097,-0.0015475830667965,0.0015475830815519,-0.0015475830696754,0.0015475830785607,-0.0015475830597464,0.0015475830900216,-0.0012708629583289,0.0012708629462298,-0.0012708629272614,0.0012708629789459,-0.0012708629524083,0.0012708629523267,-0.0012708629298996,0.0012708629761834,-4.5448430552232e-12,-1.9551606976534e-12,-0.00080903738471354,0.00080903737788109,1.2032770230659e-11,-1.9677163910157e-11,-0.00091431613553222,0.00091431613851281,-0.00091431614590371,0.00091431612803367,-0.00091431613517971,0.00091431613988167,-0.00091431614561645,0.00091431612947631,-0.00079764693421715,0.00079764691942929,-0.00079764693667472,0.00079764691681164,0.82922923068302,122718,2924,0.0033663870817465,0.0058920466682235,0.0033663870817541,20.395173347779,7.8361386782229e-05,7.8361386782229e-05,7.8361386782229e-05,2442959.9677993,0.012705202454405
27419200,0.99975993157782,0.013684393638118,0.0041894930507912,0.0053054075365242,0.0041894930508031,-0.00080885708923831,0.00080885708351228,-1.1848141356238e-12,-3.774695417436e-12,8.8918534776269e-12,-1.464688145959e-11,-0.00091518602013467,0.00091518602330814,-0.00091518602156904,0.00091518602301278,-0.00091518602769939,0.00091518601543401,-0.00091518602926067,0.00091518601527392,-0.00079745305383452,0.0007974530432646,-0.00079745305656327,0.00079745304092445,-5.7043989992321e-12,1.8035937720365e-11,-1.0350334333803e-11,2.2320139252714e-11,-0.0014242221715256,0.0014242221835257,-0.0015541193304821,0.0015541193238037,-0.0015541193206586,0.0015541193354541,-0.0015541193235537,0.0015541193324462,-0.0015541193137237,0.0015541193441026,-0.0012755679109762,0.0012755678988006,-0.0012755678798317,0.0012755679316995,-0.0012755679050235,0.0012755679049306,-0.0012755678824856,0.0012755679289212,-4.9135782170877e-12,-2.3239371229632e-12,-0.00080885709034354,0.0008088570824107,1.1726831547464e-11,-2.0124363486568e-11,-0.00091518602057276,0.00091518602274646,-0.00091518603099316,0.00091518601221994,-0.00091518602034522,0.00091518602424027,-0.00091518603082941,0.00091518601378606,-0.00079745305654601,0.00079745304087424,-0.00079745305900757,0.0007974530382607,0.74718867332314,122718,2924,0.0033656599566707,0.0059159405799211,0.0033656599566783,22.256950457229,9.3255603657829e-05,9.3255603657829e-05,9.3255603657829e-05,2395431.5505443,0.012727929889224
28419200,0.99981665010149,0.013685416486458,0.0041897997114787,0.0053058170634887,0.0041897997114905,-0.00081205834754711,0.00081205834236404,-1.0040606924439e-12,-3.5940262318786e-12,9.0626771708451e-12,-1.4450831037031e-11,-0.0009155225345022,0.00091552253811178,-0.00091552253586902,0.00091552253774878,-0.0009155225420576,0.00091552253024647,-0.00091552254355223,0.00091552253001964,-0.00080032997390528,0.00080032996375404,-0.00080032997664399,0.00080032996142363,-5.7066765473016e-12,1.8013175915723e-11,-1.0377155690899e-11,2.2321696793368e-11,-0.0014251639218835,0.0014251639338585,-0.001557132100473,0.0015571320937717,-0.0015571320905674,0.0015571321053533,-0.0015571320934781,0.0015571321023293,-0.0015571320835659,0.0015571321139169,-0.0012748933076568,0.0012748932954192,-0.0012748932764679,0.0012748933283315,-0.0012748933016718,0.0012748933015815,-0.0012748932791376,0.0012748933255375,-4.7294920907925e-12,-2.1397616611618e-12,-0.0008120583486489,0.00081205834126583,1.1925540241755e-11,-1.9949784113966e-11,-0.00091552253492869,0.00091552253756164,-0.00091552254535603,0.00091552252702752,-0.00091552253463361,0.00091552253898793,-0.00091552254512556,0.00091552252852694,-0.00080032997663157,0.00080032996136866,-0.00080032997908367,0.00080032995874544,0.8493285419621,122718,2924,0.0033789329328974,0.0059198890494621,0.0033789329329049,23.444427179106,0.00010275541743285,0.00010275541743285,0.00010275541743285,2422556.5654806,0.012758798599283
29419200,0.99986273570507,0.013686010439324,0.0041899754508364,0.0053060595376391,0.0041899754508482,-0.00081026746900782,0.0008102674637258,-1.03595135975e-12,-3.6258503763433e-12,9.033648934476e-12,-1.4485875348805e-11,-0.00091700684116979,0.0009170068446871,-0.0009170068425522,0.00091700684433974,-0.0009170068487279,0.00091700683682045,-0.00091700685023732,0.00091700683660845,-0.00079869265481821,0.00079869264459257,-0.00079869265755038,0.00079869264225576,-5.7053301178459e-12,1.8018479106655e-11,-1.0390834508315e-11,2.2342564273527e-11,-0.0014311228662684,0.0014311228782505,-0.001562151987538,0.0015621519808302,-0.0015621519776365,0.0015621519924396,-0.0015621519805567,0.0015621519894052,-0.0015621519706486,0.0015621520010206,-0.0012812669317597,0.0012812669194969,-0.0012812669005355,0.001281266952442,-0.0012812669257554,0.0012812669256797,-0.0012812669032147,0.0012812669496372,-4.7658039226674e-12,-2.1761413439051e-12,-0.00081026747011409,0.00081026746262311,1.1906279771326e-11,-2.0004754490725e-11,-0.00091700684159581,0.00091700684413787,-0.00091700685203509,0.00091700683359208,-0.0009170068413163,0.00091700684557971,-0.0009170068518197,0.00091700683510655,-0.00079869265754727,0.0007986926421913,-0.00079869266000538,0.00079869263957423,0.60881578646039,122718,2924,0.0033715322706279,0.0059445160414882,0.0033715322706354,24.783777898859,0.00011347022319088,0.00011347022319088,0.00011347022319088,2348434.3250173,0.012768765339828
30419200,0.99989939394696,0.013686410538269,0.004190094156743,0.0053062222247713,0.0041900941567548,-0.0008198048194959,0.00081980481417944,-1.0467399382546e-12,-3.6369112051188e-12,9.0131433164233e-12,-1.4490040015694e-11,-0.00091879237293114,0.00091879237646388,-0.00091879237430896,0.00091879237611176,-0.000918792380483,0.00091879236860163,-0.00091879238198904,0.00091879236838609,-0.00080768935607027,0.00080768934582214,-0.00080768935881777,0.00080768934350014,-5.7167554746915e-12,1.7992758862979e-11,-1.0419143349381e-11,2.233243346537e-11,-0.0014277690951919,0.0014277691071357,-0.0015623467285385,0.0015623467217917,-0.0015623467186335,0.0015623467334084,-0.0015623467215641,0.0015623467303634,-0.0015623467116525,0.0015623467419861,-0.0012756196198375,0.0012756196075138,-0.0012756195886155,0.001275619640496,-0.001275619613811,0.0012756196137176,-0.0012756195913055,0.0012756196376817,-4.7673809921361e-12,-2.1774465981481e-12,-0.00081980482059272,0.00081980481308616,1.1912304734326e-11,-2.0015931812868e-11,-0.00091879237334202,0.00091879237592901,-0.00091879238378723,0.0009187923653772,-0.00091879237305791,0.00091879237736639,-0.00091879238356785,0.00091879236688783,-0.00080768935881092,0.00080768934343981,-0.00080768936125502,0.00080768934080819,0.51512748248588,122718,2924,0.0034110647564757,0.0059307517577092,0.0034110647564831,26.134523740908,0.00012427618992726,0.00012427618992726,0.00012427618992726,2471602.547317,0.012834865509401
31419200,0.99992907121111,0.013686828869843,0.0041902190571925,0.0053063907554458,0.0041902190572043,-0.00082862536942316,0.00082862536330931,-1.3136005946682e-12,-3.9039614114059e-12,8.8007311326756e-12,-1.4820163460062e-11,-0.000925814191712,0.00092581419464106,-0.00092581419318651,0.00092581419438551,-0.00092581419930243,0.00092581418673817,-0.00092581420090496,0.00092581418661899,-0.00081629103854736,0.00081629102765607,-0.00081629104128883,0.00081629102532767,-5.7544024716604e-12,1.8066426494837e-11,-1.0477203810968e-11,2.2424325246374e-11,-0.0014297864256393,0.0014297864376172,-0.0015640246653429,0.0015640246585374,-0.0015640246554978,0.001564024670319,-0.0015640246584405,0.0015640246672607,-0.0015640246485889,0.0015640246790483,-0.0012785629460912,0.0012785629336934,-0.001278562914755,0.001278562966853,-0.0012785629400396,0.0012785629399236,-0.001278562917456,0.0012785629640269,-5.0354071570619e-12,-2.4452831953357e-12,-0.00082862537052112,0.00082862536221492,1.171663297667e-11,-2.0365937181106e-11,-0.00092581419211686,0.00092581419411068,-0.00092581420261491,0.00092581418350697,-0.00092581419192973,0.00092581419564518,-0.00092581420249164,0.00092581418511384,-0.0008162910412892,0.00081629102526062,-0.00081629104374003,0.00081629102263536,0.66479676253864,122718,2924,0.0034476629591954,0.0059391355960074,0.0034476629592029,28.445480069927,0.00014276384055942,0.00014276384055942,0.00014276384055942,2508964.326139,0.012917491113619
32419200,0.9999507465466,0.013687188931973,0.0041903265727753,0.0053065357864104,0.0041903265727871,-0.00082497502315617,0.00082497501823205,-9.1181706005589e-13,-3.502021571711e-12,9.1629520486929e-12,-1.4364802459263e-11,-0.00092842794710372,0.00092842795091694,-0.00092842794844543,0.00092842795052866,-0.00092842795466241,0.00092842794304683,-0.00092842795613261,0.00092842794279542,-0.00081315559989655,0.00081315558994411,-0.00081315560263267,0.00081315558761063,-5.7166704184663e-12,1.8018934769206e-11,-1.0447947822366e-11,2.2387674836607e-11,-0.0014362054830912,0.0014362054950615,-0.0015674229476203,0.0015674229408666,-0.0015674229376433,0.0015674229524639,-0.0015674229405919,0.0015674229493991,-0.0015674229306085,0.0015674229610023,-0.0012869457187103,0.0012869457063381,-0.0012869456873764,0.0012869457393749,-0.0012869457126474,0.0012869457125815,-0.0012869456900838,0.0012869457365406,-4.6432697248266e-12,-2.0533028024206e-12,-0.00082497502426394,0.00082497501712787,1.2077885881818e-11,-1.9930619233447e-11,-0.00092842794751566,0.00092842795038057,-0.00092842795798651,0.0009284279398026,-0.00092842794719575,0.0009284279517822,-0.00092842795773147,0.00092842794127762,-0.00081315560264562,0.00081315558753047,-0.00081315560510064,0.00081315558490968,0.7835582016357,122718,2924,0.0034325617657847,0.0059656211063053,0.0034325617657922,29.298069701955,0.00014958455761564,0.00014958455761564,0.00014958455761564,2401234.6490043,0.012913755319243
33419200,0.99996581009148,0.013687447782363,0.0041904041288269,0.005306639524697,0.0041904041288387,-0.00081937226692399,0.00081937226271891,-6.7375061223422e-13,-3.2638065774738e-12,9.3494581709118e-12,-1.406254266368e-11,-0.00092649028446813,0.00092649028878244,-0.00092649028572992,0.00092649028831432,-0.00092649029198951,0.00092649028095229,-0.00092649029337948,0.00092649028062074,-0.00080788184343837,0.00080788183406991,-0.00080788184617272,0.00080788183173495,-5.6728642567145e-12,1.7951536416414e-11,-1.0399564476914e-11,2.2318181018419e-11,-0.0014400669980687,0.0014400670100175,-0.0015705885802451,0.0015705885735507,-0.0015705885702117,0.0015705885850092,-0.0015705885731583,0.0015705885819468,-0.0015705885631183,0.0015705885934113,-0.0012906623780021,0.0012906623656856,-0.0012906623467407,0.0012906623985661,-0.001290662371944,0.0012906623719242,-0.0012906623494472,0.0012906623957326,-4.4080922916887e-12,-1.8182901289553e-12,-0.00081937226803467,0.0008193722616118,1.225865827111e-11,-1.9628590070525e-11,-0.00092649028488488,0.00092649028824284,-0.00092649029531427,0.00092649027770571,-0.00092649028448478,0.00092649028956416,-0.00092649029497944,0.00092649027910086,-0.00080788184618755,0.00080788183165244,-0.00080788184864351,0.00080788182903292,0.80945760226261,122718,2924,0.0034093419081304,0.0059815540665932,0.0034093419081378,29.317375146495,0.00014973900117196,0.00014973900117196,0.00014973900117196,2326191.4755456,0.012882869368397
34419200,0.99997721259626,0.013687625513492,0.0041904573819389,0.0053067107496021,0.0041904573819507,-0.00082098832107677,0.00082098831511293,-1.2632375744004e-12,-3.8532986562403e-12,8.8203841517746e-12,-1.473609555769e-11,-0.00092835501351024,0.00092835501650894,-0.00092835501497157,0.00092835501624038,-0.00092835502108208,0.00092835500863003,-0.00092835502266935,0.00092835500849575,-0.00080940453762179,0.0008094045268676,-0.00080940454035057,0.00080940452452699,-5.7175837729169e-12,1.8037732342012e-11,-1.044485656386e-11,2.240345964851e-11,-0.0014454634340416,0.0014454634460303,-0.0015769393556042,0.0015769393488497,-0.0015769393457554,0.0015769393605925,-0.0015769393487023,0.0015769393575302,-0.001576939338847,0.0015769393692791,-0.001294957658794,0.0012949576464376,-0.0012949576274905,0.0012949576795272,-0.0012949576527355,0.0012949576526759,-0.0012949576301962,0.0012949576766949,-4.9963441592332e-12,-2.4065254087713e-12,-0.00082098832218607,0.00082098831400714,1.1730388321159e-11,-2.0300048208675e-11,-0.00092835501392543,0.00092835501597061,-0.00092835502440562,0.0009283550053849,-0.00092835501372474,0.00092835501749136,-0.00092835502426806,0.00092835500697733,-0.00080940454036394,0.00080940452444575,-0.00080940454282583,0.00080940452183204,0.73398852679868,122718,2924,0.0034160644045402,0.0060039012839622,0.0034160644045475,31.489045061008,0.00016711236048806,0.00016711236048806,0.00016711236048806,2295504.6772697,0.012919121981066
35419200,0.99998615619824,0.013687748865112,0.0041904943107045,0.0053067602436917,0.0041904943107163,-0.00083119524898645,0.00083119524106673,-1.920312999359e-12,-4.5106161849011e-12,8.322173382801e-12,-1.5580053216539e-11,-0.0009358818778436,0.00093588187941606,-0.00093588187953022,0.00093588187937258,-0.00093588188552995,0.00093588187142039,-0.00093588188734094,0.00093588187150966,-0.0008192768626846,0.00081927685032802,-0.00081927686540195,0.00081927684797564,-5.8310784527912e-12,1.8254716860342e-11,-1.0586134953785e-11,2.264312132701e-11,-0.0014523839179447,0.0014523839300323,-0.0015854839691561,0.0015854839622508,-0.0015854839594424,0.0015854839743938,-0.0015854839624059,0.0015854839713143,-0.0015854839526856,0.0015854839834633,-0.0013007326086431,0.0013007325961259,-0.0013007325770576,0.0013007326296757,-0.0013007326025507,0.0013007326023984,-0.0013007325797771,0.00130073262683,-5.6521996821207e-12,-3.0621323216066e-12,-0.00083119525009432,0.00083119523996241,1.1256862581163e-11,-2.1166292076402e-11,-0.00093588187824761,0.00093588187888656,-0.00093588188886184,0.00093588186816928,-0.0009358818782724,0.00093588188063292,-0.00093588188894754,0.00093588186998505,-0.00081927686542229,0.00081927684788831,-0.00081927686789676,0.00081927684528687,0.64952121200817,122718,2924,0.003458424256485,0.0060326088021642,0.0034584242564924,35.943761939583,0.00020275009551666,0.00020275009551666,0.00020275009551666,2312814.4357541,0.013034007607474
36419200,0.99999187836285,0.013687831675031,0.00419051916972,0.0053067933355787,0.0041905191697318,-0.0008366396682637,0.00083663966274993,-1.1170741627541e-12,-3.7075383402473e-12,9.0749394561671e-12,-1.4699776167223e-11,-0.00093902588127552,0.0009390258847167,-0.00093902588267569,0.00093902588438673,-0.00093902588891516,0.00093902587676497,-0.00093902589044312,0.00093902587657114,-0.00082449324663063,0.00082449323613809,-0.0008244932493694,0.00082449323380679,-5.8004414475542e-12,1.8177670802282e-11,-1.0580781587915e-11,2.2592212294011e-11,-0.0014534958788507,0.0014534958908928,-0.0015874667111371,0.0015874667042611,-0.0015874667011218,0.0015874667160446,-0.0015874667041015,0.0015874667129479,-0.0015874666940797,0.0015874667247374,-0.0013014554991325,0.0013014554865819,-0.0013014554675032,0.0013014555199853,-0.0013014554930068,0.0013014554928886,-0.0013014554702396,0.001301455517122,-4.8492122716584e-12,-2.2589858277689e-12,-0.00083663966937172,0.00083663966164543,1.2035118423629e-11,-2.0312756703711e-11,-0.00093902588167118,0.00093902588419562,-0.00093902589225552,0.00093902587350513,-0.00093902588140959,0.00093902588565572,-0.00093902589205807,0.0009390258750379,-0.00082449324939826,0.00082449323371079,-0.00082449325185169,0.00082449323108792,0.6811981079479,122718,2924,0.0034810068330562,0.0060372518310145,0.0034810068330635,37.485516754555,0.00021508413403644,0.00021508413403644,0.00021508413403644,2345172.8122004,0.013084456609013
37419200,0.99999525690602,0.01368787865251,0.0041905332361057,0.0053068121802873,0.0041905332361175,-0.00083567625123287,0.00083567624687105,-7.260100966252e-13,-3.3164282259503e-12,9.360309574703e-12,-1.4186556728077e-11,-0.00093975571669928,0.0009397557209721,-0.0009397557179701,0.00093975572051281,-0.00093975572426386,0.00093975571309737,-0.00093975572566321,0.00093975571277497,-0.00082364517385149,0.0008236451643161,-0.00082364517659458,0.00082364516198919,-5.7287956362845e-12,1.8029586502626e-11,-1.0509615114943e-11,2.2448026816425e-11,-0.0014551511988493,0.001455151210818,-0.0015882325992087,0.0015882325924114,-0.0015882325891152,0.0015882326039666,-0.0015882325920957,0.0015882326008687,-0.0015882325819957,0.00158823261243,-0.0013037682728073,0.0013037682603191,-0.0013037682413355,0.0013037682934609,-0.0013037682666798,0.0013037682666284,-0.0013037682440749,0.0013037682905938,-4.4599803536028e-12,-1.8697978201365e-12,-0.0008356762523428,0.00083567624576463,1.2321526438766e-11,-1.9804865795717e-11,-0.00093975571709704,0.00093975572045053,-0.00093975572760571,0.00093975570983434,-0.00093975571670596,0.00093975572178111,-0.00093975572727996,0.00093975571123877,-0.00082364517662606,0.00082364516189038,-0.00082364517907438,0.0008236451592625,0.65495763090949,122718,2924,0.003477021245913,0.0060440791318148,0.0034770212459203,37.681073039505,0.00021664858431604,0.00021664858431604,0.00021664858431604,2315600.2553699,0.013083306433623
38419200,0.99999719868214,0.013687908734501,0.004190542285095,0.0053068241642995,0.0041905422851068,-0.00083478227279203,0.0008347822690204,-5.2444873028952e-13,-3.1148531947632e-12,9.45445375381e-12,-1.3867849405543e-11,-0.00093849643689977,0.00093849644157561,-0.00093849643810346,0.0009384964410492,-0.00093849644439145,0.00093849643377615,-0.00093849644572396,0.0009384964333869,-0.00082275319509218,0.00082275318608415,-0.00082275319784049,0.00082275318376249,-5.6588410380554e-12,1.7880247535417e-11,-1.0420029969355e-11,2.2282103414683e-11,-0.0014540401717022,0.0014540401835944,-0.0015873995758433,0.00158739956913,-0.0015873995657562,0.0015873995805196,-0.0015873995687248,0.0015873995774342,-0.0015873995586312,0.0015873995888298,-0.0013023968281891,0.0013023968158013,-0.0013023967969424,0.0013023968486679,-0.0013023968220855,0.0013023968220859,-0.001302396799672,0.0013023968458111,-4.2556435077179e-12,-1.665475959088e-12,-0.00083478227389919,0.00083478226791677,1.2401961922694e-11,-1.9466176095579e-11,-0.0009384964373018,0.00093849644105139,-0.00093849644772379,0.00093849643052115,-0.00093849643684335,0.00093849644231459,-0.00093849644733135,0.0009384964318589,-0.00082275319786337,0.00082275318367212,-0.00082275320030602,0.00082275318103861,0.72891346290552,122718,2924,0.0034733073381042,0.0060394835745399,0.0034733073381116,37.194402189676,0.00021275521751741,0.00021275521751741,0.00021275521751741,2322064.2523461,0.013071123702698
38880000,0.99999787681884,0.013687919476472,0.0041905455154987,0.0053068284454628,0.0041905455155105,-0.00083209582175838,0.00083209581761767,-6.4759757295632e-13,-3.2379182114637e-12,9.2939428631899e-12,-1.3953391439352e-11,-0.00093825336607755,0.00093825337041489,-0.0009382533673306,0.00093825336993789,-0.00093825337354681,0.00093825336264051,-0.00093825337492737,0.00093825336229937,-0.00082025171862415,0.00082025170936391,-0.00082025172136475,0.00082025170703471,-5.6262863855188e-12,1.783342649518e-11,-1.0360272853717e-11,2.2209754389602e-11,-0.0014561461000451,0.0014561461119244,-0.0015885673020786,0.0015885672954179,-0.0015885672920847,0.0015885673068184,-0.0015885672950365,0.0015885673037507,-0.0015885672850361,0.0015885673151573,-0.0013050040431262,0.0013050040308307,-0.0013050040120145,0.0013050040635716,-0.0013050040370573,0.00130500403708,-0.0013050040147281,0.0013050040607312,-4.378310775023e-12,-1.788224915074e-12,-0.00083209582286508,0.00083209581651448,1.2216399709139e-11,-1.9525055545934e-11,-0.00093825336648852,0.0009382533698828,-0.00093825337686944,0.00093825335939426,-0.00093825336607917,0.00093825337119505,-0.00093825337652528,0.00093825336078023,-0.0008202517213784,0.0008202517069533,-0.00082025172382821,0.0008202517043271,0.74537476942469,122718,2924,0.003462177592053,0.0060481646900173,0.0034621775920603,37.193613676963,0.0002127489094157,0.0002127489094157,0.0002127489094157,2277847.4872163,0.013057379205645
