time,ASR_ext,ASR_strain,ASR_strain_xx,ASR_strain_yy,ASR_strain_zz,disp_x_101,disp_x_102,disp_x_103,disp_x_104,disp_x_105,disp_x_106,disp_x_p1_neg,disp_x_p1_pos,disp_x_p2_neg,disp_x_p2_pos,disp_x_p3_neg,disp_x_p3_pos,disp_x_p4_neg,disp_x_p4_pos,disp_x_p5_neg,disp_x_p5_pos,disp_x_p6_neg,disp_x_p6_pos,disp_y_101,disp_y_102,disp_y_103,disp_y_104,disp_y_105,disp_y_106,disp_y_p1_neg,disp_y_p1_pos,disp_y_p2_neg,disp_y_p2_pos,disp_y_p3_neg,disp_y_p3_pos,disp_y_p4_neg,disp_y_p4_pos,disp_y_p5_neg,disp_y_p5_pos,disp_y_p6_neg,disp_y_p6_pos,disp_y_p7_neg,disp_y_p7_pos,disp_y_p8_neg,disp_y_p8_pos,disp_z_101,disp_z_102,disp_z_103,disp_z_104,disp_z_105,disp_z_106,disp_z_p1_neg,disp_z_p1_pos,disp_z_p2_neg,disp_z_p2_pos,disp_z_p3_neg,disp_z_p3_pos,disp_z_p4_neg,disp_z_p4_pos,disp_z_p5_neg,disp_z_p5_pos,disp_z_p6_neg,disp_z_p6_pos,humidity,ndof,nelem,strain_xx,strain_yy,strain_zz,temp,thermal_strain_xx,thermal_strain_yy,thermal_strain_zz,vonmises,vstrain
2419200,0,0,0,0,0,0,0,0,0,0,0,0,0,0,0,0,0,0,0,0,0,0,0,0,0,0,0,0,0,0,0,0,0,0,0,0,0,0,0,0,0,0,0,0,0,0,0,0,0,0,0,0,0,0,0,0,0,0,0,0,0,0,0,0,0,0,0,0,0,0,0,0,0,0,0
2919200,0.076491365523479,0.0015975202813123,0.00053250676043745,0.00053250676043745,0.00053250676043745,-0.00016130840867365,0.00016128904402309,-7.3870965706436e-09,-7.3870966312585e-09,-6.081731886516e-09,-8.5982916110566e-09,-0.00016210796453829,0.00016209250786505,-0.00016210950364411,0.00016209404696513,-0.00016210881650872,0.00016209165482156,-0.00016211032761621,0.00016209316593882,-0.00016391766004587,0.00016390131510474,-0.00016391856223982,0.00016390221729181,-7.5799511247551e-10,1.5882397395868e-09,-8.7886657911164e-10,1.6754352422946e-09,-0.00017452108148326,0.00017452188113697,-0.00017370794606993,0.00017370695133907,-0.00017370858230482,0.0001737094448306,-0.00017370865243212,0.00017370937221743,-0.00017370928867167,0.00017371186571128,-0.0001738789276008,0.00017387806130314,-0.00017387753628117,0.00017388161368192,-0.00017387878646852,0.00017387820501415,-0.00017387758454888,0.00017388156379061,-7.4045693294235e-09,-7.4045691962658e-09,-0.00016130842622502,0.00016128902647283,-6.0099023816223e-09,-8.7081860211409e-09,-0.00016210793732183,0.00016209251739954,-0.00016210887779078,0.00016209161093248,-0.00016210947877228,0.00016209405885496,-0.00016211038684233,0.00016209311999407,-0.00016391861326703,0.00016390216930734,-0.0001639177159039,0.00016390127193088,0.83502648770561,122718,2924,0.00067185207278334,0.00072690716129726,0.00067185207278565,32.419176933459,0.00017455341546767,0.00017455341546767,0.00017455341546767,1350400.8698401,0.0020727585748346
3419200,0.15567610646877,0.0031151323897953,0.0010180382999769,0.0010790557898391,0.0010180382999794,-0.00026735568881834,0.00026733842893498,-6.7879673487395e-09,-6.7880477476817e-09,-6.0087408408975e-09,-7.7122514975107e-09,-0.00027538735935205,0.00027537296555413,-0.00027538946725791,0.00027537507322407,-0.00027538791816891,0.00027537240272554,-0.00027539001032905,0.00027537449465679,-0.00027104085396733,0.00027102612348349,-0.00027104247364576,0.00027102774290736,-6.2421460581933e-10,9.21270806085e-10,-7.3075503978809e-10,9.9300369646282e-10,-0.00031031366999373,0.00031031393884446,-0.00031227781517077,0.00031227695904512,-0.00031227966725426,0.00031227999068099,-0.00031227972885438,0.0003122799286924,-0.00031228158107491,0.00031228296044887,-0.00030482930937878,0.0003048284422321,-0.00030483050966983,0.00030483298817173,-0.00030482918706431,0.00030482856643402,-0.00030483054851504,0.0003048329480185,-6.7945699874516e-09,-6.7946501645096e-09,-0.00026735569541881,0.0002673384223358,-5.939831019872e-09,-7.7969470970137e-09,-0.00027538732732489,0.0002753729809365,-0.00027538796247547,0.00027537237469805,-0.00027538943727992,0.0002753750906638,-0.00027539005294919,0.00027537446494698,-0.00027104250839817,0.00027102771018405,-0.00027104089351802,0.00027102609553821,0.77960726241633,122718,2924,0.0011133315409944,0.0012921311265953,0.001113331540997,31.910901944078,0.00017048721555262,0.00017048721555262,0.00017048721555262,2197583.1082973,0.0035249982538833
3919200,0.24253966836593,0.0046790787193134,0.0014864250170048,0.001706228685302,0.0014864250170066,-0.00037128695823793,0.00037127740743901,-3.6804873479173e-09,-3.6804642895303e-09,-3.2416388004484e-09,-3.8116620467821e-09,-0.00038784016510187,0.0003878323921298,-0.00038784153739469,0.00038783376405283,-0.00038784034030057,0.00038783221086402,-0.00038784171229601,0.00038783358251676,-0.00037425166563383,0.00037424346298779,-0.00037425275997319,0.00037424455705924,-2.9999817815129e-10,2.0666284932711e-10,-3.5157772323306e-10,2.4296567959468e-10,-0.00046755929282416,0.00046755918788202,-0.00048136658806426,0.00048136612059604,-0.00048136768937557,0.0004813676135934,-0.00048136771937919,0.00048136758338869,-0.00048136882168391,0.00048136907732228,-0.00044804499910593,0.00044804450842905,-0.00044804547930717,0.00044804612044313,-0.00044804494288661,0.00044804456606745,-0.00044804549838154,0.00044804610040987,-3.6774232580526e-09,-3.6773999642568e-09,-0.00037128695519416,0.00037127741048369,-3.2004617995301e-09,-3.8482783282669e-09,-0.00038784014275429,0.00038783240717474,-0.00038784035593698,0.00038783220213676,-0.00038784151607503,0.00038783378013506,-0.0003878417272961,0.00038783357315273,-0.0003742527714101,0.00037424454639869,-0.00037425167935332,0.00037424345458907,0.74640349119053,122718,2924,0.0015458405937061,0.0019462436588619,0.001545840593708,32.496688412065,0.00017517350729652,0.00017517350729652,0.00017517350729652,3102561.8329231,0.0050506500607696
4419200,0.33766527094739,0.0063623160484464,0.0019704203312712,0.0024214753859024,0.0019704203312728,-0.00047876315939738,0.00047875823641502,-1.6118856640435e-09,-1.6119546306727e-09,-1.6890392848824e-09,-1.7653766161621e-09,-0.00050497850801315,0.00050497515767411,-0.00050497928463846,0.00050497593398964,-0.00050497850633038,0.0005049751413248,-0.00050497929466013,0.00050497592936763,-0.00048086188387529,0.00048085815313557,-0.0004808624340926,0.00048085870296257,-2.9519128399125e-10,-2.1730662726994e-10,-3.2764310311046e-10,-1.8977270622115e-10,-0.00064789168127716,0.00064789116524357,-0.00067880636537832,0.00067880577970352,-0.0006788071183126,0.00067880662460999,-0.00067880713746719,0.00067880660485193,-0.0006788078908258,0.00067880745015104,-0.00060903340016655,0.00060903281430266,-0.00060903473733612,0.00060903436701743,-0.00060903337039395,0.0006090328457076,-0.00060903475147807,0.00060903435180756,-1.6096296425149e-09,-1.6096983212698e-09,-0.00047876315721528,0.00047875823859761,-1.6581314704571e-09,-1.7930706750995e-09,-0.00050497848782507,0.00050497516997127,-0.00050497852165689,0.00050497513351478,-0.00050497926550611,0.00050497594735194,-0.00050497930930303,0.00050497592087432,-0.00048086244321079,0.00048085869394717,-0.00048086189485845,0.00048085814596127,0.74424082049435,122718,2924,0.0019929293948017,0.0026958517643413,0.0019929293948027,33.598702076832,0.00018398961661465,0.00018398961661465,0.00018398961661465,3894510.460925,0.0067041139212983
4919200,0.44098394473664,0.0081771720687051,0.0024680184253376,0.0032411352180295,0.002468018425338,-0.00058842615164817,0.00058842312053129,-8.4571336562636e-10,-8.458342991561e-10,-1.0398925278096e-09,-9.9219768007136e-10,-0.00062681357501599,0.00062681204953879,-0.00062681403159932,0.00062681250594444,-0.00062681352994927,0.00062681207398451,-0.00062681399916902,0.00062681254303373,-0.00058916992186414,0.00058916775837228,-0.00058917037914331,0.00058916821521504,-2.7558387544001e-10,-3.0359041287422e-10,-2.8912643509175e-10,-2.9109683863257e-10,-0.000856194915243,0.00085619433603063,-0.00090884912207297,0.00090884853841237,-0.00090884953586319,0.0009088489701612,-0.00090884954354153,0.00090884896196744,-0.00090884995690791,0.00090884939330405,-0.0007924389991943,0.00079243845750437,-0.00079244047545362,0.00079243986688246,-0.00079243899532678,0.00079243846299165,-0.00079244048035162,0.00079243986095072,-8.4233092561842e-10,-8.4245163032804e-10,-0.00058842614838951,0.00058842312379062,-1.0231575129756e-09,-1.003143320401e-09,-0.00062681355802905,0.00062681205840295,-0.00062681354012018,0.00062681207162153,-0.00062681401561843,0.0006268125158255,-0.00062681400864618,0.00062681253997499,-0.00058917038193033,0.00058916821213546,-0.00058916992628475,0.00058916775689582,0.74696695512676,122718,2924,0.0024489595116898,0.0035610097919083,0.0024489595116912,35.34363935575,0.000197949114846,0.000197949114846,0.000197949114846,4496307.5562725,0.0084948715538249
5419200,0.54175328821564,0.0098959275649067,0.0029179019166016,0.004060123731702,0.0029179019166031,-0.0006831187139847,0.0006831181082224,1.6634714278802e-10,1.6628336579685e-10,-2.8745904131993e-10,3.0859841311855e-11,-0.00073549777707303,0.00073549839269579,-0.00073549797996618,0.00073549859534449,-0.00073549764013802,0.00073549850759967,-0.00073549785802317,0.0007354987252602,-0.00068135707346528,0.00068135710899043,-0.00068135738218963,0.00068135741740813,-2.3471006822441e-10,-5.1249026284779e-10,-2.3111235538207e-10,-5.1311250958858e-10,-0.0010640213731224,0.0010640206295529,-0.001141551991765,0.0011415514334427,-0.0011415523249662,0.0011415515859059,-0.0011415523221137,0.0011415515882696,-0.0011415526554759,0.0011415517408789,-0.00097190713550086,0.00097190661796255,-0.00097190904689682,0.00097190791806335,-0.00097190715348346,0.00097190660137363,-0.00097190904417307,0.00097190791989751,1.7023913410543e-10,1.7017552934263e-10,-0.0006831187102266,0.0006831181119822,-2.8319706267119e-10,3.3916948929885e-11,-0.00073549776437327,0.00073549839805249,-0.00073549764525126,0.00073549850963574,-0.00073549796800787,0.00073549860147394,-0.00073549786258222,0.00073549872674951,-0.00068135737970704,0.00068135741920925,-0.00068135707190793,0.00068135711169525,0.73229095938568,122718,2924,0.0028426500090787,0.0044234160818055,0.0028426500090822,36.272948603539,0.00020538358882831,0.00020538358882831,0.00020538358882831,4889241.8166948,0.010160096863326
5919200,0.63311310655694,0.011236620071021,0.0032532042121288,0.0047302116467608,0.0032532042121314,-0.00074870448708431,0.00074870596557427,9.9100115367221e-10,9.9091707829885e-10,3.6479397522093e-10,1.0169276882336e-09,-0.00081541649103506,0.00081541896906355,-0.00081541649844476,0.00081541897628282,-0.00081541624103793,0.00081541919745304,-0.00081541626556346,0.00081541922180353,-0.00074100926289612,0.00074101114107209,-0.00074100956547307,0.0007410114433024,-1.5347865097962e-10,-7.3964278765584e-10,-1.2253107770086e-10,-7.6208939869199e-10,-0.001235512394935,0.0012355115106641,-0.0013424504404342,0.0013424499752985,-0.0013424505926872,0.0013424496982355,-0.0013424505732377,0.001342449717575,-0.0013424507255321,0.0013424494405406,-0.0011118204524409,0.0011118200380028,-0.0011118225598278,0.0011118208372573,-0.0011118205046316,0.0011118199866867,-0.0011118225442925,0.0011118208522626,9.975676809921e-10,9.9748372980676e-10,-0.00074870448067234,0.0007487059719861,3.5000627528384e-10,1.0451726386616e-09,-0.00081541648432021,0.00081541897003496,-0.00081541623519355,0.00081541920894584,-0.00081541649220578,0.0008154189777502,-0.00081541625933444,0.00081541923290857,-0.000741009552673,0.0007410114551751,-0.00074100925035993,0.00074101115319171,0.6360792580923,122718,2924,0.0031153326945303,0.0051344830914302,0.00311533269453,36.779089656337,0.00020943271725069,0.00020943271725069,0.00020943271725069,5072835.2133364,0.011430142531942
6419200,0.71048003702128,0.012292258826496,0.0035145027058209,0.0052632534148534,0.0035145027058217,-0.00079670349437159,0.00079670701940032,1.8102441458538e-09,1.8101631497743e-09,9.3308794683313e-10,2.0467179715238e-09,-0.00087356877707304,0.00087357306425217,-0.00087356860395534,0.00087357289094425,-0.0008735683717929,0.00087357344925354,-0.00087356821842964,0.00087357329571912,-0.00078366574331228,0.00078366949731643,-0.00078366607056436,0.00078366982421868,-5.5220683546023e-11,-1.0757529369715e-09,1.879796573505e-11,-1.134296083798e-09,-0.0013710801185635,0.0013710790029377,-0.0015059941572687,0.0015059937911656,-0.0015059942306812,0.0015059930805506,-0.001505994184896,0.0015059931272066,-0.0015059942583552,0.0015059924166229,-0.001218767382241,0.0012187670924704,-0.0012187699749804,0.0012187673729294,-0.0012187674885449,0.001218766985819,-0.0012187699378441,0.0012187674103283,1.8219762155684e-09,1.8218948735828e-09,-0.00079670348279584,0.00079670703097952,8.8788963237532e-10,2.1172439786571e-09,-0.00087356877927488,0.00087357305870173,-0.00087356834736059,0.00087357347720435,-0.00087356860615202,0.0008735728854076,-0.00087356819384898,0.00087357332351623,-0.00078366604008379,0.00078366985340294,-0.00078366571219858,0.00078366952585197,0.59525943091212,122718,2924,0.0033149037139664,0.00569626301174,0.0033149037139735,36.741514789751,0.00020913211831801,0.00020913211831801,0.00020913211831801,5227295.3209593,0.012402562601888
6919200,0.78015616462457,0.01332116392887,0.0037728548643486,0.0057754542001685,0.0037728548643525,-0.00084510751645466,0.00084510904053276,1.0505472915087e-09,1.0504661106471e-09,2.0952298881578e-10,1.2372299161224e-09,-0.0009319637992318,0.00093196647730129,-0.00093196376976138,0.00093196644764179,-0.0009319634247001,0.00093196683291727,-0.00093196341131168,0.0009319668193573,-0.00082956729290157,0.00082956942944329,-0.00082956772249703,0.00082956985868971,-1.0783128850463e-10,-1.0583384850152e-09,-8.6546736644839e-12,-1.1420473752954e-09,-0.0015082976574458,0.001508296506514,-0.0016652320451832,0.0016652315886921,-0.0016652321777691,0.0016652309760805,-0.001665232115403,0.0016652310397645,-0.0016652322480281,0.0016652304271772,-0.0013323579672423,0.0013323576560083,-0.0013323606449219,0.0013323580487377,-0.0013323581078173,0.0013323575142748,-0.0013323605916436,0.0013323581028975,1.0647137380938e-09,1.0646321845411e-09,-0.00084510750245128,0.00084510905453806,1.4254687732016e-10,1.3355317974883e-09,-0.00093196380614514,0.00093196646567276,-0.00093196339121549,0.00093196687153674,-0.00093196377666365,0.00093196643602159,-0.00093196337742524,0.00093196685756765,-0.00082956768161403,0.00082956989855121,-0.00082956725161191,0.00082956946887844,0.64378173705164,122718,2924,0.0035161460001601,0.0062645155451729,0.0035161460001641,38.62442280707,0.00022419538245656,0.00022419538245656,0.00022419538245656,5218679.2269708,0.013385877024267
7419200,0.84018954269015,0.014086678576605,0.0039605938942267,0.0061654907881478,0.0039605938942304,-0.00087304281071391,0.00087304363889696,7.5242875677753e-10,7.5234785942076e-10,-2.260958589745e-11,8.5488961100332e-10,-0.00097314913563632,0.00097315123619823,-0.00097314915666624,0.00097315125704083,-0.00097314881116185,0.00097315154126521,-0.00097314884635149,0.00097315157628258,-0.00085389487723366,0.00085389635814916,-0.00085389534876099,0.00085389682932734,-1.5796737285225e-10,-9.6689278808903e-10,-5.1080434410145e-11,-1.0601421064452e-09,-0.0016197676564975,0.0016197665453546,-0.0017964606489204,0.0017964601372624,-0.0017964608189612,0.001796459651274,-0.0017964607509087,0.0017964597205879,-0.0017964609209858,0.0017964592346229,-0.0014220652767805,0.0014220649330023,-0.0014220679117106,0.0014220655243514,-0.001422065428714,0.0014220647796993,-0.0014220678518902,0.0014220655852206,7.6622995775958e-10,7.6614858037795e-10,-0.00087304279709764,0.00087304365251578,-9.8783461380121e-11,9.6207751841831e-10,-0.00097314914489639,0.00097315122081699,-0.00097314877632132,0.00097315158276299,-0.00097314916603652,0.00097315124179146,-0.00097314881087059,0.00097315161713627,-0.00085389530551869,0.00085389687183831,-0.00085389483395025,0.00085389640059946,0.55664260548471,122718,2924,0.0036324074250111,0.0067258389388535,0.0036324074250164,40.763139547642,0.00024130511638114,0.00024130511638114,0.00024130511638114,4957102.8532608,0.014089328663024
7544200,0.8540901844448,0.014258614120354,0.0040032575059918,0.006252099108367,0.0040032575059956,-0.00088187829945139,0.00088188198606576,1.815743729746e-09,1.815662550565e-09,1.5745639116405e-09,1.3382823390402e-09,-0.00098250544477942,0.00098251039284493,-0.00098250531839407,0.00098251026628025,-0.00098250546918224,0.00098251032798213,-0.00098250536285305,0.00098251022149928,-0.0008621797296473,0.00086218322410275,-0.00086218013224366,0.00086218362636185,-5.1583806488356e-10,-1.8044397494278e-10,-5.2689994809768e-10,-1.7274226707761e-10,-0.001639360766928,0.0016393600690935,-0.0018200234316708,0.0018200225303242,-0.0018200230285323,0.0018200223434353,-0.0018200230324149,0.0018200223374596,-0.001820022629307,0.0018200221505822,-0.0014381593240198,0.0014381584260824,-0.0014381605485298,0.0014381602917666,-0.0014381593303846,0.0014381584220661,-0.001438160548463,0.0014381602904327,1.8157605569673e-09,1.8156789968265e-09,-0.00088187829968878,0.00088188198582235,1.5855669712233e-09,1.3266429081922e-09,-0.00098250542539344,0.0009825103966996,-0.00098250548912892,0.00098251032347818,-0.00098250530066754,0.0009825102718085,-0.00098250538121056,0.00098251021538608,-0.00086218013863004,0.00086218362021099,-0.00086217973851257,0.00086218322040907,0.5380570928609,122718,2924,0.0036691171224889,0.0068069330345603,0.0036691171224764,40.825039671093,0.00024180031736874,0.00024180031736874,0.00024180031736874,5007422.4002902,0.014246030408421
7794200,0.87789679540512,0.0145395299344,0.0040730697981213,0.0063933903381548,0.0040730697981235,-0.00088874003530975,0.00088874456569758,2.1641463596892e-09,2.1640651630192e-09,1.5791650198242e-09,2.0621480839092e-09,-0.0009930787736524,0.00099308425244344,-0.00099307850749907,0.00099308398610453,-0.00099307856351467,0.00099308442941323,-0.00099307831906604,0.0009930841847951,-0.00086695862570107,0.00086696297504452,-0.00086695908683632,0.00086696343583183,-2.8144622965794e-10,-6.5657339880983e-10,-3.0821392945249e-10,-6.2309742103679e-10,-0.0016797843098537,0.0016797833796079,-0.0018712160709637,0.0018712154099562,-0.0018712157113361,0.0018712148089335,-0.0018712157271769,0.0018712147900244,-0.0018712153675839,0.0018712141890225,-0.0014669461622519,0.0014669454461992,-0.0014669480047664,0.0014669466240276,-0.0014669461436375,0.0014669454684506,-0.0014669480236667,0.0014669466027012,2.1610208505023e-09,2.1609392982878e-09,-0.00088874003873269,0.00088874456227635,1.610320370818e-09,2.0228278687297e-09,-0.00099307875382549,0.00099308426192613,-0.00099307858976435,0.00099308441317963,-0.00099307848889991,0.00099308399683379,-0.00099307834441997,0.00099308416766093,-0.00086695910333987,0.00086696341884377,-0.00086695864318187,0.0008669629590152,0.51415865196004,122718,2924,0.0036977322188743,0.0069741959142539,0.0036977322188779,40.912956036253,0.00024250364829002,0.00024250364829002,0.00024250364829002,4942865.2344875,0.014473774749206
8294200,0.91331047039801,0.014933152173975,0.0041713673158657,0.0065904175422413,0.004171367315868,-0.00089616780981806,0.00089617240920538,2.1949951456477e-09,2.1949139829048e-09,1.4047111050326e-09,2.3139666275844e-09,-0.0010074854553807,0.0010074908922095,-0.0010074851934295,0.0010074906300737,-0.0010074851091897,0.0010074912116967,-0.0010074848676572,0.0010074909699948,-0.00087217425749266,0.00087217881438854,-0.00087217475906367,0.00087217931561175,-1.4505964476272e-10,-9.4439514375897e-10,-1.4629954082592e-10,-9.3031703633549e-10,-0.0017373137404635,0.0017373126644641,-0.0019416305768294,0.001941630061921,-0.0019416303372914,0.0019416292754719,-0.0019416303381243,0.0019416292722894,-0.0019416300986195,0.0019416284858616,-0.0015108003190967,0.001510799778985,-0.0015108026162746,0.0015108004890935,-0.0015108003309102,0.0015107997701719,-0.0015108026244833,0.0015108004788525,2.1945333798205e-09,2.1944516636257e-09,-0.0008961678105696,0.000896172408455,1.4187034917586e-09,2.2978269687401e-09,-0.001007485442397,0.0010074908980007,-0.0010074851235019,0.0010074912042944,-0.0010074851812603,0.0010074906366977,-0.0010074848814392,0.0010074909620576,-0.00087217476564602,0.00087217930824106,-0.00087217426416044,0.00087217880708517,0.4832288385279,122718,2924,0.0037287572338638,0.0072121394096642,0.0037287572338663,41.276729019232,0.00024541383215386,0.00024541383215386,0.00024541383215386,4725083.0377472,0.014778201021007
8794200,0.93941447391088,0.015206297472762,0.0042407254549156,0.0067248465629284,0.0042407254549178,-0.00090012992520575,0.00090013422909245,2.0823231750373e-09,2.0822419569466e-09,1.1754935438027e-09,2.3277244582333e-09,-0.0010170733930168,0.0010170785055825,-0.0010170731610049,0.0010170782733864,-0.0010170729702761,0.0010170789059614,-0.0010170727571286,0.0010170786926458,-0.00087462661330916,0.0008746310147371,-0.0008746271381019,0.00087463153918146,-6.9811706917921e-11,-1.1148255175516e-09,-2.9308826753108e-11,-1.1389845718032e-09,-0.0017788124205734,0.0017788112526369,-0.0019920192304152,0.0019920188065406,-0.001992019108909,0.0019920179295955,-0.0019920190838479,0.0019920179536593,-0.0019920189623742,0.0019920170767333,-0.0015427097816224,0.0015427093901764,-0.0015427124031497,0.0015427097830825,-0.0015427098460738,0.0015427093272388,-0.001542712387982,0.0015427097972398,2.0866312322305e-09,2.0865494385675e-09,-0.00090012992116747,0.00090013423313212,1.1566416437741e-09,2.3555510241407e-09,-0.0010170733897553,0.0010170785034675,-0.0010170729659216,0.0010170789156483,-0.0010170731581783,0.0010170782717245,-0.0010170727523878,0.00101707870194,-0.00087462712684895,0.00087463154951466,-0.00087462660165736,0.00087463102465212,0.45300894210009,122718,2924,0.0037453562807844,0.0073837253670428,0.0037453562807873,41.901202608917,0.00025040962087134,0.00025040962087134,0.00025040962087134,4520001.8699759,0.014986069568371
9294200,0.95742799727276,0.015381437983494,0.0042857969202332,0.0068098441430254,0.0042857969202355,-0.00089889204273103,0.00089889908085084,3.1373644784996e-09,3.1372831281569e-09,1.9642842126403e-09,3.6758917403247e-09,-0.001019956730674,0.0010199640694014,-0.0010199563029921,0.0010199636415352,-0.0010199561215092,0.0010199646591647,-0.001019955715415,0.0010199642529025,-0.00087240948092677,0.00087241629963296,-0.0008724100306339,0.0008724168489919,9.0925298441605e-11,-1.4846165980997e-09,1.9770593827812e-10,-1.5678172836111e-09,-0.0018043245295399,0.0018043231592922,-0.0020236169123346,0.0020236167038836,-0.0020236167658998,0.0020236153445349,-0.0020236167000369,0.0020236154113558,-0.0020236165536345,0.0020236140520262,-0.0015615537111838,0.0015615535770508,-0.0015615568612773,0.0015615532204403,-0.0015615538583313,0.0015615534291914,-0.001561556810238,0.001561553272016,3.1487446354098e-09,3.1486627626463e-09,-0.00089889203160307,0.00089889909198029,1.8943909464511e-09,3.7713566742637e-09,-0.0010199567433399,0.0010199640548985,-0.0010199560880454,0.0010199646947971,-0.0010199563154111,0.0010199636268039,-0.0010199556818692,0.0010199642884467,-0.00087240999197,0.0008724168863355,-0.00087240944088118,0.00087241633557734,0.4193798260987,122718,2924,0.0037403375374855,0.0074891830229565,0.0037403375374886,41.337428918189,0.00024589943134551,0.00024589943134551,0.00024589943134551,4356531.5555811,0.0150829511933
9794200,0.96964295231162,0.015496196514838,0.0043157884702152,0.0068646195744049,0.0043157884702175,-0.00089604949305599,0.00089605789284087,3.6677198091977e-09,3.6676383619454e-09,2.25374140326e-09,4.4684846364499e-09,-0.0010197636917846,0.0010197720793106,-0.0010197631711131,0.0010197715584552,-0.0010197629180864,0.00101977283826,-0.00101976241964,0.0010197723396459,-0.0008690051249499,0.00086901323122385,-0.00086900569727637,0.00086901380320152,2.3711535952382e-10,-1.8264753859307e-09,4.2356250251512e-10,-1.9826341415938e-09,-0.0018197643933913,0.0018197628336889,-0.0020431245172572,0.0020431245032223,-0.0020431244533057,0.0020431227936975,-0.0020431243379754,0.002043122912406,-0.0020431242740555,0.0020431212028995,-0.0015725085843434,0.001572508724769,-0.0015725123004168,0.001572507680055,-0.0015725088318373,0.0015725084737556,-0.0015725122045932,0.0015725077783761,3.6876540036574e-09,3.6875719956038e-09,-0.00089604947335692,0.00089605791254167,2.1207976621754e-09,4.6471798504494e-09,-0.0010197637234126,0.001019772049231,-0.0010197628497877,0.0010197729058346,-0.0010197632017568,0.0010197715274096,-0.0010197623515052,0.0010197724073784,-0.00086900562518587,0.00086901387366619,-0.00086900505054304,0.00086901329935404,0.40377034916797,122718,2924,0.0037286197984645,0.007552996004456,0.0037286197984681,40.266325346395,0.00023733060277116,0.00023733060277116,0.00023733060277116,4243831.2209151,0.01512395620245
10294200,0.97779540361663,0.015576721998777,0.0043372162801813,0.0069022894384126,0.0043372162801836,-0.0008915678106987,0.00089157792536338,4.3332174034181e-09,4.3331359173551e-09,2.6194740512794e-09,5.4644973041231e-09,-0.0010178550291878,0.0010178647172404,-0.0010178543930123,0.0010178640808812,-0.0010178540496081,0.0010178656879735,-0.0010178534363502,0.0010178650745475,-0.00086430911828742,0.00086431883958495,-0.0008643097157307,0.00086431943667915,4.2761144826378e-10,-2.248690358906e-09,7.2796875852471e-10,-2.5104553469595e-09,-0.0018292631712827,0.0018292613875156,-0.0020547446244308,0.0020547448768266,-0.0020547446756072,0.0020547427214528,-0.0020547444892684,0.0020547429146159,-0.0020547445404767,0.0020547407592605,-0.0015793903825913,0.0015793909088248,-0.0015793948300708,0.0015793889663945,-0.0015793907739878,0.0015793905098881,-0.0015793946690788,0.0015793891327055,4.3648937093757e-09,4.3648116342654e-09,-0.00089156777922405,0.00089157795683965,2.3946949991822e-09,5.7628887487238e-09,-0.0010178550883365,0.0010178646639387,-0.0010178539320204,0.0010178658012408,-0.0010178544501892,0.0010178640256256,-0.0010178533192113,0.0010178651882577,-0.00086430959602327,0.00086431955438709,-0.00086430899512368,0.00086431895381811,0.42294161023284,122718,2924,0.0037100840461786,0.007592227427,0.003710084046182,38.510005921053,0.00022328004736843,0.00022328004736843,0.00022328004736843,4146071.5885546,0.015126165842404
10794200,0.98364947528997,0.015632006440185,0.0043519788652743,0.006928048709634,0.0043519788652766,-0.00088831334410396,0.0008883208678565,3.3368483898369e-09,3.3367669131616e-09,1.6061086861806e-09,4.482659857289e-09,-0.0010182287305749,0.0010182361181752,-0.0010182282935083,0.0010182356809246,-0.0010182277488044,0.0010182370964753,-0.0010182273298577,0.0010182366773605,-0.00086098959974016,0.00086099722465842,-0.00086099018658481,0.00086099781115445,4.6004329975769e-10,-2.2752931336213e-09,8.6451168476146e-10,-2.6404109284351e-09,-0.0018386812421882,0.0018386794648196,-0.002064739315539,0.0020647396513919,-0.002064739667276,0.0020647376515829,-0.0020647394145693,0.0020647379143725,-0.0020647397663382,0.0020647359145816,-0.0015875753213201,0.0015875761067435,-0.0015875801071428,0.0015875739676607,-0.0015875758472105,0.0015875755694289,-0.0015875798806907,0.001587574202183,3.3781143169412e-09,3.3780322456837e-09,-0.00088831330297098,0.0008883209089912,1.2900802684922e-09,4.8955982016001e-09,-0.001018228815451,0.001018236040018,-0.0010182275877727,0.0010182372529942,-0.0010182283758579,0.001018235600259,-0.0010182271691501,0.0010182368341977,-0.00086099002297034,0.00086099797289517,-0.0008609894325846,0.00086099738284013,0.40383658197191,122718,2924,0.0036966357827761,0.0076310937083373,0.0036966357827797,37.984441175093,0.00021907552940074,0.00021907552940074,0.00021907552940074,4013270.0878608,0.015138338404433
11294200,0.98792997527237,0.015671361713397,0.0043625754983082,0.0069462107167787,0.0043625754983105,-0.00088696137501777,0.00088696836394516,3.1311507727432e-09,3.1310692031978e-09,1.4071931982468e-09,4.2757067312414e-09,-0.001017926994861,0.0010179339166028,-0.0010179265556777,0.0010179334772355,-0.0010179260160559,0.0010179348920131,-0.0010179255949496,0.0010179344707387,-0.00085987714371959,0.00085988430316461,-0.00085987773045534,0.0008598848895515,4.5756709331586e-10,-2.2801949701971e-09,8.7002805053439e-10,-2.65311462264e-09,-0.0018434030316844,0.0018434012471361,-0.0020700809026329,0.0020700812384088,-0.0020700812552019,0.0020700792272775,-0.0020700809974909,0.002070079495369,-0.0020700813500915,0.0020700774842559,-0.0015917278889435,0.0015917286843383,-0.0015917326891858,0.0015917265238049,-0.0015917284251724,0.0015917281363645,-0.0015917324577798,0.0015917267635106,3.1733121942407e-09,3.1732300309272e-09,-0.00088696133299684,0.00088696840596776,1.0845598761461e-09,4.6974731554398e-09,-0.0010179270815152,0.0010179338367036,-0.0010179258516556,0.0010179350519161,-0.001017926639767,0.0010179333947896,-0.00101792543086,0.0010179346309465,-0.00085987756340409,0.00085988505476689,-0.00085987697309555,0.00085988446478927,0.39224717708977,122718,2924,0.0036910460097058,0.0076505887257549,0.0036910460097092,37.759000073662,0.0002172720005893,0.0002172720005893,0.0002172720005893,3943014.2344009,0.015146782969359
11794200,0.99102715317355,0.01570095687648,0.0043706285467565,0.0069596997829647,0.0043706285467588,-0.00088478186810324,0.00088478944694573,3.3532546812297e-09,3.3531730679308e-09,1.6125939682638e-09,4.5128385949669e-09,-0.0010167983735753,0.0010168058016702,-0.0010167979328397,0.0010168053607509,-0.0010167973842531,0.0010168067881105,-0.0010167969612288,0.0010168063649182,-0.00085734556792626,0.00085735324171231,-0.00085734616168221,0.00085735383511914,4.640386167035e-10,-2.2938874330488e-09,9.5822905864237e-10,-2.7481887954246e-09,-0.0018483000672294,0.0018482982757936,-0.0020766648865744,0.0020766652824243,-0.0020766652900919,0.0020766632021079,-0.0020766649804606,0.0020766635248888,-0.0020766653840095,0.0020766614445903,-0.0015943346168382,0.0015943355787689,-0.0015943395892833,0.0015943332301757,-0.0015943352587559,0.0015943349217838,-0.0015943393060963,0.0015943335240186,3.4037431175577e-09,3.4036608975401e-09,-0.00088478181771079,0.00088478949733989,1.2193420462316e-09,5.0253466647578e-09,-0.0010167984793977,0.0010168057030953,-0.0010167971853504,0.0010168069826013,-0.0010167980356494,0.0010168052591811,-0.001016796762507,0.0010168065595841,-0.00085734595943558,0.00085735403552627,-0.00085734536205642,0.00085735343847803,0.40692611904362,122718,2924,0.0036820389842154,0.0076708274742053,0.003682038984219,37.236431480934,0.00021309145184747,0.00021309145184747,0.00021309145184747,3910551.1873498,0.015149050055181
12294200,0.9932975963589,0.015726555463175,0.0043776922395487,0.0069711709840751,0.004377692239551,-0.00088267182227945,0.00088267907505981,3.225721688027e-09,3.22564008947e-09,1.5013633979505e-09,4.3723404644413e-09,-0.0010167783346434,0.0010167854742747,-0.001016777920837,0.0010167850602844,-0.0010167773557025,0.0010167864506195,-0.00101677695884,0.0010167860535889,-0.00085531761302726,0.00085532500887151,-0.00085531820784867,0.00085532560334399,4.6520685283821e-10,-2.2672073090789e-09,1.022665924258e-09,-2.785255765113e-09,-0.0018527374731504,0.0018527357090892,-0.0020809406978692,0.0020809411419524,-0.0020809411592895,0.0020809390569848,-0.0020809408091234,0.0020809394222099,-0.0020809412705751,0.0020809373372604,-0.0015985223037262,0.0015985234025417,-0.0015985273771903,0.0015985209540628,-0.0015985230277526,0.0015985226611573,-0.0015985270532143,0.001598521290325,3.281076905191e-09,3.2809947003053e-09,-0.00088267176696213,0.0008826791303788,1.0508917337436e-09,4.9542303651815e-09,-0.0010167784568276,0.0010167853593629,-0.0010167771314767,0.0010167866707957,-0.0010167780397482,0.0010167849421176,-0.0010167767346683,0.0010167862738134,-0.00085531797969631,0.00085532582970889,-0.00085531738137106,0.00085532523171457,0.47876815234088,122718,2924,0.0036733156572264,0.0076891253467955,0.0036733156572299,36.873019345284,0.00021018415476227,0.00021018415476227,0.00021018415476227,3834819.145756,0.015149926804934
12794200,0.99496654705275,0.015743223797623,0.0043822523856433,0.0069787190263342,0.0043822523856456,-0.0008783463335707,0.00087835367233054,3.2515894075984e-09,3.2515079115537e-09,1.5437734500657e-09,4.3963880012173e-09,-0.0010168365268225,0.0010168437089589,-0.001016836113226,0.001016843295178,-0.0010168355536541,0.0010168446790434,-0.0010168351568357,0.0010168442820568,-0.00085120847084445,0.00085121592139904,-0.00085120907071629,0.00085121652092234,4.8148215149195e-10,-2.232928785176e-09,1.084590676617e-09,-2.7972262582461e-09,-0.0018579726400543,0.0018579709259359,-0.0020847435430931,0.0020847440552447,-0.00208474401712,0.0020847419343118,-0.0020847436373416,0.0020847423300926,-0.0020847441114001,0.0020847402091778,-0.0016043964856263,0.001604397712791,-0.0016044016028468,0.0016043951631991,-0.0016043972689451,0.001604396910921,-0.0016044012491174,0.0016043955300594,3.3072679952918e-09,3.307185861595e-09,-0.00087834627784093,0.00087835372806202,1.0481434814067e-09,5.0253719719544e-09,-0.0010168366638894,0.0010168435789342,-0.0010168353139919,0.001016844915053,-0.0010168362469473,0.0010168431618262,-0.0010168349171328,0.0010168445180197,-0.00085120882686956,0.00085121676299708,-0.0008512082237329,0.00085121616019114,0.42441845815068,122718,2924,0.0036554221435505,0.0077106635752176,0.0036554221435541,36.471140133664,0.00020696912106931,0.00020696912106931,0.00020696912106931,3689523.8943276,0.015135487542652
13294200,0.99615075682466,0.015755125435863,0.0043855425969014,0.0069840402420574,0.0043855425969037,-0.00087536331929156,0.00087537278344184,4.0628584906991e-09,4.0627768095798e-09,2.237431405942e-09,5.3388956644022e-09,-0.0010118312894096,0.001011840264237,-0.0010118307165404,0.001011839691184,-0.0010118302313022,0.0010118413197049,-0.001011829677713,0.0010118407659478,-0.00084819695009334,0.00084820621043857,-0.00084819757036226,0.00084820683035814,5.3399875679277e-10,-2.4060597468499e-09,1.1841145231141e-09,-3.013530158781e-09,-0.0018557017551218,0.0018556999240421,-0.0020848703210252,0.0020848709170271,-0.0020848707081511,0.0020848684800827,-0.002084870299933,0.0020848689065683,-0.0020848706870903,0.0020848664696417,-0.0015998184383136,0.0015998197766891,-0.0015998237878213,0.0015998168468195,-0.0015998192807442,0.0015998189131714,-0.00159982340755,0.0015998172419731,4.1267028709423e-09,4.1266205549276e-09,-0.00087536325542211,0.00087537284731296,1.7085678130438e-09,6.0201933962655e-09,-0.0010118314344629,0.0010118401281653,-0.0010118299686616,0.0010118415771703,-0.0010118308577228,0.0010118395512595,-0.0010118294151406,0.0010118410234754,-0.00084819730387803,0.00084820709484333,-0.0008481966797112,0.00084820647100765,0.42592420831001,122718,2924,0.003643037188052,0.0077013294349287,0.0036430371880555,35.132904904778,0.00019626323923822,0.00019626323923822,0.00019626323923822,3730185.1037927,0.015100852911612
13794200,0.99701466854065,0.015763397394963,0.0043878207187716,0.0069877559574176,0.0043878207187739,-0.00087212393287421,0.0008721328806517,3.8675592930695e-09,3.8674776473241e-09,1.9808426301118e-09,5.2066474914049e-09,-0.0010093809511776,0.0010093894389632,-0.0010093804187464,0.0010093889063482,-0.0010093798548958,0.0010093905352745,-0.0010093793404652,0.0010093900206759,-0.00084482824859562,0.0008448371318771,-0.00084482887225879,0.00084483775519112,5.811925465843e-10,-2.4887329297997e-09,1.285211138329e-09,-3.148452908219e-09,-0.0018557201784038,0.0018557183133316,-0.0020851244053024,0.0020851250810925,-0.0020851249120425,0.0020851226154238,-0.0020851244696498,0.0020851230776461,-0.0020851249764211,0.0020851206119952,-0.001599510405812,0.0015995119013759,-0.0015995160057469,0.0015995087558721,-0.0015995113173707,0.0015995109669137,-0.0015995155926324,0.001599509185164,3.9356787202167e-09,3.9355964233631e-09,-0.00087212386469753,0.0008721329488301,1.4050327413024e-09,5.9453885719878e-09,-0.0010093811103651,0.0010093892897954,-0.0010093795702507,0.0010093908140152,-0.0010093805737362,0.0010093887530006,-0.0010093790559061,0.0010093902994967,-0.00084482858398715,0.00084483804143199,-0.00084482795621574,0.00084483741399174,0.40617286444018,122718,2924,0.0036296032251125,0.0077013888967254,0.0036296032251161,34.049076595855,0.00018759261276684,0.00018759261276684,0.00018759261276684,3698992.9733457,0.015073646614909
14294200,0.99765872380623,0.015768806594823,0.0043893008438492,0.0069902049071224,0.0043893008438515,-0.00086988946911667,0.00086989800949815,3.7133827153541e-09,3.7133010381336e-09,1.8066616622337e-09,5.067383854931e-09,-0.0010067791270271,0.001006787260243,-0.0010067786237868,0.001006786756819,-0.0010067780207955,0.0010067883678905,-0.0010067775347275,0.0010067878816546,-0.00084254154390823,0.00084255011067614,-0.00084254216506093,0.00084255073147958,5.8845279817095e-10,-2.5198910657047e-09,1.3391445106427e-09,-3.225609845951e-09,-0.0018547295755008,0.0018547276871621,-0.0020848952139539,0.0020848959178013,-0.0020848957972952,0.0020848934473438,-0.0020848953254592,0.002084893940733,-0.0020848959088317,0.0020848914702933,-0.001597779928673,0.0015977815187869,-0.0015977856767331,0.001597778261842,-0.0015977809003959,0.0015977805221553,-0.0015977852345235,0.0015977787216487,3.7871081279904e-09,3.7870257872558e-09,-0.0008698893953263,0.00086989808329018,1.1918857469145e-09,5.8584297653551e-09,-0.0010067792964449,0.0010067871014203,-0.0010067777156048,0.0010067886669483,-0.0010067787887002,0.0010067865935097,-0.0010067772295827,0.0010067881807523,-0.00084254185597395,0.00084255103854654,-0.00084254123057047,0.0008425504134743,0.35654227421898,122718,2924,0.0036203283572617,0.0076973041150613,0.0036203283572652,33.158099071372,0.00018046479257097,0.00018046479257097,0.00018046479257097,3701506.2829013,0.015050669182406
14794200,0.99811826012307,0.015772966061971,0.0043904509558692,0.0069920641502305,0.0043904509558715,-0.00086646590710818,0.00086647706213004,4.7175740855558e-09,4.7174923270485e-09,2.613691879498e-09,6.2897191146926e-09,-0.0010015456609849,0.0010015559700588,-0.0010015449641566,0.001001555273047,-0.0010015444147864,0.0010015572190877,-0.0010015437381095,0.0010015565422431,-0.00083901420312145,0.00083902503491758,-0.00083901485211004,0.0008390256835567,6.9459984759851e-10,-2.8007702146866e-09,1.5068100775747e-09,-3.5624898039113e-09,-0.0018501434276074,0.0018501413697332,-0.0020817187721822,0.00208171962735,-0.0020817192884505,0.0020817167317707,-0.002081718778911,0.0020817172651788,-0.0020817192952105,0.0020817143696174,-0.0015920247869688,0.0015920265660082,-0.0015920309326697,0.0015920227254712,-0.0015920258358899,0.0015920254895401,-0.0015920304561355,0.0015920232214627,4.8004935419087e-09,4.800411139029e-09,-0.00086646582415771,0.00086647714508222,1.9537047636605e-09,7.1472276650209e-09,-0.0010015458424865,0.0010015558019791,-0.0010015440805382,0.0010015575448476,-0.001001545140488,0.001001555099815,-0.0010015434041017,0.0010015568682374,-0.00083901451486288,0.00083902601849785,-0.00083901386076691,0.00083902536473342,0.38363926946722,122718,2924,0.0036061052215193,0.007678388122427,0.0036061052215229,31.097822257359,0.00016398257805887,0.00016398257805887,0.00016398257805887,3759631.372226,0.01500258563947
15294200,0.99843567823759,0.015776105245726,0.0043913215371547,0.0069934621714138,0.004391321537157,-0.00085863998395158,0.00085865352307561,5.6325759489597e-09,5.6324943177879e-09,3.2608633995692e-09,7.5183005357853e-09,-0.00099606436135707,0.00099607651849599,-0.00099606350482905,0.00099607566178402,-0.00099606292336246,0.00099607796309821,-0.00099606208871178,0.00099607712827967,-0.00083122892243856,0.00083124188732997,-0.00083122959787655,0.00083124256241902,8.9571557668045e-10,-3.159894884645e-09,1.7954354407974e-09,-4.0021694468235e-09,-0.0018466072761207,0.0018466050665765,-0.002077080106107,0.0020770812543196,-0.0020770806536406,0.002077077890952,-0.0020770800890655,0.0020770784812195,-0.0020770806366302,0.0020770751178696,-0.0015893032096159,0.001589305359593,-0.0015893099449863,0.001589300686717,-0.0015893043687061,0.0015893041707763,-0.0015893094187226,0.0015893012339683,5.7197113314803e-09,5.7196290183331e-09,-0.00085863989669798,0.00085865361033094,2.5250666096248e-09,8.462450220803e-09,-0.00099606456881695,0.00099607632792132,-0.00099606255527687,0.00099607831959529,-0.0009960637064757,0.00099607546541417,-0.00099606172114622,0.00099607748529063,-0.00083122922870668,0.00083124292889652,-0.00083122854737479,0.00083124224789585,0.41917582178608,122718,2924,0.0035736474146187,0.0076637076857901,0.0035736474146223,27.951648068554,0.00013881318454843,0.00013881318454843,0.00013881318454843,3708967.0656481,0.014921814967874
15794200,0.9986701660775,0.01577931525802,0.0043922277796972,0.0069948596986236,0.0043922277796995,-0.00085183947982023,0.00085185127514603,4.9640623046423e-09,4.9639806983383e-09,2.5321753766223e-09,6.90821073111e-09,-0.00099154867492002,0.00099155924443475,-0.00099154795383757,0.00099155852316833,-0.00099154720428657,0.00099156072632989,-0.0009915465018218,0.00099156002369716,-0.00082465955107903,0.00082467113917594,-0.00082466021195939,0.00082467179970742,9.6048072012036e-10,-3.2321189846895e-09,1.9415667877027e-09,-4.153974851155e-09,-0.0018445905631311,0.0018445883476324,-0.0020741626117173,0.0020741638764686,-0.002074163407637,0.0020741605863036,-0.0020741627912062,0.0020741612305904,-0.0020741635871572,0.0020741579404434,-0.0015877309829827,0.0015877333817257,-0.0015877380624839,0.0015877284596667,-0.0015877322466294,0.0015877320857548,-0.001587737486028,0.0015877290589214,5.0557242103605e-09,5.055641949197e-09,-0.00085183938793708,0.00085185136703098,1.7226662954036e-09,7.9379146915805e-09,-0.00099154890551843,0.00099155903188211,-0.00099154680468527,0.00099156111358756,-0.00099154817822045,0.00099155830441812,-0.00099154610273793,0.00099156041146615,-0.00082465981152722,0.00082467219740564,-0.000824659144609,0.00082467153081842,0.57830827621217,122718,2924,0.0035454428052274,0.00765531019958,0.0035454428052312,25.609908803386,0.00012007927042708,0.00012007927042708,0.00012007927042708,3647789.3525309,0.014856056479633
16294200,0.99885935342227,0.015782017430755,0.004392988578206,0.0069960402743405,0.0043929885782083,-0.00084406944961414,0.00084407830573734,3.8269437965895e-09,3.8268623538696e-09,1.5317668793968e-09,5.6263493236255e-09,-0.00099076880793419,0.00099077684601763,-0.00099076830909789,0.00099077634699715,-0.0009907674347202,0.00099077823043379,-0.00099076695064212,0.00099077774618707,-0.00081743585006155,0.00081744494144824,-0.0008174364881113,0.00081744557914956,9.385558742917e-10,-3.0032060065298e-09,1.9784598609976e-09,-3.9883373788543e-09,-0.0018490254156805,0.001849023402846,-0.0020751445052487,0.0020751458160704,-0.0020751455114866,0.0020751428511765,-0.0020751448552705,0.0020751435354594,-0.0020751458615403,0.002075140570584,-0.0015943772806885,0.0015943798497755,-0.0015943843178528,0.0015943751260741,-0.0015943786225254,0.0015943784751481,-0.0015943836996772,0.0015943757673789,3.91235000379e-09,3.9122679265621e-09,-0.0008440693637704,0.00084407839158275,6.5295582020672e-10,6.7134130963851e-09,-0.00099076906389917,0.00099077660592367,-0.00099076702134705,0.00099077863361158,-0.00099076855915496,0.00099077610101375,-0.00099076653750485,0.00099077814959507,-0.00081743607300394,0.00081744599174008,-0.00081743542992008,0.000817445348986,0.60323978489722,122718,2924,0.0035132681663073,0.0076734657583401,0.0035132681663108,24.599330055156,0.00011199464044125,0.00011199464044125,0.00011199464044125,3433859.6540863,0.014809219350813
16794200,0.99901610134563,0.015784595097713,0.0043937248810684,0.0069971453355743,0.0043937248810708,-0.00083955464817359,0.00083956273657761,3.5264447605737e-09,3.5263632120783e-09,1.3727608241708e-09,5.168159995495e-09,-0.00098685538499744,0.00098686286837168,-0.00098685493527617,0.00098686241846642,-0.00098685411008731,0.00098686415282133,-0.00098685367448217,0.00098686371704792,-0.0008130845099388,0.00081309287276289,-0.00081308514293331,0.00081309350540878,8.2874919033994e-10,-2.819954403064e-09,1.9028182267976e-09,-3.8420611504339e-09,-0.0018492663589352,0.0018492644170253,-0.0020764530662123,0.0020764542720319,-0.0020764540592906,0.0020764514468894,-0.0020764533817148,0.0020764521547933,-0.0020764543748246,0.0020764493296688,-0.0015931705928773,0.0015931731143104,-0.0015931774510436,0.0015931686445016,-0.0015931719801411,0.001593171691716,-0.0015931768086218,0.0015931693117751,3.6167200576702e-09,3.6166378804306e-09,-0.00083955455741459,0.0008395628273383,4.6424725571207e-10,6.2973249750934e-09,-0.00098685564719655,0.00098686262091759,-0.00098685368171324,0.00098686457246308,-0.00098685519146465,0.00098686216501968,-0.00098685324610962,0.00098686413668548,-0.0008130847113049,0.00081309393460592,-0.00081308407360993,0.00081309329724152,0.69170269372314,122718,2924,0.0034945496545547,0.0076744500771989,0.0034945496545582,23.937629132437,0.0001067010330595,0.0001067010330595,0.0001067010330595,3379425.6285807,0.014772225282384
17294200,0.99914209170681,0.015786517545878,0.0043942707164697,0.0069979761129359,0.004394270716472,-0.00083258521506028,0.00083259470446905,4.0465320293583e-09,4.0464505434741e-09,1.92957170451e-09,5.6796921415979e-09,-0.00098282232164863,0.00098283098447398,-0.0009828217746149,0.00098283043725613,-0.00098282105785257,0.00098283225499019,-0.00098282052666281,0.00098283172363218,-0.00080620065465742,0.00080621012344447,-0.00080620130673637,0.00080621077517488,8.2449788150862e-10,-2.7672121339512e-09,1.9155892344167e-09,-3.8074260145135e-09,-0.0018502242822444,0.0018502223878616,-0.0020769217342776,0.0020769229750752,-0.0020769225910737,0.0020769200144389,-0.0020769219021648,0.0020769207338069,-0.0020769227589925,0.0020769177731886,-0.0015940753878172,0.0015940779490398,-0.0015940821398488,0.0015940734216601,-0.001594076797618,0.0015940765037654,-0.0015940814853389,0.0015940741011362,4.1341600327782e-09,4.1340779071842e-09,-0.00083258512689004,0.000832594792641,1.0005348290831e-09,6.8242917716075e-09,-0.00098282259188025,0.00098283072829681,-0.0009828206264979,0.00098283267826279,-0.00098282203895966,0.0009828301752101,-0.00098282009522644,0.00098283214681701,-0.0008062008718371,0.00080621120763523,-0.00080620021536812,0.00080621055149655,0.64234400723819,122718,2924,0.0034656650008827,0.0076783371934414,0.0034656650008863,22.611424591275,9.6091396730198e-05,9.6091396730198e-05,9.6091396730198e-05,3265272.1591427,0.014717566484907
17794200,0.99923788337454,0.015787743471413,0.004394616912527,0.006998509646357,0.0043946169125293,-0.00082607859199003,0.00082609066599377,5.0227753018167e-09,5.0226936476512e-09,2.7874050963513e-09,6.8006904427516e-09,-0.00097384831451753,0.00097385915492533,-0.00097384757378485,0.00097385841400884,-0.00097384696059013,0.00097386051611466,-0.00097384623860319,0.00097385979395973,-0.00079951342979156,0.00079952506977043,-0.00079951412254734,0.00079952576217741,8.7533161671996e-10,-2.9521439216179e-09,1.9911015922131e-09,-4.0126571433728e-09,-0.0018447200099625,0.0018447179856775,-0.0020743771552162,0.002074378463427,-0.0020743778632481,0.0020743751436272,-0.0020743771609322,0.0020743758787792,-0.0020743778689955,0.0020743725589974,-0.0015858089616115,0.0015858115813961,-0.0015858158884104,0.0015858066872605,-0.0015858104010858,0.0015858101039404,-0.0015858152223007,0.0015858073800433,5.1190500774899e-09,5.1189678319877e-09,-0.00082607849525451,0.00082609076273091,1.8485491171816e-09,7.9750743933147e-09,-0.00097384858492755,0.00097385890073614,-0.00097384651336801,0.00097386095348183,-0.00097384783777316,0.00097385815341593,-0.00097384579144009,0.00097386023138032,-0.00079951367219287,0.00079952620988233,-0.00079951297425738,0.00079952551227761,0.53882889525828,122718,2924,0.0034386436170342,0.0076556486980564,0.0034386436170376,20.110587111339,7.6084696890713e-05,7.6084696890713e-05,7.6084696890713e-05,3302499.3424193,0.014639691241519
18294200,0.99931203679204,0.015788684133196,0.0043948830654534,0.0069989180022871,0.0043948830654557,-0.00082231525695989,0.0008223273283352,5.0367526478294e-09,5.0366708321654e-09,2.6655384120614e-09,6.9303581434924e-09,-0.00096542850805099,0.00096543937403124,-0.00096542775566875,0.00096543862146567,-0.00096542707347114,0.00096544081988149,-0.00096542633957818,0.00096544008582093,-0.0007953646571907,0.00079537639308285,-0.0007953653638157,0.00079537709935826,9.1257953567455e-10,-3.1614345103164e-09,2.0642046013781e-09,-4.2534431146443e-09,-0.0018375431549538,0.0018375409628059,-0.0020707469480348,0.0020707482748907,-0.0020707477531499,0.0020707448452399,-0.0020707470301272,0.0020707456038482,-0.0020707478352732,0.0020707421742154,-0.0015757313854116,0.001575734064266,-0.0015757386680594,0.0015757289089009,-0.001575732869403,0.001575732539321,-0.001575737983425,0.0015757296223356,5.1461594928747e-09,5.146077127685e-09,-0.00082231514726244,0.00082232743803469,1.7105022068317e-09,8.1503367356281e-09,-0.00096542877821526,0.00096543912256951,-0.00096542660249852,0.00096544127908755,-0.00096542801871373,0.00096543836290226,-0.00096542586879353,0.00096544054520887,-0.00079536488992724,0.00079537757057565,-0.00079536417713586,0.00079537685811515,0.53411689256546,122718,2924,0.0034229721590395,0.0076260989460744,0.0034229721590438,17.682615110745,5.6660920885962e-05,5.6660920885962e-05,5.6660920885962e-05,3418134.2053325,0.014577883396536
18794200,0.99937647307592,0.015789586287441,0.0043951386079727,0.0069993090714935,0.004395138607975,-0.00082081697119241,0.00082082522703573,3.5962504518923e-09,3.5961687215926e-09,1.3750071668076e-09,5.2967138953793e-09,-0.00096418365749533,0.00096419132159171,-0.00096418318913963,0.00096419085305239,-0.00096418234240588,0.00096419264903663,-0.00096418188759494,0.0009641921940578,-0.00079364231610303,0.00079365086536163,-0.00079364297313951,0.00079365152204902,8.210256270542e-10,-2.9500618679291e-09,1.9900332712613e-09,-4.0645526614709e-09,-0.0018369604380401,0.0018369583609041,-0.0020700095634225,0.0020700107780707,-0.0020700106323172,0.0020700078250492,-0.0020700098963839,0.0020700085964834,-0.0020700109653101,0.0020700056434797,-0.0015754921415329,0.0015754947911158,-0.0015754993298795,0.0015754900429167,-0.0015754936506152,0.0015754932410158,-0.0015754986296632,0.0015754907720861,3.7055713386039e-09,3.7054890573529e-09,-0.00082081686157756,0.00082082533665236,3.9763358453753e-10,6.5387979376177e-09,-0.00096418393327833,0.00096419106244519,-0.00096418186594359,0.00096419311590215,-0.00096418345798851,0.00096419058698972,-0.00096418141103069,0.00096419266081573,-0.00079364249237174,0.00079365200057766,-0.00079364182984301,0.00079365133837988,0.58991735850312,122718,2924,0.0034167411595256,0.0076236836508591,0.0034167411595294,17.023669784814,5.138935827851e-05,5.138935827851e-05,5.138935827851e-05,3406893.8271621,0.014562795577041
19294200,0.99943555709384,0.015790549615965,0.0043954131235106,0.0069997233689416,0.0043954131235129,-0.00081930894814899,0.00081931528428309,2.860317399322e-09,2.8602357798072e-09,8.1034013086561e-10,4.3715145922594e-09,-0.00096535664099429,0.00096536273558795,-0.00096535631349444,0.00096536240790422,-0.00096535544529359,0.00096536394094396,-0.00096535512952875,0.00096536362501088,-0.0007922747335178,0.00079228159569403,-0.00079227537389706,0.00079228223572451,7.2877056497125e-10,-2.7016221580034e-09,1.8898629700423e-09,-3.8136855776411e-09,-0.0018397073530879,0.0018397054269922,-0.0020712414860962,0.0020712426055337,-0.0020712426117672,0.0020712399574587,-0.0020712418787913,0.0020712407246096,-0.0020712430044936,0.0020712380765525,-0.0015793875087412,0.0015793900833573,-0.0015793944284876,0.001579385749371,-0.001579389010212,0.0015793885421117,-0.0015793937281821,0.001579386477821,2.9631601528884e-09,2.9630779629433e-09,-0.0008193088449316,0.00081931538750217,-1.7174857711063e-10,5.6039549925998e-09,-0.00096535691985495,0.00096536247067923,-0.0009653549776642,0.00096536440145999,-0.00096535658589384,0.00096536213655207,-0.00096535466152543,0.0009653640851474,-0.0007922749007951,0.00079228270683854,-0.0007922742558452,0.00079228206221928,0.68618893851367,122718,2924,0.0034105071464398,0.0076349703079032,0.0034105071464434,17.223150214407,5.2985201715254e-05,5.2985201715254e-05,5.2985201715254e-05,3320235.6236075,0.014561614409773
19794200,0.99949318553604,0.015791425497804,0.0043956618892252,0.007000101719351,0.0043956618892276,-0.00081859086882954,0.00081859514119078,2.0705367343623e-09,2.0704551640277e-09,6.76255312335e-11,3.5571764734064e-09,-0.00096730235050595,0.00096730663813571,-0.00096730202484025,0.00096730631228585,-0.0009673011787368,0.00096730781862923,-0.0009673008649291,0.00096730750465314,-0.00079181118179301,0.00079181623000952,-0.00079181182023927,0.00079181686810702,7.3574517149005e-10,-2.6634166848603e-09,1.8950616656963e-09,-3.7743124870502e-09,-0.0018442490853027,0.0018442472037641,-0.0020752661110121,0.0020752672535659,-0.0020752672246125,0.0020752646154241,-0.0020752664922452,0.0020752653813858,-0.0020752676058768,0.0020752627432617,-0.0015842585959989,0.001584261192081,-0.0015842654792711,0.0015842568885635,-0.0015842600952426,0.0015842596531842,-0.0015842647795045,0.0015842576163813,2.1675342271113e-09,2.1674520881206e-09,-0.00081859077136489,0.00081859523865698,-9.1993848759891e-10,4.7828312172205e-09,-0.00096730263432642,0.00096730636769193,-0.00096730071716356,0.0009673082735673,-0.00096730230234214,0.00096730603554141,-0.00096730040293628,0.00096730795916597,-0.00079181135320614,0.00079181733322967,-0.00079181071034454,0.00079181669069858,0.63956409207332,122718,2924,0.0034075614920315,0.0076536752369987,0.0034075614920347,18.52012785567,6.336102284536e-05,6.336102284536e-05,6.336102284536e-05,3179329.7857169,0.014574629961427
20294200,0.99954523645754,0.015792306933907,0.0043959153043706,0.0070004763251634,0.0043959153043729,-0.00081835459356406,0.00081836075494345,2.7880024555821e-09,2.7879207989868e-09,7.7417325077206e-10,4.2555106031604e-09,-0.00096614665109887,0.00096615262379686,-0.00096614644922944,0.00096615242174358,-0.00096614548245376,0.00096615380270566,-0.00096614529080177,0.00096615361088558,-0.00079162708989707,0.00079163378745393,-0.0007916278044243,0.00079163450163234,6.9874773079529e-10,-2.6330418729958e-09,1.8562564527572e-09,-3.7426111118584e-09,-0.0018444603433546,0.0018444584548153,-0.00207571578575,0.0020757168630115,-0.0020757170180819,0.0020757144032338,-0.002075716287276,0.0020757151681552,-0.0020757175196393,0.0020757127083954,-0.0015841043201889,0.0015841068644757,-0.0015841112591576,0.0015841027532814,-0.0015841058176079,0.0015841053275877,-0.0015841105601242,0.0015841034802396,2.8897663605184e-09,2.8896841349568e-09,-0.00081835449142904,0.00081836085708016,-2.0609601670228e-10,5.4840910266319e-09,-0.00096614692969358,0.00096615235855541,-0.00096614501720625,0.00096615426133032,-0.00096614672152248,0.00096615215021844,-0.000966144825129,0.00096615406907924,-0.00079162733344133,0.00079163497068876,-0.00079162661453102,0.0007916342521091,0.71062741172855,122718,2924,0.0034065790621171,0.0076545710151014,0.0034065790621206,18.622934194685,6.4183473557477e-05,6.4183473557477e-05,6.4183473557477e-05,3218647.1367722,0.014573534931357
20794200,0.99958990614127,0.015793039342433,0.0043961248948508,0.0070007895527296,0.0043961248948531,-0.00081421723035685,0.00081422537541833,3.5382740415741e-09,3.5381924774497e-09,1.5135705112852e-09,4.9928224756124e-09,-0.00096382396497002,0.00096383167982451,-0.0009638236620129,0.00096383137668347,-0.00096382279516071,0.00096383285803677,-0.00096382250358519,0.00096383256629323,-0.00078769681674439,0.00078770524995768,-0.00078769743741127,0.00078770587027603,7.040527573186e-10,-2.6106956585397e-09,1.8594360027418e-09,-3.7186058042041e-09,-0.0018448299722413,0.0018448281108986,-0.0020759189250038,0.0020759200257281,-0.0020759200407487,0.0020759174540844,-0.002075919310993,0.0020759182176447,-0.0020759204267692,0.002075915646019,-0.0015845501094522,0.0015845526657,-0.0015845568998853,0.0015845484468425,-0.0015845516040772,0.0015845511314702,-0.0015845562017833,0.0015845491729304,3.6355064741698e-09,3.635424337429e-09,-0.00081421713269155,0.00081422547308537,5.2967820969428e-10,6.2154708045222e-09,-0.00096382424714779,0.00096383141052786,-0.00096382233493602,0.0009638333120803,-0.00096382393796436,0.00096383110117858,-0.00096382204289034,0.00096383301986086,-0.00078769697137377,0.00078770633446988,-0.00078769634642943,0.00078770570985597,0.68874656512079,122718,2924,0.0033894320694072,0.0076560505101713,0.0033894320694109,17.843465919897,5.7947727359179e-05,5.7947727359179e-05,5.7947727359179e-05,3117498.1419857,0.014540255995356
21294200,0.99962534774958,0.015793593565668,0.0043962836990051,0.0070010261676559,0.0043962836990074,-0.00080835431970242,0.00080836590017667,4.8382015060004e-09,4.8381198561174e-09,2.7095858900992e-09,6.503018163406e-09,-0.00095762318154777,0.00095763370299007,-0.00095762248035512,0.00095763300161364,-0.00095762189810837,0.00095763499089444,-0.00095762121527485,0.00095763430789297,-0.00078160281006771,0.00078161398032329,-0.00078160352652085,0.00078161469642758,7.9016473727437e-10,-2.8214297086121e-09,1.9417865891644e-09,-3.9214587563033e-09,-0.0018416149669407,0.0018416129849714,-0.0020738629471454,0.0020738641767035,-0.0020738636505307,0.0020738609481596,-0.0020738629245853,0.0020738617082052,-0.0020738636280018,0.0020738584796792,-0.0015797038766718,0.0015797064731784,-0.0015797107043785,0.001579701754568,-0.0015797053643249,0.0015797049458644,-0.001579710012135,0.0015797024748102,4.9378041352672e-09,4.937721914279e-09,-0.00080835421973141,0.00080836600014948,1.7363331813014e-09,7.7201268877106e-09,-0.0009576234603054,0.00095763343878641,-0.00095762143699479,0.00095763544416961,-0.00095762275268558,0.00095763273100073,-0.00095762075387655,0.00095763476087765,-0.0007816030604888,0.00078161516021939,-0.00078160233924819,0.0007816144393092,0.65636073682636,122718,2924,0.0033651050635098,0.0076427775476399,0.0033651050635136,15.648357664843,4.0386861318742e-05,4.0386861318742e-05,4.0386861318742e-05,3142781.8093049,0.014477427780377
21794200,0.99965466188126,0.015794045155397,0.0043964130298283,0.0070012190957378,0.0043964130298306,-0.00080457966910162,0.00080459017559263,4.437598225821e-09,4.4375165176919e-09,2.2469153943506e-09,6.147009927478e-09,-0.00095257596570171,0.00095258556103047,-0.00095257534012872,0.00095258493527377,-0.00095257465100537,0.00095258688345652,-0.00095257404214307,0.00095258627442632,-0.00077768681544601,0.00077769716112867,-0.00077768752375889,0.00077769786909258,8.1697797267785e-10,-2.9102114863603e-09,1.9755920800769e-09,-4.0153658033898e-09,-0.001838137506568,0.0018381354643632,-0.0020717067157333,0.0020717079539239,-0.0020717075562715,0.0020717047901837,-0.0020717068265569,0.0020717055546604,-0.0020717076671263,0.0020717023909379,-0.0015750691475859,0.0015750717753661,-0.0015750761630438,0.001575066988839,-0.0015750706435047,0.0015750702390927,-0.0015750754682713,0.0015750677121067,4.540652694677e-09,4.5405704574834e-09,-0.00080457956574569,0.00080459027895032,1.2723489897882e-09,7.3730777089158e-09,-0.00095257624377519,0.0009525852985203,-0.00095257418432823,0.00095258734143097,-0.00095257561155861,0.0009525846661381,-0.00095257357525237,0.00095258673218142,-0.00077768705247928,0.00077769833816336,-0.00077768633898149,0.00077769762499633,0.64667352748276,122718,2924,0.0033494198640831,0.0076284344329666,0.0033494198640869,13.984308507459,2.7074468059671e-05,2.7074468059671e-05,2.7074468059671e-05,3167851.6069996,0.014431047088719
22294200,0.99968275848374,0.015794478307987,0.0043965369956093,0.0070014043167658,0.0043965369956116,-0.00080560730047968,0.00080561271823842,2.5071305846978e-09,2.5070488856791e-09,5.3396156756858e-10,3.9308513327194e-09,-0.00095330346362592,0.0009533088239591,-0.00095330320416944,0.00095330856431892,-0.00095330232303964,0.00095330997363605,-0.00095330207420607,0.00095330972463456,-0.00077861240447248,0.00077861846736958,-0.00077861304517389,0.00077861910772219,6.6799877788999e-10,-2.6067019291042e-09,1.8126453109888e-09,-3.7041456448932e-09,-0.0018395108425356,0.0018395089489985,-0.0020734003688762,0.0020734013986413,-0.0020734015129067,0.0020733989014516,-0.0020734007906876,0.0020733996581394,-0.0020734019347493,0.0020733971609674,-0.0015762212507997,0.0015762237292008,-0.0015762280322351,0.0015762196200675,-0.0015762227316496,0.0015762222082687,-0.0015762273410241,0.0015762203396353,2.6095323776359e-09,2.6094501471774e-09,-0.00080560719779815,0.0008056128209217,-4.3326384767509e-10,5.1478701553265e-09,-0.00095330373726244,0.00095330856322517,-0.00095330186206336,0.00095331042856743,-0.0009533034714815,0.00095330829727857,-0.00095330161270005,0.0009533101790305,-0.00077861257782578,0.00077861957333817,-0.00077861193268216,0.0007786189285252,0.64733924167755,122718,2924,0.0033536736539881,0.0076341219592965,0.0033536736539918,14.63341345839,3.2267307667118e-05,3.2267307667118e-05,3.2267307667118e-05,3160061.3439283,0.014445446732441
22794200,0.99970959526121,0.015794916798503,0.0043966629160479,0.0070015909664053,0.0043966629160502,-0.00080639611156812,0.00080640148177727,2.4869186230509e-09,2.4868369354251e-09,5.3313962739152e-10,3.8907161013526e-09,-0.00095424084120196,0.00095424616771444,-0.00095424058179223,0.00095424590812087,-0.00095423971312322,0.00095424730425458,-0.00095423946443099,0.00095424705539425,-0.00077940443261595,0.00077941044024021,-0.00077940507082221,0.00077941107809745,6.5566170583789e-10,-2.5812773995708e-09,1.7976139665978e-09,-3.6766513534131e-09,-0.0018410134246951,0.001841011543666,-0.0020748988789593,0.0020748998950447,-0.0020749000093279,0.002074897411796,-0.0020748992886228,0.0020748981668125,-0.0020749004190226,0.0020748956835814,-0.0015777171883254,0.001577719649954,-0.0015777239262181,0.0015777155807451,-0.0015777186659572,0.0015777181323347,-0.0015777232361617,0.0015777162991023,2.5886777793473e-09,2.5885955594914e-09,-0.00080639600952913,0.00080640158381785,-4.3273766066151e-10,5.1049254780207e-09,-0.00095424111449242,0.00095424590701752,-0.00095423925370524,0.0009542477579307,-0.00095424084880192,0.00095424564116121,-0.00095423900444539,0.00095424750849702,-0.00077940460485938,0.00077941154236325,-0.00077940396230249,0.00077941090013716,0.68566527776759,122718,2924,0.003356951573472,0.0076403309475792,0.0033569515734754,15.286495327675,3.7491962621401e-05,3.7491962621401e-05,3.7491962621401e-05,3139970.5111073,0.014458397507503
23294200,0.99973457528262,0.015795318994921,0.0043967783063664,0.0070017623821856,0.0043967783063687,-0.00080552240531728,0.00080552845651777,2.7444690977096e-09,2.7443874656532e-09,7.984320019743e-10,4.1335499609743e-09,-0.00095453424242724,0.00095454016977901,-0.00095453398631816,0.00095453991348614,-0.00095453312080446,0.00095454129910325,-0.00095453287550143,0.0009545410536322,-0.00077862169171283,0.00077862828052802,-0.00077862233099377,0.00077862891946022,6.5088217373167e-10,-2.5496717078383e-09,1.7899950188809e-09,-3.6428841027442e-09,-0.0018426318647748,0.0018426300099191,-0.0020762755897134,0.0020762766063128,-0.002076276709397,0.0020762741393908,-0.0020762759900975,0.0020762748925927,-0.0020762771098124,0.0020762724256885,-0.0015795163229625,0.0015795187822735,-0.0015795230173598,0.0015795147507066,-0.0015795177971628,0.0015795172682627,-0.0015795223284805,0.0015795154677781,2.8432857567336e-09,2.8432035927878e-09,-0.00080552230618044,0.00080552855565631,-1.6868719495728e-10,5.3426858966812e-09,-0.00095453451754163,0.00095453990682216,-0.00095453266508536,0.0009545417494701,-0.00095453425524294,0.00095453964435772,-0.00095453241917011,0.00095454150338112,-0.0007786218686463,0.00077862938016353,-0.00077862122514516,0.00077862873699298,0.6756953747001,122718,2924,0.0033533430603678,0.0076469896641903,0.0033533430603714,15.567520201982,3.9740161615859e-05,3.9740161615859e-05,3.9740161615859e-05,3077717.3859157,0.014457839029089
23794200,0.9997589488594,0.015795740101798,0.004396899866526,0.0070019403687439,0.0043968998665283,-0.00080723159616811,0.00080723591609467,2.083313933171e-09,2.0832322654e-09,3.8502324081531e-10,3.2097865347247e-09,-0.00095629557145333,0.00095630015634662,-0.00095629538764571,0.00095629997235531,-0.0009562946160016,0.00095630111450308,-0.00095629444265324,0.00095630094098684,-0.0007803102385072,0.00078031521764165,-0.00078031085882942,0.00078031583761511,4.8602876574307e-10,-2.2278452551802e-09,1.5770476923932e-09,-3.2796907324053e-09,-0.0018452586915006,0.0018452569874755,-0.0020789393636365,0.0020789401722071,-0.0020789403906932,0.0020789379998723,-0.0020789397008425,0.0020789387223831,-0.0020789407279305,0.0020789365500662,-0.001581914533809,0.0015819167418185,-0.0015819207139572,0.0015819133245181,-0.0015819159488354,0.0015819152886327,-0.0015819200495992,0.0015819140159321,2.1791766749131e-09,2.1790944625864e-09,-0.00080723150003504,0.00080723601222948,-5.436094727214e-10,4.3729764076819e-09,-0.00095629583256331,0.00095629990415405,-0.00095629417973554,0.00095630154839836,-0.00095629564312239,0.00095629971454739,-0.00095629400547743,0.00095630137396654,-0.00078031041408706,0.00078031628101806,-0.00078030979044524,0.00078031565770678,0.72405164761953,122718,2924,0.0033604412183553,0.0076578527246421,0.0033604412183589,16.678942591569,4.8631540732552e-05,4.8631540732552e-05,4.8631540732552e-05,3074416.3192959,0.014483259403191
24294200,0.99978252046355,0.015796137478191,0.0043970143654228,0.0070021087473435,0.0043970143654251,-0.00080777441821702,0.00080777875390723,2.0843127229344e-09,2.0842311141324e-09,5.4273059202649e-10,3.050925938748e-09,-0.0009586208059672,0.00095862550117311,-0.00095862061852151,0.00095862531354351,-0.00095861995107298,0.00095862635406244,-0.00095861977504471,0.00095862617786612,-0.00078089760921502,0.00078090248805511,-0.00078089823117848,0.00078090310966985,3.8666572445107e-10,-2.0106971050248e-09,1.4206454634916e-09,-3.01012499463e-09,-0.0018489300893968,0.0018489284989196,-0.0020817715461999,0.0020817722261514,-0.0020817724324953,0.00208177019012,-0.0020817717776706,0.0020817708753404,-0.0020817726639974,0.0020817688393269,-0.0015861756067829,0.0015861776135746,-0.0015861813672863,0.0015861746145046,-0.0015861769501651,0.0015861762345954,-0.0015861807349026,0.0015861752721686,2.1720416834411e-09,2.1719595211569e-09,-0.00080777433020806,0.00080777884191812,-3.4296357722755e-10,4.1521550877953e-09,-0.00095862105531917,0.00095862525825231,-0.0009586195415732,0.00095862676323601,-0.00095862086284112,0.0009586250656086,-0.00095861936447617,0.00095862658596523,-0.00078089781238631,0.00078090352727461,-0.00078089718782298,0.00078090290304171,0.70665004714257,122718,2924,0.0033627184451451,0.0076729864424351,0.0033627184451491,17.762918979031,5.7303351832247e-05,5.7303351832247e-05,5.7303351832247e-05,3006473.9699847,0.014503244159421
24794200,0.99980437171884,0.015796453410108,0.0043971049680882,0.0070022434739293,0.0043971049680905,-0.00080813253935272,0.00080813800971583,2.5156214190568e-09,2.5155397714558e-09,9.6894051561324e-10,3.4748068794762e-09,-0.00095852729120691,0.00095853298564622,-0.00095852710407578,0.00095853279833125,-0.00095852643637788,0.00095853383825423,-0.00095852626068431,0.00095853366239265,-0.00078130384681783,0.00078130970723049,-0.00078130447054458,0.00078131033060854,3.751307833356e-10,-1.9984409273838e-09,1.4037784573553e-09,-2.9927710086059e-09,-0.0018495517711068,0.0018495501811582,-0.002082694650582,0.0020826953119533,-0.0020826955269204,0.0020826932885854,-0.0020826948756737,0.0020826939703247,-0.0020826957520434,0.0020826919469746,-0.0015865246865572,0.0015865266679713,-0.00158653041375,0.0015865237029783,-0.0015865260231601,0.0015865252959015,-0.0015865297845712,0.0015865243573381,2.604600023463e-09,2.6045178236654e-09,-0.00080813245013522,0.00080813809893499,8.9966158301502e-11,4.5719218349189e-09,-0.00095852753749387,0.00095853274566799,-0.00095852602764778,0.00095853424676058,-0.00095852734535408,0.00095853255336252,-0.00095852585088149,0.0009585340698206,-0.00078130405235567,0.00078131074763089,-0.00078130342604112,0.00078131012164686,0.60623765082653,122718,2924,0.003364203773515,0.0076755678681686,0.0033642037735185,18.235135167731,6.1081081341847e-05,6.1081081341847e-05,6.1081081341847e-05,3006526.5099348,0.014508871438839
25294200,0.99982551077823,0.015796789903178,0.0043972023079557,0.0070023852872643,0.004397202307958,-0.00081256642371812,0.00081257028878651,1.9033325773419e-09,1.9032508154497e-09,5.3136991406902e-10,2.6799815866669e-09,-0.00095867160244436,0.00095867601007753,-0.00095867144472366,0.00095867585217335,-0.00095867086397484,0.00095867674288624,-0.00095867071763914,0.00095867659638313,-0.00078544060484834,0.00078544498518402,-0.00078544121646902,0.00078544559645575,2.5475639948451e-10,-1.7891085337271e-09,1.1971736316379e-09,-2.7014691389133e-09,-0.0018495255378118,0.0018495240329519,-0.0020858108625544,0.0020858113325893,-0.002085811622291,0.0020858095238827,-0.0020858110262012,0.0020858101491601,-0.0020858117859689,0.002085808340471,-0.0015838838903269,0.0015838855776147,-0.0015838891697605,0.001583883141875,-0.0015838851165835,0.0015838843173035,-0.0015838885922209,0.0015838837436186,1.9912831500049e-09,1.9912008019617e-09,-0.00081256633568244,0.00081257037682414,-2.6716136599189e-10,3.6927562029587e-09,-0.00095867182051627,0.00095867579616429,-0.0009586704856051,0.00095867712300469,-0.00095867165814771,0.00095867563363021,-0.00095867033801457,0.00095867697524029,-0.00078544082720419,0.00078544598490607,-0.00078544021330847,0.00078544537134147,0.66658495098468,122718,2924,0.0033825711554483,0.0076755773673466,0.0033825711554524,19.517457079313,7.1339656634505e-05,7.1339656634505e-05,7.1339656634505e-05,3097071.3001941,0.014546124544005
25794200,0.99984578120153,0.015797137224142,0.0043973026024637,0.007002532019212,0.004397302602466,-0.00081401611093702,0.00081401990874981,1.8737620480431e-09,1.8736804297189e-09,6.078529243321e-10,2.545013722813e-09,-0.00096301083621372,0.00096301524916194,-0.00096301068171611,0.00096301509448063,-0.00096301016474797,0.00096301591153194,-0.00096301002249239,0.00096301576910829,-0.00078682874199228,0.00078683298816591,-0.00078682935562205,0.00078683360144687,1.9301413637415e-10,-1.6395370649446e-09,1.0606345991646e-09,-2.4803865995391e-09,-0.0018540788287665,0.0018540774086972,-0.0020883871793315,0.0020883875484287,-0.00208838782699,0.0020883858601937,-0.0020883872768571,0.00208838643586,-0.0020883879245469,0.0020883847476428,-0.0015902253146478,0.0015902268048242,-0.0015902302391753,0.0015902247173809,-0.0015902264460123,0.0015902256435311,-0.0015902297059554,0.0015902252719459,1.9490331349344e-09,1.9489509378425e-09,-0.00081401603554848,0.00081401998413996,-1.346842954284e-10,3.4720350857418e-09,-0.00096301104118211,0.00096301504634813,-0.00096300982272261,0.00096301625662172,-0.00096301088275791,0.0009630148877579,-0.00096300967917791,0.00096301611290311,-0.00078682900282344,0.00078683395347952,-0.00078682838752794,0.00078683333851442,0.71817765879166,122718,2924,0.0033886157777767,0.0076943279310093,0.0033886157777801,20.816117689089,8.1728941512713e-05,8.1728941512713e-05,8.1728941512713e-05,3012154.5055865,0.014577434119217
26294200,0.99986337212991,0.01579747499446,0.0043974008410912,0.0070026733122753,0.0043974008410936,-0.00081149901470931,0.00081150641775787,3.2426638633154e-09,3.2425822769631e-09,1.8712502923877e-09,4.0724887672048e-09,-0.00096254168198122,0.0009625491141544,-0.00096254127275211,0.00096254870474143,-0.00096254091653294,0.00096254986802577,-0.00096254052411986,0.00096254947544465,-0.00078453693490084,0.00078454418646489,-0.00078453760057245,0.00078454485178806,2.7024542912882e-10,-1.7918091171967e-09,1.086407622934e-09,-2.5783159281006e-09,-0.0018551628395073,0.0018551613471308,-0.0020884830527918,0.0020884835026107,-0.002088483419994,0.0020884814158419,-0.0020884829029961,0.0020884819562286,-0.0020884832702296,0.0020884798694778,-0.0015919103586249,0.0015919118088676,-0.0015919152374948,0.0015919094477091,-0.001591911421994,0.0015919107180394,-0.0015919147394073,0.0015919099653663,3.3109222389954e-09,3.3108400786965e-09,-0.00081149894634138,0.00081150648612762,1.1740542634187e-09,4.9376002973023e-09,-0.00096254187667572,0.0009625489224298,-0.0009625405976869,0.00096255018867537,-0.00096254146373435,0.00096254850932265,-0.00096254020421616,0.00096254979503078,-0.0007845372723535,0.00078454517896559,-0.00078453660475371,0.00078454451169627,0.80339645022941,122718,2924,0.0033782001978329,0.0076987535618179,0.0033782001978367,20.485427859892,7.9083422879138e-05,7.9083422879138e-05,7.9083422879138e-05,2948026.0267028,0.014560800766726
26794200,0.99987941996155,0.01579777074582,0.0043974867592908,0.0070027972272361,0.0043974867592931,-0.00080990179506354,0.00080990733848261,2.5358032131253e-09,2.5357216616826e-09,1.1681250291686e-09,3.3443972456069e-09,-0.00096369601680719,0.00096370185155723,-0.00096369574201171,0.00096370157657768,-0.00096369526407261,0.00096370259506013,-0.00096369500378716,0.00096370233460644,-0.00078316160060345,0.0007831673340756,-0.00078316225068712,0.00078316798381079,2.7430281764897e-10,-1.7803107509345e-09,1.0548958715376e-09,-2.5313333157989e-09,-0.0018585459595915,0.0018585444826276,-0.0020906210004372,0.0020906214183395,-0.0020906215065615,0.0020906195407967,-0.0020906210118866,0.0020906200573639,-0.0020906215180423,0.0020906181798388,-0.0015960275787523,0.0015960289764988,-0.0015960324624408,0.0015960267670894,-0.0015960285962481,0.0015960279332776,-0.0015960319870372,0.0015960272608167,2.598416959719e-09,2.5983348576831e-09,-0.00080990173232955,0.00080990740121828,4.9935362397191e-10,4.1679972172363e-09,-0.00096369620522042,0.00096370166589567,-0.00096369496192441,0.00096370289890227,-0.00096369592697195,0.00096370138748127,-0.00096369470064947,0.00096370263745336,-0.00078316193970663,0.00078316829377581,-0.00078316128775858,0.00078316764215775,0.77082872954877,122718,2924,0.0033716037772974,0.0077126669483691,0.0033716037773009,21.015296336673,8.3322370693381e-05,8.3322370693381e-05,8.3322370693381e-05,2852975.5238982,0.014561547344756
27294200,0.99989443458756,0.015798018754411,0.0043975587695817,0.0070029012152454,0.004397558769584,-0.00081146514927825,0.00081146947168816,2.0724135051881e-09,2.0723318444864e-09,7.6703210183735e-10,2.7948489125489e-09,-0.00096373226773601,0.00096373710622114,-0.00096373207745446,0.00096373691575584,-0.00096373156567408,0.00096373779904855,-0.00096373138862153,0.00096373762182807,-0.00078466740392586,0.00078467210410838,-0.00078466803280176,0.00078467273263557,2.2408022212068e-10,-1.6936941166015e-09,9.6661831982678e-10,-2.408259760788e-09,-0.0018599536210459,0.001859952179005,-0.0020936352935152,0.0020936356197364,-0.0020936358408524,0.0020936339343547,-0.0020936353706057,0.0020936344259608,-0.0020936359179742,0.0020936327405969,-0.0015959130336681,0.0015959143083894,-0.0015959177742989,0.0015959123661273,-0.0015959140024405,0.0015959133145938,-0.0015959173219885,0.0015959128362393,2.1340633384622e-09,2.1339811485319e-09,-0.00081146508756237,0.00081146953340581,1.3352964423162e-10,3.5804748244427e-09,-0.00096373244423952,0.00096373693164574,-0.00096373127732167,0.00096373808979704,-0.00096373225067928,0.00096373673791993,-0.0009637310992273,0.00096373791152895,-0.0007846677351465,0.00078467302942083,-0.00078466710452518,0.00078467239912985,0.69048815337003,122718,2924,0.0033780859027552,0.007718530571739,0.0033780859027589,22.083543004813,9.1868344038504e-05,9.1868344038504e-05,9.1868344038504e-05,2862820.7126728,0.014580637048195
27794200,0.99990806279453,0.015798261223638,0.0043976295495866,0.0070030021244628,0.0043976295495889,-0.00081382738081231,0.00081383256986693,2.400299369046e-09,2.4002176191765e-09,1.103231862568e-09,3.1186895827622e-09,-0.00096302949750468,0.00096303509392346,-0.00096302924214325,0.00096303483837869,-0.00096302879705309,0.0009630357835527,-0.00096302855621528,0.00096303554254747,-0.00078676379268178,0.00078676919064398,-0.00078676443075395,0.00078676982836714,2.1083927379903e-10,-1.6861846810978e-09,9.1299984036394e-10,-2.3605822553031e-09,-0.0018594424724454,0.0018594410245334,-0.002095323224384,0.0020953235140969,-0.0020953236620739,0.0020953217762336,-0.0020953232179194,0.0020953222409434,-0.0020953236556406,0.0020953205030979,-0.0015936359651554,0.0015936371379808,-0.0015936405774244,0.0015936352699677,-0.0015936368815597,0.0015936361975637,-0.0015936401507846,0.0015936357137057,2.4611692681742e-09,2.4610869957316e-09,-0.00081382731995837,0.00081383263072273,5.0861818759291e-10,3.862781997576e-09,-0.00096302966119245,0.00096303493187648,-0.00096302852303475,0.00096303606011428,-0.00096302940267482,0.00096303467319333,-0.0009630282811733,0.00096303581807921,-0.00078676414733247,0.00078677011096016,-0.00078676350745219,0.00078676947141065,0.74320140094815,122718,2924,0.0033878645987044,0.0077165023610176,0.0033878645987083,22.752148860378,9.7217190883026e-05,9.7217190883026e-05,9.7217190883026e-05,2926814.5992586,0.01459840392044
28294200,0.99992029899845,0.015798496339852,0.0043976981435823,0.0070031000526848,0.0043976981435846,-0.00081377205584684,0.00081377747774502,2.4884139971274e-09,2.4883323728436e-09,1.1877632368782e-09,3.2197944539014e-09,-0.00096514700168361,0.00096515278684063,-0.00096514673189959,0.00096515251687275,-0.00096514629516111,0.00096515348215384,-0.00096514604031671,0.00096515322714154,-0.00078664714071025,0.0007866527295975,-0.00078664778583579,0.00078665337437458,2.2007901079611e-10,-1.6914677033521e-09,8.9287333986177e-10,-2.3365283540744e-09,-0.0018622466815641,0.0018622452375701,-0.0020967734151584,0.0020967737015076,-0.0020967738171274,0.0020967719541204,-0.0020967733911644,0.0020967723990561,-0.0020967737931646,0.0020967706516866,-0.001597646818641,0.0015976479462082,-0.0015976513689799,0.0015976461043594,-0.0015976476972327,0.0015976470453882,-0.0015976509608842,0.0015976465283198,2.5439970757533e-09,2.543914898249e-09,-0.00081377200027237,0.00081377753332126,6.1579772033176e-10,3.9287792706556e-09,-0.00096514716070407,0.0009651526292441,-0.00096514603549557,0.00096515374428363,-0.00096514688800196,0.0009651523563763,-0.00096514577968454,0.00096515348829879,-0.00078664751727969,0.00078665364207338,-0.00078664687042589,0.00078665299554996,0.80314137457037,122718,2924,0.0033876558138947,0.0077280392403319,0.0033876558138984,23.321884358626,0.00010177507486901,0.00010177507486901,0.00010177507486901,2860665.6470119,0.014609701831901
28794200,0.9999311785857,0.015798706115963,0.0043977594357177,0.0070031872445254,0.00439775943572,-0.00081288591173253,0.00081289154531452,2.5677123604091e-09,2.5676307665757e-09,1.2547438622176e-09,3.3192149057042e-09,-0.00096624998846441,0.00096625593851658,-0.00096624970562647,0.00096625565549476,-0.0009662492709934,0.00096625664475298,-0.00096624900337418,0.00096625637696578,-0.00078594510536114,0.00078595087465522,-0.00078594575583915,0.00078595152478501,2.3318918220114e-10,-1.7088626120967e-09,8.850736454312e-10,-2.3326812560124e-09,-0.0018648424117228,0.0018648409637453,-0.0020983835381154,0.0020983838287201,-0.0020983839168755,0.0020983820635997,-0.0020983835041125,0.0020983824944049,-0.002098383882904,0.0020983807293024,-0.0016008807615663,0.0016008818628648,-0.0016008852847807,0.0016008800177468,-0.0016008816129646,0.0016008809902934,-0.0016008848902694,0.001600880427368,2.62003880476e-09,2.6199566748426e-09,-0.00081288585941165,0.0008128915976372,6.9993236542904e-10,4.0034347551876e-09,-0.00096625014369429,0.00096625578470282,-0.00096624902111285,0.00096625689691441,-0.00096624985807597,0.00096625549891873,-0.00096624875258079,0.00096625662820846,-0.00078594549746457,0.00078595178227061,-0.00078594484526187,0.00078595113039803,0.80530597707848,122718,2924,0.0033840042707517,0.0077387163219637,0.0033840042707554,23.798696679977,0.00010558957343982,0.00010558957343982,0.00010558957343982,2791401.8874331,0.014613136353538
29294200,0.9999409665681,0.01579886503142,0.0043978056278955,0.0070032537756272,0.0043978056278978,-0.00081340340912518,0.00081340847442291,2.3512108878272e-09,2.3511292478278e-09,1.0451949318597e-09,3.1012504932792e-09,-0.0009667343096759,0.00096673976441948,-0.00096673402674984,0.00096673948130945,-0.00096673359529729,0.0009667404676047,-0.00096673332758053,0.00096674019971992,-0.00078653618280826,0.00078654145751521,-0.00078653683362137,0.00078654210797977,2.3294329588927e-10,-1.7115055995611e-09,8.8329584009488e-10,-2.3337163813312e-09,-0.0018662389442457,0.0018662374934576,-0.0020999685480499,0.0020999688364527,-0.0020999689263254,0.0020999670713232,-0.0020999685146274,0.0020999675010936,-0.0020999688929341,0.0020999657359818,-0.0016020876484377,0.0016020887454018,-0.0016020921731701,0.0016020869032561,-0.0016020884978258,0.001602087874885,-0.0016020917797091,0.00160208731179,2.4037974676962e-09,2.403715292839e-09,-0.00081340335655602,0.00081340852699374,4.923667544748e-10,3.7840483680016e-09,-0.00096673446412364,0.000966739611398,-0.00096673334573633,0.00096674071942391,-0.00096673417842336,0.00096673932553183,-0.00096673307711298,0.00096674045062665,-0.00078653657555797,0.00078654236515858,-0.00078653592300625,0.00078654171293722,0.6782856393244,122718,2924,0.0033861540558126,0.0077444894205234,0.0033861540558161,24.579167874895,0.00011183334299916,0.00011183334299916,0.00011183334299916,2771245.8545294,0.014623353453214
29794200,0.99994968649865,0.015799001113947,0.004397845283966,0.0070033105460123,0.0043978452839683,-0.00081691316884157,0.00081691822039183,2.3475017183493e-09,2.3474199192646e-09,1.0476537011283e-09,3.0663503421607e-09,-0.00096541183252941,0.00096541731253366,-0.00096541158641159,0.00096541706623267,-0.00096541113125347,0.00096541800295062,-0.00096541089969286,0.00096541777122238,-0.00078975615942773,0.00078976144678622,-0.00078975679870935,0.0007897620857189,2.097428478235e-10,-1.6918848294916e-09,8.3560833632715e-10,-2.2898856299776e-09,-0.0018649766234703,0.0018649751688727,-0.0021022197611163,0.0021022199959183,-0.0021022201634337,0.0021022183208194,-0.0021022197678847,0.0021022187344451,-0.0021022201702339,0.0021022170593639,-0.0015978144510868,0.0015978154705851,-0.0015978189302756,0.0015978137601041,-0.0015978152686866,0.0015978146318716,-0.0015978185524655,0.0015978141529642,2.4016946043931e-09,2.4016122943929e-09,-0.00081691311474176,0.00081691827449326,5.2070879361555e-10,3.7263646994849e-09,-0.00096541197722296,0.00096541716909784,-0.00096541088861176,0.00096541824804175,-0.00096541172832511,0.00096541692003469,-0.00096541065612737,0.000965418015384,-0.00078975654721896,0.00078976233640969,-0.00078975590608208,0.00078976169560381,0.65170979100276,122718,2924,0.0034006826826228,0.0077394044539873,0.0034006826826262,25.30779477355,0.0001176623581884,0.0001176623581884,0.0001176623581884,2881253.0969111,0.01464764728801
30294200,0.99995736232357,0.015799110934409,0.0043978770634599,0.0070033568074865,0.0043978770634623,-0.00081903557808351,0.00081904085960119,2.4355516329481e-09,2.4354698898026e-09,1.1360929869222e-09,3.1572582477513e-09,-0.00096713765665463,0.00096714333635313,-0.00096713739381598,0.00096714307333099,-0.00096713695380144,0.00096714402783555,-0.00096713670594589,0.00096714377981232,-0.00079163224472158,0.00079163771824949,-0.00079163288780206,0.00079163836098107,2.1000343300986e-10,-1.6918453436978e-09,8.1529945663183e-10,-2.2694216517852e-09,-0.001865864213066,0.0018658627586373,-0.0021030611615204,0.002103061385841,-0.0021030615302418,0.0021030597010655,-0.0021030611475501,0.0021030601009142,-0.0021030615163027,0.0021030584161565,-0.0015990329698885,0.0015990339484524,-0.0015990373984583,0.0015990322686137,-0.0015990337610095,0.0015990331372709,-0.0015990370335708,0.0015990326478308,2.4873452253108e-09,2.4872629656473e-09,-0.00081903552639956,0.00081904091128694,6.2639890985505e-10,3.7940963976056e-09,-0.00096713779679674,0.00096714319730078,-0.00096713672009605,0.00096714426400584,-0.00096713753130512,0.00096714293164365,-0.00096713647134257,0.00096714401507882,-0.00079163264544645,0.00079163860254132,-0.00079163200053782,0.00079163795796339,0.59851004631413,122718,2924,0.0034094826692063,0.0077430862130251,0.0034094826692101,25.935833996654,0.00012268667197323,0.00012268667197323,0.00012268667197323,2893792.529015,0.014669242286836
30794200,0.99996418376182,0.01579921706082,0.0043979079367276,0.0070034011873625,0.0043979079367299,-0.00082237475513195,0.00082237932513932,2.1648894056551e-09,2.164807631426e-09,9.0311127287384e-10,2.837985263763e-09,-0.00096901055124152,0.00096901563928826,-0.00096901033880917,0.00096901542667251,-0.00096900987791407,0.00096901630122816,-0.00096900967966201,0.00096901610280838,-0.00079490554962208,0.00079491041874599,-0.00079490617992884,0.00079491104870366,1.8319030457371e-10,-1.6398837334129e-09,7.6841725455681e-10,-2.1984445324404e-09,-0.0018664472514731,0.0018664458212079,-0.002104160557117,0.0021041607335573,-0.0021041609525738,0.0021041591601617,-0.0021041605824657,0.0021041595468446,-0.0021041609779536,0.0021041579734666,-0.0015993703479115,0.0015993712634097,-0.0015993746941344,0.0015993697299627,-0.0015993711135282,0.0015993704783933,-0.0015993743411614,0.0015993700968057,2.2155582333933e-09,2.2154759560097e-09,-0.00082237470459697,0.000822379375676,4.1093944408206e-10,3.4543312440121e-09,-0.00096901068568698,0.0009690155054041,-0.00096900965196984,0.00096901653007487,-0.00096901047072379,0.00096901529027543,-0.00096900945278822,0.0009690163307198,-0.00079490594511693,0.00079491128279623,-0.00079490531308874,0.00079491065109878,0.65041655740562,122718,2924,0.0034233249735535,0.0077455341205246,0.0034233249735571,26.871816399796,0.00013017453119837,0.00013017453119837,0.00013017453119837,2935081.9310546,0.014699809128293
31294200,0.99997027058475,0.015799323434333,0.0043979389555273,0.0070034455232765,0.0043979389555296,-0.0008240229911536,0.00082402692097396,1.9191657929237e-09,1.9190841194424e-09,7.2460257131347e-10,2.5209932785623e-09,-0.00097329123799828,0.00097329580757642,-0.00097329107214045,0.00097329564153481,-0.00097329061047104,0.00097329642275131,-0.0009732904583162,0.0009732962704285,-0.00079663343129403,0.00079663773100789,-0.00079663405356624,0.00079663835293129,1.4512679953472e-10,-1.545719100166e-09,7.0688849621814e-10,-2.0827513710223e-09,-0.0018703459163759,0.0018703445403964,-0.0021061036224318,0.0021061037453339,-0.0021061040155217,0.0021061022916007,-0.0021061036596382,0.0021061026629322,-0.0021061040527592,0.0021061012092167,-0.0016049626583144,0.0016049634998187,-0.0016049668486421,0.0016049621564615,-0.001604963394527,0.0016049627454579,-0.0016049665088039,0.001604962509301,1.9656034936037e-09,1.9655213318196e-09,-0.00082402294482528,0.00082402696730419,2.4892415668494e-10,3.1110294226021e-09,-0.00097329136854133,0.00097329567661043,-0.00097329039617145,0.00097329664072039,-0.00097329120042378,0.00097329550832718,-0.00097329024303345,0.00097329648740864,-0.00079663383023757,0.00079663857561363,-0.00079663320657041,0.00079663795227705,0.73061600150572,122718,2924,0.0034301909089162,0.0077615817961191,0.0034301909089202,28.082119465932,0.00013985695572746,0.00013985695572746,0.00013985695572746,2864217.4164497,0.014730043863698
31794200,0.99997562258871,0.015799401059626,0.0043979614273395,0.0070034782049447,0.0043979614273418,-0.00082446119920723,0.00082446518865647,1.9406446403314e-09,1.9405630274993e-09,7.8722094547174e-10,2.5044623083662e-09,-0.00097669440453577,0.00097669905029904,-0.00097669423471638,0.0009766988802958,-0.00097669380195736,0.0009766996392558,-0.00097669364621974,0.00097669948335013,-0.00079735280406237,0.00079735712305289,-0.00079735342983666,0.00079735774847881,1.2098592513951e-10,-1.4898572043263e-09,6.6047031079125e-10,-2.0057707356691e-09,-0.0018746784945468,0.0018746771492233,-0.0021086554062367,0.0021086554941384,-0.0021086557522869,0.0021086540729452,-0.0021086554102028,0.0021086544295608,-0.0021086557562847,0.0021086530083855,-0.0016105559341395,0.0016105567110577,-0.0016105599959096,0.0016105554822174,-0.0016105566420683,0.0016105559860129,-0.001610559669149,0.0016105558212488,1.9835888256789e-09,1.98350672054e-09,-0.000824461156357,0.0008244652315085,3.2853954675413e-10,3.0694180118159e-09,-0.00097669453088226,0.00097669892286439,-0.00097669359827575,0.0009766998470774,-0.00097669435901887,0.00097669875083533,-0.0009766934415341,0.00097669969016209,-0.00079735321708226,0.00079735796061012,-0.00079735259012663,0.00079735733398469,0.60663769820079,122718,2924,0.0034320477149471,0.0077794127791959,0.0034320477149509,29.259956107175,0.0001492796488574,0.0001492796488574,0.0001492796488574,2772931.8532868,0.014751922336586
32294200,0.99998001824603,0.015799478580137,0.0043979842340596,0.0070035101120153,0.0043979842340619,-0.00082632853208577,0.00082633513066111,2.935561100787e-09,2.9354792965357e-09,1.6749858646055e-09,3.6269903926685e-09,-0.00097413983660291,0.00097414668594981,-0.00097413947664328,0.00097414632580693,-0.00097413915190884,0.00097414735575355,-0.00097413880932082,0.00097414701299799,-0.00079913492967701,0.00079914144994303,-0.00079913558434336,0.00079914210426019,1.814567040046e-10,-1.6373702869323e-09,7.0866022950467e-10,-2.1380802895266e-09,-0.0018717574495874,0.0018717560200049,-0.0021087403652295,0.0021087405239399,-0.0021087405414138,0.0021087387875508,-0.0021087402081998,0.0021087391353241,-0.0021087403844155,0.0021087373989525,-0.0016050821482743,0.0016050829402409,-0.0016050862901868,0.0016050814468663,-0.0016050828387635,0.0016050822327001,-0.0016050859738865,0.0016050817753568,2.9798519165988e-09,2.9797696245393e-09,-0.00082632848794155,0.00082633517480704,1.232752170385e-09,4.178178850392e-09,-0.00097413995764969,0.00097414656494704,-0.00097413895109534,0.00097414755956994,-0.00097413959550336,0.00097414620263498,-0.00097413860765101,0.0009741472159522,-0.00079913537505892,0.00079914231273642,-0.00079913471876894,0.00079914165677732,0.73537531572875,122718,2924,0.0034397641285306,0.0077674549499358,0.0034397641285342,29.293433768407,0.00014954747014726,0.00014954747014726,0.00014954747014726,2883806.7212741,0.014755418159551
32794200,0.9999836069733,0.015799530290683,0.0043979992048515,0.0070035318809775,0.0043979992048538,-0.00082353356372305,0.00082354046210007,3.0494330757032e-09,3.049351476589e-09,1.7023475693418e-09,3.8535411958734e-09,-0.00097633480755758,0.00097634182093324,-0.00097633443539679,0.00097634144858823,-0.00097633405877969,0.00097634255714094,-0.00097633370375052,0.00097634220194361,-0.0007963820845397,0.00079638890688754,-0.00079638275549707,0.00079638957749651,2.5650950160492e-10,-1.7605778999066e-09,7.8667972600378e-10,-2.2618514072862e-09,-0.0018752088428508,0.0018752073672783,-0.0021091243585062,0.0021091246038222,-0.0021091245720733,0.0021091227710888,-0.0021091242369347,0.0021091231202045,-0.0021091244505327,0.0021091212874889,-0.0016110621289087,0.0016110630065522,-0.0016110664328152,0.0016110612804572,-0.0016110628222517,0.0016110622967992,-0.0016110661167136,0.0016110616083035,3.0909675202258e-09,3.0908854252778e-09,-0.00082353352230126,0.00082354050352355,1.2558572678049e-09,4.4028298108086e-09,-0.00097633493266718,0.0009763416969553,-0.00097633385892408,0.00097634275878532,-0.00097633455829315,0.00097634132241577,-0.00097633350319058,0.000976342402878,-0.00079638254832161,0.00079638978374365,-0.00079638187552142,0.00079638911127424,0.60272112903604,122718,2924,0.0034282110663495,0.007781592048039,0.0034282110663531,29.211146325739,0.00014888917060591,0.00014888917060591,0.00014888917060591,2750226.0156568,0.0147463512054
33294200,0.99998653937542,0.015799581012309,0.0043980141370984,0.0070035527381094,0.0043980141371008,-0.00082530613077659,0.00082531303905485,3.0556452133513e-09,3.0555634182575e-09,1.6960384357562e-09,3.8661208721906e-09,-0.00097487670792794,0.00097488374865539,-0.00097487633176091,0.00097488337230454,-0.00097487595301924,0.0009748844912559,-0.00097487559407019,0.0009748841321389,-0.00079815047258564,0.00079815731466004,-0.00079815114142363,0.00079815798314915,2.5156256690685e-10,-1.7816286954075e-09,7.8281203374736e-10,-2.2835379965405e-09,-0.0018725173160832,0.0018725158149729,-0.0021075410965234,0.0021075413285264,-0.0021075413166765,0.0021075394898726,-0.0021075409811917,0.0021075398396647,-0.0021075412013758,0.0021075380010286,-0.0016074414739915,0.0016074423384299,-0.0016074458053283,0.001607440604414,-0.0016074421686399,0.0016074416272663,-0.0016074454889355,0.001607440932614,3.0997266287439e-09,3.0996443449047e-09,-0.00082530608685325,0.00082531308297997,1.2519573927081e-09,4.4184841300092e-09,-0.00097487683091222,0.0009748836270468,-0.00097487575054349,0.00097488469530515,-0.00097487645247438,0.00097488324844341,-0.00097487539091939,0.00097488433550735,-0.00079815093159321,0.00079815819202081,-0.00079815026080321,0.00079815752156172,0.72105236447099,122718,2924,0.0034355276250992,0.0077705502758598,0.0034355276251029,29.128369772638,0.0001482269581811,0.0001482269581811,0.0001482269581811,2880059.658568,0.014749967502513
33794200,0.99998903604493,0.015799627185168,0.0043980276699627,0.0070035718452406,0.004398027669965,-0.00082452212145599,0.00082452713995326,2.3351698705457e-09,2.335088252099e-09,1.0035201051294e-09,3.0987415383672e-09,-0.00097715895797711,0.00097716437332464,-0.00097715871871955,0.00097716413388303,-0.00097715823194653,0.00097716508895428,-0.00097715800743177,0.00097716486427128,-0.0007973394882033,0.00079734476897485,-0.00079734013497712,0.00079734541540019,2.442656299115e-10,-1.734247333905e-09,7.7965167282363e-10,-2.2411350325102e-09,-0.0018765509802235,0.0018765495183253,-0.0021107463770478,0.002110746595213,-0.0021107467474933,0.0021107449565413,-0.0021107464089375,0.0021107453093026,-0.0021107467794144,0.0021107436706488,-0.0016121473612102,0.0016121482450665,-0.0016121517244336,0.001612146624919,-0.0016121480615677,0.0016121475280458,-0.0016121514047883,0.0016121469564815,2.377322195027e-09,2.3772400982997e-09,-0.00082452207941601,0.0008245271819949,5.521658556239e-10,3.6543946137438e-09,-0.00097715908430125,0.00097716424805359,-0.00097715802975432,0.00097716529305649,-0.00097715884281278,0.00097716400639907,-0.00097715780451066,0.00097716506763907,-0.00079733992534802,0.00079734562418405,-0.00079733927674741,0.00079734497591358,0.7722154619747,122718,2924,0.0034323120586063,0.0077871460941801,0.0034323120586098,29.879685446349,0.00015423748357079,0.00015423748357079,0.00015423748357079,2741920.2936277,0.01476030876859
34294200,0.99999118846651,0.015799662626164,0.0043980380439204,0.0070035865383205,0.0043980380439227,-0.0008252159645241,0.00082521993546468,1.9355571230824e-09,1.9354755067203e-09,6.7654570957018e-10,2.6111579291529e-09,-0.0009792967678074,0.00097930133106486,-0.00097929660236491,0.00097930116543839,-0.00097929609578735,0.00097930199220257,-0.00097929594402023,0.00097930184026737,-0.00079825683286487,0.00079826121122894,-0.00079825746444095,0.00079826184245646,1.9551463654441e-10,-1.6322922843265e-09,7.2679655533472e-10,-2.137044986272e-09,-0.0018800718150667,0.0018800704045433,-0.0021136980759701,0.002113698234113,-0.002113698487488,0.0021136967496524,-0.0021136981511745,0.0021136971001198,-0.0021136985627239,0.0021136956156771,-0.0016158795968884,0.0016158804315052,-0.001615883852134,0.0016158790075335,-0.0016158802928402,0.0016158797189274,-0.0016158835333661,0.0016158793381924,1.9770807735836e-09,1.976998656901e-09,-0.00082521592310184,0.00082521997688874,2.2687052752582e-10,3.163812779524e-09,-0.0009792968931741,0.0009793012058562,-0.00097929589573163,0.0009793021950439,-0.00097929672562064,0.00097930103813693,-0.0009792957431354,0.00097930204227384,-0.0007982572563856,0.00079826204977861,-0.0007982566232503,0.00079826141697338,0.68691084203382,122718,2924,0.003435215478225,0.0078016617946837,0.0034352154782287,31.077935853046,0.00016382348682437,0.00016382348682437,0.00016382348682437,2681365.306562,0.014780937147758
34794200,0.99999307232921,0.015799698342879,0.0043980486081675,0.0070036011265412,0.0043980486081698,-0.00082994097741342,0.00082994339143675,1.3428772692914e-09,1.3427955285115e-09,2.1481069936625e-10,1.8589844260077e-09,-0.00098084107982262,0.00098084438703135,-0.00098084102393112,0.00098084433095609,-0.00098084050495574,0.00098084494986609,-0.00098084046102861,0.00098084490577116,-0.00080282452245808,0.00080282754580062,-0.00080282512804333,0.00080282815103705,1.0170069967226e-10,-1.4523819348171e-09,6.1454770751879e-10,-1.9422510289172e-09,-0.0018815680353844,0.0018815667076804,-0.0021174910726562,0.0021174911065352,-0.0021174915268662,0.0021174898823695,-0.0021174912019168,0.0021174902214069,-0.0021174916561581,0.0021174889972587,-0.0016154368775383,0.0016154375891316,-0.0016154409118765,0.0016154365414381,-0.0016154375511673,0.0016154368989827,-0.0016154406018094,0.0016154368633233,1.3846379789955e-09,1.3845557287729e-09,-0.00082994093578135,0.00082994343307056,-2.193745768455e-10,2.3964548570842e-09,-0.00098084119842076,0.00098084426697042,-0.00098084031129577,0.00098084514792489,-0.00098084114060513,0.00098084420898912,-0.00098084026635995,0.00098084510281567,-0.00080282492518359,0.00080282835337059,-0.00080282431844006,0.0008028277469576,0.7893610821897,122718,2924,0.0034548010482241,0.0078079352250879,0.0034548010482277,32.927678590933,0.00017862142872747,0.00017862142872747,0.00017862142872747,2740729.7579266,0.014827032333334
35294200,0.99999473233817,0.01579972613624,0.0043980567514822,0.0070036126332732,0.0043980567514845,-0.00083330581645973,0.00083330650448073,6.8569614537807e-10,6.8561453957035e-10,-2.7582916058275e-10,1.0080270176136e-09,-0.00098746101076102,0.00098746296133698,-0.00098746107320835,0.00098746302360042,-0.00098746055476463,0.00098746340286662,-0.00098746062800183,0.00098746347593576,-0.00080617236061199,0.0008061738580518,-0.00080617294667811,0.00080617444376947,-1.2999107121495e-11,-1.2214987051707e-09,4.6725997535202e-10,-1.6835331568059e-09,-0.0018888954717003,0.0018888942557877,-0.002122771435532,0.0021227713193022,-0.0021227719073632,0.002122770393569,-0.0021227716019682,0.0021227707118227,-0.0021227720738305,0.002122769786107,-0.001624475531976,0.0016244760761655,-0.001624479245947,0.001624475499739,-0.0016244761657419,0.0016244754272352,-0.0016244789523106,0.0016244758042801,7.2311485516107e-10,7.23032739552e-10,-0.00083330577915978,0.00083330654178261,-6.8702086669e-10,1.5123107242819e-09,-0.0009874611222151,0.00098746284618396,-0.0009874603762363,0.00098746358780242,-0.00098746118316265,0.00098746290696567,-0.00098746044826851,0.00098746365966077,-0.00080617275790979,0.00080617463224455,-0.00080617217134512,0.00080617404600982,0.69839196281939,122718,2924,0.0034688020324784,0.0078381417668961,0.0034688020324825,35.507084632637,0.00019925667706109,0.00019925667706109,0.00019925667706109,2632102.9516347,0.014886128054411
35794200,0.99999608476668,0.01579974826603,0.0043980632708855,0.0070036217242564,0.0043980632708878,-0.00083764909467656,0.00083765188990112,1.4817334143885e-09,1.4816516713084e-09,5.7345389740464e-10,1.7722404121837e-09,-0.00098853882161217,0.00098854259591469,-0.00098853873380073,0.00098854250791974,-0.00098853838752776,0.00098854301104606,-0.00098853831337063,0.00098854293672131,-0.00081043876451134,0.00081044194284072,-0.00081043936972228,0.000810442547703,-4.5038279729117e-11,-1.1504511191845e-09,3.9167408221388e-10,-1.5705822040271e-09,-0.0018898805460078,0.00188987936765,-0.0021260382727797,0.0021260381191906,-0.0021260385002307,0.0021260370518149,-0.0021260382225372,0.0021260373412702,-0.0021260384500193,0.002126036273912,-0.0016235328327263,0.0016235332554371,-0.0016235362697778,0.0016235327811103,-0.0016235334105443,0.0016235326637608,-0.0016235360023728,0.0016235330584931,1.5164792842312e-09,1.5163970326557e-09,-0.00083764906009101,0.00083765192448846,2.0092944241993e-10,2.2311057384019e-09,-0.00098853892074335,0.00098854249200549,-0.00098853822628523,0.00098854317956686,-0.00098853883169133,0.00098854240278798,-0.00098853815087208,0.0009885431039803,-0.00081043919776969,0.00081044271938774,-0.00081043859229037,0.00081044211423888,0.68142084797294,122718,2924,0.0034868087536021,0.0078423024340125,0.0034868087536058,37.134969322734,0.00021227975458187,0.00021227975458187,0.00021227975458187,2695520.797116,0.014926877592898
36294200,0.99999711353993,0.015799765578571,0.0043980683683239,0.0070036288419214,0.0043980683683262,-0.00083908660683356,0.00083909192071452,2.4389405895318e-09,2.4388588720098e-09,1.4370286670603e-09,2.8555903780271e-09,-0.00098960796925498,0.00098961385961371,-0.00098960770008337,0.0009896135902585,-0.00098960745806902,0.00098961435055166,-0.00098960720578536,0.00098961409810017,-0.00081169582097399,0.00081170111096819,-0.00081169646381562,0.000811701753461,1.6682132519361e-11,-1.2829114625531e-09,4.2789785383782e-10,-1.6749421720193e-09,-0.0018907770270452,0.0018907757804083,-0.0021271244224648,0.0021271243372172,-0.0021271244695249,0.0021271229707758,-0.002127124208543,0.0021271232424878,-0.0021271242556343,0.0021271218760641,-0.0016244108542434,0.0016244112733773,-0.0016244143190094,0.0016244105608232,-0.0016244113978506,0.0016244107171329,-0.0016244140700497,0.0016244108188939,2.4709722746549e-09,2.4708900520638e-09,-0.00083908657498581,0.00083909195256406,1.0888385107603e-09,3.2834439256816e-09,-0.00098960806264857,0.00098961376236302,-0.00098960730754607,0.00098961450722799,-0.00098960779226851,0.00098961349181742,-0.00098960705417813,0.00098961425368649,-0.00081169630356352,0.00081170191324603,-0.00081169566013864,0.00081170127015171,0.70124683578063,122718,2924,0.0034927744928533,0.0078460201873898,0.003492774492857,37.694116122144,0.00021675292897716,0.00021675292897716,0.00021675292897716,2700658.4604132,0.014942760648867
36794200,0.99999784618595,0.015799775981811,0.0043980714074287,0.0070036331669517,0.004398071407431,-0.00083674223674137,0.00083675085384354,3.6979563108646e-09,3.6978746362673e-09,2.4601365395891e-09,4.402422351872e-09,-0.00098825010918081,0.00098825869159425,-0.00098824960769501,0.00098825818992469,-0.00098824942201249,0.00098825936019255,-0.00098824894091394,0.00098825887892612,-0.0008093829351268,0.00080939107722899,-0.00080938363028353,0.00080939177203708,1.7580883927829e-10,-1.6147889062191e-09,5.9031302210709e-10,-2.0034935638822e-09,-0.0018899836625405,0.0018899822493063,-0.0021257717806786,0.0021257718845996,-0.0021257716921635,0.0021257700278335,-0.0021257714303089,0.002125770300172,-0.0021257713418251,0.0021257684434237,-0.0016240733079872,0.001624073869003,-0.0016240771039963,0.0016240725361505,-0.0016240738528467,0.0016240733118342,-0.0016240768587599,0.0016240727902373,3.7296257194944e-09,3.7295435401667e-09,-0.00083674220526908,0.00083675088531761,2.1140144402217e-09,4.8272415704062e-09,-0.0009882502046519,0.00098825859513065,-0.00098824927004873,0.00098825951537972,-0.00098824970167045,0.00098825809198354,-0.00098824878821846,0.0009882590333758,-0.00080938347067616,0.00080939193079559,-0.00080938277409596,0.00080939123454579,0.59224503419724,122718,2924,0.0034830582732977,0.0078427133648768,0.0034830582733014,36.861195967557,0.00021008956774046,0.00021008956774046,0.00021008956774046,2676976.4608822,0.014919688960263
37294200,0.99999840689064,0.015799785526558,0.0043980742277715,0.007003637071013,0.0043980742277739,-0.00084006110867366,0.00084006641695334,2.4454138914019e-09,2.4453320778672e-09,1.1681138158108e-09,3.1434920375349e-09,-0.00098785206460753,0.00098785778869508,-0.00098785179877077,0.00098785752267492,-0.00098785137584038,0.00098785846468351,-0.00098785112576294,0.00098785821443828,-0.00081259669027996,0.0008126021708627,-0.00081259733786375,0.00081260281809759,1.9291331360128e-10,-1.6626750843881e-09,6.2318728382096e-10,-2.0658666637797e-09,-0.0018885546954757,0.0018885532525627,-0.0021265328071945,0.0021265328992664,-0.0021265330474864,0.0021265313437726,-0.0021265327758711,0.0021265316265238,-0.002126533016194,0.0021265300710477,-0.0016209026592691,0.0016209032753713,-0.0016209067086483,0.0016209019945331,-0.0016209032241979,0.0016209026974165,-0.0016209064547931,0.0016209022577206,2.4794520625885e-09,2.4793697589117e-09,-0.00084006107484226,0.0008400664507865,8.1006237847392e-10,3.5857651576428e-09,-0.00098785216337452,0.00098785768972332,-0.00098785121623337,0.00098785862685361,-0.00098785189585983,0.00098785742204332,-0.00098785096547899,0.0009878583759259,-0.00081259717089006,0.00081260298426202,-0.00081259652160881,0.00081260233531193,0.7089163963045,122718,2924,0.0034967909077898,0.0078369041168307,0.0034967909077935,37.469080325931,0.00021495264260745,0.00021495264260745,0.00021495264260745,2772773.7669437,0.014941644831745
37794200,0.99999882778517,0.015799791486315,0.0043980759650659,0.0070036395561804,0.0043980759650682,-0.00083862790040554,0.00083863367979601,2.6223858850731e-09,2.6223042618916e-09,1.3395600392169e-09,3.3250251971744e-09,-0.00098951948885551,0.00098952561016089,-0.00098951922501078,0.00098952534613252,-0.0009895187964992,0.0009895262897042,-0.00098951854837679,0.0009895260414139,-0.00081118817259783,0.00081119406019434,-0.00081118882196281,0.00081119470921086,2.0028930785795e-10,-1.6570527890571e-09,6.3149325949087e-10,-2.0612863195296e-09,-0.001891468336876,0.0018914669068202,-0.0021284936524083,0.0021284937587509,-0.0021284938916702,0.0021284922000341,-0.0021284936193389,0.0021284924834057,-0.0021284938586321,0.0021284909247068,-0.0016246087322643,0.0016246093643154,-0.0016246127756392,0.0016246080702784,-0.0016246092983493,0.0016246087851793,-0.001624612521111,0.0016246083341626,2.6554262454921e-09,2.6553441297507e-09,-0.00083862786755048,0.00083863371265289,9.7923659849409e-10,3.7674650941764e-09,-0.00098951958894305,0.00098952550980531,-0.00098951863742943,0.00098952645139564,-0.00098951932343724,0.00098952524413392,-0.00098951838861802,0.00098952620241073,-0.00081118865557622,0.00081119487481937,-0.0008111880045533,0.00081119422412705,0.59114020040307,122718,2924,0.0034908819090636,0.0078488670002778,0.0034908819090674,37.826474249577,0.00021781179399662,0.00021781179399662,0.00021781179399662,2640932.8210182,0.014941816218368
38294200,0.99999912983647,0.015799795981519,0.0043980772876948,0.0070036414061269,0.0043980772876971,-0.00083921089888219,0.00083921904101222,3.5256197596188e-09,3.525537971597e-09,2.0898417427785e-09,4.4170457815187e-09,-0.00098764076320084,0.00098764884448843,-0.00098764029385705,0.00098764837496112,-0.00098763995412718,0.00098764964069484,-0.00098763950394914,0.00098764919034914,-0.00081182927589828,0.00081183717205265,-0.00081182996146292,0.00081183785726827,2.9364986508054e-10,-1.8837909632439e-09,7.5019280536004e-10,-2.3089317609549e-09,-0.0018884954521631,0.0018884938929214,-0.002126059465472,0.002126059698503,-0.0021260595719704,0.0021260577369128,-0.0021260592844978,0.0021260580362058,-0.0021260593910272,0.0021260560746331,-0.0016211491832744,0.0016211499302663,-0.0016211534713161,0.0016211481720008,-0.0016211497802364,0.0016211493194938,-0.0016211532044383,0.0016211484487517,3.5619142356416e-09,3.5618319454496e-09,-0.00083921086278951,0.00083921907710666,1.7123098451096e-09,4.88420631671e-09,-0.000987640868881,0.00098764874056087,-0.00098763978343304,0.00098764981212033,-0.00098764039754332,0.00098764826905783,-0.00098763933276842,0.00098764936128224,-0.00081182978449654,0.00081183803315725,-0.00081182909668268,0.00081183734567412,0.61998406222007,122718,2924,0.0034932743410378,0.0078366409113381,0.0034932743410415,37.221988297181,0.00021297590637745,0.00021297590637745,0.00021297590637745,2756989.5837417,0.014934242967907
38794200,0.99999935379436,0.015799799716454,0.0043980783874258,0.0070036429415998,0.0043980783874281,-0.00083875671226518,0.00083876374331325,3.1040117263941e-09,3.103930014767e-09,1.6742042403935e-09,4.0051420536301e-09,-0.00098825904489438,0.00098826613786646,-0.00098825857744398,0.00098826567023245,-0.00098825823546838,0.00098826693478209,-0.00098825778704099,0.00098826648618694,-0.00081128478199522,0.00081129171611986,-0.00081128546926481,0.00081129240304067,3.0737350542099e-10,-1.8967908957519e-09,7.6689392332882e-10,-2.3246767764261e-09,-0.0018892866114223,0.001889285053087,-0.0021264535480699,0.00212645380059,-0.0021264536643497,0.0021264518282778,-0.0021264533749593,0.0021264521295021,-0.0021264534912704,0.0021264501572076,-0.0016223112796656,0.0016223120504938,-0.0016223155986716,0.0016223102597301,-0.0016223118803113,0.0016223114359507,-0.001622315330131,0.0016223105382067,3.1399876236364e-09,3.1399054106921e-09,-0.00083875667647898,0.00083876377910124,1.293454341593e-09,4.4748991615356e-09,-0.00098825915196147,0.00098826603267899,-0.00098825806398264,0.00098826710688549,-0.00098825868249549,0.00098826556304752,-0.00098825761507707,0.00098826665780639,-0.00081128529161053,0.00081129257961152,-0.00081128460207468,0.00081129189040619,0.69536269442952,122718,2924,0.0034913985480181,0.0078398852842481,0.0034913985480218,37.193916618489,0.00021275133294791,0.00021275133294791,0.00021275133294791,2716594.9414501,0.014933738983209
38880000,0.9999993900677,0.015799800327954,0.0043980785677316,0.0070036431924882,0.0043980785677339,-0.00083729376968999,0.00083730051864932,2.9943966063347e-09,2.994314976885e-09,1.5221414557281e-09,3.9264101334539e-09,-0.00098998961351163,0.00098999642349217,-0.00098998925374127,0.00098999606353803,-0.00098998878409353,0.00098999724357254,-0.00098998844093394,0.00098999690024467,-0.00081003328648775,0.00081004007338863,-0.00081003396073577,0.00081004074728779,3.3966609863973e-10,-1.9312011436601e-09,8.2686633227172e-10,-2.3860351319704e-09,-0.001891278084153,0.0018912765242946,-0.0021260012806806,0.0021260015772491,-0.0021260015606968,0.0021259997051103,-0.0021260012535933,0.0021260000247171,-0.0021260015336414,0.002125998152596,-0.0016262870537921,0.0016262879257051,-0.001626291528701,0.0016262860467451,-0.0016262876899248,0.0016262872749309,-0.0016262912432982,0.0016262863426129,3.0320137176798e-09,3.0319315913652e-09,-0.00083729373223678,0.0008373005561042,1.1164741813625e-09,4.4252310348425e-09,-0.00098998972851525,0.00098999631093144,-0.00098998860160599,0.00098999742623247,-0.00098998936659274,0.00098999594884306,-0.00098998825798656,0.00098999708243929,-0.00081003377236865,0.00081004093461498,-0.00081003309579435,0.00081004025837095,0.70252982175735,122718,2924,0.003485354003347,0.0078480301454982,0.0034853540033505,37.193634024142,0.00021274907219313,0.00021274907219313,0.00021274907219313,2649671.6107169,0.014929753481701
