time,ASR_ext,ASR_strain,ASR_strain_xx,ASR_strain_yy,ASR_strain_zz,disp_x_101,disp_x_102,disp_x_103,disp_x_104,disp_x_105,disp_x_106,disp_x_p10_neg,disp_x_p10_pos,disp_x_p11_neg,disp_x_p11_pos,disp_x_p12_neg,disp_x_p12_pos,disp_x_p13_neg,disp_x_p13_pos,disp_x_p14_neg,disp_x_p14_pos,disp_x_p15_neg,disp_x_p15_pos,disp_x_p16_neg,disp_x_p16_pos,disp_x_p1_neg,disp_x_p1_pos,disp_x_p2_neg,disp_x_p2_pos,disp_x_p3_neg,disp_x_p3_pos,disp_x_p4_neg,disp_x_p4_pos,disp_x_p5_neg,disp_x_p5_pos,disp_x_p6_neg,disp_x_p6_pos,disp_x_p7_neg,disp_x_p7_pos,disp_x_p8_neg,disp_x_p8_pos,disp_x_p9_neg,disp_x_p9_pos,disp_y_101,disp_y_102,disp_y_103,disp_y_104,disp_y_105,disp_y_106,disp_y_p10_neg,disp_y_p10_pos,disp_y_p11_neg,disp_y_p11_pos,disp_y_p12_neg,disp_y_p12_pos,disp_y_p1_neg,disp_y_p1_pos,disp_y_p2_neg,disp_y_p2_pos,disp_y_p3_neg,disp_y_p3_pos,disp_y_p4_neg,disp_y_p4_pos,disp_y_p5_neg,disp_y_p5_pos,disp_y_p6_neg,disp_y_p6_pos,disp_y_p7_neg,disp_y_p7_pos,disp_y_p8_neg,disp_y_p8_pos,disp_y_p9_neg,disp_y_p9_pos,disp_z_101,disp_z_102,disp_z_103,disp_z_104,disp_z_105,disp_z_106,disp_z_p10_neg,disp_z_p10_pos,disp_z_p11_neg,disp_z_p11_pos,disp_z_p12_neg,disp_z_p12_pos,disp_z_p13_neg,disp_z_p13_pos,disp_z_p14_neg,disp_z_p14_pos,disp_z_p15_neg,disp_z_p15_pos,disp_z_p16_neg,disp_z_p16_pos,disp_z_p1_neg,disp_z_p1_pos,disp_z_p2_neg,disp_z_p2_pos,disp_z_p3_neg,disp_z_p3_pos,disp_z_p4_neg,disp_z_p4_pos,disp_z_p5_neg,disp_z_p5_pos,disp_z_p6_neg,disp_z_p6_pos,disp_z_p7_neg,disp_z_p7_pos,disp_z_p8_neg,disp_z_p8_pos,disp_z_p9_neg,disp_z_p9_pos,humidity,ndof,nelem,strain_xx,strain_yy,strain_zz,temp,thermal_strain_xx,thermal_strain_yy,thermal_strain_zz,vonmises,vstrain
14391759,0,0,0,0,0,0,0,0,0,0,0,0,0,0,0,0,0,0,0,0,0,0,0,0,0,0,0,0,0,0,0,0,0,0,0,0,0,0,0,0,0,0,0,0,0,0,0,0,0,0,0,0,0,0,0,0,0,0,0,0,0,0,0,0,0,0,0,0,0,0,0,0,0,0,0,0,0,0,0,0,0,0,0,0,0,0,0,0,0,0,0,0,0,0,0,0,0,0,0,0,0,0,0,0,0,0,0,0,0,0,0,0,0,0,0,0,0,0,0,0,0,0,0
15391759,0.10000914695542,0.0016820599779409,0.00056068665931365,0.00056068665931365,0.00056068665931365,-0.00015439188060462,0.00015435053314196,2.4220568804927e-06,-2.7661282321215e-06,-1.4797330006852e-07,1.8757484249092e-07,-0.00013519875999489,0.00012958185384839,-0.00015230195177127,0.00015439243240196,-0.00015400497118591,0.00015309976824766,-0.00013055155137897,0.00013458955189509,-0.00013553102247995,0.00012924579243096,-0.00015262816764801,0.00015405793749526,-0.00015433177014657,0.00015276547028898,-0.00016146689786811,0.00016308925298887,-0.00016317120848391,0.0001614830649886,-0.00016135867870484,0.00016320168402485,-0.00016306289702043,0.00016159538757953,-0.0001501158150882,0.00015500335216871,-0.00015511347583915,0.0001496489424936,-0.00015022711342328,0.00015489046610515,-0.00015522526045248,0.00014953622986591,-0.00013022064954229,0.00013492639568414,9.2375281940272e-08,-2.431544916504e-07,-5.6919708825864e-08,-8.9892559911143e-08,-0.00017121199606517,0.00017106548066392,-0.00016782399229973,0.00016775686455355,-0.0001699861011079,0.00017017746178405,-0.00017024774744678,0.00016977866490871,-0.00017162412621098,0.00017159971718008,-0.0001716501040836,0.00017160475892754,-0.0001717277141358,0.00017148340987721,-0.00017176052140286,0.0001714952594778,-0.00016790404933332,0.00016767855403814,-0.00016799567128576,0.00016770482505631,-0.00017000522215184,0.00017017515604942,-0.00017001368471251,0.00016952283004049,-0.00016772895259511,0.00016772672459096,-2.5675749057842e-06,2.9820615041587e-06,-0.00016147393145533,0.00016155353103671,2.4493327267039e-08,5.6429519794727e-08,-0.00016261797277022,0.00015761111461268,-0.00015935187001136,0.00016055229073176,-0.00016118041557069,0.00015942945086784,-0.00015797347677217,0.00016503804687872,-0.0001626491549621,0.00015757688325566,-0.00015938350760605,0.00016051979928344,-0.00016121131085782,0.00015939666084323,-0.00016563983138711,0.00016390154364697,-0.00016562957919987,0.00016391221938205,-0.00016387463748398,0.0001655538934878,-0.00016386427754261,0.00016556449110732,-0.00015960518731265,0.00016542355025922,-0.00016454506102133,0.0001595308255369,-0.00016455567220454,0.000159519751121,-0.00015961589468314,0.00016541277882067,-0.00015794026744023,0.0001650713467337,0.76481422721838,131688,2924,0.00064300869038848,0.00071282201633952,0.0006727466633078,27.138416912557,0.00013230733530045,0.00013230733530045,0.00013230733530045,1507411.7222176,0.0020306391605105
16391759,0.1882866731158,0.0031718875444304,0.0010191370479288,0.001103123034206,0.0010496274622956,-0.00025226064828189,0.0002520013299105,3.5690155519561e-06,-4.5862344063397e-06,-9.7473287364402e-08,4.171289833933e-08,-0.00021271484987311,0.00020270672540385,-0.00025283759643328,0.00025562328105863,-0.00025549599070895,0.00025398966017815,-0.00020511419028441,0.00021105337548977,-0.00021285357581816,0.00020256902039257,-0.0002529705195988,0.00025548512503513,-0.00025563118207911,0.00025385355129558,-0.00026882699478532,0.00027134103388822,-0.00027149088602666,0.00026895580858476,-0.0002687815987426,0.0002713885196929,-0.0002714446146883,0.00026900237071639,-0.00024674014837282,0.00025385182180927,-0.00025453917767805,0.00024514210792989,-0.00024678559763292,0.00025380333771487,-0.00025458651287249,0.00024509552860209,-0.00020497992218143,0.00021119581117515,-4.161334579938e-09,-1.4365326302977e-07,2.693105812944e-09,-1.4914378997027e-07,-0.00029924146529972,0.00029909571034199,-0.00029286780621221,0.0002926192691281,-0.00029589449987175,0.00029593223192775,-0.00029580013799223,0.00029556699794339,-0.00030193171865812,0.00030188208119819,-0.00030202952582877,0.00030188302477115,-0.00030195387350148,0.00030181184549209,-0.00030211038529169,0.00030187145522186,-0.00029274636224566,0.00029270245479971,-0.00029319130735712,0.00029284896847439,-0.00029596860457125,0.00029590646068958,-0.00029526883543072,0.0002949357411642,-0.00029254060479405,0.00029259041115268,-4.0158976831234e-06,5.2294594160008e-06,-0.00026957447434737,0.00026979289020455,4.4221113045173e-08,1.9078621553818e-07,-0.00027388319735655,0.00026613685192156,-0.00027017402105713,0.00027149884768004,-0.00027318104322127,0.00027045951125378,-0.00026686533338932,0.00027999959576278,-0.00027403287625837,0.00026598640970591,-0.00027031903774187,0.0002713524139296,-0.00027332477147382,0.00027031197173154,-0.00027956680055423,0.00027680905151062,-0.00027951940676224,0.00027685804350791,-0.00027669938442239,0.00027930161718301,-0.00027665157216238,0.00027935027023468,-0.00026820935929533,0.00027842721549387,-0.00027599230936821,0.00026818661876314,-0.00027604201160865,0.00026813692347669,-0.00026825922440733,0.00027837756832834,-0.00026671458683766,0.00028015023273847,0.78819745788966,131688,2924,0.0010500091072509,0.0012457495717815,0.0011230491553265,24.452698970156,0.00011082159176125,0.00011082159176125,0.00011082159176125,2132206.6415755,0.0034246663640168
17391759,0.26716966525135,0.004447158835713,0.0013957121057776,0.0015863170493695,0.0014651296805659,-0.00033156220675386,0.00033104532678142,3.836944886553e-06,-5.711278033846e-06,-2.3332808661905e-07,5.6889773985717e-08,-0.00026058633575921,0.00024768145475534,-0.0003346528098507,0.00033786528889117,-0.00033772400405782,0.00033659726374055,-0.00025198637176918,0.0002576184636626,-0.0002608728799924,0.00024740461287041,-0.00033493257017265,0.00033757245058727,-0.000338007814478,0.00033631586976361,-0.00035995711582003,0.00036270481887991,-0.00036303478128398,0.00036013599753756,-0.0003598642853114,0.00036280442056042,-0.00036293942984506,0.00036023161673512,-0.00032286561583884,0.00033058402049904,-0.00033186359015202,0.00031993195537769,-0.00032296059598919,0.00033048278745641,-0.00033195974455143,0.00031983996887943,-0.00025170061195489,0.00025791950054389,6.3949667210725e-08,-2.2654205715166e-07,3.6781987064775e-07,-5.2746598615399e-07,-0.00041427409211082,0.00041411515831683,-0.0004022428772111,0.00040130237393885,-0.00040558371198235,0.00040600479319169,-0.00040549575144602,0.00040534348582554,-0.00042079533158951,0.00042102537513894,-0.00042117181113978,0.00042081867394227,-0.00042085064684428,0.00042088909676493,-0.00042136628432109,0.00042082280928628,-0.00040149625102278,0.00040211734066406,-0.00040316228941207,0.00040202861662561,-0.00040591948002495,0.00040574499546405,-0.00040483766102155,0.00040409665107968,-0.00040106898725818,0.00040188684257975,-4.5888050772686e-06,6.9333248362301e-06,-0.00036071808519648,0.00036120957882598,-1.6749027494558e-07,7.113559459207e-07,-0.00036609766228127,0.00035794107843905,-0.00036468015226551,0.00036587465049658,-0.00036848921267991,0.00036605674044761,-0.00035898984262539,0.0003770034639079,-0.00036697608719959,0.00035706317913187,-0.00036554700345732,0.00036500652286475,-0.0003693571285807,0.00036518861578788,-0.00037749642571356,0.00037417677748504,-0.00037720561154897,0.00037446774201798,-0.00037402614153952,0.00037694200016961,-0.0003737356748345,0.00037723350689092,-0.00035875099194211,0.00037255270650671,-0.00036780466846613,0.00035912899277785,-0.0003680996367741,0.00035883635089593,-0.00035904645377013,0.00037225432361309,-0.0003581077013298,0.00037789122702028,0.75884216173821,131688,2924,0.0013795224999353,0.001724295065957,0.0015028830501481,22.118437637558,9.2147501100461e-05,9.2147501100461e-05,9.2147501100461e-05,2639868.6940082,0.0046173475870035
18391759,0.32394095828486,0.0053306302262864,0.001650140486725,0.0019322440783955,0.0017482456611659,-0.00037960750627361,0.00037870226830214,3.9197969503181e-06,-6.6011580927527e-06,-5.766954736369e-08,-4.3933060906646e-07,-0.00028801113090718,0.00027212857114419,-0.00038523233470476,0.00038774878623293,-0.00038860303148421,0.00038675444497857,-0.00027795186014873,0.0002839065773195,-0.00028759564009832,0.00027258247415207,-0.00038486271741792,0.00038811026221302,-0.00038822104783203,0.00038715888496748,-0.00041677055391182,0.00041971311237985,-0.00042013906105362,0.00041705511007565,-0.00041689214276605,0.00041959322653615,-0.00042025686390944,0.00041692518611579,-0.00036793028374663,0.00037561467348701,-0.00037778508930396,0.0003635792751494,-0.00036781482593919,0.00037571970818344,-0.00037764584276328,0.00036373467485183,-0.00027829255570341,0.0002835850903939,-1.7225442680527e-07,2.0911641350813e-07,8.4485567172026e-07,-8.1426434717737e-07,-0.00048991524132401,0.00048994678075002,-0.00047213743661429,0.0004704190050603,-0.00047490467207416,0.00047512186522197,-0.00047406046139158,0.0004750088835792,-0.00050187152643077,0.00050232288770559,-0.00050252311295902,0.00050189126245935,-0.00050170814995835,0.0005024005068126,-0.00050259555154503,0.00050220943691115,-0.00047046592162476,0.00047225288746103,-0.00047329666283433,0.00047182851781693,-0.00047550907711292,0.00047460500603454,-0.00047342280036762,0.0004732956450394,-0.00047013986339218,0.00047166905226222,-4.9406234508857e-06,8.2977532308165e-06,-0.00041645132346809,0.00041723585499846,-3.7562211458896e-07,1.2514341896953e-06,-0.00041983227561227,0.00041168681140704,-0.00042364043832044,0.00042504321519192,-0.00042806406497774,0.00042615523143905,-0.00041275122671072,0.00043416560104317,-0.00042142475664401,0.00041009869504544,-0.00042525079811726,0.00042343295695031,-0.00042966408234286,0.00042455975359853,-0.00043958072985803,0.00043589175511175,-0.00043904272847847,0.00043642928739931,-0.00043564221316587,0.00043879655470023,-0.00043510424085999,0.00043933999743682,-0.00041217780267232,0.00042892475486584,-0.00042226136170789,0.00041314112236511,-0.00042279369205135,0.00041261022413471,-0.00041273881784161,0.00042835424206569,-0.00041107706417882,0.00043584658466891,0.7390936128591,131688,2924,0.001578633218774,0.0020392486099162,0.0017353375733838,17.510852909619,5.528682327695e-05,5.528682327695e-05,5.528682327695e-05,2988407.4250321,0.005367609002856
19391759,0.38245387585362,0.0062857827911848,0.0019253142586049,0.0023078314957402,0.0020526370368397,-0.00044012541156613,0.00043904230542596,3.5251492636617e-06,-6.8805022352512e-06,-2.3823711967896e-07,-3.5349382806516e-07,-0.00032549185225574,0.00030880303838325,-0.00045111012778916,0.0004537044724855,-0.00045439150016264,0.00045345050135118,-0.0003160072676711,0.00032034671106698,-0.00032535812768741,0.00030896561490175,-0.00045099894222559,0.00045380808840668,-0.00045427807094349,0.00045358229653375,-0.00048642200063698,0.00048911895311981,-0.00048970614690495,0.00048676602940815,-0.00048645873468292,0.00048908577247754,-0.00048973956931789,0.0004867252216735,-0.00042806824179982,0.00043507611460671,-0.00043765113893076,0.00042267739129734,-0.00042803380512436,0.00043510159145912,-0.00043760826282516,0.00042273296087059,-0.00031610056557926,0.00032026967942835,-4.5596763703028e-08,6.8675158967458e-08,8.536634322268e-08,-6.7225305437259e-08,-0.00058261699957882,0.00058263674387836,-0.00055889074251532,0.000558723864367,-0.00056224652331131,0.00056221012510729,-0.00056153489107135,0.00056171233331452,-0.00059970259481582,0.00059973292393825,-0.00059991663666779,0.00059985547696622,-0.0005996229353148,0.00059972237702681,-0.00060019803148508,0.00060020921253183,-0.00055882407986435,0.00055902676012736,-0.00056083303863267,0.00056074170631965,-0.00056236598271416,0.00056222113249638,-0.00056018587828452,0.00056027724049637,-0.00055824608415097,0.00055837369696499,-5.0220663105841e-06,8.9905999250704e-06,-0.0004858183970963,0.00048634797744131,2.4404546065409e-07,3.6851611937616e-07,-0.00049321234687991,0.00048339852784992,-0.00050122864361261,0.00049942521394964,-0.00050592929834546,0.00050209038923582,-0.00048509205819523,0.00051126346069408,-0.00049334002876204,0.00048327085404556,-0.0005013533906861,0.00049929407244644,-0.00050604989233012,0.00050197016569681,-0.00051402893042577,0.0005105189502185,-0.00051399065564955,0.00051055688477916,-0.0005099448133448,0.00051316237759103,-0.00050990683275721,0.00051320449401184,-0.0004823779074137,0.00049997236863355,-0.00049241564684284,0.00048264910608863,-0.00049245490536378,0.00048260983066919,-0.00048243048580443,0.00049991362049556,-0.00048491619273331,0.00051144309069457,0.77930570628427,131688,2924,0.0018300314913007,0.0024245901802809,0.0020232965005992,17.480212719114,5.5041701752912e-05,5.5041701752912e-05,5.5041701752912e-05,3266398.0150245,0.0062977110598463
20391759,0.44681916782647,0.0073429264518821,0.0022204587075681,0.0027336220250846,0.0023888457192294,-0.00050576755112107,0.00050427005589776,2.9491439211393e-06,-7.5680920466908e-06,-3.7846933055589e-07,-4.0615892891151e-07,-0.00035399767568995,0.00033485809494848,-0.00052373486657805,0.0005260919461125,-0.00052695349062244,0.00052697684050679,-0.00034487922288212,0.00034710742329317,-0.00035395004090641,0.00033492739086502,-0.00052370948367951,0.00052611152914007,-0.00052692514449314,0.00052701972321766,-0.00056501207048011,0.00056739549049538,-0.00056824575202696,0.00056539731341687,-0.00056502059546021,0.00056739091768008,-0.00056825139209248,0.00056538664499075,-0.00049163812125827,0.00049756641428172,-0.00050105757336711,0.00048422842796039,-0.00049163238512872,0.00049756460567404,-0.00050104381091183,0.00048425210339158,-0.00034488743320247,0.0003471106139816,-1.6694337794565e-08,1.0784829451505e-08,-3.5326197855169e-07,3.4361860654592e-07,-0.00069197687994792,0.00069196867592597,-0.00066231806382913,0.00066298458527478,-0.00066634063091145,0.00066607841003522,-0.00066550172406823,0.00066528403095546,-0.00071301192516492,0.00071276087951539,-0.00071300795975451,0.00071322978406117,-0.00071295779997015,0.00071271877002213,-0.0007134589030346,0.00071369554916646,-0.00066318326792311,0.00066249718089774,-0.00066534001622299,0.00066602359108549,-0.00066620977325159,0.00066640531095077,-0.00066341161208385,0.00066367052904121,-0.00066232501092848,0.00066162148633819,-5.1502041714707e-06,1.0152189731054e-05,-0.00056365431602338,0.00056401858956578,5.8068096062649e-07,-1.4055933339876e-07,-0.00057647115322053,0.0005655369515935,-0.00058720272795122,0.00058216126514189,-0.00059239533155453,0.00058718529963603,-0.00056825736576761,0.00060110265120385,-0.00057576775910455,0.0005662394191238,-0.00058649702692553,0.00058286106846215,-0.00059168641309964,0.00058789425346683,-0.0005985615308024,0.00059497524041876,-0.00059880463209884,0.00059473148762009,-0.00059426786435345,0.00059741094346025,-0.00059451177879157,0.00059717093706988,-0.00056367007164637,0.00058332225409126,-0.00057364045306705,0.00056333884645612,-0.00057339845427542,0.00056358115882974,-0.00056343917947466,0.00058354789562808,-0.000568917988476,0.00060044490222042,0.78427550869416,131688,2924,0.0021022152260554,0.0028789404934696,0.0023465695069558,18.602016157866,6.4016129262925e-05,6.4016129262925e-05,6.4016129262925e-05,3475065.9392367,0.00735470011194
21391759,0.49693963927235,0.0081356388595491,0.0024362951918517,0.0030630790441928,0.0026362646235047,-0.00054611584479766,0.00054441608983738,3.0056486200284e-06,-8.5141777620099e-06,-7.6490808510344e-07,-5.1024291036977e-09,-0.000366781200659,0.00034571929116328,-0.00056809557837314,0.00057145907014101,-0.00057155751400966,0.00057294403952637,-0.00035780058015158,0.00035874205851598,-0.00036751466199486,0.00034499763220594,-0.00056883616667159,0.00057069538405287,-0.00057229643693406,0.00057220211936485,-0.00061566378411174,0.00061796556569736,-0.00061916143200574,0.00061596735402407,-0.00061541935824391,0.00061822429367295,-0.00061891370631051,0.0006162200397511,-0.00052784549824582,0.00053414277933437,-0.00053802748678954,0.00051914254739892,-0.00052810095289894,0.00053387541499444,-0.00053827644565645,0.00051890088343793,-0.00035703142911325,0.00035953371867971,2.2086287605965e-07,-5.3858470222245e-07,-5.7819525934889e-07,2.6760209369657e-07,-0.00076795070653538,0.0007676409006673,-0.00073289022449781,0.00073366551278128,-0.00073594411866983,0.00073609726980155,-0.00073563778234013,0.00073428716798244,-0.00079338458975012,0.0007930413804469,-0.00079337878707052,0.00079361093782959,-0.00079356269710414,0.00079271661709111,-0.00079419103160085,0.00079392266893967,-0.00073418018699287,0.00073278620901173,-0.00073699586201284,0.00073726171524179,-0.00073579097119339,0.00073650257720028,-0.00073315586244656,0.00073237964594579,-0.00073290015252514,0.00073201393457583,-5.6292773841848e-06,1.1666638571758e-05,-0.00061241960058645,0.00061280861215059,6.7351828934275e-07,-1.9865604358269e-07,-0.00062624113910197,0.00061420452758241,-0.00064002613345604,0.00063334803240794,-0.00064591017987488,0.00063997079675487,-0.00061753126575372,0.00065617651046433,-0.00062539312289751,0.00061505070737388,-0.00063917414228556,0.00063419512414382,-0.00064505547081212,0.00064082676706008,-0.00065393473724266,0.00064996139124325,-0.00065422833455096,0.00064966690939664,-0.00064916328146738,0.00065251694504009,-0.00064945759096547,0.0006522258301257,-0.00061375241645324,0.00063641387258845,-0.00062455364704727,0.00061326101195759,-0.00062426208980999,0.00061355292008701,-0.00061347291381054,0.00063669099000167,-0.00061833676942267,0.00065537236285122,0.75707132505971,131688,2924,0.0022696120347149,0.0031938629168878,0.0025493212696373,15.316349016796,3.7730792134367e-05,3.7730792134367e-05,3.7730792134367e-05,3606166.0405801,0.0080450643259238
22391759,0.54425220369627,0.0088852512806745,0.0026400214333712,0.0033770961782201,0.0028681336690831,-0.00058869048863847,0.00058665956857154,2.8668995627446e-06,-9.3463046321726e-06,-9.1846473217951e-07,5.4254641862492e-09,-0.00038571073917914,0.00036244860445036,-0.00061586413820983,0.00061935113984838,-0.00061946648746541,0.0006214846864341,-0.00037653324309325,0.00037650677164207,-0.00038661022478393,0.00036155300937189,-0.00061676014812843,0.00061843073784135,-0.00062036753525585,0.00062057710603773,-0.000667542195883,0.00066971862465813,-0.00067120680391749,0.00066782322130188,-0.00066724230422339,0.00067003323506867,-0.00067090343794273,0.00066813290220831,-0.00056661320017144,0.00057267632504973,-0.00057728010489761,0.00055634028799636,-0.00056692139989017,0.00057235449412717,-0.00057758292927209,0.00055603847087526,-0.00037561600443632,0.00037744864107528,1.7729395408223e-07,-7.4666184591965e-07,-1.0271000766231e-06,4.6303027667716e-07,-0.00084496905338354,0.00084440953142942,-0.00080447217343747,0.00080568084785209,-0.00080621545080682,0.00080606016791442,-0.00080583291003383,0.00080386241089769,-0.000875681680054,0.00087493428828582,-0.00087551207881635,0.00087576712803139,-0.00087589705171306,0.00087453592013523,-0.00087649895909009,0.0008761413015467,-0.00080646644308669,0.00080413357765061,-0.00080939385324555,0.00080998156678338,-0.0008058712629475,0.00080671146574774,-0.00080286591909877,0.00080189052169549,-0.00080498489236589,0.0008032665110992,-6.0237739002811e-06,1.2957889707063e-05,-0.00066248973456125,0.00066277288037018,9.4399657812184e-07,-5.7007581320613e-07,-0.00067772337638899,0.0006642552013658,-0.00069547877399589,0.00068656357327956,-0.00070196761722179,0.00069479478085667,-0.00066816000914315,0.00071240440338657,-0.00067623565718068,0.00066572190299624,-0.00069399154472476,0.00068803528544578,-0.00070047448633034,0.0006962732399705,-0.00071013030176404,0.0007059138525695,-0.00071063863636496,0.00070540719092068,-0.00070496619250882,0.00070847256141757,-0.00070547522982948,0.00070796934948914,-0.00066516135571845,0.00069024569918525,-0.00067657576129664,0.00066428931942974,-0.00067607139721222,0.00066479603781611,-0.00066466611982313,0.00069073883594078,-0.00066960467766611,0.00071097278195272,0.76057157139225,131688,2924,0.0024459697614062,0.003513125637106,0.002757184583219,14.811610956812,3.3692887654497e-05,3.3692887654497e-05,3.3692887654497e-05,3784586.9809688,0.0087544737192219
23391759,0.59251692535668,0.0096382247862208,0.0028433702114792,0.0036958686789402,0.0030989858958014,-0.000632383350948,0.00062980395764802,2.2314030746155e-06,-1.006767943182e-05,-9.0441755720501e-07,-3.1651419256888e-07,-0.0004001027230826,0.00037409571031922,-0.00066482123090729,0.00066756356703004,-0.00066834192550481,0.00067075977840257,-0.00039093042733512,0.00038930267365521,-0.00040066629179448,0.00037354293180971,-0.00066539025986476,0.00066697425272472,-0.00066891165337695,0.00067018774388041,-0.00072239402242028,0.00072420232852577,-0.00072600502692992,0.00072266577831419,-0.00072220333115532,0.00072440453190947,-0.00072581070620644,0.00072286251392036,-0.00060641115562489,0.00061109970538647,-0.00061690534564308,0.0005938900364763,-0.00060660769742634,0.0006108915479024,-0.0006170976338061,0.00059370387419982,-0.00039034005827044,0.00038991209255168,1.0784167209004e-07,-4.7659250584415e-07,-9.7655649605353e-07,6.1366217010391e-07,-0.00092701819207385,0.00092665612009005,-0.0008806880465602,0.00088208247160245,-0.00088179856638449,0.00088147609930732,-0.00088079901605975,0.00087932456810698,-0.00096291272795783,0.00096221373967795,-0.00096276182113214,0.0009631356511328,-0.00096299711093696,0.00096190566048335,-0.00096376007476793,0.00096374314027102,-0.00088269655358132,0.00088057996850854,-0.00088630775579508,0.00088730782203431,-0.0008814577786679,0.00088219245098802,-0.00087738792107934,0.0008769805268485,-0.0008811426452694,0.00087941747482715,-6.0166787867445e-06,1.4171677081089e-05,-0.00071371981350994,0.00071407791105083,1.0360958986717e-06,-5.8156840064555e-07,-0.00072964293166569,0.00071607489758285,-0.00075172525348656,0.00074080517477217,-0.00075864408381339,0.00075110238384898,-0.00072064139349507,0.00077042200918703,-0.0007280693020693,0.00071764760568245,-0.00075014259890093,0.00074238169097059,-0.00075706009292842,0.00075268696334336,-0.00076847868919715,0.0007641906519734,-0.00076902071779028,0.0007636478283846,-0.00076312643302065,0.00076653623982752,-0.0007636701598088,0.00076599707094319,-0.00071861834186145,0.00074616333235137,-0.00072991559519656,0.00071760685253737,-0.00072937813789241,0.00071814746157135,-0.00071808799697271,0.00074668920852373,-0.00072218182068197,0.00076888846982831,0.75126456022792,131688,2924,0.002626514708853,0.0038540790378206,0.0029702046179386,15.634064784698,4.0272518277584e-05,4.0272518277584e-05,4.0272518277584e-05,3918997.7874259,0.0094957198254997
24391759,0.64526686246819,0.010470212339428,0.0030670341466696,0.004051349565173,0.0033518286275849,-0.00068207606930481,0.00067899582880986,1.4649464221736e-06,-1.0751788733325e-05,-1.1271550397121e-06,-3.0557753236092e-07,-0.00041727516270605,0.00038900738207524,-0.00072124639572053,0.00072379316081604,-0.00072459247298721,0.00072829238842671,-0.00040890900028002,0.00040475992073385,-0.00041806901722723,0.00038825247422397,-0.00072204550121023,0.00072298045322993,-0.00072540291332593,0.0007274858995797,-0.00078452286803659,0.00078576632274734,-0.00078801251932887,0.00078472250389874,-0.00078425797795777,0.00078604827631239,-0.00078774031627892,0.00078499561422174,-0.00065209215683869,0.00065534686006548,-0.0006622200027167,0.00063726517351004,-0.00065235443283819,0.0006550451775235,-0.00066248861734502,0.00063701191837765,-0.00040811397038726,0.00040561398373115,1.7074917787469e-07,-6.4566746596543e-07,-3.8299400894357e-07,-8.7671396509054e-08,-0.0010212777932471,0.0010208107357727,-0.00096908105537269,0.00096917729950605,-0.00096817872788736,0.00096841137632271,-0.00096706329759128,0.00096569688293247,-0.0010628166302333,0.0010625123596379,-0.0010631379820616,0.0010630634054076,-0.0010629471675823,0.0010620996533621,-0.0010643522441542,0.0010637323081562,-0.00096996989076794,0.00096893845190673,-0.00097573587284955,0.00097527429010464,-0.00096830709624529,0.00096874409503734,-0.00096362451512768,0.00096244368435433,-0.00096813048790705,0.00096763524840424,-5.7578658161637e-06,1.5671790199559e-05,-0.00077117232490473,0.00077194247599967,6.2093525645448e-07,2.7921741415894e-07,-0.00078812765731056,0.00077633015844535,-0.0008154470580182,0.00080383447668729,-0.00082282191274968,0.00081663288860551,-0.0007813164220029,0.00083631551517176,-0.00078782485421336,0.00077664355661026,-0.00081511814841649,0.00080414387786828,-0.00082248205605341,0.00081695702713799,-0.00083402046978229,0.000829563791696,-0.00083414058332751,0.00082944311654177,-0.00082850343061251,0.00083159046840921,-0.00082862406455134,0.00083147544287338,-0.00077897202823585,0.00081005205798149,-0.00078998184448321,0.00077859836359302,-0.00078988100739848,0.00077871725294813,-0.00077888370964007,0.00081013829523504,-0.00078155920202106,0.00083608514892548,0.76118278553698,131688,2924,0.0028320814808402,0.0042449292373925,0.0032097312275073,17.855805231736,5.8046441853885e-05,5.8046441853885e-05,5.8046441853885e-05,4066695.9052677,0.010339981291783
25391759,0.69991436576987,0.011353296817131,0.0033026606179005,0.0044324557540137,0.003618180445217,-0.0007325148118682,0.00072871091703827,3.8970543617587e-07,-1.1632490389537e-05,-1.2677402783238e-06,-4.9604030439721e-07,-0.00042814729420239,0.00039651910067604,-0.00077972952069204,0.0007815918732226,-0.0007828265933497,0.00078777288146634,-0.00042060924590123,0.00041337471290245,-0.00042888692561874,0.00039579573013155,-0.00078047592205934,0.00078082364020809,-0.00078357742447597,0.00078701914353321,-0.00084924521539647,0.00084977453589764,-0.00085253677684683,0.00084935087315002,-0.00084899475017579,0.00085003921405664,-0.0008522813865847,0.00084960898978561,-0.00069890916991594,0.00070002809584388,-0.00070844789040668,0.00068094654332441,-0.00069916268899571,0.00069975464259424,-0.00070870052740362,0.00068070193011696,-0.00041985055377177,0.0004141655201794,1.4088777001523e-07,-6.2223135157905e-07,-1.2198081704576e-06,7.4538569614381e-07,-0.0011230392949118,0.0011225668341114,-0.001063940353423,0.0010656519055556,-0.0010638309630102,0.0010634460844173,-0.0010622398017809,0.0010603560252022,-0.0011696487320952,0.001168774746529,-0.0011695109811449,0.0011699625368707,-0.0011697212741153,0.001168335649216,-0.0011708404629553,0.0011707801670428,-0.0010664764810458,0.001063821911898,-0.001071802684604,0.0010729963483877,-0.0010634660798489,0.0010643913382586,-0.0010575642671862,0.0010569918295867,-0.0010643754977662,0.0010622287478498,-5.7689904448959e-06,1.7013492287632e-05,-0.00082972910492914,0.0008302226749593,1.2971696992294e-06,-7.0595642476802e-07,-0.00085096508681481,0.00083746655577679,-0.00088271901104657,0.00086616593491569,-0.00089056185763341,0.00088205304425504,-0.00084395838903112,0.00090791235888146,-0.00084902441804757,0.00083941365455134,-0.0008807592185547,0.00086811263162561,-0.00088859906541678,0.00088401163377284,-0.00090099031495187,0.00089665561973061,-0.00090166176607209,0.00089598342155219,-0.00089535439502523,0.000898307324138,-0.00089602759838469,0.00089764005236482,-0.00084332292064982,0.00087665878249603,-0.00085369778398509,0.00084172290189371,-0.00085303645790192,0.00084239245958475,-0.00084266917680808,0.00087730751154875,-0.00084586074596421,0.00090602188278675,0.7809936134763,131688,2924,0.0030402856470533,0.0046669143318019,0.0034523701709858,19.83794108167,7.3903528653359e-05,7.3903528653359e-05,7.3903528653359e-05,4137854.9739622,0.011222251266728
26391759,0.75001729841974,0.012181331745031,0.0035224414824872,0.0047938214547971,0.0038650688077464,-0.00077586797228935,0.00077138995063832,-9.120537336825e-07,-1.2368585498314e-05,-1.6455420828311e-06,-3.323494640488e-07,-0.00043008083502885,0.00039568115880003,-0.00083038642538466,0.00083213337890745,-0.00083307488618983,0.0008402843802945,-0.00042440488612114,0.00041296113552425,-0.00043135000828687,0.00039443448982984,-0.00083166312793287,0.0008308320727521,-0.0008343588992172,0.00083899486751668,-0.00090705917048298,0.00090664272935476,-0.00091001682338962,0.00090700967289532,-0.00090663520680759,0.00090708932740044,-0.00090958634233297,0.00090744752514233,-0.00073920959577407,0.00073795898014415,-0.00074776176816712,0.00071812522232293,-0.00073963722010952,0.00073749434479365,-0.00074819186580465,0.00071770582200237,-0.00042311872568811,0.00041430153163415,3.1387008074754e-07,-9.8701682934706e-07,-9.6621772449655e-07,3.0513090296855e-07,-0.0012181011950766,0.0012174424588225,-0.0011540069559614,0.0011550310935017,-0.0011537813725565,0.0011539693124008,-0.001152256666977,0.0011498888819318,-0.0012678140734553,0.0012671565504714,-0.0012679687988987,0.0012681880800672,-0.0012680052424356,0.0012664833220011,-0.0012695693659624,0.0012689227747415,-0.0011561011993922,0.0011537606405744,-0.0011633756658911,0.0011635207961715,-0.001153710353838,0.0011547486506182,-0.0011470171169578,0.0011454917020931,-0.0011535402499338,0.0011520632800236,-5.2946164900697e-06,1.8529653329127e-05,-0.00087919578140125,0.00088000699014425,1.1224684707207e-06,-2.0038877026325e-07,-0.00090331500961147,0.00089141906088956,-0.00093901621815208,0.00092010647053476,-0.00094717994886835,0.00093936443042899,-0.00089911568749219,0.00097060608594439,-0.00090205839498192,0.00089269356624253,-0.00093772691822432,0.0009213779295381,-0.0009458842839008,0.00094065005955294,-0.00095934121045074,0.00095503164689219,-0.00095978794968372,0.00095458360604792,-0.00095373797209724,0.00095618291764079,-0.00095418586928572,0.00095574130704681,-0.00089966381559062,0.00093643794764354,-0.00090886563127237,0.00089802761003936,-0.00090843730501109,0.00089847357826462,-0.00089924799737035,0.00093685209342754,-0.00090032003407261,0.00096941175125664,0.79883072436776,131688,2924,0.0032191481229459,0.005060551458412,0.0036584587478661,20.411674922667,7.8493399381337e-05,7.8493399381337e-05,7.8493399381337e-05,4132372.8622192,0.012009918685066
27391759,0.79795681456063,0.012942898407948,0.0037255704174842,0.005129076250708,0.004088251739756,-0.00081604804257367,0.00081076673811279,-1.96596706558e-06,-1.3553646815375e-05,-1.8560163327857e-06,-4.7002296580433e-07,-0.00042906512770198,0.00039027566662834,-0.00087618102960762,0.00087748524066576,-0.00087867279786781,0.00088748432926862,-0.00042413912560808,0.00040936016128833,-0.00043036657226623,0.00038902484691417,-0.00087754140313955,0.00087613073326013,-0.00088003589796624,0.00088612018053618,-0.00096223493594695,0.00096113000409015,-0.00096508316396149,0.00096209831447469,-0.0009617863568716,0.00096160399669371,-0.00096462864317306,0.00096255930588698,-0.000775059796958,0.00077178150746782,-0.0007833146045373,0.00075045247357875,-0.00077550636252974,0.00077127235721389,-0.00078375072636852,0.00075003913588256,-0.00042279057942953,0.00041081438386563,3.4796155772748e-07,-1.0210255496416e-06,-9.8874241410269e-07,3.2440692060399e-07,-0.0013101686692417,0.001309508243428,-0.0012393454118925,0.0012404426769318,-0.0012405214537115,0.0012407674009275,-0.0012385653875982,0.0012361340665447,-0.0013638699824171,0.0013632171327513,-0.001364079273667,0.0013643385751149,-0.0013640336356891,0.0013624710079497,-0.0013657924344241,0.0013651348004429,-0.0012415357434522,0.0012391347010133,-0.001249904351508,0.0012500617786195,-0.0012405119229354,0.0012416414060993,-0.0012324658070112,0.0012308768183426,-0.0012386942525565,0.0012371776402059,-5.2555030975972e-06,2.0414559126643e-05,-0.00092329371031191,0.0009242628702892,1.2374824120145e-06,-1.3439419380505e-07,-0.00094768400375761,0.00093576852476025,-0.00098882283296007,0.00096685661608529,-0.00099755806021383,0.0009892698784643,-0.00094501876594842,0.0010254646712629,-0.00094638106212638,0.00093715628995868,-0.00098749027170352,0.00096816667874488,-0.00099619399955448,0.00099061444782932,-0.0010135981825809,0.0010091477249021,-0.0010140655068283,0.0010086808344975,-0.001007774149484,0.0010099649409421,-0.0010082390538437,0.0010095098176863,-0.00094935812780222,0.00099004287883199,-0.00095804792596245,0.00094722627315923,-0.00095760563920893,0.00094770809399823,-0.00094894621508479,0.00099044007356043,-0.00094617065255999,0.0010243351250191,0.76756559104204,131688,2924,0.003384559508816,0.0054419827902466,0.0038419021685224,22.213303685837,9.2906429486694e-05,9.2906429486694e-05,9.2906429486694e-05,4105012.2139773,0.012749293518084
28391759,0.84057661210078,0.013651943530543,0.003916377745656,0.0054402099539714,0.0042953558309153,-0.0008524796078057,0.00084649645827109,-3.1371544782079e-06,-1.4317955318512e-05,-2.0608478435716e-06,-5.5628401535048e-07,-0.00043415346075175,0.00039250538587571,-0.00092041457439402,0.0009211590452301,-0.00092253935681967,0.00093291936015123,-0.00043047657207986,0.00041235407164477,-0.00043559501378677,0.00039115029579429,-0.00092189746909875,0.00091976714843778,-0.00092406000289734,0.0009314309206525,-0.0010107771512555,0.0010088576306614,-0.0010133680319378,0.0010105493668588,-0.0010102967187762,0.0010093765362462,-0.0010128720509604,0.001011054924931,-0.00080828527680509,0.00080274531714454,-0.00081579655891279,0.00078050895611426,-0.0008087638271609,0.0008021561667995,-0.00081625943763631,0.00078006484194144,-0.0004289758723401,0.00041389852752468,3.4605821238626e-07,-1.1385215222221e-06,-1.2556764654731e-06,4.5729330145939e-07,-0.0013939664741769,0.0013931762468244,-0.0013176962312207,0.0013191073348928,-0.001318807641045,0.0013189016650295,-0.0013164614859556,0.0013137219858347,-0.0014519059736275,0.001451021086947,-0.0014520289027202,0.0014523434124101,-0.0014520599457327,0.0014501951864216,-0.001453887084882,0.0014531913686124,-0.0013203288026748,0.0013173611873335,-0.0013293419077908,0.0013296992659548,-0.0013186988521441,0.0013199935441035,-0.0013096290727952,0.0013079172123333,-0.0013172406339099,0.0013152115663784,-5.016480897372e-06,2.1926317516894e-05,-0.00096188001431043,0.00096291626740269,1.4807320459692e-06,-2.9387949817125e-07,-0.00098893616218071,0.00097694802339052,-0.001035511924644,0.0010101487079524,-0.0010446321535832,0.0010356337837547,-0.00098747907621626,0.0010755085441117,-0.00098717428279081,0.00097880749254707,-0.001033771797792,0.0010118276368276,-0.0010428512381805,0.0010373774288212,-0.0010604141878565,0.0010560543880335,-0.0010610216501565,0.0010554520020156,-0.0010545078557121,0.0010563587976405,-0.0010551118118327,0.0010557771688714,-0.00099402148734567,0.001037843582636,-0.0010019143187927,0.00099138412017388,-0.0010013295773973,0.0009920218781777,-0.00099351301894585,0.0010383510331335,-0.00098890592835903,0.001074083917837,0.80347863637335,131688,2924,0.0035345716940712,0.0057887452702755,0.0040022538427214,23.413404763722,0.00010250723810978,0.00010250723810978,0.00010250723810978,4096213.5509416,0.013415047735177
29391759,0.87743942519443,0.014207837066104,0.0040672992038677,0.0056857925299438,0.0044547453322929,-0.0008780492447564,0.00087126474678401,-4.5229150427918e-06,-1.5319007706164e-05,-2.2371719978924e-06,-7.2575832232988e-07,-0.00041834550741661,0.00037214795631007,-0.00094842361610172,0.00094856574518521,-0.00095017881501584,0.00096261571172877,-0.00041603766829878,0.00039384867467408,-0.0004197916356441,0.00037072316979465,-0.00094989160404771,0.00094708329464039,-0.00095165406180615,0.000961131538199,-0.0010510985790453,0.0010483528611569,-0.0010533862832387,0.0010508352124321,-0.0010506093227727,0.0010488690191473,-0.0010528903526075,0.0010513416018208,-0.00082981098440517,0.00082156857343883,-0.00083640585777441,0.00079838129876617,-0.0008303038837097,0.00082103572319305,-0.00083689498044497,0.00079790095174225,-0.00041455964237265,0.00039537289032105,3.4603092319348e-07,-1.13909900354e-06,-2.0652619987411e-06,1.2857788965036e-06,-0.001465465828554,0.0014646885497975,-0.0013814356256274,0.0013844488976667,-0.0013878468679879,0.0013873989198447,-0.001385005060023,0.0013816519971085,-0.0015263610889163,0.0015249615804115,-0.0015260467109231,0.0015269048121124,-0.0015264754262695,0.0015240840846754,-0.0015279371044606,0.0015277954041914,-0.0013856142404245,0.0013810586297437,-0.0013939789845999,0.0013959791241926,-0.0013873057840024,0.0013890994925804,-0.0013764546443794,0.0013753177762155,-0.0013822405095478,0.0013786631754969,-4.8089618780627e-06,2.3407175711208e-05,-0.00098688575414503,0.00098783825628265,2.2481737603195e-06,-1.1577546706069e-06,-0.0010117620385536,0.0009986818924534,-0.0010650399663265,0.0010346137271041,-0.0010744776743275,0.0010633696287791,-0.0010111064360777,0.001109459744965,-0.0010084550883609,0.0010020294357459,-0.0010617081634927,0.0010379211560602,-0.0010711354639519,0.001066703872821,-0.0010958429649616,0.0010917861473517,-0.001096984788437,0.001090643671529,-0.001089916250604,0.0010915918420357,-0.0010910599492078,0.0010904595045207,-0.001024410702201,0.0010706536083353,-0.0010310747967061,0.0010204069181922,-0.0010299502645978,0.0010215539509082,-0.0010233027716112,0.001071752533215,-0.0010143277418294,0.0011062579824454,0.72782173344928,131688,2924,0.0036393070883447,0.0060847251490309,0.0041059422107268,24.734689995295,0.00011307751996236,0.00011307751996236,0.00011307751996236,3950538.1188835,0.013926414174926
30391759,0.90825889398205,0.014663861556124,0.0041931995741679,0.0058861114799773,0.0045845505019791,-0.00089931003132095,0.00089214040464528,-5.1896743435336e-06,-1.5706936346774e-05,-2.3086525420869e-06,-8.1398953681589e-07,-0.00042626835121785,0.00037890748153567,-0.00097463983306068,0.00097439911396493,-0.00097611059205749,0.00098935027581379,-0.00042449015430197,0.00040071299585185,-0.00042777363168946,0.00037749899334557,-0.00097599821699304,0.00097295184884097,-0.00097758185284144,0.00098785563458064,-0.0010807546335,0.0010774998998932,-0.0010829070859538,0.001080476086617,-0.0010802523077157,0.0010779954079397,-0.0010823927228484,0.0010809858966835,-0.00084621522274734,0.00083659816845277,-0.00085245889913377,0.00081298515796393,-0.00084672783974486,0.00083606478898122,-0.00085298067511581,0.00081246884560788,-0.00042315447879719,0.00040233060598827,1.9764019819023e-07,-1.2659458760623e-06,-1.9280310476131e-06,8.4952919957252e-07,-0.0015206759801827,0.0015196273731579,-0.0014298048542249,0.0014319810859418,-0.0014350252712269,0.0014343836230881,-0.0014316944373837,0.0014282993922306,-0.0015888479464678,0.0015873854379571,-0.0015887508390441,0.0015891899518167,-0.0015889418805997,0.0015865021956531,-0.0015907764321036,0.0015901902122707,-0.0014334021773118,0.0014291353403308,-0.0014424124585356,0.0014434800752138,-0.0014346630571833,0.0014360161384126,-0.0014232786262884,0.001421665420742,-0.0014300106627039,0.0014266223994061,-4.6354487428309e-06,2.4716955611733e-05,-0.0010065901361879,0.0010077451139277,2.1088545392349e-06,-7.3062311269737e-07,-0.0010298843157232,0.0010174962402672,-0.001090742298728,0.0010594693197946,-0.0011005914878834,0.0010899871672089,-0.0010301094512943,0.0011317233594749,-0.0010270022036849,0.0010202083446129,-0.0010879412711323,0.0010621404174578,-0.0010977114273299,0.0010927478401906,-0.0011227105643597,0.001118580860018,-0.0011236749221971,0.0011176246349082,-0.0011165771883519,0.0011179099197761,-0.0011175364524143,0.0011169678183994,-0.0010449636643701,0.0010941266092491,-0.0010515358259005,0.0010413715532081,-0.001050560147012,0.0010423069893557,-0.0010440629065201,0.0010950476206334,-0.0010325743664439,0.0011292560175638,0.7133567036961,131688,2924,0.0037268923828822,0.0063126444461666,0.0041881856702415,26.074621018888,0.0001237969681511,0.0001237969681511,0.0001237969681511,3951847.9614555,0.014329801806761
31391759,0.93421506154845,0.015072793078685,0.0043065842674473,0.0060640023864814,0.0047022064247562,-0.00091855529594508,0.00091073156461278,-6.2138358280382e-06,-1.643089633027e-05,-2.3140315139097e-06,-1.2163404957541e-06,-0.000421409160448,0.00037042466289339,-0.0009989667991146,0.00099765959578547,-0.0010001339566888,0.0010142514664116,-0.00042014707946765,0.00039386229957246,-0.00042247499653751,0.00036938595108852,-0.0010000027770718,0.00099667932656162,-0.0010012648977929,0.0010131393771902,-0.0011097919098501,0.001105981942367,-0.001111740096977,0.0011095925378295,-0.0011094191227353,0.0011063355719317,-0.0011113461865303,0.0011099592692054,-0.00086261029276424,0.00085089325540705,-0.00086827819974178,0.00082652456138755,-0.0008629784360033,0.00085045316046785,-0.00086864074984046,0.0008261810826787,-0.00041924565854234,0.00039507741883283,2.6955367348986e-08,-1.0416175932542e-06,-1.8435791671452e-06,7.8814196099205e-07,-0.0015753681108564,0.0015743565242638,-0.0014791320568444,0.0014810822263972,-0.0014865552214086,0.001485652730763,-0.0014824728340352,0.0014796499941067,-0.0016469548141977,0.0016454066674259,-0.0016469268977597,0.0016472187440605,-0.0016468708788633,0.0016446432943157,-0.0016489022249874,0.001648427262468,-0.0014824953399586,0.001478536651821,-0.001492103911818,0.0014931582314092,-0.0014863101364708,0.0014873024201359,-0.00147352509293,0.0014722787509958,-0.0014791245644479,0.0014757261996795,-4.3980356264831e-06,2.6125373793904e-05,-0.0010232646787726,0.0010246065136353,2.1737767248972e-06,-5.3340931592015e-07,-0.0010472759173537,0.001035458309134,-0.0011136315967531,0.0010802474713518,-0.0011238159612838,0.0011132152525388,-0.001049078039001,0.001156906262493,-0.001044539419408,0.0010381779297918,-0.001110948889694,0.0010827554321528,-0.0011210064983801,0.0011158615521877,-0.0011468827519212,0.0011427579708265,-0.0011478195324213,0.0011418353295331,-0.0011406441772347,0.0011416325086313,-0.00114155320796,0.0011407358941207,-0.0010657406312409,0.0011178463913484,-0.0010717545759646,0.0010620285606533,-0.0010708212638049,0.0010629757668289,-0.0010649520667231,0.0011186870963473,-0.0010512589388643,0.0011547292905953,0.75948214354887,131688,2924,0.0038055990995289,0.0065389719112371,0.0042578493505888,28.35812921935,0.0001420650337548,0.0001420650337548,0.0001420650337548,3842858.5127712,0.014709979550441
32391759,0.95380393859554,0.015394242188097,0.0043964823217505,0.0062027793640805,0.0047949805022659,-0.00093110197834472,0.00092248466050574,-7.3859883963062e-06,-1.7656890173982e-05,-2.3644628732753e-06,-1.5827712874581e-06,-0.00039720252383015,0.00034024736000069,-0.0010129762263496,0.0010107789734188,-0.0010139174308532,0.0010297434255527,-0.00039666972441256,0.00036692048534848,-0.00039791114615955,0.00033954575045952,-0.0010137415886531,0.0010100900452409,-0.0010147037272471,0.0010289546230725,-0.0011335025828008,0.0011291419358967,-0.001135285068336,0.0011334183789398,-0.0011332526516256,0.0011294133957473,-0.0011350117987795,0.0011336811882258,-0.00087389137695369,0.0008598356169254,-0.00087901974063076,0.00083411503556133,-0.00087412808395087,0.00085952175916648,-0.00087926760498075,0.00083393361292623,-0.00039599011006786,0.00036775218529388,1.0006349591352e-07,-6.4869102985438e-07,-1.5715172994687e-06,1.0120002811154e-06,-0.0016209205245971,0.0016203726664817,-0.0015214423862803,0.0015237266488258,-0.0015350931459489,0.0015344122605904,-0.0015304021502518,0.0015283303738355,-0.0016906657918004,0.0016894939899995,-0.0016907057875512,0.0016913372209392,-0.0016904905748317,0.001688820288085,-0.0016925764122796,0.0016926560808807,-0.0015246327228096,0.0015213093861023,-0.0015352530743436,0.0015369460809707,-0.0015350106323891,0.0015360983961645,-0.0015201091670058,0.0015196385474247,-0.0015210155861945,0.0015181095380432,-4.2190028114829e-06,2.7674471971755e-05,-0.0010311573221355,0.0010326954121886,2.2384923414311e-06,-4.2209504026545e-07,-0.0010540039010769,0.0010426473667291,-0.0011242964046773,0.0010879778029749,-0.0011347990066017,0.0011239323924221,-0.0010582020292635,0.001175293055193,-0.0010513838594487,0.0010453186769772,-0.0011216940868379,0.0010905037192336,-0.0011321317529815,0.0011265498190583,-0.001163330240079,0.0011591348607999,-0.0011642374570589,0.0011582315428421,-0.0011570172301155,0.0011577345421037,-0.0011579139184074,0.0011568505749133,-0.0010798456684914,0.0011349884028732,-0.0010848968326783,0.0010755426492634,-0.0010840095606585,0.0010764542985145,-0.0010790274830921,0.0011357760742236,-0.0010604932987714,0.001173125593557,0.78952232985296,131688,2924,0.0038562593668154,0.0067282816084431,0.0042911244443183,29.292819570028,0.00014954255656022,0.00014954255656022,0.00014954255656022,3622562.6747002,0.014987351690619
33391759,0.96765865679811,0.015623834659496,0.0044618773213932,0.0063007712523484,0.0048611860857541,-0.00093860747417899,0.00092965115463967,-8.2545622303272e-06,-1.8222501967787e-05,-2.9644624675293e-06,-1.0117168260327e-06,-0.00038091441841498,0.00032212232360047,-0.0010211868160958,0.0010199066669861,-0.0010218568039391,0.0010406134100301,-0.00038266497966818,0.0003490173615599,-0.00038279172944865,0.00032026431639998,-0.0010230761365802,0.0010180017549393,-0.0010237654052029,0.0010386900037937,-0.0011486905932081,0.0011435758192815,-0.0011502366692,0.0011484046108689,-0.0011480549718368,0.0011442373600321,-0.0011495928057837,0.0011490597969228,-0.00088056016682637,0.00086524060286249,-0.00088502598329272,0.00083886066520513,-0.00088119998961002,0.0008645580989997,-0.0008856633211643,0.00083823309771413,-0.00038078121355872,0.0003509799846827,4.626072680496e-07,-1.4514074385332e-06,-2.8695981410072e-06,1.8939768918523e-06,-0.0016518585180853,0.0016508897855808,-0.0015490344788414,0.001553389060062,-0.0015671325691589,0.0015664328336027,-0.0015632598360648,0.0015588325287559,-0.0017209072672297,0.0017189917512547,-0.0017203176266776,0.0017216072734101,-0.0017211026351034,0.0017179116223281,-0.0017225626057918,0.0017225566454773,-0.0015546740997957,0.0015483999926757,-0.0015638930102009,0.0015669247916754,-0.0015663917298228,0.001568892291617,-0.0015512877452091,0.0015499968998465,-0.0015504503493846,0.0015454230070055,-4.0954565151861e-06,2.8542012779041e-05,-0.0010338189799667,0.0010351875147135,3.2148365266337e-06,-1.6124448008946e-06,-0.0010545457198895,0.0010413928367131,-0.0011304307440074,0.0010894222367669,-0.0011410916558298,0.001127653091362,-0.0010584823835859,0.0011837436586012,-0.0010498306232069,0.0010461375684447,-0.0011257033891257,0.0010941050290847,-0.0011363412203222,0.0011323811195553,-0.0011721686771435,0.0011684499225318,-0.0011737870022174,0.0011668315093633,-0.0011658816337034,0.0011667165383898,-0.0011674996388449,0.001165112044294,-0.0010872380417798,0.0011432794531982,-0.0010913626764284,0.0010815087175995,-0.0010897603691964,0.00108313254776,-0.0010856646809866,0.0011448456413076,-0.001063052425396,0.001179198151443,0.79432064734888,131688,2924,0.0038868777843452,0.0068552893339818,0.0043019060600913,29.275813108722,0.00014940650486978,0.00014940650486978,0.00014940650486978,3455044.7907708,0.015158343602005
34391759,0.97828469390518,0.015793120998402,0.0045108091013377,0.0063724814350051,0.0049098304620591,-0.0009468658089405,0.000937520558925,-8.9516949937206e-06,-1.8636621069185e-05,-2.9738125549242e-06,-1.2362442202549e-06,-0.00037431986798269,0.00031318911773898,-0.001031284557581,0.0010293671483581,-0.0010317118441292,0.0010512707056382,-0.00037658063388852,0.0003411360571857,-0.00037598449217402,0.0003115631873081,-0.0010329569649988,0.0010276927109236,-0.0010334171549324,0.0010495442894737,-0.0011625958344611,0.0011571240131626,-0.0011639754166515,0.0011623909153311,-0.0011620313164509,0.0011577142323575,-0.0011633995482855,0.0011629759789489,-0.0008878152355443,0.00087108373626114,-0.00089180970499412,0.00084429089583238,-0.00088838415745328,0.00087047122744181,-0.00089237647024378,0.00084374971999763,-0.00037492968784209,0.00034288154657515,3.9518159195459e-07,-1.300913394418e-06,-3.0266560850553e-06,2.1323676125958e-06,-0.0016786664377735,0.001677779136186,-0.001573272501041,0.0015780383385449,-0.0015936988182766,0.0015927279247551,-0.0015893965706129,0.0015851522815844,-0.0017483353932768,0.0017462984260493,-0.0017476437096047,0.0017490784186148,-0.0017484652819901,0.0017452975732891,-0.001749857244593,0.0017501326987285,-0.0015792150172674,0.0015727142646963,-0.0015883633837545,0.0015919337127518,-0.0015928751739871,0.0015953852119666,-0.0015767896720111,0.0015759117117606,-0.0015749567314733,0.001569542834897,-3.9197962380766e-06,2.934723068186e-05,-0.0010377077480231,0.0010391330230098,3.4528445739919e-06,-1.7714988009549e-06,-0.0010562164470021,0.0010429633202993,-0.0011372554894896,0.0010942586487638,-0.0011480769029195,0.001134124564121,-0.0010609435388264,0.0011907476017369,-0.0010510911557322,0.0010481271489883,-0.0011321431129751,0.0010993296089041,-0.0011429299927864,0.0011392538906741,-0.0011811773568172,0.0011776047482189,-0.0011829284022624,0.0011758528307036,-0.0011748681162961,0.0011755523042683,-0.001176617833775,0.0011738159196443,-0.0010940850756067,0.0011515240333404,-0.0010976711709161,0.0010880033193226,-0.0010959317787484,0.001089761986323,-0.0010923837341394,0.0011532053241219,-0.0010658658496124,0.0011858817370044,0.76156673937047,131688,2924,0.0039204749248577,0.0069662577140249,0.0043182308535897,31.391922115893,0.00016633537692714,0.00016633537692714,0.00016633537692714,3353938.3074777,0.015321716369651
35391759,0.98672650996826,0.015923921282738,0.0045489647866631,0.006427587082443,0.0049473694136323,-0.00095691632951364,0.00094735848569576,-9.3491311430502e-06,-1.8819004030705e-05,-2.8914772646924e-06,-1.4440435066767e-06,-0.00037813704235707,0.00031597464129573,-0.0010438829407775,0.001041442994847,-0.0010441260149108,0.001063873730945,-0.00038041320757874,0.00034428247575468,-0.00037954254884446,0.00031460562933547,-0.0010451858032538,0.0010400467213321,-0.0010455776834075,0.0010623911836791,-0.0011765296188906,0.0011708702690096,-0.0011778117076239,0.0011764175076517,-0.0011760457922778,0.0011713450884958,-0.001177315908681,0.0011769104863813,-0.00089638137193209,0.00087875503764006,-0.00090013329428152,0.00085179347676838,-0.00089688890792811,0.00087826939653077,-0.0009005955535766,0.0008513323082335,-0.00037916733657995,0.00034583527571506,1.2311477956486e-07,-1.2864875530979e-06,-3.2492315415228e-06,2.1000172132813e-06,-0.0017042685294313,0.0017031294933513,-0.0015960705283504,0.001600705439892,-0.0016174622069685,0.0016157939799834,-0.0016125941172066,0.0016083255702301,-0.0017763280894096,0.0017738702106535,-0.0017755857141212,0.0017767497703683,-0.0017763526359839,0.0017729746729393,-0.0017777856600925,0.0017779523460745,-0.0016019972782488,0.0015952322894952,-0.001610978533562,0.0016145336213893,-0.0016165109957638,0.0016185951169422,-0.0015998931893935,0.0015990638499328,-0.0015979147434218,0.0015919199909084,-3.8325819141805e-06,2.9995586153674e-05,-0.0010451578395601,0.0010466142427651,3.5796029444946e-06,-1.840079334362e-06,-0.0010638572763791,0.0010503836663572,-0.0011482851643106,0.001104224961506,-0.0011592887967944,0.0011450222733599,-0.0010687178231239,0.0012005938420536,-0.0010584410734998,0.0010558006063617,-0.0011430353660251,0.0011094802172054,-0.0011539140227824,0.0011503784545715,-0.0011919063144433,0.0011884134344691,-0.0011937398095834,0.0011865882895011,-0.0011855118325803,0.0011860694236692,-0.001187320467848,0.0011842692542766,-0.0011029206547171,0.0011615899670184,-0.0011064061010935,0.0010968033057743,-0.0011045473315377,0.0010986574262555,-0.0011011641501809,0.0011633394483784,-0.0010736852997232,0.0011956581489729,0.73947519881358,131688,2924,0.0039618197925943,0.0070715728344107,0.0043492565828496,35.83730319263,0.00020189842554104,0.00020189842554104,0.00020189842554104,3332487.7918103,0.015502152514106
36391759,0.99220210257662,0.016010291652338,0.0045742058064269,0.0064638344942669,0.0049722513516441,-0.00096137357805218,0.00095165187175183,-9.660997307563e-06,-1.8986603955382e-05,-3.0217765516082e-06,-1.4080207116644e-06,-0.00037816740598316,0.00031552759805146,-0.0010501592305223,0.0010477327806316,-0.0010503481915082,0.0010706375582891,-0.00038117543907345,0.0003439628990806,-0.000379702308456,0.00031401204301957,-0.001051715538802,0.0010461654311661,-0.0010519254439911,0.0010690499249346,-0.0011834480328489,0.0011775289950197,-0.0011846655012964,0.0011833156906409,-0.0011829203326429,0.001178077507523,-0.0011841293967657,0.0011838586111679,-0.00089936890271874,0.00088116197249317,-0.00090286665422713,0.00085395108976579,-0.00089989548338431,0.00088059600134403,-0.000903391266841,0.00085343708749789,-0.00037963665861924,0.00034558197480499,3.3761614611201e-07,-1.2329428714187e-06,-3.1518577432714e-06,2.2657520610805e-06,-0.0017184271286518,0.0017175483608831,-0.0016077563673516,0.0016127272521308,-0.0016300326923899,0.001628867843983,-0.0016253010993147,0.0016210870960132,-0.0017922305076708,0.0017900759560984,-0.0017914909995888,0.0017929765485336,-0.001792327269869,0.0017891190553893,-0.0017937630821465,0.0017941740880206,-0.0016138032334239,0.0016070929129976,-0.0016226004448841,0.0016264768303163,-0.001629185090155,0.0016316570720366,-0.0016123505791264,0.0016117072275825,-0.0016095403370913,0.001603846385248,-3.7349579386216e-06,3.0464912514602e-05,-0.0010476039197395,0.0010491066511965,3.6535662269715e-06,-1.8325434855794e-06,-0.0010677894410088,0.0010546594844988,-0.0011536826527174,0.0011088961279481,-0.0011647662581357,0.0011504011671114,-0.0010728811791034,0.0012067353457524,-0.001062429523036,0.0010600514166617,-0.0011483102835238,0.0011142241608041,-0.001159370730581,0.0011557742799239,-0.0011961379667191,0.0011926520111964,-0.0011979757299285,0.001190814179231,-0.0011896680561251,0.0011901089385164,-0.0011915058604123,0.0011882853446899,-0.0011066224088446,0.0011662698690103,-0.0011099202252423,0.0011005224520322,-0.0011080986253004,0.001102366080295,-0.0011048275965757,0.0011680552928035,-0.001078097294362,0.0012015462399606,0.75249744102749,131688,2924,0.0039800196569065,0.0071306304030049,0.0043595419280245,37.524565012997,0.00021539652010397,0.00021539652010397,0.00021539652010397,3300750.3662115,0.015591064081329
37391759,0.995435000658,0.016060950288093,0.0045890455625494,0.0064850449125609,0.0049868598129827,-0.00096237318961567,0.00095246770250605,-1.0044433309043e-05,-1.9250880110612e-05,-3.1115449132437e-06,-1.4104671185355e-06,-0.00036930591893074,0.00030516155901656,-0.00105078948741,0.0010482572761173,-0.0010508545557693,0.0010719498296183,-0.00037280777265379,0.00033432129827067,-0.00037092609057927,0.00030356242008766,-0.0010524299887334,0.0010466042242075,-0.0010525168380471,0.0010702759596329,-0.0011872417136467,0.0011810989356909,-0.0011883605710419,0.0011871263932846,-0.0011866848397289,0.0011816769895714,-0.0011877955427415,0.0011876988574626,-0.00090022939644775,0.00088134199082286,-0.00090345458792966,0.00085393611971929,-0.00090078549046268,0.00088074544434216,-0.00090400744293258,0.00085339346582379,-0.00037118367093962,0.00033602505352693,3.4631089488354e-07,-1.3110782159633e-06,-3.2243087539821e-06,2.2683732422469e-06,-0.0017269148709588,0.0017259671156718,-0.0016155065574401,0.00162051093839,-0.0016398713783719,0.0016386961911505,-0.001635137792326,0.0016307451917896,-0.0017998099632461,0.0017975908429286,-0.0017990594795414,0.0018005314062447,-0.001799937076251,0.0017966064071263,-0.0018013576235141,0.0018016963587218,-0.001621665825688,0.0016147837825699,-0.0016306293023424,0.0016344790587946,-0.0016390246387031,0.0016415380715046,-0.0016217563353531,0.0016209829218528,-0.0016172894434115,0.0016114799022233,-3.6145688551711e-06,3.0800351753516e-05,-0.0010462181553947,0.0010477780776291,3.7222944866564e-06,-1.8397062686155e-06,-0.0010648551531899,0.0010518885123915,-0.0011524580529146,0.0011067509273407,-0.0011635822312658,0.0011491201362383,-0.0010707339047105,0.0012071853090518,-0.001059417330234,0.0010573560542255,-0.0011470113993523,0.001112150797506,-0.0011581103804781,0.0011545671116366,-0.0011972619769178,0.0011938436807348,-0.0011991257796479,0.0011919805588512,-0.0011908259843085,0.0011911755239222,-0.0011926891558196,0.0011893270952199,-0.0011066984858605,0.0011669180291842,-0.0011096079606583,0.0011004045559547,-0.0011077599114513,0.0011022741460012,-0.0011048797710641,0.0011687273909515,-0.0010760220797476,0.0012019271505601,0.74709022176443,131688,2924,0.0039838480046368,0.0071655439513107,0.004353957178917,37.635411588972,0.00021628329271178,0.00021628329271178,0.00021628329271178,3224925.9305633,0.015624763186872
38391759,0.99730185438955,0.016090682830872,0.0045977973366151,0.006497424322101,0.0049954611721557,-0.00096201588878166,0.00095208901181777,-1.0168463511595e-05,-1.9305016146958e-05,-3.3075280555794e-06,-1.1982233030432e-06,-0.00036664209773376,0.00030255010128949,-0.0010507028181375,0.0010485473764668,-0.0010507141717612,0.001072489615523,-0.00037072758592905,0.00033147084184677,-0.00036867057912262,0.00030054045971933,-0.0010527421308266,0.0010464895819761,-0.0010527748462924,0.0010704104090078,-0.0011878893908321,0.0011815709505669,-0.0011889702563717,0.001187706081002,-0.0011872025319742,0.0011822847259382,-0.0011882751895216,0.0011884142846191,-0.00089947684066505,0.00088048246425536,-0.00090259175445064,0.00085300663223297,-0.00090016863504683,0.00087974926889561,-0.00090328053351828,0.00085232729901122,-0.00036869583092106,0.00033358464280104,4.9892742281124e-07,-1.5648936927894e-06,-3.3050296580848e-06,2.2547152575047e-06,-0.0017302183854154,0.0017291748594448,-0.0016180406825516,0.0016231525903122,-0.0016428121631794,0.0016419165377164,-0.0016384247602358,0.0016335098026003,-0.0018034060494181,0.0018012018822584,-0.0018026392131477,0.0018041705943025,-0.0018036635332526,0.0018000834317395,-0.0018050774170796,0.0018052111778739,-0.0016243891610824,0.0016172122619611,-0.001633315796662,0.0016370025227376,-0.0016419553422579,0.0016447922520136,-0.0016249338411486,0.0016236821667318,-0.0016198617017116,0.0016140285189891,-3.5709707371205e-06,3.0977737511055e-05,-0.0010444431374383,0.0010460184495265,3.7670275241187e-06,-1.8623506038007e-06,-0.0010629145063306,0.0010499644878751,-0.0011515270475069,0.001105436124498,-0.0011626850861206,0.0011481342974986,-0.0010689473488509,0.0012062883665055,-0.0010574124045192,0.0010554985345104,-0.0011460157277886,0.0011109039537837,-0.0011571495609689,0.0011536493237743,-0.0011964328672534,0.0011930434852989,-0.00119831850234,0.0011911574128599,-0.001189984790124,0.0011902931430849,-0.0011918700505032,0.0011884217360291,-0.0011054428308153,0.0011659914707921,-0.0011082499344185,0.0010991058765509,-0.0011063800279805,0.0011009981095714,-0.0011036020307486,0.0011678238612406,-0.0010743003262574,0.0012009625334299,0.75853624578649,131688,2924,0.0039823395451496,0.0071789867171586,0.0043466436707151,37.196172703413,0.00021276938162731,0.00021276938162731,0.00021276938162731,3189419.8581287,0.015629460960472
38880000,0.99798334574912,0.016101669337151,0.0046010380899059,0.0065019846850891,0.0049986465621558,-0.00096211383317903,0.00095210022971601,-1.0329695683658e-05,-1.9425951157427e-05,-3.3218592611121e-06,-1.2411138427236e-06,-0.0003622736494674,0.0002973692331818,-0.0010504004875472,0.001048116425577,-0.0010503636516828,0.0010724120836451,-0.00036647257991825,0.00032672195416569,-0.00036426007803477,0.00029538326607565,-0.0010524192114416,0.001046093391847,-0.0010523957111245,0.0010703564175116,-0.0011890345434051,0.0011826446423934,-0.0011900755361165,0.0011888727340004,-0.0011883580823591,0.0011833496683567,-0.0011893889859767,0.001189571790007,-0.00089977821187703,0.00088048700723059,-0.00090278415828858,0.00085293336799988,-0.00090046170450536,0.00087976111707573,-0.00090346635687146,0.00085227222761789,-0.00036448017751771,0.00032880722257261,4.954272878673e-07,-1.5389996064402e-06,-3.3098869560368e-06,2.2822918724626e-06,-0.0017325822296912,0.0017315610404026,-0.0016204424082233,0.0016256061191991,-0.0016461275812908,0.0016452223835433,-0.0016417027743681,0.0016368346165981,-0.0018049745202969,0.0018027718187286,-0.0018041992141694,0.0018057563472564,-0.0018052236340285,0.0018016646951755,-0.0018066213114308,0.0018067965383205,-0.0016268321776057,0.0016196588130376,-0.001635866261501,0.0016396219111506,-0.0016452769410106,0.00164811925952,-0.001628007087413,0.0016268112644723,-0.0016222745097811,0.00161641860037,-3.522448619271e-06,3.1080431697897e-05,-0.0010435532750459,0.0010451513183833,3.7939861096476e-06,-1.8679214913626e-06,-0.0010609175110955,0.0010480283364469,-0.0011502845761023,0.001103806801658,-0.0011614496235991,0.0011468622077198,-0.0010673419709055,0.0012058068320303,-0.0010553738576272,0.0010535969667937,-0.0011447441012085,0.001109310259227,-0.0011558774172391,0.001152413939506,-0.0011965835648237,0.001193225428141,-0.0011984806914351,0.0011913277434952,-0.0011901640800195,0.0011904418055387,-0.0011920598745981,0.0011885600314579,-0.0011052056784135,0.0011658996158089,-0.0011078296822335,0.001098760478376,-0.0011059465967211,0.0011006630334558,-0.0011033572015537,0.0011677338627128,-0.0010727116884979,0.0012004674799901,0.76741574651951,131688,2924,0.0039825941890057,0.0071887895024116,0.0043430159422229,37.193655329807,0.00021274924263845,0.00021274924263845,0.00021274924263845,3156092.6794531,0.015636002927764
