time,ASR_ext,ASR_strain,ASR_strain_xx,ASR_strain_yy,ASR_strain_zz,disp_x_101,disp_x_102,disp_x_103,disp_x_104,disp_x_105,disp_x_106,disp_x_p10_neg,disp_x_p10_pos,disp_x_p11_neg,disp_x_p11_pos,disp_x_p12_neg,disp_x_p12_pos,disp_x_p13_neg,disp_x_p13_pos,disp_x_p14_neg,disp_x_p14_pos,disp_x_p15_neg,disp_x_p15_pos,disp_x_p16_neg,disp_x_p16_pos,disp_x_p1_neg,disp_x_p1_pos,disp_x_p2_neg,disp_x_p2_pos,disp_x_p3_neg,disp_x_p3_pos,disp_x_p4_neg,disp_x_p4_pos,disp_x_p5_neg,disp_x_p5_pos,disp_x_p6_neg,disp_x_p6_pos,disp_x_p7_neg,disp_x_p7_pos,disp_x_p8_neg,disp_x_p8_pos,disp_x_p9_neg,disp_x_p9_pos,disp_y_101,disp_y_102,disp_y_103,disp_y_104,disp_y_105,disp_y_106,disp_y_p10_neg,disp_y_p10_pos,disp_y_p11_neg,disp_y_p11_pos,disp_y_p12_neg,disp_y_p12_pos,disp_y_p1_neg,disp_y_p1_pos,disp_y_p2_neg,disp_y_p2_pos,disp_y_p3_neg,disp_y_p3_pos,disp_y_p4_neg,disp_y_p4_pos,disp_y_p5_neg,disp_y_p5_pos,disp_y_p6_neg,disp_y_p6_pos,disp_y_p7_neg,disp_y_p7_pos,disp_y_p8_neg,disp_y_p8_pos,disp_y_p9_neg,disp_y_p9_pos,disp_z_101,disp_z_102,disp_z_103,disp_z_104,disp_z_105,disp_z_106,disp_z_p10_neg,disp_z_p10_pos,disp_z_p11_neg,disp_z_p11_pos,disp_z_p12_neg,disp_z_p12_pos,disp_z_p13_neg,disp_z_p13_pos,disp_z_p14_neg,disp_z_p14_pos,disp_z_p15_neg,disp_z_p15_pos,disp_z_p16_neg,disp_z_p16_pos,disp_z_p1_neg,disp_z_p1_pos,disp_z_p2_neg,disp_z_p2_pos,disp_z_p3_neg,disp_z_p3_pos,disp_z_p4_neg,disp_z_p4_pos,disp_z_p5_neg,disp_z_p5_pos,disp_z_p6_neg,disp_z_p6_pos,disp_z_p7_neg,disp_z_p7_pos,disp_z_p8_neg,disp_z_p8_pos,disp_z_p9_neg,disp_z_p9_pos,humidity,ndof,nelem,strain_xx,strain_yy,strain_zz,temp,thermal_strain_xx,thermal_strain_yy,thermal_strain_zz,vonmises,vstrain
14391759,0,0,0,0,0,0,0,0,0,0,0,0,0,0,0,0,0,0,0,0,0,0,0,0,0,0,0,0,0,0,0,0,0,0,0,0,0,0,0,0,0,0,0,0,0,0,0,0,0,0,0,0,0,0,0,0,0,0,0,0,0,0,0,0,0,0,0,0,0,0,0,0,0,0,0,0,0,0,0,0,0,0,0,0,0,0,0,0,0,0,0,0,0,0,0,0,0,0,0,0,0,0,0,0,0,0,0,0,0,0,0,0,0,0,0,0,0,0,0,0,0,0,0
15391759,0.10007878924326,0.0017518121525341,0.00058393738417804,0.00058393738417804,0.00058393738417804,-0.00016203407125649,0.00016193070944912,-1.8881970731733e-07,-1.5133396324781e-07,-2.4287080159832e-08,-2.1135638286962e-08,-0.00014348407057579,0.00014278530118427,-0.00016081326607439,0.00016075023719715,-0.00016078242028557,0.00016110328396759,-0.00014359640100945,0.00014293766466544,-0.0001434870006611,0.00014278278984892,-0.00016081606251623,0.00016074714552966,-0.0001607854611885,0.000161100435763,-0.00017012880470363,0.00017004763439518,-0.00017009884001814,0.00017015679362281,-0.00017012779567167,0.00017004878782241,-0.00017009772035745,0.00017015783666946,-0.00016035532479839,0.00016001617310878,-0.0001602601016388,0.00015983700749796,-0.00016035620913659,0.0001600150506906,-0.0001602612120074,0.00015983611118492,-0.00014359391935318,0.00014294062468448,9.1338373143412e-10,-1.930353526716e-09,-5.6652736666092e-09,4.6873761333473e-09,-0.00017588648663426,0.00017588550571872,-0.00017265856432297,0.00017266861362088,-0.00017450468559499,0.00017450288342105,-0.00017446496197583,0.00017445765629205,-0.00017788754418013,0.00017788391032364,-0.00017789670185391,0.00017790056886047,-0.00017788615635921,0.00017788034758452,-0.0001779013986667,0.000177903090741,-0.00017267083423541,0.00017265883656557,-0.00017271361662966,0.00017272167310761,-0.00017450818180397,0.0001745134775563,-0.00017427298036697,0.00017427277230688,-0.0001726183628649,0.00017260835796842,2.8449352398945e-08,2.8105935002384e-07,-0.00016809165586787,0.0001681321782332,2.8032987029467e-08,1.7117210407906e-08,-0.00016606304651949,0.00016609899817302,-0.00016665222593421,0.0001661594746514,-0.00016671903422721,0.00016666144853606,-0.00016640162739626,0.00016795834815784,-0.00016605326291145,0.00016610905918793,-0.00016664180872961,0.00016616977388145,-0.00016670874168871,0.00016667187174786,-0.0001723884712732,0.00017238828101859,-0.00017239217052369,0.00017238452267603,-0.00017237115475182,0.00017231606829284,-0.00017237491159149,0.00017231236737811,-0.0001682220573342,0.00016874021437975,-0.00016808334807006,0.00016813749164987,-0.00016807985569227,0.00016814111725378,-0.00016821843735827,0.00016874371211391,-0.0001664116795103,0.00016794855678801,0.70055894083924,122718,2924,0.00067470009477876,0.00073258795568597,0.00070021995334024,27.144864918878,0.00013235891935103,0.00013235891935103,0.00013235891935103,1381635.096493,0.0021097340697837
16391759,0.18871202961809,0.0033992577494457,0.0011011982450326,0.001167697569984,0.0011303619344291,-0.00027229984112478,0.00027202028164488,-6.1998549924106e-07,-3.2613489771604e-07,-7.3427372224928e-08,-6.1127180364762e-08,-0.00022947883013814,0.00022782691172067,-0.00027544686822773,0.00027521581761292,-0.00027530631861793,0.00027624204629105,-0.00022996441194763,0.0002279345150824,-0.00022949065284736,0.0002278170657753,-0.00027545786681836,0.00027520344336177,-0.00027531848310337,0.00027623083047715,-0.00028943144592748,0.00028913615112583,-0.00028928877827899,0.00028953882270698,-0.00028942753975421,0.00028914069603794,-0.00028928435559975,0.00028954285306483,-0.00027162733952255,0.00027049705438997,-0.00027118730180523,0.00027016519380808,-0.00027163073008608,0.00027049257566166,-0.00027119173207284,0.00027016175068769,-0.00022995469328297,0.00022794646826352,3.2738393376981e-09,-7.9216449300453e-09,-2.4779891911591e-08,2.0286453001757e-08,-0.00031458899990809,0.00031458449585202,-0.0003089656976401,0.00030900892194667,-0.00031141059444339,0.00031140148992045,-0.00031129532664506,0.00031126442369658,-0.00031805405596506,0.00031803755433897,-0.00031807883357336,0.00031809467759799,-0.00031804015333253,0.00031801539191741,-0.00031812444040275,0.00031813202463633,-0.00030901076609029,0.00030895858909545,-0.00030930367364792,0.00030933912985703,-0.00031141194418231,0.00031143363302247,-0.0003108549336089,0.00031085481792047,-0.00030886308169091,0.00030881866860686,1.5946849083881e-07,8.3140696340504e-07,-0.00028970464299375,0.00028981269366375,9.2627061521705e-08,4.4971076672404e-08,-0.00029180648395197,0.00029204448414065,-0.0002921986906003,0.00029050975115553,-0.0002923803006048,0.00029223206908861,-0.00029275604415923,0.00029728731419202,-0.00029176359479052,0.0002920883425381,-0.00029215295923024,0.00029055503076575,-0.00029233504392984,0.00029227782465351,-0.00029780198210482,0.00029785605250538,-0.00029781817242613,0.00029783965953253,-0.00029774248095379,0.00029752732990466,-0.00029775887063523,0.00029751113957854,-0.00029255558952709,0.00029407730122621,-0.00029214992691719,0.00029245509730706,-0.00029213466908504,0.00029247082776092,-0.00029253988302523,0.00029409258206336,-0.00029279985959915,0.00029724438395867,0.7587163515091,122718,2924,0.0011333708650756,0.00130991115746,0.0012065971614656,24.451729104541,0.00011081383283632,0.00011081383283632,0.00011081383283632,2136419.1686293,0.0036565549157448
17391759,0.26768771236241,0.0047046355866439,0.0014813283933111,0.0016650979625247,0.0015582092308081,-0.00035151662730094,0.0003509262494337,-1.3187197507124e-06,-6.0733216569224e-07,-1.3687641366961e-07,-1.0965414729046e-07,-0.00027159217299032,0.00026868993350136,-0.00035795256771133,0.00035740072202952,-0.00035760868572333,0.00035941278787156,-0.00027275908644513,0.00026866163821603,-0.0002716180418356,0.00026866773973754,-0.00035797692260441,0.00035737351018574,-0.00035763538393072,0.0003593879040856,-0.00038222144131259,0.00038156819924278,-0.00038188189058526,0.00038240439488628,-0.00038221275746386,0.00038157817266284,-0.00038187218723316,0.00038241335187702,-0.00034846004746945,0.00034600128441247,-0.00034742018246466,0.0003453485439257,-0.00034846768098111,0.00034599153365455,-0.00034742981852509,0.00034534079558025,-0.00027273719208636,0.00026868779728384,6.9737177149534e-09,-1.7804656510789e-08,-4.9282264049456e-08,3.880008282428e-08,-0.00043336369810263,0.00043335318960936,-0.00042347143454911,0.00042355524098287,-0.00042603779091553,0.00042602107989392,-0.00042576840105352,0.00042570344283939,-0.00043997450193793,0.00043994173851061,-0.00044002923292233,0.00044005929463167,-0.00043994631389389,0.00043989544564622,-0.0004401280549338,0.00044014001996833,-0.00042357233141067,0.00042346764388474,-0.0004245491672136,0.00042461577750294,-0.00042604495968292,0.00042608840935987,-0.00042489900323517,0.00042489418908281,-0.00042326279785154,0.00042317525281495,3.9584608130172e-07,1.6038570225565e-06,-0.00038337014085748,0.00038354435233637,1.6566467603591e-07,7.2124368767837e-08,-0.00038715314901287,0.00038778846550323,-0.00038863483647719,0.000384950282809,-0.00038900058860858,0.0003887474328039,-0.0003891584826874,0.00039781930888065,-0.0003870692252368,0.00038787433365242,-0.00038854522319873,0.00038503890963905,-0.00038891196067977,0.00038883707515837,-0.00039851066862662,0.00039865750891409,-0.00039854241045623,0.00039862534127509,-0.00039845696842399,0.0003979866988885,-0.00039848914132459,0.0003979549622152,-0.00038897554426256,0.00039204028199237,-0.0003879827723043,0.00038873905356266,-0.00038795297249047,0.00038876983205085,-0.00038894480598419,0.00039207011631835,-0.00038924428562467,0.00039773528672134,0.68097528185715,122718,2924,0.0014623981863156,0.0018040044150704,0.0015964600749529,22.117533971378,9.2140271771022e-05,9.2140271771022e-05,9.2140271771022e-05,2695346.7188479,0.0048747240730226
18391759,0.32456250346894,0.0055303676413802,0.0017155779202412,0.0019897860557357,0.0018250036654034,-0.00039443249088305,0.00039361287274912,-1.823623840916e-06,-7.9666312827569e-07,-2.0045903903628e-07,-1.5953005402493e-07,-0.00029272848288326,0.00028903800843654,-0.00040425396224632,0.00040344125030512,-0.00040375731367425,0.00040614974108614,-0.00029440597600918,0.00028890030716905,-0.00029276790768156,0.00028900377282344,-0.00040429094491509,0.00040340010750913,-0.00040379763850178,0.00040611192638691,-0.00043420777961964,0.0004332617139,-0.00043371963164369,0.00043444727375149,-0.00043419477287568,0.00043327663189674,-0.0004337051350261,0.00043446070756784,-0.0003884407059707,0.00038499260552817,-0.00038695066935222,0.00038417457863334,-0.00038845228930077,0.00038497794544036,-0.00038696515042023,0.00038416281470984,-0.00029437221697912,0.00028894020182551,9.961828271977e-09,-2.7712503790061e-08,-8.195469488471e-08,6.4740662554008e-08,-0.0005043895372788,0.00050437228484883,-0.00048993345806542,0.00049007210428563,-0.0004910462459155,0.00049101550209999,-0.00049065633626418,0.00049055205871761,-0.00051646464778715,0.0005164091847987,-0.00051653098233373,0.00051657924871042,-0.00051641777922998,0.00051633534706155,-0.00051670129905248,0.00051672261532924,-0.00049009947632698,0.00048992653942309,-0.00049152073894476,0.00049163345494305,-0.00049104420447225,0.00049111318802068,-0.00048955364699077,0.00048954907721332,-0.00048969168922095,0.00048954460029058,5.6648024959094e-07,2.1587600503979e-06,-0.00043555511410982,0.00043575178517078,2.1732359970549e-07,6.2672960256379e-08,-0.000438988134589,0.00043988245546424,-0.00044362609827048,0.00043854606161141,-0.00044415424529814,0.00044378621099202,-0.00044157629991522,0.00045299034299935,-0.00043884748952774,0.00044002564091729,-0.00044347747776337,0.00043869340437988,-0.00044400689957245,0.00044393487112845,-0.00045643624077625,0.00045664966606998,-0.00045648865256976,0.00045659670068889,-0.00045635640363704,0.00045570069855168,-0.0004564093846499,0.00045564830225742,-0.0004414543192743,0.00044567417571882,-0.0004401131632068,0.00044118760981777,-0.00044006359161253,0.00044123845876547,-0.00044140352676882,0.00044572379538979,-0.00044171938166709,0.00045284955181251,0.60484717275765,122718,2924,0.0016404876697772,0.0020993352074973,0.0018135730333181,17.517306372708,5.5338450981665e-05,5.5338450981665e-05,5.5338450981665e-05,3127528.6688505,0.0055688763618753
19391759,0.3831509160379,0.0065533237698749,0.0020006079219589,0.0023971459772814,0.0021555698706346,-0.00045846328685711,0.00045730998796744,-2.517450947868e-06,-1.0745349852527e-06,-2.8498757291774e-07,-2.2661384639621e-07,-0.00032839104910897,0.00032358700288915,-0.000476063409522,0.0004748617788564,-0.00047536105523179,0.00047852615224403,-0.00033075532865184,0.00032326978101063,-0.00032844725416405,0.00032353769254258,-0.00047611625385149,0.00047480310057675,-0.00047541853262715,0.00047847208340752,-0.00050696374121013,0.00050562342807807,-0.00050627673733413,0.0005072542259789,-0.0005069452002374,0.00050564468695623,-0.0005062560705128,0.00050727336974505,-0.00045171190497844,0.0004469150005128,-0.0004496194605758,0.00044581271285938,-0.00045172848281341,0.00044689409255906,-0.00044964009642937,0.00044579585361659,-0.00033070674024047,0.00032332669403098,1.3749114215866e-08,-4.0175326232052e-08,-1.2388337841268e-07,9.8220766995108e-08,-0.00060457057025351,0.0006045448658313,-0.0005875900975465,0.00058779948380966,-0.0005865537606426,0.00058650474849291,-0.00058601691398912,0.000585862653681,-0.0006191028620213,0.00061901844654667,-0.00061918558367514,0.00061925758319734,-0.00061903140306791,0.00061890852982891,-0.00061945790687469,0.0006194914556206,-0.0005879065250582,0.00058764601674888,-0.00059014695617609,0.00059031928825827,-0.00058654021738483,0.0005866419071115,-0.00058454972604577,0.00058454613243155,-0.00058731582325449,0.00058709222572317,7.9742098611912e-07,2.9128111675113e-06,-0.00051157088927263,0.00051179911474574,2.803638301791e-07,4.7195488877741e-08,-0.00052058637094863,0.00052184044612978,-0.00052681476483948,0.00051966705985628,-0.00052759447484401,0.00052708889746854,-0.00052405987585045,0.00053962834254486,-0.00052037315311103,0.00052205701821658,-0.00052659040523446,0.0005198897025616,-0.00052737175989854,0.0005273132546991,-0.00053625592312362,0.00053655988546891,-0.00053633497493988,0.0005364800992494,-0.00053616478467317,0.00053526967829985,-0.00053624460879567,0.00053519067283656,-0.00052142237633743,0.00052719689732363,-0.00051957153796841,0.00052107608299397,-0.00051949657772053,0.00052115275209271,-0.00052134578704096,0.00052727191768209,-0.00052427630853224,0.00053941494280834,0.73021614767059,122718,2924,0.001906164699653,0.0025157460346682,0.0021297491635177,17.480318631716,5.5042549053731e-05,5.5042549053731e-05,5.5042549053731e-05,3427109.3937054,0.006573205865694
20391759,0.44751500916435,0.0077240507239461,0.0023142745649782,0.0028830236071553,0.0025267525518126,-0.00052783161152047,0.00052610856621818,-3.66527087404e-06,-1.5456484540186e-06,-3.9554296832867e-07,-3.08290172242e-07,-0.00034978264320276,0.00034298066449892,-0.00055285938301402,0.00055110101738997,-0.00055179111141956,0.00055624052298582,-0.00035336549118156,0.00034261291161225,-0.00034986537908543,0.00034290651635332,-0.00055293850415081,0.00055101398506661,-0.00055187634278352,0.00055615955728377,-0.00059177994302474,0.00058974845964496,-0.00059076682253545,0.00059202109982665,-0.00059175210454862,0.00058978000147258,-0.00059073615649424,0.00059204982518071,-0.00051858816476807,0.0005115780544606,-0.00051551619420123,0.00050996547899435,-0.00051861325804912,0.00051154724849794,-0.00051554660340445,0.0005099399664797,-0.00035329236558069,0.00034269661205665,2.1053821326549e-08,-5.9318170827775e-08,-1.7176269751417e-07,1.346558764012e-07,-0.00072847514203488,0.00072843796109248,-0.00070922421812451,0.00070951331995057,-0.0007064756663118,0.00070641202499273,-0.00070562930572866,0.00070540893193002,-0.00074336969610967,0.00074325412443808,-0.00074349816722967,0.00074359749341534,-0.00074327424196221,0.0007431013167909,-0.00074389011645303,0.0007439321450368,-0.00070969097246239,0.00070932797624832,-0.0007132343775164,0.00071346817178085,-0.00070648143805199,0.00070662570468103,-0.00070353130776537,0.00070351876009609,-0.00070881311162566,0.00070850518629552,1.1875515812658e-06,4.0899479971357e-06,-0.00059630524029093,0.00059660120717246,3.8202775872509e-07,5.9789325763727e-08,-0.00061004250250003,0.00061195840928121,-0.000616798257059,0.00060647715677463,-0.00061784350734876,0.00061715417772875,-0.00061530576691479,0.00063784027662847,-0.00060974866520639,0.00061225721122674,-0.00061648872761865,0.00060678417155703,-0.0006175364135488,0.00061746372520026,-0.00062846509068759,0.00062891209723764,-0.00062857418152861,0.00062880190650714,-0.00062844087667125,0.00062710189564349,-0.00062855112320447,0.00062699288654826,-0.0006148165925233,0.00062305675267995,-0.0006118718457734,0.00061410112362427,-0.00061176850087999,0.00061420702618175,-0.00061471079640011,0.0006231601779166,-0.00061560440665956,0.00063754618741641,0.76377140340812,122718,2924,0.0021935266268613,0.0030304975786373,0.0024821448730572,18.600448306804,6.4003586454435e-05,6.4003586454435e-05,6.4003586454435e-05,3592417.7791457,0.0077359924285998
21391759,0.49764006491139,0.0085463023272941,0.0025329024910122,0.0032327538127735,0.0027806460235084,-0.00056760772370967,0.00056541792083366,-4.5829735813529e-06,-1.9205380382879e-06,-5.0001640629717e-07,-3.7632532179457e-07,-0.00035771514231422,0.00034933358454851,-0.00059758649344107,0.00059538605894043,-0.00059621582887334,0.0006016759495566,-0.00036231725902938,0.00034905922264154,-0.00035783246459382,0.00034922621073748,-0.00059769966602307,0.00059526283614502,-0.00059633650601298,0.00060156014579343,-0.0006435177801448,0.0006408969323438,-0.00064224135195687,0.00064370258456433,-0.00064347826380124,0.00064094113474921,-0.00064219843876907,0.00064374340723872,-0.00055476238448766,0.00054596666596446,-0.00055089895265219,0.00054398363170669,-0.00055479864575264,0.00054592349722427,-0.0005509415692661,0.00054394678696619,-0.00036221129357343,0.00034917786368167,3.0566658900435e-08,-8.4154643379602e-08,-2.3553458206687e-07,1.8363080908701e-07,-0.00080989183988605,0.00080983981750985,-0.00078694444977391,0.00078734040010468,-0.00078234337557079,0.00078226015561383,-0.00078122771490448,0.00078092048313465,-0.00082808502105639,0.00082792786480797,-0.0008282300013063,0.00082836509236305,-0.00082796199442889,0.0008277239243984,-0.00082872071695802,0.00082877500908137,-0.00078754681936392,0.00078704750736618,-0.000791863635727,0.00079218095000014,-0.00078234739220519,0.00078254806766306,-0.0007786837594843,0.0007786602861683,-0.00078647206247916,0.0007860511018903,1.4984377652964e-06,5.0059889435542e-06,-0.00064562303259533,0.00064596279992619,4.7869631097358e-07,3.958579475379e-08,-0.00066025961576016,0.00066265691712574,-0.00066976270603764,0.00065709516477468,-0.00067100641893486,0.00067010389101648,-0.00066677338276489,0.00069445328067843,-0.00065985662791146,0.00066306637635464,-0.00066934023225111,0.00065751443648073,-0.00067058709211027,0.00067052644468652,-0.00068467360089631,0.0006852326011258,-0.00068482188955142,0.00068508290718724,-0.00068468956780533,0.00068299819281219,-0.00068483932484806,0.00068284999406539,-0.00066877709011727,0.00067900774371584,-0.00066498529789298,0.00066777683189032,-0.00066484409010945,0.0006679213442247,-0.0006686327332936,0.00067914906729646,-0.00066718259221986,0.00069404990623781,0.6908403174145,122718,2924,0.0023580018656378,0.0033685606605117,0.0026872072646559,15.320932971104,3.7767463768829e-05,3.7767463768829e-05,3.7767463768829e-05,3770173.7501166,0.008449338260263
22391759,0.54493117294325,0.0093202997345628,0.0027377538868542,0.0035650445345814,0.0030175013131273,-0.00061136343644405,0.00060873582341104,-5.399943779345e-06,-2.2637988935976e-06,-6.0002951858727e-07,-4.434520814167e-07,-0.00037672355227331,0.00036711436277358,-0.00064730205527189,0.00064467278847002,-0.0006456613410115,0.00065192127441607,-0.00038222837878589,0.00036680248587785,-0.00037687242720486,0.0003669766540422,-0.00064744608020612,0.00064451672208173,-0.0006458141055281,0.00065177382682159,-0.00069678627065132,0.00069360809229429,-0.00069527849953192,0.00069691610067678,-0.00069673623981059,0.00069366372219546,-0.00069522453905265,0.00069696782267409,-0.00059503439662233,0.00058462078579839,-0.000590477269924,0.00058230770142161,-0.00059508075170749,0.00058456641152296,-0.00059053093991137,0.00058226060747754,-0.00038209247837361,0.00036695305907877,3.7562720290209e-08,-1.0827316019068e-07,-3.0473194087088e-07,2.3620726798022e-07,-0.00089108637697207,0.00089101769257635,-0.00086441275128285,0.00086492158879173,-0.00085705623146378,0.00085694552963438,-0.00085569160279423,0.00085529590517721,-0.00091357347836765,0.00091336887009615,-0.00091372570088948,0.00091389625513072,-0.00091341700115162,0.00091311046573813,-0.00091431223908233,0.00091438102854766,-0.00086515514041843,0.00086450986297355,-0.00087021081530913,0.0008706199465943,-0.00085705016718078,0.00085730517386512,-0.00085283846730185,0.0008528082871358,-0.00086392238907802,0.00086337642922273,1.7635659427378e-06,5.8265684938435e-06,-0.00069745112561236,0.00069781587259974,5.659626135325e-07,1.181510717688e-09,-0.00071412927511486,0.00071691118106637,-0.00072608677002562,0.00071129799057291,-0.00072753382117708,0.00072640605555607,-0.00072157217427789,0.0007536406130783,-0.00071360785944894,0.00071744028681868,-0.00072554251525527,0.00071183849680438,-0.00072699325448769,0.00072695044967567,-0.00074203887822881,0.00074269283511568,-0.00074222934248126,0.00074250074723099,-0.00074206065524579,0.00074006032871205,-0.00074225283411599,0.0007398699887936,-0.00072436281393055,0.00073644621881039,-0.00071988955797916,0.00072315132120828,-0.00071970745826407,0.00072333731176136,-0.00072417701947219,0.0007366284609465,-0.00072210094192072,0.00075311866834128,0.69163756941875,122718,2924,0.0025390417506657,0.0037055843645575,0.0029026186480479,14.812362210697,3.3698897685576e-05,3.3698897685576e-05,3.3698897685576e-05,3974242.8794501,0.0091892975527651
23391759,0.59315540489899,0.010074090713127,0.0029354699068713,0.003892687357078,0.0032459334491776,-0.00065432761270837,0.00065117347314247,-6.3836664717171e-06,-2.7008571337327e-06,-7.1824947643599e-07,-5.2225332442685e-07,-0.00038868925064997,0.00037733701847414,-0.00069568153858935,0.00069255803940915,-0.00069371536939125,0.00070101194973591,-0.00039528431486581,0.00037719652453351,-0.00038887522143929,0.00037716303906093,-0.00069586255311656,0.00069236297573386,-0.00069390628751622,0.00070082665235437,-0.00075131326556347,0.00074747726122443,-0.0007495299018669,0.00075135755757184,-0.00075125049867981,0.00074754657806465,-0.00074946267746881,0.00075142244693784,-0.00063429434361179,0.0006219507527761,-0.00062891577562172,0.00061923507810427,-0.00063435291249482,0.00062188307544551,-0.00062898258026147,0.00061917559960955,-0.0003951125362836,0.00037738456573871,4.6545222523593e-08,-1.3642138679938e-07,-3.8159424693616e-07,2.9446662152225e-07,-0.00097518750126601,0.00097510016967462,-0.00094415556868161,0.00094479036185856,-0.00093517475218785,0.00093503589752491,-0.00093352463686565,0.0009330281591648,-0.0010017172159197,0.001001460966426,-0.0010018788801443,0.001002089693525,-0.0010015285879112,0.0010011448799847,-0.0010025585475328,0.0010026420953381,-0.00094506431294089,0.0009442560308358,-0.00095090654005776,0.00095141641039369,-0.00093516496233855,0.00093548256058692,-0.00093020138942756,0.00093016116486941,-0.00094363231112826,0.00094294847013129,2.0847620635379e-06,6.769604070328e-06,-0.00074826767792974,0.0007486897665804,6.7301971913453e-07,-3.0937686566206e-08,-0.00076608529459019,0.00076934917274541,-0.00078124075297024,0.00076399560150467,-0.00078289121628862,0.00078152175292345,-0.0007748126907411,0.00081226649473565,-0.00076543263931709,0.00077001104405241,-0.00078056159988954,0.00076467028889198,-0.0007822164275103,0.00078220104936779,-0.00079972653587516,0.00080050016489132,-0.00079996369254362,0.00080026110237021,-0.000799789123489,0.00079743446426229,-0.00080002831956271,0.00079719747828092,-0.00077969489728444,0.0007938631000068,-0.00077431866718067,0.00077815194465874,-0.00077409124759727,0.00077838401310558,-0.0007794630574106,0.00079409067437337,-0.00077547416919536,0.00081161320401816,0.66282300645257,122718,2924,0.0027166036834464,0.004054533987439,0.003113855109699,15.632920702718,4.026336562174e-05,4.026336562174e-05,4.026336562174e-05,4078258.0979251,0.0099341229517927
24391759,0.64584555619535,0.01093435376717,0.0031609157560411,0.0042687328734948,0.0035047051376344,-0.00070608805020928,0.00070231063311557,-7.5354629693925e-06,-3.2158020359715e-06,-8.5149701721834e-07,-6.1146627216139e-07,-0.00040675543352808,0.00039338899205258,-0.00075474244682543,0.00075103354038519,-0.00075238997309304,0.00076086640748375,-0.00041463863300813,0.0003934637842683,-0.00040698255578858,0.00039317498939069,-0.00075496459685953,0.0007507949603144,-0.00075262347666249,0.00076063902311651,-0.00081532071456099,0.00081070569618443,-0.00081321550956125,0.00081525136441193,-0.00081524370756543,0.00081079037480762,-0.00081313338025331,0.00081533095909413,-0.0006822482120947,0.00066763492658673,-0.00067591167753807,0.00066441871560615,-0.00068232029521943,0.00066755238854633,-0.00067599316042071,0.00066434554749776,-0.00041442723558801,0.00039369337563989,5.5905058252581e-08,-1.6815495006164e-07,-4.6240375498537e-07,3.5353717342924e-07,-0.0010739064065814,0.0010737972907695,-0.0010383621137958,0.0010391256760879,-0.0010270593249383,0.0010268912678154,-0.0010250633360307,0.0010244573453773,-0.0011046048020546,0.0011042933654583,-0.0011047826370004,0.0011050339554109,-0.0011043736377446,0.0011039063047683,-0.0011055711195122,0.0011056667786954,-0.0010394506214596,0.0010384702724447,-0.0010462802451974,0.0010468909227474,-0.0010270528674375,0.0010274353607126,-0.0010212125596378,0.0010211569108468,-0.0010377909738503,0.0010369629124793,2.4625811491297e-06,7.8851749085467e-06,-0.00080809530119784,0.00080859013294262,7.9122406413614e-07,-5.7665513684317e-08,-0.0008283181926719,0.00083217034813659,-0.00084704478287666,0.00082692560605617,-0.00084894171123273,0.00084731173495888,-0.00083852597965824,0.00088226023555322,-0.00082752999590621,0.00083296966819826,-0.00084622545999317,0.00082773956212204,-0.00084812759617314,0.00084813119407186,-0.00086675180207523,0.0008676649307761,-0.00086703766420434,0.0008673768136708,-0.00086685713773471,0.00086408453634364,-0.00086714544527579,0.00086379891167512,-0.00084521804162779,0.00086189636650262,-0.00083879173719162,0.00084330136356832,-0.00083851734387854,0.0008435813474018,-0.00084493831701473,0.00086217091991344,-0.0008393248444281,0.00088147127285501,0.69344629843763,122718,2924,0.0029305033429635,0.004463970605766,0.0033625067855322,17.852684187815,5.8021473502522e-05,5.8021473502522e-05,5.8021473502522e-05,4190437.100958,0.010815183967011
25391759,0.70042233637564,0.011912169306355,0.0034162277401078,0.0046998707291506,0.0037960708370966,-0.00076184729035803,0.0007572505733351,-9.0829548580872e-06,-3.92056578233e-06,-1.0121237572421e-06,-7.085722597566e-07,-0.0004173996097542,0.00040108023798455,-0.00081900977556152,0.00081456768303762,-0.00081612791911665,0.00082631770132004,-0.00042706185002838,0.00040164867373194,-0.00041768511811126,0.0004008087813862,-0.00081929124402413,0.00081426686293877,-0.00081642244343894,0.00082602974531014,-0.00088648301405315,0.00088085201378042,-0.00088394224217106,0.00088621148115811,-0.00088638535409699,0.00088095877078661,-0.00088383868304673,0.00088631239176564,-0.00073447661606902,0.0007168427282104,-0.00072684996564078,0.000712892306156,-0.00073456834618766,0.00071673902595188,-0.00072695238366647,0.00071279926987449,-0.00042679342512648,0.00040193706465212,7.1608730506878e-08,-2.1144459455322e-07,-5.5557838106618e-07,4.200074240565e-07,-0.001187630408871,0.0011874945204767,-0.0011478691590054,0.001148781850932,-0.0011349072805143,0.0011347155900316,-0.0011324469785023,0.0011317021451276,-0.0012206263644224,0.0012202543926352,-0.0012208340515337,0.0012211342124896,-0.0012203471075615,0.0012197779335445,-0.0012217335562535,0.0012218368371443,-0.0011491879566024,0.0011480053342208,-0.0011573386107424,0.0011580581441641,-0.0011349225164816,0.001135388929315,-0.0011277563015359,0.0011276693525875,-0.001147198119924,0.0011462078868918,2.9864116796654e-06,9.3493311502057e-06,-0.00087199833828977,0.00087262485275066,9.4855831232285e-07,-6.6241864587713e-08,-0.00089503373670043,0.00089974491550273,-0.00091824055040066,0.00089429700472907,-0.00092041532082746,0.000918492526255,-0.00090751509021971,0.00095991104760957,-0.00089409151446118,0.00090070112399401,-0.00091726109633057,0.00089526976640247,-0.00091944236704558,0.00091947215203212,-0.00093960040994279,0.00094071202320189,-0.00093994195526866,0.00094036765519818,-0.00093982145484147,0.00093649335032669,-0.00094016607716457,0.00093615211454,-0.00091790523883989,0.00093787034937579,-0.00090992028543429,0.00091537396014188,-0.00090959234696892,0.00091570894701412,-0.00091757053612337,0.00093819843641902,-0.00090847081273329,0.00095896790840121,0.76207065498803,122718,2924,0.0031606258090829,0.0049353944406942,0.0036281551588322,19.835138679918,7.3881109439342e-05,7.3881109439342e-05,7.3881109439342e-05,4228969.2056539,0.011793353332638
26391759,0.75046068469096,0.012880299713607,0.0036699918508533,0.0051301850554665,0.0040801228072871,-0.00081246873660264,0.00080695625466241,-1.0862379283884e-05,-4.7283609535131e-06,-1.1878691023039e-06,-7.9888547418073e-07,-0.0004190560894141,0.00039915182593474,-0.00087783210683817,0.00087259637008263,-0.00087432455398647,0.00088665871498159,-0.00043083905142982,0.0004005016741853,-0.00041942028839701,0.00039880230766647,-0.00087819378984633,0.00087221196416654,-0.00087470110722515,0.00088628893817046,-0.00095381401194164,0.00094704678668588,-0.00095076599059174,0.00095329521133056,-0.00095368858671795,0.00094718302773225,-0.00095063385165385,0.00095342481650658,-0.00078184904281833,0.00076076297574734,-0.0007727228002697,0.00075592634327633,-0.00078196749622609,0.00076063099258998,-0.00077285322094499,0.00075580631343207,-0.00043049306675333,0.00040086924613622,9.4761919229827e-08,-2.6805748983895e-07,-6.6405799153807e-07,4.9622455165033e-07,-0.0012999589423001,0.0012997906902617,-0.0012558995112892,0.0012569872029878,-0.0012424238520098,0.0012422147358751,-0.0012394106378789,0.0012384923543195,-0.001334166409087,0.0013337269562095,-0.0013344040839585,0.0013347632888936,-0.0013338452605312,0.0013331530540045,-0.0013354014116166,0.0013355082211749,-0.0012574750975121,0.0012560532388903,-0.0012670380570189,0.0012678782995927,-0.0012424701940209,0.0012430435441959,-0.0012336071375202,0.0012334711192668,-0.001255106843764,0.0012539315420511,3.6060888027016e-06,1.1006362927216e-05,-0.00092849251538653,0.00092929219347161,1.1381587021134e-06,-6.8263572654625e-08,-0.000953210886272,0.00095894830220718,-0.00098237216386707,0.00095411287268288,-0.0009848195937708,0.00098257788165521,-0.00096845708803637,0.0010307618472245,-0.00095209043257906,0.00096008617222394,-0.00098120762793616,0.00095526912808801,-0.0009836631326109,0.00098374265468134,-0.0010063425246687,0.001007692867409,-0.00100674826101,0.0010072836164584,-0.0010067339278474,0.0010027605482839,-0.001007143494275,0.0010023551964225,-0.00098422498630009,0.0010079406747142,-0.00097435885342316,0.0009809264994188,-0.00097396899991827,0.0009813251744378,-0.00098382661914804,0.0010083306547986,-0.00096959439775263,0.0010296403355246,0.82335182229769,122718,2924,0.0033692075472921,0.0054007589156187,0.0038630877847962,20.411878245013,7.8495025960102e-05,7.8495025960102e-05,7.8495025960102e-05,4209443.5738676,0.012713424779366
27391759,0.79833068089832,0.013717168724936,0.003892335979544,0.0055038920936031,0.0043209406517893,-0.00085671778998591,0.00085033443844882,-1.2612786431047e-05,-5.505002588176e-06,-1.3830892963013e-06,-8.9685083762242e-07,-0.00041929798046329,0.00039576268966782,-0.00092821253100609,0.00092222875122528,-0.00092407524202577,0.00093869235254463,-0.00043322319306636,0.00039804422387883,-0.00041975305095991,0.00039532296490042,-0.00092866634716225,0.00092174878568328,-0.00092454569316074,0.00093822873433255,-0.0010146170782472,0.0010067288710962,-0.0010110659647265,0.0010139248122532,-0.0010144601265455,0.0010068985286689,-0.0010109014934221,0.001014087054392,-0.00082167487926276,0.00079720354820062,-0.00081106520068996,0.00079159945270444,-0.00082182400005923,0.0007970392856163,-0.00081122760485263,0.00079144846645251,-0.00043278753439597,0.00039850312496754,1.2106526818781e-07,-3.3333402481303e-07,-7.8715050636341e-07,5.8169293143829e-07,-0.0014019015616578,0.0014016955828457,-0.0013511041034587,0.0013523886684342,-0.0013387600035717,0.0013385318403231,-0.0013351869380806,0.0013340701244995,-0.0014399449664121,0.0014394283555996,-0.0014401970725995,0.0014406218145967,-0.0014395949860577,0.0014387626076802,-0.0014412995399305,0.0014414089242954,-0.0013529057726416,0.001351212138287,-0.0013635117833693,0.0013644869335421,-0.0013388315202503,0.0013395259345544,-0.0013282325053552,0.0013280381282433,-0.001350211004183,0.0013488257813925,4.2209488179506e-06,1.2634647136529e-05,-0.0009749914549726,0.00097596335222938,1.3421850616853e-06,-7.9948209000858e-08,-0.0009984596748228,0.0010051836079481,-0.0010357282725243,0.0010034060317096,-0.0010384289795256,0.0010358403453898,-0.001016350282922,0.0010880369514365,-0.00099713715080119,0.0010065268357616,-0.0010343548913721,0.0010047697127645,-0.0010370651381613,0.0010372140268177,-0.0010643159106557,0.001065908316415,-0.0010647939479869,0.0010654261325894,-0.0010648419521572,0.0010602260530985,-0.0010653245170232,0.0010597484679074,-0.0010377204595563,0.001065056582338,-0.0010261020873804,0.0010337644703834,-0.0010256422003689,0.0010342348700711,-0.0010372504032822,0.0010655165822185,-0.0010176928873243,0.0010867132317054,0.74366212196709,122718,2924,0.0035513878162964,0.0058228604264055,0.004056504639273,22.21399812128,9.2911984970238e-05,9.2911984970238e-05,9.2911984970238e-05,4133569.9718229,0.013521644368123
28391759,0.84088273509162,0.014563862268079,0.0041204599128799,0.0058790469744116,0.0045643553807871,-0.00090341436349395,0.0008962302576918,-1.4159895973423e-05,-6.2041249816028e-06,-1.5594379728142e-06,-9.6826460614026e-07,-0.00043320730288711,0.00040692040251169,-0.00098372858118893,0.00097709583485449,-0.00097903671096024,0.00099553087283923,-0.00044902794767158,0.00040970409339197,-0.0004337616338907,0.00040638190895899,-0.00098428240646049,0.00097651235876379,-0.00097960874527661,0.00099496526036412,-0.0010735167053126,0.0010645704301009,-0.0010695274915613,0.001072628675552,-0.0010733257578727,0.0010647759779387,-0.0010693283202981,0.001072826132017,-0.00086476890377218,0.00083725174914141,-0.00085286070794818,0.00083090302993261,-0.00086495138971574,0.00083705265589555,-0.00085305760492503,0.00083071835578515,-0.00044849428590395,0.00041026293208724,1.4673102375818e-07,-4.0722581863812e-07,-9.273279138476e-07,6.7515449361319e-07,-0.0015006119173885,0.0015003591054205,-0.0014440964633524,0.0014455963049905,-0.0014312810552162,0.0014310243458833,-0.0014271573567793,0.0014258165862106,-0.0015425548493346,0.001541946476063,-0.0015428010355245,0.001543292381824,-0.0015421604981087,0.001541168868824,-0.001543994639902,0.0015441031423504,-0.0014461596757305,0.0014441577403887,-0.0014577605459996,0.0014588838407831,-0.0014313501220618,0.0014321724513899,-0.0014193049396324,0.001419043153994,-0.0014431892659848,0.0014415626984559,4.7472731925333e-06,1.410415122811e-05,-0.0010234877910985,0.0010246093494687,1.5374843928685e-06,-1.2485795316662e-07,-0.0010507653371095,0.0010582780464191,-0.0010931720632012,0.0010572354932831,-0.0010961454076117,0.0010931758443748,-0.001070637459056,0.0011502155040665,-0.0010492154038956,0.0010598518576224,-0.0010915652524233,0.0010588312994915,-0.0010945494807094,0.0010947830284485,-0.0011204559913921,0.0011222560324171,-0.0011210144386703,0.0011216929023217,-0.0011210451158734,0.0011158754997094,-0.0011216087137761,0.001115317600105,-0.0010929902963256,0.0011238211039886,-0.0010799175683898,0.0010885028314297,-0.0010793793795521,0.0010890530886025,-0.0010924404314135,0.0011243593986247,-0.001072210485517,0.0011486641264941,0.84556057744222,122718,2924,0.0037437996956155,0.0062313920724833,0.0042581163356975,23.413889518729,0.00010251111614983,0.00010251111614983,0.00010251111614983,4176816.6220053,0.014335429592571
29391759,0.87768116447766,0.015120454913106,0.0042714653627583,0.0061278913607551,0.0047210981895931,-0.00092822659259826,0.00092022840341326,-1.5910498953572e-05,-6.9594805041916e-06,-1.7888849821918e-06,-1.0828252793968e-06,-0.00041533798079785,0.00038485794700972,-0.0010109768080461,0.0010035949504109,-0.0010056356911294,0.0010247380237015,-0.00043338936841076,0.00038904977265736,-0.00041600060123569,0.00038421061244226,-0.0010116407539769,0.0010028988781511,-0.001006318726903,0.0010240606488191,-0.0011144360815957,0.0011044202070517,-0.001109928210229,0.0011135068817184,-0.0011142077739785,0.0011046648638922,-0.001109691157824,0.0011137429516066,-0.00088571516947623,0.00085487516075296,-0.00087230040487597,0.00084793988823683,-0.00088593463633351,0.0008546380110525,-0.00087253507500499,0.00084771796423685,-0.00043274707120442,0.00038971711932621,1.8145998969664e-07,-4.8225550762719e-07,-1.0733293443584e-06,7.8228694857447e-07,-0.0015738077123078,0.0015735159287294,-0.0015100890688067,0.0015118342672408,-0.0015016901616271,0.0015014165122657,-0.0014971240312856,0.0014955509604389,-0.0016189525905437,0.0016182573171805,-0.0016191886707734,0.001619764770998,-0.0016185723000346,0.0016174187707792,-0.0016204777456815,0.0016205960303548,-0.0015124179179894,0.0015100932292936,-0.0015247233355081,0.0015260180915452,-0.001501782940833,0.0015027576382748,-0.0014878963129837,0.0014875716125343,-0.0015091210604459,0.0015072455236615,5.3915673597009e-06,1.5643617241992e-05,-0.0010447527757402,0.0010460702710464,1.7763272788086e-06,-1.4478205036451e-07,-0.0010661898925927,0.0010747057535633,-0.001119122697397,0.0010792241731413,-0.0011222733055368,0.0011189643241699,-0.0010889909477287,0.0011781152198246,-0.001064393365799,0.0010765284883513,-0.0011172644042064,0.0010810704926308,-0.0011204269501329,0.0011208230508302,-0.0011545547154963,0.001156651114184,-0.0011551997741301,0.0011560008614826,-0.001155302492397,0.001149518332099,-0.0011559532666577,0.0011488738700209,-0.0011197405792776,0.0011536312197255,-0.0011048899637025,0.0011146028119239,-0.0011042668509864,0.0011152393778915,-0.0011191044414256,0.0011542544159185,-0.001090812925221,0.0011763173380259,0.64299206939106,122718,2924,0.0038453860809051,0.0065341199433349,0.0043468639996062,24.735204791423,0.00011308163833138,0.00011308163833138,0.00011308163833138,3945927.8984156,0.014835748454097
30391759,0.908444580733,0.015524267665402,0.0043838503631808,0.0063057690785755,0.0048346482236458,-0.00095079693710402,0.0009424719519582,-1.6502596648898e-05,-7.1953601222954e-06,-1.9196639260773e-06,-1.1183889432535e-06,-0.0004346868901641,0.00040391850358478,-0.0010389168748913,0.0010312914520956,-0.0010333659564781,0.0010529907536881,-0.00045346824963887,0.00040780780276182,-0.00043544381735259,0.00040317699486708,-0.0010396736731961,0.0010305001603057,-0.0010341423710365,0.0010522186830658,-0.0011415700124116,0.0011309964164513,-0.001136905967722,0.0011405764651557,-0.0011413110118876,0.0011312732097186,-0.0011366379869619,0.0011408444446359,-0.0009034252413491,0.00087133227719643,-0.00088953257433081,0.0008642776366521,-0.00090367584198952,0.00087106318677549,-0.00088979885155994,0.00086402424792465,-0.00045273275845226,0.0004085703992755,1.9845596556318e-07,-5.5851730989633e-07,-1.2310275913446e-06,8.8211528573606e-07,-0.0016208392025447,0.0016204894848739,-0.0015493832136883,0.0015513541685023,-0.0015406911590772,0.0015403646013962,-0.0015359065041149,0.0015340967949714,-0.0016751070290565,0.0016742986937507,-0.0016752731595777,0.0016759083087917,-0.0016747049886519,0.0016733775751035,-0.0016766501979311,0.0016767667237155,-0.0015519104992422,0.0015492447343188,-0.00156399366396,0.0015654521341429,-0.0015407129850878,0.0015418060943934,-0.0015266654302064,0.0015262754799273,-0.0015486088496148,0.001546454162269,5.5521611503004e-06,1.6279919329309e-05,-0.0010674925195798,0.0010688382404097,1.925652854523e-06,-2.5619287937445e-07,-0.0010940671790214,0.0011026118485574,-0.0011483612940433,0.0011073327610346,-0.0011517158581021,0.0011480141308139,-0.0011167045575344,0.0012075465909327,-0.0010920171189844,0.0011046896549732,-0.0011462474745118,0.0011094343001239,-0.0011496143540467,0.0011501284631563,-0.0011797057455797,0.0011818712166146,-0.0011804379806853,0.0011811337473635,-0.0011802966101315,0.0011743190017554,-0.0011810346909963,0.0011735874601237,-0.0011419141534924,0.001177519444592,-0.0011268933963481,0.0011368402491627,-0.0011261841143949,0.001137563523288,-0.0011411914294514,0.0011782289104268,-0.0011187812342772,0.0012054947669099,0.55654009761524,122718,2924,0.0039384292606708,0.0067286041247476,0.0044412883975589,26.075145863565,0.00012380116690852,0.00012380116690852,0.00012380116690852,4036841.028808,0.015223445216374
31391759,0.93435111769229,0.015946689101727,0.004500230730031,0.0064912714086759,0.0049551869630205,-0.00097546798060249,0.00096657866221644,-1.7574599043363e-05,-7.7184006991852e-06,-2.0870808290505e-06,-1.1957737600026e-06,-0.00043787971995203,0.00040477289027873,-0.0010680970920171,0.0010599907464913,-0.0010621671040047,0.0010831811610112,-0.00045796526168239,0.00040935168417542,-0.00043872282832887,0.00040394420572715,-0.0010689409937258,0.0010591110123673,-0.0010630306520529,0.0010823206517905,-0.0011736615872871,0.001162356119812,-0.0011686935482234,0.0011725907024031,-0.0011733731646405,0.0011626632694447,-0.0011683960624687,0.0011728889675594,-0.00092633368015134,0.00089216112910225,-0.00091156413395599,0.00088467956643611,-0.00092661376639866,0.00089186230740832,-0.00091185993749291,0.00088439650114762,-0.00045714289547751,0.00041020075570931,2.2129082824245e-07,-6.2278378931091e-07,-1.378528568537e-06,9.8925040079901e-07,-0.0016751956284025,0.0016748054675587,-0.0015997229245827,0.0016019320867411,-0.0015927918329315,0.00159242483655,-0.0015877263334358,0.0015857050469597,-0.0017314178506482,0.0017305137422578,-0.0017315386944973,0.0017322477763883,-0.0017310075435932,0.0017295259781013,-0.0017329669757644,0.0017330990754642,-0.00160253359452,0.0015995491607172,-0.0016151262093624,0.0016167645802538,-0.0015927846049554,0.0015940067738289,-0.0015777349798977,0.001577303032227,-0.001599041905993,0.0015966267388262,5.9085827201614e-06,1.7207089536067e-05,-0.0010902878861775,0.0010917561517975,2.1089771838815e-06,-3.2990760570743e-07,-0.0011184823668837,0.0011274667451262,-0.0011765775170173,0.0011331153126743,-0.0011800763983045,0.0011760358746245,-0.0011425686772972,0.0012389948546254,-0.0011161826691181,0.0011297954109362,-0.0011742124362711,0.0011354676574285,-0.0011777241358536,0.0011784015028186,-0.0012074612633729,0.0012098012334956,-0.0012082792193233,0.0012089778355905,-0.0012080922103707,0.0012018037430814,-0.0012089162796417,0.0012009865415059,-0.0011688700669602,0.0012065013938273,-0.0011528576686786,0.0011633897347456,-0.0011520633028139,0.0011641987616023,-0.0011680616001681,0.0012072959121409,-0.0011448961778668,0.0012366933581528,0.69215549466537,122718,2924,0.0040398004631786,0.0069533185629608,0.0045361632250569,28.359036888445,0.00014207229510756,0.00014207229510756,0.00014207229510756,3966209.6011003,0.015650945233054
32391759,0.95390068199433,0.016312456344662,0.0046017099807522,0.0066512155495837,0.0050595308143262,-0.00099010146066368,0.00098044182547484,-1.934213812979e-05,-8.4423475974843e-06,-2.2951157955503e-06,-1.2912213049229e-06,-0.00040903905558164,0.0003711272435527,-0.0010839314316416,0.0010750619125042,-0.0010773166863464,0.0011012641131974,-0.00043150104280059,0.00037755174758444,-0.00040998700327527,0.00037019240071331,-0.0010848832083328,0.001074072939584,-0.0010782883013844,0.0011002944922281,-0.0012017133835373,0.0011894474518463,-0.0011961927743758,0.0012006446274133,-0.0012013880997808,0.001189792715639,-0.0011958581865111,0.0012009807880586,-0.00094112108225227,0.0009036752722462,-0.00092477003961545,0.00089555469517916,-0.00094143768435855,0.00090333949448025,-0.00092510259339636,0.00089523493769374,-0.00043057213056284,0.00037850530250368,2.6512042270863e-07,-6.8642529563446e-07,-1.5173538223129e-06,1.1095189649762e-06,-0.0017272778330425,0.0017268689849349,-0.0016502781392098,0.0016527581945562,-0.0016484066410657,0.0016480392193902,-0.0016429729327368,0.0016407403452407,-0.0017792542955195,0.0017782817016518,-0.0017793662559481,0.0017801813968119,-0.0017788943074423,0.0017772697779226,-0.0017808596987054,0.0017810233719132,-0.0016534327864483,0.0016501405753041,-0.0016669775739994,0.0016688143064453,-0.0016484408045269,0.0016498355050807,-0.0016312487345558,0.0016307785297744,-0.00164952219109,0.0016468716409755,6.6270837312229e-06,1.8653514277801e-05,-0.0010966391011127,0.0010983364302438,2.3650374543942e-06,-3.3666397550229e-07,-0.001116141366386,0.0011262939299404,-0.0011858682525495,0.0011381342648202,-0.001189442517707,0.0011851671645492,-0.0011438480711715,0.0012508478987318,-0.001113589132028,0.0011288766584369,-0.0011832474637322,0.0011407415692356,-0.0011868354501195,0.0011877886000503,-0.0012260509616308,0.0012287827582221,-0.0012269565637736,0.0012278711396079,-0.0012269798886628,0.0012200907841178,-0.0012278921675515,0.0012191859140847,-0.0011833879791414,0.0012235525041653,-0.0011652788987623,0.0011770639504962,-0.0011643978486632,0.0011779609343817,-0.0011824915454567,0.0012244336234095,-0.0011464299006651,0.0012482942272083,0.79325035118638,122718,2924,0.0040992394347541,0.0071684850207218,0.0045631346548249,29.293209960834,0.00014954567968667,0.00014954567968667,0.00014954567968667,3636739.4014025,0.015957373787443
33391759,0.9677269310565,0.016579311015888,0.0046781374157493,0.0067655559538876,0.005135617646251,-0.00099856935808698,0.00098839718985269,-2.0638057143445e-05,-8.8778057728462e-06,-2.4535036683796e-06,-1.3293934858223e-06,-0.00039115834864451,0.00035012960290664,-0.0010941582267474,0.0010847678290546,-0.0010870141886676,0.0011131930879106,-0.00041549302800254,0.00035768126149131,-0.00039222093167105,0.00034907924631205,-0.0010952259883781,0.0010836610248574,-0.0010881020415853,0.001112105845015,-0.0012193482617827,0.0012063512423121,-0.0012134111207275,0.0012183119221867,-0.0012189839721258,0.0012067370316849,-0.0012130373332985,0.0012186884310777,-0.00094879448603426,0.00090892679969839,-0.00093123257159523,0.00090043181257475,-0.00094915027768177,0.00090855126917444,-0.00093160457296574,0.00090007257654826,-0.00041444865962775,0.00035874954504058,3.0772558665791e-07,-7.5993159311426e-07,-1.6639795245621e-06,1.2268084785464e-06,-0.001763532872394,0.0017630945569075,-0.0016843084247782,0.0016870564457898,-0.0016857799598832,0.0016854083025534,-0.0016800739717616,0.0016776087879302,-0.0018142449704997,0.0018131940313313,-0.0018143266005305,0.0018152408475696,-0.0018139413346496,0.0018121595235526,-0.0018159113949571,0.0018160952142393,-0.001687763877567,0.0016841453748035,-0.0017016626610158,0.0017036893416124,-0.0016858224717379,0.0016873888682137,-0.0016671722216821,0.0016666454304692,-0.0016835707223105,0.0016806717696373,7.1777842499906e-06,1.9784617840109e-05,-0.0010971401757932,0.0010989850967327,2.5940161633089e-06,-3.7497122463266e-07,-0.0011109535748041,0.0011219299634623,-0.0011897825347084,0.0011388965099025,-0.0011934484860778,0.0011889245818371,-0.0011409853104977,0.0012553182686758,-0.0011081430973387,0.0011247723188044,-0.0011869009625629,0.0011417640870256,-0.0011905813375414,0.0011918069335366,-0.0012356031236052,0.0012386551381004,-0.0012365978789015,0.0012376539649996,-0.0012367043568387,0.0012293285545346,-0.0012377061939297,0.0012283345250374,-0.0011890324799455,0.0012312273342069,-0.0011694897590856,0.0011822231213904,-0.001168520430317,0.0011832094131107,-0.0011880468198138,0.0012321967555026,-0.0011438267856224,0.0012525064763456,0.81381076464073,122718,2924,0.0041335171736469,0.0073181844698264,0.0045656535540579,29.275810956215,0.00014940648764972,0.00014940648764972,0.00014940648764972,3413009.1034688,0.016146920961382
34391759,0.97833117677342,0.016763451766237,0.0047319314014605,0.0068434635920891,0.0051880567726874,-0.0010085273160227,0.00099803111685812,-2.1432407102001e-05,-9.1444124650909e-06,-2.5832303710322e-06,-1.3551702827902e-06,-0.0003890132918185,0.00034634038496136,-0.0011060957797822,0.0010963899851687,-0.0010986285303202,0.0011260857824844,-0.00041450261474168,0.00035442246101206,-0.00039017678238498,0.00034518844503008,-0.0011072645659988,0.0010951805924369,-0.0010998174426863,0.0011248959671764,-0.0012344331721042,0.0012209273861632,-0.001228249251526,0.0012334243290252,-0.0012340352920821,0.0012213480925658,-0.0012278418127348,0.0012338357033256,-0.00095711730565258,0.00091573478211661,-0.00093883325315907,0.00090707461660285,-0.00095750722373334,0.00091532474642716,-0.00093923947046205,0.00090668096997671,-0.00041335696355592,0.00035559197641587,3.3980267237464e-07,-8.2917922549204e-07,-1.8037183367891e-06,1.33079036815e-06,-0.0017915605723375,0.0017910864020522,-0.0017092091293713,0.0017121941266606,-0.0017129542304469,0.0017125644645504,-0.0017071000032077,0.0017044171381052,-0.0018437588026557,0.0018426247793518,-0.0018437906198316,0.001844784752262,-0.0018434931671939,0.0018415605632579,-0.0018454565628923,0.0018456525343818,-0.0017128983902213,0.0017089717443959,-0.0017267396925981,0.0017289356137155,-0.0017129716936703,0.001714682109974,-0.0016936360656381,0.0016930537926854,-0.00170857653652,0.0017054370710304,7.4922210542398e-06,2.051379726728e-05,-0.0011015296896887,0.0011034517356402,2.7703856238797e-06,-4.4456437957001e-07,-0.00111421726896,0.0011255611367156,-0.0011976913625281,0.0011449554256384,-0.0012014503023087,0.0011966528115471,-0.0011452667893803,0.0012636287726694,-0.0011111673663341,0.0011286439445622,-0.0011945691174064,0.0011480634322362,-0.0011983428833121,0.0011997759548444,-0.0012448105981303,0.0012480522279178,-0.0012458873588764,0.0012469688538856,-0.0012459426278092,0.0012382760118641,-0.0012470266883201,0.00123719999365,-0.0011957309014557,0.0012393368294323,-0.0011754784531124,0.0011887259327767,-0.001174427664114,0.0011897943294172,-0.0011946632431983,0.0012403877838447,-0.0011483485880776,0.0012605775042037,0.7296115327816,122718,2924,0.004174261269333,0.0074339118180189,0.0045841056019954,31.392765796228,0.00016634212636982,0.00016634212636982,0.00016634212636982,3284812.6508903,0.01632471359912
35391759,0.98675557438973,0.016895228638768,0.0047708065348016,0.0068987707708651,0.0052256513331018,-0.0010227089652605,0.0010120562252756,-2.170382494333e-05,-9.2851300802129e-06,-2.679250113696e-06,-1.363765314858e-06,-0.0004038165509263,0.00036094836676485,-0.0011227663743714,0.0011129883475152,-0.0011152101779939,0.0011429221331011,-0.00042966144026732,0.00036896030423435,-0.00040506671138559,0.00035970889421209,-0.0011240209318588,0.0011116920418657,-0.0011164845052846,0.0011416450613765,-0.0012496871263883,0.0012359094063407,-0.0012434428750568,0.001248668745129,-0.001249261044748,0.001236359276712,-0.0012430074059122,0.0012491094564172,-0.00096925302828915,0.00092729822856303,-0.00095077854114994,0.00091858340295947,-0.00096967205834309,0.00092685911053417,-0.00095121356837319,0.0009181603690814,-0.00042842886431842,0.00037021710690267,3.5957408816937e-07,-8.9591400570437e-07,-1.9472342377127e-06,1.4285592904063e-06,-0.0018145961098604,0.0018140761292649,-0.0017286975764859,0.0017319024613167,-0.0017333542074108,0.0017329229260393,-0.0017274604512333,0.0017245654795988,-0.0018703604581475,0.0018691294635248,-0.0018703167656109,0.001871373428299,-0.0018701043160607,0.0018680183923204,-0.0018720387028754,0.0018722408358451,-0.001732589283386,0.0017283515914283,-0.0017460972807408,0.0017484556010333,-0.0017332997694441,0.0017351287663788,-0.001714002468241,0.0017133682536108,-0.0017282766838233,0.0017248835745002,7.5445778205751e-06,2.082438061602e-05,-0.0011140760642084,0.0011160095377026,2.8961296697178e-06,-5.6043502646988e-07,-0.0011309107348138,0.0011421005430851,-0.0012139339898093,0.0011606407239974,-0.0012177894500467,0.001212661222245,-0.0011616917420626,0.001280873630974,-0.0011276229320194,0.0011454219462089,-0.0012105743496004,0.0011639861167008,-0.0012144447526121,0.0012160218574346,-0.0012573531544297,0.0012606415818174,-0.0012585103139692,0.0012594778227233,-0.0012583782674952,0.001250657884835,-0.0012595427571784,0.0012495015128768,-0.0012083590028654,0.0012527612592527,-0.0011880955775559,0.001201371619711,-0.0011869643858953,0.0012025206696198,-0.0012072108158398,0.0012538927292788,-0.0011650118506677,0.0012775842005131,0.65593630488581,122718,2924,0.0042327784987168,0.0075290578051522,0.0046361843122226,35.839104750937,0.00020191283800749,0.00020191283800749,0.00020191283800749,3269305.5600999,0.016533837361723
36391759,0.99221934984921,0.016984763314944,0.0047971949768464,0.0069362311282337,0.005251337209864,-0.001030286208288,0.0010195164521526,-2.1880295667177e-05,-9.401362049481e-06,-2.7535872987622e-06,-1.371379660535e-06,-0.00041059180576622,0.00036747007820945,-0.0011318580304746,0.0011220312378485,-0.0011242525410045,0.0011521320671512,-0.00043664305754253,0.00037550107205722,-0.00041190814680634,0.00036616329200869,-0.001133178290328,0.0011206688802212,-0.0011255919024469,0.0011507882905176,-0.0012578453131047,0.0012438889756476,-0.0012515619030413,0.0012568137528629,-0.0012573975759586,0.0012443609132074,-0.0012511051067473,0.0012572768575794,-0.00097595162054176,0.00093364060820826,-0.00095736589513957,0.00092488350147112,-0.00097639314603085,0.0009331794409281,-0.00095782279248357,0.00092443779008137,-0.00043534354975323,0.00037682445046052,3.7559536427124e-07,-9.4636582577358e-07,-2.0728140767681e-06,1.5205051333494e-06,-0.0018275155849197,0.0018269619222941,-0.001739666392676,0.0017430733239115,-0.0017449946154934,0.001744522552073,-0.0017391071345162,0.0017360402494968,-0.0018849996021871,0.0018836853849899,-0.0018848848949236,0.0018860009457517,-0.0018847497110818,0.0018825375442021,-0.001886634490022,0.0018868529734386,-0.0017437702550066,0.0017392634554573,-0.0017571103256709,0.0017596265961905,-0.0017448705653151,0.0017468029096192,-0.0017255849327727,0.0017249229979056,-0.0017394486920512,0.0017358305013799,7.5687962227117e-06,2.0980688895877e-05,-0.0011210626838872,0.0011230026970889,3.0019861230604e-06,-6.7113722737057e-07,-0.0011404056186575,0.0011514181925978,-0.0012230385114051,0.0011693122129057,-0.0012269441698515,0.0012215416044489,-0.0011710476299465,0.0012909547002062,-0.001136903102133,0.0011549544029005,-0.0012194658162648,0.0011728707962794,-0.0012233863814995,0.0012251153867893,-0.00126407871296,0.0012674091160031,-0.0012653077404602,0.0012661735370938,-0.001265046876641,0.0012573311488789,-0.0012662832002966,0.0012561029252241,-0.0012156209014154,0.001260395612852,-0.0011953223022854,0.0012085734654662,-0.0011941187495725,0.0012097948771267,-0.0012144004262633,0.0012615995107691,-0.0011745823757209,0.0012874504066419,0.68699515304475,122718,2924,0.0042639832543285,0.0075823985183819,0.0046651807613476,37.525275479687,0.00021540220383749,0.00021540220383749,0.00021540220383749,3271727.6550443,0.016649267875797
37391759,0.99544511780754,0.017037091380848,0.0048126128603581,0.0069581308713125,0.0052663476491777,-0.0010316382366054,0.0010207733707586,-2.2181933224529e-05,-9.4068100621753e-06,-2.7964475806374e-06,-1.3719477470039e-06,-0.0004033868860249,0.00035974682574409,-0.0011333496723875,0.001123342455054,-0.0011255908248717,0.0011540100896177,-0.00042995934420774,0.00036784802557809,-0.0004047442665699,0.0003583982561066,-0.0011347112623736,0.0011219387308472,-0.001126971101879,0.0011526245265429,-0.0012617987513492,0.0012476621348023,-0.0012553907548276,0.0012607840420437,-0.0012613371913039,0.0012481480358745,-0.0012549203381127,0.0012612613131834,-0.00097779636462647,0.00093497632824882,-0.00095890528024007,0.00092628950702498,-0.00097825204585063,0.00093450131303466,-0.0009593759362648,0.00092582955335286,-0.00042861795061214,0.00036921235210882,3.9428149788859e-07,-9.6930590693964e-07,-2.1428417156343e-06,1.5866995611509e-06,-0.0018355645992276,0.0018350070449206,-0.0017477010162517,0.0017512516244564,-0.001753916656324,0.0017534364585988,-0.0017480183812309,0.0017448612179912,-0.0018921462978311,0.0018907972572658,-0.0018919974522078,0.0018931680755067,-0.0018919170615431,0.0018896426238932,-0.0018937646840789,0.0018940102771349,-0.0017519708541583,0.0017473127758753,-0.0017653619364098,0.0017679941529784,-0.0017537691318007,0.00175578359442,-0.001734174114503,0.0017335122023591,-0.0017475691780604,0.0017438273884505,7.6826626178055e-06,2.1248367337642e-05,-0.0011195291489396,0.0011214940918272,3.095674161133e-06,-7.1371019370323e-07,-0.0011351796487741,0.0011462778462446,-0.0012219080519595,0.0011672675706391,-0.0012258185445864,0.0012202789375772,-0.0011664115590004,0.001288551978741,-0.0011315425507225,0.0011499484004956,-0.0012182016569236,0.0011709599716281,-0.0012221270309951,0.0012239864919947,-0.0012656735003128,0.0012690886130452,-0.0012669477185029,0.0012678078168669,-0.0012666977557291,0.0012589070454857,-0.001267979277029,0.0012576336081393,-0.0012153049435451,0.0012603372024419,-0.0011946813585503,0.0012080837051895,-0.0011934323052489,0.0012093506241143,-0.0012140389552643,0.001261586578,-0.0011700807212855,0.0012849132128241,0.68009907945379,122718,2924,0.0042694671910035,0.0076155964061763,0.0046589150576413,37.635465641526,0.00021628372513221,0.00021628372513221,0.00021628372513221,3165379.5678138,0.016682245909866
38391759,0.99730782830949,0.017068994168112,0.0048220741834516,0.0069713819359744,0.0052755380486858,-0.0010317817031355,0.0010207592328743,-2.2521482894402e-05,-9.6188072594945e-06,-2.8598123027813e-06,-1.3821406413638e-06,-0.00039828173014371,0.00035340957257363,-0.0011332481885348,0.0011231731913934,-0.0011253798623021,0.0011544603557846,-0.00042529717872048,0.00036213036027959,-0.00039969067358059,0.00035200872701998,-0.0011346616778621,0.0011217172844574,-0.00112681165852,0.001153022224644,-0.0012636016835651,0.0012492876197138,-0.0012571034458915,0.0012625901831264,-0.0012631228691535,0.0012497912387728,-0.0012566159266796,0.0012630853259052,-0.00097763374089096,0.00093415796420269,-0.00095844108593822,0.00092524737042613,-0.00097810712377001,0.00093366544564037,-0.00095892911299741,0.00092476958298785,-0.00042390357207441,0.00036354634033211,4.1157850084411e-07,-1.004239726755e-06,-2.2396163288355e-06,1.666488972158e-06,-0.0018398083923388,0.0018392338036778,-0.0017514072993288,0.0017551315449344,-0.001758887481938,0.0017583826928759,-0.0017529479017871,0.00174966322606,-0.0018957828066818,0.0018943760650341,-0.0018955920735721,0.001896821711627,-0.0018955795682888,0.0018932123739014,-0.0018973896023976,0.0018976591357286,-0.0017558610212675,0.0017509954759263,-0.0017692644776493,0.001772035402455,-0.0017587094665638,0.0017608165562148,-0.001738701225789,0.0017380290712169,-0.0017513741370323,0.0017474597493028,7.841948784836e-06,2.145500984214e-05,-0.0011176366740557,0.0011196351140554,3.1942296638709e-06,-7.9116285224076e-07,-0.0011324192022357,0.0011436639601419,-0.0012203018417728,0.0011648091101513,-0.0012242197204194,0.0012185214223869,-0.0011642236575271,0.0012880878073217,-0.0011286085582808,0.0011475083751047,-0.0012164226079395,0.0011686742976765,-0.0012203555481296,0.0012224019167827,-0.0012653689320598,0.0012689155018091,-0.0012667015913941,0.0012675761170784,-0.0012664526288553,0.001258562122861,-0.0012677927090924,0.0012572302118267,-0.001214684888576,0.0012601095186448,-0.001193613506696,0.0012072681254212,-0.0011923057875478,0.0012085940094914,-0.0012133600070826,0.001261417617003,-0.0011680666329272,0.0012842754992143,0.71704436579938,122718,2924,0.0042697709973747,0.0076330778087627,0.0046511690409076,37.195993438155,0.00021276794750524,0.00021276794750524,0.00021276794750524,3145364.0043098,0.016692463407328
38880000,0.99798781239625,0.017081078362432,0.0048256660089525,0.0069763886865952,0.0052790236668846,-0.0010314312166166,0.001020379126161,-2.2661258261106e-05,-9.5940895557585e-06,-2.8716060756361e-06,-1.3848455127909e-06,-0.00039377580427798,0.00034870353920145,-0.001132995796647,0.0011228147890396,-0.0011250438592652,0.0011543734840551,-0.00042105760033366,0.00035743730378499,-0.00039519339351036,0.00034729395193357,-0.0011344180927266,0.0011213500796161,-0.0011264844100596,0.0011529264946897,-0.001264568464468,0.001250183858876,-0.0012580064038089,0.0012635741676545,-0.0012640866920435,0.001250690459482,-0.0012575159506996,0.0012640723155739,-0.00097755529990913,0.00093386266668234,-0.00095821337570022,0.00092502403049838,-0.0009780316660395,0.00093336719815593,-0.00095870434444756,0.00092454325148128,-0.00041965512334077,0.00035886180926293,4.1833717273844e-07,-1.0061605806864e-06,-2.2518921677664e-06,1.6836924035465e-06,-0.0018425899615284,0.0018420202826088,-0.0017542486214559,0.0017580095998077,-0.0017621390785647,0.0017616380414481,-0.0017561950401956,0.0017528968992833,-0.0018980179577515,0.0018966092537161,-0.0018978235749819,0.0018990707692651,-0.0018978268690478,0.0018954519112314,-0.0018996299542248,0.0018999112376869,-0.0017587483621072,0.001753855949862,-0.0017721730734922,0.0017749749396087,-0.0017619666485928,0.00176409699568,-0.0017418159778612,0.0017411498837297,-0.0017542243872259,0.0017502889059441,7.9071683033257e-06,2.158812964135e-05,-0.0011154304464348,0.0011174387285452,3.2268329399448e-06,-7.8857979491045e-07,-0.0011279916642689,0.0011393313898312,-0.0012182771784249,0.0011623479028068,-0.001222187546015,0.0012164750492217,-0.0011601335618792,0.0012850683657708,-0.0011241516701707,0.0011432049830379,-0.0012143686340931,0.00116624243321,-0.00121829405047,0.0012203848628075,-0.0012649764957059,0.0012685635729181,-0.0012663191286822,0.0012672142180396,-0.0012660997876532,0.0012581502585051,-0.0012674498352151,0.0012568083703033,-0.0012130245191812,0.0012585470884397,-0.0011918002008414,0.0012055511177626,-0.0011904824924718,0.0012068869588878,-0.0012116896629219,0.0012598651551106,-0.0011640057778876,0.0012812267917516,0.74364572121898,122718,2924,0.0042682907094141,0.0076445479515989,0.0046420664515349,37.193648666929,0.00021274918933543,0.00021274918933543,0.00021274918933543,3086013.6189349,0.016693376307049
