time,ASR_ext,ASR_strain,ASR_strain_xx,ASR_strain_yy,ASR_strain_zz,disp_x_101,disp_x_102,disp_x_103,disp_x_104,disp_x_105,disp_x_106,disp_x_p10_neg,disp_x_p10_pos,disp_x_p11_neg,disp_x_p11_pos,disp_x_p12_neg,disp_x_p12_pos,disp_x_p13_neg,disp_x_p13_pos,disp_x_p14_neg,disp_x_p14_pos,disp_x_p15_neg,disp_x_p15_pos,disp_x_p16_neg,disp_x_p16_pos,disp_x_p1_neg,disp_x_p1_pos,disp_x_p2_neg,disp_x_p2_pos,disp_x_p3_neg,disp_x_p3_pos,disp_x_p4_neg,disp_x_p4_pos,disp_x_p5_neg,disp_x_p5_pos,disp_x_p6_neg,disp_x_p6_pos,disp_x_p7_neg,disp_x_p7_pos,disp_x_p8_neg,disp_x_p8_pos,disp_x_p9_neg,disp_x_p9_pos,disp_y_101,disp_y_102,disp_y_103,disp_y_104,disp_y_105,disp_y_106,disp_y_p10_neg,disp_y_p10_pos,disp_y_p11_neg,disp_y_p11_pos,disp_y_p12_neg,disp_y_p12_pos,disp_y_p1_neg,disp_y_p1_pos,disp_y_p2_neg,disp_y_p2_pos,disp_y_p3_neg,disp_y_p3_pos,disp_y_p4_neg,disp_y_p4_pos,disp_y_p5_neg,disp_y_p5_pos,disp_y_p6_neg,disp_y_p6_pos,disp_y_p7_neg,disp_y_p7_pos,disp_y_p8_neg,disp_y_p8_pos,disp_y_p9_neg,disp_y_p9_pos,disp_z_101,disp_z_102,disp_z_103,disp_z_104,disp_z_105,disp_z_106,disp_z_p10_neg,disp_z_p10_pos,disp_z_p11_neg,disp_z_p11_pos,disp_z_p12_neg,disp_z_p12_pos,disp_z_p13_neg,disp_z_p13_pos,disp_z_p14_neg,disp_z_p14_pos,disp_z_p15_neg,disp_z_p15_pos,disp_z_p16_neg,disp_z_p16_pos,disp_z_p1_neg,disp_z_p1_pos,disp_z_p2_neg,disp_z_p2_pos,disp_z_p3_neg,disp_z_p3_pos,disp_z_p4_neg,disp_z_p4_pos,disp_z_p5_neg,disp_z_p5_pos,disp_z_p6_neg,disp_z_p6_pos,disp_z_p7_neg,disp_z_p7_pos,disp_z_p8_neg,disp_z_p8_pos,disp_z_p9_neg,disp_z_p9_pos,humidity,ndof,nelem,strain_xx,strain_yy,strain_zz,temp,thermal_strain_xx,thermal_strain_yy,thermal_strain_zz,vonmises,vstrain
14391759,0,0,0,0,0,0,0,0,0,0,0,0,0,0,0,0,0,0,0,0,0,0,0,0,0,0,0,0,0,0,0,0,0,0,0,0,0,0,0,0,0,0,0,0,0,0,0,0,0,0,0,0,0,0,0,0,0,0,0,0,0,0,0,0,0,0,0,0,0,0,0,0,0,0,0,0,0,0,0,0,0,0,0,0,0,0,0,0,0,0,0,0,0,0,0,0,0,0,0,0,0,0,0,0,0,0,0,0,0,0,0,0,0,0,0,0,0,0,0,0,0,0,0
15391759,0.10054959949087,0.0016914832970548,0.00056382776568494,0.00056382776568494,0.00056382776568494,-0.00015764401481363,0.00015755460369861,-1.7419940009744e-07,-1.3883248880153e-07,-2.4196002147948e-08,-3.1866687819037e-09,-0.00013933540826069,0.00013871208362015,-0.00015634114281528,0.00015630781806604,-0.00015631356626885,0.00015665917729678,-0.00013945630945355,0.00013882629643064,-0.00013935580200073,0.00013869147453513,-0.00015636145264605,0.00015628702670292,-0.00015633390310595,0.00015663841248358,-0.00016443941523,0.00016436151864184,-0.00016441144670725,0.00016447326422913,-0.00016443264559541,0.00016436858235035,-0.00016440466486435,0.00016448031585055,-0.00015582441386427,0.00015551858752685,-0.00015573568978668,0.00015535200933843,-0.00015583130272284,0.00015551157896542,-0.00015574260363784,0.00015534502581819,-0.00013943596533136,0.00013884695518454,6.7560355612291e-09,-1.393737150179e-08,-3.2452477541573e-08,2.5578229624731e-08,-0.00017099921493006,0.00017099230663262,-0.00016761788468452,0.00016767479704812,-0.00016950412384208,0.00016949802770664,-0.00016945819281943,0.00016941137225793,-0.00017181665368369,0.00017179736656298,-0.00017181111115233,0.00017183057735436,-0.00017181805397246,0.00017178491762334,-0.00017183302447021,0.00017183864137878,-0.00016768049760568,0.00016760990241384,-0.00016768235094011,0.00016772537395476,-0.0001694911262777,0.00016952373901514,-0.0001692610754947,0.00016925296374894,-0.00016762379391106,0.0001675670878582,2.1845129352481e-08,2.6860620176697e-07,-0.00016348140666261,0.0001635174940866,4.594319888212e-08,-1.2151158144438e-08,-0.0001614695852008,0.00016144547685944,-0.00016199421792989,0.00016146827023693,-0.00016206313992128,0.00016195186648481,-0.00016172676745706,0.0001632961038346,-0.00016141297076114,0.00016150246108673,-0.00016193735029322,0.0001615250965282,-0.00016200640274844,0.00016200882302323,-0.00016652671953861,0.00016653494362368,-0.00016654605218718,0.0001665155264797,-0.00016650775753176,0.00016646988377974,-0.00016652715197588,0.00016645052836993,-0.00016347951229287,0.00016396410308866,-0.00016335594621878,0.00016338189866314,-0.00016333667987696,0.00016340134478947,-0.00016346010514123,0.00016398340817425,-0.00016178366799092,0.00016323940630313,0.76480269367008,131490,2924,0.00065644933116682,0.00071222698411764,0.00068101475271464,27.188313424621,0.00013270650739696,0.00013270650739696,0.00013270650739696,1284053.5146408,0.0020517958936064
16391759,0.18898409258517,0.003188369952499,0.0010321343015275,0.0010988623227893,0.0010573733281822,-0.00025622401250115,0.00025596450460531,-5.9747606553166e-07,-3.0448905065101e-07,-7.6946497673779e-08,-8.4357591989849e-09,-0.00021688810219401,0.00021544510546354,-0.00025745177057986,0.00025731647660103,-0.00025731099793436,0.00025833504202966,-0.00021743208795181,0.00021547192275545,-0.00021695426294609,0.00021537813600789,-0.00025751791584921,0.00025724878535353,-0.00025737718200373,0.00025826738741725,-0.00027290860024127,0.00027261020946984,-0.00027277128030643,0.00027299073686569,-0.00027288643731762,0.00027263329388382,-0.00027274910276343,0.00027301380751508,-0.00025491605570996,0.00025384836433566,-0.00025449123366317,0.00025352103885043,-0.00025493852396937,0.0002538255544206,-0.00025451372975343,0.00025349825694314,-0.00021736599649139,0.00021553896260063,2.0020777179449e-08,-4.7130584001143e-08,-1.2149611533882e-07,9.5451556436148e-08,-0.00029768181961877,0.00029765565624115,-0.00029141878866817,0.00029162787488415,-0.00029458555011314,0.00029455233007133,-0.00029447558485102,0.00029431039122281,-0.00030026769179448,0.00030019201674077,-0.00030024146714006,0.00030031046539929,-0.00030026866881202,0.00030014789457633,-0.00030030001758627,0.00030032391644585,-0.0002916356011014,0.00029137466396845,-0.00029160095069283,0.00029176486709065,-0.0002945359317776,0.00029464735872128,-0.0002939018222452,0.00029388127602982,-0.0002914711313494,0.00029125536107387,1.3512772922531e-07,7.8435590401473e-07,-0.00027227640274311,0.00027234518523293,1.5169217618588e-07,-6.5367424434627e-08,-0.00027147192596206,0.00027149164855701,-0.00027335031989508,0.00027161997895734,-0.00027352233252582,0.00027316671496621,-0.00027220687885768,0.00027652348217048,-0.00027126023153761,0.00027170486497245,-0.00027313766692384,0.00027183236321266,-0.00027331021567644,0.00027337963425926,-0.00028036876612733,0.00028043533520398,-0.00028044098344703,0.00028036282738536,-0.0002803350227532,0.00028015170236816,-0.00028040748247107,0.00028007943652627,-0.00027462498179902,0.00027602601768694,-0.00027419131441051,0.0002743898300645,-0.0002741193347424,0.00027446253064017,-0.00027455242962067,0.00027609814416264,-0.00027241977489417,0.0002763114684115,0.78818816371512,131490,2924,0.0010665024719117,0.0012395095820861,0.0011339825814288,24.444988936382,0.00011075991149106,0.00011075991149106,0.00011075991149106,2015798.6987169,0.0034459257631978
17391759,0.26791959500241,0.0044661891411531,0.0014113769340684,0.0015799050273462,0.0014749071797385,-0.00033524518315239,0.00033472061669575,-1.2117734740145e-06,-5.459220578103e-07,-1.6091636062289e-07,-5.2922908069874e-08,-0.00026345997308865,0.0002607776926036,-0.00033890964507694,0.00033852037454868,-0.00033859450365732,0.00034045436463855,-0.00026461378601891,0.00026078211068828,-0.00026356405881703,0.00026067220536983,-0.00033901376836593,0.00033841367460463,-0.00033869865405292,0.00034034768071797,-0.00036417769519865,0.00036355535424575,-0.00036386565382767,0.00036432002809952,-0.00036414262254611,0.00036359179691018,-0.0003638305697669,0.00036435646292296,-0.0003321340245312,0.00032991978606585,-0.00033118200479445,0.00032939386762342,-0.00033216942423628,0.00032988384120308,-0.00033121743022437,0.00032935794686994,-0.00026450975695032,0.00026088765452991,2.8966507866796e-08,-7.6610525433881e-08,-2.7132958577796e-07,2.2541015045722e-07,-0.00041253389414035,0.00041248778720328,-0.00040009771402193,0.0004005739295255,-0.00040451395805429,0.00040440472526071,-0.00040431673372738,0.00040400015262545,-0.0004187935392628,0.00041861780164579,-0.00041871857539025,0.00041887403774919,-0.00041878779587767,0.00041854111974311,-0.00041883255099731,0.00041891707184117,-0.00040064117442823,0.00040007354754143,-0.00040085105230328,0.00040125622431995,-0.00040438920740306,0.0004046111298066,-0.00040327571000257,0.00040329028309236,-0.00040029294650928,0.00039979634997774,3.1940352586836e-07,1.4594674890432e-06,-0.00036376816985945,0.00036384858278036,3.1031719933163e-07,-1.866099193126e-07,-0.00036355982801231,0.00036363405551132,-0.00036870113100372,0.00036499453682461,-0.00036906428945281,0.00036833343629245,-0.00036492834817636,0.0003731086834373,-0.00036307457943716,0.00036412179467768,-0.00036821432038275,0.00036548082904134,-0.00036857842638342,0.00036882067421104,-0.00037823364647564,0.00037842002847843,-0.00037839907682265,0.00037825415663934,-0.00037819590168434,0.00037783241496054,-0.0003783617331788,0.00037766694412564,-0.00036663408251547,0.00036923926365049,-0.00036573458594411,0.00036620641278732,-0.00036556954174895,0.00036637262334519,-0.00036646810093808,0.0003694045319433,-0.00036541559288093,0.00037262295132333,0.75883456591576,131490,2924,0.0013948276078512,0.0017172940837148,0.0015147159353577,22.111449331969,9.2091594655755e-05,9.2091594655755e-05,9.2091594655755e-05,2623738.8818171,0.0046375775805562
18391759,0.32468474410238,0.0053496096191479,0.0016652014358269,0.0019256788639764,0.0017587293193446,-0.00038170574748592,0.00038096775661951,-1.718848213755e-06,-7.0595335435186e-07,-2.3019293262987e-07,-1.0142720564499e-07,-0.00028658979538946,0.00028305538375806,-0.00038774364418228,0.00038711521639227,-0.0003872726595444,0.00038978368580295,-0.00028827704796172,0.00028297623132587,-0.00028671378978956,0.00028292965851532,-0.00038786773503709,0.00038698795741126,-0.00038739677114817,0.00038965642924812,-0.00042042167011163,0.00041951209882155,-0.00041995367026864,0.00042061890352382,-0.00042037978848406,0.00041955559582682,-0.00041991177873462,0.00042066239639098,-0.00037653851768043,0.00037335349039985,-0.00037511651153757,0.00037272854366972,-0.00037658071257034,0.00037331063484327,-0.00037515873278614,0.00037268571083376,-0.00028815310601792,0.00028310201173345,3.2112678765324e-08,-9.3555179428679e-08,-4.2081731496929e-07,3.6147793401551e-07,-0.00048876954760275,0.00048870998877898,-0.00046974582774019,0.00047049508541326,-0.00047440367556271,0.00047420515048412,-0.00047410788691266,0.00047366268201868,-0.00050024964342991,0.0004999721676951,-0.00050012074579028,0.00050036484319169,-0.00050023921697554,0.00049987730636864,-0.00050031552558923,0.00050047518472032,-0.00047059650926884,0.00046972913448709,-0.00047099264200562,0.00047165730804826,-0.00047419893501223,0.00047452191634521,-0.00047272172663301,0.00047279803132963,-0.00047010984881735,0.00046932704155857,4.794847279704e-07,2.0384417901457e-06,-0.00041927183363,0.00041933418910274,4.5258354555431e-07,-3.3004676195565e-07,-0.00041712309330514,0.00041720040861561,-0.00042822894985999,0.00042286803350551,-0.00042876004491187,0.00042765298650084,-0.00041883291715905,0.00043006300579283,-0.00041635844124254,0.00041796817850067,-0.00042746233993107,0.00042363395975606,-0.00042799465323183,0.00042842012458847,-0.00043989533448509,0.00044019101131187,-0.00044015596098267,0.00043992987272108,-0.00043983436764209,0.00043930841380787,-0.0004400954854621,0.00043904776605363,-0.00042092389577914,0.00042456262761373,-0.00041970646706801,0.00042040193208437,-0.00041944633170883,0.0004206635033637,-0.00042066261175268,0.00042482304233282,-0.00041960005666003,0.00042929774551033,0.73908759132567,131490,2924,0.0015877093318093,0.0020342972966392,0.0017455646600039,17.501610245862,5.5212881966895e-05,5.5212881966895e-05,5.5212881966895e-05,3086130.3105936,0.005382038761752
19391759,0.38319487598977,0.006303375514282,0.0019366884411289,0.0023037942906401,0.002062892782513,-0.00044123648695961,0.00044023447209489,-2.3076288230905e-06,-8.915636928045e-07,-3.1118313814086e-07,-1.9730175819606e-07,-0.00032208742187768,0.00031755974861902,-0.00045288580172742,0.00045189424170413,-0.00045223260202152,0.00045539418302596,-0.00032435842549582,0.00031733876448225,-0.00032219697331539,0.0003174485787029,-0.00045299544595885,0.00045178163639074,-0.00045234226164459,0.00045528156709385,-0.00048945336615333,0.00048821093101332,-0.00048880140483712,0.00048971715207809,-0.00048941618670635,0.00048824947143869,-0.00048876421654438,0.0004897556918914,-0.0004361599792692,0.00043184820554757,-0.00043418870562997,0.00043112124855655,-0.00043619728888969,0.00043181028769607,-0.00043422604195804,0.00043108334846339,-0.00032424892237873,0.00031744998639532,2.4445452139085e-08,-8.6388817592922e-08,-6.0649010942726e-07,5.4649016741092e-07,-0.00058215740440654,0.00058209721389232,-0.00055747195817831,0.00055857861924817,-0.00056213373887781,0.00056179636285271,-0.0005617146483259,0.00056115996224576,-0.00059860396922725,0.00059819732475754,-0.00059840337760001,0.00059876543237541,-0.00059858447677213,0.00059810339294724,-0.00059870751263599,0.00059899511697531,-0.00055872319936144,0.00055749711946283,-0.00055947425717796,0.000560506227264,-0.00056182301161842,0.00056225423476164,-0.0005599699825144,0.00056018390775056,-0.00055807934878938,0.00055692791389116,6.6053154975205e-07,2.7166549105691e-06,-0.00048836425884527,0.0004883939479101,6.2510809866077e-07,-5.284610953637e-07,-0.00048959655489699,0.00048962515838265,-0.00050531183818741,0.00049793683183428,-0.00050602783620462,0.00050443525319187,-0.00049168030426929,0.00050662774239672,-0.00048846867700772,0.00049075602029365,-0.0005041820723356,0.00049906590850916,-0.00050489930180133,0.00050556555229772,-0.00051442544168392,0.00051485203345283,-0.0005148097499005,0.00051446730424406,-0.00051432004517303,0.00051361204283274,-0.00051470480405738,0.00051322776314226,-0.0004907507040011,0.00049559827060362,-0.00048921561208243,0.0004901481463491,-0.00048883179887203,0.00049053329324506,-0.0004903658448012,0.00049598235935114,-0.00049281051708069,0.00050549925557202,0.7792997620797,131490,2924,0.0018348234428434,0.0024225151114031,0.0020328395349507,17.480109511959,5.5040876095671e-05,5.5040876095671e-05,5.5040876095671e-05,3370916.3803411,0.0063100493798311
20391759,0.4475480884457,0.0073586388600826,0.0022276829303604,0.002732087312311,0.0023988686174111,-0.00050605519365957,0.00050461265600483,-3.2284436759396e-06,-1.2739531488474e-06,-4.4864518740917e-07,-2.7419856342803e-07,-0.00034889889223907,0.00034244682777825,-0.00052468170775726,0.00052320482496152,-0.0005237443960746,0.00052805403627546,-0.00035216197756636,0.00034242143084011,-0.00034906687158187,0.00034227665832338,-0.00052484987319908,0.00052303254760051,-0.00052391256963099,0.00052788173453319,-0.00056751158497235,0.00056572154632886,-0.0005665885291154,0.00056779517164242,-0.0005674547504068,0.0005657804684606,-0.00056653168713004,0.00056785409585735,-0.00049933806024525,0.00049327540639204,-0.0004965547802186,0.00049221967969979,-0.00049939523512188,0.0004932173721198,-0.00049661198289485,0.0004921616643045,-0.00035199404103013,0.00034259165873513,4.33725095449e-08,-1.2675595264771e-07,-8.271932603977e-07,7.4652882789822e-07,-0.00069208688627461,0.0006920059977407,-0.00066134547745269,0.0006628635101627,-0.00066653066390256,0.00066609008216927,-0.0006659670255992,0.00066519260838547,-0.00071248249099689,0.00071193510983492,-0.00071220379588377,0.00071270559732827,-0.00071247992764927,0.0007118182048775,-0.00071267120798479,0.00071305864946471,-0.00066310199375087,0.00066142339483262,-0.00066448864803115,0.00066589218701252,-0.00066611149146276,0.00066671993789829,-0.00066359916220033,0.00066387380748382,-0.00066218468637682,0.0006606205049224,9.5283805162278e-07,3.6518057120324e-06,-0.00056607718018623,0.00056610504880301,8.3554970136996e-07,-7.391836962773e-07,-0.0005721232512634,0.00057227888796301,-0.00059134684560215,0.00058103238318008,-0.00059234624008196,0.00059020068190871,-0.00057516759849755,0.00059600657108781,-0.00057058355329155,0.00057382263245477,-0.00058980462935031,0.00058257362592182,-0.00059080563186163,0.00059174350605257,-0.000598955692427,0.00059956282990514,-0.00059948026822138,0.00059903762744796,-0.00059885939340785,0.00059789163274237,-0.00059938461135498,0.00059736706803918,-0.0005720755130137,0.00057869824442499,-0.00056983795580292,0.00057120229709241,-0.00056931405657077,0.0005717280802355,-0.00057155011730075,0.00057922251254467,-0.00057671052521592,0.00059446611598057,0.78426940199556,131490,2924,0.0021035308849882,0.0028792476262828,0.0023559366213692,18.604259915726,6.4034079325809e-05,6.4034079325809e-05,6.4034079325809e-05,3557376.6104273,0.0073657717191949
21391759,0.49762593692603,0.0081496386847848,0.002440939851215,0.0030626889910532,0.0026460098425165,-0.00054477898118274,0.0005429559991178,-4.0218996590757e-06,-1.5854078828361e-06,-5.6040985735943e-07,-3.2789339444598e-07,-0.0003579932659187,0.0003500648971067,-0.00056807845237133,0.00056622958395517,-0.00056688271170207,0.00057220086624711,-0.00036215326642996,0.00035017775086806,-0.0003582171274616,0.00034983821892987,-0.00056830263617669,0.00056600002540547,-0.00056710689259519,0.00057197126431441,-0.00061731620580326,0.00061502396340966,-0.00061615613270623,0.00061760013279224,-0.00061724049228075,0.00061510246245477,-0.00061608041558571,0.00061767863773035,-0.00053486608683391,0.00052727029057885,-0.00053137295895194,0.00052596315068132,-0.0005349422697554,0.00052719298210973,-0.00053144917097946,0.00052588586108413,-0.00036192943951011,0.00035040449218109,5.8596741259983e-08,-1.6812564584615e-07,-1.0226553373114e-06,9.1669987447961e-07,-0.00076863280930431,0.00076852655653928,-0.00073224301048592,0.0007341129472739,-0.00073703742467859,0.00073650458618171,-0.00073630578718368,0.00073532794832916,-0.00079352552355977,0.0007928501693355,-0.0007931782149166,0.00079379578245559,-0.00079352346123187,0.00079269578973233,-0.0007937777434934,0.00079424296692004,-0.00073439158361754,0.00073231071045754,-0.00073626395074199,0.00073798136386813,-0.00073652628235903,0.00073728614473222,-0.00073344431645742,0.00073375923906579,-0.0007332847256739,0.00073135626151496,1.2102068932019e-06,4.4535738316819e-06,-0.00061424094924618,0.00061426568288493,1.0217809831643e-06,-9.1907741163299e-07,-0.00062075071237264,0.00062102634139906,-0.0006441544980503,0.00063135231781667,-0.00064536844980192,0.00064274155464357,-0.00062456693042581,0.00065024627851638,-0.00061885322058368,0.0006229291655816,-0.00064225369619594,0.00063325178509469,-0.00064346972602449,0.00064464305803722,-0.00065373632514629,0.00065449896893149,-0.0006543828218393,0.00065385163503451,-0.00065365156856549,0.00065243811438609,-0.00065429892338169,0.0006517916303487,-0.00062257229980972,0.00063074730687381,-0.00061970526253769,0.000621448096729,-0.00061905966217089,0.00062209620062614,-0.00062192468948983,0.00063139337629006,-0.00062646873159975,0.00064834784685703,0.75706643603807,131490,2924,0.0022638106482741,0.0031971169242718,0.0025561274900691,15.309789371157,3.7678314969252e-05,3.7678314969252e-05,3.7678314969252e-05,3754668.0858597,0.0080493593873181
22391759,0.54490413240747,0.0088970134537146,0.0026409358893,0.0033790938271316,0.0028769837372831,-0.00058621159988466,0.00058402991672787,-4.7720833365603e-06,-1.8653907453415e-06,-6.6829325261046e-07,-3.7609174773016e-07,-0.00037458622882724,0.00036542483601805,-0.00061504723691832,0.00061283725896875,-0.00061360138065446,0.00061985449137326,-0.00037961487990932,0.00036556944596021,-0.0003748676831948,0.00036513987589942,-0.00061532900834232,0.00061254866541127,-0.00061388316336168,0.00061956585851075,-0.00066858316681269,0.00066579536464502,-0.00066719831320319,0.00066886143773202,-0.00066848809282643,0.00066589399351486,-0.00066710322933942,0.00066896006469589,-0.00057312042058904,0.0005640608009686,-0.00056895326565448,0.00056251003491348,-0.00057321612665954,0.00056396364625594,-0.00056904902638694,0.00056241292295769,-0.00037933349547169,0.00036585451828338,7.2328175419757e-08,-2.1256529174097e-07,-1.2215132043593e-06,1.0858016286385e-06,-0.00084625319583412,0.00084611710608794,-0.00080433113298859,0.00080655132523694,-0.00080763912295042,0.00080701021700884,-0.00080672642566087,0.00080553824659745,-0.00087652400191522,0.00087571586668923,-0.00087610532803273,0.00087683547704756,-0.00087652160000243,0.00087552232391558,-0.00087684716661586,0.00087738613536132,-0.00080687650236967,0.00080438611287748,-0.00080916952798088,0.00081119814541202,-0.00080703374184345,0.00080794276731148,-0.00080344751047432,0.0008037973535598,-0.00080559585501,0.00080329688097846,1.4505672067319e-06,5.2378041825258e-06,-0.00066383459966052,0.00066384077340713,1.2013776099386e-06,-1.1080860100516e-06,-0.00067098614436636,0.00067134716034758,-0.00069938034830182,0.00068422993901492,-0.00070082558923947,0.00069771039720171,-0.00067537966221919,0.00070547952916744,-0.00066872858340318,0.00067361139396684,-0.00069711859292082,0.00068649001148397,-0.0006985663742988,0.00069997295105623,-0.00070956258379562,0.00071047047455061,-0.00071033185013633,0.0007097001904078,-0.0007094677789616,0.00070801725254593,-0.00071023810624739,0.00070724801602691,-0.00067413805908835,0.00068386540598545,-0.00067073493315305,0.00067282188796537,-0.00066996682970083,0.00067359311813619,-0.00067336744663586,0.00068463409619214,-0.00067764261471904,0.00070322079480034,0.76056698768983,131490,2924,0.0024353705329784,0.0035193324854506,0.0027621898619671,14.810571907925,3.3684575263401e-05,3.3684575263401e-05,3.3684575263401e-05,3939031.4142967,0.0087550948348897
23391759,0.59313357163234,0.0096476294688598,0.0028405262294071,0.0037003874511454,0.0031067157883073,-0.00062909913619678,0.00062647490875098,-5.6699276117478e-06,-2.2353084072636e-06,-7.9670748272174e-07,-4.3813498849131e-07,-0.00038749971751223,0.00037663848032066,-0.00066311388993865,0.00066046677269844,-0.00066136914647524,0.00066875509043709,-0.00039355745407663,0.00037701045974841,-0.00038784482370256,0.00037628915889446,-0.00066345961973352,0.00066011276889284,-0.0006617148629896,0.00066840100853884,-0.00072292931747253,0.00071954154148014,-0.00072128088939006,0.00072317063229496,-0.00072281260431694,0.00071966258292289,-0.00072116417358853,0.00072329168436779,-0.00061230708976916,0.00060150595661343,-0.0006073575123037,0.00059965652547469,-0.00061242449178665,0.00060138681013718,-0.00060747495484317,0.00059953740641046,-0.00039321238221775,0.00037735987281166,8.7791142444331e-08,-2.614770947517e-07,-1.4458177424133e-06,1.277671835021e-06,-0.0009289994620141,0.00092883085632488,-0.00088076417739495,0.00088338132526111,-0.00088347303797097,0.00088273533793862,-0.00088234986169644,0.00088092654657021,-0.00096461211172992,0.00096365477547209,-0.00096411239355969,0.00096497071317203,-0.00096460877347095,0.00096341700075731,-0.00096500087321899,0.00096562470090332,-0.00088375927928756,0.0008808073306232,-0.00088646491747969,0.00088884719413499,-0.00088276742085992,0.00088384495618272,-0.00087851329392436,0.00087890534261603,-0.00088227637896408,0.00087955908272011,1.7370879806645e-06,6.127566102764e-06,-0.00071478926472342,0.00071479627895638,1.4127995977543e-06,-1.3135697960367e-06,-0.00072234601312197,0.00072283523993297,-0.0007557876832958,0.00073798036418321,-0.00075746724242737,0.00075380977273513,-0.0007275646058806,0.00076289984438814,-0.00071968112385712,0.00072550845175468,-0.00075311757548702,0.00074064829060654,-0.00075480027052021,0.0007564807537061,-0.00076767619860026,0.00076875912176764,-0.00076858428423685,0.00076784977863642,-0.00076759422112222,0.00076587828206541,-0.00076850364107577,0.00076497025276368,-0.00072766359221313,0.00073913365280098,-0.00072355431663707,0.00072605564919997,-0.00072264770263,0.00072696620403996,-0.00072675379398387,0.00074004098013713,-0.0007302362962895,0.00076023357025719,0.75125996338932,131490,2924,0.0026127948044039,0.0038626985319151,0.0029739098796705,15.635704544718,4.0285636357743e-05,4.0285636357743e-05,4.0285636357743e-05,4050567.6866564,0.009494314493607
24391759,0.64584450800828,0.010477284204288,0.0030607234239249,0.0040581593313794,0.0033584014489837,-0.0006785993045022,0.00067545582120804,-6.7138129096725e-06,-2.6667486551061e-06,-9.5004134947561e-07,-5.0626377729939e-07,-0.00040498588090149,0.00039220977898865,-0.00071950355945212,0.00071634068667065,-0.00071740617553183,0.00072608282184498,-0.00041226286326987,0.00039282348090509,-0.00040541289090046,0.00039177768293383,-0.0007199314674008,0.00071590262660854,-0.00071783405308478,0.00072564464509404,-0.00078477742693874,0.00078067910992303,-0.00078282386398685,0.00078496349745694,-0.00078463297591613,0.00078082890538777,-0.00078267941265131,0.00078511331209065,-0.00065798941250487,0.00064516096767328,-0.00065213596221759,0.00064292978916257,-0.00065813466690229,0.00064501357097344,-0.00065228125854444,0.00064278242042003,-0.0004118358738991,0.00039325567388669,1.0758282943742e-07,-3.2439864457806e-07,-1.7101535005319e-06,1.5001921539578e-06,-0.0010235562522316,0.001023345729898,-0.00096845615598666,0.00097153630624671,-0.00097014419491786,0.00096928254964994,-0.00096877051552187,0.00096706084460458,-0.0010653487020414,0.0010642153779638,-0.0010647528901926,0.00106575975722,-0.0010653452490796,0.0010639220157574,-0.0010658128592821,0.0010665297418118,-0.00097198948414418,0.00096849125056947,-0.00097516252045791,0.00097795222281729,-0.00096932329879044,0.00097060127284036,-0.00096430323698123,0.0009647333654675,-0.00097026611191427,0.00096705802668177,2.0699314065557e-06,7.1666527602591e-06,-0.00077233243947808,0.00077234219618715,1.658958607871e-06,-1.5553045394034e-06,-0.00078125165484913,0.00078188728148068,-0.0008206553268297,0.00079976862057971,-0.00082261902862282,0.00081833001862573,-0.00078738023713226,0.00082874543661517,-0.00077811021069934,0.00078503907499098,-0.00081750738185268,0.00080291379953121,-0.00081947493826324,0.00082147893852571,-0.00083303839140519,0.00083432587847288,-0.0008341089341507,0.00083325379521495,-0.00083296504402442,0.00083094715279569,-0.00083403724742827,0.00082987670006761,-0.00078856510050955,0.00080209352790639,-0.00078365298766504,0.00078663255631139,-0.00078258431896869,0.00078770616075161,-0.00078749243211769,0.00080316307419357,-0.00079053018588579,0.00082560232438049,0.76117762110133,131490,2924,0.0028175274238853,0.0042549092380441,0.0032129610799935,17.860255408236,5.8082043265887e-05,5.8082043265887e-05,5.8082043265887e-05,4151536.8445563,0.010338625860036
25391759,0.70043992915845,0.011358324253254,0.0032939311992997,0.0044405868774443,0.0036238061765096,-0.00072906733262666,0.00072525723558797,-8.0249775337069e-06,-3.2546817954232e-06,-1.1470816248179e-06,-5.7657567071125e-07,-0.00041645423812358,0.00040100480802554,-0.0007778827279091,0.0007741034563357,-0.00077534425115878,0.0007856741859585,-0.00042527584991907,0.00040216304183441,-0.00041700330613702,0.00040044960949727,-0.00077843297020475,0.00077354049392653,-0.00077589444258484,0.00078511105814915,-0.0008493721717902,0.00084437971698403,-0.00084704265815662,0.00084945137560144,-0.00084918648580775,0.00084457220877721,-0.00084685697385101,0.00084964389874662,-0.00070493964074271,0.00068957854656373,-0.00069797720534465,0.00068684099206276,-0.00070512637734628,0.00068938914143607,-0.00069816398808151,0.00068665161995484,-0.00042472679375181,0.00040271835666828,1.4077896628798e-07,-4.1448056251615e-07,-2.0184792829682e-06,1.7534707552232e-06,-0.0011254339840337,0.0011251682608575,-0.0010638036095345,0.001067420420997,-0.0010654030299669,0.0010644188190288,-0.0010637347941965,0.001061660375608,-0.0011722622342054,0.0011709285001817,-0.0011715564459731,0.001172737225674,-0.0011722606213679,0.0011705542710834,-0.0011727935393861,0.0011736016000619,-0.0010679757757883,0.0010638312464682,-0.00107177933467,0.0010750229220082,-0.0010644572758872,0.0010659868059819,-0.0010584080924697,0.0010588476685189,-0.0010659416396054,0.0010621699230383,2.4913953957062e-06,8.4016838675169e-06,-0.00083067698682957,0.00083072957980496,1.9571396266635e-06,-1.8201423281592e-06,-0.0008426931044644,0.00084357638920483,-0.00088730511863978,0.00086269383507003,-0.0008895655153361,0.00088456233879707,-0.00085019243014386,0.00089922546939991,-0.00083900181807964,0.00084728066604461,-0.00088360573404405,0.0008663897079879,-0.00088587095157992,0.00088826287457014,-0.00089994286327502,0.00090149028045631,-0.00090120082504791,0.00090023035951361,-0.00089992443220279,0.00089755490388395,-0.00090118450794102,0.00089629705355206,-0.00085262107452704,0.00086859857232943,-0.0008465741247766,0.00085017382614506,-0.00084531854163656,0.00085143567569284,-0.00085136037958559,0.00086985522482377,-0.00085389448599957,0.00089553219905283,0.78098761019931,131490,2924,0.0030259747705854,0.0046772698734086,0.0034553799299514,19.841926965078,7.3935415720621e-05,7.3935415720621e-05,7.3935415720621e-05,4183451.3397574,0.011221296465506
26391759,0.75047971943417,0.012184704422391,0.0035123834300665,0.0048023197084619,0.0038700012838627,-0.00077235155952974,0.00076780310912059,-9.4662118566875e-06,-3.9235002758159e-06,-1.3646467906914e-06,-6.3632396184706e-07,-0.00041898992713982,0.00040046998199634,-0.0008285696287876,0.00082417617775444,-0.00082554372409013,0.00083775917288069,-0.0004295396738249,0.00040236612645851,-0.00041969120731602,0.00039976152842941,-0.00082927232393971,0.00082345778328818,-0.0008262463408175,0.00083704055449279,-0.00090692830063279,0.00090098031829617,-0.00090418955513079,0.00090689992768029,-0.00090669130126289,0.00090122592253663,-0.00090395256024816,0.00090714557366128,-0.0007451823776947,0.000727048465502,-0.00073701514237653,0.0007237329808145,-0.00074542082903471,0.00072680676151708,-0.0007372536518837,0.00072349132084345,-0.0004288384020082,0.00040307472731785,1.8470900765216e-07,-5.2418879501601e-07,-2.3353261842295e-06,2.0067337107414e-06,-0.0012204686923123,0.0012201391855647,-0.0011532310674678,0.0011573945461341,-0.0011556043271563,0.0011545158007507,-0.0011536421143278,0.0011511615089311,-0.0012707501387503,0.0012692148496856,-0.0012699324026976,0.0012712915640899,-0.0012707474909995,0.0012687365508419,-0.0012713199249959,0.0012722033013591,-0.0011580477947831,0.0011532299591994,-0.0011625803089241,0.0011662674549988,-0.0011545389261752,0.0011563438287915,-0.0011473243171103,0.001147737488024,-0.0011556819085667,0.0011513398572483,2.9623190507963e-06,9.7075961982081e-06,-0.00088006876511516,0.00088020464784493,2.2801796642423e-06,-2.0689287155479e-06,-0.00089519920303057,0.00089642387544046,-0.00094421579706161,0.00091564670566148,-0.00094673025309837,0.00094101198280664,-0.00090440964839441,0.00096182938077239,-0.00089094954023972,0.00090068947784631,-0.00093995630163331,0.00091990182935618,-0.00094247671191882,0.00094527284339675,-0.00095802151451802,0.00095985807060979,-0.00095946978867277,0.00095840734946293,-0.00095810123042415,0.00095535039486877,-0.00095955214935159,0.00095390225857429,-0.00090912858381396,0.00092772501825864,-0.0009017131895741,0.00090602046761501,-0.00090026782392692,0.00090747355773417,-0.00090767683658878,0.00092917160962957,-0.00090867267678353,0.00095757745247727,0.79882456209217,131490,2924,0.0032044213971105,0.005071044280412,0.0036606695904296,20.413402137602,7.8507217100819e-05,7.8507217100819e-05,7.8507217100819e-05,4165768.4658776,0.012007871315796
27391759,0.79835925187854,0.012944869269532,0.0037145751257233,0.00513773924834,0.0040925548954687,-0.00081314589118635,0.0008078406894285,-1.0968228990816e-05,-4.6039204794632e-06,-1.5964536970641e-06,-6.9689244945807e-07,-0.00041960271142329,0.00039787395399651,-0.00087492743111835,0.00086994311911995,-0.00087138403640864,0.00088562597159091,-0.00043199508506081,0.00040058868467479,-0.00042046925792135,0.00039699930992073,-0.00087579565807259,0.0008690561132964,-0.00087225215187903,0.00088473867719998,-0.00096237783428335,0.00095543333806814,-0.00095921007459925,0.00096225314548076,-0.00096208515326472,0.00095573656086911,-0.00095891740122172,0.00096255642725086,-0.00078191123235176,0.00076089393679091,-0.00077248252676462,0.00075701139527241,-0.00078220583600285,0.00076059549867451,-0.0007727772057018,0.00075671301665226,-0.00043112854324795,0.00040146351423985,2.3203796722947e-07,-6.4343307923069e-07,-2.6584411662967e-06,2.2602934010052e-06,-0.0013123002200626,0.0013119009502331,-0.0012381018809486,0.0012428168319064,-0.0012420269122342,0.0012408385299536,-0.0012397373325907,0.0012368295663567,-0.001366790989944,0.0013650503494899,-0.0013658569220025,0.0013673950293121,-0.0013667907808671,0.0013644628397559,-0.0013673869129257,0.0013683375440073,-0.0012435407199018,0.0012380328737581,-0.0012486645078803,0.0012527913714907,-0.0012408449113879,0.0012429339311292,-0.0012323795464319,0.0012327496478661,-0.0012408595765294,0.0012359391167285,3.4624249131707e-06,1.1078537154334e-05,-0.00092433878161708,0.00092457697856541,2.6238334235126e-06,-2.3039727129943e-06,-0.00093920072488732,0.00094081638624812,-0.00099456893143618,0.00096203359548342,-0.00099732333492951,0.00099088031339438,-0.00095026099178747,0.0010161303315082,-0.00093438606395931,0.00094565002011485,-0.00098974260689815,0.00096685460854929,-0.00099250416304134,0.00099570819242082,-0.0010120920283658,0.0010142351600167,-0.0010137329182415,0.0010125913559856,-0.0010122672421836,0.0010090821514788,-0.0010139113280288,0.0010074414644425,-0.00095933043303236,0.00098066206369111,-0.00095047411952516,0.00095554072817826,-0.00094883668637899,0.00095718732905847,-0.00095768531669989,0.00098230082659246,-0.00095509173306818,0.0010113131735526,0.76755858010683,131490,2924,0.0033724777913759,0.0054513562936325,0.0038447099718991,22.218673579509,9.2949388636075e-05,9.2949388636075e-05,9.2949388636075e-05,4105877.9484881,0.012749391318848
28391759,0.84091300299734,0.013652829803941,0.003905180839483,0.0054483796292263,0.004299269335232,-0.00085017237155846,0.00084418139124838,-1.2336662461232e-05,-5.1674021229591e-06,-1.7950672028669e-06,-7.5916467459588e-07,-0.00042619347403919,0.00040205670080955,-0.00091975463954933,0.00091418213279094,-0.00091572285645479,0.00093169573492886,-0.00044029756362796,0.00040514563505916,-0.0004271913220994,0.0004010499123122,-0.00092075450251624,0.000913160790227,-0.00091672256988842,0.00093067403214458,-0.001011185646712,0.0010033102408747,-0.0010076243588096,0.0010109703229879,-0.0010108486013982,0.0010036594068512,-0.001007287324812,0.0010113195673574,-0.00081580876121751,0.00079212580885894,-0.00080521749331403,0.00078769309492943,-0.00081614800959166,0.00079178223323235,-0.00080555683288843,0.00078734959042287,-0.00043929970590993,0.00040615263723959,2.6352141943908e-07,-7.4391460758612e-07,-2.9674664580492e-06,2.5023947274452e-06,-0.0013956792167828,0.0013952128639116,-0.0013160117120565,0.0013212442257866,-0.0013198625679112,0.0013185515275325,-0.0013172278754496,0.0013139383034948,-0.0014544870753328,0.0014525406596332,-0.0014534377924438,0.0014551373769047,-0.001454481948552,0.0014518598256989,-0.0014551021973944,0.0014561258448644,-0.0013220368486767,0.0013158781580888,-0.0013276522657959,0.0013322081116747,-0.0013185690694785,0.0013209023415825,-0.0013090325877713,0.0013093879189661,-0.0013190869806729,0.0013136040929393,3.9227968396669e-06,1.2392546338787e-05,-0.0009630586260144,0.00096338202508173,2.9496299434646e-06,-2.5314941323597e-06,-0.00098029141413099,0.00098224667219808,-0.0010414399046444,0.0010052556688952,-0.001044457754014,0.0010373275494843,-0.00099278032593012,0.0010660519122679,-0.00097493653065628,0.00098762333193758,-0.0010360716121032,0.0010106177298827,-0.0010390976632643,0.0010426974563884,-0.0010588114626426,0.0010612405267011,-0.0010606365665651,0.0010594121936088,-0.0010590355917191,0.001055444493858,-0.0010608643479968,0.001053619715347,-0.0010043068457821,0.0010283466004904,-0.00099421905569379,0.00099997839696891,-0.00099239793297123,0.0010018099089088,-0.0010024769299113,0.0010301691299183,-0.00099815372338532,0.0010606942570453,0.80347087547786,131490,2924,0.0035249905339623,0.0057965140045037,0.0040056513614153,23.417034187727,0.00010253627350182,0.00010253627350182,0.00010253627350182,4077473.8987547,0.013416649745094
29391759,0.87771251443416,0.014207847140886,0.0040561967551604,0.0056932378076318,0.004458412578094,-0.00087673546103867,0.00086999905487651,-1.3890963743635e-05,-5.8888583419332e-06,-2.0522031035015e-06,-8.1973834812602e-07,-0.00041307093841658,0.00038507119841102,-0.00094851098373637,0.00094237037668387,-0.00094393229637654,0.00096228103374628,-0.00042913927864979,0.00038947151516612,-0.00041425910303833,0.0003838737147251,-0.00094970135105399,0.00094115575642892,-0.00094512248130938,0.00096106598314018,-0.0010519131832432,0.0010430416237102,-0.0010479014746969,0.0010516337710245,-0.001051512210866,0.001043456823345,-0.001047500514509,0.0010520490635885,-0.00083844767024846,0.00081183061189377,-0.00082654659190059,0.00080692481401967,-0.00083885152450205,0.0008114219115253,-0.00082695056663008,0.00080651621566026,-0.00042795112870883,0.00039066928511973,3.2437723469579e-07,-8.7471653782982e-07,-3.2644454391279e-06,2.7318264576669e-06,-0.0014666400804155,0.0014661059753771,-0.0013797364108999,0.0013854814860195,-0.0013880396054427,0.0013866724111955,-0.001385114099873,0.0013813915558671,-0.0015282963143853,0.0015261717325203,-0.0015271393756803,0.0015290115310956,-0.0015283198581161,0.0015253910293639,-0.0015289186927512,0.0015299863124704,-0.001386328462498,0.0013795226636813,-0.0013923189085754,0.0013972589033243,-0.0013866557590712,0.0013892831746545,-0.0013756725863544,0.0013759453961015,-0.0013830561533465,0.0013770543919803,4.4663449442399e-06,1.3723995701784e-05,-0.0009883224732197,0.00098879311168126,3.2945942763345e-06,-2.7153165525164e-06,-0.0010022166663254,0.0010047018843368,-0.0010707208476985,0.0010307475754134,-0.0010739061855255,0.0010661472009328,-0.0010169705738099,0.0010988907302666,-0.00099634537011241,0.0010105974947599,-0.0010648347013957,0.001036626684401,-0.0010680293328088,0.0010720351661238,-0.0010943936577885,0.0010971591625803,-0.0010963947471201,0.0010951543665402,-0.0010947504788824,0.0010907105974063,-0.0010967557631382,0.0010887098761215,-0.0010344337559231,0.0010610014069048,-0.0010227795070077,0.0010293919779491,-0.0010207829023104,0.0010314003313002,-0.0010324271036031,0.0010629994704918,-0.0010228627910156,0.0010930166358052,0.7278138419664,131490,2924,0.0036339562440037,0.0060901016062595,0.0041108872267991,24.73867219213,0.00011310937753704,0.00011310937753704,0.00011310937753704,3911232.5880722,0.013931443771154
30391759,0.90847377500209,0.014663215494581,0.0041824169820827,0.0058926762425566,0.0045881222699414,-0.00089901290609499,0.00089188248950232,-1.4766549884041e-05,-6.0857225852087e-06,-2.1678743322475e-06,-8.9169916841198e-07,-0.00042285159905371,0.0003940900780695,-0.00097614093322088,0.00096956559555283,-0.00097120736051352,0.00099054626962117,-0.00044009531222778,0.00039824262767617,-0.00042408120653518,0.00039285054675126,-0.00097737336320976,0.00096830761082775,-0.00097243956800268,0.0009892877961914,-0.0010821389937347,0.0010726231104456,-0.0010778606843266,0.0010818388713305,-0.0010817237846137,0.001073053243498,-0.0010774454929001,0.0010822691139016,-0.00085591671369897,0.0008275299777036,-0.00084321523282774,0.00082244778671024,-0.00085633475357704,0.00082710684896636,-0.00084363340356576,0.00082202476021753,-0.00043886569209139,0.00039948245491967,3.1888420034254e-07,-9.2100232362351e-07,-3.492631921272e-06,2.9093705673241e-06,-0.001521009796029,0.0015204250466683,-0.0014264991252342,0.0014326051004346,-0.001434161759284,0.0014326475619375,-0.0014309168967458,0.0014269675424092,-0.0015903152653464,0.0015880190363016,-0.0015890647317877,0.0015910356676912,-0.0015903326545345,0.0015872049038223,-0.0015909755909474,0.0015921146866604,-0.0014334228880825,0.0014261553472632,-0.0014391445052941,0.0014444178632344,-0.0014326957108325,0.0014354462318022,-0.0014211786416003,0.001421494869031,-0.0014300837296883,0.0014236476295566,4.7795089346476e-06,1.4739798235306e-05,-0.0010086139411417,0.0010091129332601,3.5407967138831e-06,-2.8769129693086e-06,-0.0010219220866531,0.001024589421796,-0.0010978427179371,0.0010556812058441,-0.0011012671329609,0.0010929927270308,-0.0010370207012792,0.0011227618473941,-0.0010156530125886,0.0010308847689459,-0.0010915572537812,0.001061958891716,-0.0010949915377191,0.0010992798048103,-0.0011212022150867,0.0011241616023626,-0.0011233391920274,0.001122020951885,-0.0011214780055456,0.0011171063390887,-0.0011236193715944,0.0011149699446195,-0.0010559885428008,0.001084643811841,-0.0010438025930947,0.0010508828560245,-0.0010416705758613,0.0010530273010311,-0.0010538459018467,0.0010867773724481,-0.0010433122036413,0.0011164895944397,0.71334850664812,131490,2924,0.0037257355518438,0.0063150038708338,0.0041952028428537,26.07867786547,0.00012382942292376,0.00012382942292376,0.00012382942292376,3891219.830977,0.014338129396201
31391759,0.93437977093963,0.015071709843271,0.00429632509551,0.0060695867391112,0.0047057980086497,-0.00092003746284855,0.00091236199684284,-1.5939528685056e-05,-6.5383198459925e-06,-2.3470330611619e-06,-9.5889805268309e-07,-0.00042104705538429,0.00038991650880302,-0.0010015210321755,0.00099443108794581,-0.00099614351875538,0.0010171241969218,-0.0004398326258082,0.00039472373539513,-0.00042238483770114,0.00038856860027374,-0.0010028619547908,0.00099306293575243,-0.00099748419813848,0.0010157555087949,-0.0011123493738488,0.0011020536939534,-0.0011077217116754,0.0011120202258551,-0.0011118976820487,0.0011025215149389,-0.0011072700396715,0.001112488168338,-0.00087417915447418,0.0008435283754568,-0.00086045590710538,0.00083811754524201,-0.00087463394395085,0.00084306819396604,-0.00086091084559696,0.00083765748307055,-0.00043849485560645,0.00039607199823516,3.4687904870979e-07,-1.001520604626e-06,-3.7318995823873e-06,3.0976535465984e-06,-0.0015749078024598,0.0015742719892316,-0.0014750707028966,0.0014815811785285,-0.0014850821640038,0.001483480035746,-0.0014815557476748,0.0014773052436456,-0.0016474694107328,0.0016450166359164,-0.0016461272494995,0.0016482265063351,-0.0016475060920398,0.0016441489726549,-0.0016481492186446,0.0016493437724537,-0.0014824218267772,0.0014746482455186,-0.0014882275123077,0.0014938326109942,-0.0014835459008264,0.0014864929777349,-0.0014710431481724,0.0014713428600686,-0.0014788844295822,0.0014720148857965,5.2078672779752e-06,1.5840252124e-05,-0.0010262551513689,0.0010268608495217,3.8209176561954e-06,-3.0265523130609e-06,-0.0010399193121797,0.001042987305765,-0.0011215784856635,0.0010765558253196,-0.0011251735114985,0.0011164029968732,-0.0010563732371708,0.0011482190121204,-0.0010332305401405,0.0010497040877222,-0.001114872216411,0.0010832537211999,-0.001118477759742,0.0011231108720633,-0.001145842880514,0.0011490741928847,-0.0011481229579609,0.001146790240313,-0.0011461601972575,0.0011414358413934,-0.0011484449771493,0.001139156440595,-0.0010777817503016,0.0011085815953337,-0.0010645514969479,0.0010723024781517,-0.0010622767923987,0.0010745904822903,-0.0010754956409143,0.0011108578907232,-0.0010630859845643,0.0011415269559114,0.75947218725933,131490,2924,0.0038120361688083,0.0065378744626896,0.0042687064114956,28.365080379922,0.00014212064303938,0.00014212064303938,0.00014212064303938,3754505.7340361,0.014726399832848
32391759,0.95392351090204,0.015392867821688,0.0043868660041565,0.0062073214664012,0.00479868035113,-0.00093381261425177,0.00092546464695006,-1.7395335000019e-05,-7.271220538556e-06,-2.6052304989748e-06,-1.0062458235477e-06,-0.00040027878352577,0.00036485020422241,-0.0010162204208958,0.0010085954192891,-0.0010103269320046,0.0010337857578906,-0.00042095097770581,0.00037144110433362,-0.00040182143310448,0.0003632977004042,-0.001017766094181,0.0010070202812358,-0.0010118723385301,0.0010322100197516,-0.0011366469015403,0.0011254678535236,-0.0011315907288765,0.0011363123066059,-0.0011361265904573,0.0011260063470739,-0.0011310704350024,0.0011368509303959,-0.00088703221646879,0.00085369111709063,-0.0008720845529468,0.00084784263810528,-0.00088755644980683,0.00085316105794096,-0.00087260897675513,0.00084731274905027,-0.00041940841134944,0.00037299407975206,4.2259293668169e-07,-1.1321868739737e-06,-3.9658247792214e-06,3.2788080960812e-06,-0.0016198631652246,0.0016191743721672,-0.0015169531625565,0.0015238866789848,-0.0015329771643777,0.0015313858761603,-0.0015292843222425,0.0015246385618307,-0.0016906424645802,0.0016880682850239,-0.0016892182912052,0.0016914725498044,-0.0016907347692993,0.0016871176699096,-0.0016913111837752,0.0016925221049651,-0.0015248054989869,0.0015165037501689,-0.0015311044016586,0.0015369944813354,-0.0015313899433903,0.0015346237675678,-0.0015174031728213,0.001517583697204,-0.0015209173374324,0.0015136574992744,5.746103944417e-06,1.6915542575031e-05,-0.0010349432365116,0.001035726491013,4.1164012600134e-06,-3.1484740382808e-06,-0.001046269370862,0.0010499864282294,-0.0011329984847367,0.0010845306572165,-0.0011366623412124,0.001127455635266,-0.0010653132338643,0.0011655539891486,-0.0010391724050873,0.0010571128787155,-0.0011258835057024,0.0010916368347325,-0.0011295586889931,0.0011345725052972,-0.0011626131717055,0.0011661869883424,-0.0011650320957968,0.0011637636578818,-0.0011631293909078,0.0011580314467818,-0.0011655535085149,0.0011556131378532,-0.0010923525518631,0.0011250683745402,-0.001077510816273,0.0010861329995517,-0.0010750975990856,0.001088560674071,-0.0010899268513971,0.0011274831918605,-0.0010724358194956,0.0011584540278758,0.78951189655871,131490,2924,0.0038680253159323,0.0067236564341903,0.0043052360683782,29.295716691265,0.00014956573353012,0.00014956573353012,0.00014956573353012,3526133.8338817,0.015008898326201
33391759,0.96774311031213,0.015622230408061,0.0044527362862362,0.0063045008901501,0.0048649932316752,-0.00094201436583544,0.00093319338072215,-1.8452092758856e-05,-7.7298538460794e-06,-2.783437834357e-06,-1.0538431422648e-06,-0.00038644962177011,0.00034822853646178,-0.0010257694877951,0.0010177167720975,-0.0010194865173602,0.0010446995200389,-0.00040851823165591,0.00035586416660502,-0.00038811918344615,0.00034654937824214,-0.0010274419949421,0.001016013471719,-0.0010211587221656,0.0010429955577082,-0.0011519751043368,0.0011401558871936,-0.0011465983506658,0.0011516559109606,-0.0011514122239994,0.0011407381447681,-0.0011460354877754,0.0011522383069553,-0.00089464635266129,0.00085932885262965,-0.00087877908347676,0.00085318966988957,-0.00089521360078254,0.00085875550699479,-0.00087934655793698,0.00085261653386024,-0.00040684878536265,0.00035754387955584,4.6860680968598e-07,-1.2136748124109e-06,-4.1378699721616e-06,3.4167778265006e-06,-0.0016502066469327,0.0016494836590312,-0.0015450507128621,0.0015522966282919,-0.0015644756111057,0.001562871758723,-0.0015606341798023,0.0015557248994534,-0.001720248631,0.0017175801554097,-0.0017187612171006,0.0017211276091397,-0.0017203806817004,0.001716583710455,-0.0017209138780616,0.0017221513120461,-0.0015532557504347,0.0015445737363761,-0.0015598720189932,0.0015659892245464,-0.0015628501757457,0.0015662774367498,-0.0015478101408834,0.0015479332823988,-0.0015491374081592,0.0015415824329698,6.1528848295704e-06,1.774048146393e-05,-0.001037786130793,0.0010386970072414,4.3373024302885e-06,-3.2395390291296e-06,-0.0010459268997453,0.0010501333304184,-0.0011384278891408,0.0010874385925419,-0.0011421600165198,0.0011326370001188,-0.0010667660049221,0.0011729891535867,-0.0010385247680109,0.0010575657785833,-0.0011310074826711,0.0010948499281826,-0.0011347514125244,0.001140059427645,-0.0011716835502848,0.0011755192046891,-0.0011742063009268,0.0011729917672005,-0.001172324877663,0.0011669288699165,-0.0011748531036375,0.0011644067206927,-0.001099403965123,0.0011335600286308,-0.0010834230262508,0.0010927076216059,-0.0010809062000694,0.0010952395730668,-0.0010968740319907,0.0011360784509767,-0.0010741946738341,0.0011655842135743,0.7943109475937,131490,2924,0.0039012433140129,0.0068490122653427,0.0043173825079235,29.275781205787,0.00014940624964629,0.00014940624964629,0.00014940624964629,3362949.4154032,0.015182236424609
34391759,0.97834448830506,0.015791362235582,0.0045020017350232,0.0063756390788963,0.0049137214216622,-0.00095214629125842,0.00094300961999022,-1.9170021038799e-05,-7.9859312210784e-06,-2.8986468610015e-06,-1.1005956227283e-06,-0.00038414914649082,0.00034434532634133,-0.0010374573437276,0.0010290801760601,-0.0010308949062647,0.0010572213482954,-0.00040719618437461,0.00035247108175185,-0.00038588505873506,0.00034259992802212,-0.0010391962718184,0.0010273096339555,-0.0010326335024404,0.0010554500970492,-0.0011668561805973,0.0011545902364873,-0.0011612586273413,0.0011665572102472,-0.0011662710085045,0.0011551954764759,-0.0011606734739877,0.0011671625956909,-0.00090379915623938,0.00086710900844293,-0.0008872928270678,0.00086077993927629,-0.00090438890232599,0.00086651299194838,-0.00088788282385312,0.00086018415618331,-0.0004054603997632,0.00035421708495614,4.888731908878e-07,-1.2597882568004e-06,-4.2676057265966e-06,3.5215582700079e-06,-0.0016760801289463,0.0016753321322231,-0.0015686666498065,0.0015761397151433,-0.0015898489260641,0.0015882068273322,-0.0015858623096728,0.0015807841364247,-0.0017467985340668,0.001744049499007,-0.0017452609877218,0.0017477030061641,-0.001746956122764,0.0017430340206495,-0.0017474706213958,0.0017487390770291,-0.0015771029884102,0.0015681441385997,-0.0015837931328698,0.0015900930372734,-0.0015881943368554,0.0015917392080938,-0.001572479538615,0.0015725897535813,-0.0015728599841438,0.0015650725151069,6.43435675349e-06,1.8386277951052e-05,-0.0010429422111758,0.0010439328081675,4.5039242782582e-06,-3.3089812157081e-06,-0.0010485029004955,0.0010530228437351,-0.0011461997589163,0.0010934812286825,-0.0011500119863267,0.0011402415938189,-0.0010703769932777,0.0011804521591843,-0.0010408700017321,0.0010606866946694,-0.0011385482558455,0.0011011234340641,-0.0011423725833,0.0011478951374329,-0.0011814634400275,0.0011854827909865,-0.0011840647970115,0.0011828766274425,-0.0011821511457402,0.0011765332421791,-0.0011847581355945,0.0011739325136778,-0.0011070706928412,0.0011423755741859,-0.001090387799636,0.0011001258239435,-0.0010877925574845,0.0011027366170933,-0.0011044619636435,0.0011449724264819,-0.0010780370309405,0.0011728164910945,0.76155576969369,131490,2924,0.0039427421007682,0.0069559122478031,0.0043390054524243,31.398396203731,0.00016638716962985,0.00016638716962985,0.00016638716962985,3239999.4882606,0.015354877933359
35391759,0.98676729490528,0.015922087761889,0.0045404820552991,0.0064302302000373,0.0049513755065527,-0.00096551596785799,0.00095621893887698,-1.9532226601448e-05,-8.0522121770946e-06,-2.9494803292298e-06,-1.1463680163605e-06,-0.00039506327292776,0.00035493295491144,-0.0010531498681486,0.0010445594867325,-0.0010464285771333,0.0010731345191976,-0.00041862749167377,0.00036300304902516,-0.0003968037300685,0.0003531829014073,-0.0010548936201519,0.0010427838091852,-0.0010481719767652,0.0010713581041977,-0.0011825651480344,0.0011700385611312,-0.0011768581892074,0.0011822788020019,-0.0011819783370735,0.0011706456131578,-0.001176271399635,0.0011828860056989,-0.0009155359996017,0.00087810700571049,-0.00089870143203931,0.00087171055553197,-0.00091612733377484,0.00087750934733814,-0.00089929302589937,0.00087111313319117,-0.00041688715745021,0.00036475372430932,4.813116158142e-07,-1.2713625183413e-06,-4.3580395582556e-06,3.5932150733815e-06,-0.0016998380244128,0.0016990712745714,-0.0015897050290663,0.0015973196764413,-0.0016112103272506,0.0016094989901926,-0.0016070732663736,0.001601918095187,-0.0017731481647294,0.0017703279483391,-0.0017715715651277,0.0017740504064439,-0.0017733109745337,0.0017693149791854,-0.0017738386253122,0.0017751411741944,-0.0015982495338015,0.0015891117231461,-0.0016047030980855,0.0016111417877156,-0.0016095313670988,0.0016131148243992,-0.0015935952641424,0.0015937363800387,-0.0015940026837527,0.0015860389823797,6.5713798813426e-06,1.8852725696752e-05,-0.001052805445409,0.0010538241466373,4.615938130005e-06,-3.3601753494509e-06,-0.0010588002696273,0.0010634154160923,-0.0011594323120909,0.0011058607508263,-0.0011633403920661,0.001153373409976,-0.0010808068055272,0.0011923977953913,-0.0010510081337969,0.001071239093679,-0.0011516210530003,0.0011136624776237,-0.0011555413682654,0.0011611865917984,-0.0011936605655872,0.0011977689767107,-0.0011963163212769,0.001195108478337,-0.0011942962061867,0.001188539650305,-0.0011969576281132,0.0011858846154602,-0.0011177748402109,0.0011540067876021,-0.001100899425863,0.0011108459102176,-0.0010982499661454,0.0011135111077138,-0.0011151117492716,0.0011566578893238,-0.0010886264802574,0.0011846027414137,0.73946145652713,131490,2924,0.0039979292977413,0.0070541099590046,0.0043800247219797,35.851123307778,0.00020200898646222,0.00020200898646222,0.00020200898646222,3170769.1926361,0.015552289857944
36391759,0.99222710058977,0.016008415618956,0.0045660175486938,0.0064660160536573,0.0049763820166047,-0.00097138526739938,0.00096196459735722,-1.9823159423068e-05,-8.1124242361178e-06,-2.9909920292907e-06,-1.178651843718e-06,-0.00039838369062519,0.00035788186563599,-0.0010606091085822,0.0010518534512747,-0.0010537615869651,0.0010807982465937,-0.00042235973430995,0.00036600105663613,-0.00040013291108914,0.00035612302077359,-0.0010623618241276,0.0010500686280148,-0.0010555139381852,0.0010790126681291,-0.0011902144798747,0.0011774824850203,-0.0011844167483479,0.0011899399159388,-0.0011896246438406,0.00117809270122,-0.0011838269346313,0.0011905502874488,-0.00092032231183658,0.00088231168278056,-0.0009032175518128,0.00087589340000129,-0.00092091665382126,0.00088171098951505,-0.00090381215995678,0.00087529294583617,-0.00042061064043971,0.00036776054105754,4.7888089566047e-07,-1.2823054615482e-06,-4.4226174317259e-06,3.6446618372988e-06,-0.0017134015252962,0.0017126216624565,-0.0016013161271162,0.0016090343008665,-0.0016234293146993,0.0016216742922687,-0.0016191911262095,0.001613975647755,-0.0017883534370103,0.0017854844697005,-0.0017867488084066,0.0017892561989852,-0.0017885219526627,0.0017844714759011,-0.0017890568364446,0.0017903821908412,-0.0016099435494708,0.0016006760643156,-0.0016162258745118,0.0016227623314633,-0.0016217331463835,0.0016253500898885,-0.0016056156238885,0.0016057736580592,-0.0016056872704255,0.0015975996027651,6.6869231348921e-06,1.9178825536934e-05,-0.001056315714991,0.0010573602685293,4.698652497103e-06,-3.3942933913616e-06,-0.0010631155112694,0.0010678340916244,-0.0011653597863608,0.0011111432879934,-0.0011693225584615,0.0011592239760274,-0.0010852979565209,0.0011981067083356,-0.001055209326863,0.001075772173919,-0.0011574341757222,0.0011190592185486,-0.0011614092636607,0.0011671514293558,-0.0011987347024279,0.0012029171531988,-0.0012014293960157,0.0012002177587281,-0.0011993449331604,0.0011934769641696,-0.001202045317364,0.0011907830538686,-0.0011220393570134,0.0011589230506093,-0.0011049861838634,0.0011151152355139,-0.0011022979051319,0.0011178193736826,-0.0011193373490888,0.0011616129853645,-0.0010932319344104,0.0011901975366082,0.75248253442777,131490,2924,0.0040220543268211,0.0071101541484918,0.0043946751052835,37.529920486641,0.00021543936389313,0.00021543936389313,0.00021543936389313,3123250.0584189,0.015648593230144
37391759,0.99544969958646,0.016059044735428,0.0045810427032355,0.0064869297616482,0.0049910722705438,-0.00097277023206871,0.00096317300425231,-2.0236768785459e-05,-8.3164323654768e-06,-3.0684328554338e-06,-1.1926021454752e-06,-0.00039076377917625,0.00034890418660079,-0.0010616195620594,0.0010527068887349,-0.0010546217276916,0.0010824376783626,-0.0004152901503188,0.00035765097279482,-0.00039257483644991,0.00034708374088354,-0.0010634340559775,0.0010508598238511,-0.0010564358529462,0.0010805898408939,-0.0011941481790173,0.0011811739805004,-0.0011882237338398,0.001193894796473,-0.0011935376612087,0.001181805449042,-0.0011876132342688,0.001194526419131,-0.00092157506714564,0.00088281036223503,-0.00090411264434566,0.00087630794172585,-0.00092219035683075,0.00088218861423384,-0.00090472822275101,0.0008756864600654,-0.00041347925212725,0.0003594721090449,5.0369128977537e-07,-1.3198131795874e-06,-4.4797808536669e-06,3.689673229994e-06,-0.0017215856135633,0.0017207935450005,-0.0016088193325445,0.0016166462796962,-0.0016329394842997,0.0016311994054838,-0.001628681388539,0.0016233582018818,-0.0017956993047327,0.0017928051492349,-0.0017940742750432,0.001796624501249,-0.0017958906279591,0.001791773096604,-0.0017964005196004,0.0017977268241491,-0.0016175768042033,0.0016081763252915,-0.0016239783777187,0.0016305819711333,-0.001631234778005,0.0016349344907262,-0.0016146835075492,0.0016148017089971,-0.0016132185348354,0.0016050394542834,6.8499212981123e-06,1.9444150701864e-05,-0.0010552506209558,0.0010563479315502,4.7775661497526e-06,-3.4182678089935e-06,-0.0010603930448111,0.0010653344594971,-0.0011644569241864,0.0011093017809279,-0.0011684229821397,0.0011582322989194,-0.0010833883647641,0.0011985943919416,-0.0010523860915004,0.0010733734436608,-0.0011564306087371,0.0011173183715828,-0.0011604091389704,0.0011662605377691,-0.0011999969404891,0.0012042838824397,-0.0012027258618432,0.0012015501161748,-0.0012006722815512,0.00119469153021,-0.0012034070149249,0.0011919633628585,-0.0011223192179768,0.0011596321417617,-0.0011047997539128,0.0011151990701076,-0.001102077313087,0.0011179376303915,-0.0011195828005854,0.001162356226826,-0.001091423369322,0.0011905846226094,0.74707572906632,131490,2924,0.0040274884951577,0.0071439354877419,0.0043904080173427,37.635794899304,0.00021628635919443,0.00021628635919443,0.00021628635919443,3050523.9358706,0.015684109495641
38391759,0.99731046552487,0.016088757871754,0.004589899935499,0.0064991380620817,0.0049997198741738,-0.00097233233004609,0.00096266050511885,-2.0420564285647e-05,-8.3667349781085e-06,-3.0978132414194e-06,-1.2077090618434e-06,-0.00038794934885218,0.00034574172447144,-0.0010616574526438,0.0010526529856545,-0.0010545843020799,0.0010826615158941,-0.00041273036652158,0.00035458547702673,-0.00038977426911293,0.00034390744266724,-0.0010634858299905,0.0010507918956325,-0.0010564122969363,0.0010807996358701,-0.0011947318540525,0.0011816394019751,-0.0011887478666662,0.0011944898965032,-0.0011941166876599,0.0011822756654899,-0.001188132721814,0.0011951263186168,-0.00092084992886538,0.00088173036792598,-0.00090321418518578,0.00087521657246542,-0.00092146992256161,0.00088110389035401,-0.00090383446932505,0.00087459036238,-0.00041090560512884,0.00035642046089486,5.0717406262723e-07,-1.330121541827e-06,-4.5118296708305e-06,3.71507912498e-06,-0.0017248579449848,0.0017240592296768,-0.0016114026402586,0.0016192838858458,-0.0016360848704475,0.0016343324801745,-0.0016317921865582,0.0016264295548613,-0.0017992886572101,0.0017963734203588,-0.001797650531339,0.0018002179155052,-0.0017994864395733,0.0017953385859003,-0.0017999927775629,0.0018013269904072,-0.001620210977342,0.0016107429673252,-0.0016265837911365,0.0016332324657014,-0.0016343730518802,0.0016380986254198,-0.0016176832806687,0.001617800238307,-0.0016158305899287,0.0016075931675615,6.9271850316601e-06,1.959455789825e-05,-0.0010534268361896,0.0010545439817311,4.8197167473578e-06,-3.4339883639985e-06,-0.0010583978557193,0.0010634311486053,-0.0011634753117923,0.0011079241019434,-0.0011674561087717,0.0011572098982332,-0.0010816236298521,0.0011976746758263,-0.0010503343052389,0.0010715268528021,-0.0011553923460309,0.0011159972951557,-0.0011593856652959,0.0011652947777336,-0.0011991244441982,0.0012034611395521,-0.0012018726372694,0.0012007080895761,-0.0011998080999349,0.0011937640441318,-0.0012025621321907,0.0011910166182317,-0.0011210785682635,0.0011586697499507,-0.0011033938705521,0.0011139210605728,-0.0011006521978553,0.0011166789314182,-0.001118322851465,0.0011614130710947,-0.0010897153407976,0.0011896083147791,0.75852268697611,131490,2924,0.0040255362492634,0.0071574337073129,0.0043829013408681,37.194807007481,0.00021275845605984,0.00021275845605984,0.00021275845605984,3021155.2247415,0.015688217259353
38880000,0.99798978370334,0.016099737328646,0.0045931782580308,0.0065036376034529,0.005002921467162,-0.00097253652086204,0.00096279333502245,-2.0585532178855e-05,-8.4631570530289e-06,-3.1308549949336e-06,-1.2098222492887e-06,-0.00038403592574382,0.00034118754308389,-0.0010614189239981,0.001052360039049,-0.0010542896976653,0.0010827192624995,-0.00040903134615771,0.00035034360738086,-0.00038589102877745,0.00033932321540579,-0.0010632774060314,0.0010504686571364,-0.0010561477915158,0.0010808270797139,-0.0011959030046184,0.0011827208269916,-0.0011898688385364,0.0011956704616197,-0.0011952777575131,0.0011833674227347,-0.0011892436121636,0.0011963172158526,-0.00092122747806163,0.00088181505294441,-0.00090345292177999,0.00087525412786795,-0.00092185768688584,0.0008811783126638,-0.00090408343108652,0.00087461766752878,-0.00040717641487271,0.00035220866020421,5.204994106447e-07,-1.3472561976577e-06,-4.5303957644066e-06,3.7300647910109e-06,-0.0017271619348774,0.0017263596089605,-0.0016137614732115,0.0016216821598584,-0.0016392982346398,0.0016375610366118,-0.0016350124351509,0.001629605010719,-0.0018008362892421,0.0017979165267421,-0.0017991922519134,0.0018017774241595,-0.0018010449611924,0.0017968721354042,-0.0018015366131,0.0018028681595057,-0.0016226248284376,0.0016131102365836,-0.0016291026217602,0.0016357704065779,-0.0016375848649779,0.0016413478624995,-0.0016206949936326,0.001620789408759,-0.0016181916254914,0.0016099279306961,6.9917669249511e-06,1.9678492610263e-05,-0.0010526284585852,0.0010537692668854,4.8464186351238e-06,-3.4410910960891e-06,-0.0010564204284948,0.0010615508270536,-0.0011623366401088,0.0011064005160392,-0.0011663117869557,0.0011560398780881,-0.0010800438916258,0.0011971548899547,-0.0010483236669244,0.0010696797136158,-0.0011542205859473,0.0011145068109392,-0.001158208311834,0.0011641579005731,-0.0011993003416982,0.0012036787233566,-0.0012020597692913,0.0012009143612037,-0.0012000220792672,0.0011939394071005,-0.0012027873996306,0.0011911807201877,-0.0011208777222087,0.0011585797768445,-0.0011029788556336,0.0011136143338656,-0.0011002259530104,0.0011163835325452,-0.0011181106772899,0.0011613343179228,-0.0010881688712777,0.0011890554259889,0.76740248118257,131490,2924,0.0040262601347921,0.0071669375569157,0.0043796538830107,37.193619790541,0.00021274895832433,0.00021274895832433,0.00021274895832433,2989595.257602,0.015695316770668
