time,ASR_ext,ASR_strain,ASR_strain_xx,ASR_strain_yy,ASR_strain_zz,disp_x_101,disp_x_102,disp_x_103,disp_x_104,disp_x_105,disp_x_106,disp_x_p10_neg,disp_x_p10_pos,disp_x_p11_neg,disp_x_p11_pos,disp_x_p12_neg,disp_x_p12_pos,disp_x_p13_neg,disp_x_p13_pos,disp_x_p14_neg,disp_x_p14_pos,disp_x_p15_neg,disp_x_p15_pos,disp_x_p16_neg,disp_x_p16_pos,disp_x_p1_neg,disp_x_p1_pos,disp_x_p2_neg,disp_x_p2_pos,disp_x_p3_neg,disp_x_p3_pos,disp_x_p4_neg,disp_x_p4_pos,disp_x_p5_neg,disp_x_p5_pos,disp_x_p6_neg,disp_x_p6_pos,disp_x_p7_neg,disp_x_p7_pos,disp_x_p8_neg,disp_x_p8_pos,disp_x_p9_neg,disp_x_p9_pos,disp_y_101,disp_y_102,disp_y_103,disp_y_104,disp_y_105,disp_y_106,disp_y_p10_neg,disp_y_p10_pos,disp_y_p11_neg,disp_y_p11_pos,disp_y_p12_neg,disp_y_p12_pos,disp_y_p1_neg,disp_y_p1_pos,disp_y_p2_neg,disp_y_p2_pos,disp_y_p3_neg,disp_y_p3_pos,disp_y_p4_neg,disp_y_p4_pos,disp_y_p5_neg,disp_y_p5_pos,disp_y_p6_neg,disp_y_p6_pos,disp_y_p7_neg,disp_y_p7_pos,disp_y_p8_neg,disp_y_p8_pos,disp_y_p9_neg,disp_y_p9_pos,disp_z_101,disp_z_102,disp_z_103,disp_z_104,disp_z_105,disp_z_106,disp_z_p10_neg,disp_z_p10_pos,disp_z_p11_neg,disp_z_p11_pos,disp_z_p12_neg,disp_z_p12_pos,disp_z_p13_neg,disp_z_p13_pos,disp_z_p14_neg,disp_z_p14_pos,disp_z_p15_neg,disp_z_p15_pos,disp_z_p16_neg,disp_z_p16_pos,disp_z_p1_neg,disp_z_p1_pos,disp_z_p2_neg,disp_z_p2_pos,disp_z_p3_neg,disp_z_p3_pos,disp_z_p4_neg,disp_z_p4_pos,disp_z_p5_neg,disp_z_p5_pos,disp_z_p6_neg,disp_z_p6_pos,disp_z_p7_neg,disp_z_p7_pos,disp_z_p8_neg,disp_z_p8_pos,disp_z_p9_neg,disp_z_p9_pos,humidity,ndof,nelem,strain_xx,strain_yy,strain_zz,temp,thermal_strain_xx,thermal_strain_yy,thermal_strain_zz,vonmises,vstrain
14391759,0,0,0,0,0,0,0,0,0,0,0,0,0,0,0,0,0,0,0,0,0,0,0,0,0,0,0,0,0,0,0,0,0,0,0,0,0,0,0,0,0,0,0,0,0,0,0,0,0,0,0,0,0,0,0,0,0,0,0,0,0,0,0,0,0,0,0,0,0,0,0,0,0,0,0,0,0,0,0,0,0,0,0,0,0,0,0,0,0,0,0,0,0,0,0,0,0,0,0,0,0,0,0,0,0,0,0,0,0,0,0,0,0,0,0,0,0,0,0,0,0,0,0
14891759,0.063482540838037,0.0010188694526501,0.00033962315088336,0.00033962315088336,0.00033962315088336,-0.00011475636594575,0.00011469472752474,-8.6230327780079e-08,-8.9818952970024e-08,-1.6802642938366e-08,-1.7759576480136e-08,-0.00010187550933001,0.00010148309091171,-0.00011194846456268,0.0001119092729564,-0.00011194059473495,0.00011208329492317,-0.00010190715805236,0.00010159226344763,-0.0001018747192081,0.00010148416027399,-0.00011194746954766,0.00011191014390758,-0.00011193974449137,0.0001120843106088,-0.00012097991688617,0.00012093705348174,-0.00012097248669778,0.00012098705222664,-0.00012098026042373,0.00012093676244621,-0.00012097276468952,0.00012098669565156,-0.0001116527028637,0.00011149492692831,-0.00011162712152074,0.00011138795614535,-0.00011165232038781,0.0001114951797443,-0.00011162687327259,0.00011138834322734,-0.00010190821513002,0.00010159146119565,-3.0916983271538e-10,6.3837378516134e-10,-2.2091902632024e-09,2.5243479669906e-09,-0.00012162139419417,0.00012162171090627,-0.00011787161651318,0.00011787618040427,-0.00011876229085996,0.00011876005270193,-0.00011874099531169,0.00011874061359842,-0.00012501968957821,0.00012501792874626,-0.00012502483509659,0.00012502658327651,-0.00012501953184072,0.00012501841040098,-0.00012503016185847,0.00012503254944117,-0.00011787502047824,0.00011787108412347,-0.00011789778042016,0.00011790298561651,-0.00011876449702918,0.00011876552979616,-0.00011864780315146,0.00011865069235216,-0.00011785082989861,0.00011784625227602,1.7267035110989e-09,1.4547303871995e-07,-0.00011775874233078,0.00011776961250751,1.1070773408001e-08,6.0027319741145e-09,-0.00011258121993441,0.00011257422772239,-0.00011490128640001,0.0001146623129197,-0.00011494092810902,0.00011490234030495,-0.00011272675682036,0.00011348515413968,-0.00011257669900962,0.00011257872496074,-0.00011489652103236,0.00011466708221727,-0.00011493615497968,0.00011490710169019,-0.00012218482209359,0.00012217424634292,-0.00012218656654856,0.00012217250625165,-0.00012216895418386,0.00012214473484241,-0.00012217069536988,0.00012214299146934,-0.00011558396773478,0.00011585448069349,-0.00011553745647322,0.00011553966546881,-0.00011553580940465,0.00011554130173088,-0.00011558232935131,0.0001158561256068,-0.00011273125840656,0.00011348063786655,0.64373504832551,122718,2924,0.00047790825239695,0.00050662643258071,0.00049056233626091,30.462880881864,0.00015890304705491,0.00015890304705491,0.00015890304705491,1313010.4030573,0.0014761912058803
15391759,0.11459663116398,0.0018509831149728,0.00060949580392518,0.00062563024565295,0.00061585706539464,-0.00016846093281583,0.00016835706759066,-2.161651302807e-07,-1.4728603853679e-07,-2.6428760335107e-08,-2.4811841500827e-08,-0.00014637082106799,0.00014567215422625,-0.00016555621865409,0.00016547512267681,-0.00016551499270082,0.00016588362565102,-0.00014651498446042,0.00014580695537342,-0.00014637252185043,0.00014567118077046,-0.00016555750871941,0.00016547342983293,-0.00016551666343308,0.00016588231330371,-0.00018020324619223,0.00018009905215755,-0.00018016349911412,0.00018025137432904,-0.00018020277964094,0.00018009970920355,-0.00018016285801186,0.00018025185698659,-0.00016411931936914,0.00016371937673856,-0.00016399373400877,0.00016355781482954,-0.00016411964397623,0.000163718690926,-0.00016399441456849,0.00016355748467114,-0.00014651402491346,0.00014580866798539,4.9173492577306e-10,-9.09501477413e-10,-8.8783814352621e-09,8.4788251626232e-09,-0.00018529124483958,0.00018529084399761,-0.00017896293688112,0.00017897991074129,-0.00018037499066748,0.00018037002887775,-0.00018032161560658,0.00018031395377211,-0.00019201392000421,0.00019200787867209,-0.00019202344110892,0.00019202981414873,-0.000192009349869,0.00019200218407561,-0.00019204174190808,0.00019204698947257,-0.00017897655521131,0.00017895878564633,-0.00017895601033567,0.00017897198721815,-0.00018037695891422,0.0001803837988521,-0.00018014424829988,0.00018014838743383,-0.00017892691966973,0.00017891014542037,3.8887256287312e-08,3.2789777259051e-07,-0.00017545998888068,0.00017549503670459,3.6139459055377e-08,1.7882936409825e-08,-0.00016843223832672,0.00016848079210419,-0.00017238330110191,0.00017183708089422,-0.00017247033814938,0.00017240278894787,-0.00016873396312448,0.00017036853195246,-0.00016841550126525,0.00016849772211397,-0.00017236575073087,0.0001718545437995,-0.00017245287561233,0.00017242034246312,-0.00018368969555581,0.00018369239837488,-0.0001836959095901,0.00018368614367296,-0.00018365426873677,0.0001835764454684,-0.00018366052228365,0.00018357023088221,-0.0001726210771216,0.00017324054448618,-0.00017250146032218,0.00017257405919653,-0.0001724955482185,0.00017258006196737,-0.00017261507701248,0.00017324645870721,-0.00016875088974071,0.00017035179094727,0.66498198186136,122718,2924,0.0007014581848464,0.00077174407613144,0.00073088625065247,27.264469382916,0.00013331575506333,0.00013331575506333,0.00013331575506333,1805410.4832117,0.002206531816785
15891759,0.16083514913905,0.0026889980515286,0.00087271946383378,0.00092288182407572,0.00089339676361908,-0.0002238528672095,0.00022365544980369,-4.4537497299633e-07,-2.4382773460797e-07,-5.3245922359249e-08,-4.3847055697327e-08,-0.00018980626222334,0.00018862420650681,-0.00022351777955774,0.00022335472271727,-0.00022341924493761,0.00022411625816167,-0.00019014870605983,0.00018870918688833,-0.00018981534574062,0.00018861645859439,-0.00022352625614216,0.0002233453042268,-0.00022342849748937,0.00022410761424093,-0.00024005351154099,0.00023983406515057,-0.00023995551603042,0.00024014766926695,-0.00024005053750827,0.00023983749169871,-0.00023995219257592,0.00024015074640122,-0.00022044374156122,0.00021962750361637,-0.00022013907591683,0.00021939177511526,-0.00022044639398391,0.00021962411137848,-0.00022014243118658,0.00021938908480587,-0.00019014105409271,0.00018871836868483,2.6954964851201e-09,-5.9773105175939e-09,-2.1311803993348e-08,1.815085609646e-08,-0.00025558405316162,0.00025558088198374,-0.00024862874197532,0.00024866702331182,-0.00025032172641922,0.00025031354185137,-0.00025022179496176,0.00025019670613239,-0.00026275976559658,0.00026274586675208,-0.00026277520434582,0.00026278915811073,-0.00026274963451686,0.00026272940154271,-0.00026281154441565,0.00026281916283975,-0.0002486651332847,0.00024862055553426,-0.00024876258135818,0.000248794871798,-0.00025032123944554,0.00025033983042224,-0.00024989701623493,0.00024989870089736,-0.00024856236209322,0.00024852377101531,1.0668372504229e-07,6.0631517372724e-07,-0.00023674223375692,0.00023681882232108,7.5658481345991e-08,3.4390660334095e-08,-0.00023274544632774,0.00023289524171895,-0.00023566808092447,0.00023449691496196,-0.00023581380970327,0.00023569499351664,-0.00023339133357706,0.00023659334339527,-0.00023270754296272,0.00023293381233963,-0.00023562823975264,0.00023453647357661,-0.00023577427221482,0.0002357348585886,-0.00024671549404874,0.00024674672253254,-0.0002467294824975,0.00024673259315112,-0.00024666567004195,0.00024651356900688,-0.00024667979405261,0.00024649957670298,-0.00023589818741113,0.000237023502306,-0.00023561660446322,0.0002358177471188,-0.00023560326650578,0.0002358314067055,-0.00023588454478534,0.00023703685561904,-0.00023342987360282,0.00023655540715642,0.7444907159995,122718,2924,0.00093188051189056,0.0010643534432217,0.00098609587461737,25.412305065894,0.00011849844052715,0.00011849844052715,0.00011849844052715,1828655.5810407,0.0029867937366939
16391759,0.20592235741829,0.003515041610637,0.0011228936780174,0.0012270200503691,0.0011651278822506,-0.00027731557238443,0.00027696222534132,-7.9604963530195e-07,-3.8979194173e-07,-9.1864964964625e-08,-7.1147167596311e-08,-0.00022384168472081,0.00022187777297758,-0.00027971454048705,0.00027940998379603,-0.00027952237232256,0.00028068561579058,-0.00022449835612487,0.00022197321972619,-0.00022386161233703,0.00022186015862177,-0.00027973344255218,0.00027938928534605,-0.00027954268504075,0.00028066632050756,-0.00029959686490757,0.00029920534702571,-0.00029940477246138,0.00029973207407853,-0.00029959023992203,0.00029921281286833,-0.00029939752537765,0.00029973891949064,-0.00027442013631501,0.0002729585904953,-0.00027383028592536,0.00027259507710842,-0.00027442616537038,0.00027295122167471,-0.00027383757176582,0.00027258896191464,-0.00022448097611497,0.00022199336870713,5.8559250303188e-09,-1.3440253493107e-08,-4.0893146537929e-08,3.3580165583977e-08,-0.00032920933972916,0.00032920200262016,-0.00032085529629812,0.00032092725305119,-0.00032320938223443,0.00032319542635809,-0.00032303929253758,0.00032298767679244,-0.00033659321401191,0.00033656677052021,-0.00033661841831619,0.00033664413562625,-0.00033657301689972,0.00033653277402548,-0.0003366709271726,0.00033668284423013,-0.00032095431342672,0.00032086779814551,-0.00032129349815196,0.00032135213966157,-0.00032320556795894,0.00032324215226781,-0.00032246852741959,0.00032246744364557,-0.00032075528320387,0.00032068205738559,2.2047207950305e-07,1.0000968887718e-06,-0.00029764948083284,0.00029777225708965,1.2774884928333e-07,5.0035218035729e-08,-0.000297104698882,0.00029742851125527,-0.00029942912008667,0.00029726194669691,-0.00029967190094792,0.00029949871259463,-0.0002983159638887,0.00030383358598258,-0.00029703332769522,0.00029750114850339,-0.00029935403300087,0.00029733645396545,-0.00029959742599865,0.00029957385336541,-0.00030994652745941,0.00031003070241173,-0.00030997284710597,0.00031000410595133,-0.00030990606100667,0.00030964181187922,-0.00030993264984157,0.00030961548995846,-0.00029907186601215,0.00030091754350001,-0.00029849048777066,0.00029890574792532,-0.00029846535828467,0.00029893149969574,-0.00029904614536403,0.00030094269813267,-0.00029838853876407,0.00030376214655009,0.75197985070181,122718,2924,0.001154097893821,0.0013707367937605,0.001239689439463,24.448059688689,0.00011078447750951,0.00011078447750951,0.00011078447750951,2098270.7576303,0.0037716325380487
16891759,0.25059341743756,0.0043844400049471,0.0013775928933875,0.0015567079196256,0.001450139191934,-0.00033289269928215,0.00033233956485728,-1.238043748325e-06,-5.6300583312213e-07,-1.3488276208555e-07,-9.943240874882e-08,-0.00025815318242273,0.00025546292885062,-0.00033939939601218,0.00033888357001172,-0.00033907869423518,0.00034077118800103,-0.00025924864911058,0.00025540664109615,-0.00025818723300299,0.00025543242577022,-0.00033943179538676,0.00033884820199131,-0.00033911335519946,0.00034073805986645,-0.00036153131149332,0.00036091615957578,-0.0003612131651514,0.00036170722514412,-0.00036151998473492,0.0003609288788267,-0.00036120081800239,0.00036171893221504,-0.0003305329450481,0.00032823506840233,-0.00032955740711369,0.00032764476295856,-0.00033054330704083,0.0003282225178908,-0.00032956980735504,0.00032763423801643,-0.00025921858126266,0.00025544108824967,9.7818964547926e-09,-2.3323039063027e-08,-6.9544077705398e-08,5.6477776329657e-08,-0.0004092517877359,0.00040923867928142,-0.00039986604855896,0.0003999872623326,-0.00040250001820369,0.0004024761968828,-0.00040224531836999,0.00040215682842123,-0.00041623042370159,0.00041618508959642,-0.00041626650696605,0.00041630951521265,-0.0004161991400701,0.00041613022363671,-0.000416350849064,0.00041637023765381,-0.0004000420287992,0.00039989480863352,-0.00040084432860893,0.00040094272643861,-0.00040249054999228,0.00040255217801357,-0.00040139697963176,0.00040139390679427,-0.00039972051307544,0.00039959603096487,3.7547706996094e-07,1.5058321685184e-06,-0.00036206792768592,0.00036223428519236,1.8533079228214e-07,5.4090090268151e-08,-0.00036602507606556,0.00036658692386055,-0.00036789649067424,0.00036439299155,-0.00036827334768143,0.00036801501499238,-0.00036788570376251,0.00037616448496074,-0.00036590429104765,0.00036670968211231,-0.00036776971455451,0.00036451879090822,-0.00036814755710052,0.00036814186395707,-0.00037663270132245,0.00037679198341114,-0.00037667712855057,0.0003767471204013,-0.00037660281978603,0.00037619621896546,-0.0003766476772157,0.00037615179761868,-0.00036695649087929,0.00036980698092823,-0.00036600143917069,0.0003667062256726,-0.00036595897816862,0.00036674967429157,-0.00036691309582783,0.0003698494811388,-0.00036800835253499,0.00037604358888807,0.80138220899585,122718,2924,0.0013849813220439,0.0017037112261132,0.0015078220570735,23.815146360451,0.00010572117088361,0.00010572117088361,0.00010572117088361,2452191.6611582,0.0046071091306495
17391759,0.29077037644333,0.0050747536573881,0.0015744858803174,0.0018269436702612,0.0016733241068095,-0.00037270348323322,0.00037193341316233,-1.6998596341224e-06,-7.4348284274238e-07,-1.8393839335734e-07,-1.344588102572e-07,-0.00027601802598776,0.00027254264993138,-0.00038124493185305,0.00038051587876336,-0.00038078166242354,0.00038302006254869,-0.00027759497166648,0.00027241874757616,-0.00027606552375075,0.0002724995595486,-0.00038129032037815,0.00038046651187703,-0.0003808300083743,0.00038297362594016,-0.00040924311476273,0.00040836483573425,-0.00040879261667391,0.00040942740600064,-0.00040922730512007,0.00040838246633931,-0.0004087755070031,0.00040944374673025,-0.0003683655006559,0.00036518097998405,-0.00036698738290472,0.00036438434026807,-0.00036838010149647,0.00036516361238464,-0.00036700453484488,0.00036436950581873,-0.00027755248288516,0.00027246679976444,1.3307359482199e-08,-3.3013194933107e-08,-9.8568818486638e-08,7.9541219873788e-08,-0.00047316716664184,0.00047314807854575,-0.00046153580408387,0.00046170638628988,-0.00046381421266131,0.00046377964435228,-0.00046344952191251,0.00046332440068638,-0.00048159017802651,0.00048152563942341,-0.00048163752641119,0.00048169693648079,-0.00048155005438309,0.000481452892338,-0.00048176724631197,0.00048179401435859,-0.0004617765242778,0.00046156807064861,-0.00046297603166427,0.00046311478947749,-0.00046380209885685,0.00046388809910844,-0.00046234547895667,0.00046234088476666,-0.00046134718044966,0.00046117043670769,5.3401123785483e-07,2.0038825565359e-06,-0.000409676795139,0.00040987500366526,2.4252667317579e-07,5.7363843670526e-08,-0.00041416186959336,0.0004149715233832,-0.00041678104893903,0.00041200920256866,-0.00041726702680784,0.00041691293750755,-0.00041669864436594,0.00042767800289406,-0.00041399067244493,0.00041514527843479,-0.00041660217086733,0.00041218680899447,-0.0004170894367373,0.00041709191875724,-0.00042834060944847,0.00042856606000885,-0.0004284031228689,0.00042850298389071,-0.00042832168592728,0.00042774403118109,-0.00042838476208442,0.00042768152941136,-0.00041685815618982,0.00042073388560242,-0.00041548940894205,0.00041648658851487,-0.00041542946776613,0.00041654781163538,-0.00041679700580784,0.00042079388379118,-0.00041687225251748,0.00042750664397484,0.7107781577386,122718,2924,0.0015501917574057,0.0019695084061936,0.0017059404094692,22.12293428017,9.2183474241361e-05,9.2183474241361e-05,9.2183474241361e-05,2692536.9523663,0.0052393399752865
17891759,0.32445503053462,0.0055541974864804,0.0017100400980454,0.0020178698392431,0.0018262875491919,-0.00039825246280559,0.00039735992269466,-1.9697348404666e-06,-8.2938457710041e-07,-2.2134620843259e-07,-1.620251457813e-07,-0.0002909900439855,0.00028718307399286,-0.00040802412199185,0.00040715042647074,-0.00040747282813074,0.00040999934863002,-0.00029286236326451,0.00028697226441234,-0.00029104757003151,0.00028713082655133,-0.00040807877642744,0.0004070909561751,-0.00040753102033893,0.00040994338339892,-0.0004402662708385,0.00043920953998085,-0.00043973405133054,0.00044046998124766,-0.00044024738010986,0.00043923062966453,-0.00043971360520506,0.00044048952793443,-0.0003910521489753,0.00038732659346014,-0.00038942601178656,0.00038646790761519,-0.00039106970087629,0.00038730572745912,-0.00038944660846917,0.00038645006742769,-0.00029281087899477,0.0002870305015732,1.4976497711341e-08,-4.0839589630916e-08,-1.2959475942679e-07,1.0456751869945e-07,-0.00051490973576814,0.00051488463725068,-0.0004996893586929,0.00049991194299405,-0.00050072504133675,0.00050067487828454,-0.00050028583171568,0.0005001264276563,-0.0005278905853492,0.00052780409091182,-0.00052793780165184,0.00052801348803195,-0.0005278413374554,0.00052771599772808,-0.00052811681392335,0.00052815364297452,-0.00049997310575615,0.00049970070156262,-0.00050131816146389,0.00050150257165794,-0.0005007017353949,0.00050080972971542,-0.00049910619453907,0.00049910489963605,-0.00049950396974589,0.00049926960313174,6.2585771195778e-07,2.3202089870167e-06,-0.00044003189958033,0.00044023032622391,2.8199910764966e-07,3.9227217691809e-08,-0.00044254720223233,0.00044347110065707,-0.00044799252810229,0.00044247728699695,-0.00044857302273239,0.00044812402496017,-0.00044527500624,0.00045759557027123,-0.00044232117771574,0.00044369993338334,-0.00044775762148166,0.00044271081534182,-0.00044833950783507,0.00044835904464197,-0.00046279271021133,0.000463057747497,-0.00046287460112832,0.00046297526354839,-0.00046274423720244,0.00046205856691632,-0.00046282673484142,0.00046197670249759,-0.0004462040198618,0.00045075761516391,-0.00044468967395701,0.00044584879161017,-0.00044461086577741,0.00044592898793604,-0.00044612391190005,0.00045083649278558,-0.00044550364987095,0.00045736933785056,0.59260256382937,122718,2924,0.0016562353397798,0.0021430538598754,0.0018321965254878,19.639121212857,7.2312969702854e-05,7.2312969702854e-05,7.2312969702854e-05,2998670.6229269,0.0056474043034279
18391759,0.35341266438658,0.0059646228895695,0.0018251172404836,0.0021820908275216,0.0019574148215643,-0.00042051867946062,0.00041952446544789,-2.1812503021126e-06,-8.9897634797158e-07,-2.5381463439491e-07,-1.8951522510508e-07,-0.00030592229772877,0.00030189136806707,-0.00043255626038441,0.00043154697212932,-0.00043193769609676,0.00043466266499469,-0.00030801606166313,0.0003015713501897,-0.00030598516244087,0.00030183442950491,-0.00043261559147492,0.00043148226261694,-0.00043200097877185,0.0004346018720539,-0.00046617379718859,0.00046497106156629,-0.00046557674301116,0.00046639660409661,-0.00046615337470506,0.00046499393229891,-0.00046555456298356,0.00046641772997912,-0.00041165299806098,0.00040749852058261,-0.00040983133507907,0.00040659042641211,-0.000411672001111,0.00040747579444846,-0.00040985376181806,0.00040657110375788,-0.00030795998804647,0.00030163502745945,1.5139040958073e-08,-4.5589246607119e-08,-1.6143370437761e-07,1.318979670325e-07,-0.00055026457503282,0.0005502349674618,-0.00053231431682341,0.00053259195281678,-0.00053193885169231,0.00053186914845769,-0.00053144568288763,0.00053125707133492,-0.00056715983049533,0.0005670503683017,-0.00056720148794487,0.00056729431232682,-0.0005671019192205,0.00056695050991714,-0.00056742972136146,0.00056748058761733,-0.00053266750736255,0.00053233106939156,-0.00053416452467087,0.00053440074059438,-0.00053189924720676,0.00053202725814606,-0.00053021791453978,0.00053022696543956,-0.00053215643892285,0.00053186126038309,6.9477978999771e-07,2.5686049508231e-06,-0.00046637842544465,0.0004665734390821,3.1569943599857e-07,1.2648696844979e-08,-0.00046889142904844,0.00046988369547014,-0.0004763396111737,0.00047019438825735,-0.00047701950937494,0.00047647961407382,-0.00047171910554502,0.00048513079569891,-0.00046860736999795,0.00047017056049581,-0.0004760459156194,0.00047048671100918,-0.00047672718461584,0.00047677342504161,-0.00049181015658391,0.00049210536866246,-0.00049191232208904,0.0004920026280556,-0.00049172720016542,0.00049096826770956,-0.0004918299659709,0.0004908661424895,-0.00047188223511638,0.00047697369656131,-0.00047028884017551,0.00047156474453565,-0.0004701901376026,0.00047166482572845,-0.00047178225017595,0.00047707247521843,-0.00047200575287515,0.0004848464915233,0.59387052420227,122718,2924,0.0017486533737001,0.0022900201777009,0.0019417594696967,17.515533846477,5.5324270771817e-05,5.5324270771817e-05,5.5324270771817e-05,3256073.920518,0.0059983903708758
18891759,0.38140413518472,0.00639890363578,0.0019454321386033,0.0023566743725641,0.0020967971246126,-0.00044584772604537,0.00044467335676056,-2.5344081102047e-06,-1.0515933228062e-06,-3.0187090434323e-07,-2.2826766606114e-07,-0.00031612609802892,0.00031147200590365,-0.00046083160309593,0.00045961985542226,-0.00046010738790953,0.00046322337764469,-0.00031857085239367,0.0003111087852928,-0.00031619781066915,0.00031140680260582,-0.00046089950589667,0.00045954591248106,-0.0004601797145681,0.00046315381068288,-0.00049648535443851,0.00049507204866133,-0.00049578806297659,0.00049671540951096,-0.00049646194410542,0.00049509824679313,-0.0004957626393631,0.00049673961176436,-0.00043623565028964,0.00043139827393565,-0.0004341132478425,0.00043035078886268,-0.00043625741096134,0.00043137227385841,-0.00043413890556114,0.00043032865974492,-0.00031850663036392,0.00031118140987479,1.7147529448819e-08,-5.2307061908164e-08,-1.9575529097961e-07,1.6162501428949e-07,-0.00059280167158679,0.00059276746481456,-0.00057310856769877,0.00057344720554662,-0.00057235607005599,0.00057226867353571,-0.00057179063630274,0.00057156735300966,-0.00061125235637018,0.00061111958716028,-0.00061129304942829,0.00061140628742283,-0.00061118511783883,0.00061100420850017,-0.0006115665319657,0.00061163159830043,-0.00057355820736768,0.00057315162332874,-0.00057537786215587,0.00057566910515559,-0.00057230414643349,0.00057245744368668,-0.00057036053338965,0.00057037787798744,-0.00057295659917319,0.00057259720416635,8.1069129405085e-07,2.9247204895758e-06,-0.00049711801465471,0.00049733657439335,3.6112210051104e-07,-7.2764654337111e-09,-0.00050167309778547,0.00050282029300527,-0.00050985835697805,0.00050270933206617,-0.00051064709994009,0.00051001299352991,-0.00050496816630722,0.00052051352614984,-0.00050132689921978,0.00050316971941091,-0.00050950114640561,0.00050306496666821,-0.00051029142915967,0.00051037031995678,-0.00052495837541656,0.00052530672333281,-0.00052508253628914,0.00052518190389669,-0.0005248787455613,0.0005240173456629,-0.00052500359746511,0.00052389323643529,-0.0005043492013777,0.00051015476042372,-0.00050247366864585,0.00050395530026811,-0.00050235350955516,0.00050407704976819,-0.00050422756073356,0.00051027499839141,-0.0005053173514999,0.00052016707180097,0.65137566946256,122718,2924,0.0018536521705472,0.0024668111219901,0.0020696344513801,16.908316409069,5.0466531272554e-05,5.0466531272554e-05,5.0466531272554e-05,3347929.4277863,0.006410602836012
19391759,0.41090709613791,0.0069025460807113,0.0020831339539956,0.0025616054833106,0.0022578066434051,-0.00047657700153286,0.000475162096009,-3.0096343229205e-06,-1.254893449274e-06,-3.5942135298827e-07,-2.7018743258843e-07,-0.00032668144685311,0.0003211547143337,-0.00049527472315975,0.00049380982119378,-0.00049440487501842,0.00049805786210953,-0.00032961546012574,0.00032077616946497,-0.00032676779197696,0.00032107527914669,-0.00049535719534427,0.00049372048733685,-0.00049449226029676,0.00049797339492259,-0.00053337643928139,0.00053168775585192,-0.00053254444413173,0.00053360277286977,-0.00053334797073331,0.00053171943359077,-0.00053251369988263,0.00053363219176984,-0.0004663869111828,0.00046063829525473,-0.00046385961996489,0.00045938921795586,-0.00046641348255923,0.00046060696669868,-0.000463890536565,0.00045936220837247,-0.00032953716952496,0.00032086358392152,2.130772540288e-08,-6.2896610606485e-08,-2.3355458008622e-07,1.9320438658335e-07,-0.0006454966117644,0.00064545616810673,-0.00062469870099163,0.00062510396162137,-0.00062353136379282,0.0006234286821191,-0.00062286646495711,0.00062259909791402,-0.00066424761507229,0.00066409024715501,-0.00066429361890742,0.00066442946131557,-0.00066417275954337,0.00066395690485016,-0.00066462305980138,0.00066470039617673,-0.0006252566285333,0.00062477103409025,-0.00062757689653716,0.00062792469285477,-0.00062347173688073,0.00062365633127323,-0.00062114329155578,0.0006211631330646,-0.00062453044115707,0.00062410207344014,9.6772107218939e-07,3.401273947759e-06,-0.00053436361342155,0.00053460928480957,4.1335137481287e-07,-2.594043903532e-08,-0.00054174086180536,0.00054311718038436,-0.00055027940976731,0.000541770368847,-0.00055119121218492,0.0005504442324556,-0.00054574754015261,0.00056425979852589,-0.00054132752581448,0.00054353438137846,-0.00054985342661709,0.00054219449278793,-0.00055076705291649,0.00055087034427301,-0.00056492972791826,0.00056534209930973,-0.00056507767026687,0.00056519335981252,-0.00056487567735555,0.00056385610457916,-0.00056502445223224,0.00056370821697988,-0.00054506093943951,0.00055181654759436,-0.00054275286138499,0.00054451730828178,-0.00054260951349161,0.00054466257775112,-0.00054491579609067,0.00055195998795341,-0.00054616447719728,0.00056384616501455,0.71635337683096,122718,2924,0.0019809853699091,0.002685771076511,0.002224550665236,17.474277820135,5.4994222561081e-05,5.4994222561081e-05,5.4994222561081e-05,3406077.2346187,0.006915156845442
19891759,0.44329479777653,0.0074164031824211,0.00222227659889,0.0027746067572131,0.002419519826318,-0.00050835131220733,0.00050666945714621,-3.5376400161572e-06,-1.473035303308e-06,-4.2383706796481e-07,-3.1498578754223e-07,-0.00033744613917602,0.00033091528353729,-0.00052996284981066,0.00052823760598132,-0.00052892560844017,0.00053317855203982,-0.00034094484524926,0.00033061787803453,-0.00033755102839586,0.0003308178925058,-0.0005300636852468,0.0005281288774639,-0.00052903197566225,0.00053307530642299,-0.00057245501811591,0.00057044023768241,-0.00057147256275764,0.00057266069838,-0.00057242022611772,0.00057047874791175,-0.00057143519459471,0.00057269665050077,-0.00049641634108335,0.00048964762313694,-0.00049343739539425,0.00048819225670435,-0.00049644896402501,0.00048960961811898,-0.0004934749019726,0.00048815910921737,-0.00034084879247912,0.00033072403239145,2.6474698836374e-08,-7.6292641492922e-08,-2.7518823215885e-07,2.268822662113e-07,-0.00070149441046685,0.0007014459893284,-0.00067850058806495,0.00067897776676525,-0.00067676412206154,0.00067664612394323,-0.00067596771734252,0.00067564871437068,-0.00072177353352755,0.00072158902552877,-0.00072182615227398,0.00072198620869112,-0.00072168884302103,0.00072143299267993,-0.00072221762154661,0.00072230632198869,-0.00067915247251513,0.00067857911984072,-0.0006819631747686,0.00068237025523983,-0.000676699060936,0.00067691892963701,-0.00067394895434188,0.00067396774969863,-0.00067830803454708,0.00067780450391251,1.1441436091397e-06,3.9374666637887e-06,-0.00057244256547808,0.00057271282185594,4.7413419681057e-07,-4.2458875871134e-08,-0.00058058453862129,0.0005822211742502,-0.00059058978766648,0.00058064050755279,-0.00059162104497481,0.0005907462644879,-0.00058534774272375,0.00060701100755404,-0.00058009822659634,0.00058271210586263,-0.00059008887097537,0.00058113922480651,-0.00059112229717299,0.00059124732957594,-0.00060705731730813,0.00060754203426726,-0.00060723120014249,0.00060736720031046,-0.0006070267149789,0.00060580945487612,-0.00060720159382058,0.00060563563847901,-0.00058594812410482,0.00059379421889071,-0.00058315867224988,0.00058523968469951,-0.00058299010308649,0.00058541056042072,-0.00058577739657436,0.000593962898715,-0.00058583837967616,0.00060652435235065,0.66678161365177,122718,2924,0.0021125997141715,0.0029183953095589,0.0023829029753491,18.684645103867,6.4677160830935e-05,6.4677160830935e-05,6.4677160830935e-05,3486738.0966175,0.0074415093043751
20391759,0.47534177494503,0.0079735446630825,0.0023725714727251,0.0030068945882214,0.002594078602136,-0.000541676392361,0.00053974725393898,-4.0154104408011e-06,-1.656588806661e-06,-4.8158659089261e-07,-3.5232708974756e-07,-0.00035506712754599,0.00034784746272682,-0.00056803941247173,0.00056606101276241,-0.00056684734904665,0.00057156661146914,-0.00035908940560095,0.00034747128371906,-0.00035519166163044,0.0003477311343323,-0.00056815942164229,0.00056593191472715,-0.00056697358570137,0.00057144369315029,-0.00061116679528965,0.00060883080687719,-0.00061004623215002,0.00061133777256555,-0.00061112546523793,0.00060887639674794,-0.00061000201238172,0.00061138048980324,-0.00052837875483917,0.00052066491071706,-0.00052498325718432,0.00051901411412991,-0.00052841767448204,0.00052061993105589,-0.00052502763467597,0.00051897456546218,-0.0003589746855248,0.0003475973396873,3.114087035539e-08,-9.1068381811418e-08,-3.2312829117766e-07,2.6502856162692e-07,-0.00075831533012503,0.0007582570899021,-0.00073391665288346,0.00073447481579855,-0.00073011091132359,0.00072997303021919,-0.00072918293488212,0.00072880592502074,-0.00078026217301801,0.00078004530796743,-0.00078031676977542,0.00078050293794064,-0.00078016267421289,0.00077986128754013,-0.00078078121571015,0.00078088286196187,-0.00073467692017241,0.0007340030891157,-0.00073802116555167,0.00073849605885148,-0.00073003290509861,0.0007302906332812,-0.00072697816747448,0.00072699669476828,-0.00073372574831404,0.00073313485174245,1.3017870234475e-06,4.4496088838585e-06,-0.00061184314680357,0.00061211723592436,5.3004993068552e-07,-7.4770570158495e-08,-0.00062265394192525,0.00062450463594175,-0.00063364173982797,0.00062230219576085,-0.00063481669966408,0.0006337963352376,-0.00062793241790566,0.00065238748691536,-0.00062208391828221,0.0006250799771794,-0.00063305515159215,0.00062288627950335,-0.0006342325899176,0.00063438309632416,-0.00064926186172317,0.00064981016763588,-0.00064946532984883,0.0006496056255922,-0.00064922936940768,0.00064782588602983,-0.00064943397368094,0.00064762250453209,-0.00062835842356629,0.00063731373743251,-0.00062518799245499,0.00062754642932261,-0.00062499059894596,0.00062774646908233,-0.00062815856037836,0.00063751126801812,-0.00062850740427154,0.00065181703662859,0.7310461920672,122718,2924,0.0022506801828963,0.0031543812470947,0.0025466808687882,18.606952379608,6.4055619036866e-05,6.4055619036866e-05,6.4055619036866e-05,3652954.550941,0.0079835057068672
20891759,0.50442599083277,0.0084455184123159,0.002498351555026,0.0032070213518116,0.0027401455054783,-0.0005652682592422,0.00056303451970628,-4.6060553138271e-06,-1.9143778937522e-06,-5.5147596181171e-07,-3.9706277571455e-07,-0.00035664688354159,0.00034826559751167,-0.00059430438339061,0.0005920401142458,-0.00059292056601979,0.00059832163435811,-0.0003613158720901,0.00034803762517349,-0.00035679496021735,0.00034812603566666,-0.00059444805615801,0.00059188629926222,-0.00059307101282601,0.0005981745248895,-0.0006423853928158,0.00063968329245423,-0.00064109736347713,0.00064252383136779,-0.00064233590020432,0.00063973757147946,-0.00064104471899447,0.00064257497947817,-0.00055017762907062,0.00054132903955392,-0.00054628332352251,0.00053943530195685,-0.00055022443315697,0.00054127562682108,-0.00054633602963702,0.00053938776063793,-0.00036117813299264,0.00034818743833783,3.7935464459498e-08,-1.0807379436062e-07,-3.7123653254023e-07,3.0327767634423e-07,-0.00080689360916202,0.00080682547924462,-0.00078036356382183,0.00078100432440819,-0.00077630893235764,0.00077615521419067,-0.00077523320849533,0.00077479381397291,-0.00083000858843612,0.00082976092422177,-0.00083006845085648,0.00083028233545039,-0.00082989745976794,0.0008295487865521,-0.00083058778070194,0.0008307006726591,-0.0007812361778692,0.00078046012860898,-0.0007850746083644,0.00078561590576016,-0.00077622701256382,0.00077652683396194,-0.0007726786616813,0.00077269271230546,-0.00078014980449186,0.00077947283238596,1.4996421580335e-06,5.013923438246e-06,-0.00064110325074844,0.0006414142941362,5.9964792417091e-07,-9.351096093192e-08,-0.00065266303861857,0.00065480730840949,-0.00066494706136469,0.00065208255888521,-0.00066623098764602,0.00066506884369978,-0.0006588316707135,0.00068672486045856,-0.00065200924358817,0.00065546738114086,-0.00066427471905947,0.00065275197998411,-0.00066556155247945,0.00066574139333582,-0.00068271064819859,0.00068334090771783,-0.00068294368354112,0.00068310660290739,-0.00068272138508732,0.00068110241672862,-0.00068295576320151,0.00068086948019006,-0.00066091590577163,0.0006710491475434,-0.00065716490962422,0.00065987463956436,-0.00065693865101638,0.0006601040365558,-0.00066068671386502,0.0006712755646448,-0.0006594913481036,0.00068607058025665,0.68432815189094,122718,2924,0.0023481807411382,0.0033560734273922,0.0026683644580352,17.403167164153,5.4425337313222e-05,5.4425337313222e-05,5.4425337313222e-05,3705014.2409501,0.0084078442221614
21391759,0.52917798461934,0.0088383320534228,0.0026030890154007,0.0033745672389117,0.0028606757991104,-0.00058410534597655,0.00058167420978969,-4.9887295613403e-06,-2.0571407753965e-06,-6.0064027278412e-07,-4.2140236254001e-07,-0.00036430765693118,0.00035543087143726,-0.00061622533350754,0.00061377044724568,-0.00061471255167123,0.00062050250417769,-0.00036941756163616,0.00035513134284726,-0.00036447983047035,0.00035526752809952,-0.00061639270707721,0.00061359187000429,-0.00061488716853296,0.00062033108695624,-0.00066579810282237,0.00066282885606332,-0.00066439869694575,0.00066591290458268,-0.00066574064269035,0.00066289161568045,-0.00066433788006946,0.00066597233073287,-0.00056714089068828,0.00055753079896317,-0.0005629110301134,0.00055549716433332,-0.00056719558339654,0.00055746900427283,-0.00056297199774595,0.00055544161092116,-0.00036925636480351,0.00035530556760015,4.3749628838017e-08,-1.2625251733367e-07,-4.2598181661514e-07,3.4604934471915e-07,-0.00084413095678812,0.00084405082005533,-0.00081550551807939,0.00081623783693572,-0.00080988372430967,0.0008097086684851,-0.00080869605919511,0.00080818818377651,-0.00086980160735941,0.00086951724684302,-0.00086985289741576,0.00087009571842555,-0.00086967881720245,0.00086927745248489,-0.0008704301992176,0.00087055604035473,-0.000816481979703,0.00081559052988628,-0.00082061650223652,0.00082123322543037,-0.00080978306046093,0.00081012673676936,-0.0008060029152044,0.00080601366329538,-0.00081532155299226,0.00081454527360896,1.6246552369918e-06,5.4132710988768e-06,-0.00066401900795258,0.00066432987785093,6.5701950921661e-07,-1.3525271142486e-07,-0.00067642684718176,0.00067871105218895,-0.0006902473592673,0.00067633070847269,-0.0006916396181582,0.00069032496635599,-0.00068293884060153,0.00071285924828035,-0.00067567781480367,0.00067946700072294,-0.00068947837118453,0.00067709654916057,-0.00069087379424116,0.00069109420520943,-0.00070842641286864,0.00070911108263493,-0.00070869259183133,0.00070884353481182,-0.00070843009459627,0.00070666097481673,-0.00070869772834455,0.00070639490898807,-0.00068532270241323,0.00069634762913833,-0.00068127640279627,0.00068419576256646,-0.00068101755521475,0.00068445804141515,-0.00068506066654567,0.00069660666886037,-0.00068369430280815,0.00071210961513935,0.67004884739747,122718,2924,0.0024261073386254,0.0035106452260729,0.0027635928317146,15.325473927611,3.7803791420892e-05,3.7803791420892e-05,3.7803791420892e-05,3837546.289543,0.0087383873264518
21891759,0.55131522485867,0.0091785226728387,0.0026931816810782,0.0035207680420681,0.0029645729496923,-0.00060056986108588,0.00059792723524061,-5.387802687838e-06,-2.2276100996456e-06,-6.5320504820493e-07,-4.5111620341766e-07,-0.00036805625130473,0.00035851271364243,-0.00063511881453282,0.00063246422111537,-0.00063347455598455,0.00063968879460839,-0.00037361226635359,0.00035824380760025,-0.00036825030508483,0.00035832757285918,-0.00063530798678123,0.00063226301102645,-0.00063367128921357,0.00063949505240388,-0.00068707963906,0.00068384055257898,-0.00068556683038279,0.00068716738917884,-0.00068701478938392,0.00068391112049525,-0.00068549846919414,0.00068723447056217,-0.00058197078687004,0.00057157854640875,-0.00057740297414347,0.00056939429775073,-0.00058203277498674,0.00057150909071971,-0.00057747149990213,0.00056933134527945,-0.0003734295237683,0.00035844016080132,4.9168059377566e-08,-1.4281572864386e-07,-4.7847206070595e-07,3.8773426519103e-07,-0.00087806125158444,0.00087797027996124,-0.00084740293826542,0.00084822403061102,-0.00084100183160485,0.00084080577662527,-0.00083970697613966,0.00083913498281125,-0.00090572889663478,0.00090540960545867,-0.00090577207263697,0.00090604318694774,-0.00090559533795046,0.0009051442337811,-0.00090639683857978,0.00090653617596697,-0.00084848437544311,0.00084748263035287,-0.00085291230050449,0.00085360298412949,-0.00084088553067627,0.00084127112730041,-0.00083682398362335,0.00083683352119049,-0.00084724340200745,0.00084637160705511,1.7524741413673e-06,5.7972868104431e-06,-0.00068415825456885,0.00068448088294384,7.1481768975198e-07,-1.7293683224619e-07,-0.00069722632179018,0.00069966047250894,-0.00071232017725129,0.00069735413926191,-0.00071380231280298,0.00071234292297645,-0.00070419708660348,0.0007362905714275,-0.00069638535240745,0.0007005089807109,-0.00071145804337301,0.00069821288254671,-0.00071294360178097,0.00071320533093722,-0.0007314187572625,0.0007321589181722,-0.00073171684671343,0.00073185935661905,-0.00073143225101208,0.00072951990453874,-0.00073173191438151,0.00072922194605867,-0.00070713223527426,0.00071899233002472,-0.00070273903102021,0.00070587283954425,-0.00070244873604287,0.00070616686382437,-0.00070683848127847,0.00071928283791409,-0.00070504504955214,0.00073544892461827,0.65030596713663,122718,2924,0.0024941420535847,0.0036514648658122,0.002847301768143,13.95122296002,2.6809783680162e-05,2.6809783680162e-05,2.6809783680162e-05,3914431.7851363,0.0090335592020347
22391759,0.57444116583595,0.0095437170539162,0.002789523223394,0.0036783233652249,0.0030758704652972,-0.00062293434646253,0.00062005881748408,-5.8157681564556e-06,-2.4157970871112e-06,-7.0844705665434e-07,-4.8242955867527e-07,-0.00037726604523565,0.00036702599254525,-0.00066044515496663,0.00065757218853459,-0.00065866046671242,0.00066531267425645,-0.00038329918634425,0.00036677731723465,-0.00037748294969679,0.00036681809516526,-0.00066065711276064,0.00065734729774373,-0.00065888033466739,0.00066509558808411,-0.00071426958823153,0.00071073868860087,-0.00071263683937719,0.00071432111275676,-0.000714196991722,0.00071081744204997,-0.00071256056122137,0.00071439621257264,-0.00060278402077824,0.0005915491212821,-0.00059785842431755,0.00058918418224344,-0.00060285363160291,0.00059147164457124,-0.00059793486433991,0.00058911349904289,-0.00038309395033663,0.00036699677803262,5.4595022556198e-08,-1.6035024186771e-07,-5.3383639708824e-07,4.3135186531887e-07,-0.00091896268450311,0.00091885993518338,-0.00088646602311495,0.00088737998819089,-0.00087901558978577,0.0008787969017415,-0.00087760219463532,0.00087696255482386,-0.00094848114830838,0.00094812469824033,-0.00094851642209966,0.00094881687964907,-0.00094833477007029,0.00094783101126602,-0.00094919158792627,0.00094934478058572,-0.00088766120035446,0.00088654318349218,-0.00089243742032762,0.00089320548502301,-0.00087888348080226,0.00087931259426409,-0.00087451955227411,0.00087452757980233,-0.00088633159769014,0.00088535898339001,1.8874167187142e-06,6.2145820672244e-06,-0.00071028145540296,0.00071061679443003,7.7519971019353e-07,-2.129674726884e-07,-0.00072445746390382,0.00072705100397135,-0.00074079379439745,0.00072468488824546,-0.0007423772041781,0.00074076283557237,-0.00073191390229355,0.00076636740093483,-0.00072351992172521,0.00072799677832183,-0.00073983374549776,0.0007256412776105,-0.00074142086270783,0.00074172318586735,-0.00076033768174361,0.00076113556373894,-0.00076066933324762,0.00076080232705332,-0.00076036071580906,0.00075829741793797,-0.00076069407241367,0.00075796591721503,-0.00073534109571624,0.00074812020170672,-0.00073057431277862,0.00073393433718362,-0.00073025096666316,0.00073426174174608,-0.00073501399000368,0.00074844378207557,-0.00073285906518108,0.0007654290921319,0.66901198509521,122718,2924,0.0025866519007779,0.0038211951320108,0.0029558665839444,14.801033806611,3.3608270452892e-05,3.3608270452892e-05,3.3608270452892e-05,3980258.8842481,0.009407791597407
22891759,0.597947432845,0.0098724563075748,0.0028762547283799,0.0038212564586952,0.0031749451204997,-0.00064147704762845,0.00063835549006628,-6.2845611527256e-06,-2.6248800883146e-06,-7.717641067723e-07,-5.1939255484901e-07,-0.00038058142006552,0.00036942209636001,-0.0006808479953011,0.00067775111277365,-0.00067890858513736,0.000686102198857,-0.00038714068628626,0.00036932950711542,-0.00038082336476194,0.00036918922217311,-0.00068108507714006,0.00067750022409452,-0.0006791539130104,0.00068585944035508,-0.00073870567233892,0.00073486408726361,-0.00073694098675433,0.00073872517994132,-0.00073862452052633,0.00073495186108999,-0.00073685598122432,0.00073880913129084,-0.00061935294917718,0.00060720769077433,-0.00061403590079477,0.00060467264893938,-0.000619430974047,0.0006071214007941,-0.00061412104737639,0.00060459344438051,-0.00038691069835564,0.00036957423323115,6.1038022562191e-08,-1.7915485372456e-07,-5.9040550996735e-07,4.7593205577736e-07,-0.00095652976921039,0.00095641500146818,-0.00092131367140255,0.00092232311937534,-0.00091369447172168,0.00091345440953858,-0.00091215592150951,0.0009114454351074,-0.00098839403650144,0.00098800023906269,-0.00098842113666357,0.00098875232191202,-0.00098823793293863,0.00098767965296777,-0.00098914409748967,0.00098931085588247,-0.00092261796088139,0.00092138058333427,-0.00092767741366137,0.00092852391892305,-0.00091354893967757,0.0009140242865805,-0.0009088124662581,0.00090881725302351,-0.00092119644806684,0.00092012147893223,2.0388761541717e-06,6.6557921572235e-06,-0.00073217328377909,0.00073253360120998,8.4247820508058e-07,-2.4830790504671e-07,-0.00074598169169551,0.00074876387617134,-0.00076435320012741,0.00074706928446633,-0.00076602602616335,0.00076425603429872,-0.00075404351770126,0.00079105799246797,-0.00074494550412056,0.00074980907726163,-0.00076329309518098,0.00074812542335766,-0.0007649699485556,0.00076531646380537,-0.00078597771985363,0.00078684213132011,-0.00078634367926718,0.00078647445287011,-0.00078602149157664,0.00078379593609615,-0.00078638931044673,0.00078343014773057,-0.00075882380230112,0.00077252912088825,-0.00075362859696065,0.00075724544034879,-0.00075327146552873,0.00075760701099156,-0.00075846255671435,0.00077288650472745,-0.00075508805767246,0.00079002098764691,0.59348875359801,122718,2924,0.0026632524618473,0.0039770531300091,0.0030468699924143,15.341191408243,3.7929531265943e-05,3.7929531265943e-05,3.7929531265943e-05,4009330.1249035,0.009734363200504
23391759,0.62131401829496,0.010216969633098,0.0029672516605488,0.0039707831595784,0.0032789348129707,-0.00066225811483109,0.00065895089177234,-6.6186585739777e-06,-2.7564273042203e-06,-8.1685098247352e-07,-5.4312859623788e-07,-0.00039363589257124,0.00038212987821671,-0.00070506539653356,0.00070178583593264,-0.00070301222341026,0.00071048883875494,-0.00040057762379759,0.0003819287103801,-0.00039389864109137,0.00038187641222784,-0.00070532291072923,0.00070151359793228,-0.00070327834656905,0.00071022508354358,-0.00076295262451113,0.00075885473887566,-0.00076109320360216,0.00076293789115022,-0.00076286460423942,0.00075894980746734,-0.00076100116090312,0.00076302897038927,-0.00063828140079924,0.00062545430816863,-0.00063267984615679,0.00062278742948095,-0.00063836622704268,0.00062536079708006,-0.00063277210635656,0.00062270131533282,-0.00040032735608245,0.00038219454734364,6.434643342729e-08,-1.9647848557547e-07,-6.4736611027523e-07,5.192260186294e-07,-0.00099341122966646,0.00099328277174518,-0.00095598383318235,0.000957084723687,-0.00094648757920699,0.00094622029704701,-0.00094483837791742,0.00094406017049022,-0.0010283967226009,0.001027962527817,-0.0010284102919013,0.0010287683970912,-0.0010282246495743,0.0010276123486075,-0.0010291896642123,0.0010293697248341,-0.00095739543106208,0.00095603938376264,-0.00096269940229825,0.00096362351806295,-0.00094632012272156,0.00094683518932867,-0.00094141853307501,0.00094142252777556,-0.00095591767481153,0.00095473782639262,2.1408027923753e-06,7.0091945779811e-06,-0.00075609604273603,0.00075645322192027,8.9722753517057e-07,-2.9522533758618e-07,-0.00077119467618728,0.00077407018390521,-0.00079100855570061,0.00077281586918257,-0.00079279307828245,0.00079086752764445,-0.00077944304801392,0.00081811422495878,-0.00077006039565534,0.00077521400104969,-0.00078984919974666,0.00077397107367195,-0.0007916379350469,0.00079202721656577,-0.00081212739466961,0.00081303519377031,-0.00081252736090944,0.00081263346030006,-0.00081214666424685,0.00080979674256665,-0.00081254856946178,0.00080939697940015,-0.00078375597279319,0.0007982962008821,-0.00077834263215957,0.00078212294580355,-0.00077795198580571,0.00078251824393797,-0.00078336102773764,0.00079868712288903,-0.00078058611355613,0.00081697901914521,0.62584069172871,122718,2924,0.002749252376462,0.0041300488448423,0.0031462398233954,15.634100745128,4.0272805961025e-05,4.0272805961025e-05,4.0272805961025e-05,4124203.29313,0.010076085445266
23891759,0.64603074021219,0.010635983042325,0.0030768156381688,0.0041532488922953,0.0034059185118604,-0.00068716029962755,0.00068349426342128,-7.2794182125982e-06,-3.0771747872087e-06,-8.9376022929837e-07,-5.8850244010349e-07,-0.00039698344571768,0.00038409875854596,-0.00073361797362561,0.00073001436117603,-0.00073134895348985,0.00073955621647711,-0.00040465667229962,0.00038415829926275,-0.00039727534340519,0.00038381613111208,-0.00073390521955554,0.00072971134974766,-0.00073164522781373,0.00073926209527105,-0.00079459459298028,0.00079007953223661,-0.00079255228008128,0.00079451966706245,-0.00079449623716397,0.00079018546179781,-0.00079244967624607,0.00079462138533203,-0.00066222222793023,0.00064811842467172,-0.00065608081667911,0.00064513724087299,-0.00066231702864635,0.00064801445456715,-0.00065618341913395,0.00064504103433729,-0.00040437743658627,0.00038445348157119,7.2705719730772e-08,-2.1782093138604e-07,-7.0477322378841e-07,5.6407875633016e-07,-0.0010427617419662,0.0010426206879132,-0.0010040930952747,0.0010052914810592,-0.00099435757257971,0.00099407213726121,-0.00099254076638613,0.00099168638974996,-0.0010777727118525,0.0010773019014374,-0.0010777879948223,0.0010781785241896,-0.0010775844849192,0.0010769148333736,-0.0010786141223493,0.0010788058911862,-0.0010056513891033,0.001004172837431,-0.0010115602502045,0.0010125616545666,-0.00099418663595059,0.0009947520288459,-0.00098871649236573,0.00098871280120722,-0.0010040149089409,0.0010027327203358,2.3576086353317e-06,7.6073457694256e-06,-0.00078523673703242,0.00078565004969225,9.7601525058385e-07,-3.2058379786809e-07,-0.00080233482561758,0.00080552957714735,-0.000823200852229,0.00080331203363667,-0.00082509683658743,0.0008230127467138,-0.0008115978877917,0.00085415819617123,-0.0008011013182046,0.00080677385752983,-0.00082194020499141,0.00080456798975302,-0.00082384094769028,0.00082427373795651,-0.00084479494621721,0.00084579714969269,-0.00084522972205198,0.00084536036230949,-0.00084487589121051,0.00084231255603359,-0.00084531287426806,0.0008418780078547,-0.00081729588068578,0.00083311624452578,-0.00081119270345984,0.00081535218741386,-0.00081076795322238,0.00081578221626107,-0.00081686622116471,0.00083354127511198,-0.00081284139323183,0.00085292372102431,0.72029407872103,122718,2924,0.0028520579116692,0.0043347247759156,0.0032674011846563,16.931084137779,5.0648673102232e-05,5.0648673102232e-05,5.0648673102232e-05,4112640.2510276,0.010509154462277
24391759,0.67130229588953,0.011050361754448,0.0031855326347668,0.0043350950479712,0.0035297340717097,-0.0007093652671574,0.00070529830470391,-8.0632817154347e-06,-3.4380723372594e-06,-9.8389002331828e-07,-6.3476467691872e-07,-0.00039353672500425,0.00037890848808569,-0.00075845265726748,0.00075450618979391,-0.00075591886845003,0.00076511321975848,-0.0004021189101397,0.00037938854610444,-0.00039386950906883,0.0003785849758923,-0.00075878145057362,0.00075416029430882,-0.00075625723097368,0.00076477674019193,-0.0008253322589527,0.00082033537884094,-0.00082306803211368,0.00082517842436009,-0.00082521960477906,0.00082045633158936,-0.00082295086043658,0.00082529490393092,-0.00068305236885124,0.0006674539134261,-0.00067625562284026,0.00066412046204752,-0.00068316113214443,0.00066733539622421,-0.0006763726228644,0.000664010144759,-0.00040179900720863,0.00037972483449486,8.5770299999666e-08,-2.4637760865529e-07,-7.684713710735e-07,6.1288031332904e-07,-0.0010924436511654,0.0010922876448161,-0.001051760137624,0.0010530676392533,-0.0010426123208307,0.0010423145350478,-0.0010405981319043,0.0010396499462631,-0.001127579364874,0.0011270700638709,-0.0011275982533581,0.0011280265192611,-0.0011273819597357,0.0011266450007516,-0.0011284739322376,0.0011286746380848,-0.0010534716724445,0.0010518543410025,-0.0010599686859446,0.0010610509579413,-0.0010424437571899,0.0010430722126222,-0.0010362266231201,0.0010362045419486,-0.0010516525137748,0.0010502597562071,2.6287534133151e-06,8.3241912949858e-06,-0.00081105385911669,0.00081154285911221,1.0740917613617e-06,-3.3732854623732e-07,-0.00082805236914802,0.00083166226491626,-0.00085152790214403,0.00082968464459838,-0.00085352947637381,0.00085127963656063,-0.0008386209426318,0.00088577510738806,-0.00082670981533515,0.00083301705499199,-0.0008501556991834,0.00083105153100881,-0.00085216269968896,0.00085265221959242,-0.00087573233257419,0.00087685602065655,-0.00087620548650027,0.00087638055247469,-0.00087590213864555,0.00087307162274971,-0.0008763778216339,0.00087259871522591,-0.00084760266331849,0.00086489868421948,-0.00084064786119381,0.00084528588613601,-0.00084018554407273,0.00084575423745644,-0.00084713470418776,0.00086536128900626,-0.00083997493599083,0.00088443154158569,0.6966732932835,122718,2924,0.002943583664142,0.004540711465436,0.003374793666222,17.854570506042,5.8036564048337e-05,5.8036564048337e-05,5.8036564048337e-05,4057087.6163783,0.010918419243235
24891759,0.69618216964023,0.011409824629065,0.0032809957109154,0.004493285136411,0.0036355437817385,-0.00072941038154031,0.00072508952294008,-8.5670123403788e-06,-3.6328857279256e-06,-1.0498950134764e-06,-6.5881344218487e-07,-0.00040128921619874,0.00038591759612726,-0.00078132971057286,0.00077716673392297,-0.00077861743800576,0.00078839885474775,-0.00041048713509394,0.00038642470431809,-0.00040166247495514,0.00038555389324479,-0.00078169870255499,0.00077677913375951,-0.00077899658471364,0.00078802124596524,-0.0008509257174889,0.00084556665091504,-0.00084851700586701,0.00085071242455733,-0.00085079955582768,0.00084570190688214,-0.00084838606738429,0.00085084295387338,-0.0007005221364719,0.00068392609757936,-0.00069329193420791,0.00068041115090415,-0.0007006443179863,0.00068379351316715,-0.00069342282111181,0.00068028723766057,-0.00041012748162679,0.00038680189487425,9.559269006073e-08,-2.7695384029288e-07,-8.3848235081027e-07,6.6279077542171e-07,-0.0011332901847134,0.0011331140287378,-0.001089269597988,0.0010906879453998,-0.001079182068514,0.0010788631996163,-0.0010770078718756,0.0010759592360862,-0.0011719237381828,0.0011713675454619,-0.0011719300418027,0.001172392427319,-0.0011717148143529,0.0011709038706805,-0.0011728699405013,0.0011730776898873,-0.0010910994167391,0.0010893312203282,-0.0010978169891758,0.0010989829499171,-0.0010789963993741,0.0010796839707391,-0.0010724199148294,0.0010723775915119,-0.0010891953821815,0.0010876788603561,2.7965857738485e-06,8.8419919647681e-06,-0.00083361906727575,0.00083412662471615,1.1538585023104e-06,-3.7966874770473e-07,-0.00085052731745556,0.00085433725998612,-0.0008767832935505,0.00085368832600929,-0.00087890562826203,0.00087647123916374,-0.00086157224334451,0.00091122635274652,-0.00084906778902977,0.0008558101837594,-0.00087529203806123,0.00085517385482798,-0.00087742024928814,0.00087796292719246,-0.00090212908649006,0.00090332675964486,-0.00090264308651064,0.00090281027980913,-0.00090229551284398,0.00089926944909475,-0.00090281223908354,0.00089875572825895,-0.00087143706782893,0.00088989348599857,-0.00086407430405824,0.00086899511061742,-0.00086357189284703,0.00086950406820761,-0.00087092855325952,0.00089039622346764,-0.00086304423805503,0.0009097656604403,0.61363158009265,122718,2924,0.0030263879695147,0.0047100291535053,0.003468548209934,18.325730457643,6.1805843661144e-05,6.1805843661144e-05,6.1805843661144e-05,4114459.8433546,0.011268145066834
25391759,0.72213946492324,0.011847469788878,0.0033968259725021,0.0046851661593643,0.003765477657012,-0.00075747968569155,0.00075286889697855,-9.084754661396e-06,-3.8597612278103e-06,-1.1127496486458e-06,-6.832337770602e-07,-0.00041847380847678,0.0004024572324136,-0.00081449306033686,0.00081007839933538,-0.00081160257546439,0.00082186214691812,-0.00042827780807446,0.00040290021430226,-0.00041888401967694,0.00040205677064922,-0.00081489875812277,0.00080965260988722,-0.00081201897253482,0.0008214468887367,-0.0008832099301184,0.0008774550461931,-0.00088065764364943,0.00088290625715753,-0.00088307134067555,0.00087760341680475,-0.00088051403861308,0.0008830496690148,-0.00072678646768042,0.00070914141410263,-0.00071912688909377,0.00070537467252711,-0.0007269209210483,0.000708995963512,-0.00071927047181896,0.00070523831857884,-0.00042788187634653,0.00040331481192366,1.0269364352198e-07,-3.0670628147331e-07,-9.1250856948716e-07,7.1478456575493e-07,-0.0011832957193132,0.0011830974840977,-0.0011371103046179,0.0011386424092301,-0.0011249097900594,0.0011245623614246,-0.0011225579965516,0.0011214084880437,-0.0012246268833249,0.0012240187923714,-0.0012246199018471,0.0012251151041925,-0.0012243932888534,0.0012235058373105,-0.0012256202341921,0.0012258362118571,-0.0011390876716177,0.0011371618309539,-0.0011462165853827,0.0011474715237381,-0.001124702757485,0.0011254459734897,-0.0011178063155108,0.0011177473333174,-0.0011370866331376,0.0011354371840838,2.9572571277836e-06,9.3706098004655e-06,-0.00086490320765033,0.00086542922247035,1.2312530422947e-06,-4.3046348099761e-07,-0.00088490887830987,0.00088890191803495,-0.0009123226120467,0.00088788313699297,-0.00091459145676406,0.00091195577400075,-0.00089635881976981,0.00094861872351396,-0.00088332627898287,0.00089049901465165,-0.00091070631903285,0.00088949327179668,-0.00091298147041088,0.00091357250978329,-0.00093572258658525,0.00093698596291026,-0.00093627944706608,0.00093642649148841,-0.00093587621222229,0.00093266274256192,-0.00093643598390239,0.00093210621633905,-0.00090523700778142,0.00092498179673488,-0.00089746450996672,0.00090265127710902,-0.00089691998226671,0.00090320281254785,-0.00090468594677758,0.00092552666973486,-0.00089795486177746,0.00094703478780113,0.71638642109267,122718,2924,0.0031424372930305,0.0049172900067265,0.0035984913710526,19.829896993946,7.3839175951569e-05,7.3839175951569e-05,7.3839175951569e-05,4217294.0365071,0.011726616701263
25891759,0.74791087772551,0.01228794132748,0.0035124902905273,0.0048801497073496,0.0038953013296029,-0.00078006171412079,0.00077493271670756,-1.0095717286687e-05,-4.3564781091428e-06,-1.2291049490948e-06,-7.4490881777212e-07,-0.00040939189208329,0.00039087930906219,-0.00083967843958557,0.00083482518720156,-0.0008364440820216,0.00084803690171895,-0.00042037400286987,0.00039208310101862,-0.0004098525770467,0.00039042816153598,-0.00084013592785805,0.00083434627154173,-0.00083691275978155,0.00084756897805884,-0.00091585967008505,0.00090949816533951,-0.00091302146335435,0.00091545211388027,-0.00091570314946965,0.0009096652449684,-0.00091285965444117,0.00091561397382357,-0.00074830242508356,0.00072874325468604,-0.00073980752931412,0.00072451316027471,-0.00074845434981224,0.00072857980608595,-0.00073996896856036,0.00072435919794626,-0.00041992746346522,0.0003925482559633,1.1999478587819e-07,-3.4104775013813e-07,-9.8690744267654e-07,7.7281723779716e-07,-0.0012375668788118,0.0012373522074174,-0.0011893172688223,0.0011909798644376,-0.0011788176800515,0.0011784594991255,-0.0011762173796179,0.0011749561259872,-0.0012780151563534,0.0012773640600633,-0.0012780136000695,0.0012785553216632,-0.0012777719189833,0.0012768054458914,-0.0012790531788241,0.0012792796762114,-0.001191486726908,0.0011893978034728,-0.0011993812368738,0.0012007315912737,-0.0011786214201916,0.0011794425898964,-0.001170688532526,0.0011706065317462,-0.0011892459495825,0.001187468439964,3.3085525292325e-06,1.024320774382e-05,-0.00089014087628137,0.00089078531757607,1.3549701192759e-06,-4.4179313900154e-07,-0.00090967534768451,0.00091422477139015,-0.00094036767255816,0.00091348162154083,-0.00094273873137243,0.00093991553168518,-0.0009229483258363,0.00098118923028653,-0.00090796436816204,0.00091595199663357,-0.00093862017078579,0.00091522215947142,-0.00094099836799599,0.0009416634969255,-0.0009671754549672,0.00096859638782108,-0.00096777741130318,0.00096799143225187,-0.00096746694704364,0.00096393027235831,-0.0009680722338168,0.00096332867834462,-0.00093620735763178,0.00095774375615302,-0.00092728347358948,0.00093308987624451,-0.00092669472623617,0.00093368657883129,-0.00093561112013629,0.00095833281463079,-0.00092467454785316,0.00097947696771109,0.72745708413827,122718,2924,0.0032353023584892,0.0051421454574337,0.0037035452817886,20.751278230745,8.1210225845959e-05,8.1210225845959e-05,8.1210225845959e-05,4105759.0420726,0.012154472121539
26391759,0.77137918836825,0.012722527561403,0.0036282487123901,0.0050716082134029,0.0040226706356102,-0.00080170791309974,0.0007961861480228,-1.0877527760743e-05,-4.6903155075154e-06,-1.315145823839e-06,-7.6788524060503e-07,-0.00041128605568767,0.00039136130091735,-0.00086552866823728,0.00086035870327767,-0.0008620154211111,0.00087458865492778,-0.00042323980095594,0.00039278631191612,-0.00041180657648186,0.00039085027979144,-0.00086604637274216,0.00085981768129187,-0.00086254495211914,0.00087405924015685,-0.00094441233460319,0.00093754105154996,-0.00094134917944842,0.00094390025134679,-0.00094423538329427,0.00093772957872614,-0.00094116665897692,0.00094408328894458,-0.00076855747737607,0.0007474804049212,-0.00075939352478499,0.0007428683743439,-0.00076872964699541,0.00074729603282332,-0.00075957565756514,0.00074269394619289,-0.00042273383920378,0.00039331175255929,1.372603486791e-07,-3.8415084051219e-07,-1.0725546277241e-06,8.3356331031782e-07,-0.0012863613130502,0.0012861216558348,-0.0012361403243956,0.0012379416252448,-0.0012251743790878,0.0012248007907315,-0.0012223394324611,0.001220944285873,-0.0013276053014036,0.0013269006260145,-0.0013275953244221,0.0013281822027592,-0.0013273505052582,0.0013262894656866,-0.0013286914823462,0.001328922167596,-0.0012384921574645,0.0012362149678016,-0.0012469247477857,0.0012483730656514,-0.0012249694728675,0.0012258731612215,-0.0012163223740371,0.001216204431374,-0.0012360799546943,0.0012341548358896,3.5834211050961e-06,1.0994719689931e-05,-0.00091387633393424,0.00091459042411625,1.4684970426082e-06,-4.7733472050503e-07,-0.00093465775186104,0.00093959689152082,-0.00096811280207651,0.00093925906425378,-0.00097061605277282,0.0009675841252887,-0.00094901782764954,0.0010115514405158,-0.00093280431013345,0.00094146833951417,-0.00096622007182701,0.0009411441471495,-0.00096873122006864,0.00096947740180946,-0.00099520809212811,0.00099675646349682,-0.00099585981534661,0.00099610142910397,-0.00099556051579546,0.0009917463478996,-0.0009962159130285,0.00099109502111061,-0.00096422578251135,0.00098743514741875,-0.00095449967987746,0.00096078102424412,-0.00095386206207406,0.00096142744224914,-0.00096357987094383,0.00098807309530803,-0.00095088814461674,0.0010096965696122,0.78667634666428,122718,2924,0.0033244921449755,0.0053442520389947,0.0038022463970053,20.418259742301,7.854607793841e-05,7.854607793841e-05,7.854607793841e-05,4112164.8760967,0.012549307196179
26891759,0.79419794189512,0.013125534973338,0.0037360523887543,0.005249941361012,0.0041395412235713,-0.00082250709043029,0.00081654196490971,-1.1778831951987e-05,-5.095557386486e-06,-1.4223860729863e-06,-8.0831865800173e-07,-0.00040787642624576,0.00038595512273358,-0.00088910111719723,0.00088356203429223,-0.00088526655487934,0.00089907866456199,-0.00042094619169105,0.00038792644232335,-0.00040846008057835,0.00038538086079962,-0.00088968265740509,0.00088295546364635,-0.00088586049310468,0.00089848424630874,-0.00097360590557371,0.00096617458058878,-0.00097028287361961,0.00097300867985174,-0.0009734072635173,0.00096638582033996,-0.00097007838203641,0.00097321416030158,-0.00078778173176594,0.00076498699950506,-0.00077785409110319,0.00075998075926956,-0.00078797538672893,0.00076478051185385,-0.00077805813641069,0.00075978464843769,-0.00042037726490388,0.00038851528638681,1.5728058243099e-07,-4.2800666866842e-07,-1.159244991544e-06,8.9734124577655e-07,-0.0013355681412904,0.0013353054853147,-0.0012826910007049,0.0012846380562916,-0.0012727365110959,0.0012723516110968,-0.0012696551079473,0.0012681233125559,-0.0013773709434321,0.0013766144974925,-0.0013773545160135,0.0013779912649646,-0.001377113282751,0.0013759568972674,-0.0013785029274434,0.001378739921502,-0.001285227220353,0.0012827586721024,-0.0012942028403831,0.001295753815399,-0.0012725316377187,0.0012735246572216,-0.0012629722486972,0.0012628183392775,-0.0012826204339101,0.0012805469798921,3.9032338676548e-06,1.1818859422691e-05,-0.00093564390568935,0.00093644932086882,1.5949935545626e-06,-5.040910764854e-07,-0.00095561700782237,0.00096103087202631,-0.00099304913481224,0.00096201006549595,-0.00099566491177437,0.00099242445707236,-0.00097142745958919,0.0010390408313837,-0.00095361714603179,0.00096305042051786,-0.00099100722347517,0.00096404364920284,-0.00099363164778802,0.00099446698821108,-0.0010227154198225,0.0010244115259461,-0.0010234183192597,0.0010237049850647,-0.0010231613752147,0.0010190331382522,-0.0010238683092159,0.0010183306649442,-0.00099019210617432,0.0010151353689522,-0.0009795103666509,0.00098634603928817,-0.00097882245704677,0.00098704361396192,-0.00098949506423192,0.0010158236074921,-0.00097344581816252,0.0010370394890886,0.750276560455,122718,2924,0.0034100771496406,0.005548013992221,0.0038928258901809,21.226456367976,8.5011650943806e-05,8.5011650943806e-05,8.5011650943806e-05,4046070.0552,0.012934103879619
27391759,0.81639580164383,0.013504496346714,0.0038385380858699,0.0054171824207258,0.0042487758401183,-0.00084392396397476,0.00083763255970179,-1.2432054278353e-05,-5.3642066976423e-06,-1.5072238582611e-06,-8.2908120411505e-07,-0.00041598080136903,0.00039304092170238,-0.00091418601365725,0.00090838869649976,-0.00091011375550594,0.0009247396316538,-0.00042987911176651,0.00039511496389025,-0.00041662608548569,0.00039240509355721,-0.00091482912841879,0.00090771865966301,-0.00091076985873984,0.00092408231603039,-0.0010007401448676,0.00099284651720891,-0.00099723082558373,0.0010000627112528,-0.0010005208183212,0.00099307951831199,-0.00099700538536909,0.0010002896992293,-0.00080685975792554,0.00078277921959607,-0.00079637667805143,0.00077750311172719,-0.0008070740673784,0.00078255139263879,-0.00079660182411859,0.00077728611477834,-0.00042924916705446,0.00039576595236155,1.7258162460419e-07,-4.7435798297041e-07,-1.2522061905268e-06,9.6024419013319e-07,-0.0013804308190524,0.0013801380284569,-0.0013241591308326,0.0013262494589308,-0.0013138456440595,0.0013134383571073,-0.0013105446954634,0.0013088693577604,-0.0014252022866809,0.0014243842222893,-0.0014251655624118,0.0014258456721539,-0.0014249338509526,0.0014236745205289,-0.0014263745307397,0.0014266135389552,-0.0013268562171627,0.0013241845556755,-0.0013360948305583,0.0013377476661395,-0.0013136211656149,0.0013146958901097,-0.0013035224071035,0.0013033290815009,-0.0013241366020337,0.0013219013621976,4.1237661076887e-06,1.2471149601198e-05,-0.00095801480176536,0.0009588665925311,1.7037456802978e-06,-5.5383740306857e-07,-0.00097910269491969,0.0009847849831397,-0.0010193147669896,0.00098671030868628,-0.0010220652518863,0.0010185945196578,-0.00099559115440923,0.0010664204810132,-0.00097695063137853,0.00098695835168706,-0.0010171181643412,0.00098889802438563,-0.001019877921791,0.0010207918150019,-0.0010489197865987,0.0010507157583764,-0.0010496756370318,0.0010499560447749,-0.0010493719850908,0.0010450035711894,-0.00105013214395,0.0010442482000628,-0.0010147462288507,0.0010412027151752,-0.0010035034406494,0.0010107084045558,-0.001002763444284,0.0010114587830713,-0.0010139964382142,0.0010419430743022,-0.00099776315840033,0.0010642667381117,0.72451637575547,122718,2924,0.0034984136008414,0.0057337504342513,0.0039857982383511,22.21310038403,9.2904803072241e-05,9.2904803072241e-05,9.2904803072241e-05,4070101.3362124,0.013305981320869
27891759,0.8373500495795,0.013880945084415,0.0039402834906328,0.0055832847606474,0.0043573768331344,-0.00086435894560615,0.00085769293291962,-1.3164028247836e-05,-5.6983951026422e-06,-1.6031351476937e-06,-8.609631923784e-07,-0.000420225021428,0.00039589662405459,-0.0009382563158321,0.00093215739459539,-0.00093392361015897,0.00094947870780105,-0.00043502594813022,0.00039826254046112,-0.00042093150252725,0.0003951994209721,-0.000938960948567,0.00093142424616937,-0.00093464164510518,0.00094875867621995,-0.0010271714064132,0.0010187795812147,-0.0010234540844445,0.0010264118593967,-0.001026931292172,0.0010190342957006,-0.0010232076547288,0.0010266603695525,-0.00082558604790197,0.00080008058769663,-0.00081449128450403,0.00079448504024694,-0.000825821076777,0.00079983153295602,-0.000814737458586,0.00079424713007939,-0.00043433503286581,0.00039897510208514,1.8866696661382e-07,-5.1980915117957e-07,-1.3470804848747e-06,1.0266651128357e-06,-0.0014249216439009,0.0014246003265318,-0.0013657822435942,0.0013680227166039,-0.0013557049850241,0.0013552750579386,-0.0013521779551061,0.0013503591458259,-0.0014715186174904,0.0014706389203196,-0.0014714618567212,0.001472188564607,-0.0014712387937666,0.0014698764066708,-0.0014727189527061,0.0014729631487162,-0.0013686618122663,0.0013657833447396,-0.0013782934465443,0.001380055071592,-0.0013554635069696,0.0013566232190969,-0.001344700072369,0.0013444709468929,-0.001365803200464,0.0013634024224322,4.3706133669998e-06,1.3151084569591e-05,-0.00097915707055825,0.00098007717968306,1.8201320909497e-06,-6.0108783755567e-07,-0.0010015859364301,0.0010075860484948,-0.001044332030894,0.0010099852541279,-0.0010472028922913,0.0010435028712931,-0.0010190060525602,0.0010936506250128,-0.00099927628317744,0.0010099184739327,-0.0010419756907442,0.0010123321560234,-0.0010448564203087,0.0010458599524438,-0.0010739172832704,0.0010758268083477,-0.001074727754963,0.0010750122515943,-0.0010744040787469,0.0010697900275224,-0.0010752191338421,0.0010689800896082,-0.0010389105939352,0.0010669145577612,-0.0010269774148874,0.0010345966177559,-0.0010261835319967,0.0010354015650373,-0.0010381062587202,0.0010677088037693,-0.0010213370077938,0.0010913391705806,0.76282598426134,122718,2924,0.0035825813364442,0.0059179054403009,0.0040737126667517,22.881252872781,9.8250022982248e-05,9.8250022982248e-05,9.8250022982248e-05,4068462.5056057,0.013667044823043
28391759,0.85679588339339,0.014257508006513,0.004042205722592,0.00574936954194,0.0044659327419807,-0.00088317990826038,0.00087604349254178,-1.4117687605127e-05,-6.1437651622154e-06,-1.7213504763051e-06,-9.0316074983443e-07,-0.00041503557253753,0.00038850971500862,-0.00096001612851389,0.00095353649404105,-0.00095534305789583,0.00097225430701447,-0.00043102781155388,0.00039152845864535,-0.00041581403253018,0.00038774011681796,-0.00096079368111234,0.00095272891937072,-0.00095613434706108,0.00097146015460329,-0.0010538199097556,0.0010448407108235,-0.0010498263445547,0.0010529840786233,-0.0010535550213903,0.0010451211621135,-0.0010495549561493,0.0010532581527536,-0.00084349379725336,0.00081617481231749,-0.00083159263893942,0.00081014658787632,-0.00084375347833255,0.00081590067245543,-0.0008318637034555,0.00080988384075836,-0.00043026467799954,0.00039231316107938,2.1207433886458e-07,-5.6937530743066e-07,-1.4487901942522e-06,1.1032016149243e-06,-0.001470969196974,0.0014706226125005,-0.0014097190377729,0.0014121333180561,-0.0014011362946415,0.0014006925383493,-0.001397351562913,0.0013953756972777,-0.0015172378742564,0.0015162981947985,-0.0015171655784432,0.001517951893781,-0.0015169578156506,0.0015154858252774,-0.001518464402579,0.0015187185909561,-0.0014128218930988,0.0014097195104246,-0.0014230538398904,0.0014249401122513,-0.0014008891831583,0.0014021540302896,-0.0013891042146251,0.0013888370518441,-0.0014097501168562,0.001407174478821,4.7111070302859e-06,1.3987808482766e-05,-0.00099753237290235,0.00099856247862468,1.9631713452876e-06,-6.3869990528446e-07,-0.001019485331524,0.0010259763588938,-0.0010661649132683,0.0010295085443929,-0.0010691392682744,0.0010652083953091,-0.0010384930551508,0.0011185548878613,-0.0010170017458953,0.0010284842520756,-0.0010636323988611,0.0010320310092969,-0.0010666173175242,0.0010677417354972,-0.0010977374110923,0.0010998138267905,-0.0010986081240611,0.0010989387053452,-0.0010983304913739,0.0010934090167738,-0.0010992061400362,0.0010925388653626,-0.0010619715297945,0.0010917240194018,-0.001049003594752,0.0010572053606984,-0.0010481501819502,0.0010580706742611,-0.001061106840118,0.001092577771624,-0.0010409994648236,0.0011160694989256,0.82233028262121,122718,2924,0.0036598903484234,0.0061084452868458,0.0041502405304254,23.414586319232,0.00010251669055386,0.00010251669055386,0.00010251669055386,3985736.7578195,0.014016223586281
28891759,0.87468402954826,0.014594919010028,0.0041346322346498,0.0058977591119339,0.0045625276634444,-0.00089912645206104,0.00089154244877524,-1.5072603707222e-05,-6.5555245773409e-06,-1.8407842403777e-06,-9.4817378952995e-07,-0.00040742719261947,0.00037867167042326,-0.00097819955033347,0.00097132883742532,-0.00097317236248792,0.0009915110962317,-0.00042465106607161,0.000382382495773,-0.00040827626313062,0.00037783124007648,-0.00097904853440696,0.00097044833818274,-0.00097403549228029,0.00099064440001247,-0.0010778240795982,0.0010682707685763,-0.001073547412765,0.0010769426575563,-0.0010775350073642,0.0010685764169868,-0.0010732516144629,0.0010772417147029,-0.00085831008760864,0.00082919443280746,-0.00084558778938023,0.00082278739857352,-0.00085859385526452,0.00082889568750624,-0.00084588327273087,0.00082250038945872,-0.00042381720032229,0.00038323789633614,2.3570414355203e-07,-6.1713512534972e-07,-1.5443138903518e-06,1.1755662415456e-06,-0.0015132633637474,0.0015128935324356,-0.0014495655457924,0.0014521449223286,-0.001442821082171,0.0014423674605551,-0.001438792426513,0.0014366664859421,-0.0015594612839006,0.0015584663442128,-0.0015593759254178,0.0015602200925351,-0.0015591915191614,0.0015576156974419,-0.0015607244373005,0.0015609879147253,-0.0014528726463651,0.0014495590849944,-0.001463597763448,0.0014656010716192,-0.0014425774170528,0.0014439445047719,-0.0014297525490726,0.0014294474707426,-0.0014495937416988,0.0014468548869385,5.065645914976e-06,1.4844656980263e-05,-0.0010118046184429,0.0010129448712131,2.108895432537e-06,-6.6356743285718e-07,-0.0010317008591089,0.0010387195994524,-0.001083493600154,0.0010445437966977,-0.001086565440516,0.0010824294183607,-0.0010523428588636,0.0011378305253167,-0.0010290534209283,0.0010413927164085,-0.0010807948673258,0.0010472319089346,-0.00108387791898,0.0010851290469537,-0.0011182077747438,0.0011204624350299,-0.0011191354294448,0.0011195300748877,-0.001118907012583,0.0011136595348772,-0.0011198399317016,0.001112732469038,-0.0010804057179313,0.00111186613846,-0.0010664220447585,0.0010752328934366,-0.0010655124577082,0.0010761551646298,-0.0010794840883788,0.0011127760474431,-0.0010550144966735,0.0011351813074665,0.79975737494462,122718,2924,0.0037253141177352,0.0062834031547089,0.0042097485749832,23.939498071825,0.0001067159845746,0.0001067159845746,0.0001067159845746,3877801.6415999,0.014320398926737
29391759,0.8912475121328,0.014855056990955,0.0042070513205805,0.0060119042481259,0.0046361014222482,-0.00091229144820152,0.00090442878983463,-1.5682585132372e-05,-6.7863993888072e-06,-1.9352141955786e-06,-9.6509444417882e-07,-0.00040949064210264,0.00037970463308606,-0.00099355130168859,0.00098646160135215,-0.00098829418867094,0.001007508444849,-0.00042753757998539,0.00038360814019931,-0.00041041483024315,0.00037878879438215,-0.00099447533427635,0.00098550436750447,-0.00098923266163104,0.0010065652951993,-0.0010963239264041,0.0010863459524915,-0.0010918690228389,0.0010954146392298,-0.0010960098118936,0.0010866777748569,-0.0010915480341066,0.0010957397302743,-0.00086894878269389,0.0008386400767535,-0.00085569274077734,0.00083204782767484,-0.00086925783274078,0.00083831554004943,-0.00085601375667795,0.00083173528179035,-0.00042662880074673,0.00038453914895319,2.556509249597e-07,-6.7245613007532e-07,-1.6559655296056e-06,1.2529941793759e-06,-0.0015456379021424,0.0015452337688999,-0.0014779801974821,0.0014807358248752,-0.0014721439909828,0.0014716662354228,-0.001467941691942,0.0014656435437954,-0.0015951049219969,0.0015940378208995,-0.0015949831526128,0.0015958818710449,-0.0015948424078798,0.0015931441653455,-0.0015963947307039,0.001596662496045,-0.001481460561655,0.0014779026070976,-0.0014922055575568,0.001494334705241,-0.0014718709955842,0.0014733399432106,-0.0014585377829321,0.0014581865387084,-0.0014780891410563,0.0014751562279638,5.2814374878233e-06,1.5444441775693e-05,-0.0010237568183354,0.0010249432599397,2.2352757173508e-06,-7.2835463095634e-07,-0.0010434882760163,0.0010507315805541,-0.0010986142268389,0.0010582506406073,-0.0011017980069062,0.001097408368882,-0.0010647424386226,0.0011531343995793,-0.0010406556391144,0.0010535913086579,-0.0010957285110729,0.0010611253258394,-0.0010989240055407,0.0011002950620441,-0.001134212702875,0.0011365822328944,-0.0011352041501079,0.0011355858990561,-0.0011349078766345,0.0011294413831547,-0.0011359048178156,0.0011284505702125,-0.0010935976501355,0.0011263614838919,-0.0010791108147192,0.0010882735943637,-0.001078138093497,0.0010892596621842,-0.0010926123090176,0.0011273345883009,-0.0010676004905373,0.0011502998044055,0.66449988364994,122718,2924,0.0037794663999586,0.0064172905229769,0.0042594775328914,24.733816619521,0.00011307053295617,0.00011307053295617,0.00011307053295617,3847798.0777245,0.014561618170359
29891759,0.9063428355432,0.015099345917348,0.0042752174626919,0.0061184645889791,0.004705663865677,-0.00092686017870779,0.00091886419174509,-1.5897159814272e-05,-6.8585774642878e-06,-1.9941034594219e-06,-9.6504334823207e-07,-0.00042656184170634,0.00039712142025617,-0.0010122187836922,0.0010050543711126,-0.0010068843710185,0.0010261602207748,-0.00044488428237557,0.00040060044246804,-0.00042754461477472,0.0003961464879028,-0.0010132004538393,0.0010040380647023,-0.0010078805130664,0.0010251580416372,-0.0011119863969486,0.0011017435164938,-0.0011074797943351,0.0011110227938967,-0.0011116533199992,0.0011020951173963,-0.00110713985898,0.0011113676814764,-0.00088088615869366,0.00085008754638985,-0.00086746433378583,0.00084345589686544,-0.00088121469078273,0.00084974330171268,-0.00086780481480143,0.00084312362520758,-0.00044391726493471,0.00040159087436906,2.6220209905803e-07,-7.2390928979623e-07,-1.7717931683649e-06,1.3249204460279e-06,-0.0015725438086987,0.0015720957350295,-0.0015008995480555,0.0015038148942651,-0.0014939189496967,0.001493391081208,-0.0014896088820713,0.0014871463497927,-0.0016272697501026,0.0016261155563994,-0.0016270917292569,0.0016280278887028,-0.0016269913192802,0.0016251685951692,-0.0016285571780594,0.0016288250000611,-0.0015045352535603,0.0015007301011122,-0.0015150573294147,0.0015173076523418,-0.001493583538862,0.001495127141972,-0.0014803373895332,0.0014799465799128,-0.0015011879927397,0.00149804635709,5.3185591137622e-06,1.5731828174211e-05,-0.0010393204540303,0.0010404955072862,2.326570298036e-06,-8.2577663417857e-07,-0.0010641099753423,0.0010712211348491,-0.0011186311542881,0.0010778287164155,-0.0011219390284408,0.0011172715231485,-0.0010848683499032,0.0011734985641807,-0.0010610925467362,0.0010742666087607,-0.0011155601342586,0.0010808885370328,-0.0011188799101874,0.0011203435431089,-0.0011496187195417,0.0011520078333056,-0.0011506730757944,0.001150948656311,-0.0011501943756632,0.0011446555989648,-0.0011512542554731,0.0011436019752529,-0.0011086713979216,0.0011423413833613,-0.0010942604272069,0.0011034400848584,-0.0010932250918888,0.001104488985946,-0.0011076233133078,0.001143377185392,-0.0010879117944543,0.0011704787973841,0.68461390406998,122718,2924,0.0038396599563866,0.0065285650246194,0.0043240321596119,25.429796141592,0.00011863836913273,0.00011863836913273,0.00011863836913273,3950224.2134588,0.014801102246683
30391759,0.91993095000783,0.015288979078082,0.0043278791011327,0.0062018355224919,0.004759264454457,-0.00093534709209453,0.00092698224608717,-1.6651967362615e-05,-7.2353576681769e-06,-2.1178504931946e-06,-1.0329228289285e-06,-0.00041574610516417,0.00038411915652983,-0.0010208654235936,0.0010133548527842,-0.0010152658301894,0.0010357000390616,-0.00043498202096794,0.00038846789952804,-0.00041678201542157,0.00038309059661665,-0.0010219012076751,0.0010122841560855,-0.0010163159365009,0.0010346432975511,-0.0011268548972004,0.001116156898431,-0.0011221277336627,0.0011258946903223,-0.0011265034354316,0.0011165272908993,-0.0011217694173919,0.0011262583813802,-0.00088839861314652,0.00085619203278248,-0.0008743526883874,0.00084933912434446,-0.00088874552542359,0.00085582942228297,-0.00087471147842682,0.0008489884220706,-0.00043396112405578,0.00038951123409083,2.8149121902936e-07,-7.5866617149153e-07,-1.8631967340337e-06,1.4013255092124e-06,-0.0015986704435266,0.001598207329673,-0.001524393365632,0.0015274760726236,-0.0015203450137082,0.0015197990691312,-0.0015159064243233,0.0015133197015325,-0.0016537121320488,0.0016525054246529,-0.0016535055044656,0.0016545009876098,-0.0016534451298229,0.0016515332035365,-0.0016549960959721,0.0016552865435754,-0.0015282180894708,0.0015242156634189,-0.0015390679616004,0.0015414494332215,-0.0015199985318769,0.001521635708365,-0.0015059608560721,0.0015055575555171,-0.0015247187905507,0.0015214160322308,5.5844746995444e-06,1.6305067587277e-05,-0.0010454835831049,0.0010467483064711,2.452336079499e-06,-8.6888290989306e-07,-0.001067380020774,0.0010748456546293,-0.0011259916880676,0.0010834678320717,-0.0011293422922963,0.0011244786015018,-0.0010895148763102,0.0011824609579684,-0.0010641979865458,0.0010780561601855,-0.0011227555743487,0.0010866924976677,-0.0011261183633645,0.0011277157253108,-0.0011608717654496,0.0011634042630613,-0.0011619823851784,0.0011622886574456,-0.0011615343437753,0.0011557854443447,-0.0011626506658057,0.0011546755652123,-0.0011172333780283,0.0011519162355108,-0.0011020239891808,0.0011116423744786,-0.0011009325708511,0.0011127477334834,-0.00111612880729,0.0011530080638338,-0.0010927235039842,0.0011792767931687,0.59098872163378,122718,2924,0.0038742466462217,0.0066365810620838,0.0043498386394222,26.075399301272,0.00012380319441018,0.00012380319441018,0.00012380319441018,3829283.5364792,0.014972051617987
30891759,0.93226913960863,0.015489377002824,0.0043839099539391,0.0062888600456556,0.0048166070032289,-0.00094760517554513,0.00093908131688899,-1.6925328329947e-05,-7.3425885631484e-06,-2.1750053627561e-06,-1.0405705062885e-06,-0.0004270772067796,0.00039541807042105,-0.0010364471651399,0.0010288335938869,-0.0010307506585097,0.0010513993182329,-0.00044666258809833,0.00039954213271219,-0.00042816188064114,0.00039434014438447,-0.0010375312923321,0.0010277136062701,-0.001031849012983,0.001050293195184,-0.0011405873491583,0.0011296299936807,-0.0011357887063934,0.0011395774316556,-0.0011402198362396,0.0011300169684149,-0.0011354143992097,0.0011399577695383,-0.0008990479518582,0.00086626008614364,-0.00088478098833619,0.0008593004305597,-0.000899411283896,0.00086588100371912,-0.0008851560759493,0.00085893313529334,-0.00044559287651257,0.00040063477710522,2.8779550726798e-07,-8.0102597654935e-07,-1.9680552185426e-06,1.4708970069354e-06,-0.0016221804565737,0.0016216820256217,-0.001545221968284,0.0015484567975042,-0.0015405946703943,0.0015400026345429,-0.0015360435487588,0.0015333149574839,-0.0016804305441096,0.001679146867784,-0.0016801750454139,0.0016812091194873,-0.0016801538855426,0.0016781333638326,-0.0016817055571303,0.0016820029663016,-0.0015492054837732,0.0015449806046352,-0.0015599764727337,0.0015624776464297,-0.0015401973691294,0.0015419043829539,-0.0015260611343202,0.001525631943777,-0.0015456922489259,0.001542199391344,5.6551932771824e-06,1.6617821253949e-05,-0.0010578929252431,0.0010591685021385,2.5453187937752e-06,-9.509113594572e-07,-0.0010832945820644,0.0010907140379715,-0.0011420865066633,0.0010989330314117,-0.0011455365914175,0.001140430552914,-0.0011052956912568,0.0011991446944827,-0.0010799410028628,0.0010940967722044,-0.0011386786271063,0.001102329314701,-0.0011421410510242,0.0011438394449345,-0.0011737017218114,0.0011762773589911,-0.0011748706315933,0.001175103504683,-0.0011742938057945,0.001168468166819,-0.0011754684511616,0.0011673000742131,-0.0011302078825659,0.0011657366945245,-0.0011149023351044,0.0011246040165378,-0.0011137527621445,0.0011257677088961,-0.0011290450342399,0.0011668867226637,-0.0011086763144148,0.0011957887396885,0.68714590328657,122718,2924,0.0039248120856893,0.0067337806846478,0.0044013542464524,27.063956618362,0.0001317116529469,0.0001317116529469,0.0001317116529469,3874603.1204931,0.015174338107105
31391759,0.94350144283662,0.015679394882218,0.0044368190596353,0.0063716197688895,0.0048709560536932,-0.00095658947577718,0.00094758223894801,-1.7978541780146e-05,-7.841800363804e-06,-2.3148926046769e-06,-1.1166513478536e-06,-0.0004073135236077,0.00037236349871983,-0.0010449002896685,0.001036814205994,-0.001038817790044,0.0010612545887979,-0.0004282399527117,0.00037786423428617,-0.00040845773354626,0.00037122574500416,-0.0010460457037926,0.0010356327139164,-0.0010399773911627,0.0010600868783202,-0.0011578602590251,0.0011463450716934,-0.0011527404494147,0.0011568605469145,-0.0011574716665801,0.0011467535684258,-0.0011523449916054,0.0011572623477772,-0.00090855702957271,0.00087384442324667,-0.0008933832766033,0.00086649631880446,-0.00090894115977781,0.00087344447380403,-0.00089377920205249,0.00086610820875242,-0.00042710973337355,0.00037901576549464,3.175034941257e-07,-8.3236925316709e-07,-2.0525089761165e-06,1.5541844597084e-06,-0.0016517989305471,0.0016512992580913,-0.0015742393256205,0.0015776575221015,-0.0015735268381391,0.0015729374675834,-0.0015687972354737,0.001565951513844,-0.0017066724319841,0.0017053525777667,-0.0017064042962387,0.0017075145828534,-0.0017064256969138,0.0017043264862372,-0.0017079543704794,0.0017082854657817,-0.0015784559092077,0.0015740453626348,-0.001589895064115,0.0015925384472279,-0.0015731465979006,0.0015749680099356,-0.0015576842663498,0.0015572497402471,-0.0015746757499819,0.0015710383001406,6.0678284547952e-06,1.7409749414057e-05,-0.0010621226709552,0.0010635443913509,2.7011245189245e-06,-9.6448326051041e-07,-0.0010812256467178,0.0010893005844938,-0.0011467942285762,0.0011010919631804,-0.0011502628676843,0.0011450073709062,-0.0011055764230908,0.0012060289746614,-0.0010777079023064,0.0010928479677513,-0.001143221199946,0.001104653040324,-0.0011467026304766,0.0011485814687312,-0.0011853810236376,0.0011881900578648,-0.0011866063486596,0.0011869594428077,-0.0011861766577672,0.0011800422621186,-0.0011874080299916,0.0011788177100414,-0.0011392951237699,0.0011760852678132,-0.0011226879203168,0.0011330982559409,-0.0011214822294768,0.00113431868455,-0.001138075477853,0.001177291306341,-0.0011091220321977,0.0012025092762958,0.71628541114011,122718,2924,0.0039612894431641,0.0068561956571451,0.0044192876762786,28.357433968381,0.00014205947174705,0.00014205947174705,0.00014205947174705,3653865.2939758,0.015353915554734
31891759,0.95336909888371,0.015849308930559,0.0044851587345099,0.0064445908344787,0.0049195593615701,-0.00096462179669214,0.00095533788897392,-1.8638063694908e-05,-8.069972246508e-06,-2.3998240249586e-06,-1.1359144739991e-06,-0.00040179905632984,0.00036538659257632,-0.0010542355607584,0.0010458895148519,-0.0010478893035611,0.0010714066779463,-0.00042366398806802,0.00037135059565056,-0.00040300629052717,0.00036418554019387,-0.0010554444168659,0.0010446435166964,-0.0010491124830804,0.0010701745782502,-0.0011708634677479,0.0011589593033974,-0.0011655370667781,0.0011698592597606,-0.0011704535677241,0.0011593899219366,-0.0011651202114602,0.0011702831000613,-0.00091590172637517,0.00087994562862164,-0.00090012457086188,0.00087237742117522,-0.00091630729141302,0.00087952393228531,-0.00090054206870926,0.00087196770818629,-0.0004224705211888,0.00037256521737153,3.3892324556873e-07,-8.7449201649223e-07,-2.1446110718599e-06,1.6264759131281e-06,-0.0016754494360833,0.0016749298811265,-0.0015963892808374,0.0015999700081135,-0.0015971420121498,0.0015965399132477,-0.001592257055219,0.0015892736043363,-0.0017302178246137,0.0017288447278873,-0.001729924482515,0.0017310916722834,-0.0017299958444934,0.0017278004341048,-0.0017315241936422,0.0017318692196341,-0.0016007832366495,0.0015961707474833,-0.0016123830304173,0.00161514627584,-0.0015967541997532,0.0015986723828163,-0.0015805677469529,0.0015801050464422,-0.0015968639829627,0.0015930671817069,6.3377869601533e-06,1.8019840749422e-05,-0.0010666851848712,0.0010681825729182,2.8319884002146e-06,-9.9970867827199e-07,-0.001083457884877,0.0010918989878758,-0.0011535396918123,0.0011062081671105,-0.0011570719627909,0.0011516455684038,-0.0011088870753084,0.0012130313405819,-0.0010797790511417,0.0010956083129768,-0.0011498043482694,0.0011099312551461,-0.0011533498052337,0.0011553820426957,-0.0011945228445363,0.0011974942859853,-0.001195803543961,0.0011962081042753,-0.0011953879812849,0.0011890226951093,-0.0011966749370365,0.0011877427799512,-0.0011465282813434,0.0011844516273529,-0.0011292173210259,0.0011400826729308,-0.0011279566858106,0.0011413585882449,-0.0011452531959631,0.0011857126276949,-0.0011125945934701,0.001209350565456,0.72644232686627,122718,2924,0.0039941536998857,0.0069539139402999,0.0044384323671349,29.266044243266,0.00014932835394613,0.00014932835394613,0.00014932835394613,3547384.9283081,0.015505978596152
32391759,0.9615709545186,0.016003562400364,0.0045294237299212,0.006510253619786,0.0049638850506568,-0.00097056790119519,0.0009610499003183,-1.9196547773174e-05,-8.265772843085e-06,-2.4805539726212e-06,-1.1454095037062e-06,-0.00039745235953858,0.0003598588079215,-0.0010617714627588,0.0010532192808869,-0.0010552034895521,0.0010796224596149,-0.00042011669067778,0.00036618650182374,-0.00039872846189139,0.00035858838759183,-0.0010630494157174,0.0010519031492932,-0.0010564957287481,0.0010783201774896,-0.0011806261316055,0.0011683772622007,-0.0011751261750266,0.0011796193936896,-0.0011801931452911,0.001168831789806,-0.0011746862370216,0.0011800671523419,-0.00092116690911141,0.0008841528506224,-0.00090488004569741,0.00087641828875932,-0.00092159588456005,0.00088370758302033,-0.00090532091777054,0.00087598497319581,-0.000418854037535,0.00036747018428039,3.6135918262675e-07,-9.2140930688313e-07,-2.2475806346239e-06,1.7059401925509e-06,-0.0016948122521033,0.0016942691154226,-0.0016142431221803,0.0016180023905191,-0.0016162734431264,0.0016156546783339,-0.0016112685967077,0.0016081319569507,-0.0017497661941011,0.001748332259545,-0.0017494366828798,0.0017506645814564,-0.0017495666137673,0.0017472638742127,-0.0017510841003181,0.0017514433271763,-0.001618830413346,0.0016139926064447,-0.0016304979409824,0.0016333932737733,-0.0016158623088153,0.0016178851703652,-0.0015991215179201,0.0015986270326693,-0.0016147987933967,0.0016108230513055,6.560677153274e-06,1.8526359310399e-05,-0.0010698438661962,0.0010713992943614,2.9597840851219e-06,-1.0554661586708e-06,-0.0010859501252277,0.0010946460543321,-0.0011590822166997,0.0011103712554616,-0.0011626725361296,0.0011570488536369,-0.0011121718987905,0.0012193343471343,-0.0010820922280044,0.001098535261489,-0.0011551671401482,0.0011142738437653,-0.0011587709869646,0.0011609651438155,-0.0012009822298081,0.0012040954650883,-0.0012023240411346,0.0012027480110018,-0.0012018938194477,0.0011953374628158,-0.0012032420641408,0.0011939964478113,-0.0011519075641925,0.0011908083238548,-0.0011340330631323,0.0011452606741775,-0.0011327115685622,0.0011465979356528,-0.0011505711953765,0.0011921302198344,-0.0011160592144635,0.001215474466168,0.79219730183482,122718,2924,0.0040184231986204,0.0070338950794525,0.0044517068958654,29.297808273989,0.00014958246619191,0.00014958246619191,0.00014958246619191,3474675.9082926,0.015625354301222
32891759,0.96832245666461,0.016110964165507,0.0045605357031595,0.0065559722803243,0.0049944561820229,-0.00097305414353001,0.00096326612517387,-1.9874549183268e-05,-8.5153808795796e-06,-2.5758675106245e-06,-1.1700295266032e-06,-0.0003847833954391,0.00034531697432614,-0.0010641906397722,0.0010553622166251,-0.0010573521574892,0.0010830028346004,-0.00040841352577377,0.00035239729553438,-0.00038612743956575,0.00034397819766194,-0.0010655371266068,0.0010539769295232,-0.0010587128179258,0.0010816312622026,-0.0011881070276978,0.0011754856516297,-0.0011823887274913,0.0011871296491509,-0.0011876510475266,0.0011759638673666,-0.0011819258075677,0.001187601114413,-0.00092335483085627,0.00088509342410475,-0.00090644136050628,0.00087718110086928,-0.0009238070515238,0.00088462482436103,-0.00090690542112772,0.00087672440258614,-0.00040708234757313,0.0003537487784755,3.8918074534167e-07,-9.6235323918084e-07,-2.3414706208621e-06,1.7875098585269e-06,-0.0017104257331254,0.0017098702015184,-0.0016287415657688,0.0016326833972649,-0.0016330161269587,0.0016323938685236,-0.0016279091660886,0.0016246336744429,-0.00176440301971,0.001762921607667,-0.001764044233631,0.0017653416366967,-0.0017642395918309,0.0017618428761635,-0.0017657352928051,0.0017661175047577,-0.0016335332155484,0.0016284883594711,-0.0016453806360964,0.0016484124493504,-0.0016325969773539,0.0016347330156825,-0.0016150739584385,0.0016145573498223,-0.0016293414322835,0.0016252046496061,6.8472701052702e-06,1.9071145952495e-05,-0.0010678879392794,0.0010695198988361,3.0958612181628e-06,-1.0959442119436e-06,-0.0010796220290318,0.0010887112995818,-0.0011579437690636,0.0011075467983389,-0.0011615626450375,0.0011557803288825,-0.0011071559055105,0.0012183482334802,-0.0010755918003591,0.001092773230899,-0.0011538559960344,0.0011116219417999,-0.0011574886718135,0.0011598694073813,-0.0012041339432727,0.001207429417429,-0.0012055345287135,0.0012060229900693,-0.0012051541113706,0.0011983687280062,-0.0012065613119951,0.0011969689140055,-0.0011523942063705,0.0011921653869121,-0.0011337362337637,0.0011454417872189,-0.0011323561268386,0.001146838097755,-0.0011509988231754,0.0011935458983533,-0.0011112160206217,0.0012143161698325,0.66888370250489,122718,2924,0.0040282916884218,0.0070983603153821,0.0044438226911824,29.18277469835,0.0001486621975868,0.0001486621975868,0.0001486621975868,3341765.8854939,0.015692875385203
33391759,0.97393365477831,0.016213486522913,0.0045904819696127,0.0065990155389894,0.0050239890143106,-0.00097902850530079,0.00096920485993871,-1.9894400067333e-05,-8.5548436370614e-06,-2.5854745422202e-06,-1.173657012111e-06,-0.00039639020825996,0.00035728669632057,-0.001070805829325,0.0010619881912211,-0.0010639809781273,0.0010895150700066,-0.00041994947724281,0.00036408556380819,-0.00039774027012405,0.00035594212796422,-0.0010721581953406,0.0010605966203019,-0.0010653477709768,0.0010881374718981,-0.001193125904649,0.0011804225144352,-0.0011874210449803,0.0011920980584869,-0.0011926681145118,0.0011809028731915,-0.0011869562698851,0.0011925716221462,-0.00092845337246514,0.00089008028087181,-0.00091156591442166,0.00088223848309757,-0.00092890755700393,0.0008896096484611,-0.00091203199791648,0.00088177980987236,-0.00041861276245461,0.00036544331454126,3.784270215409e-07,-9.7861590530646e-07,-2.3621436547827e-06,1.7814632004428e-06,-0.0017184280760077,0.0017178458558245,-0.001636162051061,0.0016400934831993,-0.0016396664612615,0.0016390175933314,-0.0016345289819889,0.0016312162596418,-0.0017739752428562,0.0017724643045241,-0.0017736007912428,0.0017748787367262,-0.0017738111746778,0.0017713809986539,-0.0017753206457733,0.0017756794686375,-0.0016409521906512,0.0016358644261591,-0.001652684705708,0.0016557024456442,-0.0016392256527565,0.0016413447640522,-0.0016218402956266,0.0016212961381874,-0.0016368029954401,0.0016326269644972,6.8162573381206e-06,1.9152745718634e-05,-0.0010749726085081,0.0010765933480462,3.0924818012127e-06,-1.1151951628425e-06,-0.0010906351460192,0.0010996276617679,-0.0011660460687571,0.0011157989209696,-0.0011697588104682,0.0011638969844128,-0.0011175267940351,0.00122774128488,-0.0010865902266171,0.0011037050798887,-0.0011619425895069,0.001119889520855,-0.0011656694167371,0.0011680018009397,-0.0012095163439813,0.0012127781072495,-0.0012109222180265,0.001211366290421,-0.0012104216116062,0.001203642697411,-0.0012118341911294,0.0012022375903588,-0.0011588953437074,0.0011990737919774,-0.0011405039252299,0.0011521581812925,-0.0011391188436476,0.001153559810111,-0.0011574947841571,0.0012004594284082,-0.0011216021519342,0.0012236942896266,0.76703045550566,122718,2924,0.0040529649091236,0.0071314369484135,0.0044731746288695,29.274766833856,0.00014939813467085,0.00014939813467085,0.00014939813467085,3433029.8443434,0.015781332699726
33891759,0.97873721251144,0.016300505794558,0.0046157295334188,0.0066357771515065,0.0050489991096331,-0.00098214479028253,0.00097203827382687,-2.0561274643366e-05,-8.8021692617051e-06,-2.6939981291398e-06,-1.2179520630172e-06,-0.00038298174660639,0.00034195604790671,-0.0010754260422055,0.0010662867771799,-0.0010683303425275,0.0010949871872932,-0.00040750460859069,0.00034956944028599,-0.00038439377061951,0.00034054904179111,-0.0010768407263508,0.001064832418531,-0.0010697592151936,0.0010935465449534,-0.0012012019116152,0.0011881264643232,-0.0011952798116865,0.0012002375506657,-0.0012007230738835,0.0011886282935415,-0.0011947939911483,0.001200732593731,-0.00093136615324043,0.00089178656478259,-0.00091386386816247,0.0008837145160637,-0.00093184144674485,0.00089129468404799,-0.00091435107449022,0.0008832346138588,-0.00040610525737667,0.00035098898013187,4.0915798574822e-07,-1.0106223783283e-06,-2.4477145542692e-06,1.8662988283254e-06,-0.0017352699814802,0.0017346869479252,-0.0016510628151759,0.0016551813105953,-0.0016572585934082,0.0016566137862702,-0.0016520215008404,0.0016485892462284,-0.0017902515031404,0.0017887039027409,-0.0017898539905055,0.0017912088123385,-0.0017901036270935,0.0017875950173482,-0.0017915931270295,0.0017919870355463,-0.0016560415335606,0.0016507653194698,-0.0016679956788585,0.0016711585400304,-0.0016568179325279,0.0016590544975447,-0.0016387077215248,0.0016381574882201,-0.0016517426829659,0.0016474200713206,7.0979389742035e-06,1.964844796931e-05,-0.001073338840747,0.0010750449183437,3.2299254628318e-06,-1.1485374728252e-06,-0.0010854168791593,0.0010948081642211,-0.0011665927435496,0.0011146788534118,-0.0011702876542976,0.0011642891467484,-0.0011138566782882,0.0012284944151777,-0.0010812048272034,0.0010990525696482,-0.0011623223762372,0.0011189363628645,-0.0011660313644911,0.0011685608412824,-0.001212784228046,0.0012162212303224,-0.0012142470533836,0.0012147524584758,-0.0012138266325763,0.0012068188181834,-0.0012152962239659,0.0012053568054303,-0.0011600633048628,0.0012009992012097,-0.0011408045025241,0.0011529215184833,-0.0011393625058386,0.0011543801143389,-0.0011586056661944,0.0012024416032082,-0.0011180992430339,0.0012242805642893,0.76172156471975,122718,2924,0.0040654401531011,0.007200988474044,0.0044666474887046,30.027104727837,0.0001554168378227,0.0001554168378227,0.0001554168378227,3263810.9471621,0.015858067899238
34391759,0.98292851596657,0.016372447299365,0.0046368961590871,0.0066659049336244,0.005069646206653,-0.00098717257685737,0.00097696894275583,-2.0809063985035e-05,-8.8556387508116e-06,-2.7413689202437e-06,-1.2126623782048e-06,-0.00038541134021248,0.00034410507566638,-0.0010815546129919,0.0010723398386378,-0.0010743508227193,0.0011013844965639,-0.00041034149660279,0.00035171676047278,-0.00038687505707596,0.00034264585069542,-0.0010830207058611,0.001070833286353,-0.0010758309465393,0.0010998915045699,-0.0012078661587081,0.0011946149785533,-0.0012018660560246,0.0012068980104661,-0.001207370378901,0.0011951343886243,-0.00120136337277,0.0012074107150663,-0.00093557201137479,0.00089551145829495,-0.000917835272114,0.00088738715789184,-0.00093606474412808,0.00089500210548592,-0.00091833976790983,0.0008868896335841,-0.00040889021273489,0.00035318828945136,4.2336902637518e-07,-1.0481581437419e-06,-2.5351695306348e-06,1.9312494006556e-06,-0.0017467903226665,0.0017461847304243,-0.0016612282047953,0.0016654910246557,-0.0016679276941483,0.0016672601452713,-0.0016626390492441,0.001659081984419,-0.0018028067401971,0.0018012033702541,-0.0018023700976266,0.0018037701545359,-0.001802677558957,0.0018000790942438,-0.0018041520554072,0.0018045570995895,-0.0016663451336251,0.0016608798000004,-0.0016781363298961,0.0016814089808669,-0.0016674557464045,0.0016697707967378,-0.0016491791673431,0.0016486053986097,-0.0016620129811316,0.0016575357278328,7.1958805466609e-06,1.9921808556213e-05,-0.0010763674369747,0.0010780886321996,3.3218315470813e-06,-1.209440216471e-06,-0.0010886483253762,0.0010980746196631,-0.0011713995529457,0.0011188343109489,-0.0011751397581597,0.0011689667072938,-0.0011172270483131,0.0012330258364489,-0.0010842863098815,0.0011024694872541,-0.0011669792433801,0.0011232416973994,-0.0011707336789539,0.0011733884144616,-0.0012173377823266,0.0012208517684051,-0.0012188514312118,0.0012193321257708,-0.0012183696313322,0.0012112766722535,-0.0012198901092464,0.0012097638500906,-0.0011638137129201,0.0012052908374119,-0.001144365763941,0.0011566202046385,-0.0011428729728806,0.0011581298412379,-0.0011623051161138,0.0012067841044128,-0.0011216199135797,0.0012286618865086,0.71950148343769,122718,2924,0.0040861275993387,0.0072485553458288,0.0044792711429965,31.389517161793,0.00016631613729435,0.00016631613729435,0.00016631613729435,3223076.6522307,0.015940237457374
34891759,0.98663263904697,0.016439960265935,0.004656793300049,0.0066940453980275,0.0050891215678584,-0.00099408753757287,0.00098382685977395,-2.0906226638785e-05,-8.8950757066575e-06,-2.7814607646197e-06,-1.2102693305252e-06,-0.00039362371207938,0.00035239511479372,-0.0010899720022279,0.0010807389260079,-0.0010827330981211,0.0011098185766448,-0.00041869768244933,0.00035988353060863,-0.00039512954860411,0.00035089308261681,-0.0010914798482929,0.0010791901115887,-0.0010842546554501,0.001108283012693,-0.0012150478409025,0.0012016820974993,-0.0012090277075413,0.001214068558258,-0.0012145383763629,0.0012022156253845,-0.001208511507049,0.001214595547447,-0.00094151353752042,0.00090124338612279,-0.00092371133157898,0.00089311141000426,-0.00094202050911284,0.00090071996282121,-0.00092422975093409,0.00089259949716972,-0.00041720397285947,0.00036139756635906,4.3145173799851e-07,-1.0821533477839e-06,-2.6226639046078e-06,1.9934922631694e-06,-0.0017578514446496,0.0017572205701522,-0.001670659664304,0.0016750582787494,-0.0016775585225968,0.0016768569669776,-0.0016722529769584,0.0016685789147366,-0.0018156165589751,0.0018139524779014,-0.0018151329215637,0.0018165708788002,-0.0018154923217351,0.0018128058804694,-0.0018169455821895,0.0018173612509054,-0.0016759051622116,0.0016702537260394,-0.0016874605460837,0.0016908410213616,-0.0016770403269314,0.001679420705441,-0.0016588347735946,0.0016582433847375,-0.0016715863036956,0.0016669508702829,7.2069254249321e-06,2.0061742739446e-05,-0.0010827904663758,0.0010845056962937,3.3950429526351e-06,-1.2856857825522e-06,-0.0010976881308243,0.0011069781533669,-0.0011798887336131,0.0011270771368381,-0.001183675647655,0.0011773049932146,-0.0011259973049756,0.0012420083813031,-0.0010931785780054,0.0011115209463652,-0.0011753214736557,0.0011316314647312,-0.0011791226744817,0.0011818736928995,-0.0012234717927361,0.0012270093071873,-0.0012250350905575,0.00122544004866,-0.0012244456288308,0.0012173364075946,-0.0012260157579931,0.0012157739726769,-0.0011702734899325,0.0012121203008937,-0.0011508704402377,0.001163099750672,-0.0011493278363625,0.0011646593013772,-0.0011687150519431,0.0012136634491805,-0.0011305378973504,0.0012374967061824,0.76368749739882,122718,2924,0.0041146966236221,0.0072942484700052,0.0045059083912174,33.42852187598,0.00018262817500784,0.00018262817500784,0.00018262817500784,3224884.4134245,0.016042748994494
35391759,0.98986338093057,0.016492375973347,0.0046722643466116,0.0067159516556283,0.0051041599711069,-0.0010004869462499,0.00099003904586731,-2.1334840853748e-05,-9.0984208727896e-06,-2.8513795296155e-06,-1.2366175737348e-06,-0.00038991152279135,0.00034721423690728,-0.0010958494178838,0.0010864240021205,-0.0010884489682823,0.0011163619102339,-0.00041556611432769,0.00035537338407051,-0.00039145921564997,0.00034567002360641,-0.0010973996852815,0.001084832843031,-0.0010900126557866,0.0011147836962203,-0.0012242501362897,0.0012106567577794,-0.0012180962105841,0.0012232945854375,-0.0012237263564823,0.0012112047848355,-0.0012175658057154,0.0012238361877043,-0.00094816496045275,0.00090711952302935,-0.0009299909309209,0.00089884170395817,-0.00094868640331762,0.00090658182206012,-0.00093052358856324,0.00089831528358764,-0.00041402990624637,0.00035692898342764,4.5136723914003e-07,-1.1048022815256e-06,-2.6944151838969e-06,2.0628365716228e-06,-0.0017707726260881,0.0017701393013857,-0.001683391067377,0.0016879397634232,-0.0016919090152971,0.0016912000195157,-0.0016865647370379,0.0016827994111259,-0.001827209261609,0.0018255104834131,-0.0018266958757322,0.0018281924579062,-0.0018271095709069,0.0018243596326622,-0.0018285258838383,0.0018289713586251,-0.0016888105831476,0.0016830042822807,-0.0017005482043838,0.0017040502980237,-0.0016913765456019,0.0016938430945837,-0.0016726257601951,0.0016720367691631,-0.0016843745078812,0.0016796126166684,7.3765425657622e-06,2.0374536828639e-05,-0.0010856546115657,0.0010874195382329,3.492800952497e-06,-1.3291598718471e-06,-0.0010967588427675,0.0011062492951226,-0.0011826265286583,0.0011286843745254,-0.0011864247883808,0.0011799230754511,-0.0011259921411616,0.0012448401914152,-0.001092110239349,0.0011109309888579,-0.0011779208335321,0.0011333771570458,-0.0011817334536896,0.0011846302730095,-0.001229616954989,0.0012332729623881,-0.0012312271743175,0.0012316566652841,-0.0012306704641286,0.0012234486660264,-0.0012322875990136,0.0012218392710083,-0.0011746930752856,0.0012169556390549,-0.0011547705924323,0.0011672640480805,-0.0011531808927791,0.0011688708404043,-0.0011730873831991,0.001218545848136,-0.0011306717924435,0.0012401896821816,0.67947291040117,122718,2924,0.0041409353410851,0.0073476205988337,0.0045179399723532,35.83708076131,0.00020189664609048,0.00020189664609048,0.00020189664609048,3122579.4439737,0.016135888642952
35891759,0.9924892716001,0.016537166711017,0.0046855689322968,0.0067345053674876,0.005117092411233,-0.0010058618246287,0.00099546682481762,-2.1169511928034e-05,-9.0141084694592e-06,-2.8565263543681e-06,-1.2170617991755e-06,-0.00040366060331849,0.00036203620852448,-0.0011033204131101,0.0010940023209961,-0.0010959847961172,0.0011234136590618,-0.00042910719284559,0.00036959374987903,-0.0004052336602101,0.0003604657874913,-0.0011048953130234,0.0010923860064887,-0.0010975727580731,0.0011218099541947,-0.0012281404336404,0.0012145563095681,-0.0012220514614024,0.0012271584707868,-0.0012276088425544,0.0012151124844659,-0.0012215134557576,0.0012277084275406,-0.00095209084688304,0.00091130010091654,-0.00093408571457837,0.0009031011232776,-0.00095262075324401,0.00091075416214568,-0.00093462645257192,0.0009025660754341,-0.00042754545905425,0.00037117539054993,4.4744877672269e-07,-1.1336850341399e-06,-2.7710346702998e-06,2.107257802116e-06,-0.0017768488302242,0.0017761833036114,-0.001687436791115,0.001692080619843,-0.0016951727873564,0.0016944154829608,-0.0016898324816476,0.0016859695478533,-0.0018364980488772,0.0018347354161964,-0.001835936070789,0.0018374479832854,-0.001836389011395,0.0018335599390474,-0.0018377944242755,0.0018382399469352,-0.0016929255204351,0.0016869599150094,-0.001704217191985,0.0017077979390074,-0.00169458283953,0.0016970813307232,-0.0016762799140214,0.001675673594269,-0.0016885854696846,0.0016836807242174,7.2744856515908e-06,2.0349042755543e-05,-0.0010925121427647,0.0010942364092602,3.5323381484012e-06,-1.4098689064455e-06,-0.0011090873080996,0.001118240095614,-0.0011920905487574,0.0011385671488663,-0.0011959439199653,0.001189250276725,-0.0011373467865108,0.0012546022552583,-0.0011043194120132,0.0011230415872082,-0.0011872662845714,0.0011433785001583,-0.0011911340055287,0.0011940760431278,-0.0012340444713465,0.0012376565039444,-0.0012356945898517,0.0012360004474706,-0.0012349662720319,0.0012278104518816,-0.0012366232358755,0.001226161232502,-0.001180498381387,0.0012229427755056,-0.00116098282481,0.0011732545280348,-0.0011593529880125,0.0011749014515375,-0.0011788526622352,0.0012245732357315,-0.0011421458726903,0.0012498320714132,0.71348599053829,122718,2924,0.0041632910925062,0.0073727198359267,0.0045462767824168,37.445759703098,0.00021476607762478,0.00021476607762478,0.00021476607762478,3185130.0388049,0.016212888896936
36391759,0.99444404289456,0.016570052532507,0.0046952862490178,0.0067481896606665,0.005126576622823,-0.0010065465908616,0.00099611377855184,-2.1309783751774e-05,-8.9661868281968e-06,-2.875114963086e-06,-1.2338538913032e-06,-0.0003987965155626,0.00035702089496015,-0.001104339778008,0.0010948646792397,-0.0010969148644088,0.0011245452879884,-0.00042449764108514,0.00036452646811605,-0.000400371261819,0.00035544886555397,-0.0011059164023007,0.0010932467737505,-0.0010985045182724,0.0011229399546585,-0.0012304264655583,0.0012167522930405,-0.0012242670622683,0.001229468309399,-0.0012298941666075,0.0012173090025784,-0.0012237283591344,0.0012300188110031,-0.00095332846329985,0.00091233456351437,-0.00093518217498429,0.00090426016633559,-0.00095385895239518,0.00091178807290868,-0.0009357234942687,0.00090372456595567,-0.00042293406935965,0.00036610957281119,4.535941637841e-07,-1.1290768968093e-06,-2.7703451249778e-06,2.1171802736514e-06,-0.0017816766752397,0.0017810217409915,-0.0016922883907527,0.0016969523253094,-0.0017004770913755,0.0016997291287518,-0.0016951389699245,0.0016912822257748,-0.0018407882033334,0.0018390334483638,-0.0018402270272452,0.0018417528257405,-0.0018406807122811,0.0018378587266998,-0.001842081788654,0.0018425404029063,-0.0016978018427517,0.0016918372903775,-0.0017091593780826,0.0017127592838936,-0.0016998956433076,0.00170240948066,-0.0016814799237211,0.0016808858163966,-0.0016934337843977,0.0016885310266709,7.3235693097248e-06,2.0492299806423e-05,-0.0010916455260399,0.00109339801536,3.5633897687657e-06,-1.388784740959e-06,-0.0011056891217108,0.0011149291231416,-0.0011915231265468,0.0011376167738588,-0.0011953642979531,0.0011886750136516,-0.0011343413551463,0.0012528978775748,-0.001100911524922,0.0011197398397782,-0.0011866893246169,0.0011424377957587,-0.0011905447014086,0.0011935103025832,-0.0012351599900866,0.0012387979987707,-0.0012368134489845,0.0012371386593371,-0.0012361136616359,0.0012289313989579,-0.0012377739141803,0.0012272788430047,-0.001180287231948,0.0012228028139529,-0.0011606380491357,0.0011729820106183,-0.0011590048288384,0.0011746321035345,-0.0011786382588357,0.001224436566245,-0.0011391498129582,0.0012481181496523,0.70433655235509,122718,2924,0.0041661023245554,0.0073926580083662,0.0045427625025874,37.533459235096,0.00021546767388077,0.00021546767388077,0.00021546767388077,3094284.1123851,0.016232452301904
36891759,0.99584861068705,0.016591413736928,0.0047016400223853,0.0067570508263903,0.0051327228881525,-0.0010060355984402,0.0009954436604934,-2.1632251340017e-05,-9.2050630531783e-06,-2.9239753889243e-06,-1.2557490740409e-06,-0.00039314742780747,0.00035005520634184,-0.0011031182890849,0.0010935675732256,-0.0010956039493405,0.0011238578753131,-0.00041920556031868,0.00035825311206993,-0.00039474767638664,0.00034845754271837,-0.001104721099972,0.0010919235822128,-0.0010972196448892,0.0011222263003616,-0.0012313080735068,0.0012174770441243,-0.0012250681315227,0.0012303569330662,-0.0012307668927187,0.0012180428244171,-0.0012245205917042,0.0012309165542638,-0.0009525660771791,0.0009109293090892,-0.0009341418640913,0.00090262134365501,-0.00095310548879118,0.00091037400360366,-0.00093469198711874,0.00090207681163412,-0.00041761616943843,0.00035986155252355,4.6194946941336e-07,-1.1469373309731e-06,-2.827752204846e-06,2.1653208718569e-06,-0.0017842089582154,0.0017835447532277,-0.0016945395592669,0.0016993064452787,-0.0017040000397794,0.0017032333110716,-0.0016986081406772,0.0016946812106047,-0.0018425276425425,0.0018407378045114,-0.0018419434357896,0.0018435042711882,-0.0018424369922229,0.0018395615507105,-0.0018438132625863,0.0018442885270069,-0.0017001707193332,0.0016940847271745,-0.0017116747778729,0.0017153599840967,-0.0017034046654609,0.0017059698980677,-0.0016845426660939,0.0016839485636476,-0.0016957199113723,0.001690713325671,7.4702512057219e-06,2.0655637642048e-05,-0.0010893989360855,0.0010911854087308,3.6230431784298e-06,-1.4343496068991e-06,-0.001102428580369,0.0011118588756177,-0.0011889973627333,0.0011343519782478,-0.0011928499732264,0.0011860719889059,-0.0011316950899765,0.0012517848441328,-0.0010975475191043,0.0011167733738018,-0.001184060283073,0.0011392761161326,-0.0011879273238132,0.001191010593682,-0.0012341714416669,0.001237914228237,-0.0012358598571834,0.0012362197622675,-0.0012351825448925,0.0012279011796048,-0.0012368778921534,0.0012262136313651,-0.0011791072086849,0.0012219648390608,-0.0011590260808124,0.0011716212191261,-0.0011573578603752,0.0011733066509545,-0.0011774229390051,0.001223633618379,-0.0011366073863507,0.0012469017532442,0.6357490455962,122718,2924,0.0041636828638094,0.0074030915589127,0.004533541237533,36.818338537433,0.00020974670829947,0.00020974670829947,0.00020974670829947,3096994.6198791,0.016231233804454
37391759,0.99693469169199,0.016608753075226,0.0047067986504033,0.0067642218089349,0.0051377326158882,-0.0010088232270403,0.00099829233722733,-2.1440171029417e-05,-9.133001740051e-06,-2.9208951881955e-06,-1.2390665427309e-06,-0.00040302699912656,0.00036083086951211,-0.0011072278585712,0.0010977887670846,-0.0010997955498858,0.0011275840634669,-0.00042881838782842,0.00036856385546735,-0.000404641536658,0.00035921814048414,-0.0011088444504003,0.0010961308289266,-0.0011014246391557,0.001125938173271,-0.0012325081577227,0.0012187238941881,-0.001226340420448,0.0012315308824765,-0.0012319626740472,0.0012192940810287,-0.0012257887973012,0.0012320951258291,-0.00095444561352325,0.00091312991505937,-0.00093621576041698,0.00090489066159304,-0.00095498985050336,0.0009125701003063,-0.0009367702946331,0.00090434120092757,-0.00042721443193215,0.00037018708172152,4.5766004903854e-07,-1.1653618272518e-06,-2.8833765886177e-06,2.1985714359126e-06,-0.0017859039044386,0.0017852173296252,-0.0016949819142462,0.001699818537568,-0.0017037300691269,0.0017029251124845,-0.0016983603156883,0.0016943672329266,-0.0018464544240463,0.001844617689118,-0.0018458317441883,0.0018474034079433,-0.0018463535135307,0.0018434228847418,-0.0018477141287028,0.0018481919299565,-0.0017006677838453,0.0016944674431258,-0.0017118464136388,0.0017155920882871,-0.0017030855077161,0.001705671378603,-0.0016846155902309,0.0016840142183952,-0.0016962952160407,0.0016911835353566,7.3592876798466e-06,2.0558700965401e-05,-0.0010939555410131,0.0010956975650521,3.6415307550114e-06,-1.5036455248956e-06,-0.001111215744592,0.001120327594642,-0.0011951074010904,0.0011409141581046,-0.0011989936999673,0.0011920662207793,-0.001139655382039,0.0012582379905792,-0.0011062470274975,0.0011253299637196,-0.001190083630863,0.0011459250457515,-0.00119398428924,0.0011970915153706,-0.0012363965813418,0.0012400863119257,-0.0012381140629925,0.0012383629088475,-0.0012373070537199,0.0012301051346539,-0.0012390313841203,0.0012283885709367,-0.0011826603209388,0.0012254983420188,-0.0011629435654249,0.0011753081824699,-0.0011612459372622,0.0011770229326908,-0.0011809468030039,0.0012271966095297,-0.0011446552906872,0.0012532669680229,0.66747126441366,122718,2924,0.0041753261539747,0.0074100940477893,0.0045523225013893,37.627363642864,0.00021621890914291,0.00021621890914291,0.00021621890914291,3157886.7226926,0.016269254196314
37891759,0.99773969085469,0.016620484570966,0.0047102772567124,0.0067691008176089,0.005141106496645,-0.0010088595587904,0.0009983050245788,-2.1534057763185e-05,-9.0984591945966e-06,-2.9334757849441e-06,-1.2505920794864e-06,-0.00039839821507657,0.00035603155523826,-0.0011074206978824,0.0010978714261495,-0.0010999256024732,0.0011278711745389,-0.00042437428999476,0.00036377872546004,-0.0004000137174325,0.00035441791710748,-0.0011090382862354,0.0010962126136347,-0.0011015556462955,0.0011262243642792,-0.0012337853793969,0.0012199497573645,-0.0012275676188939,0.0012328294172971,-0.0012332394412257,0.0012205202314774,-0.0012270155533447,0.0012333939595648,-0.00095499169136665,0.00091355192531188,-0.00093666219995481,0.00090538051388802,-0.00095553626497983,0.00091299180323298,-0.00093721705971578,0.00090483073576276,-0.00042276922787808,0.00036540272384941,4.6406823672165e-07,-1.1598145541364e-06,-2.8810623291345e-06,2.2080734041207e-06,-0.0017885301842039,0.0017878554046777,-0.001697714459427,0.0017025701733372,-0.0017068800012349,0.001706085607727,-0.001701516181039,0.0016975318241003,-0.0018484754356965,0.0018466482481432,-0.0018478547234488,0.00184944058638,-0.0018483756271199,0.0018454541662137,-0.0018497303454882,0.00185022196356,-0.0017034212980523,0.0016972254328906,-0.0017146637495419,0.0017184280014692,-0.0017062438514558,0.001708844952834,-0.0016876729777327,0.0016870850141558,-0.001699022165569,0.0016939154653652,7.399874623197e-06,2.0642417000484e-05,-0.0010927490044987,0.0010945118417307,3.6649582578467e-06,-1.4878562656834e-06,-0.0011076549594957,0.0011168424895197,-0.0011939656228884,0.0011394793026571,-0.0011978288725979,0.0011909149530796,-0.0011364658388509,0.0012560911908611,-0.0011026786739238,0.0011218519785602,-0.0011889345227042,0.0011444976429516,-0.0011928119989739,0.0011959475648442,-0.0012368188085472,0.0012405342560287,-0.0012385388510147,0.0012388083447002,-0.0012377700923174,0.0012305497153748,-0.0012394969358013,0.0012288305934868,-0.0011819903786404,0.0012248109430718,-0.0011621361842339,0.0011745605792818,-0.0011604359267409,0.0011762777546263,-0.0011802743524114,0.0012265117509363,-0.0011414730100163,0.0012511127483817,0.60954457296435,122718,2924,0.0041754687304776,0.0074209400969714,0.0045473785445986,37.709293813427,0.00021687435050742,0.00021687435050742,0.00021687435050742,3085571.9471028,0.016275410786601
38391759,0.99832104731736,0.016629948400843,0.0047130883986007,0.0067730111331383,0.0051438488691045,-0.001008949339891,0.00099837284878353,-2.1525003886208e-05,-9.1755081137491e-06,-2.9414334347481e-06,-1.248737682083e-06,-0.000401346340334,0.00035890693589869,-0.0011074906953901,0.001098007088377,-0.0011000294102629,0.0011279374193121,-0.00042723701078806,0.00036673119679331,-0.00040297145189143,0.00035728327864886,-0.0011091180707682,0.0010963385922263,-0.0011016689927018,0.0011262806830085,-0.0012331265994238,0.0012192848252575,-0.0012269328944076,0.0012321503363324,-0.001232577477266,0.0012198585484862,-0.0012263777769706,0.001232718259429,-0.00095456011698993,0.00091308689778336,-0.00093626149403305,0.00090483169936408,-0.00095510811397979,0.00091252360010751,-0.00093681950466618,0.00090427847085706,-0.00042562209402596,0.00036836497210536,4.6087912335405e-07,-1.172940454977e-06,-2.9261257652494e-06,2.2370139381855e-06,-0.0017876692553274,0.0017869783674388,-0.0016964626478923,0.001701378251797,-0.0017055615975658,0.0017047360607575,-0.0017001901930906,0.0016961552378043,-0.0018482197424918,0.0018463556775081,-0.0018475719716973,0.001849169413208,-0.00184812054117,0.0018451555220813,-0.0018494565093562,0.0018499530210515,-0.0017022336817252,0.001695945754326,-0.001713401562008,0.0017172190552337,-0.001704894193269,0.0017075132563867,-0.0016863519942297,0.0016857625495202,-0.0016978452466381,0.0016926531165712,7.3855693186779e-06,2.0606419122522e-05,-0.0010937230687358,0.0010954713727425,3.6833044041072e-06,-1.5425289368982e-06,-0.0011108132497501,0.0011198960928087,-0.0011951185210413,0.0011406839506512,-0.0011990075682469,0.0011919945463219,-0.0011393485118869,0.0012584426320597,-0.0011057643643908,0.0011249785304294,-0.0011900153696938,0.0011457742597058,-0.0011939187558183,0.0011970992344921,-0.0012365133144496,0.0012402344185715,-0.0012382575207443,0.0012384842949928,-0.0012374303193348,0.0012302273907236,-0.0012391813661888,0.0012284840979152,-0.0011827221323875,0.0012256160720732,-0.0011629206409639,0.0011753058384015,-0.0011611960123908,0.0011770475543672,-0.0011809816435199,0.0012273413308742,-0.0011444285049255,0.0012533914696847,0.68081525693755,122718,2924,0.0041757696894807,0.0074173744307845,0.0045513772913145,37.199128399851,0.00021279302719881,0.00021279302719881,0.00021279302719881,3151791.7467199,0.016276147632419
38880000,0.99874528651243,0.016637235648552,0.004715243507194,0.0067760325984232,0.0051459595429345,-0.0010084058963201,0.00099776293340687,-2.1752386141774e-05,-9.1769597738756e-06,-2.9655445523824e-06,-1.2700525192595e-06,-0.00039182618941664,0.00034874442779856,-0.0011068151246887,0.001097139910391,-0.0010992267784145,0.0011275596279296,-0.00041810888786034,0.00035679989470677,-0.00039345359403227,0.00034711876688696,-0.0011084450636628,0.0010954690950237,-0.0011008689494378,0.0011259005907421,-0.001234850294657,0.0012209136904582,-0.0012285538051812,0.0012339090670192,-0.0012343001184216,0.0012214882367406,-0.0012279976131553,0.0012344777923822,-0.00095493625545915,0.00091313194952387,-0.00093640750904959,0.00090494728570448,-0.00095548507709949,0.00091256784465867,-0.0009369663899689,0.00090439329804025,-0.00041649150182176,0.00035843550822435,4.735053886107e-07,-1.1627291270566e-06,-2.9210758544594e-06,2.2545976646368e-06,-0.001791222364948,0.0017905540792346,-0.0017004551171501,0.0017054063353072,-0.001710530028964,0.0017097258020794,-0.0017051649213823,0.0017011462577131,-0.0018500515655462,0.0018482065690437,-0.0018494099262883,0.001851034910957,-0.0018499669620895,0.0018470192254741,-0.0018512880368705,0.0018518102987972,-0.0017062796449056,0.001700001272185,-0.0017176171789597,0.0017214687053527,-0.0017098857490163,0.0017125343338803,-0.0016910440202967,0.0016904791046174,-0.0017018147088222,0.0016966336976211,7.4913847555556e-06,2.0766567867193e-05,-0.001090311769087,0.001092091207456,3.7223693800159e-06,-1.5168029603169e-06,-0.0011027253573987,0.0011120061503238,-0.0011913932608703,0.0011362797735675,-0.0011952376161623,0.0011882607651856,-0.0011320789109113,0.0012532313779088,-0.0010976635637082,0.0011171008800674,-0.0011862773209359,0.0011413829798328,-0.0011901359354973,0.0011933782607178,-0.0012362615218449,0.001240048245488,-0.0012380101952638,0.0012382936590223,-0.0012372804380488,0.0012300062069051,-0.0012390359144166,0.0012282584085417,-0.0011803974531626,0.0012232699366948,-0.001160263386983,0.001172812019112,-0.0011585342560696,0.0011745580325707,-0.0011786525571571,0.0012249995752829,-0.0011371714705316,0.0012481676003413,0.71913113407407,122718,2924,0.0041734524356859,0.0074320461179047,0.0045373334786361,37.193701503424,0.0002127496120274,0.0002127496120274,0.0002127496120274,3045187.3146652,0.016274454500913
