time,ASR_ext,ASR_strain,ASR_strain_xx,ASR_strain_yy,ASR_strain_zz,disp_x_101,disp_x_102,disp_x_103,disp_x_104,disp_x_105,disp_x_106,disp_x_p10_neg,disp_x_p10_pos,disp_x_p11_neg,disp_x_p11_pos,disp_x_p12_neg,disp_x_p12_pos,disp_x_p13_neg,disp_x_p13_pos,disp_x_p14_neg,disp_x_p14_pos,disp_x_p15_neg,disp_x_p15_pos,disp_x_p16_neg,disp_x_p16_pos,disp_x_p1_neg,disp_x_p1_pos,disp_x_p2_neg,disp_x_p2_pos,disp_x_p3_neg,disp_x_p3_pos,disp_x_p4_neg,disp_x_p4_pos,disp_x_p5_neg,disp_x_p5_pos,disp_x_p6_neg,disp_x_p6_pos,disp_x_p7_neg,disp_x_p7_pos,disp_x_p8_neg,disp_x_p8_pos,disp_x_p9_neg,disp_x_p9_pos,disp_y_101,disp_y_102,disp_y_103,disp_y_104,disp_y_105,disp_y_106,disp_y_p10_neg,disp_y_p10_pos,disp_y_p11_neg,disp_y_p11_pos,disp_y_p12_neg,disp_y_p12_pos,disp_y_p1_neg,disp_y_p1_pos,disp_y_p2_neg,disp_y_p2_pos,disp_y_p3_neg,disp_y_p3_pos,disp_y_p4_neg,disp_y_p4_pos,disp_y_p5_neg,disp_y_p5_pos,disp_y_p6_neg,disp_y_p6_pos,disp_y_p7_neg,disp_y_p7_pos,disp_y_p8_neg,disp_y_p8_pos,disp_y_p9_neg,disp_y_p9_pos,disp_z_101,disp_z_102,disp_z_103,disp_z_104,disp_z_105,disp_z_106,disp_z_p10_neg,disp_z_p10_pos,disp_z_p11_neg,disp_z_p11_pos,disp_z_p12_neg,disp_z_p12_pos,disp_z_p13_neg,disp_z_p13_pos,disp_z_p14_neg,disp_z_p14_pos,disp_z_p15_neg,disp_z_p15_pos,disp_z_p16_neg,disp_z_p16_pos,disp_z_p1_neg,disp_z_p1_pos,disp_z_p2_neg,disp_z_p2_pos,disp_z_p3_neg,disp_z_p3_pos,disp_z_p4_neg,disp_z_p4_pos,disp_z_p5_neg,disp_z_p5_pos,disp_z_p6_neg,disp_z_p6_pos,disp_z_p7_neg,disp_z_p7_pos,disp_z_p8_neg,disp_z_p8_pos,disp_z_p9_neg,disp_z_p9_pos,humidity,ndof,nelem,strain_xx,strain_yy,strain_zz,temp,thermal_strain_xx,thermal_strain_yy,thermal_strain_zz,vonmises,vstrain
14391759,0,0,0,0,0,0,0,0,0,0,0,0,0,0,0,0,0,0,0,0,0,0,0,0,0,0,0,0,0,0,0,0,0,0,0,0,0,0,0,0,0,0,0,0,0,0,0,0,0,0,0,0,0,0,0,0,0,0,0,0,0,0,0,0,0,0,0,0,0,0,0,0,0,0,0,0,0,0,0,0,0,0,0,0,0,0,0,0,0,0,0,0,0,0,0,0,0,0,0,0,0,0,0,0,0,0,0,0,0,0,0,0,0,0,0,0,0,0,0,0,0,0,0
15391759,0.10007878924328,0.0017518121525344,0.00058393738417813,0.00058393738417813,0.00058393738417813,-0.00016203405725952,0.00016193069666075,-1.8882215882917e-07,-1.513362225459e-07,-2.4288299251497e-08,-2.1127186223897e-08,-0.00014348405286994,0.00014278530179818,-0.00016081322976886,0.00016075022351837,-0.00016078238631371,0.00016110327594171,-0.00014359639547968,0.00014293764917211,-0.00014348699232282,0.00014278278083238,-0.00016081603561264,0.00016074712231322,-0.00016078543653501,0.00016110041813749,-0.00017012880349495,0.00017004763134145,-0.00017009883855919,0.00017015679014386,-0.00017012779133119,0.00017004878801243,-0.00017009771579702,0.00017015783646977,-0.00016035529763804,0.00016001613610811,-0.00016026006734267,0.00015983696100978,-0.00016035618521875,0.00016001501047609,-0.00016026118087989,0.00015983606141901,-0.00014359390428445,0.00014294061866849,9.1653562250263e-10,-1.936845816017e-09,-5.6779268645185e-09,4.696832857245e-09,-0.00017588650476395,0.00017588552063433,-0.00017265857841547,0.00017266864945935,-0.0001745047241154,0.00017450292076291,-0.0001744649967533,0.00017445767096626,-0.0001778875664838,0.00017788392538676,-0.00017789671751874,0.00017790059183157,-0.00017788618088996,0.00017788035844723,-0.00017790141656614,0.00017790310951804,-0.00017267087191121,0.00017265884615011,-0.00017271364387187,0.00017272171562296,-0.00017450821088856,0.00017451352014585,-0.00017427300224921,0.00017427278878393,-0.00017261839256986,0.00017260836606574,2.8448572139995e-08,2.8105833733515e-07,-0.00016809165401334,0.00016813217158487,2.8039793346921e-08,1.7102126357676e-08,-0.00016606304258386,0.00016609897039136,-0.00016665222782867,0.00016615943907053,-0.00016671904105619,0.00016666142362292,-0.00016640160498204,0.00016795833779749,-0.00016605323734141,0.00016610905318737,-0.000166641789113,0.00016616975984588,-0.0001667087270269,0.00016667186843263,-0.00017238846764177,0.00017238827989054,-0.00017239217415404,0.00017238451425575,-0.00017237115175112,0.00017231606820746,-0.00017237491585863,0.00017231236002455,-0.00016822208648908,0.00016874024066225,-0.00016808336197025,0.00016813750033323,-0.00016807986229548,0.00016814113331039,-0.00016821845917405,0.00016874374570787,-0.00016641167882991,0.00016794852475549,0.70055894083924,122718,2924,0.00067470003901942,0.00073258802447991,0.0007002199356411,27.14486491888,0.00013235891935104,0.00013235891935104,0.00013235891935104,1381636.9277894,0.0021097340651142
16391759,0.18871202960301,0.0033992577483524,0.0011011981893054,0.0011676976465681,0.0011303619124789,-0.00027229982344927,0.0002720202895739,-6.1998899500239e-07,-3.2613840448084e-07,-7.3455296603259e-08,-6.1027888675964e-08,-0.00022947912979676,0.0002278274549759,-0.00027544683340359,0.00027521603012352,-0.00027530631088905,0.00027624228245807,-0.00022996484364609,0.00022793486904556,-0.00022949107568825,0.0002278174807357,-0.00027545795638027,0.00027520353044118,-0.00027531859794069,0.00027623093939821,-0.00028943145710038,0.00028913614559641,-0.00028928879003343,0.00028953880770229,-0.00028942750951717,0.00028914073283816,-0.00028928432678141,0.00028954288122876,-0.00027162721125152,0.00027049690161433,-0.0002711871239208,0.00027016499128991,-0.00027163064480337,0.00027049238105431,-0.00027119159541449,0.00027016150457736,-0.00022995499835169,0.00022794694709428,3.313336433214e-09,-8.0092676106664e-09,-2.500675749468e-08,2.0467092647692e-08,-0.00031458903181594,0.0003145844813288,-0.00030896570648201,0.00030900932707806,-0.00031141056449911,0.00031140140204211,-0.0003112953161744,0.00031126410538967,-0.00031805415278669,0.00031803751352835,-0.00031807880307144,0.00031809477689333,-0.0003180402847104,0.00031801530159758,-0.00031812444223669,0.00031813207219245,-0.00030901119771072,0.00030895853238923,-0.00030930378820196,0.00030933955539604,-0.00031141175816106,0.00031143365950134,-0.0003108547619156,0.00031085460882339,-0.00030886343240766,0.00030881861631137,1.5942743185968e-07,8.3136577937078e-07,-0.00028970469022179,0.00028981264123762,9.2762223364957e-08,4.470326872987e-08,-0.00029180652344785,0.00029204402912804,-0.00029219879015568,0.00029050928157658,-0.00029238044251553,0.0002922316607487,-0.00029275567521904,0.00029728714964372,-0.00029176323479106,0.00029208828859591,-0.0002921526620681,0.0002905549580912,-0.00029233478946696,0.00029227781357464,-0.00029780199031506,0.00029785609539859,-0.00029781831419111,0.00029783956859551,-0.00029774249153209,0.00029752738858146,-0.00029775901490076,0.00029751106457664,-0.00029255587436406,0.00029407740212142,-0.00029215011478994,0.00029245509945226,-0.00029213472229247,0.00029247096529531,-0.00029254003273893,0.00029409281788072,-0.0002927998911762,0.00029724381937825,0.7587163515091,122718,2924,0.0011333708448003,0.0013099111936076,0.0012065971506606,24.45172910454,0.00011081383283632,0.00011081383283632,0.00011081383283632,2136419.0660653,0.003656554920834
17391759,0.26768771247236,0.00470463559133,0.0014813283692376,0.0016650980197525,0.0015582092023399,-0.00035151662519956,0.00035092621750302,-1.3187009794893e-06,-6.0731389301931e-07,-1.3686410508935e-07,-1.0977990555762e-07,-0.00027159151706907,0.00026868895413934,-0.00035795250249404,0.0003574003157154,-0.00035760857275887,0.00035941229680461,-0.00027275827473032,0.00026866094527432,-0.00027161725128965,0.00026866689715916,-0.00035797672284982,0.00035737324036053,-0.00035763513655141,0.00035938754964823,-0.00038222146189347,0.000381568237225,-0.00038188191127518,0.00038240444563295,-0.00038221282246852,0.00038157816448527,-0.00038187225208998,0.00038241335620602,-0.00034846037803853,0.00034600173108767,-0.0003474206198581,0.00034534912122153,-0.00034846796566804,0.00034599202605995,-0.00034743021076634,0.00034534141932688,-0.00027273651576749,0.00026868696837267,6.9163127831053e-09,-1.772412176582e-08,-4.9154906727958e-08,3.8694059255786e-08,-0.0004333637134755,0.00043335322649006,-0.00042347101299298,0.00042355456514045,-0.00042603798580146,0.00042602123873699,-0.00042576867243113,0.00042570394986523,-0.00043997446094652,0.00043994174901146,-0.00044002925955755,0.00044005922102682,-0.00043994624191385,0.00043989551646627,-0.00044012805119757,0.00044014000728353,-0.00042357168183925,0.00042346729103221,-0.00042454859513376,0.00042461504391986,-0.00042604527750597,0.00042608853615148,-0.00042489945357413,0.00042489472010215,-0.00042326225504978,0.00042317491405825,3.9585746496256e-07,1.6038684275985e-06,-0.00038337011399678,0.00038354438403253,1.6560448468968e-07,7.2296468526778e-08,-0.00038715342105449,0.00038778900640811,-0.00038863514580057,0.00038495100728398,-0.00038900083157462,0.00038874805982988,-0.00038915895025551,0.00039781979669201,-0.00038706972603235,0.00038787464384905,-0.00038854576135634,0.0003850394052884,-0.00038891243186962,0.00038883747269468,-0.00039851065279678,0.00039865747511728,-0.00039854231778796,0.00039862538494297,-0.00039845694576503,0.00039798664287035,-0.00039848904153599,0.00039795498339215,-0.00038897498696648,0.00039203972399524,-0.00038798242423258,0.00038873873451145,-0.00038795270126792,0.00038876943491329,-0.00038894432640547,0.00039206948110987,-0.00038924452300457,0.00039773600386916,0.68097528185715,122718,2924,0.0014623981155985,0.0018040045238163,0.0015964600849697,22.117533971378,9.2140271771023e-05,9.2140271771023e-05,9.2140271771023e-05,2695346.7511506,0.0048747241213094
18391759,0.324562503653,0.0055303676500601,0.0017155779182625,0.001989786046383,0.0018250036854146,-0.00039443255369161,0.00039361291214766,-1.8236168390671e-06,-7.9665654412633e-07,-2.0045275530228e-07,-1.5961434094997e-07,-0.00029272806344683,0.00028903736805021,-0.00040425401284713,0.00040344108723469,-0.00040375733565436,0.00040614953224424,-0.00029440545341506,0.00028889986568768,-0.00029276740089312,0.00028900322270246,-0.00040429090752991,0.00040340003377562,-0.00040379757320796,0.00040611180762317,-0.00043420783048426,0.00043326176966173,-0.00043371968093041,0.00043444734497117,-0.0004341948530524,0.00043327665724332,-0.00043370521328094,0.00043446074803016,-0.00038844100920975,0.00038499295824388,-0.00038695103303512,0.00038417500479361,-0.00038845256226439,0.00038497832819756,-0.00038696548453277,0.00038416327160576,-0.00029437178328654,0.00028893967162754,9.9392722515921e-09,-2.764492073892e-08,-8.186951461632e-08,6.469905136373e-08,-0.00050438942616087,0.00050437221751331,-0.0004899330749937,0.00049007160992484,-0.00049104622073942,0.00049101547520254,-0.00049065633061264,0.00049055222845318,-0.00051646451170382,0.00051640910361382,-0.00051653088114294,0.00051657911928816,-0.00051641762227219,0.00051633530524286,-0.0005167011771753,0.00051672252548862,-0.00049009896543595,0.00048992622667444,-0.00049152026064844,0.00049163292586874,-0.00049104424347934,0.00049111314106416,-0.00048955374165264,0.00048954926303451,-0.00048969124127152,0.00048954428977152,5.6649682049518e-07,2.1587768756158e-06,-0.00043555512087905,0.00043575184740108,2.1730507590168e-07,6.2779978629056e-08,-0.00043898837826755,0.00043988286245374,-0.00044362633727838,0.00043854656083476,-0.00044415444715053,0.0004437866495772,-0.00044157664573999,0.00045299075422051,-0.00043884785646149,0.00044002592308228,-0.00044347783985863,0.00043869378092283,-0.00044400722413047,0.00044393518618862,-0.00045643625582225,0.00045664969886821,-0.00045648862614115,0.00045659677534831,-0.00045635641404619,0.00045570071000842,-0.00045640935331002,0.00045564835533651,-0.00044145401039995,0.00044567388889809,-0.00044011296564809,0.00044118745073967,-0.00044006343561463,0.00044123825729011,-0.00044140326008483,0.0004457234668012,-0.00044171960311608,0.00045285008678141,0.60484717275765,122718,2924,0.0016404878823275,0.0020993348365729,0.0018135731767719,17.517306372709,5.5338450981673e-05,5.5338450981673e-05,5.5338450981673e-05,3127522.8944571,0.005568876346857
19391759,0.38315091614408,0.0065533237733027,0.0020006080623867,0.0023971457163564,0.0021555699945596,-0.0004584632935458,0.00045730994343574,-2.5173885177534e-06,-1.0744726434025e-06,-2.8489403038911e-07,-2.2693436243192e-07,-0.00032839098598897,0.00032358637128347,-0.00047606300032078,0.00047486057948126,-0.00047536056537687,0.00047852476240283,-0.00033075478193855,0.00032326968746687,-0.00032844679098586,0.0003235374785855,-0.00047611543996754,0.00047480230925626,-0.00047541764444255,0.00047847110798701,-0.00050696358299831,0.00050562334601267,-0.00050627658969067,0.00050725416329092,-0.00050694517681373,0.00050564446721485,-0.00050625605460907,0.00050727316633863,-0.00045171305413742,0.00044691634648529,-0.00044962083367704,0.00044581436360649,-0.00045172949188184,0.00044689557440395,-0.00044964133567866,0.0004457976464373,-0.0003307066055603,0.00032332619474387,1.3628625656341e-08,-3.988267553011e-08,-1.2310152865974e-07,9.7604730420308e-08,-0.00060457047442003,0.00060454493657527,-0.00058759009630446,0.00058779813802117,-0.00058655416291467,0.00058650537925552,-0.00058601725854129,0.00058586403903957,-0.00061910249243779,0.00061901856354371,-0.00061918564358859,0.00061925721289855,-0.00061903092501116,0.00061890881188178,-0.00061945786081832,0.00061949125287252,-0.00058790509627759,0.00058764626277755,-0.00059014658352256,0.00059031784787251,-0.00058654115092634,0.00058664214146885,-0.00058455072050333,0.00058454723998533,-0.00058731466294314,0.000587092463014,7.9753178295444e-07,2.9129228787469e-06,-0.0005115707595312,0.00051179930777415,2.7989458957925e-07,4.8109026103864e-08,-0.00052058516479721,0.0005218408732823,-0.00052681459133633,0.00051966887126757,-0.00052759416955416,0.00052709047336416,-0.00052405989909722,0.00053962747171438,-0.00052037331733031,0.00052205606971112,-0.0005265915927484,0.00051989015312211,-0.00052737281431553,0.00052731346773427,-0.00053625622734899,0.00053656005278619,-0.00053633482103925,0.00053648072569465,-0.00053616506867549,0.00053526981748701,-0.00053624443408178,0.00053519127062082,-0.00052142063807573,0.00052719565047044,-0.00051957021283135,0.00052107533083982,-0.00051949571459508,0.00052115153553193,-0.00052134451242336,0.00052727020804894,-0.00052427495784004,0.0005394154441494,0.73021614767059,122718,2924,0.001906164620477,0.002515745982657,0.0021297492946305,17.480318631716,5.5042549053731e-05,5.5042549053731e-05,5.5042549053731e-05,3427112.4676095,0.0065732058655726
20391759,0.44751500941504,0.0077240507450979,0.0023142745445587,0.0028830233643989,0.0025267528361404,-0.00052783160204442,0.00052610859241335,-3.6653227617166e-06,-1.5456992728669e-06,-3.9564346182295e-07,-3.0805491655214e-07,-0.00034978099515044,0.0003429792534092,-0.00055285938754449,0.00055110157353904,-0.00055179113601724,0.00055624125261567,-0.00035336424481951,0.00034261126511365,-0.00034986406254461,0.0003429047686584,-0.0005529388382724,0.00055101420840825,-0.00055187669626445,0.00055615995345012,-0.0005917801506185,0.00058974859247352,-0.00059076701339835,0.0005920212518795,-0.00059175220473397,0.00058978024547865,-0.00059073624058688,0.00059205008907477,-0.00051858744265707,0.00051157721433825,-0.00051551533719071,0.0005099644092489,-0.00051861264811614,0.00051154629733986,-0.00051554585637355,0.00050993878343601,-0.00035329078532507,0.00034269529947512,2.1202238567313e-08,-5.9506571949368e-08,-1.7201307432086e-07,1.3487008202807e-07,-0.00072847498786534,0.00072843777055518,-0.00070922441728618,0.00070951405202522,-0.0007064752290706,0.00070641172885555,-0.00070562894381609,0.00070540804531915,-0.00074336933511142,0.00074325368863249,-0.00074349766590635,0.0007435972139915,-0.00074327397290418,0.00074310075380328,-0.00074388970609863,0.00074393173764479,-0.00070969169998419,0.00070932809919884,-0.0007132348442806,0.00071346894654355,-0.00070648080734256,0.00070662552301858,-0.00070353061869731,0.00070351785412827,-0.00070881366294056,0.00070850535733699,1.1875195506313e-06,4.0899196064471e-06,-0.00059630549056654,0.00059660133140208,3.821682947491e-07,5.9467291381568e-08,-0.0006100435046996,0.00061195886337999,-0.00061679800465376,0.00060647614113814,-0.00061784330797426,0.00061715331420508,-0.00061530647395668,0.00063784144537792,-0.00060974920855977,0.00061225812456502,-0.00061648801984224,0.00060678361364836,-0.00061753575875989,0.00061746331867744,-0.00062846516325755,0.00062891220248848,-0.0006285744067354,0.00062880185837771,-0.00062844097297142,0.0006271019887965,-0.00062855137205593,0.0006269928263289,-0.00061481804999368,0.00062305817742214,-0.00061187299463804,0.00061410211853375,-0.00061176949617938,0.000614208175517,-0.00061471210030336,0.00062316175702967,-0.00061560557179943,0.00063754689608098,0.76377140340812,122718,2924,0.002193526662292,0.0030304968623551,0.0024821456517591,18.600448306804,6.4003586454434e-05,6.4003586454434e-05,6.4003586454434e-05,3592409.1481346,0.0077359925272275
21391759,0.49764006502171,0.008546302330551,0.0025329025433912,0.0032327533737529,0.0027806464134069,-0.00056760776644613,0.00056541786790898,-4.5829899924556e-06,-1.9205531684834e-06,-4.9987424811605e-07,-3.7669835839417e-07,-0.00035771328756791,0.00034933074038394,-0.00059758614218725,0.00059538479332783,-0.00059621536872587,0.00060167462826462,-0.00036231491477171,0.00034905718740952,-0.00035783010895202,0.00034922388640453,-0.00059769881096744,0.00059526207895692,-0.00059633554940117,0.00060155934035751,-0.00064351790596358,0.00064089713771757,-0.00064224147106756,0.00064370283665073,-0.00064347855733193,0.00064094116931216,-0.00064219872180089,0.00064374348473562,-0.00055476267296684,0.00054596694427332,-0.0005508993784228,0.0005439840151916,-0.00055479875990795,0.00054592394454723,-0.00055094182846108,0.00054394734716122,-0.00036220946294669,0.00034917532124241,3.039828639429e-08,-8.3808487067763e-08,-2.3453749842277e-07,1.8280384260174e-07,-0.00080989171032605,0.00080983985892185,-0.00078694440967007,0.00078733856823502,-0.00078234391851925,0.00078226097364938,-0.00078122806043366,0.0007809221160106,-0.0008280845061649,0.00082792794748538,-0.00082823006212766,0.00082836455504014,-0.00082796132204942,0.0008277241879636,-0.00082872062943849,0.00082877466183298,-0.00078754487369608,0.00078704769207656,-0.00079186326540965,0.00079217913213083,-0.00078234861698291,0.000782548357249,-0.00077868478479895,0.00077866138845796,-0.00078647042852506,0.0007860512537024,1.4985785019414e-06,5.006132901169e-06,-0.00064562293597656,0.00064596302079049,4.7800908711551e-07,4.070406735183e-08,-0.00066025957795766,0.00066265900308477,-0.00066976240155,0.00065709714289994,-0.00067100595788052,0.00067010571647494,-0.00066677521620861,0.00069445416803115,-0.00065985838150264,0.00066306666548428,-0.00066934170594489,0.00065751463678481,-0.00067058840765849,0.00067052649003777,-0.0006846736212247,0.00068523233229271,-0.00068482131168844,0.00068508323748878,-0.00068468958959484,0.0006829978617018,-0.00068483874799532,0.00068285026175206,-0.00066877641990823,0.00067900788127752,-0.00066498487763964,0.00066777719679556,-0.00066484427373779,0.00066792110300955,-0.0006686326683494,0.00067914860012989,-0.00066718263064453,0.00069405258677512,0.6908403174145,122718,2924,0.0023580018448798,0.0033685604777914,0.0026872075228338,15.320932971105,3.776746376884e-05,3.776746376884e-05,3.776746376884e-05,3770176.3210861,0.008449338315449
22391759,0.54493117297171,0.0093202997266345,0.002737753946667,0.0035650441419354,0.0030175016380322,-0.00061136354761639,0.00060873593835089,-5.3999812901833e-06,-2.263834873401e-06,-6.0002426190909e-07,-4.4339950027383e-07,-0.00037672274757716,0.00036711355756281,-0.00064730232616737,0.00064467321467752,-0.00064566162358703,0.00065192178151476,-0.00038222764598756,0.00036680167444126,-0.00037687166898625,0.00036697580259371,-0.00064744639792118,0.00064451710167457,-0.00064581443595495,0.00065177428836695,-0.00069678650854107,0.00069360831903631,-0.00069527873071275,0.00069691634290206,-0.00069673646314682,0.00069366396472893,-0.00069522475533802,0.00069696808036046,-0.00059503413683475,0.00058462040070243,-0.0005904769426593,0.00058230722355624,-0.00059508050752091,0.0005845660108814,-0.00059053062826921,0.00058226011405282,-0.00038209169920162,0.00036695229371836,3.7603700337811e-08,-1.0828026055988e-07,-3.0467003000263e-07,2.3617930668248e-07,-0.00089108608656694,0.00089101743623708,-0.00086441296987389,0.0008649217703021,-0.00085705564773269,0.00085694505858621,-0.0008556909016994,0.00085529522112933,-0.00091357304818336,0.00091336852119798,-0.00091372530786516,0.00091389587921454,-0.00091341656952369,0.0009131100840733,-0.00091431184243714,0.00091438061784637,-0.00086515525166328,0.00086451007910349,-0.00087021112997262,0.00087062019128868,-0.00085704958846364,0.00085730464778672,-0.00085283771987819,0.00085280749654767,-0.00086392245259719,0.00086337662981437,1.763554414311e-06,5.8265601532907e-06,-0.00069745129191196,0.00069781598411766,5.6587758738461e-07,1.1843038067434e-09,-0.00071412977298539,0.00071691172488011,-0.00072608643121729,0.00071129758300727,-0.00072753350943122,0.00072640573433694,-0.00072157283742638,0.00075364118049825,-0.00071360844464306,0.00071744074302207,-0.00072554226261826,0.00071183800439533,-0.00072699302875896,0.00072695004292261,-0.00074203904342054,0.00074269291966639,-0.00074222947818034,0.00074250086084084,-0.00074206083289143,0.00074006041015505,-0.00074225298225163,0.00073987009940524,-0.00072436360785938,0.00073644708843785,-0.00071989018044485,0.00072315198909444,-0.00071970811119799,0.00072333794974562,-0.00072417784362988,0.00073662930035126,-0.00072210151737809,0.00075311932290043,0.69163756941875,122718,2924,0.0025390422209513,0.0037055832295612,0.0029026192256655,14.812362210697,3.3698897685577e-05,3.3698897685577e-05,3.3698897685577e-05,3974236.7546429,0.0091892974648329
23391759,0.593155404805,0.010074090685157,0.0029354701424118,0.003892686716463,0.0032459338262823,-0.00065432767379724,0.00065117342859857,-6.3836460065634e-06,-2.7008356148426e-06,-7.1806629489577e-07,-5.2275060930697e-07,-0.00038868777511252,0.0003773343938161,-0.00069568138758533,0.00069255667939784,-0.00069371509038681,0.00070101043311023,-0.00039528214049519,0.00037719488633566,-0.00038887308416339,0.00037716109954494,-0.00069586173721281,0.00069236228703143,-0.00069390535296247,0.00070082581647035,-0.00075131328686081,0.0007474774018947,-0.00074952992220456,0.00075135775002736,-0.00075125074158989,0.00074754649274151,-0.00074946291470947,0.00075142240870237,-0.00063429498699536,0.00062195149489599,-0.00062891664735835,0.00061923607615376,-0.00063435332596685,0.00062188404127357,-0.00062898323150551,0.00061917683074238,-0.00039511103910984,0.00037738225766754,4.6337950049595e-08,-1.3594981438443e-07,-3.8030845301255e-07,2.9343485605022e-07,-0.00097518727969014,0.00097510020324627,-0.00094415569124529,0.00094478823737001,-0.00093517501943428,0.00093503652872167,-0.0009335246722909,0.00093302989325017,-0.0010017165267529,0.0010014610661633,-0.001001878919943,0.0010020890009506,-0.0010015276957618,0.0010011452246602,-0.0010025583941107,0.0010026416576186,-0.00094506201330891,0.00094425648406743,-0.00095090617085327,0.00095141424845608,-0.00093516609194581,0.00093548251604461,-0.0009302023728044,0.00093016230858285,-0.00094363042038915,0.00094294887746397,2.0849126812431e-06,6.7697584569574e-06,-0.00074826756044771,0.00074869002818037,6.7214020573403e-07,-2.952348530779e-08,-0.00076608472707007,0.00076935123584798,-0.00078124027552073,0.00076399807856069,-0.00078289053942518,0.00078152396698001,-0.00077481437532523,0.00081226678725949,-0.00076543434663581,0.00077001082443697,-0.00078056338095413,0.0007646705077438,-0.00078221800713643,0.00078220100266806,-0.0007997267162277,0.00080049995849603,-0.00079996311275594,0.00080026165721982,-0.00079978929694211,0.0007974341919339,-0.00080002773218498,0.0007971979666591,-0.00077969365362092,0.00079386273403097,-0.00077431786408656,0.00077815206872451,-0.00077409121166207,0.000778383366738,-0.00077946258304848,0.00079408954013039,-0.00077547357361282,0.00081161577370947,0.66282300645257,122718,2924,0.002716603717769,0.0040545335975718,0.0031138554085298,15.632920702717,4.0263365621739e-05,4.0263365621739e-05,4.0263365621739e-05,4078259.7345441,0.0099341228944181
24391759,0.64584555604284,0.010934353726969,0.00316091589331,0.0042687323155991,0.0035047055180598,-0.00070608778017912,0.00070231052259026,-7.5347511928564e-06,-3.2150895784921e-06,-8.5133664733563e-07,-6.1236230700404e-07,-0.00040676092931461,0.00039339448880922,-0.0007547405027259,0.00075102929199689,-0.00075238785995221,0.00076086062292539,-0.00041464235623324,0.00039347007646929,-0.00040698703363839,0.00039318153705834,-0.00075496162532823,0.00075079175055175,-0.00075262034960836,0.00076063429081307,-0.00081531927231003,0.00081070466573264,-0.00081321418343749,0.00081525025390066,-0.00081524261113842,0.000810788991163,-0.0008131323935754,0.00081532948898777,-0.00068225469204581,0.00066764352014632,-0.00067591939446095,0.00066442951006616,-0.00068232642053695,0.00066756132973866,-0.00067600053460846,0.00066435670143838,-0.00041443199752409,0.0003936986374607,5.5605475620492e-08,-1.6740670349853e-07,-4.6042021445661e-07,3.5198611675378e-07,-0.0010739063995468,0.0010737977180405,-0.0010383637233064,0.0010391238995326,-0.0010270601154734,0.0010268926503169,-0.001025064598702,0.001024461256102,-0.0011046037757986,0.0011042935821516,-0.0011047826478953,0.0011050328793669,-0.0011043724129888,0.0011039070260599,-0.0011055709158055,0.0011056661915047,-0.0010394486677249,0.0010384725660316,-0.0010462801622553,0.0010468881584672,-0.0010270550233091,0.0010274357603057,-0.0010212163975941,0.0010211610482451,-0.0010377899122818,0.0010369653931818,2.4624380032271e-06,7.8850307097468e-06,-0.00080809508151663,0.00080859029710872,7.898973212614e-07,-5.5492908646821e-08,-0.00082830937970111,0.00083216472261587,-0.00084704367482764,0.00082692996415363,-0.00084894011461482,0.00084731468370487,-0.00083851896559539,0.00088224884809939,-0.00082752464319064,0.0008329605614259,-0.00084622779601764,0.00082774047960038,-0.00084812943742163,0.00084813069505495,-0.00086675456223767,0.0008676669420209,-0.0008670392636548,0.00086737998893731,-0.00086685974930922,0.00086408665113123,-0.00086714689315388,0.00086380218770253,-0.00084520854274604,0.00086188636449351,-0.00083878474477144,0.00084329478434776,-0.00083851151994408,0.00084357359024284,-0.00084492999443306,0.00086215974783088,-0.00083931435314897,0.00088146334919875,0.69344629843763,122718,2924,0.0029305025409338,0.0044639714770692,0.0033625066613959,17.852684187818,5.8021473502541e-05,5.8021473502541e-05,5.8021473502541e-05,4190448.4851364,0.010815183910627
25391759,0.70042233669383,0.011912169405117,0.003416227567448,0.0046998704501293,0.0037960713875391,-0.00076184747741519,0.00075725076300747,-9.0836160268301e-06,-3.9212235909217e-06,-1.0121030792088e-06,-7.0749732626835e-07,-0.00041739575454267,0.00040107740759099,-0.00081900871527096,0.00081456956640798,-0.00081612715005699,0.00082632130149189,-0.00042705970116199,0.00040164435616914,-0.00041768228061028,0.00040080491617573,-0.00081929120649938,0.00081426770957628,-0.00081642269566939,0.00082603230716795,-0.00088648430586468,0.00088085303134112,-0.00088394346053428,0.00088621249266572,-0.00088638630418199,0.00088096014294578,-0.00088383956148559,0.00088631375965291,-0.00073447151535302,0.00071683519527641,-0.00072684345211841,0.00071288228721295,-0.00073456359593399,0.00071673114406117,-0.00072694621519426,0.00071278889673147,-0.00042679025059169,0.00040193377375422,7.2023499228479e-08,-2.1207919847062e-07,-5.5629277208143e-07,4.2051512898205e-07,-0.001187630141044,0.0011874940449261,-0.0011478713382673,0.0011487853762414,-0.0011349081366158,0.0011347168560995,-0.0011324466578024,0.0011317001740548,-0.0012206260398473,0.0012202538198549,-0.0012208334355942,0.0012211341397509,-0.0012203469686754,0.0012197768395025,-0.0012217331455516,0.0012218362631148,-0.0011491913538892,0.0011480069742025,-0.0011573427504486,0.0011580629215214,-0.0011349226520321,0.0011353902878217,-0.0011277537138974,0.0011276659273037,-0.0011472005206094,0.0011462092377811,2.9866119157823e-06,9.3495442674771e-06,-0.00087199850652568,0.00087262480056767,9.4878616535151e-07,-6.7229245205119e-08,-0.0008950361233616,0.00089974649487071,-0.00091823769279741,0.00089429090871453,-0.00092041310841399,0.00091848802536121,-0.00090751780322166,0.00095991490715263,-0.00089409271074445,0.00090070391342693,-0.00091725704403357,0.00089526486500044,-0.00091943896559345,0.00091946885029506,-0.00093959903895726,0.0009407107741156,-0.00093994098528207,0.00094036599965922,-0.00093982022389289,0.00093649212650177,-0.00094016525046194,0.00093615048766235,-0.00091791378541699,0.00093788082891895,-0.00090992577148686,0.00091538011718171,-0.00090959743376776,0.00091571551579025,-0.00091757867368217,0.00093820931757415,-0.00090847473262223,0.00095897057417915,0.76207065498803,122718,2924,0.0031606265991561,0.0049353928991945,0.0036281554070707,19.835138679913,7.3881109439306e-05,7.3881109439306e-05,7.3881109439306e-05,4228951.5485357,0.011793352824187
26391759,0.75046068444444,0.012880299592594,0.0036699919240163,0.0051301847850823,0.0040801228834958,-0.00081246885856667,0.00080695658819582,-1.0861193689777e-05,-4.7271680580093e-06,-1.187781319123e-06,-8.0040944858664e-07,-0.00041906621383638,0.00039916176181713,-0.00087783371203913,0.00087259398993626,-0.00087432582916564,0.00088665344132586,-0.00043084638903596,0.00040051313812566,-0.00041942885757985,0.00039881383075072,-0.00087819383189061,0.000872211167713,-0.00087470083059176,0.00088628525989156,-0.00095381247966038,0.00094704586017821,-0.0009507646221635,0.00095329417494078,-0.00095368758083803,0.00094718156048706,-0.0009506330032626,0.00095342323294874,-0.00078185770418297,0.00076077550620514,-0.00077273358245695,0.00075594281658193,-0.00078197561946525,0.00076064405531556,-0.00077286347749007,0.00075582333135471,-0.00043050197695197,0.00040087914005811,9.4245742227886e-08,-2.6697518268075e-07,-6.6180907402737e-07,4.9451920568548e-07,-0.0012999583454575,0.0012997906390207,-0.0012558986496301,0.0012569824705145,-0.0012424211597539,0.0012422123521358,-0.0012394092642577,0.0012384944229351,-0.0013341653842991,0.0013337272348036,-0.0013344041744081,0.0013347620791934,-0.0013338439645225,0.0013331541370815,-0.0013354011903544,0.0013355077756211,-0.0012574702114294,0.0012560533059177,-0.0012670341292613,0.0012678715777219,-0.0012424691885023,0.0012430402173033,-0.0012336098992409,0.0012334746930345,-0.0012551034642821,0.0012539320387467,3.6056959144322e-06,1.1005968626992e-05,-0.0009284922380516,0.00092929222139886,1.1367521651879e-06,-6.5751272600785e-08,-0.00095320246456833,0.00095894291280552,-0.00098237279843648,0.00095412052425786,-0.00098481930227007,0.00098258297686701,-0.00096844965656456,0.0010307488273892,-0.00095208587658873,0.00096007688526338,-0.00098121211760142,0.00095527293041732,-0.00098366668613735,0.00098374388994594,-0.0010063457816982,0.0010076951821601,-0.0010067502190647,0.0010072872360613,-0.0010067369519349,0.0010027629871878,-0.0010071452145509,0.0010023589355983,-0.00098421150267885,0.0010079251166098,-0.00097434987619049,0.00098091716227278,-0.00097396132826775,0.00098131451554949,-0.0009838144545,0.0010083137886161,-0.00096958307366999,0.0010296311854802,0.82335182229769,122718,2924,0.0033692084741917,0.0054007575740718,0.0038630872542141,20.411878245013,7.8495025960103e-05,7.8495025960103e-05,7.8495025960103e-05,4209444.6424745,0.012713423820515
27391759,0.79833068078632,0.013717168644698,0.0038923360958402,0.0055038914363588,0.004320941112499,-0.00085671753897979,0.00085033430941672,-1.2612730387844e-05,-5.5049410880655e-06,-1.3828830812242e-06,-8.9679448599722e-07,-0.00041930045634335,0.00039576605686426,-0.00092821145898497,0.00092222803210993,-0.00092407429729526,0.00093869172690104,-0.00043322547162856,0.00039804700125162,-0.00041975537499737,0.00039532649032672,-0.00092866512602188,0.00092174821601453,-0.00092454460521775,0.00093822826399372,-0.0010146166481573,0.001006728590109,-0.0010110655650752,0.0010139244363632,-0.0010144597453844,0.0010068981994099,-0.0010109011404166,0.0010140866279287,-0.00082167570999423,0.00079720410656453,-0.000811065867482,0.00079159974518611,-0.00082182477943563,0.00079703989309265,-0.00081122822334703,0.00079144881121633,-0.0004327899695266,0.00039850574854986,1.2108126859718e-07,-3.3317071215829e-07,-7.8645517601292e-07,5.8117380271567e-07,-0.0014019020887624,0.0014016962864298,-0.0013511062766938,0.0013523897788338,-0.0013387612332109,0.0013385335074845,-0.0013351875291533,0.0013340714452291,-0.0014399454597417,0.0014394293797673,-0.0014401979512196,0.0014406224193101,-0.0014395954361581,0.001438763680418,-0.0014413003755483,0.0014414095779578,-0.0013529066793098,0.0013512144589243,-0.0013635142273971,0.0013644884100119,-0.0013388330391189,0.0013395270847507,-0.0013282331619371,0.0013280387078602,-0.0013502118302672,0.001348827925666,4.2209690617586e-06,1.2634670202668e-05,-0.00097499110787934,0.00097596307668053,1.3415872205536e-06,-7.9345120021901e-08,-0.00099845569675339,0.0010051808682437,-0.0010357263340391,0.0010034050890438,-0.0010384272156717,0.0010358396790924,-0.0010163473194362,0.0010880319073555,-0.0009971343677225,0.0010065229024708,-0.0010343541347456,0.0010047675894648,-0.0010370645563527,0.0010372121792479,-0.0010643163633564,0.001065908419798,-0.0010647940017455,0.0010654266335279,-0.0010648423914079,0.0010602262804159,-0.0010653245576949,0.0010597490933285,-0.0010377191122364,0.0010650561325153,-0.001026100352312,0.0010337633459775,-0.0010256408698412,0.0010342333434588,-0.0010372494585401,0.0010655157280343,-0.0010176887309823,0.0010867093828601,0.74366212196709,122718,2924,0.0035513870242654,0.0058228629737457,0.0040565033467374,22.213998121282,9.2911984970255e-05,9.2911984970255e-05,9.2911984970255e-05,4133589.9596632,0.013521644837337
28391759,0.84088273508563,0.014563862245523,0.0041204597929093,0.0058790470967216,0.004564355355892,-0.0009034131498036,0.00089622990702988,-1.4159583926149e-05,-6.2038077514844e-06,-1.560324027428e-06,-9.6550951893635e-07,-0.00043321508095445,0.00040693659831955,-0.00098372301660501,0.00097709673751618,-0.0009790318066097,0.0009955322365073,-0.00044903905931308,0.00040971342225755,-0.00043377298080365,0.0004063944539972,-0.00098428040212648,0.00097650966225066,-0.00097960737238549,0.00099496299609297,-0.0010735144013198,0.0010645677305383,-0.0010695252885891,0.0010726254674085,-0.0010733222779241,0.0010647744888444,-0.0010693249564943,0.0010728241494807,-0.00086476868626851,0.00083725180229468,-0.00085285973042622,0.00083090218581035,-0.00086495239367316,0.00083705150527366,-0.00085305781682954,0.00083071627606728,-0.0004485017788962,0.00041027586179257,1.4797731801495e-07,-4.0961681517762e-07,-9.3143026734293e-07,6.7816356393052e-07,-0.0015006135984206,0.0015003596878203,-0.0014440997710168,0.0014456067203539,-0.0014312846090759,0.0014310279975033,-0.0014271622106899,0.0014258143707271,-0.001542557084032,0.0015419465001846,-0.0015428010461695,0.0015432948222236,-0.0015421637757384,0.0015411675414642,-0.0015439957113177,0.0015441042486453,-0.0014461708199924,0.0014441596007656,-0.0014577665235517,0.001458894494282,-0.0014313508199665,0.0014321779599078,-0.0014193062532018,0.0014190421115467,-0.0014431984955311,0.0014415650740418,4.7466169252646e-06,1.4103507104286e-05,-0.0010234879824129,0.0010246082368757,1.5400633429966e-06,-1.2932181728213e-07,-0.0010507610837481,0.0010582652905896,-0.0010931718114342,0.0010572259689371,-0.0010961460847421,0.0010931671838199,-0.0010706255738704,0.0011502056890835,-0.0010492041596516,0.0010598461207704,-0.0010915580642422,0.001058828721316,-0.0010945432266088,0.0010947813179175,-0.0011204548132087,0.0011222558069906,-0.0011210155908823,0.001121690339052,-0.0011210438553131,0.0011158757974486,-0.0011216097869394,0.0011153155633994,-0.0010929916068842,0.0011238197767711,-0.0010799169733655,0.0010884993055075,-0.0010793764355902,0.00108905192938,-0.0010924393824155,0.0011243604268659,-0.0010722056076365,0.0011486473092896,0.84556057744222,122718,2924,0.003743796430537,0.006231396751222,0.0042581144061686,23.413889518729,0.00010251111614983,0.00010251111614983,0.00010251111614983,4176818.0281283,0.014335429065594
29391759,0.87768116448893,0.01512045489118,0.0042714645713389,0.0061278925340953,0.004721097785746,-0.00092822552532111,0.00092022836117062,-1.5909490606898e-05,-6.9584731285936e-06,-1.790520331551e-06,-1.0802391427548e-06,-0.00041534697864962,0.00038487636196224,-0.0010109741769024,0.0010035977205644,-0.0010056333720759,0.0010247394987266,-0.00043340183860321,0.00038906117516094,-0.00041601377544745,0.0003842247595195,-0.0010116422678314,0.0010028974646388,-0.0010063205132075,0.0010240579011633,-0.0011144341470554,0.0011044177759423,-0.0011099264048397,0.00111350400715,-0.0011142044804746,0.0011046638281746,-0.0011096880130611,0.0011137414918439,-0.00088571767819462,0.00085488105236841,-0.0008723034329407,0.00084794705110275,-0.00088593856516576,0.00085464250589573,-0.00087253948391971,0.00084772369110368,-0.00043275530665129,0.00038973273168444,1.8286764938104e-07,-4.8507117865737e-07,-1.0786199649533e-06,7.8622899179405e-07,-0.0015738101998275,0.0015735170612094,-0.0015100892315778,0.0015118435605727,-0.0015016909010524,0.0015014169733248,-0.0014971287002931,0.0014955470109219,-0.0016189567245597,0.0016182584693885,-0.0016191898060533,0.0016197689545223,-0.0016185778381413,0.0016174185774029,-0.0016204802877648,0.0016205988700584,-0.001512428436666,0.0015100919327585,-0.001524724773724,0.0015260258500381,-0.0015017804736169,0.0015027610052673,-0.0014878987060978,0.0014875715010351,-0.0015091300877164,0.0015072455436479,5.3905325670044e-06,1.5642573030078e-05,-0.001044752636724,0.0010460685664227,1.7800324303523e-06,-1.5022030611706e-07,-0.0010661859164492,0.0010746903752418,-0.0011191254444588,0.0010792167539447,-0.0011222763178659,0.0011189564954598,-0.0010889757378985,0.0011781033533158,-0.0010643802869348,0.0010765222200355,-0.0011172581421818,0.0010810720996972,-0.0011204209517501,0.0011208242453464,-0.0011545547738645,0.0011566526772564,-0.0011552028596235,0.0011559993949588,-0.0011553023899585,0.0011495203639194,-0.0011559561904339,0.0011488728714979,-0.0011197359562063,0.0011536209507098,-0.001104886385277,0.001114594162122,-0.0011042602143945,0.0011152337909652,-0.0011190967622903,0.0011542472115938,-0.0010908068128237,0.0011762963565121,0.64299206939106,122718,2924,0.0038453837579957,0.0065341274302755,0.0043468601626968,24.735204791427,0.00011308163833141,0.00011308163833141,0.00011308163833141,3945956.5210513,0.01483574979947
30391759,0.90844458082337,0.015524267713902,0.004383849265708,0.0063057708534577,0.0048346475947364,-0.00095079534771511,0.00094247074031014,-1.650324821656e-05,-7.1959986512247e-06,-1.9222168129172e-06,-1.1145027134067e-06,-0.00043469742145854,0.00040393410761425,-0.0010389362709629,0.0010313193437616,-0.0010333855127082,0.0010530196584507,-0.00045348606301719,0.00040781810054176,-0.00043546068606349,0.00040318609508776,-0.0010396993893338,0.0010305216849083,-0.0010341681711939,0.0010522411455764,-0.0011415652183992,0.0011309900085848,-0.0011369010317035,0.0011405705229236,-0.0011413041404018,0.0011312689292664,-0.0011366310101108,0.0011408406662326,-0.00090341309222236,0.00087131971629264,-0.00088951901265833,0.00086426226821199,-0.00090366586308459,0.00087104850221848,-0.00088978738912542,0.00086400668487406,-0.00045274412186665,0.00040858708918453,2.0041642113541e-07,-5.6299062616056e-07,-1.2407608547888e-06,8.8942778313799e-07,-0.0016208433829027,0.0016204912353693,-0.0015493508895534,0.0015513383084411,-0.0015406764862474,0.0015403481365103,-0.0015358962418162,0.0015340720459428,-0.0016751303200512,0.0016743161061946,-0.0016752911405449,0.0016759315570804,-0.0016747301477636,0.0016733926538862,-0.0016766700793463,0.0016767876689768,-0.0015518965310731,0.0015492094812901,-0.0015639638859995,0.001565434534621,-0.001540692514475,0.0015417951282395,-0.0015266488376117,0.0015262556998221,-0.0015485923452743,0.001546420655048,5.5513237417239e-06,1.6279129055558e-05,-0.0010674923539402,0.0010688356078709,1.9325440773294e-06,-2.6616583763766e-07,-0.001094112539563,0.0011026386324706,-0.0011483988541415,0.001107349911648,-0.0011517537737429,0.0011480321419552,-0.0011167354244658,0.0012075932176652,-0.0010920457096247,0.00110473323235,-0.0011462684282433,0.001109468076947,-0.0011496356644903,0.0011501630995331,-0.0011796919823493,0.0011818606013863,-0.0011804298024956,0.0011811175431369,-0.0011802830011502,0.0011743079156229,-0.0011810266677248,0.0011735707856778,-0.0011419202505115,0.0011775205491185,-0.0011268963744408,0.0011368365083337,-0.0011261814506885,0.0011375654366969,-0.0011411918826527,0.0011782356665641,-0.0011188288738062,0.0012055246038376,0.55654009761524,122718,2924,0.0039384234329277,0.0067286164203208,0.0044412826253383,26.075145863573,0.00012380116690858,0.00012380116690858,0.00012380116690858,4036938.0879041,0.015223445912814
31391759,0.9343511178339,0.015946689284718,0.0045002286885498,0.006491274888877,0.0049551857072913,-0.00097546820292353,0.00096657904889293,-1.7575969984028e-05,-7.7197712694681e-06,-2.0899161884332e-06,-1.1910329245129e-06,-0.00043786719696503,0.00040476427417134,-0.001068095650303,0.001059999527713,-0.0010621658176602,0.0010831933344909,-0.00045796181229906,0.00040933748970511,-0.00043871774927009,0.00040392795129042,-0.0010689469867107,0.0010591123134651,-0.0010630367059776,0.0010823252503914,-0.001173664863869,0.0011623572819705,-0.0011686965282654,0.0011725923815332,-0.0011733739893501,0.001162666936056,-0.001168396636403,0.0011728931965382,-0.00092632594085255,0.00089215129002182,-0.00091155413842321,0.00088466531802224,-0.00092660858454446,0.00089184997263114,-0.00091185241044504,0.00088437966774157,-0.00045713186522244,0.00041019406654647,2.2354009318789e-07,-6.2809539257528e-07,-1.3909889529618e-06,9.9875450598271e-07,-0.0016751979664217,0.0016748048387201,-0.0015997049035963,0.0016019352015391,-0.0015927948645986,0.0015924250058465,-0.0015877340241989,0.001585694967787,-0.0017314257240517,0.001730513965243,-0.0017315397383866,0.0017322555449991,-0.0017310175598531,0.0017295233910986,-0.0017329701688143,0.0017331040380085,-0.0016025388841213,0.0015995274257402,-0.0016151129964346,0.0016167674637648,-0.0015927801525805,0.0015940140151579,-0.0015777326600182,0.0015772975017867,-0.0015990438113624,0.0015966066544637,5.9078194446696e-06,1.7206333249573e-05,-0.0010902886600738,0.0010917539800717,2.1178129187525e-06,-3.4281232002944e-07,-0.0011185089748367,0.001127470036704,-0.0011765964189893,0.0011331062029821,-0.0011800960550297,0.0011760297931948,-0.0011425777552601,0.0012390263090936,-0.0011161876624342,0.001129820351282,-0.0011742099277406,0.0011354799773813,-0.0011777223860363,0.0011784168524172,-0.0012074537577924,0.0012097981242334,-0.0012082789133553,0.0012089675215509,-0.0012080850092891,0.0012018000253648,-0.0012089162803428,0.0012009756212885,-0.0011688848092811,0.0012065103947715,-0.0011528672928724,0.0011633913790809,-0.0011520656535801,0.0011642076947689,-0.0011680690644419,0.0012073121968349,-0.0011449268807599,0.001236703177148,0.69215549466537,122718,2924,0.0040398017643855,0.0069533221096065,0.0045361603607888,28.359036888449,0.00014207229510759,0.00014207229510759,0.00014207229510759,3966223.874029,0.015650947252606
32391759,0.95390068209856,0.016312456527107,0.0046017080587859,0.0066512188870029,0.0050595295813178,-0.00099010216171652,0.00098044245458107,-1.9346759408016e-05,-8.4469713950865e-06,-2.2997122389673e-06,-1.2801704949366e-06,-0.00040898497098001,0.0003710778777529,-0.0010838957712477,0.0010750511181435,-0.0010772819639674,0.0011012669624719,-0.00043146749112526,0.00037749125386872,-0.00040994828157899,0.000370127378541,-0.0010848628663024,0.001074046704501,-0.0010782687503963,0.0011002817534002,-0.0012017260541509,0.0011894553574576,-0.0011962045927201,0.0012006535003727,-0.0012013956989116,0.001189805812938,-0.0011958650077437,0.0012009949267535,-0.00094110824528296,0.00090365091010769,-0.00092474918537286,0.0008955147238348,-0.00094143010420165,0.00090330996699726,-0.00092508685043804,0.00089518965563024,-0.00043052301954291,0.00037846027344781,2.7015058377655e-07,-6.9698108837782e-07,-1.540354409662e-06,1.1272046805799e-06,-0.0017272823040892,0.0017268681199322,-0.0016502738076466,0.0016527937029283,-0.0016484395093815,0.0016480684862862,-0.0016430108323152,0.0016407439332034,-0.0017792530654077,0.0017782669914572,-0.0017793525517025,0.0017801808740607,-0.0017788972069554,0.0017772489271156,-0.0017808502209168,0.0017810168009602,-0.0016534716365041,0.0016501290001981,-0.0016669898017128,0.00166885596906,-0.0016484589805905,0.0016498770510728,-0.0016312608417315,0.0016307833032912,-0.0016495522163199,0.0016468616372917,6.6273226472818e-06,1.8653727655921e-05,-0.0010966401522218,0.0010983332954899,2.3812634352574e-06,-3.607610192737e-07,-0.0011161535893042,0.0011262666263053,-0.001185870854343,0.0011380787644309,-0.0011894485315192,0.0011851245242633,-0.0011438334089055,0.0012508816131883,-0.0011135613184522,0.0011288894912471,-0.001183210354786,0.0011407258001118,-0.0011868017779727,0.00118778571127,-0.001226043550599,0.0012287847871361,-0.0012269625110248,0.001227859788776,-0.0012269734020179,0.0012200914978426,-0.0012278990527233,0.0012191732609013,-0.0011834300479933,0.0012235921366094,-0.0011653032914647,0.0011770785169743,-0.0011644087678498,0.0011779890292786,-0.0011825201077897,0.0012244867491014,-0.0011464553352516,0.0012482878711409,0.79325035118638,122718,2924,0.0040992423147754,0.0071684924906945,0.0045631304027402,29.293209960835,0.00014954567968668,0.00014954567968668,0.00014954567968668,3636726.205141,0.01595738000675
33391759,0.96772693112849,0.016579311182826,0.004678135918063,0.0067655588711651,0.0051356163935982,-0.00099856792773598,0.00098839756923652,-2.0635117832707e-05,-8.874877860139e-06,-2.4577592971046e-06,-1.3253785540297e-06,-0.00039117789903048,0.000350168255289,-0.0010941639868774,0.0010847807310092,-0.0010870199514969,0.0011131998081662,-0.00041551848430603,0.00035770664677223,-0.00039224871832393,0.00034910948997766,-0.0010952399036316,0.0010836657344652,-0.001088115847896,0.0011121042628237,-0.0012193443024996,0.0012063460788989,-0.0012134074790068,0.0012183058605138,-0.0012189773449455,0.0012067345852782,-0.0012130310775402,0.0012186851393357,-0.00094879861975447,0.00090894229542182,-0.00093124004827998,0.00090045421854938,-0.00094915721099176,0.00090856403634941,-0.0009316147504971,0.00090009215401987,-0.00041446575364743,0.00035878321905795,3.1034119554344e-07,-7.6558906392159e-07,-1.6787121965288e-06,1.2386147963681e-06,-0.0017635369768249,0.0017630957221134,-0.0016842946784525,0.0016870685977838,-0.0016857729739579,0.0016853976955285,-0.0016800783235515,0.0016775931639413,-0.001814256911436,0.0018131970565044,-0.0018143298382263,0.0018152525303841,-0.0018139562072653,0.0018121601308434,-0.0018159175133658,0.0018161044246414,-0.0016877789922135,0.0016841287638478,-0.0017016474902661,0.0017036945818177,-0.0016858070632972,0.0016873874020373,-0.0016671733668538,0.0016666441696597,-0.0016835841109887,0.0016806589145774,7.1750414042783e-06,1.9781832003032e-05,-0.0010971405049525,0.0010989819016746,2.6056078445908e-06,-3.8967816597763e-07,-0.0011109640158725,0.0011219080754256,-0.0011898022120598,0.0011388913624246,-0.0011934673824971,0.001188914848416,-0.0011409627475808,0.001255308642467,-0.0011081273254858,0.0011247766346489,-0.0011868947214568,0.0011417848936032,-0.0011905743050606,0.0011918231403282,-0.0012356010782124,0.0012386584913273,-0.0012366045450928,0.0012376486119164,-0.0012367018934506,0.0012293328514931,-0.0012377124346065,0.0012283301081267,-0.0011890202944896,0.0012311962765817,-0.001169484742348,0.0011822027164061,-0.0011685066026138,0.0011831978056093,-0.0011880258461075,0.0012321745188038,-0.0011438304030987,0.0012524706176534,0.81381076464073,122718,2924,0.0041335149423578,0.0073181953630813,0.0045656475908545,29.275810956214,0.00014940648764972,0.00014940648764972,0.00014940648764972,3413039.3285597,0.016146923699686
34391759,0.9783311768293,0.016763451976948,0.0047319298030466,0.0068434667388245,0.0051880554350764,-0.0010085274272739,0.0009980311745193,-2.1433993258752e-05,-9.1459993282439e-06,-2.5868690628128e-06,-1.3499629703676e-06,-0.00038899966499995,0.00034632832645269,-0.0011060928064069,0.0010963980194622,-0.0010986255560588,0.001126097898639,-0.00041449961239061,0.00035440608750589,-0.00039017188964681,0.00034516747868359,-0.0011072702834837,0.0010951798914198,-0.0010998230479724,0.0011248992371615,-0.0012344367284677,0.0012209281946458,-0.0012282524393772,0.0012334258310196,-0.0012340359830134,0.0012213518217428,-0.0012278421894137,0.0012338401796819,-0.00095711021933295,0.00091572579144032,-0.00093882383262675,0.00090706105252977,-0.00095750312317603,0.00091531284057614,-0.00093923293588236,0.0009066643903192,-0.00041334510033487,0.00035558438928411,3.4257793498639e-07,-8.3522518204151e-07,-1.8196217825249e-06,1.3435464894663e-06,-0.0017915632899341,0.0017910859591457,-0.0017091871879048,0.0017122001232109,-0.0017129584086962,0.0017125646068143,-0.0017071105104526,0.0017044062080201,-0.00184376723887,0.0018426235842845,-0.0018437900282969,0.0018447933073895,-0.0018435042222967,0.0018415562138156,-0.0018454585923876,0.0018456579338318,-0.0017129067732577,0.0017089459219347,-0.001726722638268,0.0017289406229137,-0.0017129662712323,0.0017146916379863,-0.0016936340863214,0.0016930493685117,-0.0017085812141161,0.0017054134116427,7.4916271977491e-06,2.0513190834873e-05,-0.0011015307789965,0.0011034500646144,2.7826200674499e-06,-4.6072263195494e-07,-0.0011142472374405,0.0011255616438062,-0.0011977145624714,0.0011449440583779,-0.0012014740728755,0.0011966445716971,-0.001145273697452,0.0012636672689482,-0.0011111690927961,0.0011286727258594,-0.0011945643474375,0.001148080056012,-0.0011983386877224,0.0011997957059452,-0.0012448039398845,0.001248052411183,-0.0012458901099455,0.0012469596248784,-0.001245936328677,0.0012382753845279,-0.0012470297997569,0.001237189954797,-0.0011957461508906,0.0012393444558841,-0.0011754885934785,0.0011887261492019,-0.0011744283015567,0.0011898040597865,-0.0011946689887325,0.0012404049225683,-0.0011483837469581,0.0012605877393505,0.7296115327816,122718,2924,0.0041742616600133,0.0074339165331445,0.0045841044523633,31.392765796234,0.00016634212636987,0.00016634212636987,0.00016634212636987,3284827.3008244,0.01632471762792
35391759,0.98675557442536,0.016895228865506,0.0047708049955664,0.0068987738937439,0.0052256499761962,-0.0010227084888829,0.0010120566275032,-2.1703295761788e-05,-9.2846084250646e-06,-2.6819658325095e-06,-1.3597745315173e-06,-0.00040380908938137,0.00036094980624849,-0.0011227546751189,0.0011129845868272,-0.0011151986769291,0.0011429188433157,-0.00042966054337469,0.00036895404169193,-0.00040506587911297,0.0003597035573582,-0.0011240158301576,0.0011116816617386,-0.0011164795033829,0.0011416350540171,-0.0012496886837931,0.0012359095459408,-0.0012434443936975,0.0012486684962353,-0.0012492604273753,0.001236361625946,-0.0012430067980446,0.0012491114647994,-0.000969255819685,0.00092730411239685,-0.00095078131137353,0.00091858954288754,-0.00096967712408945,0.00092686278716784,-0.00095121852395242,0.00091816421207261,-0.00042842122604249,0.00037021751413809,3.6157176994809e-07,-9.006107703954e-07,-1.9604598865025e-06,1.439180987626e-06,-0.0018145982865187,0.0018140756916596,-0.0017286969427202,0.0017319248781039,-0.0017333630589273,0.001732927801426,-0.0017274755031873,0.0017245633527359,-0.0018703598382629,0.0018691206325048,-0.0018703084913812,0.0018713725576272,-0.0018701058354019,0.0018680073307589,-0.001872032549134,0.0018722377127919,-0.0017326140104616,0.0017283480815771,-0.0017460998516879,0.0017484767662484,-0.0017333006263723,0.0017351414410645,-0.0017140091134914,0.0017133735190575,-0.0017282988694295,0.001724881974846,7.5431685063572e-06,2.0822938355565e-05,-0.0011140770215175,0.0011160077174887,2.9062404340566e-06,-5.7393961048822e-07,-0.0011309089085409,0.0011420721464651,-0.0012139364411398,0.0011606160395809,-0.0012177922836105,0.0012126373755558,-0.001161665778837,0.0012808674553969,-0.0011275975936295,0.0011454170777383,-0.0012105535325055,0.0011639847200386,-0.0012144243169939,0.001216021294071,-0.0012573536531037,0.0012606472775883,-0.0012585186359765,0.0012594756967976,-0.0012583787522843,0.0012506638795136,-0.0012595510638284,0.0012494996840274,-0.0012083627413568,0.0012527540549067,-0.0011880992456576,0.0012013646940715,-0.0011869601438667,0.0012025216546107,-0.0012072066504796,0.0012538934416881,-0.0011650093964516,0.0012775544979939,0.65593630488581,122718,2924,0.0042327783486106,0.0075290613975164,0.004636182513139,35.839104750935,0.00020191283800748,0.00020191283800748,0.00020191283800748,3269287.3553367,0.01653383903819
36391759,0.99221934987024,0.016984763542326,0.0047971934877209,0.0069362341744952,0.0052513358801097,-0.0010302854470478,0.0010195161250166,-2.1880685317721e-05,-9.4017429606983e-06,-2.7567100259447e-06,-1.3669873743576e-06,-0.00041059018894588,0.0003674751223546,-0.0011318607566966,0.0011220430490397,-0.0011242553952192,0.0011521450199507,-0.00043664951865101,0.0003754992323151,-0.00041191394712096,0.00036616074798979,-0.0011331884093081,0.0011206732773721,-0.0011256020371614,0.0011507937173564,-0.0012578448281878,0.0012438865186972,-0.001251561272296,0.0012568115171665,-0.0012573946523375,0.0012443609317899,-0.0012511020927072,0.001257277152234,-0.00097594576357085,0.00093363561197958,-0.00095735916067614,0.00092487667852268,-0.00097638983763458,0.00093317197455866,-0.00095781850381828,0.00092442839354471,-0.00043534246320877,0.00037683007362006,3.7782250084154e-07,-9.5163913585522e-07,-2.0881314089083e-06,1.5328816400189e-06,-0.0018275186102903,0.0018269619958185,-0.0017396430554006,0.0017430767446565,-0.0017449937605542,0.001744516893853,-0.0017391124233711,0.0017360259436973,-0.0018850130669005,0.0018836893093101,-0.0018848895567937,0.0018860142013906,-0.0018847654336885,0.0018825388264484,-0.001886641399393,0.0018868635732296,-0.0017437760564368,0.0017392366412009,-0.0017570902807197,0.0017596283145594,-0.0017448604521072,0.0017468063401642,-0.0017255803348334,0.0017249171582771,-0.0017394516138024,0.0017358057966532,7.5675145537266e-06,2.0979430479059e-05,-0.0011210635902031,0.0011230004935048,3.013719541837e-06,-6.8682134755126e-07,-0.0011404351808622,0.001151417701658,-0.001223065240295,0.0011693070859377,-0.0012269712987729,0.0012215377155867,-0.0011710517681579,0.0012909840409996,-0.0011369053778925,0.0011549812206359,-0.001219465534208,0.0011728926991829,-0.0012233865003099,0.0012251385248874,-0.0012640703165234,0.0012674068510056,-0.0012653084270988,0.0012661621902012,-0.001265038563747,0.0012573285878728,-0.001266283969449,0.0012560912807827,-0.0012156287931672,0.0012603932811149,-0.0011953280194309,0.0012085678372445,-0.0011941152848389,0.0012097984338068,-0.0012143991410693,0.0012616063682131,-0.0011746138011982,0.0012874524436758,0.68699515304475,122718,2924,0.0042639809952471,0.0075824049390143,0.0046651780903389,37.525275479691,0.00021540220383753,0.00021540220383753,0.00021540220383753,3271746.1775487,0.016649269387642
37391759,0.99544511782001,0.017037091612337,0.0048126113506791,0.0069581339602071,0.005266346301451,-0.0010319303663389,0.0010209716910919,-2.2344525244616e-05,-9.5810261001968e-06,-2.8305796981853e-06,-1.3835705892887e-06,-0.00040117968489015,0.00035662055434512,-0.0011330198304416,0.0011230079159908,-0.0011252293885117,0.0011540129968258,-0.00042791015661062,0.00036526217577538,-0.00040255869794407,0.00035525005021097,-0.001134403359426,0.001121582241651,-0.0011266314074242,0.0011526052807935,-0.0012626182990204,0.0012484151821142,-0.0012561805173213,0.0012616028593398,-0.0012621493947039,0.001248908600335,-0.0012557028185022,0.0012620877109004,-0.00097800989868503,0.00093486611161681,-0.00095899345895283,0.00092597613602457,-0.00097847308082221,0.00093438370190454,-0.00095947147008845,0.00092550864155048,-0.00042654679601067,0.00036664812555056,4.0176868957111e-07,-9.8391291374466e-07,-2.18403924867e-06,1.6210148787851e-06,-0.0018362558011559,0.0018356913454198,-0.0017483742543898,0.0017519993911599,-0.0017553497419188,0.0017548591600268,-0.001749434420839,0.0017462234048044,-0.0018921158864583,0.0018907425424284,-0.0018919508685005,0.0018931472225444,-0.0018918995257952,0.0018895856637742,-0.0018937265240343,0.0018939827170274,-0.001752728110231,0.0017479817817354,-0.0017661979259506,0.0017688898552572,-0.0017551918068629,0.0017572460527017,-0.0017353349846827,0.0017346694049258,-0.0017482736810859,0.0017444584355772,7.7647028845196e-06,2.1302119681342e-05,-0.0011191254711922,0.0011211108452417,3.1331265070899e-06,-7.5116541656132e-07,-0.0011343505089579,0.0011455455331492,-0.0012210558413795,0.0011660333504001,-0.0012249617105741,0.0012193655120969,-0.0011659495066659,0.0012888907778127,-0.001130639420751,0.0011492902263244,-0.0012172758662062,0.0011697992897666,-0.0012211967272628,0.0012231466995669,-0.0012657339889011,0.001269218504695,-0.0012670330710538,0.0012679127408269,-0.0012668021380971,0.0012589686598017,-0.0012681086023088,0.001257670331868,-0.00121555064324,0.0012607131102884,-0.001194656772814,0.0012081985309637,-0.00119338271378,0.001209490621921,-0.0012142595118702,0.0012619875147573,-0.0011696928110394,0.0012851780573828,0.68009907945379,122718,2924,0.0042704974078297,0.0076184387285204,0.004657294978218,37.635465641747,0.00021628372513398,0.00021628372513398,0.00021628372513398,3173738.5567606,0.016684539793486
38391759,0.99730782835653,0.017068996883057,0.0048220789465145,0.0069713850346124,0.0052755329019299,-0.001031788096662,0.0010207652483366,-2.2525111115529e-05,-9.622983387192e-06,-2.86646441466e-06,-1.371978328207e-06,-0.00039822653019486,0.00035335408922708,-0.0011332209883843,0.0011231678028316,-0.0011253529868737,0.0011544660802769,-0.00042526187961987,0.00036206768272785,-0.00039965205106443,0.00035193632341554,-0.0011346510027896,0.0011216953152422,-0.0011268010842498,0.0011530111464925,-0.001263621727615,0.0012493024357486,-0.0012571227747286,0.0012626060587883,-0.0012631374616835,0.0012498116020463,-0.0012566299155923,0.0012631068593511,-0.00097763566602861,0.00093415484651859,-0.00095843837083086,0.0009252345655829,-0.00097811473522946,0.00093365679896596,-0.00095893187188641,0.00092475103553635,-0.00042385143552943,0.00036350033308223,4.168858121344e-07,-1.0156924110833e-06,-2.2717463463495e-06,1.6926988281727e-06,-0.0018398183467123,0.0018392378159084,-0.0017513989236442,0.0017551801342344,-0.0017589239005637,0.0017584102327839,-0.0017529955088413,0.0017496688923589,-0.0018957833849311,0.0018943571638737,-0.0018955743702297,0.0018968226874471,-0.0018955851244008,0.0018931874805985,-0.0018973767486334,0.0018976539847757,-0.0017559139633806,0.0017509796617377,-0.0017692693103954,0.0017720860362762,-0.001758726234376,0.0017608630829038,-0.001738720886828,0.0017380454443236,-0.0017514191547575,0.0017474471601498,7.8408150259213e-06,2.1453444763539e-05,-0.0011176370004761,0.0011196293700726,3.2186733810856e-06,-8.2454962501348e-07,-0.0011324276450345,0.0011436121704781,-0.0012203085862486,0.0011647409534643,-0.0012242283432504,0.0012184640129773,-0.0011641855525949,0.0012881152331453,-0.0011285594635784,0.0011475141746548,-0.001216372385289,0.0011686631457331,-0.0012203072127447,0.0012224015143107,-0.0012653675636537,0.0012689280132204,-0.0012667193745384,0.001267569467202,-0.0012664521518921,0.0012585731634569,-0.0012678113876241,0.0012572220947642,-0.0012147157637063,0.0012601233207251,-0.0011936332607532,0.001207267751312,-0.0011923061922749,0.001208613011632,-0.001213371528607,0.0012614507903315,-0.0011680860732608,0.0012842453543633,0.71704436579938,122718,2924,0.0042697969628196,0.0076331066823256,0.0046511579809914,37.195993438154,0.00021276794750523,0.00021276794750523,0.00021276794750523,3145317.2701191,0.016692507978247
38880000,0.99798781243152,0.017081081083629,0.0048256707884739,0.0069763917572853,0.0052790185378698,-0.0010314361785864,0.0010203840833874,-2.2663693804031e-05,-9.5970027424567e-06,-2.878283166825e-06,-1.3753752422836e-06,-0.00039373607538311,0.00034866779641435,-0.0011329772991842,0.0011228162866489,-0.0011250256363709,0.0011543828470055,-0.00042103596433895,0.00035739238946861,-0.00039516960665715,0.00034724194122858,-0.0011344154748028,0.0011213356463425,-0.0011264818492706,0.0011529197116454,-0.0012645835077712,0.0012501940923387,-0.0012580209268764,0.0012635851612598,-0.0012640965018891,0.0012507060154203,-0.0012575253493523,0.001264088739599,-0.00097755571495557,0.00093386127644877,-0.00095821068806358,0.00092501594663545,-0.00097803754485559,0.00093336049961953,-0.00095870691267524,0.00092452965034073,-0.00041961729717626,0.00035883292475414,4.2348554543472e-07,-1.0171182313043e-06,-2.2831572238989e-06,1.7093647218153e-06,-0.00184259843269,0.0018420231395492,-0.001754233273199,0.0017580499485059,-0.0017621650765932,0.0017616553195602,-0.0017562331758115,0.0017528945327393,-0.0018980221167301,0.0018965944955795,-0.0018978097824554,0.0018990752994521,-0.001897835916211,0.0018954315159503,-0.0018996209029203,0.0018999099773667,-0.0017587930370794,0.001753833789566,-0.0017721685094512,0.0017750153493575,-0.0017619735973983,0.0017641329325459,-0.001741829259695,0.0017411603857923,-0.0017542620065741,0.0017502703994933,7.9055325053544e-06,2.1586191413281e-05,-0.0011154316756493,0.0011174340456365,3.25093717606e-06,-8.2090645375116e-07,-0.0011280102756383,0.0011392901372829,-0.0012182930300852,0.0011622936323651,-0.0012222047149574,0.0012164284132761,-0.0011601039163628,0.0012850990995052,-0.0011241141244057,0.0011432199275093,-0.0012143288921605,0.001166243795899,-0.0012182556308491,0.0012203938592975,-0.0012649735136829,0.0012685740351821,-0.0012663348359762,0.0012672059841618,-0.0012660974538671,0.0012581596701646,-0.001267466191994,0.001256799086837,-0.0012130492300911,0.0012585528171641,-0.001191817152222,0.0012055469492673,-0.0011904805590896,0.0012069016934376,-0.001211695491972,0.0012598897882224,-0.0011640322877399,0.0012812013351273,0.74364572121898,122718,2924,0.0042683114549137,0.0076445713805801,0.0046420594244539,37.193648666929,0.00021274918933543,0.00021274918933543,0.00021274918933543,3085953.0943674,0.01669341411856
