time,ASR_ext,ASR_strain,ASR_strain_xx,ASR_strain_yy,ASR_strain_zz,disp_x_101,disp_x_102,disp_x_103,disp_x_104,disp_x_105,disp_x_106,disp_x_p10_neg,disp_x_p10_pos,disp_x_p11_neg,disp_x_p11_pos,disp_x_p12_neg,disp_x_p12_pos,disp_x_p13_neg,disp_x_p13_pos,disp_x_p14_neg,disp_x_p14_pos,disp_x_p15_neg,disp_x_p15_pos,disp_x_p16_neg,disp_x_p16_pos,disp_x_p1_neg,disp_x_p1_pos,disp_x_p2_neg,disp_x_p2_pos,disp_x_p3_neg,disp_x_p3_pos,disp_x_p4_neg,disp_x_p4_pos,disp_x_p5_neg,disp_x_p5_pos,disp_x_p6_neg,disp_x_p6_pos,disp_x_p7_neg,disp_x_p7_pos,disp_x_p8_neg,disp_x_p8_pos,disp_x_p9_neg,disp_x_p9_pos,disp_y_101,disp_y_102,disp_y_103,disp_y_104,disp_y_105,disp_y_106,disp_y_p10_neg,disp_y_p10_pos,disp_y_p11_neg,disp_y_p11_pos,disp_y_p12_neg,disp_y_p12_pos,disp_y_p1_neg,disp_y_p1_pos,disp_y_p2_neg,disp_y_p2_pos,disp_y_p3_neg,disp_y_p3_pos,disp_y_p4_neg,disp_y_p4_pos,disp_y_p5_neg,disp_y_p5_pos,disp_y_p6_neg,disp_y_p6_pos,disp_y_p7_neg,disp_y_p7_pos,disp_y_p8_neg,disp_y_p8_pos,disp_y_p9_neg,disp_y_p9_pos,disp_z_101,disp_z_102,disp_z_103,disp_z_104,disp_z_105,disp_z_106,disp_z_p10_neg,disp_z_p10_pos,disp_z_p11_neg,disp_z_p11_pos,disp_z_p12_neg,disp_z_p12_pos,disp_z_p13_neg,disp_z_p13_pos,disp_z_p14_neg,disp_z_p14_pos,disp_z_p15_neg,disp_z_p15_pos,disp_z_p16_neg,disp_z_p16_pos,disp_z_p1_neg,disp_z_p1_pos,disp_z_p2_neg,disp_z_p2_pos,disp_z_p3_neg,disp_z_p3_pos,disp_z_p4_neg,disp_z_p4_pos,disp_z_p5_neg,disp_z_p5_pos,disp_z_p6_neg,disp_z_p6_pos,disp_z_p7_neg,disp_z_p7_pos,disp_z_p8_neg,disp_z_p8_pos,disp_z_p9_neg,disp_z_p9_pos,humidity,ndof,nelem,strain_xx,strain_yy,strain_zz,temp,thermal_strain_xx,thermal_strain_yy,thermal_strain_zz,vonmises,vstrain
14391759,0,0,0,0,0,0,0,0,0,0,0,0,0,0,0,0,0,0,0,0,0,0,0,0,0,0,0,0,0,0,0,0,0,0,0,0,0,0,0,0,0,0,0,0,0,0,0,0,0,0,0,0,0,0,0,0,0,0,0,0,0,0,0,0,0,0,0,0,0,0,0,0,0,0,0,0,0,0,0,0,0,0,0,0,0,0,0,0,0,0,0,0,0,0,0,0,0,0,0,0,0,0,0,0,0,0,0,0,0,0,0,0,0,0,0,0,0,0,0,0,0,0,0
15391759,0.10054933691868,0.0015492377304913,0.00051641257683045,0.00051641257683045,0.00051641257683045,-0.00014716296293781,0.00014708219706785,-1.5533813323128e-07,-1.2672903855873e-07,-2.0961679176415e-08,-4.5732892742245e-09,-0.00013080549585833,0.00013023465850806,-0.00014602837849383,0.00014599533550696,-0.00014600440987716,0.00014631659803587,-0.00013090925974015,0.00013034715760436,-0.00013082134813754,0.00013021861912048,-0.00014604420966805,0.00014597914209411,-0.00014602025096535,0.0001463004140932,-0.00015434981798533,0.00015428074705794,-0.00015432550616745,0.00015438198941034,-0.00015434452832961,0.0001542862600285,-0.00015432021199746,0.00015438749798437,-0.00014551847100996,0.00014524398462468,-0.00014544120713411,0.00014509112026541,-0.00014552384504015,0.0001452385277004,-0.00014544659043916,0.00014508567264807,-0.00013089342574907,0.00013036321530525,5.2568006288382e-09,-1.0850918562618e-08,-3.0485589744395e-08,2.5130110221647e-08,-0.00015925356954125,0.00015924818776196,-0.00015624699101462,0.00015630152465259,-0.0001579292673668,0.00015792103444709,-0.00015788203312182,0.00015784211325938,-0.00016116772441751,0.00016114925659859,-0.00016116167897737,0.00016118031324615,-0.0001611685668902,0.00016113928303496,-0.00016118169095166,0.00016118950912843,-0.00015630509356263,0.00015623989984834,-0.00015630494074492,0.000156348651363,-0.00015791648581269,0.00015794533833364,-0.00015770378819537,0.00015770095372859,-0.00015625541327433,0.00015620104239507,1.7941704625364e-08,2.4210120814122e-07,-0.00015245541285155,0.0001524863351623,4.2453486871831e-08,-1.3176557856658e-08,-0.00015057024643362,0.00015054175024835,-0.00015117253496698,0.00015069878021118,-0.00015123568776966,0.00015113028340244,-0.00015079647484304,0.00015219701685689,-0.00015051596601574,0.0001505963486177,-0.00015111805448267,0.00015075321376896,-0.00015118132285026,0.00015118483232114,-0.00015629736364933,0.00015630424897271,-0.00015631587506656,0.00015628566560676,-0.00015627903923814,0.00015624679414502,-0.00015629760512582,0.00015622826519066,-0.00015244233264189,0.0001528780308237,-0.00015233347353407,0.00015235233577269,-0.00015231501030033,0.00015237095323644,-0.00015242374562081,0.00015289652430386,-0.00015085100823897,0.00015214267195843,0.70055894083924,122718,2924,0.00061282374924661,0.00066332374196581,0.00063509265458267,27.188289267375,0.000132706314139,0.000132706314139,0.000132706314139,1233751.1329116,0.001913070834094
16391759,0.18930467016425,0.0030042804334058,0.00097732330540775,0.0010276038440506,0.00099935328394741,-0.0002444758246625,0.00024425679330847,-5.0740402155266e-07,-2.7322378443452e-07,-7.095573966865e-08,-2.0622831037189e-08,-0.00020789025271144,0.00020654807365824,-0.00024681954618756,0.00024668479191738,-0.00024670663972191,0.00024756271068339,-0.00020832415372219,0.00020660640085914,-0.00020793897852256,0.0002064987383807,-0.00024686818997184,0.00024663500907816,-0.0002467553213496,0.00024751296332507,-0.00025924618544207,0.00025900065072764,-0.00025913041296006,0.00025934224102302,-0.00025922986682833,0.00025901760899839,-0.0002591140774301,0.00025935918309152,-0.00024376442941373,0.00024285442782632,-0.00024340795179926,0.00024256510925368,-0.00024378094977319,0.0002428376389074,-0.00024342450610887,0.0002425483544143,-0.000208275494729,0.00020665580496304,1.4497486121912e-08,-3.4954456048817e-08,-1.0390913101059e-07,8.4181716411731e-08,-0.00028008046902583,0.00028006066828885,-0.00027509897955404,0.00027528010262478,-0.00027756212341921,0.0002775277131551,-0.00027748438696812,0.00027735278755163,-0.0002830231131468,0.00028295732683035,-0.00028299621635546,0.00028305590151596,-0.00028302240650187,0.00028292352079511,-0.0002830538906408,0.00028308047554369,-0.00027529293398238,0.00027507253017004,-0.00027537169827556,0.00027551962050963,-0.00027751371317929,0.00027760472026944,-0.00027705594215534,0.00027704976022533,-0.00027515634695952,0.00027496914136531,1.0934311128343e-07,6.835055726087e-07,-0.00025921485348169,0.0002592738335766,1.326619426185e-07,-5.5522085428152e-08,-0.00026084212643724,0.00026084448402664,-0.00026113177255445,0.00025955311875171,-0.00026129310308749,0.00026098167891495,-0.0002614787098682,0.0002654125606114,-0.00026065845528132,0.00026102912288152,-0.00026094747841826,0.00025973726548389,-0.00026110914902723,0.00026116616746445,-0.00026615658153027,0.0002662124854193,-0.00026621922904415,0.00026614964964699,-0.00026610398291713,0.00026594490468866,-0.00026616678727133,0.00026588222555442,-0.00026159640254862,0.00026279801257978,-0.00026126403325905,0.00026142236760913,-0.00026120154639457,0.00026148531088116,-0.00026153355832275,0.00026286059772967,-0.00026166313770998,0.00026522867858403,0.7587163515091,122718,2924,0.0010176843591959,0.0011662741497284,0.0010796000063378,24.444989989966,0.00011075991991973,0.00011075991991973,0.00011075991991973,1894731.3383853,0.003268895038373
17391759,0.26838988113986,0.0041580635504755,0.0013188509542194,0.0014604469876078,0.0013787656086483,-0.00031491874592595,0.00031444426011565,-1.0825995515079e-06,-5.1007553784773e-07,-1.3990563690146e-07,-4.243874896472e-08,-0.0002470870067746,0.00024471983791285,-0.00031986497470623,0.0003195095629399,-0.00031958931764539,0.00032122066741805,-0.00024810397501546,0.00024463854337581,-0.00024718109647614,0.00024462453501622,-0.00031995896885128,0.00031941325980172,-0.00031968335023889,0.00032112439329519,-0.00034117453993185,0.00034062581048058,-0.00034089943010152,0.00034132225540523,-0.00034114287573638,0.00034065867081457,-0.00034086774881367,0.00034135510065051,-0.00031235391402087,0.00031036630487987,-0.00031151229367524,0.00030981561520193,-0.00031238590031706,0.00031033383815763,-0.00031154431256472,0.00030978318214571,-0.0002480099471043,0.00024473391412364,2.717189838059e-08,-6.8347128056984e-08,-2.2120487171098e-07,1.8145212919908e-07,-0.00038302287763537,0.00038298297862761,-0.00037439056162636,0.00037477734592677,-0.0003772099274007,0.00037712856831953,-0.0003770385325379,0.00037676961227047,-0.00038853195069,0.00038839025408003,-0.00038847107381995,0.00038859786715461,-0.00038852900261505,0.0003883232464232,-0.0003885768030063,0.00038863953454462,-0.00037481981239948,0.00037435388233531,-0.0003752282361726,0.00037555084073566,-0.00037710649336364,0.00037729358276461,-0.00037617534350139,0.00037617486940334,-0.00037453530885362,0.00037413354823614,2.8450739267662e-07,1.3031160181921e-06,-0.00034176332785025,0.00034185089609261,2.6583889775684e-07,-1.3697618691169e-07,-0.00034481618037922,0.00034492956835878,-0.00034597582060109,0.00034258284910135,-0.00034628933196101,0.00034568335784395,-0.0003461579193968,0.00035366296140579,-0.00034442283724276,0.00034532486507318,-0.0003455812373214,0.00034297701984573,-0.00034589548595585,0.00034607826743012,-0.00035454202953879,0.00035469915500217,-0.00035467614303033,0.0003545646978908,-0.00035449680669567,0.00035415999225533,-0.00035463123887321,0.00035402585279268,-0.000346411966844,0.00034877657132014,-0.00034559087265054,0.00034602361545846,-0.00034545704327787,0.00034615829689975,-0.00034627742251956,0.00034891053503179,-0.00034655286516002,0.00035326926915827,0.68097528185715,122718,2924,0.0013103464671361,0.0015945540027087,0.0014231802940772,22.111452437929,9.2091619503432e-05,9.2091619503432e-05,9.2091619503432e-05,2426412.6164468,0.0043374747924542
18391759,0.32531647319594,0.0048883936177222,0.0015296290995539,0.0017427352609869,0.0016160292571814,-0.0003524337541574,0.00035177241048097,-1.4965480041244e-06,-6.6785281758312e-07,-1.9691759138106e-07,-7.4947953896438e-08,-0.00026614574657392,0.00026313583983131,-0.00035995569210377,0.00035940409396064,-0.00035955751391316,0.00036169379638295,-0.00026758731073463,0.00026294652903626,-0.00026626335322955,0.00026301665001535,-0.00036007326961604,0.0003592835640711,-0.00035967512321556,0.0003615732839872,-0.0003864064137381,0.00038561614563232,-0.0003860112219001,0.00038659705299548,-0.00038636673365455,0.00038565730857709,-0.00038597152586195,0.00038663820376416,-0.00034757018700767,0.00034477874246472,-0.00034636544625033,0.00034408952661588,-0.00034761019818631,0.00034473812444534,-0.00034640548839244,0.0003440489405404,-0.00026746975625354,0.00026306578175544,3.1291799252174e-08,-8.8056763110265e-08,-3.2266869939334e-07,2.6768933505925e-07,-0.00044370361234577,0.00044364846157943,-0.00043124764335691,0.00043181105521691,-0.00043315183401527,0.00043301567541907,-0.00043289557660247,0.00043252518988041,-0.00045360831893892,0.00045339693263991,-0.00045351192435915,0.00045369416432485,-0.0004535945516978,0.00045330314964781,-0.00045367202134529,0.00045377424411669,-0.00043187179497265,0.00043119889861833,-0.00043247645434989,0.00043295968914059,-0.00043299521961739,0.00043325263132755,-0.00043178693222941,0.00043181011496028,-0.00043149895155954,0.00043090621518083,4.0846379029733e-07,1.7436948379724e-06,-0.00038714993648733,0.00038723200603614,3.6469517537671e-07,-2.2590304122244e-07,-0.00038993854572553,0.00039009415405633,-0.00039362690526752,0.00038894096739551,-0.00039407317897674,0.00039320840631273,-0.00039162629849763,0.00040149876891924,-0.00038936164377065,0.00039067362143907,-0.0003930483578261,0.00038951888428227,-0.00039349560974592,0.00039378730295235,-0.00040472929580092,0.00040495793165315,-0.00040492597144035,0.00040476084608546,-0.00040466563179619,0.00040419636860789,-0.00040486272098127,0.00040399969464608,-0.00039198836842413,0.0003952139855371,-0.00039087591041458,0.00039149158815335,-0.00039067960722019,0.00039168897750979,-0.00039179113855059,0.0003954104437109,-0.00039220532759869,0.00040092143502214,0.60484717275765,122718,2924,0.0014660731345707,0.0018469102843129,0.0016119921114224,17.505441539254,5.524353231403e-05,5.524353231403e-05,5.524353231403e-05,2830762.8502405,0.0049371477543807
19391759,0.3839897999247,0.0057938494911976,0.0017864003196348,0.0020971856010046,0.0019102635705581,-0.0004098839238289,0.00040895302546989,-2.0621651929002e-06,-8.9701842884542e-07,-2.8118648929144e-07,-1.0982410540522e-07,-0.00029979028568692,0.00029591097838356,-0.0004237131175522,0.00042288752215371,-0.00042315155982018,0.00042596693642637,-0.00030181655140182,0.00029551032469224,-0.00029995561237412,0.00029574344100106,-0.00042387829676507,0.00042271812357306,-0.00042331679045644,0.00042579757029619,-0.0004511365678819,0.00045002034068422,-0.00045058067696572,0.00045136368062209,-0.00045108082522942,0.00045007816828708,-0.00045052490764858,0.00045142148718946,-0.00040474146978902,0.00040086843881358,-0.00040305098567071,0.00039994194487272,-0.00040479766818924,0.00040081136274397,-0.00040310723869236,0.00039988492609166,-0.00030165131508464,0.00029567797296247,4.3583743151145e-08,-1.2412935789218e-07,-4.6339831960835e-07,3.8537117463872e-07,-0.00053098799364298,0.00053090972859815,-0.00051649844345704,0.00051730816291025,-0.00051701272175869,0.00051681421500102,-0.00051666941060257,0.00051614173201421,-0.0005425875271582,0.00054228328458221,-0.0005424412592969,0.00054270297763897,-0.00054256388117322,0.00054214727642177,-0.00054268758106856,0.00054283693460742,-0.00051744828958051,0.00051648318753683,-0.00051850051452465,0.00051919761903385,-0.00051678138442601,0.00051714871505183,-0.0005151867932342,0.00051522496020734,-0.0005169089974902,0.00051605648122842,5.7860565086872e-07,2.347566418565e-06,-0.00045479088421304,0.00045487316668045,4.9880102883637e-07,-3.5041860921007e-07,-0.00046264087567617,0.00046285718732666,-0.00046729935597887,0.0004607086681904,-0.0004679516016511,0.00046674649804485,-0.00046487231541784,0.00047827828249777,-0.00046181130491909,0.00046369028098587,-0.00046646752807863,0.00046153965926324,-0.00046712110836493,0.00046757882219778,-0.00047535198081758,0.00047568763386243,-0.0004756347869728,0.00047540425463321,-0.00047528064441949,0.00047465485978423,-0.00047556402237212,0.00047437204783195,-0.00046297432946505,0.00046736389746216,-0.00046144196523238,0.00046230780667196,-0.00046115968005937,0.00046259159056192,-0.0004626907723456,0.00046764640226934,-0.00046570479023064,0.00047744810171292,0.73021614767059,122718,2924,0.0017045442751503,0.0022097887223155,0.0018933374458082,17.480149051455,5.5041192411637e-05,5.5041192411637e-05,5.5041192411637e-05,3111813.5942032,0.0058245956378087
20391759,0.44842424816282,0.0068300138603985,0.0020700106867266,0.0025180702517542,0.0022419329219178,-0.00047243936298419,0.00047104835291555,-3.0087950074864e-06,-1.2832630014111e-06,-4.0096868781048e-07,-1.4879591722475e-07,-0.0003210502938308,0.00031556508285556,-0.00049242206219514,0.00049120399606096,-0.00049156634777172,0.00049553163681613,-0.00032412183325111,0.00031502466936433,-0.00032129332720107,0.00031531897403261,-0.00049266500553294,0.00049095491335373,-0.00049180933193078,0.00049528256691689,-0.00052675433439081,0.00052507922384909,-0.00052593048329832,0.00052695646693615,-0.00052667229896828,0.00052516427541066,-0.00052584842497568,0.00052704150585101,-0.00046554548859199,0.00045987370121566,-0.00046304824333161,0.00045854437702528,-0.00046562813476798,0.00045978981667325,-0.00046313093586962,0.00045846054201759,-0.00032387886921574,0.00031527087972099,6.644031658167e-08,-1.8005744871657e-07,-6.7406249607847e-07,5.6415805813437e-07,-0.00063886384624888,0.00063875357415489,-0.0006224672145778,0.00062365305312488,-0.00062205977164131,0.00062177591185253,-0.00062152984456114,0.00062076216381285,-0.00065037910096078,0.00064993990032461,-0.00065016568578213,0.00065055199942492,-0.00065035457081885,0.00064975009881124,-0.00065052262847202,0.00065074366177101,-0.0006238661143569,0.0006224614262275,-0.00062567641696852,0.000626696679186,-0.00062173571508149,0.00062227725240615,-0.00061938502332033,0.00061944275803051,-0.00062306993827448,0.00062183076911756,8.8361252313232e-07,3.3146285226225e-06,-0.00053072620518782,0.00053083862714172,7.2457692315499e-07,-5.1440217421303e-07,-0.00054315441089848,0.00054356384218506,-0.00054787246138229,0.00053827879723051,-0.00054874016965512,0.00054703513110047,-0.00054659042774764,0.00056604928190016,-0.00054194403080401,0.00054477947739832,-0.00054665875243678,0.00053949114710405,-0.00054752849452662,0.00054824949916372,-0.00055729418639575,0.00055782556191249,-0.00055770675448351,0.00055741213419115,-0.00055727556547612,0.00055636787334776,-0.00055768900835354,0.00055595531141406,-0.00054620393106411,0.00055245009824377,-0.00054377186274514,0.00054509937701758,-0.00054336005868985,0.00054551345599421,-0.00054579016925908,0.00055286220265833,-0.0005478052181806,0.00056483808148908,0.76377140340812,122718,2924,0.0019638340391839,0.0026580663297815,0.0022091539006074,18.603327087563,6.4026616700501e-05,6.4026616700501e-05,6.4026616700501e-05,3283089.2106935,0.0068544798101671
21391759,0.49854164065864,0.007556899914149,0.0022671476632062,0.0028204617190077,0.0024692905319351,-0.00050734386191754,0.00050557542917269,-3.7635766417017e-06,-1.5848414854861e-06,-5.0453580170438e-07,-1.9475606490923e-07,-0.00032841138022082,0.00032160513622374,-0.00053132320851463,0.00052976711974275,-0.00053022286534291,0.00053506613553057,-0.00033233980721419,0.00032113155832435,-0.00032870978106624,0.00032130305841127,-0.00053162162885589,0.00052946119743311,-0.00053052131249967,0.00053476020225477,-0.00057187726356449,0.00056972386172074,-0.00057083642982287,0.00057204943171911,-0.00057177646157111,0.00056982833706212,-0.00057073560696159,0.00057215390021192,-0.00049764153075355,0.00049051768305628,-0.00049449195087578,0.00048890099414026,-0.00049774300986945,0.00049041469755947,-0.00049459347829731,0.00048879805974544,-0.00033204146223765,0.0003214337364328,8.0433378874222e-08,-2.2200852034354e-07,-8.5250488739705e-07,7.1555310378874e-07,-0.0007085742988057,0.00070843689724688,-0.00068906796939141,0.00069056868334227,-0.00068747382119644,0.00068710710550439,-0.00068676190389428,0.0006858015675274,-0.00072261433639192,0.00072205711810758,-0.00072233793950262,0.00072282609453594,-0.00072257933254044,0.00072181939411994,-0.00072278085613063,0.00072306627713761,-0.00069081377735952,0.00068904035524279,-0.00069304396274996,0.00069434149017117,-0.00068706906657603,0.00068774756057911,-0.00068414845212305,0.00068423336137736,-0.00068984665113633,0.00068827633078306,1.1258503784573e-06,4.0660781600878e-06,-0.00057415636300721,0.00057427797345398,9.0648867741e-07,-6.6270267814249e-07,-0.0005876237080373,0.00058816586078812,-0.0005944073733538,0.0005825800711295,-0.00059543737448431,0.00059329553282691,-0.00059186323478239,0.00061580334353058,-0.0005860906824672,0.00058970552330769,-0.00059287014367809,0.00058411549106797,-0.00059390272733998,0.00059483350647831,-0.00060644401190269,0.00060712252434856,-0.00060696655755781,0.00060659894794697,-0.00060645621052016,0.00060531105731804,-0.0006069798513843,0.00060478856223762,-0.00059350346200543,0.00060125427086841,-0.00059038681155935,0.00059207289010868,-0.00058986524461743,0.00059259731548171,-0.00059297942103273,0.00060177619900279,-0.00059340185680635,0.00061426932134476,0.6908403174145,122718,2924,0.0021082548508761,0.002947614570017,0.0023897232197732,15.312519376887,3.7700155015098e-05,3.7700155015098e-05,3.7700155015098e-05,3455678.891587,0.0074734346820814
22391759,0.54583133822403,0.0082413769556643,0.0024517275005966,0.0031080043223138,0.002681645132754,-0.00054643548280734,0.00054431385455,-4.430010153123e-06,-1.8604228706557e-06,-5.9946570996511e-07,-2.4753423203817e-07,-0.00034639474325111,0.00033854752725811,-0.00057531143405058,0.00057341793962634,-0.00057399638573191,0.00057952234216038,-0.00035106214387996,0.00033805740080763,-0.00034673355856688,0.00033820452749903,-0.00057565039241278,0.00057307039931386,-0.00057433535784284,0.0005791747662876,-0.00061900136802792,0.00061639757484567,-0.00061777168097798,0.00061913800949636,-0.00061888675978128,0.00061651629296069,-0.0006176570536047,0.00061925672594237,-0.00053401691779023,0.0005255856986712,-0.00053030117619749,0.00052372312898774,-0.00053413216652721,0.0005254687398869,-0.00053041647426588,0.00052360622122903,-0.00035072337213228,0.00033840050104463,8.7818963897037e-08,-2.5537484970842e-07,-1.021513973579e-06,8.5926758025016e-07,-0.00077883946421945,0.00077867671856573,-0.00075627343513922,0.00075806890260168,-0.000752623981559,0.00075216702338503,-0.0007517326723206,0.00075060225671328,-0.00079623615112915,0.00079556324689622,-0.00079589680370923,0.00079647772198255,-0.00079618135761129,0.00079527853801711,-0.00079642319429701,0.0007967741776479,-0.00075834189740052,0.00075622333734678,-0.00076099840992762,0.00076256330142127,-0.00075213854706328,0.00075293519861843,-0.00074878115245951,0.00074890440064857,-0.000757240770163,0.00075535266850994,1.3272575955683e-06,4.7333016272269e-06,-0.00062048397829133,0.00062059710821312,1.0674554076778e-06,-8.1488103165161e-07,-0.00063594511248566,0.00063655839077976,-0.00064456196198121,0.00063073639430436,-0.00064575947215675,0.000643194570472,-0.00064073875150948,0.00066849934616958,-0.00063410604249894,0.00063840521926966,-0.00064271794675173,0.00063257817571479,-0.00064391846900896,0.00064503932555181,-0.00065731776309711,0.00065811824187351,-0.00065794463897952,0.00065749025253442,-0.00065733086306141,0.00065597842801228,-0.00065795899739955,0.00065535167812046,-0.00064291912691891,0.00065205955536841,-0.00063926254847069,0.00064123366388207,-0.00063863683886723,0.00064186266003642,-0.0006422905547356,0.00065268565847452,-0.00064258437769125,0.00066665913844888,0.69163756941875,122718,2924,0.002270105682557,0.003239387285187,0.0025822655257408,14.81100183063,3.3688014645041e-05,3.3688014645041e-05,3.3688014645041e-05,3649110.6642535,0.0081246513678293
23391759,0.59404633345391,0.0089080363279845,0.0026298746411061,0.0033914579355623,0.002886703751316,-0.00058501973024366,0.00058246843844363,-5.2435246463976e-06,-2.2184751282437e-06,-7.1837498695538e-07,-3.0235750854499e-07,-0.00035799894083869,0.00034870969170058,-0.00061828634135263,0.00061601094665421,-0.00061670824643277,0.00062314584793287,-0.00036358465311073,0.00034832213192898,-0.000358399429213,0.00034830445351947,-0.00061868708521386,0.00061560021876887,-0.00061710899231779,0.00062273505919758,-0.0006675101465934,0.00066436864773196,-0.0006660522837471,0.00066759659928262,-0.00066737464768605,0.00066450896401064,-0.00066591676728772,0.00066773691994913,-0.00056966684435258,0.00055966285031787,-0.00056527095501499,0.00055748903225333,-0.00056980307075641,0.00055952464995207,-0.00056540723266181,0.00055735088444758,-0.00036318419882325,0.00034872747270544,1.0328106875585e-07,-3.0219866209531e-07,-1.2083634889897e-06,1.015693632742e-06,-0.00085199376869065,0.00085180052490609,-0.00082583919382655,0.00082796144710268,-0.00082114919078945,0.00082060771574836,-0.00082006181618355,0.00081872466114937,-0.00087246581569473,0.00087166919670846,-0.00087205929745181,0.00087274530589512,-0.00087239710397827,0.00087132887379132,-0.00087267321026763,0.00087308757798364,-0.00082828021744089,0.00082577427342067,-0.00083140201082288,0.00083325185771504,-0.00082058210649018,0.00082152298061287,-0.00081662160045583,0.000816766874137,-0.00082699975466122,0.00082476605546803,1.5807855350505e-06,5.5121205684572e-06,-0.00066622232167046,0.00066635792864918,1.2570084121785e-06,-9.6914290597468e-07,-0.00068296762097961,0.0006837240490378,-0.00069394293474079,0.00067779688035996,-0.00069531002479064,0.00069229284555664,-0.00068862927408888,0.00072112092271875,-0.00068079260614997,0.00068590820741054,-0.00069176209037898,0.00067997501659037,-0.00069313273672478,0.00069447448540885,-0.00070877884926771,0.00070973406033055,-0.00070952023418539,0.00070899138905534,-0.00070882383606846,0.00070723196811459,-0.00070956671109788,0.00070649076113399,-0.0006924940303933,0.00070322118925099,-0.00068810274707451,0.00069044719870552,-0.00068736275500658,0.00069119106944037,-0.00069175063986461,0.00070396161964727,-0.00069081205943266,0.00071894462268401,0.66282300645257,122718,2924,0.0024296849540094,0.0035430457063411,0.0027723906073865,15.635021878728,4.0280175029827e-05,4.0280175029827e-05,4.0280175029827e-05,3749175.1043662,0.0087835550957644
24391759,0.6467139676505,0.0096687446858834,0.0028328443149009,0.0037167438582216,0.0031191565127609,-0.00063171749078415,0.00062865825330716,-6.1947617173643e-06,-2.6400927463172e-06,-8.5683464982173e-07,-3.6104793421827e-07,-0.00037551267533048,0.00036460229730753,-0.00067097817079953,0.00066825620884009,-0.00066908967817472,0.00067657261601183,-0.00038218569170028,0.00036430298743512,-0.00037598990078509,0.00036411960918409,-0.0006714558064593,0.00066776682977984,-0.00066956730210937,0.00067608314445022,-0.00072467396113225,0.0007208957141738,-0.00072295034406657,0.00072469111192141,-0.00072451247363218,0.00072106291655343,-0.00072278884067962,0.00072485832634144,-0.0006133684521352,0.00060151923559239,-0.00060818054319428,0.00059896418234331,-0.00061353077944898,0.00060135460205355,-0.00060834292455196,0.00059879960411135,-0.00038170849018327,0.00036478578306307,1.2219349890519e-07,-3.6074806912591e-07,-1.432307793996e-06,1.201190268275e-06,-0.00093816727586002,0.00093793548737692,-0.00090834407864079,0.00091085503375087,-0.00090203492853245,0.00090139354250819,-0.00090071439820812,0.00089912532901423,-0.00096176641887049,0.00096082117551908,-0.00096127818758136,0.00096208845974603,-0.00096168027471891,0.00096041154608684,-0.00096199718702518,0.00096248393616113,-0.00091123268095932,0.00090826145733287,-0.00091493653872233,0.00091712306637291,-0.00090137034216439,0.00090248410614816,-0.00089671984257149,0.0008968860385377,-0.00090974361091591,0.00090709659036302,1.8758337032218e-06,6.4312632851281e-06,-0.00072034127815868,0.00072050183929195,1.4807769539287e-06,-1.1555583011215e-06,-0.0007395070467006,0.00074042176686161,-0.0007531305980365,0.00073424590198321,-0.00075470298572593,0.00075114696212666,-0.00074614511252457,0.00078415626209577,-0.00073693129698545,0.00074300842826275,-0.00075054790079352,0.00073682530542622,-0.00075212452678741,0.00075373053048885,-0.00076883874894246,0.00076997666963029,-0.00076971673449295,0.00076909717944102,-0.00076891569415666,0.00076704408408683,-0.00076979546147598,0.00076616634026323,-0.00075147389293451,0.00076410161475191,-0.00074623150350441,0.00074900617364096,-0.00074535520127055,0.00074988710676682,-0.0007505935154337,0.00076497841507368,-0.00074873016419579,0.00078157902237049,0.69344629843763,122718,2924,0.0026228139717834,0.0039006153854882,0.0029973048599287,17.85840464196,5.8067237135683e-05,5.8067237135683e-05,5.8067237135683e-05,3856701.5747701,0.009566303725157
25391759,0.70123665088297,0.010532977057145,0.0030625249414561,0.0040893728977318,0.0033810792179567,-0.0006817900046281,0.00067805367326007,-7.4882270163183e-06,-3.2244600680496e-06,-1.040245457368e-06,-4.1191566129115e-07,-0.00038611483565185,0.00037284841955959,-0.00072806609926434,0.00072480070834308,-0.0007257474181237,0.00073477751376474,-0.00039432335269783,0.00037278903559246,-0.00038671977988517,0.00037223704245094,-0.00072867160011764,0.00072418073162691,-0.00072635289134912,0.00073415740491816,-0.00078799737797756,0.00078336847269443,-0.00078591071904786,0.00078787986467018,-0.00078779279298379,0.00078358027585526,-0.00078570611966719,0.00078809169575375,-0.00066069176727134,0.00064636205353351,-0.00065442529998473,0.00064324176371996,-0.00066089749667685,0.00064615351040101,-0.00065463109000864,0.00064303328218187,-0.00039371842696773,0.00037340053477001,1.5894204486447e-07,-4.5295556672623e-07,-1.7185567932707e-06,1.4339170780847e-06,-0.0010372858820512,0.0010370003885476,-0.0010040526247499,0.0010070618566553,-0.00099680526074228,0.00099606251820364,-0.00099519497588885,0.00099325123375419,-0.0010623025917842,0.0010611745627641,-0.0010617140265117,0.0010626873531936,-0.0010622071196886,0.0010606691443191,-0.0010625543058093,0.0010631176334734,-0.0010075360110356,0.0010039599378911,-0.0010120283633511,0.0010146265669676,-0.00099602720108939,0.00099738531882171,-0.00099033753511989,0.00099049483065074,-0.0010057343191729,0.0010025689544468,2.2954597286392e-06,7.6521219604972e-06,-0.00077807801579685,0.0007783098594496,1.781042072128e-06,-1.3753812266217e-06,-0.00080018270337561,0.00080139240687662,-0.00081710080515623,0.00079456285294769,-0.00081890633890334,0.00081469028989939,-0.00080839020880013,0.00085405488637259,-0.00079709899986051,0.00080448967080676,-0.00081400854851149,0.00079765101366635,-0.00081581937305726,0.00081778363019338,-0.00083395972072111,0.00083536123941507,-0.00083501083089981,0.00083430821215316,-0.00083413101908279,0.00083188768259092,-0.00083518437750037,0.00083083685356636,-0.00081684770208514,0.00083198640207184,-0.00081032051115931,0.0008137245145661,-0.00080927148827019,0.00081477934667806,-0.00081579353727145,0.00083303601024565,-0.00081148553366057,0.0008509694059557,0.76207065498803,122718,2924,0.0028296281492515,0.0043116952956903,0.003237301844672,19.840271748909,7.3922173991269e-05,7.3922173991269e-05,7.3922173991269e-05,3897022.8723903,0.0104328038547
26391759,0.7511906581309,0.011388049085868,0.0032904636259509,0.0044608668166172,0.0036367186432995,-0.00072678468810761,0.00072228598089484,-8.9882839616115e-06,-3.8983154988813e-06,-1.2470960182082e-06,-4.4866828435299e-07,-0.00038795974776375,0.00037181731081712,-0.00077984610758649,0.0007760083784164,-0.00077701409902688,0.00078799277640011,-0.0003980167649414,0.00037220865301797,-0.00038872874045677,0.0003710408685682,-0.00078061579440359,0.00077522087735935,-0.00077778373654477,0.00078720509140635,-0.00084747401317482,0.00084187545836999,-0.00084496166985279,0.00084716621103676,-0.00084721421853853,0.0008421444558965,-0.00084470186182687,0.00084743525086179,-0.00070312549363875,0.00068593571232211,-0.00069559651964886,0.00068213055507142,-0.0007033869490209,0.00068567084325036,-0.0006958580497496,0.00068186575795475,-0.00039724778637703,0.00037298524597029,2.0876361133727e-07,-5.6861824632204e-07,-2.0378433081709e-06,1.6898352632184e-06,-0.0011348165635165,0.0011344674523701,-0.0010980966949018,0.0011016617564445,-0.0010908821519974,0.001090045044141,-0.0010889249353378,0.0010865616238725,-0.0011603087648555,0.0011589817198394,-0.0011596088495126,0.0011607664189566,-0.0011602160129926,0.0011583680454445,-0.0011605678308142,0.0011612043918758,-0.0011022410256915,0.0010979829768218,-0.0011075473869329,0.0011105903068409,-0.0010899872854293,0.0010916341036883,-0.0010829765520297,0.0010830974434123,-0.0011000753815546,0.0010963390305509,2.8006633214663e-06,9.0463024729424e-06,-0.00082888734040926,0.0008292272363138,2.1276592184398e-06,-1.6054653970965e-06,-0.00085299838937777,0.00085461788728468,-0.00087446630310621,0.00084781451008394,-0.00087650153651283,0.00087157204551914,-0.00086317096805508,0.00091764246623154,-0.00084935152794789,0.00085828150564544,-0.00087080900398002,0.00085146677544874,-0.00087285083163628,0.00087523073523938,-0.00089330279955422,0.0008950185319475,-0.00089454583736634,0.00089377305150198,-0.0008936146566275,0.00089093308871759,-0.00089486052050765,0.00088969036616069,-0.00087630068166638,0.00089433370497261,-0.00086819804895039,0.00087237322355267,-0.00086695755886328,0.00087362093094471,-0.00087505374169094,0.00089557485097543,-0.00086683227052318,0.00091399352445028,0.82335182229769,122718,2924,0.0030151670014167,0.0047159681151195,0.0034485672294769,20.413395188853,7.8507161510824e-05,7.8507161510824e-05,7.8507161510824e-05,3883693.9350504,0.011242604449595
27391759,0.79896744696913,0.012126899586447,0.0034898288284236,0.0047833212458853,0.0038537495121384,-0.00076624727225581,0.00076101089720029,-1.0481957511249e-05,-4.5570306416465e-06,-1.4629865253831e-06,-5.0010022371057e-07,-0.0003883384821891,0.00036919670580331,-0.00082433613263498,0.00081992305868258,-0.00082098062161938,0.00083401010963372,-0.00040026901976916,0.00037022782012323,-0.00038926619362385,0.00036826078896,-0.0008252647688307,0.00081897362925087,-0.00082190917858298,0.00083306042993109,-0.00090142004751613,0.00089485120534056,-0.00089848002591067,0.00090096806170799,-0.00090110688299415,0.00089517552248853,-0.0008981668488864,0.00090129243649204,-0.00073891898286591,0.00071888151506436,-0.00073012654834633,0.0007144685866856,-0.00073923434962371,0.00071856219504142,-0.0007304420103588,0.00071414935563265,-0.00039934132093572,0.00037116392016895,2.5495141800451e-07,-6.8220971589167e-07,-2.3545075771792e-06,1.9414635139437e-06,-0.0012237049840159,0.0012232906256216,-0.0011813682888445,0.0011854788207957,-0.0011755201923503,0.0011745838509722,-0.001173191152248,0.0011704146292843,-0.0012520063091981,0.0012504789687573,-0.0012511922794675,0.0012525282114458,-0.0012519208067846,0.0012497654611849,-0.0012522702068777,0.0012529780155619,-0.001186119174109,0.0011811861665252,-0.0011919540647416,0.0011954352187625,-0.0011745140206039,0.0011764399984333,-0.0011661298751248,0.001166216065278,-0.0011836359578422,0.0011793317461845,3.3079842719766e-06,1.042869249306e-05,-0.00087098870325273,0.00087143871020926,2.4748970567035e-06,-1.8282932258586e-06,-0.00089437496577412,0.00089641166474063,-0.00092242651142556,0.00089187066705534,-0.00092467945314058,0.0009190406887387,-0.00090646654839982,0.00096933401586359,-0.00089017140807917,0.00090063497590546,-0.00091821071418968,0.00089608048439528,-0.00092047146913233,0.00092325808186389,-0.00094515483688865,0.00094718047682983,-0.00094658763929775,0.00094574478996079,-0.00094558139313586,0.00094244800951415,-0.00094701755928428,0.00094101559837252,-0.0009246431522805,0.00094552255062682,-0.00091504570585691,0.00091999654457493,-0.00091361593301091,0.00092143486243003,-0.00092320569238704,0.00094695303401459,-0.00091068721497649,0.00096512813227405,0.74366212196709,122718,2924,0.0031777517915355,0.0050842370967824,0.0036236552166664,22.218671596212,9.2949372769696e-05,9.2949372769696e-05,9.2949372769696e-05,3815308.1625845,0.011956778319212
28391759,0.84141560169043,0.012873989262823,0.003693935147922,0.0051071687694283,0.0040728853454726,-0.00080775632798833,0.00080184305670432,-1.1787238687852e-05,-5.1408769068719e-06,-1.6516294915577e-06,-5.5486735341899e-07,-0.0004013980493746,0.00037997187685285,-0.00087332337810208,0.00086836894286261,-0.0008695123312973,0.00088415207637681,-0.00041493488316491,0.00038133661832772,-0.00040245476295492,0.00037890617296768,-0.00087438131054839,0.00086728763075537,-0.00087057014896664,0.00088307045172452,-0.00095340857311327,0.00094593740435416,-0.00095010114680756,0.00095280636995462,-0.00095305173748346,0.00094630681905601,-0.00094974430102716,0.00095317585658993,-0.00077748734071726,0.00075491482434859,-0.00076760874603474,0.00074994394778127,-0.00077784659607748,0.00075455118569768,-0.00076796811832488,0.0007495804123693,-0.00041387817582916,0.00038240253453995,2.8571886783174e-07,-7.8100997652794e-07,-2.6470320882099e-06,2.1679855988144e-06,-0.0013095750333389,0.0013090945148627,-0.0012625168840405,0.0012671136071294,-0.0012565272866037,0.0012554775303781,-0.0012538148821131,0.0012506705463893,-0.0013408482294673,0.0013391258947458,-0.0013399242248073,0.0013414109673166,-0.0013407473083846,0.0013383102825698,-0.0013411009067714,0.0013418728119801,-0.0012678185403298,0.0012622678873865,-0.0012741895340524,0.001278069908652,-0.0012554101830535,0.0012575683066166,-0.0012459225360484,0.0012459866031124,-0.0012650834734429,0.001260248447185,3.7312506308947e-06,1.1664224111528e-05,-0.00091468177774731,0.00091521952633898,2.7797186446128e-06,-2.0443925606768e-06,-0.00094182003694777,0.00094415712726835,-0.00097386904898617,0.00093990963826867,-0.00097635437586635,0.00097004723052216,-0.00095528034301674,0.0010251077567622,-0.00093710780473095,0.0009488918522938,-0.0009691428897515,0.00094462888746077,-0.0009716370850256,0.00097477504264542,-0.000995180347605,0.00099745868355724,-0.0009967865951539,0.00099584929359343,-0.00099565370840637,0.00099212746465543,-0.00099726374825377,0.00099052176094737,-0.00097426659816727,0.00099787549073709,-0.00096347218303919,0.00096905610469886,-0.00096186940915815,0.0009706684748053,-0.00097265512395491,0.0009994789861697,-0.00096001207188097,0.001020392929836,0.84556057744222,122718,2924,0.0033489010919958,0.0054398698321015,0.0038052672828698,23.417035582701,0.00010253628466161,0.00010253628466161,0.00010253628466161,3857578.1070401,0.01267393506098
29391759,0.87811215772196,0.013364910814811,0.0038289672728868,0.0053217323513174,0.0042142111906068,-0.00082963120305906,0.00082300889217644,-1.3321133121243e-05,-5.8036509418018e-06,-1.8915238300864e-06,-6.2172014910077e-07,-0.00038462102739693,0.00035956568441529,-0.00089702547800856,0.00089148318842002,-0.00089265742796075,0.00090967783827492,-0.0004001535162498,0.00036206715704889,-0.00038584538368873,0.00035833227600152,-0.00089825118027701,0.00089023178262081,-0.00089388298887118,0.00090842606241648,-0.00098964569008402,0.00098122822695868,-0.00098588537322646,0.00098899949608298,-0.00098923264246737,0.00098165573849047,-0.00098547231448041,0.00098942709073442,-0.00079609439869688,0.00077064090753231,-0.00078489554726601,0.00076516321590568,-0.00079651051577391,0.00077021996366348,-0.0007853118116017,0.00076474240846301,-0.0003989291893913,0.00036330083780684,3.4048902013654e-07,-8.9484735615967e-07,-2.9327424076672e-06,2.3967838080715e-06,-0.0013735734264739,0.0013730358247662,-0.0013204301223268,0.0013255305919429,-0.0013186671661513,0.0013175534620521,-0.0013156434922857,0.0013121035923533,-0.0014071435443367,0.0014052498838562,-0.0014061161271993,0.0014077743277169,-0.001407081428629,0.001404359980212,-0.0014073977459959,0.0014082279666738,-0.0013262768244516,0.0013201090907228,-0.001332992177921,0.0013372633128678,-0.001317470297343,0.0013199068638302,-0.0013064386630756,0.001306449707652,-0.0013232214869777,0.0013178822031878,4.2906341166663e-06,1.3007047195664e-05,-0.00093392288435923,0.00093461835351552,3.1260178669046e-06,-2.2146908879508e-06,-0.00095608399727603,0.00095899831058219,-0.00099705038644612,0.00095930313574261,-0.00099968963728206,0.00099278920732758,-0.0009718833517658,0.0010503835248142,-0.0009508669602887,0.00096423994825992,-0.0009918182376955,0.0009645276691411,-0.00099446730696451,0.00099802317239453,-0.0010256116361101,0.0010282418556735,-0.0010273898613161,0.0010264600718504,-0.0010262309442602,0.0010222508244196,-0.0010280134342388,0.001020473178493,-0.00099858587603641,0.0010247111753963,-0.0009862087644422,0.00099267922960335,-0.0009844344357735,0.00099446432858124,-0.00099680176277079,0.0010264862587554,-0.00097712190250781,0.0010451639055712,0.64299206939106,122718,2924,0.0034384900711995,0.0057047509426782,0.0038855442348197,24.738669946701,0.00011310935957361,0.00011310935957361,0.00011310935957361,3642965.9819448,0.013114338865874
30391759,0.90878126571582,0.013720891379921,0.0039292291491255,0.0054751824337604,0.0043164797970349,-0.00084981395886328,0.00084291322399332,-1.3808436494645e-05,-5.9916109834575e-06,-1.9800211225568e-06,-7.0809100039651e-07,-0.0004027969341022,0.00037743756700653,-0.0009219514444074,0.00091609264197553,-0.00091741236547366,0.00093472118291304,-0.00041883833253477,0.00037975428996956,-0.0004040229329464,0.00037620215928065,-0.00092317926901057,0.00091483891830294,-0.00091864001100796,0.00093346704834984,-0.0010135954632004,0.0010047296829062,-0.0010097076111462,0.0010129295642703,-0.0010131814185071,0.0010051581367017,-0.0010092935586827,0.0010133581093318,-0.00081211894645334,0.00078561504557843,-0.0008005386635003,0.00078009262978193,-0.00081253579352373,0.00078519338374849,-0.00080095567497789,0.00077967110793784,-0.00041761234640273,0.00038098998323818,3.2020805426757e-07,-9.1605146353542e-07,-3.0687348800863e-06,2.4914410204533e-06,-0.0014146393036032,0.0014140604605694,-0.001354904302366,0.001360189863512,-0.0013528385095672,0.0013516067418014,-0.0013495854639483,0.0013459264130124,-0.0014560716471628,0.0014540603048544,-0.0014549805817162,0.0014566748615408,-0.0014559704260559,0.0014531310864853,-0.0014563192947165,0.0014571853716257,-0.0013609007784746,0.0013544654850389,-0.0013673793362785,0.0013718349834046,-0.0013515787316083,0.0013540508605191,-0.001340430302498,0.0013404758919118,-0.0013578807552088,0.0013522744256192,4.4077281435542e-06,1.3535552310235e-05,-0.00095454802914987,0.00095524432190785,3.2491304058053e-06,-2.3234540553799e-06,-0.00098131263366319,0.00098420135292915,-0.0010233817288899,0.00098469446333902,-0.0010261918142626,0.0010189345348519,-0.00099688193104858,0.0010767404417263,-0.00097586930011977,0.00098967016900285,-0.0010179225083331,0.00099014558324561,-0.0010207425916308,0.0010243952494093,-0.0010482044213526,0.0010508771740032,-0.001050060012547,0.0010490182657415,-0.0010486794957289,0.0010445246787903,-0.0010505393548706,0.0010426699084932,-0.001018567840781,0.0010460779280218,-0.0010061077802657,0.0010127313090766,-0.0010042563112939,0.0010145935781783,-0.0010167065130104,0.0010479301129112,-0.0010023474308421,0.0010712943490365,0.55654009761524,122718,2924,0.0035217449560129,0.005874736884524,0.0039711699200666,26.078675534381,0.00012382940427505,0.00012382940427505,0.00012382940427505,3726686.6699084,0.013457710282277
31391759,0.93460453243813,0.014093287342812,0.0040330710760898,0.0056353578542507,0.0044248584124716,-0.00087199328534302,0.00086460379847429,-1.4735770553802e-05,-6.4469835277218e-06,-2.1376961831412e-06,-7.7475513332187e-07,-0.00040596236245262,0.00037857641761521,-0.0009478931200182,0.00094162150439181,-0.00094303547458978,0.0009615612942254,-0.00042311951602076,0.00038145921089433,-0.00040727652407992,0.00037725280129425,-0.00094920921588037,0.00094027835491532,-0.00094435138279226,0.00096021770593384,-0.0010422584228032,0.0010327606728084,-0.0010381105695138,0.0010415356362287,-0.0010418145278696,0.0010332197091102,-0.0010376666640224,0.0010419947713496,-0.00083284962182923,0.00080455651853281,-0.00082051668158644,0.00079867861002479,-0.00083329644062369,0.00080410471288231,-0.00082096368063864,0.00079822696035045,-0.00042180538712799,0.00038278315034634,3.4300760327258e-07,-9.8187793238621e-07,-3.2404630558523e-06,2.6211585678719e-06,-0.0014624278112261,0.0014618068950283,-0.0013993876910475,0.0014049563319526,-0.0013990105599467,0.001397722649081,-0.00139553710073,0.0013916478461056,-0.0015052934095622,0.0015031695902325,-0.0015041358635038,0.0015059184751649,-0.0015051915075597,0.001502180390974,-0.0015055230062897,0.0015064180889037,-0.0014057112561881,0.0013989091199137,-0.0014125502515096,0.0014172296567716,-0.0013976959809839,0.0014003125657985,-0.0013857138808209,0.001385729966124,-0.0014025198260801,0.0013966058693511,4.7142134484223e-06,1.4339919537333e-05,-0.00097534817933763,0.00097615099223537,3.4481777083979e-06,-2.4272170081097e-06,-0.0010036905621245,0.001006874557697,-0.0010487746765313,0.001007909165564,-0.0010517134165121,0.0010440852946864,-0.0010204580689492,0.0011052314214009,-0.0009979512699724,0.0010126403917397,-0.0010430188818148,0.0010136564433856,-0.0010459680729818,0.0010498425730768,-0.0010732176783151,0.0010760717532541,-0.0010751741062574,0.0010741118811646,-0.0010737261238783,0.0010693333523258,-0.0010756870326821,0.001067377818121,-0.0010431044015493,0.0010723024255531,-0.001029787261527,0.0010368898652812,-0.0010278351726439,0.0010388532446141,-0.0010411419551262,0.0010742551884876,-0.001026220559824,0.001099489400793,0.69215549466537,122718,2924,0.0036129363941456,0.0060724745537599,0.0040577585994588,28.365078060352,0.00014212062448281,0.00014212062448281,0.00014212062448281,3661416.769115,0.013838384606444
32391759,0.95408336936517,0.014415581356914,0.0041235284420253,0.0057734380572857,0.004518614857603,-0.00088469372210823,0.00087662698125531,-1.6308640393993e-05,-7.0924906262232e-06,-2.3732883740463e-06,-7.9842047658747e-07,-0.00037894917766766,0.00034738479255583,-0.00096132365687707,0.00095449676788048,-0.00095586809605357,0.00097716019876157,-0.00039830353401868,0.00035178032995885,-0.00038046911620432,0.00034585573263719,-0.00096284529710133,0.00095294553981417,-0.00095738953874054,0.0009756084811877,-0.0010671021301696,0.0010567266907915,-0.0010624647507287,0.0010663571649655,-0.0010665894502716,0.0010572566933832,-0.0010619520561097,0.0010668872752781,-0.00084574933175858,0.00081457593238225,-0.00083200578500257,0.00080812570962483,-0.00084626581940475,0.00081405393904961,-0.00083252248636097,0.00080760392091655,-0.00039678367812402,0.00035330979933053,4.2403879154261e-07,-1.1080550414591e-06,-3.4943640485374e-06,2.832410046207e-06,-0.0015081809277508,0.0015075171013501,-0.0014439411619091,0.0014499923193243,-0.0014483757181566,0.0014470929340838,-0.0014446759422334,0.0014403837080434,-0.0015469002624081,0.0015446488065072,-0.0015456581909365,0.001547622902749,-0.0015468795829673,0.0015436015278115,-0.0015471345100009,0.0015480723341591,-0.0014508337319521,0.0014434642400062,-0.0014582955870751,0.0014633187206783,-0.0014470150570423,0.0014499460076244,-0.0014332088622565,0.0014331313817604,-0.0014472262692489,0.0014408835571643,5.3579247986643e-06,1.5627824024909e-05,-0.00098097198897426,0.00098198254522515,3.7940991343919e-06,-2.548603862579e-06,-0.0010017197243473,0.0010057167010811,-0.0010568075530189,0.0010119014160846,-0.0010598162616881,0.0010517527922011,-0.0010215317862296,0.0011159759336151,-0.00099552336878162,0.0010119411957941,-0.0010505940733643,0.0010181059562255,-0.0010536141314595,0.0010579681281284,-0.0010896345674529,0.0010929256916294,-0.0010917464555665,0.0010908097425519,-0.0010904141509901,0.0010855708982215,-0.0010925310499486,0.0010834597909417,-0.0010562804404642,0.001087623062213,-0.0010410617613976,0.0010492182633862,-0.0010389545458693,0.0010513380646794,-0.0010541617021405,0.001089730995056,-0.0010277530258944,0.0011097770521551,0.79325035118638,122718,2924,0.003664507481302,0.0062616382171562,0.0040816418573307,29.295717419299,0.00014956573935439,0.00014956573935439,0.00014956573935439,3356314.3725115,0.014106767241909
33391759,0.96785610047889,0.01465054498704,0.0041914654769873,0.0058721894299666,0.0045868900800862,-0.00089177560995504,0.00088325443095323,-1.7460432557843e-05,-7.4750099200191e-06,-2.5344780109759e-06,-8.2055520807622e-07,-0.00036211783910514,0.00032779807477033,-0.00096984162217077,0.00096257105498869,-0.0009639194358015,0.00098722436750024,-0.00038315275906528,0.00033315944575621,-0.00036377264402114,0.00032613434375263,-0.00097149813203284,0.0009608832526831,-0.00096557571209419,0.00098553601187029,-0.0010824586872522,0.0010714264918394,-0.0010774514771345,0.0010817378759973,-0.0010819009507574,0.0010720030973141,-0.0010768937262293,0.0010823145982542,-0.00085216939544624,0.00081885883353303,-0.00083735113400722,0.00081209612495386,-0.00085273155097665,0.00081829080507786,-0.00083791353915245,0.00081152834241033,-0.00038149806023482,0.00033482366014824,4.752599288077e-07,-1.1921879396683e-06,-3.6960718316723e-06,3.003018687459e-06,-0.0015399261140856,0.0015392310317087,-0.0014737802678684,0.0014802105545724,-0.0014813724581856,0.0014800668534112,-0.001477471455888,0.0014728898091611,-0.0015773147953444,0.0015749540960488,-0.0015760013184201,0.0015781046941565,-0.0015773568912338,0.0015738785177666,-0.0015775698054458,0.0015785551722898,-0.0014810838712257,0.0014732734419543,-0.0014887065410312,0.0014940181078322,-0.0014799731855477,0.0014831287758858,-0.0014649166141389,0.0014647973330678,-0.0014772153356736,0.0014705222259429,5.8482597819032e-06,1.6634063623006e-05,-0.00098115935999161,0.00098229914323375,4.0672347553471e-06,-2.6498047448999e-06,-0.00099693122847694,0.001001524521558,-0.0010599877031608,0.0010121380897499,-0.0010630745491399,0.0010546602339802,-0.0010186866322418,0.001119803724671,-0.00099036881578956,0.0010081163095187,-0.0010534076324212,0.0010187088680164,-0.0010565064479062,0.0010612423471832,-0.0010978464029139,0.0011014724913319,-0.0011000828755479,0.0010992316027004,-0.0010987822619367,0.0010935518440226,-0.0011010240964268,0.0010913161296112,-0.0010611860781452,0.0010942543369445,-0.0010446877570154,0.0010536442824746,-0.0010424562522333,0.0010558892774567,-0.001058942256838,0.0010964866129116,-0.0010252751239756,0.0011132388570829,0.81381076464073,122718,2924,0.0036931268412918,0.0063928469736046,0.0040827895756764,29.275781191109,0.00014940624952887,0.00014940624952887,0.00014940624952887,3149048.8392713,0.014270072301693
34391759,0.97842087553443,0.014812645273619,0.0042392172058562,0.0059395067965561,0.0046339212712069,-0.00090082613119656,0.00089201828387172,-1.8162568744869e-05,-7.7096798814802e-06,-2.6433615943565e-06,-8.5960186679722e-07,-0.00036040415024054,0.00032458898112861,-0.0009806230690541,0.00097304101720566,-0.00097441737406139,0.00099881859732078,-0.00038242703346135,0.00033044432233074,-0.00036212657962999,0.00032285767196296,-0.00098234738302844,0.00097128455291522,-0.00097614141984016,0.00099706152816808,-0.0010960742651293,0.0010846010885892,-0.0010908498991483,0.0010953904077252,-0.0010954938822384,0.0010852011770661,-0.0010902695033793,0.0010959906202735,-0.00085979041362733,0.00082513956791341,-0.00084433845681321,0.00081824441565093,-0.00086037551200741,0.00082454841715559,-0.00084492383316518,0.00081765353712475,-0.00038070472207981,0.00033217616772201,4.9539948469868e-07,-1.2396388640707e-06,-3.8312704753333e-06,3.1118783260659e-06,-0.0015649606906688,0.0015642392221989,-0.0014960777150551,0.0015027435465476,-0.0015057787091766,0.001504431337434,-0.0015017330637708,0.0014969766951381,-0.0016035789527402,0.0016011336443567,-0.0016022126255299,0.0016043939278087,-0.0016036492897205,0.0016000408510933,-0.0016038477291792,0.001604865537177,-0.001503609189768,0.0014955107987047,-0.0015111302994274,0.0015166321258508,-0.0015043484296875,0.0015076245007507,-0.0014886839832441,0.0014885523279269,-0.0014996346435063,0.0014926987548799,6.126072039625e-06,1.7282262720455e-05,-0.00098537045157769,0.00098657924534805,4.2396197460707e-06,-2.7229629070629e-06,-0.0010002111255156,0.001005100709513,-0.0010673345880768,0.0010178268213803,-0.0010705021348043,0.0010618240679482,-0.00102284169504,0.0011275542454482,-0.00099340873366965,0.001011933312137,-0.0010605140857446,0.0010246377452999,-0.0010636939394725,0.0010686466174519,-0.0011063092732774,0.0011101164474457,-0.001108627506817,0.0011077936836832,-0.0011072724004645,0.0011017961676114,-0.0011095961719078,0.0010994787446218,-0.0010674822308437,0.001101775368368,-0.0010503618735517,0.0010597627317429,-0.0010480488321628,0.0010620897491229,-0.0010651564487145,0.0011040892146109,-0.0010296709087291,0.0011207493922178,0.7296115327816,122718,2924,0.0037301791822792,0.0064963387060737,0.004100472662668,31.398393345196,0.00016638714676157,0.00016638714676157,0.00016638714676157,3029683.9505,0.014430592801449
35391759,0.98681418642989,0.014928631351234,0.004273701046916,0.0059873113205826,0.0046676189837351,-0.00091432020717808,0.00090537775209628,-1.8381966418729e-05,-7.8242517472818e-06,-2.6967853282728e-06,-9.1568436168529e-07,-0.00037498576369552,0.00033895858709191,-0.00099638015149635,0.00098864112157022,-0.00099010217567075,0.00101458511576,-0.0003972116061367,0.00034481219174223,-0.00037670543221303,0.00033722994984852,-0.0009981019797507,0.0009868871605888,-0.00099182373085569,0.0010128305433329,-0.0011103752384523,0.0010986939209341,-0.0011051045166809,0.0011097098134096,-0.0011097955785414,0.00109929325356,-0.0011045248372033,0.0011103092655254,-0.00087151410176463,0.00083638407795713,-0.00085592321881735,0.00082947523891376,-0.00087209835149282,0.00083579379419702,-0.00085650777682781,0.00082888524978653,-0.00039549207560959,0.00034654140750435,4.8326081971533e-07,-1.2485791649054e-06,-3.8880954806735e-06,3.147637264133e-06,-0.0015860810006445,0.0015853385275718,-0.0015141564953247,0.0015208909993998,-0.0015245705032991,0.0015231677179335,-0.0015204346072105,0.0015156294989259,-0.0016278557389839,0.0016253575691089,-0.0016264604895797,0.0016286506877826,-0.0016279114538999,0.0016242524285619,-0.0016281229443799,0.0016291519167804,-0.0015217254059344,0.0015135163016219,-0.0015290333415613,0.0015346060047689,-0.0015231175657048,0.0015263998778539,-0.00150747191383,0.0015073532106858,-0.0015177924421428,0.0015107436424952,6.1642075386274e-06,1.755249421397e-05,-0.00099748483180481,0.00099870960796731,4.2968868703458e-06,-2.7590471903628e-06,-0.0010159921680494,0.0010208493224032,-0.0010826941351042,0.0010328701870637,-0.0010859446700513,0.0010771064737651,-0.0010384475614981,0.0011436830220379,-0.0010090988105538,0.0010277732786741,-0.0010757822780313,0.0010397722578795,-0.0010790451666009,0.0010840202099983,-0.0011183639179207,0.0011221766238559,-0.0011207133011869,0.0011198228427698,-0.0011192260765946,0.0011136805094743,-0.0011215809843573,0.001111332056053,-0.0010795345037163,0.00111453675321,-0.0010624569548851,0.0010719025032681,-0.0010601128912555,0.0010742605458488,-0.0010771776835996,0.0011168816117638,-0.0010453680086668,0.0011367871217241,0.65593630488581,122718,2924,0.0037859108796615,0.0065837045765746,0.004150788073597,35.851114312918,0.00020200891450334,0.00020200891450334,0.00020200891450334,3014200.7507156,0.01462681646822
36391759,0.9922547184443,0.015007394809413,0.0042970964794687,0.0060196817095921,0.0046906166203519,-0.00092135202643088,0.00091230147555072,-1.8533413087241e-05,-7.9285345398929e-06,-2.7387824988228e-06,-9.5772890033949e-07,-0.00038153329390851,0.00034522859937515,-0.0010047522993538,0.00099690356935281,-0.00099843483625376,0.001022983236157,-0.00040386874007061,0.00035114971010405,-0.00038325297180083,0.00034349995612763,-0.0010064742282855,0.00099514966368,-0.0010001564738198,0.0010212287007731,-0.0011178433836586,0.001106021034083,-0.0011125415658578,0.001117181076882,-0.0011172635462658,0.001106620385224,-0.0011119617155957,0.0011177805551475,-0.00087780191268885,0.00084234802108296,-0.0008621227664932,0.00083540816482634,-0.00087838622589493,0.00084175773981912,-0.00086270738062995,0.0008348181681555,-0.00040214918687111,0.00035287892717745,4.7709906920767e-07,-1.2546416790499e-06,-3.9182945635028e-06,3.1654950709452e-06,-0.0015976903261747,0.0015969355514419,-0.0015241785889848,0.0015309478145335,-0.0015350905365696,0.0015336592130974,-0.0015309101074874,0.0015260768945661,-0.001640946320007,0.0016384197694843,-0.0016395339514259,0.001641727746852,-0.0016409897012038,0.0016373025561145,-0.0016412022333711,0.0016422350595726,-0.0015317758583878,0.0015235073574805,-0.0015390652513567,0.0015446727760567,-0.0015336232297833,0.0015369089900619,-0.0015179481369562,0.0015178333349733,-0.0015278557050144,0.0015207473511935,6.187958890123e-06,1.7693435961951e-05,-0.0010040350823659,0.0010052784139495,4.3270703445898e-06,-2.7772320132841e-06,-0.0010247050739139,0.0010295538442945,-0.0010910091010618,0.0010409764770395,-0.0010943047729398,0.0010853807992476,-0.0010471610914401,0.0011528719766937,-0.0010177643653697,0.0010365251371787,-0.0010840498964295,0.0010479258386336,-0.0010873578854791,0.0010923417858534,-0.0011246570052587,0.0011284707948873,-0.0011270225280193,0.0011261009690365,-0.0011254660818026,0.0011198944082902,-0.0011278370927242,0.0011175298738688,-0.001086281906769,0.001121659886965,-0.0010691885001925,0.0010786641134435,-0.0010668283014373,0.001081038190754,-0.0010839090184025,0.0011240208456993,-0.0010541288732201,0.0011459287411205,0.68699515304475,122718,2924,0.0038148806918191,0.0066317215379436,0.0041780105713239,37.529917595317,0.00021543934076254,0.00021543934076254,0.00021543934076254,3016291.1663072,0.01473255897251
37391759,0.99546589179794,0.015053415342797,0.0043107624870715,0.00603860052763,0.0047040523280955,-0.00092272391093577,0.00091350114606718,-1.8955687510907e-05,-8.0951031115583e-06,-2.8055842407328e-06,-9.6742803083842e-07,-0.000372690984227,0.00033508778133252,-0.0010056020337565,0.00099758927096439,-0.00099911977241531,0.0010244981055541,-0.000395634845957,0.00034155122281587,-0.00037446633914939,0.0003333037484872,-0.0010073794759595,0.00099577940728427,-0.0010008969201247,0.001022687596669,-0.0011220803469134,0.0011100351816639,-0.0011166398021583,0.0011214303919055,-0.0011214819390035,0.0011106535983051,-0.0011160413794002,0.0011220489365727,-0.00087956375880921,0.00084334610086236,-0.00086349179480207,0.0008362725028756,-0.00088016689096323,0.00084273689037752,-0.00086409524080078,0.00083566359673215,-0.00039385963445637,0.00034333586084371,5.0163061579193e-07,-1.2862031986264e-06,-3.9752519817201e-06,3.2159541612727e-06,-0.0016053931160108,0.00160463177744,-0.0015319937141792,0.0015388803995968,-0.0015443458970823,0.0015429274225925,-0.0015401312748012,0.0015352003541499,-0.0016470808221506,0.0016445308455882,-0.0016456495258842,0.0016478913989018,-0.0016471531035069,0.0016434048570976,-0.0016473382737834,0.0016483814827344,-0.0015397351312032,0.0015313362417901,-0.0015472284848544,0.0015529159705575,-0.0015428737709566,0.0015462436934967,-0.0015266601123885,0.001526518965995,-0.0015356921601308,0.0015284908621341,6.3747689181068e-06,1.799215366165e-05,-0.0010022227370701,0.0010035240961095,4.4133762665259e-06,-2.7989189370171e-06,-0.0010190975598856,0.0010242138025311,-0.0010889897462271,0.0010378785934982,-0.0010922882332606,0.0010832878503363,-0.0010425129208146,0.0011509031781151,-0.0010120509652779,0.0010312909554271,-0.0010819248192988,0.0010449336952737,-0.0010852357440837,0.0010903546652575,-0.0011260911113396,0.001130033973854,-0.0011284925687519,0.0011276280599527,-0.001126992065156,0.0011213026920324,-0.0011293991152567,0.0011189021662773,-0.0010862152709983,0.0011219941513692,-0.0010685684322032,0.0010783566283035,-0.0010661723274819,0.0010807668348271,-0.0010838062720891,0.0011243910054671,-0.0010495866922613,0.0011438542244293,0.68009907945379,122718,2924,0.0038202864742563,0.0066635286486675,0.0041706525187293,37.635794683195,0.00021628635746556,0.00021628635746556,0.00021628635746556,2925663.7898163,0.014762874489766
38391759,0.99732004499217,0.015081470248165,0.0043191486798988,0.0060500524087441,0.0047122691595218,-0.00092242791726606,0.00091314526228313,-1.9116591550597e-05,-8.1307872107793e-06,-2.826783691696e-06,-9.7590841242121e-07,-0.00036989531012612,0.00033198204527234,-0.0010056461309242,0.00099755785724785,-0.00099909424123145,0.0010247218067779,-0.00039307832960565,0.00033853649780505,-0.00037168295843928,0.00033018574858894,-0.001007435912766,0.00099573551233153,-0.001000883715772,0.0010228988003663,-0.0011228099837929,0.0011106682310853,-0.0011173153040191,0.0011221675590806,-0.0011222074474935,0.0011112909212624,-0.0011167127556782,0.0011227903811281,-0.00087906880808085,0.00084254569589478,-0.00086283863689572,0.00083545636007251,-0.00087967611591461,0.00084193228041428,-0.00086344626094244,0.00083484325070639,-0.00039129082381199,0.00034033340944851,5.0541659688931e-07,-1.294681566388e-06,-4.0043317549836e-06,3.2405235245431e-06,-0.0016084166443465,0.0016076507862363,-0.0015345707459707,0.0015415096220042,-0.0015473802501931,0.0015459513689117,-0.0015431316274345,0.001538166161535,-0.0016501809582028,0.0016476128066791,-0.0016487383857196,0.0016509977840923,-0.0016502608203574,0.0016464861210743,-0.0016504423097372,0.0016514947585464,-0.0015423619718164,0.0015339019201138,-0.0015498269149831,0.0015555583695631,-0.0015459024653294,0.0015492976237354,-0.0015295417711951,0.0015294017471219,-0.0015382943388903,0.0015310400759729,6.4472865195161e-06,1.8131402251129e-05,-0.0010007446012499,0.0010020624415532,4.4531615169821e-06,-2.8131389912175e-06,-0.001017221550379,0.001022425748246,-0.0010881548407121,0.0010366630313553,-0.0010914635650887,0.0010824150542732,-0.0010408629723083,0.001150053386405,-0.001010122124109,0.0010295558707975,-0.0010810370274146,0.001043770970353,-0.0010843582501089,0.0010895347556791,-0.0011256257909219,0.0011296180121619,-0.0011280452295584,0.001127194093389,-0.0011265414643955,0.0011207928683816,-0.001128966528899,0.0011183743690366,-0.0010853058301919,0.001121331997388,-0.0010674981527544,0.0010774060519079,-0.001065084101708,0.0010798342942825,-0.0010828788069679,0.0011237468029559,-0.0010479896977302,0.0011429516044999,0.71704436579938,122718,2924,0.0038189519725465,0.0066760102287566,0.0041645700226587,37.194807562811,0.00021275846050249,0.00021275846050249,0.00021275846050249,2899534.4702889,0.014768019373355
38880000,0.99799694658799,0.015092096546596,0.0043223299362083,0.0060543804088062,0.0047153862015817,-0.00092218961393346,0.00091283792238671,-1.9325346880741e-05,-8.193601206506e-06,-2.8540342243444e-06,-9.7086656771431e-07,-0.00036460324763162,0.00032605798979243,-0.0010050007948919,0.00099684191463936,-0.00099835929939258,0.0010244445620914,-0.00038812211683358,0.00033288279197455,-0.00036642234166198,0.00032423038161338,-0.0010068219343814,0.00099498789572836,-0.001000180129336,0.0010225898726247,-0.0011240426844071,0.0011118019247345,-0.0011184747496849,0.0011234110007089,-0.0011234297108878,0.001112435398959,-0.0011178617622055,0.001124044606152,-0.00087908675477246,0.00084219365223744,-0.00086264701657043,0.00083504524073802,-0.00087970467815779,0.00084156953726485,-0.00086326526673966,0.00083442144580662,-0.00038630317803833,0.00033471103699787,5.2027902016292e-07,-1.3114634852338e-06,-4.0340158925579e-06,3.2686550244838e-06,-0.0016110487868289,0.0016102813328167,-0.0015374591643977,0.0015444637120508,-0.0015509285463308,0.0015495099345244,-0.0015466644316331,0.0015416468160862,-0.0016518341679787,0.001649255874854,-0.0016503828984881,0.0016526706414805,-0.0016519340975268,0.0016481279519586,-0.0016521022087133,0.0016531616866264,-0.0015453290536837,0.0015368002804902,-0.0015528693918121,0.0015586453349906,-0.0015494498546334,0.0015528936506953,-0.0015328040929328,0.0015326503152588,-0.0015411936707948,0.0015338918389124,6.5503969812575e-06,1.8286571646066e-05,-0.00099862003247677,0.00099996425446202,4.499945968651e-06,-2.824503666716e-06,-0.001012727014715,0.0010180812118938,-0.0010857746662036,0.0010337086450202,-0.0010890803259939,0.0010799976723616,-0.0010368667641521,0.0011474385780543,-0.0010055706100319,0.0010252683639841,-0.0010785999222583,0.0010408735191491,-0.0010819181672984,0.0010871743775381,-0.0011253943457926,0.0011294614945694,-0.0011278331284175,0.0011270181316268,-0.0011263671665145,0.0011205478570795,-0.0011288116444345,0.0011181099788178,-0.0010840653516554,0.0011202823773615,-0.0010659642579211,0.001076045365136,-0.001063530894046,0.0010784930859969,-0.001081618874244,0.0011227165054447,-0.0010440505679192,0.0011402798899757,0.74364572121898,122718,2924,0.0038178531125377,0.0066868682819323,0.0041558339440893,37.19361980028,0.00021274895840224,0.00021274895840224,0.00021274895840224,2846225.2885089,0.014769067690252
