time,ASR_ext,ASR_strain,ASR_strain_xx,ASR_strain_yy,ASR_strain_zz,disp_x_101,disp_x_102,disp_x_103,disp_x_104,disp_x_105,disp_x_106,disp_x_p1_neg,disp_x_p1_pos,disp_x_p2_neg,disp_x_p2_pos,disp_x_p3_neg,disp_x_p3_pos,disp_x_p4_neg,disp_x_p4_pos,disp_x_p5_neg,disp_x_p5_pos,disp_x_p6_neg,disp_x_p6_pos,disp_y_101,disp_y_102,disp_y_103,disp_y_104,disp_y_105,disp_y_106,disp_y_p1_neg,disp_y_p1_pos,disp_y_p2_neg,disp_y_p2_pos,disp_y_p3_neg,disp_y_p3_pos,disp_y_p4_neg,disp_y_p4_pos,disp_y_p5_neg,disp_y_p5_pos,disp_y_p6_neg,disp_y_p6_pos,disp_y_p7_neg,disp_y_p7_pos,disp_y_p8_neg,disp_y_p8_pos,disp_z_101,disp_z_102,disp_z_103,disp_z_104,disp_z_105,disp_z_106,disp_z_p1_neg,disp_z_p1_pos,disp_z_p2_neg,disp_z_p2_pos,disp_z_p3_neg,disp_z_p3_pos,disp_z_p4_neg,disp_z_p4_pos,disp_z_p5_neg,disp_z_p5_pos,disp_z_p6_neg,disp_z_p6_pos,humidity,ndof,nelem,strain_xx,strain_yy,strain_zz,temp,thermal_strain_xx,thermal_strain_yy,thermal_strain_zz,vonmises,vstrain
2419200,0,0,0,0,0,0,0,0,0,0,0,0,0,0,0,0,0,0,0,0,0,0,0,0,0,0,0,0,0,0,0,0,0,0,0,0,0,0,0,0,0,0,0,0,0,0,0,0,0,0,0,0,0,0,0,0,0,0,0,0,0,0,0,0,0,0,0,0,0,0,0,0,0,0,0
3419200,0.15985851953087,0.0026637872408911,0.00088792908029702,0.00088792908029702,0.00088792908029702,-0.0002475475580318,0.00024754755413654,-8.4455597880634e-13,-1.7926840141457e-12,-6.3596581800433e-13,-1.9877987079375e-12,-0.00025257777700019,0.00025257777477856,-0.0002525777777677,0.00025257777491084,-0.00025257777786136,0.00025257777476528,-0.00025257777863431,0.00025257777489683,-0.00024793509444072,0.00024793509200146,-0.00024793509557766,0.00024793509128819,-1.6475439282141e-12,-3.4540048363835e-13,-2.6381559349844e-12,5.7031034323655e-13,-0.00024754755774288,0.00024754755442556,-0.00025257777783637,0.00025257777390395,-0.00025257777722599,0.00025257777544319,-0.0002525777778442,0.00025257777478915,-0.00025257777723099,0.00025257777633159,-0.00024793509572001,0.00024793509069045,-0.00024793509284745,0.00024793509405968,-0.00024793509447204,0.0002479350919847,-0.0002479350934085,0.00024793509349505,-1.9883923956831e-12,-1.0402720512853e-12,-0.00024754755823317,0.00024754755393564,7.0698954166068e-14,-3.1265871871135e-12,-0.00025257777717034,0.00025257777455128,-0.00025257777871353,0.00025257777394061,-0.00025257777730919,0.00025257777532815,-0.00025257777884244,0.00025257777470769,-0.00024793509518155,0.00024793509173053,-0.00024793509588278,0.00024793509058606,0.75746877217741,125301,3014,0.0010309151036131,0.0010309151036133,0.0010309151036141,31.88266033072,0.00017026128264576,0.00017026128264576,0.00017026128264576,974207.0299089,0.0030975348556325
4419200,0.35106322943475,0.0056944364271354,0.0018981454757186,0.0018981454757152,0.0018981454757015,-0.00048350502959809,0.00048350502109217,-2.7142110238928e-12,-3.6633585427935e-12,-2.3110729938947e-12,-3.9695859451095e-12,-0.00050293792966296,0.00050293792331352,-0.00050293793156551,0.00050293792457737,-0.00050293793172227,0.0005029379243009,-0.00050293793362704,0.00050293792555342,-0.00048695017835711,0.00048695017193233,-0.0004869501803656,0.00048695017208157,-3.4417388020663e-12,-1.9812590235292e-12,-4.7675766424091e-12,-8.6590541727235e-13,-0.00048350502921812,0.00048350502147092,-0.00050293793065367,0.00050293792231022,-0.0005029379308781,0.00050293792522044,-0.00050293793168587,0.00050293792436546,-0.00050293793190407,0.00050293792728276,-0.00048695017982202,0.00048695017046986,-0.00048695017711293,0.00048695017534474,-0.00048695017818684,0.00048695017217928,-0.00048695017776767,0.00048695017467379,-3.9258892138382e-12,-2.9768232512695e-12,-0.00048350502986758,0.00048350502081641,-1.4796812011668e-12,-5.4027013261831e-12,-0.00050293792978328,0.00050293792305703,-0.00050293793274736,0.00050293792334237,-0.00050293793106478,0.00050293792498343,-0.00050293793399221,0.00050293792523237,-0.00048695018011982,0.00048695017239109,-0.00048695017997332,0.0004869501703952,0.73992840791513,125301,3014,0.0020125762788874,0.0020125762788848,0.0020125762788743,33.607449931172,0.00018405959944937,0.00018405959944937,0.00018405959944937,1835524.239207,0.0060560101112316
5419200,0.55102009206296,0.0087234502177405,0.0029078167392523,0.0029078167392496,0.0029078167392386,-0.000716342676909,0.00071634267209017,-1.1965592694651e-12,-2.146739712693e-12,-9.4051981188299e-13,-2.2994856052344e-12,-0.00076014266538611,0.00076014266188811,-0.00076014266670432,0.00076014266256777,-0.00076014266682668,0.00076014266239818,-0.0007601426681411,0.00076014266306451,-0.00072534783539079,0.00072534783215617,-0.000725347836522,0.00072534783142344,-2.0610515206658e-12,-9.1322675412306e-13,-3.102739076962e-12,-5.2967388316469e-14,-0.00071634267681574,0.00071634267218243,-0.00076014266640012,0.00076014266086421,-0.00076014266636962,0.00076014266288283,-0.00076014266700572,0.00076014266222193,-0.0007601426669709,0.00076014266424555,-0.00072534783685067,0.00072534783073321,-0.0007253478340369,0.00072534783388068,-0.00072534783555352,0.00072534783207384,-0.00072534783454727,0.00072534783335565,-2.2040061103027e-12,-1.2539062234374e-12,-0.00071634267696761,0.00071634267202666,-1.5781319362114e-13,-3.2494961124773e-12,-0.00076014266543264,0.00076014266177019,-0.0007601426675098,0.0007601426617396,-0.00076014266612199,0.00076014266310239,-0.00076014266816998,0.0007601426630428,-0.00072534783596426,0.00072534783201852,-0.00072534783671359,0.0007253478309117,0.72499638738019,125301,3014,0.0029803252671644,0.0029803252671624,0.0029803252671543,36.27905408625,0.00020543243269,0.00020543243269,0.00020543243269,2565894.0828331,0.0089811298050124
6419200,0.70714583235394,0.010628938109374,0.0035429793697948,0.0035429793697931,0.0035429793697864,-0.00085176757773012,0.00085176757417933,-8.0712025479495e-13,-1.7578781509703e-12,-5.8937559792122e-13,-1.9264154287428e-12,-0.00092564334471344,0.00092564334234629,-0.00092564334575941,0.00092564334275373,-0.00092564334590276,0.00092564334261654,-0.00092564334695712,0.00092564334302216,-0.00086145855593157,0.00086145855360237,-0.00086145855702476,0.00086145855283154,-1.5395272027608e-12,-3.4958154846483e-13,-2.3731908705928e-12,3.4425553860644e-13,-0.00085176757746057,0.00085176757444847,-0.00092564334547365,0.00092564334153851,-0.00092564334532665,0.00092564334319913,-0.00092564334583557,0.00092564334266709,-0.00092564334568382,0.00092564334433307,-0.00086145855702759,0.00086145855249559,-0.00086145855454891,0.00086145855532741,-0.00086145855598982,0.00086145855357536,-0.00086145855495851,0.00086145855490556,-1.8952641598044e-12,-9.4458123192705e-13,-0.00085176757787162,0.00085176757403596,-5.8495492414624e-14,-2.7857981604843e-12,-0.00092564334491603,0.00092564334209685,-0.00092564334659488,0.00092564334192562,-0.00092564334533221,0.00092564334315628,-0.00092564334699965,0.0009256433429737,-0.00086145855648906,0.00086145855340706,-0.00086145855726157,0.0008614585523236,0.59839168540088,125301,3014,0.0035427914208513,0.0035427914208505,0.0035427914208474,36.740630764926,0.0002091250461194,0.0002091250461194,0.0002091250461194,2883608.4618919,0.010685199563135
7419200,0.83240993651745,0.011956248356389,0.0039854161187987,0.0039854161187976,0.0039854161187931,-0.00094439095172674,0.00094439094784087,-8.9244156005235e-13,-1.8435949441458e-12,-6.9764277572738e-13,-1.9957963239099e-12,-0.001044463573242,0.0010444635707307,-0.0010444635742503,0.0010444635711005,-0.0010444635743836,0.0010444635709809,-0.0010444635754002,0.001044463571349,-0.00095444333157588,0.00095444332902878,-0.00095444333264489,0.00095444332823323,-1.6799553479222e-12,-5.1612562977512e-13,-2.418148824364e-12,9.1049853886981e-14,-0.00094439095152183,0.00094439094804566,-0.0010444635740219,0.0010444635699058,-0.0010444635739066,0.0010444635714584,-0.0010444635743571,0.0010444635709901,-0.0010444635742371,0.001044463572548,-0.00095444333264458,0.00095444332795027,-0.00095444333034518,0.00095444333055161,-0.00095444333172844,0.00095444332890126,-0.00095444333070081,0.00095444333018685,-1.9207170881173e-12,-9.6963811351534e-13,-0.00094439095180798,0.00094439094775933,-1.8978756976708e-13,-2.705521009955e-12,-0.0010444635734187,0.0010444635705178,-0.0010444635749842,0.0010444635703777,-0.0010444635737949,0.0010444635715372,-0.0010444635753522,0.0010444635713889,-0.00095444333201872,0.00095444332889753,-0.00095444333281465,0.00095444332783679,0.52694121020036,125301,3014,0.0039273261986815,0.0039273261986812,0.0039273261986809,40.779745460726,0.00024143796368581,0.00024143796368581,0.00024143796368581,3026046.1081423,0.011851887206543
8419200,0.90796492504049,0.012669959234054,0.0042233197446865,0.0042233197446855,0.004223319744682,-0.00098144718482982,0.00098144718246864,-3.8899576350527e-13,-1.3403102309131e-12,-2.2484238121959e-13,-1.4811653249454e-12,-0.0011006425737738,0.0011006425724734,-0.001100642574582,0.0011006425726431,-0.0011006425747138,0.0011006425725427,-0.0011006425755315,0.0011006425727121,-0.00099301116102893,0.00099301115962765,-0.00099301116205575,0.00099301115878962,-1.1916595423101e-12,-4.2257084075088e-14,-1.7445109233005e-12,4.0038580180661e-13,-0.0009814471846372,0.00098144718266129,-0.0011006425744915,0.0011006425717063,-0.0011006425743073,0.001100642572939,-0.0011006425746436,0.0011006425725905,-0.0011006425744547,0.0011006425738284,-0.00099301116193715,0.00099301115870135,-0.00099301115995871,0.00099301116091285,-0.0009930111612524,0.00099301115941373,-0.00099301116021438,0.00099301116065239,-1.3874114684732e-12,-4.3617117527e-13,-0.00098144718488118,0.00098144718241782,1.5133780320458e-13,-1.991648906493e-12,-0.0011006425739861,0.0011006425722387,-0.0011006425752224,0.0011006425720216,-0.0011006425741597,0.0011006425730554,-0.0011006425753928,0.0011006425728352,-0.00099301116134217,0.00099301115953947,-0.00099301116217755,0.00099301115851786,0.47156008474719,125301,3014,0.0040811546179527,0.0040811546179528,0.0040811546179539,41.436352882143,0.00024669082305714,0.00024669082305714,0.00024669082305714,3002830.3082109,0.012319025748941
9419200,0.94978148634525,0.01301061908698,0.0043368730289949,0.0043368730289939,0.0043368730289908,-0.0009909403960722,0.00099094039448937,-1.2287559917597e-13,-1.0741852137908e-12,2.4660349584424e-14,-1.2090642550934e-12,-0.0011228073109752,0.0011228073103167,-0.0011228073116695,0.0011228073103725,-0.0011228073118002,0.0011228073102821,-0.0011228073125045,0.0011228073103382,-0.0010038476909539,0.0010038476901511,-0.0010038476919614,0.0010038476892938,-9.3396372086423e-13,2.083544786637e-13,-1.3344898250828e-12,5.1029495960995e-13,-0.00099094039588597,0.00099094039467573,-0.001122807311643,0.0011228073095985,-0.0011228073114482,0.0011228073106175,-0.0011228073116895,0.0011228073103686,-0.0011228073114901,0.0011228073113928,-0.0010038476917252,0.0010038476893591,-0.0010038476900232,0.0010038476912603,-0.0010038476912331,0.0010038476898732,-0.0010038476901919,0.0010038476910905,-1.1002777696223e-12,-1.4904271155335e-13,-0.00099094039610268,0.00099094039445992,2.8454304269948e-13,-1.5549787317612e-12,-0.0011228073112195,0.0011228073100579,-0.0011228073122378,0.0011228073098268,-0.0011228073112775,0.0011228073107589,-0.0011228073122954,0.0011228073105274,-0.0010038476911789,0.0010038476901117,-0.0010038476920319,0.0010038476891076,0.40621133923259,125301,3014,0.0041205837140441,0.0041205837140444,0.0041205837140463,41.144138656454,0.00024435310925163,0.00024435310925163,0.00024435310925163,2927326.6936158,0.01243883420828
10419200,0.97069078596393,0.013195017230385,0.0043983390767966,0.0043983390767957,0.0043983390767927,-0.0009893295155559,0.00098932951558175,4.2015895854987e-13,-5.3111845116648e-13,5.4534041375411e-13,-6.6376401658257e-13,-0.0011276376618007,0.0011276376624491,-0.0011276376622822,0.0011276376622921,-0.0011276376624175,0.0011276376622141,-0.0011276376629103,0.0011276376620588,-0.0010036116915782,0.0010036116920003,-0.001003611692564,0.0010036116911214,-4.0656363938765e-13,7.393924782438e-13,-5.8337648063867e-13,8.3841766914228e-13,-0.00098932951537322,0.0009893295157646,-0.0011276376623933,0.0011276376618007,-0.0011276376621366,0.0011276376624677,-0.0011276376622388,0.0011276376623638,-0.0011276376619775,0.0011276376630359,-0.0010036116921462,0.0010036116914038,-0.001003611690843,0.0010036116928785,-0.0010036116919356,0.0010036116916292,-0.0010036116908873,0.0010036116928378,-5.2732583173428e-13,4.2387634498627e-13,-0.00098932951555653,0.0009893295155824,6.3608936202427e-13,-7.7236983110242e-13,-0.001127637662093,0.0011276376621542,-0.0011276376627508,0.001127637661853,-0.001127637661936,0.0011276376626401,-0.0011276376625981,0.0011276376623432,-0.0010036116916823,0.0010036116920374,-0.0010036116925538,0.0010036116910519,0.43665130715676,125301,3014,0.0041139196980579,0.0041139196980582,0.0041139196980606,38.086342966102,0.00021989074372881,0.00021989074372881,0.00021989074372881,2888995.0538376,0.012418625146827
11419200,0.98277314472516,0.013293809381208,0.0044312697937376,0.0044312697937367,0.0044312697937339,-0.00098664734581461,0.00098664734471476,4.546017004654e-14,-9.0575415336176e-13,1.8023274401339e-13,-1.0334017979315e-12,-0.0011322316360878,0.0011322316358099,-0.0011322316367108,0.0011322316357946,-0.0011322316368374,0.0011322316357112,-0.0011322316374697,0.0011322316356954,-0.0010022187736053,0.0010022187731845,-0.0010022187745941,0.0010022187723086,-7.6839837263685e-13,3.6170778095793e-13,-8.6205202565603e-13,3.6353214106827e-13,-0.00098664734563415,0.00098664734489543,-0.0011322316366563,0.0011322316351957,-0.0011322316365904,0.0011322316359356,-0.0011322316366368,0.0011322316358901,-0.0011322316365664,0.0011322316366351,-0.0010022187740864,0.0010022187726876,-0.0010022187729677,0.0010022187739578,-0.0010022187739893,0.0010022187727963,-0.0010022187729464,0.0010022187739852,-8.9740770245776e-13,5.3732711443726e-14,-0.00098664734581063,0.00098664734472022,1.8307724535112e-13,-1.0413700250959e-12,-0.0011322316364013,0.0011322316354873,-0.0011322316371416,0.001132231635387,-0.0011322316363861,0.001132231636115,-0.0011322316371275,0.0011322316360157,-0.0010022187736776,0.0010022187732603,-0.0010022187745479,0.0010022187722737,0.40445605707229,125301,3014,0.0041028158519518,0.0041028158519522,0.0041028158519549,37.625922124859,0.00021620737699887,0.00021620737699887,0.00021620737699887,2807380.8527701,0.012384948301332
12419200,0.98970281927881,0.013357653785816,0.00445255126194,0.0044525512619392,0.0044525512619364,-0.00098491419618423,0.0009849141953508,1.3301878930847e-13,-8.1816800552905e-13,2.6286188151466e-13,-9.4438070864113e-13,-0.0011332910463858,0.001133291046323,-0.0011332910469706,0.0011332910462696,-0.0011332910470973,0.0011332910461889,-0.0011332910476913,0.0011332910461349,-0.0010012193958797,0.0010012193956611,-0.0010012193968644,0.0010012193947812,-6.8323565303914e-13,4.4572004532328e-13,-6.9450358210553e-13,3.6892558981315e-13,-0.00098491419600493,0.00098491419553033,-0.0011332910469272,0.0011332910457361,-0.0011332910468773,0.0011332910463837,-0.001133291046872,0.0011332910463924,-0.0011332910468175,0.0011332910470451,-0.0010012193962839,0.0010012193952415,-0.0010012193953197,0.0010012193963485,-0.001001219396292,0.001001219395242,-0.0010012193952491,0.0010012193964272,-7.995032816059e-13,1.5160957431393e-13,-0.00098491419616997,0.00098491419536666,1.9981896919706e-13,-8.6234259720206e-13,-0.0011332910467172,0.001133291045985,-0.0011332910473644,0.0011332910458999,-0.0011332910466632,0.0011332910465738,-0.0011332910473123,0.0011332910464906,-0.0010012193959114,0.0010012193957693,-0.001001219396785,0.0010012193947862,0.45322610794666,125301,3014,0.004095633453579,0.0040956334535795,0.0040956334535823,36.800418769779,0.00020960335015823,0.00020960335015823,0.00020960335015823,2780774.7485518,0.012363148670185
13419200,0.9935726156613,0.013390287188747,0.0044634290629171,0.0044634290629162,0.0044634290629134,-0.00097744907839784,0.0009774490782999,3.7948555403564e-13,-5.7161962564811e-13,5.0266708504207e-13,-6.9786085730043e-13,-0.0011305807983187,0.0011305807988115,-0.0011305807988156,0.0011305807986701,-0.0011305807989444,0.0011305807985926,-0.0011305807994508,0.001130580798451,-0.00099460941507842,0.00099460941542232,-0.00099460941604611,0.00099460941452561,-4.4187595940268e-13,6.8888805236934e-13,-3.4795678238341e-13,5.1387426536112e-13,-0.00097744907821935,0.00097744907847863,-0.0011305807988254,0.0011305807982581,-0.0011305807987573,0.0011305807987509,-0.0011305807986858,0.0011305807988281,-0.0011305807986132,0.001130580799326,-0.00099460941538452,0.00099460941509844,-0.00099460941460244,0.00099460941599387,-0.000994609415526,0.00099460941496301,-0.00099460941447075,0.00099460941613546,-5.478200585909e-13,4.0321115276429e-13,-0.00097744907837835,0.00097744907832107,3.4788937221848e-13,-5.1051191891719e-13,-0.0011305807986811,0.0011305807984465,-0.0011305807991712,0.0011305807983408,-0.0011305807985384,0.0011305807989465,-0.0011305807990318,0.0011305807988442,-0.00099460941505451,0.00099460941555177,-0.00099460941594405,0.00099460941458471,0.4150894025916,125301,3014,0.004064674085721,0.0040646740857215,0.0040646740857245,34.785275961958,0.00019348220769566,0.00019348220769566,0.00019348220769566,2723188.6504806,0.012269162358089
14419200,0.99580742186795,0.013407706320627,0.0044692354402106,0.0044692354402097,0.0044692354402069,-0.00097240081144977,0.00097240081144865,4.0864528087306e-13,-5.4242219408019e-13,5.2883782966143e-13,-6.678955080154e-13,-0.0011260181557073,0.001126018156293,-0.0011260181561857,0.0011260181561332,-0.0011260181563145,0.0011260181560573,-0.0011260181568022,0.0011260181558971,-0.00098977844685298,0.00098977844726542,-0.00098977844782641,0.00098977844637456,-4.1431170143163e-13,7.163217584061e-13,-2.2417745024601e-13,4.4744927259767e-13,-0.00097240081127182,0.00097240081162687,-0.0011260181561829,0.0011260181557717,-0.0011260181561582,0.0011260181561823,-0.0011260181560261,0.0011260181563233,-0.0011260181559968,0.001126018156739,-0.00098977844706768,0.00098977844703443,-0.00098977844647658,0.00098977844774767,-0.00098977844733307,0.00098977844677167,-0.00098977844628556,0.0009897784479511,-5.0387866567617e-13,4.4711469389419e-13,-0.00097240081141558,0.00097240081148459,2.982958431491e-13,-3.7109750146136e-13,-0.0011260181560876,0.0011260181559119,-0.0011260181564957,0.0011260181558499,-0.0011260181559258,0.0011260181563928,-0.0011260181563378,0.0011260181563347,-0.00098977844678932,0.00098977844744648,-0.00098977844767245,0.00098977844647311,0.38312450045663,125301,3014,0.0040437255960416,0.0040437255960422,0.0040437255960452,32.633969296473,0.00017627175437179,0.00017627175437179,0.00017627175437179,2722724.1283542,0.012205546014343
15419200,0.99697056247276,0.013419851570367,0.0044732838567904,0.0044732838567895,0.0044732838567868,-0.00096115538067215,0.00096115538249138,1.0155822099547e-12,6.4580821217889e-14,1.1174389071261e-12,-6.3504324692354e-14,-0.0011151413964172,0.0011151413984552,-0.0011151413966651,0.001115141398065,-0.0011151413968024,0.0011151413979983,-0.0011151413970613,0.0011151413976093,-0.00097875046565998,0.00097875046744932,-0.00097875046661724,0.00097875046654245,1.7530221747766e-13,1.3188678436839e-12,5.4526423409605e-13,8.9114808267841e-13,-0.0009611553804946,0.0009611553826692,-0.0011151413968322,0.0011151413979871,-0.0011151413966982,0.0011151413980609,-0.0011151413964551,0.0011151413983175,-0.0011151413963165,0.0011151413983965,-0.00097875046571201,0.00097875046737094,-0.00097875046543176,0.00097875046776114,-0.00097875046620173,0.00097875046687881,-0.00097875046514467,0.00097875046806435,1.2546352011676e-13,1.076391175812e-12,-0.00096115538061557,0.00096115538254973,7.5248430623862e-13,4.1866941581909e-13,-0.0011151413968383,0.0011151413980445,-0.0011151413969006,0.0011151413978638,-0.0011151413964442,0.0011151413982931,-0.0011151413965149,0.0011151413981208,-0.00097875046550285,0.00097875046769047,-0.000978750466399,0.00097875046673027,0.51103778709309,125301,3014,0.0039970587715109,0.0039970587715115,0.0039970587715146,27.044461057015,0.00013155568845612,0.00013155568845612,0.00013155568845612,2735301.7075156,0.012063848963459
16419200,0.99771797943558,0.013426938028321,0.0044756460094419,0.0044756460094411,0.0044756460094383,-0.00094984478473622,0.00094984478511682,5.3712353242125e-13,-4.1376250689826e-13,6.5570007175408e-13,-5.3879946651673e-13,-0.0011099929673688,0.0011099929682068,-0.0011099929678094,0.0011099929680094,-0.0011099929679379,0.0011099929679334,-0.0011099929683872,0.0011099929677349,-0.00096846960481667,0.0009684696055266,-0.00096846960577482,0.00096846960462078,-2.862532977536e-13,8.427621953699e-13,1.2918275943773e-13,3.5010916286128e-13,-0.00094984478455889,0.00094984478529443,-0.0011099929677722,0.0011099929677613,-0.0011099929678545,0.0011099929679829,-0.0011099929675778,0.0011099929682735,-0.0011099929676556,0.0011099929685003,-0.00096846960481346,0.00096846960551762,-0.00096846960464513,0.00096846960576936,-0.00096846960537056,0.0009684696049575,-0.00096846960431107,0.00096846960611985,-3.6309726056911e-13,5.8771513394138e-13,-0.00094984478468967,0.00094984478516521,2.1859548382273e-13,-4.1197270863419e-15,-0.0011099929678121,0.001109992967764,-0.0011099929680334,0.0011099929678115,-0.0011099929676118,0.0011099929682063,-0.0011099929678371,0.0011099929682578,-0.0009684696046515,0.00096846960577887,-0.00096846960554946,0.00096846960482066,0.46538451425637,125301,3014,0.0039501446773767,0.0039501446773773,0.0039501446773806,24.406322707108,0.00011045058165687,0.00011045058165687,0.00011045058165687,2653503.2291143,0.011921472528224
17419200,0.99822001977449,0.013432333842841,0.0044774446142817,0.0044774446142809,0.0044774446142781,-0.00094418041416095,0.00094418041443217,4.9579450087715e-13,-4.5505818652006e-13,6.1298718542696e-13,-5.7960523463441e-13,-0.0011035557968037,0.0011035557975857,-0.001103555797248,0.0011035557973919,-0.0011035557973762,0.0011035557973167,-0.0011035557978289,0.0011035557971216,-0.00096289290038108,0.00096289290100022,-0.00096289290135052,0.00096289290010578,-3.2839753963026e-13,8.009040641806e-13,1.3229647865398e-13,2.63883025239e-13,-0.00094418041398388,0.00094418041460953,-0.001103555797193,0.0011035557971552,-0.0011035557973071,0.0011035557973504,-0.0011035557970026,0.0011035557976712,-0.0011035557971121,0.0011035557978714,-0.00096289290033531,0.00096289290103554,-0.00096289290026444,0.00096289290120904,-0.0009628929009506,0.00096289290041456,-0.00096289289990248,0.00096289290158942,-3.9133566261119e-13,5.594430270466e-13,-0.00094418041410142,0.00094418041449359,1.4747070075367e-13,1.2775433248695e-14,-0.0011035557972495,0.0011035557971414,-0.0011035557974449,0.0011035557972212,-0.0011035557970524,0.0011035557975869,-0.001103555797252,0.0011035557976709,-0.00096289290019993,0.00096289290129125,-0.00096289290108609,0.0009628929003213,0.52521873377382,125301,3014,0.0039266309920357,0.0039266309920363,0.0039266309920396,21.969289883362,9.0954319066894e-05,9.0954319066894e-05,9.0954319066894e-05,2667303.4339865,0.011850078912348
18419200,0.99853192623197,0.013435552435138,0.0044785174783807,0.0044785174783799,0.0044785174783771,-0.00093139333672062,0.00093139333815203,8.8081268001253e-13,-6.9920187515678e-14,9.8895105293006e-13,-1.9619296232203e-13,-0.0010939729211689,0.0010939729228345,-0.0010939729214737,0.0010939729225012,-0.0010939729216066,0.0010939729224303,-0.0010939729219207,0.0010939729220966,-0.00095069634550046,0.00095069634700014,-0.00095069634645319,0.00095069634608918,4.7627688618938e-14,1.1836418938615e-12,6.1339955104639e-13,5.5248332686195e-13,-0.00093139333654381,0.00093139333832913,-0.0010939729215229,0.0010939729224354,-0.0010939729215684,0.0010939729224281,-0.0010939729211983,0.0010939729228163,-0.0010939729212392,0.0010939729228141,-0.00095069634535851,0.00095069634712597,-0.00095069634546381,0.00095069634710106,-0.00095069634610555,0.0009506963463715,-0.00095069634504437,0.00095069634754046,-2.6489190773405e-15,9.4801006835492e-13,-0.00093139333665748,0.00093139333821711,4.3311788619294e-13,4.9624748703873e-13,-0.0010939729216477,0.0010939729223628,-0.0010939729216358,0.0010939729223691,-0.0010939729213103,0.0010939729226679,-0.0010939729213049,0.0010939729226807,-0.00095069634526637,0.0009506963473102,-0.00095069634616762,0.00095069634635552,0.50516361584657,125301,3014,0.0038735726692253,0.0038735726692259,0.0038735726692293,17.466071138348,5.4928569106787e-05,5.4928569106787e-05,5.4928569106787e-05,2630570.3344021,0.011689058593773
19419200,0.99879039069564,0.013439015345401,0.0044796717818018,0.004479671781801,0.0044796717817983,-0.00093045167532907,0.00093045167434189,7.7932442746781e-14,-8.7279468966252e-13,2.0658099791585e-13,-9.9465408458871e-13,-0.0010929036537556,0.0010929036535476,-0.0010929036543569,0.0010929036535109,-0.0010929036544783,0.0010929036534297,-0.0010929036550863,0.00109290365339,-0.00094987197894646,0.00094987197861586,-0.0009498719799313,0.00094987197773706,-7.3446990855369e-13,3.843894023882e-13,-2.2949581672577e-13,-2.1089353054938e-13,-0.00093045167515253,0.00093045167451874,-0.0010929036541332,0.001092903653137,-0.0010929036544281,0.0010929036534492,-0.0010929036540926,0.0010929036538025,-0.001092903654383,0.0010929036541197,-0.00094987197885054,0.00094987197871251,-0.00094987197889689,0.00094987197877735,-0.00094987197952938,0.00094987197802617,-0.00094987197849401,0.00094987197920007,-8.0693261346844e-13,1.4372058002317e-13,-0.00093045167526739,0.00093045167440553,-3.111484210999e-13,-3.4363773739712e-13,-0.0010929036542121,0.001092903653086,-0.0010929036545328,0.0010929036533556,-0.0010929036541726,0.001092903653689,-0.0010929036544944,0.0010929036539597,-0.00094987197876154,0.00094987197894271,-0.00094987197963383,0.00094987197795913,0.65325215552177,125301,3014,0.0038696627529246,0.0038696627529253,0.0038696627529287,17.551719729885,5.5613757839082e-05,5.5613757839082e-05,5.5613757839082e-05,2626233.8522642,0.011677186529834
20419200,0.99901535618018,0.013442243228103,0.0044807477427025,0.0044807477427017,0.0044807477426989,-0.00092602954174473,0.00092602954030209,-6.9605755944876e-14,-1.0202830663468e-12,6.4694038347419e-14,-1.1414441002545e-12,-0.0010942088508398,0.0010942088502536,-0.0010942088515024,0.0010942088502782,-0.0010942088516215,0.0010942088501941,-0.0010942088522904,0.0010942088502154,-0.0009463665205805,0.00094636651991376,-0.00094636652155807,0.00094636651902777,-8.7683946815384e-13,2.3776012262087e-13,-4.3974791618684e-13,-2.9580559167403e-13,-0.00092602954156832,0.00092602954047883,-0.00109420885124,0.0010942088498221,-0.0010942088515519,0.0010942088502371,-0.0010942088512577,0.001094208850546,-0.0010942088515651,0.0010942088509661,-0.00094636652054649,0.00094636651995022,-0.00094636652046161,0.00094636652012826,-0.00094636652114028,0.00094636651935228,-0.00094636652009594,0.00094636652051119,-9.7629117497476e-13,-2.5687127040607e-14,-0.00092602954170489,0.00092602954034398,-4.1580331220011e-13,-5.7524795598158e-13,-0.0010942088512943,0.0010942088497906,-0.0010942088517196,0.0010942088500795,-0.0010942088513169,0.0010942088504556,-0.001094208851742,0.0010942088507443,-0.00094636652043082,0.00094636652019088,-0.00094636652131139,0.00094636651921567,0.70012779305903,125301,3014,0.0038513339552279,0.0038513339552285,0.0038513339552321,18.600074111449,6.4000592891592e-05,6.4000592891592e-05,6.4000592891592e-05,2533949.4826905,0.011621610633644
21419200,0.99916830232747,0.013444282800777,0.0044814276002604,0.0044814276002596,0.0044814276002568,-0.00091482516667383,0.00091482516769406,7.3875004934015e-13,-2.1182202898242e-13,8.5157391147214e-13,-3.3678625552872e-13,-0.0010851847253187,0.0010851847266333,-0.0010851847256744,0.0010851847263511,-0.0010851847258047,0.0010851847262776,-0.0010851847261692,0.0010851847259946,-0.00093571555512167,0.00093571555631133,-0.00093571555607664,0.00093571555540308,-8.9806696063818e-14,1.041550787956e-12,4.2555498304326e-13,4.5524974267987e-13,-0.00091482516649772,0.00091482516787051,-0.0010851847256901,0.0010851847262192,-0.0010851847257528,0.0010851847262923,-0.0010851847254138,0.0010851847266477,-0.001085184725472,0.0010851847267259,-0.00093571555502606,0.00093571555639406,-0.00093571555504248,0.00093571555645647,-0.00093571555571019,0.00093571555570437,-0.00093571555464978,0.00093571555686739,-1.611324598669e-13,7.8936544425105e-13,-0.00091482516662738,0.00091482516774263,3.2316061295922e-13,2.9311594256798e-13,-0.0010851847257964,0.0010851847261598,-0.0010851847258674,0.001085184726186,-0.0010851847255106,0.0010851847265164,-0.0010851847255868,0.0010851847265478,-0.00093571555492196,0.0009357155565921,-0.00093571555582136,0.00093571555563601,0.64990944923706,125301,3014,0.0038048356880449,0.0038048356880456,0.0038048356880492,15.216724427038,3.6933795416305e-05,3.6933795416305e-05,3.6933795416305e-05,2503342.387151,0.011480517370752
22419200,0.99929497859037,0.013446017229833,0.0044820057432791,0.0044820057432783,0.0044820057432755,-0.00091341950683645,0.00091341950620536,1.9237250550495e-13,-7.5819792580911e-13,3.1775324873872e-13,-8.8019611061301e-13,-0.0010824734458576,0.001082473445922,-0.0010824734464113,0.0010824734458378,-0.0010824734465341,0.0010824734457582,-0.0010824734470948,0.0010824734456714,-0.00093427704988983,0.00093427704982609,-0.00093427705087385,0.00093427704894678,-6.2333023563609e-13,4.9706570285163e-13,-1.3708871920285e-13,-7.5767934709711e-14,-0.00091341950666077,0.00091341950638138,-0.0010824734462413,0.0010824734455037,-0.0010824734464779,0.0010824734457829,-0.0010824734461551,0.0010824734461227,-0.0010824734463871,0.001082473446407,-0.00093427704981472,0.00093427704989916,-0.00093427704982068,0.00093427705000846,-0.00093427705046782,0.00093427704923954,-0.00093427704943296,0.00093427705041523,-7.0241336528326e-13,2.4808368591957e-13,-0.00091341950678501,0.00091341950625896,-1.8877538010054e-13,-2.6124112220422e-13,-0.0010824734463186,0.0010824734454579,-0.0010824734466043,0.0010824734456668,-0.0010824734462316,0.0010824734460132,-0.001082473446519,0.0010824734462239,-0.0009342770497212,0.00093427705013516,-0.00093427705059347,0.00093427704915186,0.66642562144511,125301,3014,0.0037989934092701,0.0037989934092708,0.0037989934092746,14.857990882398,3.4063927059187e-05,3.4063927059187e-05,3.4063927059187e-05,2513168.7519791,0.011462772627016
23419200,0.99940748980761,0.013447468789734,0.0044824895965795,0.0044824895965787,0.0044824895965759,-0.00091321368336686,0.00091321368208953,-1.9349850051834e-14,-9.6990892877153e-13,1.1189893450554e-13,-1.0904360408686e-12,-0.001083298330946,0.0010832983305025,-0.0010832983315815,0.0010832983305002,-0.001083298331701,0.0010832983304178,-0.001083298332343,0.0010832983304123,-0.00093426706352189,0.00093426706297419,-0.00093426706450741,0.0009342670620964,-8.2900528084559e-13,2.8592377809249e-13,-3.9962992393308e-13,-2.3731872988384e-13,-0.00091321368319153,0.00091321368226522,-0.0010832983313489,0.0010832983300676,-0.0010832983316293,0.0010832983304616,-0.0010832983313412,0.001083298330765,-0.001083298331617,0.0010832983311641,-0.00093426706349815,0.0009342670629995,-0.0009342670634039,0.00093426706320483,-0.00093426706408064,0.00093426706241225,-0.00093426706304582,0.00093426706358069,-9.2189421911736e-13,2.8591097149843e-14,-0.00091321368332325,0.00091321368213533,-3.5353699380516e-13,-5.3033896027351e-13,-0.0010832983313948,0.001083298330047,-0.0010832983317982,0.0010832983303029,-0.0010832983313902,0.0010832983306846,-0.0010832983317939,0.0010832983309409,-0.00093426706337978,0.0009342670632601,-0.00093426706425151,0.0009342670622763,0.62875729639221,125301,3014,0.003798143494173,0.0037981434941737,0.0037981434941775,15.707951103075,4.0863608824596e-05,4.0863608824596e-05,4.0863608824596e-05,2488322.6429959,0.011460203081861
24419200,0.99951371625298,0.013448915179195,0.0044829717263997,0.0044829717263989,0.0044829717263961,-0.00091748138127955,0.00091748137926399,-2.645625354432e-13,-1.2151539955266e-12,-1.2716302702152e-13,-1.3340837446574e-12,-0.0010867085337869,0.0010867085327679,-0.001086708534513,0.0010867085328562,-0.0010867085346289,0.0010867085327709,-0.001086708535361,0.0010867085328555,-0.00093848063474229,0.00093848063363551,-0.00093848063573469,0.00093848063276453,-1.0677980619183e-12,4.1448627155245e-14,-7.1839648776352e-13,-4.0957154609077e-13,-0.0009174813811045,0.0009174813794394,-0.0010867085342165,0.0010867085323089,-0.0010867085345342,0.0010867085328416,-0.001086708534296,0.0010867085330933,-0.0010867085346092,0.0010867085336311,-0.00093848063479225,0.00093848063359081,-0.00093848063455839,0.00093848063394199,-0.00093848063527418,0.00093848063310583,-0.00093848063424462,0.00093848063427232,-1.1723475973503e-12,-2.2182966443249e-13,-0.00091748138124125,0.00091748137930449,-5.2616902883852e-13,-8.5312809928688e-13,-0.0010867085342132,0.0010867085323308,-0.0010867085347586,0.0010867085326274,-0.0010867085342999,0.0010867085330598,-0.0010867085348439,0.001086708533355,-0.00093848063463713,0.00093848063389852,-0.00093848063550308,0.00093848063290885,0.66255127740754,125301,3014,0.0038158534964341,0.0038158534964349,0.0038158534964387,17.887330804721,5.8298646437769e-05,5.8298646437769e-05,5.8298646437769e-05,2488420.6523189,0.011513933692719
25419200,0.99961055446414,0.013450469323187,0.0044834897743971,0.0044834897743963,0.0044834897743935,-0.00091952838978823,0.00091952838785923,-2.3441939747185e-13,-1.185018386737e-12,-9.7626664631233e-14,-1.3039944726875e-12,-0.0010904073008947,0.0010904072999402,-0.0010904073016107,0.0010904073000183,-0.001090407301727,0.0010904072999336,-0.0010904073024494,0.0010904073000084,-0.00094077265544456,0.00094077265440588,-0.00094077265643277,0.00094077265353067,-1.0382785863053e-12,7.1138951753856e-14,-7.4596726727821e-13,-3.220493553173e-13,-0.00091952838961336,0.00091952838803446,-0.0010904073013422,0.0010904072994616,-0.0010904073016142,0.0010904073000231,-0.0010904073014123,0.0010904073002365,-0.0010904073016798,0.001090407300803,-0.00094077265555013,0.00094077265430321,-0.00094077265520113,0.00094077265476554,-0.0009407726559578,0.0009407726538947,-0.00094077265492439,0.00094077265505717,-1.1525202912962e-12,-2.0199447626623e-13,-0.00091952838976026,0.00091952838788942,-4.5154516148762e-13,-8.9137681316787e-13,-0.0010904073013123,0.0010904072995119,-0.001090407301885,0.0010904072997614,-0.0010904073013891,0.0010904073002311,-0.0010904073019606,0.0010904073004793,-0.00094077265536412,0.00094077265463539,-0.00094077265623429,0.0009407726536499,0.77991302017261,125301,3014,0.0038243577478817,0.0038243577478824,0.0038243577478863,19.931984403906,7.4655875231249e-05,7.4655875231249e-05,7.4655875231249e-05,2453888.4671673,0.011539755883217
26419200,0.99968993523605,0.013451824880433,0.0044839416268125,0.0044839416268116,0.0044839416268089,-0.0009153678329564,0.00091536783194483,7.0838806511322e-14,-8.797050079688e-13,2.0028504319412e-13,-1.0001697102078e-12,-0.0010904643891666,0.0010904643889148,-0.0010904643897715,0.0010904643888819,-0.001090464389892,0.0010904643888007,-0.0010904643905042,0.0010904643887655,-0.00093728920227337,0.0009372892019332,-0.00093728920324803,0.0009372892010446,-7.4038605944848e-13,3.7481158101348e-13,-4.4906818614649e-13,-8.3911744630547e-15,-0.00091536783278159,0.00091536783212002,-0.001090464389613,0.0010904643884327,-0.0010904643897764,0.0010904643888901,-0.0010904643895765,0.0010904643891006,-0.0010904643897354,0.001090464389563,-0.00093728920238457,0.00093728920181837,-0.00093728920201086,0.00093728920229158,-0.00093728920278721,0.00093728920141615,-0.00093728920174256,0.00093728920257388,-8.551917568318e-13,9.5278854002295e-14,-0.00091536783293641,0.00091536783196712,-1.5412667388885e-13,-6.0412760313994e-13,-0.0010904643895929,0.001090464388482,-0.0010904643900564,0.0010904643886177,-0.0010904643895583,0.0010904643890897,-0.0010904643900225,0.0010904643892261,-0.00093728920218926,0.00093728920213884,-0.00093728920307184,0.0009372892011659,0.82922923068302,125301,3014,0.0038071075871671,0.0038071075871678,0.0038071075871718,20.395380521171,7.8363044169366e-05,7.8363044169366e-05,7.8363044169366e-05,2385912.034095,0.011487447183267
27419200,0.99975917560046,0.013452890716984,0.004484296905663,0.0044842969056621,0.0044842969056594,-0.00091550549599382,0.00091550549420169,-1.881867804348e-13,-1.1387288008521e-12,-5.2266815049384e-14,-1.2578394415155e-12,-0.0010923292356326,0.0010923292347775,-0.0010923292363317,0.0010923292348388,-0.0010923292364487,0.0010923292347545,-0.0010923292371545,0.0010923292348128,-0.00093778981996613,0.00093778981903274,-0.00093778982094945,0.00093778981815276,-9.930015402888e-13,1.167817412215e-13,-7.441149635707e-13,-2.3170913993632e-13,-0.0009155054958192,0.0009155054943767,-0.0010923292360939,0.0010923292342838,-0.001092329236322,0.0010923292348584,-0.0010923292361479,0.0010923292350423,-0.0010923292363714,0.0010923292356219,-0.00093778982011433,0.00093778981888523,-0.00093778981967555,0.0009377898194319,-0.00093778982046547,0.00093778981853545,-0.00093778981942758,0.0009377898196934,-1.1188114387256e-12,-1.6834329840426e-13,-0.00091550549597848,0.00091550549421939,-3.7619886032423e-13,-9.0246857726327e-13,-0.0010923292360483,0.0010923292343515,-0.0010923292366327,0.0010923292345558,-0.0010923292361085,0.001092329235054,-0.0010923292366919,0.0010923292352573,-0.0009377898199078,0.00093778981923035,-0.00093778982078272,0.00093778981824974,0.74718867332314,125301,3014,0.0038076856529179,0.0038076856529187,0.0038076856529228,22.257776055599,9.3262208444795e-05,9.3262208444795e-05,9.3262208444795e-05,2346413.9025041,0.011489211862088
28419200,0.99981607408436,0.013453889094064,0.0044846296980229,0.0044846296980221,0.0044846296980194,-0.00091847668159919,0.00091847668017673,-6.9381998074643e-14,-1.0199577233446e-12,6.2156939383462e-14,-1.1392890190319e-12,-0.0010929946801083,0.0010929946795528,-0.0010929946807573,0.001092994679564,-0.001092994680876,0.0010929946794821,-0.001092994681532,0.0010929946794906,-0.00094055706181324,0.00094055706115447,-0.00094055706280001,0.00094055706027791,-8.7820684521183e-13,2.3431240993142e-13,-6.4512039541548e-13,-9.3852351452752e-14,-0.00091847668142492,0.00091847668035139,-0.0010929946805742,0.0010929946790524,-0.0010929946807432,0.0010929946795902,-0.0010929946805805,0.0010929946797627,-0.0010929946807449,0.0010929946803056,-0.00094055706198006,0.00094055706098555,-0.00094055706150884,0.00094055706157731,-0.00094055706230844,0.00094055706065825,-0.00094055706127522,0.00094055706182445,-9.9579128514213e-13,-4.5288998805115e-14,-0.00091847668157972,0.00091847668019856,-2.3746690731369e-13,-7.9958217625455e-13,-0.0010929946805155,0.0010929946791379,-0.0010929946810608,0.0010929946792803,-0.0010929946805252,0.0010929946797899,-0.0010929946810705,0.0010929946799323,-0.00094055706176047,0.00094055706135324,-0.00094055706263127,0.00094055706036846,0.8493285419621,125301,3014,0.0038200059063433,0.0038200059063441,0.0038200059063482,23.444957875208,0.00010275966300166,0.00010275966300166,0.00010275966300166,2368195.963078,0.011526572322259
29419200,0.99986230569834,0.01345446766523,0.0044848225550781,0.0044848225550773,0.0044848225550745,-0.00091717511610583,0.00091717511462376,-8.6084017251187e-14,-1.0366360961847e-12,4.6716764011398e-14,-1.1557394282479e-12,-0.0010952120749759,0.0010952120743631,-0.0010952120756355,0.0010952120743848,-0.0010952120757536,0.0010952120743023,-0.0010952120764203,0.0010952120743215,-0.00093972635338317,0.00093972635268448,-0.00093972635436445,0.00093972635180245,-8.9364217904982e-13,2.1744064042593e-13,-6.7913392801659e-13,-9.3514891173696e-14,-0.00091717511593173,0.00091717511479825,-0.0010952120754478,0.0010952120738568,-0.0010952120756157,0.0010952120744167,-0.0010952120754641,0.0010952120745769,-0.0010952120756275,0.0010952120751419,-0.00093972635356697,0.00093972635249851,-0.00093972635305673,0.00093972635311843,-0.00093972635387199,0.00093972635219588,-0.00093972635283346,0.00093972635335418,-1.0208337259951e-12,-7.0354997761936e-14,-0.0009171751160947,0.0009171751146373,-2.4536665127605e-13,-8.4183476781982e-13,-0.0010952120753848,0.0010952120739454,-0.0010952120759524,0.0010952120740872,-0.0010952120754054,0.0010952120746083,-0.0010952120759727,0.0010952120747498,-0.00093972635333886,0.00093972635286383,-0.0009397263542154,0.00093972635188482,0.60881578646039,125301,3014,0.003814620281081,0.0038146202810818,0.003814620281086,24.784377771065,0.00011347502216852,0.00011347502216852,0.00011347502216852,2306834.7408975,0.011510263958153
30419200,0.9998990797471,0.013454857601982,0.0044849525339956,0.0044849525339947,0.004484952533992,-0.00092581756426681,0.00092581756272137,-1.1411207277804e-13,-1.0647910301885e-12,1.6730709476545e-14,-1.1831816193196e-12,-0.0010964101285621,0.0010964101279281,-0.0010964101292207,0.0010964101279488,-0.0010964101293386,0.0010964101278676,-0.0010964101300042,0.0010964101278856,-0.00094751856190847,0.00094751856114956,-0.00094751856290576,0.00094751856028331,-9.2289966209203e-13,1.8861234096363e-13,-7.2455347981869e-13,-1.0517535196404e-13,-0.00092581756409309,0.00092581756289546,-0.0010964101290392,0.0010964101274163,-0.0010964101291955,0.0010964101279862,-0.0010964101290554,0.001096410128136,-0.001096410129207,0.0010964101287109,-0.00094751856210978,0.00094751856094616,-0.00094751856158227,0.00094751856161517,-0.00094751856239305,0.00094751856066398,-0.00094751856137084,0.00094751856184003,-1.0349807349902e-12,-8.4375392977898e-14,-0.00092581756424187,0.00092581756274866,-2.4254275225011e-13,-8.7276620523858e-13,-0.0010964101289525,0.0010964101275301,-0.0010964101295299,0.0010964101276594,-0.0010964101289717,0.0010964101281917,-0.0010964101295491,0.0010964101283209,-0.0009475185618723,0.00094751856135285,-0.00094751856273261,0.00094751856035737,0.51512748248588,125301,3014,0.003850456465421,0.0038504564654218,0.0038504564654259,26.135131493841,0.00012428105195073,0.00012428105195073,0.00012428105195073,2408185.7138962,0.011618942396612
31419200,0.99992885098978,0.013455265474763,0.0044850884915893,0.0044850884915884,0.0044850884915857,-0.00093417082576573,0.00093417082365806,-2.9984781044345e-13,-1.2505983244914e-12,-1.6343953644612e-13,-1.3676924091122e-12,-0.0011024677562974,0.0011024677552114,-0.0011024677570292,0.0011024677553052,-0.001102467757144,0.0011024677552213,-0.0011024677578823,0.001102467755312,-0.00095534526879379,0.00095534526761146,-0.000955345269793,0.00095534526674698,-1.1028230905031e-12,3.4472604973816e-15,-9.5398601447034e-13,-2.4776611476752e-13,-0.00093417082559223,0.00093417082383194,-0.001102467756791,0.0011024677546853,-0.0011024677569875,0.0011024677553566,-0.0011024677568774,0.0011024677554749,-0.0011024677570693,0.0011024677561513,-0.00095534526903933,0.00095534526736708,-0.00095534526842606,0.00095534526811909,-0.00095534526926136,0.00095534526714775,-0.00095534526824014,0.00095534526831754,-1.225032076111e-12,-2.7435558921331e-13,-0.00093417082574505,0.00093417082368105,-3.8509641203954e-13,-1.1054535673876e-12,-0.0011024677566744,0.0011024677548229,-0.0011024677573564,0.0011024677549954,-0.0011024677567674,0.0011024677555583,-0.0011024677574478,0.0011024677557293,-0.0009553452687786,0.00095534526779789,-0.00095534526963815,0.00095534526680151,0.66479676253864,125301,3014,0.0038851181600621,0.0038851181600629,0.0038851181600669,28.446526103021,0.00014277220882417,0.00014277220882417,0.00014277220882417,2437532.9089685,0.011724126498219
32419200,0.99995059396533,0.013455616485741,0.0044852054952485,0.0044852054952477,0.0044852054952449,-0.00093119325613135,0.00093119325489682,-2.4064264853227e-15,-9.5306867852373e-13,1.2743766569032e-13,-1.0719573259689e-12,-0.0011054125467371,0.0011054125463252,-0.0011054125473666,0.0011054125463167,-0.0011054125474855,0.001105412546236,-0.0011054125481226,0.0011054125462255,-0.00095309218701439,0.00095309218650446,-0.00095309218799595,0.00095309218562251,-8.1216707519871e-13,2.9973151436386e-13,-6.5018222377643e-13,4.3963835588493e-14,-0.00093119325595762,0.00093119325507093,-0.0011054125472249,0.0011054125458004,-0.0011054125473308,0.001105412546367,-0.0011054125472131,0.0011054125464918,-0.0011054125473144,0.0011054125470635,-0.00095309218725084,0.00095309218626252,-0.00095309218663705,0.00095309218699291,-0.00095309218748654,0.00095309218603087,-0.00095309218644993,0.00095309218719144,-9.3931362814284e-13,1.1275096730005e-14,-0.00093119325612234,0.00093119325490817,-1.1357035403305e-13,-8.1536153244134e-13,-0.001105412547131,0.0011054125459236,-0.0011054125477031,0.0011054125460008,-0.0011054125471215,0.0011054125465564,-0.0011054125476939,0.0011054125466339,-0.00095309218699011,0.00095309218666395,-0.00095309218786621,0.0009530921856843,0.7835582016357,125301,3014,0.0038727884803317,0.0038727884803325,0.0038727884803366,29.298459220336,0.00014958767376269,0.00014958767376269,0.00014958767376269,2349508.8334867,0.011686762914478
33419200,0.99996570417859,0.01345586908281,0.0044852896942713,0.0044852896942705,0.0044852896942678,-0.00092621128832642,0.00092621128760607,1.672262442942e-13,-7.8338877389305e-13,2.9327582003678e-13,-9.0326121481344e-13,-0.0011044780377236,0.001104478037697,-0.0011044780382915,0.001104478037627,-0.0011044780384128,0.001104478037548,-0.0011044780389887,0.0011044780374764,-0.00094879141502914,0.00094879141490988,-0.00094879141600221,0.00094879141401955,-6.4643889000541e-13,4.6884504291459e-13,-4.5628650699204e-13,1.8985995056945e-13,-0.0009262112881525,0.00092621128778038,-0.0011044780382017,0.0011044780371801,-0.0011044780382653,0.0011044780376697,-0.0011044780381306,0.0011044780378119,-0.0011044780381896,0.0011044780383066,-0.00094879141524072,0.00094879141469016,-0.00094879141466754,0.00094879141536841,-0.00094879141551081,0.00094879141442377,-0.00094879141446676,0.0009487914155808,-7.7165060307435e-13,1.7889068207128e-13,-0.00092621128831939,0.00092621128761551,2.6671229329899e-14,-6.2440230729106e-13,-0.0011044780381295,0.0011044780372858,-0.0011044780386223,0.0011044780373185,-0.0011044780380581,0.0011044780378568,-0.0011044780385523,0.0011044780378907,-0.00094879141498999,0.00094879141506709,-0.00094879141587391,0.00094879141409537,0.80945760226261,125301,3014,0.0038521288762537,0.0038521288762545,0.0038521288762587,29.317385110633,0.00014973908088506,0.00014973908088506,0.00014973908088506,2288184.4321729,0.011624095160871
34419200,0.99997714244504,0.013456042555445,0.0044853475184833,0.0044853475184824,0.0044853475184797,-0.00092797625806077,0.00092797625609052,-2.4796642479593e-13,-1.1985878839629e-12,-1.1139342053688e-13,-1.3163767414765e-12,-0.0011070933198548,0.0011070933188622,-0.0011070933205737,0.0011070933189433,-0.0011070933206894,0.001107093318859,-0.0011070933214151,0.0011070933189372,-0.00095075516435172,0.00095075516328297,-0.00095075516533745,0.00095075516240518,-1.051192631473e-12,5.5704504147988e-14,-8.9908561213627e-13,-1.9775479552591e-13,-0.00092797625788692,0.00092797625626478,-0.0011070933203473,0.0011070933183369,-0.0011070933205334,0.0011070933189942,-0.0011070933204209,0.0011070933191139,-0.0011070933206023,0.0011070933197762,-0.00095075516459348,0.00095075516304117,-0.0009507551639725,0.00095075516377611,-0.00095075516481993,0.00095075516281902,-0.00095075516378506,0.00095075516397535,-1.1894100761033e-12,-2.3886479107989e-13,-0.00092797625805635,0.00092797625609741,-3.5343574689819e-13,-1.0676632218567e-12,-0.0011070933202489,0.0011070933184568,-0.0011070933209158,0.0011070933186187,-0.0011070933203293,0.0011070933191795,-0.0011070933209948,0.00110709331934,-0.0009507551643381,0.00095075516344071,-0.00095075516521113,0.00095075516245799,0.73398852679868,125301,3014,0.0038594568810109,0.0038594568810118,0.0038594568810161,31.490035645427,0.00016712028516341,0.00016712028516341,0.00016712028516341,2262209.6706407,0.011646336932503
35419200,0.99998611421667,0.013456162938834,0.0044853876462796,0.0044853876462788,0.004485387646276,-0.00093784032617777,0.00093784032282656,-7.063783618024e-13,-1.6571077294375e-12,-5.5764449375526e-13,-1.7722581087313e-12,-0.001114641836108,0.0011146418340311,-0.0011146418369982,0.0011146418342833,-0.0011146418371072,0.0011146418341932,-0.0011146418380028,0.0011146418344412,-0.00096032008035076,0.00096032007823628,-0.00096032008134487,0.00096032007736686,-1.4973917202099e-12,-4.0079358691339e-13,-1.4442825762285e-12,-5.7011815773016e-13,-0.00093784032600421,0.00093784032300053,-0.0011146418366344,0.0011146418334777,-0.001114641836924,0.001114641834362,-0.0011146418368723,0.001114641834419,-0.0011146418371574,0.0011146418353084,-0.00096032008068107,0.00096032007791449,-0.00096032007989261,0.00096032007881708,-0.0009603200807852,0.00096032007781644,-0.00096032007975516,0.00096032007896478,-1.6537991834525e-12,-7.0314351944814e-13,-0.00093784032617928,0.00093784032282752,-7.2111551453367e-13,-1.6163937379279e-12,-0.001114641836473,0.0011146418336473,-0.0011146418373739,0.0011146418339198,-0.0011146418367255,0.0011146418345423,-0.001114641837622,0.0011146418348103,-0.00096032008038134,0.00096032007836767,-0.00096032008124801,0.00096032007737852,0.64952121200817,125301,3014,0.0039003855679565,0.0039003855679573,0.0039003855679616,35.945825109658,0.00020276660087726,0.00020276660087726,0.00020276660087726,2275594.685038,0.011770535318985
36419200,0.99999185387027,0.013456243772173,0.0044854145907258,0.004485414590725,0.0044854145907222,-0.00094297479637898,0.00094297479473011,-1.4467472734521e-13,-1.0954522111575e-12,-1.2088674816929e-14,-1.2133419185314e-12,-0.0011174933584055,0.0011174933576758,-0.0011174933590801,0.0011174933577124,-0.0011174933591975,0.0011174933576307,-0.0011174933598795,0.0011174933576651,-0.00096512359186505,0.00096512359103614,-0.00096512359285227,0.00096512359015965,-9.5177924069206e-13,1.5770647445487e-13,-8.8529652924725e-13,-6.2463146940796e-15,-0.00094297479620563,0.00094297479490387,-0.0011174933589248,0.0011174933571202,-0.0011174933590134,0.0011174933577932,-0.0011174933589566,0.0011174933578551,-0.0011174933590407,0.0011174933585332,-0.00096512359219307,0.00096512359070388,-0.00096512359140279,0.00096512359161954,-0.00096512359230628,0.00096512359059675,-0.00096512359127349,0.00096512359175873,-1.0889792618428e-12,-1.3827568753737e-13,-0.00094297479637743,0.00094297479473412,-1.6972605027979e-13,-1.0571099854273e-12,-0.0011174933587747,0.0011174933572973,-0.0011174933594542,0.001117493357358,-0.0011174933588106,0.0011174933579757,-0.0011174933594897,0.001117493358036,-0.00096512359188457,0.00096512359116309,-0.00096512359275575,0.0009651235901783,0.6811981079479,125301,3014,0.003921684846701,0.0039216848467018,0.0039216848467061,37.486239723577,0.00021508991778861,0.00021508991778861,0.00021508991778861,2302005.6245173,0.011835167182766
37419200,0.99999524261246,0.013456289604802,0.0044854298682686,0.0044854298682678,0.0044854298682651,-0.00094218353190838,0.00094218353106761,1.2527099658646e-13,-8.2549572284878e-13,2.5082999908041e-13,-9.4481396011148e-13,-0.0011182899204025,0.0011182899203069,-0.0011182899209782,0.0011182899202447,-0.0011182899210992,0.0011182899201664,-0.0011182899216832,0.0011182899201028,-0.00096450559896654,0.00096450559875021,-0.00096450559994961,0.00096450559786959,-6.8887994295486e-13,4.2612385353231e-13,-5.7470606812411e-13,2.2302277532982e-13,-0.00094218353173507,0.00094218353124132,-0.0011182899209052,0.0011182899197643,-0.0011182899209282,0.0011182899203124,-0.0011182899208422,0.0011182899204042,-0.0011182899208606,0.0011182899209574,-0.00096450559925268,0.00096450559845455,-0.00096450559854204,0.00096450559929281,-0.00096450559942427,0.00096450559828833,-0.00096450559838993,0.00096450559945527,-8.170790682071e-13,1.3361403582998e-13,-0.00094218353190485,0.00094218353107359,5.5331706713165e-14,-7.4584686194916e-13,-0.0011182899207867,0.0011182899199175,-0.0011182899213372,0.0011182899199084,-0.0011182899207233,0.0011182899204965,-0.0011182899212751,0.0011182899204888,-0.00096450559896584,0.00096450559888878,-0.00096450559983999,0.00096450559790697,0.65495763090949,125301,3014,0.0039184089344026,0.0039184089344035,0.0039184089344077,37.681166276907,0.00021664933021526,0.00021664933021526,0.00021664933021526,2277444.7497567,0.01182524057086
38419200,0.99999719022561,0.013456318976238,0.0044854396587475,0.0044854396587467,0.0044854396587439,-0.00094127833865803,0.00094127833821645,2.5713740933453e-13,-6.93627045464e-13,3.7865093247393e-13,-8.1360595372013e-13,-0.0011170859509072,0.0011170859511309,-0.0011170859514322,0.0011170859510179,-0.0011170859515551,0.0011170859509415,-0.0011170859520886,0.0011170859508274,-0.00096360965756836,0.00096360965765276,-0.00096360965855124,0.00096360965677197,-5.6098210072059e-13,5.5717487391065e-13,-3.9369735287126e-13,3.0564365323163e-13,-0.00094127833848477,0.00094127833839013,-0.0011170859513924,0.0011170859506045,-0.0011170859513997,0.0011170859510694,-0.0011170859512808,0.0011170859511957,-0.0011170859512835,0.0011170859516657,-0.00096360965780567,0.00096360965740404,-0.00096360965719265,0.00096360965814798,-0.00096360965804416,0.0009636096571693,-0.00096360965701081,0.0009636096583413,-6.7836224708723e-13,2.7232835702622e-13,-0.00094127833864763,0.00094127833822929,1.4259674670845e-13,-5.5836769225028e-13,-0.001117085951303,0.0011170859507324,-0.0011170859517686,0.0011170859507058,-0.0011170859511883,0.0011170859512602,-0.0011170859516562,0.0011170859512359,-0.00096360965754409,0.00096360965781422,-0.00096360965841772,0.0009636096568319,0.72891346290552,125301,3014,0.0039146504423151,0.003914650442316,0.0039146504423202,37.194176560433,0.00021275341248346,0.00021275341248346,0.00021275341248346,2282970.4689902,0.011813828096193
38880000,0.99999787040937,0.013456329463747,0.0044854431545839,0.0044854431545831,0.0044854431545803,-0.0009389091101661,0.00093890910946421,1.7177581119041e-13,-7.7895785043119e-13,2.9663040873286e-13,-8.9852078610087e-13,-0.0011171766815929,0.0011171766815956,-0.0011171766821541,0.0011171766815188,-0.0011171766822753,0.0011171766814405,-0.0011171766828446,0.0011171766813621,-0.00096156495787528,0.00096156495776553,-0.00096156495885505,0.00096156495688167,-6.430569508983e-13,4.7244504323117e-13,-4.494916736688e-13,1.9097487804985e-13,-0.00093890910999275,0.00093890910963798,-0.0011171766820703,0.0011171766810793,-0.0011171766821294,0.0011171766815602,-0.0011171766819928,0.0011171766817046,-0.0011171766820473,0.0011171766821906,-0.00096156495808476,0.00096156495754761,-0.00096156495752395,0.00096156495822724,-0.00096156495835894,0.00096156495727666,-0.00096156495732195,0.00096156495844115,-7.6467755139041e-13,1.8598246542217e-13,-0.00093890911015663,0.00093890910947615,3.0545346272403e-14,-6.1456116675468e-13,-0.0011171766819978,0.0011171766811862,-0.0011171766824816,0.0011171766812139,-0.0011171766819195,0.0011171766817502,-0.0011171766824047,0.0011171766817795,-0.00096156495783944,0.00096156495793271,-0.00096156495871666,0.00096156495695404,0.74537476942469,125301,3014,0.0039048291760993,0.0039048291761002,0.0039048291761045,37.193611324069,0.00021274889059255,0.00021274889059255,0.00021274889059255,2246448.03725,0.011784040471735
