time,ASR_ext,ASR_strain,ASR_strain_xx,ASR_strain_yy,ASR_strain_zz,disp_x_101,disp_x_102,disp_x_103,disp_x_104,disp_x_105,disp_x_106,disp_x_p1_neg,disp_x_p1_pos,disp_x_p2_neg,disp_x_p2_pos,disp_x_p3_neg,disp_x_p3_pos,disp_x_p4_neg,disp_x_p4_pos,disp_x_p5_neg,disp_x_p5_pos,disp_x_p6_neg,disp_x_p6_pos,disp_y_101,disp_y_102,disp_y_103,disp_y_104,disp_y_105,disp_y_106,disp_y_p1_neg,disp_y_p1_pos,disp_y_p2_neg,disp_y_p2_pos,disp_y_p3_neg,disp_y_p3_pos,disp_y_p4_neg,disp_y_p4_pos,disp_y_p5_neg,disp_y_p5_pos,disp_y_p6_neg,disp_y_p6_pos,disp_y_p7_neg,disp_y_p7_pos,disp_y_p8_neg,disp_y_p8_pos,disp_z_101,disp_z_102,disp_z_103,disp_z_104,disp_z_105,disp_z_106,disp_z_p1_neg,disp_z_p1_pos,disp_z_p2_neg,disp_z_p2_pos,disp_z_p3_neg,disp_z_p3_pos,disp_z_p4_neg,disp_z_p4_pos,disp_z_p5_neg,disp_z_p5_pos,disp_z_p6_neg,disp_z_p6_pos,humidity,ndof,nelem,strain_xx,strain_yy,strain_zz,temp,thermal_strain_xx,thermal_strain_yy,thermal_strain_zz,vonmises,vstrain
2419200,0,0,0,0,0,0,0,0,0,0,0,0,0,0,0,0,0,0,0,0,0,0,0,0,0,0,0,0,0,0,0,0,0,0,0,0,0,0,0,0,0,0,0,0,0,0,0,0,0,0,0,0,0,0,0,0,0,0,0,0,0,0,0,0,0,0,0,0,0,0,0,0,0,0,0
3419200,0.15881498153826,0.0030068232355242,0.0010022744118414,0.0010022744118414,0.0010022744118414,-0.0002585163438905,0.00025850411102746,-4.7862755709785e-09,-4.7862755405383e-09,-4.4028762055071e-09,-4.9500458864298e-09,-0.00026735300692686,0.00026734265114827,-0.00026735339483118,0.00026734303904852,-0.0002673538406594,0.00026734317716257,-0.00026735422450945,0.00026734356101645,-0.00026533643765074,0.00026532621516008,-0.00026533676886748,0.00026532654639751,-3.5815667841564e-09,-3.2359703454894e-09,-3.6964460013934e-09,-3.3197190150236e-09,-0.00026592143783936,0.00026591217998712,-0.00027433372950227,0.00027432567548134,-0.00027433397592257,0.00027432619588646,-0.0002743344387109,0.00027432670320754,-0.00027433468513609,0.00027432722361284,-0.00027129735181398,0.00027128971690485,-0.00027129732774194,0.0002712904216735,-0.00026586393367517,0.00026585645875181,-0.0002658639033612,0.00026585716502223,-1.2558200019433e-09,-1.2558200212221e-09,-0.00028021045736951,0.00028020657410837,-1.0462080974505e-09,-1.4443724976469e-09,-0.00028758149616752,0.0002875787262559,-0.00028758245949221,0.00028757941712456,-0.00028758251701935,0.00028757974711146,-0.00028758344168035,0.00028758039929627,-0.00027704571479938,0.00027704286027014,-0.00027704514802904,0.00027704229350185,0.75746877217741,125301,3014,0.0010765498424074,0.0011073728536774,0.0011668487516813,31.80968860346,0.00016967750882768,0.00016967750882768,0.00016967750882768,2224183.3061721,0.0033563957887429
4419200,0.34887922514511,0.0063465604149608,0.0019982416125562,0.0020842174088223,0.0022641013935823,-0.0004778337462201,0.00047780916168347,-1.042841163383e-08,-1.0428406813463e-08,-9.6168558718603e-09,-1.0280638570144e-08,-0.00051185095316462,0.00051182795280917,-0.00051185259931518,0.00051182959893716,-0.00051185332624894,0.00051183000291235,-0.00051185494776119,0.00051183162442384,-0.00051190908295856,0.00051188747962118,-0.0005119107685318,0.00051188916521341,-8.5894112862941e-09,-8.6817377063771e-09,-9.9834214075008e-09,-8.2025237286978e-09,-0.00050929154244035,0.00050927000174152,-0.00054480860135747,0.00054478785339557,-0.00054480972091293,0.00054479027223086,-0.0005448112853275,0.00054479064044204,-0.00054481240492976,0.00054479305931222,-0.00053822996852376,0.00053820967765263,-0.00053823003564699,0.0005382131977847,-0.00050648569146495,0.00050646835631974,-0.00050648632125211,0.00050646895734163,-5.5917995136868e-09,-5.5917945994251e-09,-0.00057940731949223,0.00057939362350727,-4.5493343452527e-09,-6.4791896699972e-09,-0.00061864883300345,0.00061863742615676,-0.00061865306882351,0.00061864032947056,-0.00061865269483431,0.00061864128798284,-0.00061865676654893,0.00061864402716571,-0.00056087207157982,0.00056085996451337,-0.00056086980315857,0.00056085769604087,0.73992840791513,125301,3014,0.0019890310751546,0.0021197837827769,0.0024111947016723,33.600953723132,0.00018400762978505,0.00018400762978505,0.00018400762978505,3796775.9764154,0.0065413549117759
5419200,0.54836657659,0.0096359558167925,0.0029337968491027,0.0031220176062403,0.0035801413614496,-0.00068007333513883,0.00068007173489483,2.7925662990165e-10,2.7926549092507e-10,1.8363070051697e-10,5.4806384467281e-11,-0.00075725734818612,0.00075725637811884,-0.0007572579433263,0.00075725697320995,-0.00075725816421317,0.00075725704125964,-0.00075725873296093,0.00075725760998816,-0.00075090004632911,0.00075090056765329,-0.00075090041374309,0.0007509009350489,1.4504029950053e-10,-3.0696254870521e-10,-2.8651098420683e-10,7.61309123686e-10,-0.00073746922401147,0.00073746770175029,-0.00081800791395042,0.00081800662738229,-0.00081800813620743,0.00081800761786684,-0.00081800898327972,0.00081800733798422,-0.00081800920555928,0.00081800832848997,-0.00079905592679096,0.00079905559578013,-0.00079905493216761,0.00079905662047391,-0.0007314609563205,0.00073146078381119,-0.00073146047969154,0.00073145943460341,-3.4957083904494e-09,-3.4956994636633e-09,-0.00088582814771379,0.00088582009052494,-2.5805752539327e-09,-3.8813766216085e-09,-0.00097995051684044,0.00097994357717501,-0.0009799516541816,0.00097994376430011,-0.00097995108997055,0.00097994415030747,-0.00097995211067275,0.00097994422079423,-0.00084862596544193,0.0008486181624606,-0.00084862720425972,0.00084861940121648,0.72499638738019,125301,3014,0.0028299748331195,0.0030682270218054,0.0036839042352083,36.269727734038,0.00020535782187231,0.00020535782187231,0.00020535782187231,4564744.5792738,0.0096283366176343
6419200,0.70486935902246,0.011692027825153,0.0035173758011743,0.0037585378211838,0.0044161142027953,-0.00079168441714041,0.00079167835253562,-2.5457698748013e-09,-2.5457586697907e-09,-2.1146747737255e-09,-2.5324368114261e-09,-0.00091549350742893,0.00091548806055749,-0.00091549381360488,0.00091548836665422,-0.00091549400224628,0.00091548825213562,-0.00091549430494,0.00091548855476947,-0.00088200800451945,0.0008820032180552,-0.0008820083816722,0.00088200359520457,-1.0725183016451e-09,-9.5352650880571e-10,-1.3599462525185e-09,-1.0159814049885e-09,-0.00086241700819664,0.00086241390309829,-0.00099101150531707,0.00099100872802646,-0.00099101176411162,0.00099100924902489,-0.00099101194621427,0.00099100929267196,-0.000991012205041,0.00099100981370221,-0.00094109646870658,0.00094109436561909,-0.00094109659189311,0.00094109515589887,-0.00085066611022421,0.0008506639438521,-0.00085066539364443,0.00085066348995762,-1.7084563331553e-09,-1.7084452239653e-09,-0.0010673638627732,0.0010673597963867,-1.3489404915586e-09,-1.8612723344813e-09,-0.0012183008417535,0.0012182977394783,-0.0012183015865921,0.001218298076596,-0.0012183013579421,0.0012182982556539,-0.0012183020610268,0.0012182985510001,-0.0010131332348456,0.0010131295056161,-0.0010131327408139,0.0010131290115107,0.59839168540088,125301,3014,0.0032939098781575,0.0035873050875211,0.0044370961938459,36.738954764669,0.00020911163811736,0.00020911163811736,0.00020911163811736,4716252.5073622,0.011382954741028
7419200,0.83085852403665,0.013129114029542,0.0039410256474087,0.004208187423686,0.0049799009584475,-0.00086980179831788,0.00086979558630547,-2.356730205157e-09,-2.3567215837145e-09,-1.9484385241876e-09,-2.5366249842891e-09,-0.0010310493572175,0.0010310441953842,-0.0010310495980423,0.0010310444361229,-0.001031049928758,0.0010310443631906,-0.0010310501682527,0.0010310446026203,-0.00097214311768485,0.00097213855534304,-0.00097214340887751,0.00097213884653298,-1.0498581385966e-09,-7.0754301445284e-10,-8.361002678555e-10,-9.5466153726169e-10,-0.00094652003741399,0.0009465170546176,-0.0011135685978669,0.0011135663146685,-0.0011135689213065,0.0011135665983553,-0.0011135690395831,0.0011135670380009,-0.0011135693630529,0.0011135673217177,-0.0010363092382261,0.0010363082199697,-0.0010363096744042,0.0010363084163967,-0.00093161484124312,0.00093161246363983,-0.00093161406529174,0.00093161238205163,-1.6167342339378e-09,-1.616725574967e-09,-0.0011851105146421,0.001185106539714,-1.4837132522551e-09,-1.5151778274163e-09,-0.0013814058548285,0.0013814027945076,-0.0013814063447821,0.0013814032024752,-0.0013814063056416,0.0013814032452983,-0.0013814067598071,0.0013814036174595,-0.0011206588152558,0.00112065541468,-0.0011206585102416,0.0011206551095905,0.52694121020036,125301,3014,0.0036185627103439,0.0039366144101609,0.0049253021308004,40.765535493216,0.00024132428394573,0.00024132428394573,0.00024132428394573,4673598.9314288,0.012559213598618
8419200,0.90705078238447,0.013906973577331,0.0041773897633167,0.0044540539900749,0.0052755298239392,-0.0009004553977671,0.00090045237253166,-1.1489435754742e-09,-1.148935553984e-09,-7.6070918313604e-10,-1.4042343352961e-09,-0.0010886934524704,0.0010886910828641,-0.001088693547166,0.0010886911774749,-0.0010886938720945,0.0010886910511943,-0.0010886939679617,0.0010886911469978,-0.0010083582571484,0.0010083562562389,-0.0010083585206871,0.0010083565197764,-1.5458195239251e-11,4.604796669766e-10,6.2139965953873e-10,-9.6031977441926e-11,-0.00097778677649002,0.00097778681651115,-0.0011719515038161,0.0011719520178518,-0.0011719518767936,0.0011719519407213,-0.001171951697705,0.0011719525657213,-0.0011719520707075,0.0011719524886158,-0.0010732195924314,0.0010732216695796,-0.0010732205729295,0.0010732212434433,-0.00096356001529281,0.00096355969112088,-0.00096355922030618,0.00096355983507228,-7.7357523374879e-10,-7.7356729816769e-10,-0.0012305957433835,0.0012305940162535,-9.553242569703e-10,-3.6950918039524e-10,-0.0014560496511201,0.0014560483186101,-0.0014560496602584,0.0014560486631285,-0.0014560498157718,0.0014560484832382,-0.0014560498015886,0.0014560488044159,-0.0011646212942631,0.0011646198930784,-0.0011646210127789,0.0011646196115173,0.47156008474719,125301,3014,0.0037460289596531,0.0040665359125452,0.005113812971184,41.433931081525,0.0002466714486522,0.0002466714486522,0.0002466714486522,4425012.001032,0.013010979686479
9419200,0.94926810867701,0.014280858917602,0.0042941377312715,0.0045734137058793,0.0054133074804514,-0.00090841439693003,0.00090841276349464,-6.0912241208137e-10,-6.0911472663969e-10,-2.291819865741e-10,-9.1132654315849e-10,-0.0011137800616926,0.0011137789653957,-0.0011137800693255,0.0011137789729436,-0.0011137804098509,0.0011137788306811,-0.0011137804194024,0.0011137788401695,-0.0010179861408916,0.0010179852768401,-0.0010179864067924,0.0010179855427414,4.6850192642661e-10,1.0220155568395e-09,1.4903821443605e-09,1.4230343279999e-10,-0.00098421029557636,0.00098421174406871,-0.0011954165984759,0.0011954185763972,-0.0011954170878472,0.0011954181917224,-0.0011954166694313,0.0011954190450701,-0.0011954171588257,0.0011954186604195,-0.0010817022020405,0.0010817060943894,-0.0010817037886998,0.001081705041965,-0.00097153279703883,0.00097153331664632,-0.00097153200082841,0.00097153360436301,-2.7354540437567e-10,-2.7353774608021e-10,-0.0012405333020579,0.0012405328517335,-7.7427299284449e-10,4.4851399229364e-10,-0.0014832636387387,0.0014832632422131,-0.0014832632854608,0.0014832636512777,-0.0014832636514535,0.0014832632549027,-0.0014832632806908,0.0014832636464637,-0.0011760656970526,0.0011760655630627,-0.0011760654274339,0.0011760652933663,0.40621133923259,125301,3014,0.0037791895753303,0.0040932984334579,0.0051549869724748,41.145148071703,0.00024436118457363,0.00024436118457363,0.00024436118457363,4166512.3771777,0.013113518887497
10419200,0.97039372188665,0.014484680014155,0.0043591178754068,0.0046391068205343,0.0054864553182134,-0.00090662529337123,0.00090662699814325,6.981415744306e-10,6.9814911393556e-10,1.0114404591147e-09,3.7422043733722e-10,-0.0011207022412099,0.0011207041181137,-0.0011207020855753,0.0011207039623952,-0.0011207023809792,0.0011207037871803,-0.0011207022286887,0.001120703634827,-0.0010174516297984,0.0010174535513674,-0.0010174518890773,0.001017453810647,1.5903464578915e-09,2.1718342753857e-09,3.0904870166084e-09,9.066492728577e-10,-0.00098131744580313,0.00098132193507635,-0.0012011314380581,0.0012011363999312,-0.0012011320412814,0.0012011355624039,-0.0012011312758082,0.0012011366309793,-0.0012011318790536,0.001201135793475,-0.0010803208407903,0.0010803280640771,-0.0010803232202572,0.0010803261723357,-0.00097034855516827,0.00097035121267103,-0.00097034781072036,0.00097035158892052,5.6411718578367e-10,5.641247676697e-10,-0.0012384334881344,0.0012384352700946,-3.6232579131343e-10,1.7064987333998e-09,-0.0014896272907267,0.0014896285536174,-0.0014896263697098,0.0014896289627779,-0.001489626996209,0.0014896282590744,-0.0014896260689174,0.0014896286619418,-0.0011759261853873,0.0011759281197645,-0.0011759259625801,0.0011759278968783,0.43665130715676,125301,3014,0.0037718285360589,0.0040813532474422,0.0051462766743565,38.097021313992,0.00021997617051194,0.00021997617051194,0.00021997617051194,4038511.404111,0.013085209879637
11419200,0.98259760865341,0.014594117866395,0.0043942952687692,0.0046745039275812,0.0055253186700447,-0.00090544753650935,0.00090544652531164,-3.6594415809834e-10,-3.6593655662468e-10,1.030643257203e-11,-7.0381861079515e-10,-0.0011288482879236,0.0011288477573346,-0.0011288482433555,0.0011288477126825,-0.0011288486104444,0.0011288475733375,-0.0011288485665663,0.0011288475293971,-0.0010161229229432,0.0010161225740647,-0.0010161232005544,0.001016122851678,7.0900436990841e-10,1.3100666111603e-09,2.4158497392277e-09,-2.1123903349387e-10,-0.0009782016681868,0.00097820383395596,-0.0012073383439995,0.0012073413684894,-0.0012073391890159,0.0012073404962789,-0.0012073383594861,0.0012073418106871,-0.0012073392045235,0.0012073409384986,-0.0010774249786109,0.0010774307531517,-0.0010774278097143,0.0010774284379242,-0.00096899788936712,0.00096899851908567,-0.00096899710957521,0.00096899891296037,1.0886886495444e-10,1.0887647089855e-10,-0.0012333790713763,0.0012333795601166,-1.0180647110572e-09,1.4745198633127e-09,-0.0014931809175674,0.0014931809417456,-0.0014931800626953,0.0014931816930111,-0.0014931808538659,0.0014931808780193,-0.0014931799836237,0.0014931816138962,-0.0011736631132148,0.0011736642088565,-0.0011736628522994,0.0011736639478614,0.40445605707229,125301,3014,0.0037669929215105,0.004068480525717,0.0051253274871307,37.627608289463,0.0002162208663157,0.0002162208663157,0.0002162208663157,3840526.0734381,0.01304613760029
12419200,0.98959803349244,0.014665139884297,0.0044173680298462,0.0046975980642331,0.005550173790218,-0.00090428880008209,0.00090428825155801,-1.8854349294924e-10,-1.8853593779769e-10,1.915208658749e-10,-5.4597945880525e-10,-0.0011312073443468,0.0011312072342577,-0.0011312072727185,0.0011312071625458,-0.0011312076474847,0.0011312070129596,-0.0011312075763254,0.0011312069417379,-0.0010153445587546,0.0010153445830709,-0.0010153448378383,0.0010153448621569,8.5416376166896e-10,1.4912298742745e-09,2.7888902200691e-09,-2.4181008724026e-10,-0.00097622226630524,0.00097622487916441,-0.001208852799379,0.0012088563443849,-0.0012088537471747,0.0012088553076883,-0.0012088527724781,0.0012088567642156,-0.0012088537202942,0.0012088557275405,-0.0010759703077111,0.0010759768570959,-0.001075973529037,0.001075974140925,-0.00096804470716853,0.00096804552529677,-0.00096804390786832,0.00096804596817336,2.6746783986462e-10,2.6747541033923e-10,-0.0012306070432062,0.0012306079444635,-1.0584727146792e-09,1.8361306217052e-09,-0.0014937967791833,0.0014937970339136,-0.0014937957463806,0.001493797874653,-0.0014937966693949,0.0014937969241003,-0.0014937956228609,0.0014937977510901,-0.0011721984401487,0.0011722000091438,-0.0011721981852983,0.0011721997542134,0.45322610794666,125301,3014,0.0037622031501941,0.0040602882436182,0.0051138382394397,36.803302097808,0.00020962641678247,0.00020962641678247,0.00020962641678247,3771435.7670141,0.013021379985003
13419200,0.9935079889101,0.014701483084904,0.0044292165139431,0.0047094318867222,0.0055628346842383,-0.00089830411352181,0.0008983049605126,3.547520639209e-10,3.5475973156901e-10,7.1053500867263e-10,-1.5890156860733e-11,-0.0011309543403008,0.0011309554265599,-0.0011309542034972,0.0011309552896727,-0.0011309545642363,0.0011309551264671,-0.0011309544281552,0.0011309549903238,-0.0010090518480397,0.0010090530383927,-0.0010090521267343,0.0010090533170904,1.3176725454309e-09,1.9629104773955e-09,3.4817102521473e-09,3.911797993715e-11,-0.00096882584527581,0.00096882972571302,-0.0012072720360665,0.0012072767949051,-0.0012072730539453,0.0012072755517359,-0.0012072719213315,0.0012072771230727,-0.0012072729392299,0.0012072758799243,-0.0010684919629293,0.0010684999619897,-0.001068495577448,0.0010684968335654,-0.0009618304923674,0.00096183218204598,-0.00096182971909982,0.00096183265968936,6.0090590961929e-10,6.0091349785807e-10,-0.0012210692346514,0.001221071062595,-9.3031948999583e-10,2.3770921228203e-09,-0.0014896529768559,0.0014896538507255,-0.0014896516978623,0.0014896547209659,-0.0014896527498973,0.0014896536237422,-0.0014896514602838,0.0014896544833446,-0.0011646256705638,0.0011646281023071,-0.0011646254418418,0.0011646278735046,0.4150894025916,125301,3014,0.0037373973223623,0.004029636801459,0.0050743142503748,34.792266686971,0.00019353813349577,0.00019353813349577,0.00019353813349577,3643849.1199928,0.012925228433913
14419200,0.99576582583682,0.014720921021267,0.0044355916433289,0.0047157782302185,0.0055695511477193,-0.0008931043060324,0.0008931053479974,4.2779850828452e-10,4.2780612687531e-10,7.7683606786784e-10,5.7589303936296e-11,-0.0011263266350194,0.0011263279114476,-0.0011263264841691,0.0011263277605138,-0.0011263268431873,0.0011263275985146,-0.0011263266926801,0.0011263274479454,-0.001004139730442,0.0010041410783485,-0.0010041400147043,0.0010041413626139,1.3833634198356e-09,2.0312556661458e-09,3.7387944755496e-09,-7.670040046502e-11,-0.00096344210992731,0.0009634461789726,-0.0012024118171618,0.0012024168851672,-0.001202412940576,0.0012024155019322,-0.0012024116856497,0.0012024171963374,-0.0012024128090836,0.0012024158131229,-0.0010634290526088,0.0010634375683018,-0.0010634330338164,0.0010634340749998,-0.00095679590457196,0.00095679761398734,-0.0009567951403638,0.0009567981047247,6.8913564237917e-10,6.8914316985509e-10,-0.0012155717891671,0.0012155738341548,-1.0251548751634e-09,2.6525605174205e-09,-0.0014847445794549,0.0014847455418945,-0.0014847431547388,0.0014847465122953,-0.0014847443291219,0.0014847452915368,-0.0014847428949094,0.001484746252423,-0.0011594373094605,0.0011594400489689,-0.0011594370754267,0.0011594398148545,0.38312450045663,125301,3014,0.0037158131305081,0.0040072958058933,0.0050515226383136,32.641418183884,0.00017633134547107,0.00017633134547107,0.00017633134547107,3636158.3818417,0.01285765325166
15419200,0.99694144463216,0.014734492772666,0.0044400430653393,0.0047202138377835,0.0055742358695432,-0.00088053976259386,0.00088054432575483,1.7823227688217e-09,1.7823303500607e-09,2.0783165457826e-09,1.4299270935765e-09,-0.001113803283027,0.0011138076582424,-0.001113803130414,0.0011138075055455,-0.0011138034655075,0.0011138073700543,-0.0011138033132189,0.001113807217704,-0.00099215896249643,0.00099216341170946,-0.00099215924947685,0.00099216369869221,2.4963041165324e-09,3.2039938257302e-09,4.9117896310554e-09,1.0658900076705e-09,-0.00095092231578698,0.00095092944469524,-0.0011898880688952,0.0011898958179912,-0.0011898892001073,0.0011898944224928,-0.0011898879157988,0.0011898961500712,-0.0011898890470298,0.0011898947545939,-0.0010514786084311,0.0010514898198263,-0.0010514826211694,0.001051486298414,-0.00094489346103741,0.0009448977356906,-0.0009448926518955,0.0009448982811883,1.340952087246e-09,1.3409595992518e-09,-0.0012032827918305,0.0012032866872175,-4.1199032136084e-10,3.3272781402015e-09,-0.0014723899823267,0.0014723924943442,-0.0014723885342638,0.0014723934836441,-0.0014723897304289,0.0014723922424211,-0.0014723882729937,0.0014723932223312,-0.0011477220884303,0.0011477263780036,-0.0011477218540914,0.0011477261435842,0.51103778709308,125301,3014,0.0036636644124403,0.0039553442969941,0.0050005724213279,27.063441440062,0.00013170753152049,0.00013170753152049,0.00013170753152049,3636965.2177709,0.012700625114427
16419200,0.99769634232724,0.014742396592814,0.0044426351161017,0.0047227956461515,0.0055769658305611,-0.00087235034151534,0.00087235195356263,6.4816578145088e-10,6.4817352750837e-10,9.833075990837e-10,2.7393001767011e-10,-0.001113199520387,0.0011132012400338,-0.0011131993453311,0.0011132010648946,-0.0011131997031533,0.0011132009066077,-0.0011131995281299,0.0011132007315221,-0.00098312261199721,0.00098312444870011,-0.0009831229009165,0.00098312473762328,1.5835726245338e-09,2.2207074047532e-09,4.1240548065512e-09,-5.364809325971e-11,-0.00094093932408913,0.00094094393188019,-0.0011877239377771,0.0011877295421815,-0.0011877251536542,0.0011877280123636,-0.001187723787151,0.0011877298254111,-0.0011877250030469,0.0011877282956131,-0.0010409162522043,0.0010409255715501,-0.0010409205859493,0.0010409217208715,-0.00093591448333122,0.0009359165198369,-0.00093591375238678,0.00093591701972792,8.4296606722999e-10,8.4297373167232e-10,-0.001190186919208,0.0011901894111549,-1.0478038121069e-09,2.9892008235255e-09,-0.0014666754382997,0.0014666766081961,-0.0014666738613433,0.0014666776649122,-0.0014666751540822,0.0014666763239546,-0.0014666735672875,0.0014666773708146,-0.0011367062140885,0.0011367094202462,-0.0011367059943958,0.0011367092004718,0.46538451425637,125301,3014,0.0036297049772558,0.0039139627585034,0.0049463038447188,24.415328455169,0.00011052262764135,0.00011052262764135,0.00011052262764135,3485011.9496552,0.012569467114685
17419200,0.99820333601229,0.014748436028973,0.0044446286137475,0.004724775375692,0.0055790320395339,-0.00086607687479185,0.00086607826388436,5.5637243493932e-10,5.5638008770553e-10,8.9334397966052e-10,1.8442462879242e-10,-0.0011060009618869,0.0011060025204793,-0.0011060007908365,0.0011060023493457,-0.0011060011533482,0.0011060021958637,-0.0011060009818838,0.0011060020243375,-0.000977289678923,0.00097729131909903,-0.00097728997445955,0.00097729161463939,1.5065719443391e-09,2.1493921273492e-09,4.1728004844313e-09,-2.5418591448083e-10,-0.00093476935807973,0.00093477377780075,-0.0011805216807896,0.0011805272380129,-0.0011805229794243,0.0011805256282913,-0.001180521537317,0.0011805275324062,-0.0011805228359706,0.0011805259227044,-0.0010351825116834,0.0010351919142022,-0.0010351870947007,0.0010351878229361,-0.00092995284482697,0.00092995463411606,-0.00092995211134718,0.0009299551435646,8.3623725764344e-10,8.3624483350024e-10,-0.0011843463387535,0.0011843487834958,-1.1760965980562e-09,3.1074570689078e-09,-0.00145993119913,0.0014599322903761,-0.0014599295479113,0.0014599334360446,-0.001459930924426,0.0014599320156478,-0.0014599292637775,0.0014599331518681,-0.001130843007731,0.0011308462738772,-0.0011308427733331,0.0011308460393982,0.52521873377382,125301,3014,0.0036036496316755,0.0038883430775065,0.0049220798909705,21.977490363886,9.101992291109e-05,9.101992291109e-05,9.101992291109e-05,3505915.1566048,0.012492599538308
18419200,0.99851841190009,0.014752037797661,0.0044458169417916,0.0047259555007179,0.0055802653551519,-0.00085427145082026,0.0008542750939957,1.4308382994309e-09,1.4308460488707e-09,1.7180539900858e-09,1.0564094051825e-09,-0.0010978460204553,0.0010978495075685,-0.0010978457449847,0.0010978492320147,-0.0010978460706044,0.0010978490614624,-0.0010978457956656,0.0010978487864622,-0.00096527760896389,0.0009652811348537,-0.00096527790417561,0.00096528143006964,2.2614847968153e-09,2.8904516205455e-09,5.1162044666382e-09,3.5310213319093e-10,-0.00092204826062833,0.00092205470822954,-0.0011715435892604,0.0011715509977527,-0.0011715448977708,0.0011715491665093,-0.0011715433078719,0.0011715511305969,-0.0011715446164006,0.001171549299373,-0.0010223811121422,0.0010223924997717,-0.0010223860131874,0.0010223880716578,-0.00091800783119897,0.00091801114616798,-0.00091800715674007,0.00091801167531488,1.340988047765e-09,1.3409956423566e-09,-0.0011699920235893,0.0011699958874223,-8.4432878189411e-10,3.7815908280401e-09,-0.0014491111476312,0.0014491132831152,-0.0014491092080608,0.0014491143709618,-0.0014491106848883,0.0014491128203483,-0.0014491087410959,0.0014491139039547,-0.0011177836524953,0.0011177881329884,-0.0011177834530778,0.0011177879334892,0.50516361584657,125301,3014,0.0035546612178021,0.0038355730737312,0.004862579880183,17.481078218312,5.5048625746497e-05,5.5048625746497e-05,5.5048625746497e-05,3429176.9997898,0.01232938580203
19419200,0.99877925002251,0.014755916373356,0.0044470997048619,0.0047272286729188,0.0055815879955748,-0.00085331346544941,0.00085331264540901,-2.8365410326774e-10,-2.8364642300236e-10,6.727090147896e-11,-6.791377359407e-10,-0.0010965589589744,0.0010965585447055,-0.0010965586810316,0.0010965582666797,-0.0010965590369703,0.0010965580651287,-0.0010965587595594,0.0010965577876564,-0.00096444643156214,0.00096444603206194,-0.00096444672515024,0.0009644463256542,8.5965160662814e-10,1.4135373215338e-09,3.6730358765753e-09,-1.1182786211674e-09,-0.00092092062524706,0.00092092321199979,-0.0011700674851918,0.0011700715624229,-0.0011700688003942,0.0011700697190757,-0.001170067226683,0.001170071664084,-0.0011700685419037,0.0011700698207562,-0.00102139539253,0.0010214034494315,-0.0010214003197264,0.0010213989920933,-0.00091706683053698,0.00091706689082529,-0.00091706621523928,0.00091706735412741,5.5469931219913e-10,5.5470685017473e-10,-0.001168582544084,0.0011685841407778,-1.6152234788991e-09,2.9993337891469e-09,-0.0014473789700493,0.0014473792190854,-0.0014473770306279,0.0014473802977391,-0.0014473785019196,0.0014473787509316,-0.0014473765585259,0.0014473798255946,-0.0011165634557859,0.0011165660748051,-0.0011165632548445,0.0011165658737823,0.65325215552175,125301,3014,0.0035506681395053,0.0038308799092165,0.0048567306345631,17.551544416057,5.5612355328453e-05,5.5612355328453e-05,5.5612355328453e-05,3418368.3399152,0.012314666041427
20419200,0.99900624417198,0.014759530980263,0.0044482956458459,0.004728415239833,0.0055828200945843,-0.00085210988190771,0.00085210751174339,-9.0664859141965e-10,-9.0664076542343e-10,-4.9647050374043e-10,-1.2796309009338e-09,-0.0011015832570749,0.0011015815247812,-0.0011015832554811,0.0011015815231042,-0.0011015836928176,0.0011015814154144,-0.001101583688095,0.0011015814106304,-0.00096233875189715,0.00096233725451874,-0.00096233907101483,0.00096233757364141,2.690716171458e-10,9.0929126809394e-10,3.0160870648743e-09,-1.6513276052114e-09,-0.0009176069334309,0.00091760802949178,-0.0011732457734878,0.0011732484873188,-0.0011732473071043,0.0011732469745208,-0.0011732458834164,0.0011732490596862,-0.0011732474170508,0.0011732475469072,-0.0010174481888012,0.0010174551105611,-0.0010174530398875,0.0010174508071321,-0.00091511513584013,0.00091511417634527,-0.00091511437593582,0.00091511467489318,6.1874523805182e-11,6.1882212570295e-11,-0.0011608301510487,0.0011608304460022,-2.048061095007e-09,2.4536873561091e-09,-0.0014459733566547,0.0014459725605759,-0.0014459719302608,0.0014459740691642,-0.0014459734036438,0.0014459726075415,-0.0014459719564304,0.0014459740952921,-0.0011112698652488,0.0011112715301139,-0.0011112695708394,0.0011112712356227,0.70012779305902,125301,3014,0.0035456926200583,0.0038171656094924,0.0048246248405656,18.596593131089,6.3972745048709e-05,6.3972745048709e-05,6.3972745048709e-05,3247215.836155,0.01226332328806
21419200,0.99916069986827,0.014761821769217,0.0044490586798864,0.0047291694792014,0.0055835936101295,-0.00084171571664689,0.00084171772573012,7.7475402420814e-10,7.7476184876322e-10,1.1211183249283e-09,4.2165226865086e-10,-0.0010924106378525,0.0010924127512062,-0.0010924106361175,0.0010924127493887,-0.0010924110469521,0.0010924126749595,-0.0010924110421196,0.001092412670066,-0.00095245324893166,0.00095245560608756,-0.00095245357215112,0.00095245592931213,1.6498539983683e-09,2.3694343895272e-09,4.4504231006682e-09,-2.0764430314495e-10,-0.00090645917548671,0.00090646408347561,-0.0011633986205958,0.0011634046482394,-0.0011634001505848,0.0011634031380394,-0.0011633987062713,0.0011634052523861,-0.0011634002362782,0.0011634037422051,-0.0010068740375736,0.0010068842714998,-0.0010068788826873,0.0010068799803459,-0.00090478262339377,0.00090478486956296,-0.00090478180442064,0.00090478544274103,8.7291914630163e-10,8.729268140968e-10,-0.0011482922719616,0.0011482948807042,-1.2622270877701e-09,3.269895848794e-09,-0.0014348372003756,0.0014348383489631,-0.0014348357639626,0.0014348398693973,-0.0014348372492278,0.0014348383977921,-0.001434835791965,0.001434839897358,-0.0010997314366718,0.0010997350215809,-0.001099731140973,0.0010997347257996,0.64990944923705,125301,3014,0.0035025415642855,0.0037709029840741,0.0047726419658327,15.22792916227,3.7023433298158e-05,3.7023433298158e-05,3.7023433298158e-05,3163144.1286818,0.012120216014731
22419200,0.99928854220843,0.014763770675522,0.0044497088614842,0.0047298117904683,0.0055842500235692,-0.00084001798870293,0.00084001758218346,-1.5201083584978e-10,-1.5200312561473e-10,2.4427862469099e-10,-5.4411961385753e-10,-0.0010899726861122,0.0010899726866379,-0.0010899725294048,0.0010899725298477,-0.0010899729268235,0.0010899723593938,-0.0010899727687594,0.0010899722012685,-0.00095059658697894,0.00095059677899651,-0.00095059679163216,0.00095059698365489,9.6542747625949e-10,1.6021286358971e-09,3.7377215582369e-09,-9.505955444406e-10,-0.00090470047303592,0.00090470343855801,-0.001160777466344,0.0011607818401936,-0.0011607788587079,0.0011607801592409,-0.0011607773506579,0.0011607821612308,-0.0011607787430394,0.0011607804802967,-0.0010049674698864,0.001004976010107,-0.0010049722185426,0.0010049715654026,-0.00090307857133946,0.00090307919210168,-0.00090307768956382,0.00090307955209801,6.2487209385117e-10,6.2487965156146e-10,-0.0011463247542371,0.0011463265764756,-1.5023483686562e-09,3.0212383070377e-09,-0.001431907882582,0.001431908396182,-0.0014319061897144,0.0014319096546676,-0.0014319076446912,0.0014319081582675,-0.0014319059384552,0.0014319094033665,-0.0010977901025576,0.0010977930578976,-0.0010977899997623,0.0010977929550204,0.6664256214451,125301,3014,0.0034954816768335,0.0037635928658913,0.004764483379074,14.859262931579,3.4074103452633e-05,3.4074103452633e-05,3.4074103452633e-05,3201566.2444907,0.012097404471693
23419200,0.99940206246298,0.014765400734837,0.0044502528281064,0.0047303489933006,0.0055847989134297,-0.00084055022991775,0.00084054811273613,-8.1360170958508e-10,-8.1359400323226e-10,-3.8379709765917e-10,-1.2122921960262e-09,-0.00109194719239,0.0010919457046226,-0.0010919471752382,0.001091945687388,-0.0010919476328256,0.0010919455689892,-0.0010919476128368,0.0010919455489392,-0.00095054330774622,0.00095054200690415,-0.00095054363174625,0.00095054233090921,3.3923890119021e-10,1.0351743237545e-09,3.0867006181497e-09,-1.5206078854734e-09,-0.00090468861734101,0.00090468998262528,-0.0011620975519967,0.0011621004765313,-0.0011620990509618,0.0011620989667172,-0.0011620976327163,0.0011621010546009,-0.0011620991316988,0.001162099544805,-0.0010045216229784,0.0010045287298292,-0.0010045264192545,0.0010045244901533,-0.00090348104118766,0.00090348027265085,-0.00090348023307621,0.00090348083168023,1.648841022568e-10,1.6489167490781e-10,-0.0011450892112272,0.0011450897767435,-1.918298456843e-09,2.5266353123344e-09,-0.0014318160405596,0.0014318155128779,-0.0014318146130187,0.0014318169830593,-0.0014318160681628,0.0014318155404574,-0.0014318146204542,0.0014318169904527,-0.0010973264700586,0.0010973283439994,-0.001097326175352,0.0010973280492108,0.62875729639221,125301,3014,0.0034976833396896,0.003763541150054,0.0047593665592155,15.70513920398,4.0841113631842e-05,4.0841113631842e-05,4.0841113631842e-05,3158993.7489978,0.012094416519267
24419200,0.99950922052875,0.014767025767067,0.0044507956914114,0.0047308849395469,0.005585345136109,-0.00084475434958123,0.00084475091018574,-1.3222873079128e-09,-1.3222796530584e-09,-8.7147886772762e-10,-1.7289067304097e-09,-0.0010953436740126,0.0010953410292209,-0.0010953436565481,0.0010953410116736,-0.001095344124307,0.0010953408829718,-0.0010953441040036,0.0010953408626074,-0.00095466618126366,0.00095466371536061,-0.00095466650431673,0.00095466403841897,-7.7414377486549e-11,6.0070561572343e-10,2.6527666294663e-09,-1.9489667776768e-09,-0.00090887080291746,0.00090887102660217,-0.0011654257941682,0.0011654277262981,-0.0011654272908757,0.0011654262178839,-0.0011654258804994,0.0011654282970297,-0.001165427377224,0.0011654267886338,-0.0010086347976335,0.0010086409069106,-0.0010086395876133,0.001008636671904,-0.00090757926502662,0.0009075775346174,-0.00090757846842378,0.00090757807685686,-6.4940024420948e-11,-6.4932500297864e-11,-0.0011492108001946,0.0011492106994706,-2.136776638411e-09,2.2910547814961e-09,-0.0014350661040958,0.0014350650275269,-0.0014350646818717,0.0014350664911196,-0.0014350661308574,0.0014350650542645,-0.0014350646885046,0.0014350664977105,-0.0011013552149374,0.0011013565385371,-0.0011013549202445,0.0011013562437621,0.66255127740754,125301,3014,0.0035151284624278,0.0037808920834809,0.0047764573376475,17.880076675339,5.8240613402714e-05,5.8240613402714e-05,5.8240613402714e-05,3167747.4035135,0.012146922976429
25419200,0.99960691981958,0.014768772269924,0.0044513787382165,0.0047314609225528,0.0055859326091551,-0.00084811579987744,0.00084811233258723,-1.3387411729055e-09,-1.3387334756995e-09,-8.6133741913015e-10,-1.7572189087274e-09,-0.0011002494284809,0.0011002467777496,-0.0011002494739093,0.0011002468230952,-0.0011002499685894,0.0011002467049672,-0.001100250010574,0.0011002467468907,-0.00095763183592576,0.00095762939340704,-0.00095763216064559,0.00095762971813232,-1.2460914945704e-10,6.1407726301739e-10,2.5510603297142e-09,-1.9006509371365e-09,-0.0009114979552212,0.00091149812396302,-0.0011696374869101,0.0011696393024357,-0.0011696389945882,0.0011696379099865,-0.001169637642234,0.0011696399921121,-0.0011696391499293,0.0011696385996811,-0.0010109675090211,0.0010109735002658,-0.0010109721592255,0.0010109694170284,-0.00091069234432087,0.00091069062785617,-0.00091069147124402,0.00091069121388767,-1.2907776017479e-10,-1.2907020140571e-10,-0.0011501397964849,0.001150139542048,-2.1302451312529e-09,2.1543325969856e-09,-0.0014375170418402,0.0014375158824046,-0.0014375157734525,0.001437517403175,-0.001437517183109,0.0014375160236501,-0.001437515890902,0.0014375175205824,-0.0011031440470884,0.001103145229809,-0.0011031437366201,0.0011031449192584,0.77991302017261,125301,3014,0.0035290842940905,0.003791803272185,0.0047803228996283,19.925145132494,7.4601161059956e-05,7.4601161059956e-05,7.4601161059956e-05,3101055.4533797,0.012176024061885
26419200,0.99968703481898,0.014770297270871,0.0044518888105284,0.0047319643217134,0.0055864441386292,-0.00084663936357874,0.00084663766417028,-6.5235594900297e-10,-6.5234814121208e-10,-1.9946574337022e-10,-1.0901953044141e-09,-0.0011030092853642,0.0011030081670115,-0.0011030092475097,0.0011030081290744,-0.0011030097249524,0.0011030079882252,-0.0011030096849519,0.0011030079481638,-0.00095554395690363,0.00095554298428528,-0.00095554428346103,0.0009555433108488,4.5287894951948e-10,1.2140281645358e-09,3.1559796792059e-09,-1.2840798909761e-09,-0.00090843860945908,0.00090844037387384,-0.0011710864284674,0.0011710896081654,-0.0011710878556195,0.0011710881330494,-0.0011710864660014,0.0011710901826336,-0.0011710878931704,0.0011710887075353,-0.0010074601689039,0.0010074674640317,-0.0010074648039338,0.001007463392487,-0.00090860250394917,0.00090860204782027,-0.00090860164904116,0.00090860268705555,2.5290655167257e-10,2.5291418449821e-10,-0.0011434163700972,0.0011434172035198,-1.7513002027604e-09,2.5308998621436e-09,-0.0014353891306901,0.0014353888591285,-0.0014353877254878,0.0014353902447795,-0.0014353891239363,0.0014353888523511,-0.0014353876991958,0.0014353902184457,-0.0010981526264969,0.0010981546458171,-0.0010981523412855,0.0010981543605231,0.82922923068302,125301,3014,0.0035229711091175,0.0037791368503878,0.0047524833712477,20.393791025888,7.8350328207106e-05,7.8350328207106e-05,7.8350328207106e-05,2981110.9058286,0.01212889262111
27419200,0.99975690167571,0.014771497799819,0.0044522921405944,0.0047323614014415,0.0055868442577836,-0.00084838876335515,0.00084838551349854,-1.254552918093e-09,-1.25454512289e-09,-7.6633124892991e-10,-1.6960140798458e-09,-0.001106364831937,0.0011063623800468,-0.0011063648661316,0.001106362414159,-0.0011063653743997,0.0011063622865587,-0.001106365405594,0.001106362317692,-0.00095687553014769,0.00095687325791515,-0.00095687586277313,0.00095687359054672,-6.9110092905746e-11,7.0533369090204e-10,2.5778688266875e-09,-1.7704446765562e-09,-0.00090918713225984,0.00090918750768219,-0.0011734995302423,0.0011735014762807,-0.0011735009949335,0.0011735001069629,-0.0011734996654853,0.0011735021674411,-0.001173501130193,0.0011735007981407,-0.0010079182797368,0.0010079243515067,-0.0010079228365745,0.0010079203784554,-0.00091000960148277,0.00091000804570251,-0.00091000871477455,0.00091000868784175,-8.7909958705223e-11,-8.7902322850258e-11,-0.0011417416531659,0.0011417415348738,-2.0401137062061e-09,2.1438902494333e-09,-0.0014354042138312,0.0014354031900436,-0.0014354029631365,0.0014354046624715,-0.001435404337985,0.0014354033141739,-0.001435403063725,0.0014354047630183,-0.0010975641025081,0.0010975653473579,-0.001097563791168,0.0010975650359352,0.74718867332313,125301,3014,0.003530226314501,0.0037822464279363,0.0047455563517336,22.251543876879,9.3212351015033e-05,9.3212351015033e-05,9.3212351015033e-05,2913115.8252202,0.012132388076094
28419200,0.99981432642132,0.014772623807764,0.0044526708843358,0.0047327342314128,0.0055872186920156,-0.00085042150657671,0.00085041898821767,-9.7394188506748e-10,-9.7393420236101e-10,-4.9072673323809e-10,-1.4238850887879e-09,-0.001106077626425,0.0011060758198171,-0.0011060776231577,0.0011060758164676,-0.0011060781264594,0.001106075677659,-0.0011060781207058,0.0011060756718445,-0.00095901480137088,0.00095901312867132,-0.00095901513426299,0.00095901346156892,1.6944940309014e-10,9.6452411377025e-10,2.8171553907571e-09,-1.4975053861306e-09,-0.00091161456380251,0.00091161561204871,-0.0011733317662985,0.0011733342891323,-0.0011733331846141,0.0011733328912471,-0.0011733318451779,0.0011733349322473,-0.00117333326351,0.0011733335343793,-0.0010104630581506,0.0010104696509341,-0.0010104675798116,0.0010104657106138,-0.00091231951700978,0.00091231849277662,-0.00091231861885348,0.00091231916017206,9.4011223551064e-11,9.4018743791914e-11,-0.0011451142635848,0.0011451146409664,-1.8461038819407e-09,2.3089022206956e-09,-0.0014359588857456,0.0014359583004411,-0.0014359575832339,0.0014359597031791,-0.001435958945176,0.0014359583598478,-0.001435957621331,0.0014359597412341,-0.0011006013233779,0.0011006029514563,-0.001100601018816,0.0011006026468117,0.8493285419621,125301,3014,0.0035386485487783,0.0037922997646853,0.0047595231375383,23.440933614318,0.00010272746891455,0.00010272746891455,0.00010272746891455,2950536.7851825,0.012165190898715
29419200,0.99986098757935,0.014773275730226,0.0044528904625929,0.0047329500117201,0.0055874352559134,-0.00085156941553149,0.00085156673556328,-1.0353009329142e-09,-1.0352931598576e-09,-5.4598465497004e-10,-1.4921145981291e-09,-0.0011106993919824,0.0011106974410629,-0.0011106993975722,0.0011106974465705,-0.0011106999080694,0.0011106973076621,-0.001110699911202,0.0011106973107339,-0.00095948106682072,0.00095947925977874,-0.00095948140269626,0.00095947959566021,1.1287588004292e-10,9.1387052868229e-10,2.7453336111338e-09,-1.5335103059132e-09,-0.00091142926009228,0.00091143016527004,-0.0011768679671206,0.0011768703421614,-0.0011768693831633,0.0011768689660757,-0.0011768680582562,0.0011768710027593,-0.0011768694743153,0.0011768696266907,-0.0010097209125301,0.0010097273584488,-0.0010097254034203,0.001009723457334,-0.00091279788352567,0.00091279674978054,-0.00091279698573268,0.00091279743037993,4.945340364423e-11,4.946100808839e-11,-0.001141698182036,0.0011416984482738,-1.8723726891672e-09,2.2464074618676e-09,-0.0014363634367164,0.0014363627565357,-0.0014363621619011,0.001436364162775,-0.0014363635121236,0.0014363628319195,-0.0014363622151406,0.0014363642159731,-0.0010985117692322,0.0010985132922468,-0.00109851146396,0.0010985129868919,0.60881578646039,125301,3014,0.0035434223321719,0.0037915532303504,0.0047453953144115,24.779842682664,0.00011343874146131,0.00011343874146131,0.00011343874146131,2847746.5410124,0.012155016536972
30419200,0.99989810604845,0.014773715704184,0.0044530391356543,0.0047330958879118,0.0055875806806183,-0.00085621838486489,0.00085621565455477,-1.0597921780176e-09,-1.0597846762762e-09,-5.6195233035969e-10,-1.5154466075287e-09,-0.0011077910932614,0.0011077891193349,-0.0011077910968084,0.0011077891227998,-0.0011077916092758,0.0011077889809794,-0.0011077916102602,0.001107788981903,-0.00096508852914859,0.00096508666569765,-0.00096508886393771,0.00096508700049113,9.5296209276704e-11,9.1330996770226e-10,2.7208511407242e-09,-1.5351293227905e-09,-0.0009181945196417,0.00091819539537083,-0.001175450155759,0.0011754525192692,-0.0011754515608571,0.0011754511472564,-0.0011754502368664,0.0011754531810853,-0.001175451641981,0.0011754518090901,-0.0010172977058139,0.0010173041028114,-0.0010173021728049,0.0010173002228992,-0.00091856636244955,0.0009185651973432,-0.00091856543339197,0.00091856588025116,7.5027199941131e-11,7.5034586244896e-11,-0.0011534651255514,0.0011534654251666,-1.8365850270146e-09,2.2601908286334e-09,-0.0014396382382959,0.0014396376349291,-0.0014396369672133,0.0014396390302737,-0.0014396383120619,0.001439637708671,-0.0014396370195489,0.0014396390825673,-0.0011081850387151,0.0011081865987287,-0.0011081847249661,0.0011081862848973,0.51512748248588,125301,3014,0.0035626867269815,0.0038195743345779,0.004794123321328,26.130537171448,0.00012424429737158,0.00012424429737158,0.00012424429737158,3021796.949336,0.012252099868264
31419200,0.99992815453209,0.014774175019064,0.00445319319641,0.0047332477226019,0.0055877341000524,-0.00086339564604995,0.00086339177860237,-1.5026212936274e-09,-1.5026138176205e-09,-9.7262732725573e-10,-1.9624774822335e-09,-0.0011126125100915,0.0011126095343891,-0.0011126125687581,0.0011126095929732,-0.0011126131022544,0.0011126094549088,-0.0011126131576385,0.0011126095102321,-0.00097235009633988,0.00097234727889927,-0.00097235042691183,0.00097234760947586,-2.8618981301912e-10,5.4441306583027e-10,2.2847233632048e-09,-1.8789305352852e-09,-0.00092623980351261,0.00092623966198354,-0.0011810400655654,0.0011810414912115,-0.0011810414924829,0.0011810402077707,-0.0011810402157273,0.0011810422386852,-0.0011810416426619,0.0011810409552623,-0.0010253181159555,0.0010253235959512,-0.0010253224929737,0.0010253198047752,-0.00092581063140664,0.0009258086725697,-0.00092580966048779,0.00092580934476411,-1.8096466509488e-10,-1.8095730679026e-10,-0.0011634371953335,0.0011634367827034,-2.0415379982096e-09,1.9575538426621e-09,-0.0014471554847101,0.0014471543067111,-0.001447154338316,0.0014471557597955,-0.0014471556573047,0.0014471544792814,-0.001447154486069,0.0014471559075061,-0.0011169799748623,0.0011169809475,-0.001116979652479,0.0011169806250343,0.66479676253864,125301,3014,0.0035924738353945,0.0038529499118869,0.004835458403044,28.438637520257,0.00014270910016206,0.00014270910016206,0.00014270910016206,3079480.0295225,0.012357861313478
32419200,0.99995010765451,0.014774570086772,0.0044533253632669,0.0047333781632399,0.0055878665602656,-0.00086374581208531,0.0008637436497935,-8.3310111739155e-10,-8.3309343109695e-10,-3.3686782640443e-10,-1.3054348922278e-09,-0.0011190817596029,0.001119080271528,-0.0011190817417026,0.0011190802535451,-0.0011190822510187,0.0011190800965567,-0.0011190822311737,0.0011190800766506,-0.00097183360870422,0.0009718322236429,-0.00097183393991747,0.00097183255486139,2.7892021378164e-10,1.112139589296e-09,2.8832320506554e-09,-1.2987184487722e-09,-0.00092479684826768,0.00092479822995257,-0.0011862008652719,0.0011862036187966,-0.0011862022290449,0.0011862022505487,-0.0011862009095848,0.0011862042503208,-0.0011862022733746,0.0011862028820905,-0.0010231603800303,0.0010231671352297,-0.0010231647711081,0.0010231633259947,-0.00092524600126769,0.00092524525726845,-0.00092524507194706,0.00092524596726973,1.6975022895291e-10,1.6975780319211e-10,-0.0011578948177182,0.0011578954036325,-1.7082761207636e-09,2.3178061240551e-09,-0.0014483333069265,0.0014483329331673,-0.0014483320210055,0.0014483342679814,-0.0014483333373048,0.0014483329635218,-0.0014483320308086,0.0014483342777423,-0.001113297574526,0.0011132993229711,-0.001113297279327,0.0011132990276895,0.7835582016357,125301,3014,0.0035939624780561,0.0038470135050081,0.0048125306420478,29.295498573706,0.00014956398858965,0.00014956398858965,0.00014956398858965,2926438.8560531,0.012330229370225
33419200,0.99996536654133,0.014774855024521,0.0044534211510757,0.0047334724703817,0.0055879614030637,-0.00086138121907882,0.00086138002859222,-4.5702110970116e-10,-4.5701335417338e-10,1.3693218843328e-11,-9.2884023875946e-10,-0.0011206198408163,0.0011206191809426,-0.0011206197766291,0.0011206191166727,-0.0011206202709149,0.0011206189565601,-0.0011206202053197,0.0011206188909043,-0.0009690356524187,0.00096903508218571,-0.00096903598781034,0.00096903541758341,6.0222079206255e-10,1.424035449518e-09,3.2491931649462e-09,-1.0035020253156e-09,-0.00092092497976222,0.00092092723277178,-0.0011865406381084,0.001186544161308,-0.0011865419812611,0.0011865427212025,-0.0011865406272467,0.0011865447235927,-0.0011865419704156,0.0011865432835042,-0.0010189962198329,0.0010190037517105,-0.0010190006800448,0.0010189998748263,-0.0009223528712791,0.00092235280815196,-0.00092235198059601,0.00092235352898651,3.8056567227406e-10,3.805733505395e-10,-0.0011503974003449,0.0011503985955177,-1.5359591687664e-09,2.5645986965791e-09,-0.0014453041628543,0.0014453042529307,-0.001445302778023,0.0014453055398088,-0.0014453041137698,0.0014453042038228,-0.0014453027105132,0.0014453054722573,-0.0011074382306204,0.0011074404691045,-0.0011074379462234,0.0011074401846244,0.80945760226261,125301,3014,0.0035841586880011,0.0038309719904662,0.0047814818243775,29.317298545141,0.00014973838836113,0.00014973838836113,0.00014973838836113,2819238.5015946,0.012272681618686
34419200,0.99997691405916,0.014775050917375,0.0044534872652193,0.0047335374263367,0.0055880262258193,-0.00086426945479105,0.00086426579789592,-1.4148875658326e-09,-1.4148798508035e-09,-8.9826948930723e-10,-1.8792939780207e-09,-0.0011242324380176,0.0011242296473389,-0.0011242324892013,0.0011242296984403,-0.0011242330228604,0.0011242295649714,-0.0011242330711294,0.0011242296131795,-0.00097157713200992,0.00097157450350183,-0.00097157747101792,0.000971574842516,-2.1906792719456e-10,6.0045902474375e-10,2.3589899193017e-09,-1.8138477515979e-09,-0.00092311557073225,0.00092311560527761,-0.0011894539587968,0.0011894555391383,-0.0011894553833353,0.0011894542460139,-0.00118945410893,0.001189456277404,-0.0011894555334844,0.0011894549842965,-0.0010209378671883,0.0010209435035468,-0.0010209422612219,0.001020939711552,-0.00092499102349097,0.00092498920809177,-0.0009249900949132,0.00092498989983033,-1.6383633047139e-10,-1.6382867026423e-10,-0.0011508333945183,0.0011508330652426,-2.029542935577e-09,1.9798419673928e-09,-0.00144645625737,0.0014464551205683,-0.0014464550963324,0.001446456566432,-0.0014464564159358,0.0014464552791107,-0.0014464552301405,0.0014464567001985,-0.0011086051191974,0.0011086061424294,-0.0011086047986035,0.0011086058217525,0.73398852679868,125301,3014,0.0035961360977734,0.0038400586141524,0.0047832983420735,31.482590284094,0.00016706072227275,0.00016706072227275,0.00016706072227275,2775543.5128813,0.012295846511585
35419200,0.99998597061827,0.014775186913228,0.0044535332522519,0.0047335825583814,0.0055880711025949,-0.00087356503717244,0.00087355862557839,-2.4855330734649e-09,-2.4855254494037e-09,-1.8992888057366e-09,-2.9550019547922e-09,-0.0011311730085573,0.0011311678189813,-0.0011311731912094,0.0011311680015513,-0.0011311737772609,0.0011311678863945,-0.0011311739553923,0.001131168064465,-0.00098073509282358,0.00098073015705635,-0.0009807354262292,0.00098073049046775,-1.144708408488e-09,-2.9894476333239e-10,1.2916519862718e-09,-2.6390619901223e-09,-0.00093269058862472,0.00093268815295798,-0.0011964225867488,0.0011964219181819,-0.0011964240550648,0.0011964208427174,-0.0011964229082408,0.0011964228641252,-0.0011964243765728,0.0011964217886777,-0.0010303978968186,0.0010304012851689,-0.0010304020581219,0.0010303977294398,-0.00093435430490227,0.00093435056975696,-0.00093435328737212,0.00093435123932766,-7.7603708380567e-10,-7.7602952947762e-10,-0.0011610352646604,0.001161033222291,-2.5097553924749e-09,1.2457962323979e-09,-0.0014538066009693,0.0014538041163699,-0.0014538057444053,0.0014538056933166,-0.0014538069960504,0.0014538045114272,-0.0014538061072602,0.0014538060561298,-0.0011184573191195,0.001118456927577,-0.0011184569685471,0.0011184565769216,0.64952121200817,125301,3014,0.0036347017165412,0.0038797717376861,0.0048255812521947,35.930314298536,0.00020264251438829,0.00020264251438829,0.00020264251438829,2800771.6993505,0.01241786324541
36419200,0.99999176857692,0.014775278267768,0.0044535641024689,0.0047336128605941,0.0055881013047051,-0.00087760279475418,0.00087759976662923,-1.1748166628927e-09,-1.1748091049177e-09,-6.455460535406e-10,-1.6611262392483e-09,-0.0011329571171953,0.0011329548881982,-0.0011329571359932,0.0011329549069138,-0.0011329576743537,0.0011329547525056,-0.0011329576910245,0.0011329547691156,-0.00098488744643116,0.00098488532114675,-0.00098488778113239,0.00098488565585331,-2.4509350321515e-11,8.4531021991369e-10,2.4625691798917e-09,-1.4687920094336e-09,-0.00093735257360602,0.0009373531956174,-0.001198625851692,0.0011986278553509,-0.001198627168406,0.0011986266084031,-0.0011986259412213,0.0011986285614136,-0.0011986272579515,0.0011986273144827,-0.0010351346235967,0.0010351405181227,-0.0010351387765944,0.0010351369608543,-0.00093860951824558,0.00093860821007702,-0.00093860853830048,0.00093860894642071,-1.4697107219345e-11,-1.4689620389239e-11,-0.0011671906692181,0.0011671907470823,-1.767428060036e-09,2.0075702962673e-09,-0.0014573264360364,0.0014573257307268,-0.0014573252987612,0.0014573270463829,-0.0014573265379393,0.0014573258326058,-0.0014573253779432,0.0014573271255228,-0.0011239250236319,0.0011239262910026,-0.0011239247130035,0.0011239259802913,0.6811981079479,125301,3014,0.0036514597862731,0.0038991090280577,0.0048510897748898,37.480755864998,0.00021504604691998,0.00021504604691998,0.00021504604691998,2847387.9530135,0.012480206429458
37419200,0.9999951927194,0.014775330046146,0.0044535815686999,0.0047336300228449,0.0055881184546017,-0.00087739875112887,0.00087739715067472,-6.2487517231595e-10,-6.2486755001939e-10,-1.167813019555e-10,-1.1045279182979e-09,-0.0011339813612134,0.0011339803848798,-0.0011339813803783,0.0011339804039623,-0.0011339819092998,0.0011339802600354,-0.0011339819263648,0.0011339802770396,-0.00098473517152515,0.0009847343033084,-0.00098473550858124,0.00098473464036997,4.2758803232859e-10,1.3196549664172e-09,2.9326248062645e-09,-9.9983332938392e-10,-0.00093676284236328,0.0009367647040982,-0.0011993833481136,0.0011993864294369,-0.0011993846658431,0.0011993851826618,-0.0011993834309866,0.001199387144862,-0.0011993847487322,0.0011993858981038,-0.0010346289019784,0.0010346358769601,-0.0010346330584151,0.0010346323210114,-0.00093819343159984,0.00093819316718946,-0.00093819243916496,0.0009381939275982,2.4225218206801e-10,2.4225972419054e-10,-0.0011657902111737,0.0011657910269647,-1.5205431817878e-09,2.2682738181595e-09,-0.0014574248020008,0.0014574247098318,-0.0014574236603442,0.0014574260308909,-0.0014574249044692,0.0014574248122764,-0.0014574237400653,0.00145742611057,-0.0011228498440035,0.0011228517216424,-0.0011228495322948,0.0011228514098507,0.6549576309095,125301,3014,0.0036506168412333,0.0038966700994705,0.0048452946296197,37.680445035708,0.00021664356028566,0.00021664356028566,0.00021664356028566,2795641.9605633,0.012471035001471
38419200,0.99999716086892,0.014775363245539,0.0044535927675373,0.0047336410305857,0.005588129447416,-0.0008766477743432,0.00087664718847181,-2.2346952424767e-10,-2.2346191603891e-10,2.4729182218399e-10,-7.076052855266e-10,-0.0011333021469165,0.0011333020499307,-0.0011333020506437,0.0011333019535756,-0.001133302544817,0.0011333017818797,-0.0011333024479035,0.0011333016849055,-0.00098377229576051,0.00098377221661741,-0.0009837726360769,0.00098377255693938,7.9825743431752e-10,1.651175237002e-09,3.3912482477375e-09,-7.0979516144067e-10,-0.00093600930868405,0.00093601212575113,-0.0011986900731844,0.0011986940632543,-0.0011986913380428,0.0011986926397098,-0.001198690010422,0.0011986945893895,-0.0011986912752965,0.0011986931658619,-0.0010336620115819,0.0010336698647412,-0.0010336663279723,0.0010336661435611,-0.0009374761583531,0.00093747656933299,-0.00093747525073771,0.00093747733133988,5.3539762935229e-10,5.3540515835758e-10,-0.0011649240505762,0.001164925655301,-1.3126764775317e-09,2.6430739576843e-09,-0.0014565153374142,0.0014565158560411,-0.0014565139468988,0.0014565170428787,-0.0014565152318033,0.0014565157504065,-0.0014565138252122,0.0014565169211502,-0.0011220786941845,0.0011220812131914,-0.0011220784086569,0.0011220809275809,0.72891346290552,125301,3014,0.0036475059414981,0.0038935486024025,0.0048417072364263,37.195865999806,0.00021276692799845,0.00021276692799845,0.00021276692799845,2815270.8180891,0.012461093129113
38880000,0.9999978481602,0.014775375098844,0.0044535967659767,0.0047336449607565,0.0055881333721103,-0.00087560842677474,0.00087560728143256,-4.4011167600805e-10,-4.40102558316e-10,3.53964448982e-11,-9.2314184167982e-10,-0.0011343933220978,0.0011343927195057,-0.0011343932434647,0.0011343926407346,-0.0011343937452434,0.0011343924760502,-0.0011343936656521,0.0011343923964631,-0.00098271663778837,0.00098271606981414,-0.00098271699279344,0.00098271642478703,6.1271723646588e-10,1.4545225423752e-09,3.2081858600828e-09,-9.1414014134287e-10,-0.00093420107715594,0.00093420338990406,-0.0011992166364406,0.0011992201791793,-0.0011992179249587,0.0011992187670095,-0.0011992166052838,0.0011992207321089,-0.0011992178937056,0.0011992193199191,-0.0010318818381615,0.0010318892720038,-0.0010318861907349,0.0010318855450897,-0.00093603195585443,0.00093603193547387,-0.00093603107861264,0.00093603270884158,4.0695448681977e-10,4.0696522552112e-10,-0.0011613277524179,0.0011613290142715,-1.4476574118833e-09,2.5252870314058e-09,-0.0014555149501229,0.0014555151551598,-0.0014555135849107,0.0014555163781849,-0.0014555148782969,0.001455515083336,-0.0014555134957974,0.0014555162890194,-0.0011191015945287,0.0011191038277305,-0.0011191012860028,0.0011191035190486,0.7453747694247,125301,3014,0.0036431953365268,0.0038860567788493,0.0048268160788961,37.193643275227,0.00021274914620181,0.00021274914620181,0.00021274914620181,2747888.9428785,0.012434097026183
