time,ASR_ext,ASR_strain,ASR_strain_xx,ASR_strain_yy,ASR_strain_zz,disp_x_101,disp_x_102,disp_x_103,disp_x_104,disp_x_105,disp_x_106,disp_x_p1_neg,disp_x_p1_pos,disp_x_p2_neg,disp_x_p2_pos,disp_x_p3_neg,disp_x_p3_pos,disp_x_p4_neg,disp_x_p4_pos,disp_x_p5_neg,disp_x_p5_pos,disp_x_p6_neg,disp_x_p6_pos,disp_y_101,disp_y_102,disp_y_103,disp_y_104,disp_y_105,disp_y_106,disp_y_p1_neg,disp_y_p1_pos,disp_y_p2_neg,disp_y_p2_pos,disp_y_p3_neg,disp_y_p3_pos,disp_y_p4_neg,disp_y_p4_pos,disp_y_p5_neg,disp_y_p5_pos,disp_y_p6_neg,disp_y_p6_pos,disp_y_p7_neg,disp_y_p7_pos,disp_y_p8_neg,disp_y_p8_pos,disp_z_101,disp_z_102,disp_z_103,disp_z_104,disp_z_105,disp_z_106,disp_z_p1_neg,disp_z_p1_pos,disp_z_p2_neg,disp_z_p2_pos,disp_z_p3_neg,disp_z_p3_pos,disp_z_p4_neg,disp_z_p4_pos,disp_z_p5_neg,disp_z_p5_pos,disp_z_p6_neg,disp_z_p6_pos,humidity,ndof,nelem,strain_xx,strain_yy,strain_zz,temp,thermal_strain_xx,thermal_strain_yy,thermal_strain_zz,vonmises,vstrain
2419200,0,0,0,0,0,0,0,0,0,0,0,0,0,0,0,0,0,0,0,0,0,0,0,0,0,0,0,0,0,0,0,0,0,0,0,0,0,0,0,0,0,0,0,0,0,0,0,0,0,0,0,0,0,0,0,0,0,0,0,0,0,0,0,0,0,0,0,0,0,0,0,0,0,0,0
3419200,0.15881498153826,0.0030068232355242,0.0010022744118414,0.0010022744118414,0.0010022744118414,-0.00025851634879639,0.00025850411583769,-4.7863222753753e-09,-4.786321896953e-09,-4.4026084654217e-09,-4.9504186997392e-09,-0.00026735300174092,0.00026734264607288,-0.00026735338964546,0.00026734303397232,-0.00026735383567657,0.00026734317187541,-0.00026735421952784,0.00026734355573162,-0.00026533645928147,0.00026532623647224,-0.00026533679049591,0.00026532656771414,-3.5818253442748e-09,-3.2355883376172e-09,-3.696717638867e-09,-3.3193371755938e-09,-0.00026592144096724,0.00026591218322596,-0.00027433372803149,0.00027432567369756,-0.00027433397424309,0.00027432619432124,-0.00027433443704032,0.00027432670163701,-0.00027433468325634,0.00027432722226167,-0.00027129737097055,0.00027128973572834,-0.00027129734626251,0.00027129044114931,-0.00026586392985375,0.00026585645462798,-0.00026586389891452,0.00026585716154622,-1.2558879048983e-09,-1.2558882708283e-09,-0.00028021045649605,0.00028020657309667,-1.0459585134133e-09,-1.4447690853844e-09,-0.00028758151036644,0.00028757874053465,-0.00028758247390726,0.00028757943118984,-0.00028758253121886,0.00028757976138718,-0.00028758345609543,0.0002875804133583,-0.00027704570126298,0.0002770428463767,-0.00027704513448346,0.0002770422796047,0.75746877217741,125301,3014,0.0010765498626299,0.0011073728669276,0.0011668487477604,31.80968860346,0.00016967750882768,0.00016967750882768,0.00016967750882768,2224183.502452,0.0033563958183941
4419200,0.34887922555698,0.0063465604542114,0.0019982416404408,0.0020842174158937,0.0022641013978769,-0.00047783376805694,0.00047780918338116,-1.0428478006111e-08,-1.0428473032263e-08,-9.616576615884e-09,-1.0281067221057e-08,-0.00051185085753972,0.00051182785725848,-0.00051185250368742,0.00051182950338774,-0.00051185323084088,0.00051182990713205,-0.00051185485235596,0.00051183152865031,-0.00051190944381339,0.00051188784009102,-0.0005119111293601,0.00051188952567522,-8.5896469029548e-09,-8.6812658960277e-09,-9.983839538774e-09,-8.2019038131373e-09,-0.00050929154489931,0.00050927000440257,-0.00054480856415593,0.00054478781580924,-0.00054480968338113,0.00054479023499248,-0.00054481124791463,0.00054479060308978,-0.00054481236718045,0.00054479302232427,-0.0005382302549661,0.0005382099635072,-0.00053823032109135,0.00053821348467037,-0.00050648555358856,0.00050646821833066,-0.00050648618266593,0.00050646882005668,-5.5919413830586e-09,-5.5919370324857e-09,-0.00057940730419223,0.00057939360791395,-4.5489855617313e-09,-6.4798564795825e-09,-0.00061864901323742,0.00061863760644435,-0.00061865324940003,0.00061864050942855,-0.0006186528750676,0.0006186414682644,-0.00061865694714066,0.00061864420711765,-0.00056087174324872,0.00056085963555182,-0.00056086947482308,0.00056085736710481,0.73992840791513,125301,3014,0.0019890311659083,0.0021197837935559,0.0024111946377143,33.600953723132,0.00018400762978505,0.00018400762978505,0.00018400762978505,3796778.3001825,0.0065413549496092
5419200,0.5483665769794,0.009635955865848,0.0029337969071531,0.0031220174980347,0.0035801414606602,-0.00068007331650274,0.00068007171585989,2.7904397366285e-10,2.7905250369639e-10,1.8518206352096e-10,5.2832799905994e-11,-0.00075725702338404,0.00075725605404553,-0.0007572576185083,0.00075725664913558,-0.0007572578405221,0.00075725671603205,-0.00075725840926954,0.00075725728476686,-0.00075090062467616,0.00075090114429221,-0.00075090099203517,0.00075090151166716,1.4359490804374e-10,-3.0488312863448e-10,-2.8955828205584e-10,7.6480406979877e-10,-0.00073746918126506,0.00073746765950114,-0.00081800773313314,0.00081800644372662,-0.00081800795329633,0.00081800743640283,-0.00081800880135175,0.00081800715550365,-0.00081800902153321,0.00081800814822137,-0.00079905633479158,0.00079905599886346,-0.00079905533389906,0.0007990570301061,-0.00073146068545785,0.00073146051234426,-0.00073146020529229,0.00073145916658099,-3.4962633286729e-09,-3.4962550432201e-09,-0.0008858282314135,0.0008858201730852,-2.5779853475525e-09,-3.8852367870213e-09,-0.00097995083485363,0.00097994389621722,-0.00097995197434284,0.00097994408122639,-0.00097995140798472,0.00097994446934843,-0.00097995243085866,0.00097994453771016,-0.00084862547571159,0.00084861766946682,-0.00084862671439646,0.00084861890813195,0.72499638738019,125301,3014,0.0028299747555524,0.0030682268455297,0.0036839045808909,36.269727734039,0.00020535782187231,0.00020535782187231,0.00020535782187231,4564740.460783,0.009628336710314
6419200,0.70486935936826,0.011692027895974,0.0035173756920243,0.0037585376552766,0.0044161145486729,-0.00079168436233098,0.00079167829747841,-2.5458937636343e-09,-2.5458830827547e-09,-2.1144952139021e-09,-2.532905635398e-09,-0.00091549302690978,0.00091548757997712,-0.00091549333305485,0.00091548788605567,-0.0009154935219049,0.00091548777135454,-0.00091549382459572,0.00091548807399709,-0.00088200841158094,0.00088200362458121,-0.00088200878871718,0.00088200400174938,-1.0726261238195e-09,-9.5298624927902e-10,-1.3652717611817e-09,-1.0103361383048e-09,-0.00086241694065865,0.00086241383589756,-0.00099101119137606,0.00099100841059136,-0.00099101144667047,0.00099100893526571,-0.00099101163210039,0.00099100897545609,-0.00099101188743278,0.00099100950018128,-0.0009410967313073,0.00094109461791674,-0.00094109684395293,0.00094109541919422,-0.00085066586361845,0.00085066370070353,-0.00085066514639946,0.0008506632474723,-1.7096422351033e-09,-1.7096318651554e-09,-0.0010673639848347,0.0010673599160437,-1.3449011956916e-09,-1.8679876538035e-09,-0.0012183009512296,0.0012182978501846,-0.0012183016996348,0.0012182981837777,-0.0012183014674102,0.0012182983663427,-0.0012183021740713,0.0012182986581542,-0.0010131329550053,0.001013129219788,-0.001013132460935,0.0010131287256853,0.59839168540088,125301,3014,0.0032939096497613,0.0035873048073115,0.0044370966955833,36.738954764669,0.00020911163811736,0.00020911163811736,0.00020911163811736,4716247.5280214,0.011382954733653
7419200,0.83085852425039,0.013129114096392,0.0039410254863104,0.0042081872230485,0.0049799013870331,-0.00086980117970122,0.00086979496798356,-2.3566017032003e-09,-2.3565936485052e-09,-1.9495468686079e-09,-2.5351237318425e-09,-0.0010310468941535,0.0010310417316829,-0.0010310471349205,0.0010310419723785,-0.0010310474648194,0.0010310419003404,-0.0010310477043064,0.0010310421397736,-0.0009721380645943,0.00097213350318166,-0.00097213835576226,0.00097213379438308,-1.0486337576018e-09,-7.0892615732193e-10,-8.4603577269432e-10,-9.4510120341176e-10,-0.00094651967691852,0.00094651669383956,-0.0011135660101639,0.0011135637211064,-0.0011135663273745,0.0011135640113088,-0.0011135664526977,0.0011135644435415,-0.0011135667699415,0.0011135647337933,-0.0010363046621657,0.0010363036233122,-0.0010363050796113,0.0010363038392823,-0.00093161650758094,0.00093161413897909,-0.00093161573408181,0.00093161405470484,-1.6186228090666e-09,-1.6186150707148e-09,-0.0011851106066137,0.0011851066278596,-1.4763102451766e-09,-1.5268914956011e-09,-0.0013813993392488,0.0013813962815588,-0.0013813998355323,0.0013813966832396,-0.0013813997900702,0.0013813967323481,-0.0013814002505756,0.0013813970982145,-0.0011206642866206,0.0011206608758659,-0.0011206639813958,0.0011206605706043,0.52694121020036,125301,3014,0.0036185601149587,0.0039366128890779,0.0049253024803211,40.765535493192,0.00024132428394553,0.00024132428394553,0.00024132428394553,4673477.518995,0.012559209774104
8419200,0.9070507823233,0.013906973330051,0.0041773896437491,0.0044540540883966,0.0052755295979049,-0.00090045550692839,0.00090045248015216,-1.1499424765761e-09,-1.1499349890695e-09,-7.5795806772484e-10,-1.4093267348739e-09,-0.0010886896620513,0.0010886872941786,-0.0010886897566908,0.0010886873887449,-0.0010886900839939,0.0010886872597956,-0.001088690179713,0.0010886873554598,-0.0010083706818603,0.0010083686756481,-0.0010083709463106,0.0010083689401351,-1.9372094252258e-11,4.6439708083171e-10,6.472046027499e-10,-1.2177575397105e-10,-0.00097778689375592,0.00097778693421587,-0.0011719471006872,0.0011719476300549,-0.0011719474899959,0.0011719475355477,-0.001171947291898,0.0011719481803041,-0.0011719476812333,0.001171948085843,-0.0010732327790446,0.0010732349088432,-0.001073233810563,0.0010732344325963,-0.00096355898650384,0.00096355863659008,-0.00096355818563011,0.00096355879018785,-7.7017248058292e-10,-7.7016542573961e-10,-0.0012305954869422,0.0012305937669809,-9.770195970749e-10,-3.4023325878396e-10,-0.0014560549138938,0.0014560535718396,-0.0014560549059228,0.0014560539330885,-0.00145605507831,0.0014560537362208,-0.00145605504702,0.0014560540741168,-0.0011646113309451,0.0011646099530413,-0.0011646110480798,0.0011646096701389,0.47156008474719,125301,3014,0.0037460294260397,0.0040665364145479,0.0051138119504126,41.433931081526,0.00024667144865221,0.00024667144865221,0.00024667144865221,4425039.6028944,0.013010979631809
9419200,0.94926810865587,0.014280858699461,0.0042941372389177,0.004573413323648,0.0054133081368953,-0.00090841420132888,0.00090841256727564,-6.0944707136914e-10,-6.09439864854e-10,-2.2700526752725e-10,-9.1422290302963e-10,-0.0011137782300732,0.0011137771348138,-0.0011137782377608,0.0011137771424301,-0.0011137785798475,0.001113776998471,-0.0011137785893947,0.0011137770079654,-0.0010179871972777,0.0010179863307979,-0.0010179874630892,0.0010179865966463,4.6638267622308e-10,1.0249667913321e-09,1.5076608399186e-09,1.2562293163061e-10,-0.0009842100877173,0.00098421153685646,-0.001195415082587,0.0011954170705478,-0.001195415582802,0.001195416674543,-0.0011954151519437,0.0011954175408787,-0.0011954156521841,0.0011954171449158,-0.0010817029462831,0.0010817068741491,-0.0010817045659115,0.0010817057880106,-0.00097153246034212,0.0009715329645867,-0.00097153165912246,0.00097153325735012,-2.7113527665047e-10,-2.7112857062004e-10,-0.0012405333628688,0.0012405329173579,-7.8838422090322e-10,4.6796209490275e-10,-0.0014832626893286,0.0014832622863202,-0.0014832623249453,0.0014832627065234,-0.0014832627020294,0.0014832622989859,-0.0014832623201713,0.0014832627016785,-0.0011760653856198,0.0011760652676131,-0.0011760651159116,0.0011760649978646,0.40621133923259,125301,3014,0.0037791887580413,0.0040932975672377,0.0051549872325597,41.145148071703,0.00024436118457363,0.00024436118457363,0.00024436118457363,4166513.4813338,0.01311351744239
10419200,0.97039372187023,0.014484679781797,0.0043591173786,0.0046391064334261,0.0054864559697705,-0.00090662510668813,0.00090662681108621,6.9798419567959e-10,6.9799128916877e-10,1.013352636199e-09,3.7199100548895e-10,-0.0011207004355634,0.0011207023132904,-0.0011207002799549,0.0011207021576112,-0.0011207005766695,0.0011207019810488,-0.0011207004244068,0.0011207018287337,-0.0010174530143346,0.0010174549342431,-0.0010174532733343,0.0010174551932807,1.5887584562345e-09,2.174388042164e-09,3.0914057551624e-09,9.064242011171e-10,-0.00098131724768924,0.0009813217376245,-0.0012011299251812,0.0012011348865539,-0.0012011305287904,0.0012011340486816,-0.0012011297616744,0.0012011351189991,-0.0012011303653072,0.0012011342811673,-0.0010803219527609,0.001080329179258,-0.0010803243331844,0.0010803272862038,-0.00097034817662604,0.00097035083088091,-0.00097034742768181,0.00097035121084683,5.642030123382e-10,5.6420960107809e-10,-0.0012384335233981,0.0012384353054297,-3.6287591203703e-10,1.7071408124024e-09,-0.0014896266209195,0.0014896278833986,-0.0014896256995611,0.0014896282930238,-0.0014896263264379,0.0014896275888824,-0.0014896253988167,0.0014896279922086,-0.0011759255113912,0.0011759274464313,-0.0011759252887614,0.0011759272237608,0.43665130715676,125301,3014,0.0037718277569435,0.0040813524223216,0.0051462768196473,38.097021313993,0.00021997617051194,0.00021997617051194,0.00021997617051194,4038513.7440277,0.013085208398628
11419200,0.98259760864244,0.014594117626855,0.0043942947698436,0.0046745035380573,0.0055253193189537,-0.00090544699315086,0.00090544598159431,-3.6599581704961e-10,-3.6598858500584e-10,1.383195523738e-11,-7.074558025785e-10,-0.0011288487234906,0.0011288481944405,-0.0011288486790596,0.001128848149939,-0.0011288490484116,0.0011288480082339,-0.001128849004608,0.0011288479643784,-0.0010161171380865,0.0010161167870808,-0.0010161174149845,0.0010161170640186,7.0631430545941e-10,1.3145427334086e-09,2.43560827413e-09,-2.295989800277e-10,-0.0009782014099711,0.00097820357694238,-0.0012073377684689,0.0012073408038189,-0.001207338625755,0.0012073399189842,-0.0012073377818153,0.0012073412484884,-0.0012073386391236,0.0012073403636926,-0.0010774206374192,0.0010774264534666,-0.0010774235049093,0.0010774240997366,-0.00096900031259182,0.00096900092503791,-0.00096899952456873,0.00096900132486821,1.114965684446e-10,1.1150311730336e-10,-0.0012333794828849,0.0012333799766698,-1.033969693965e-09,1.4962810842282e-09,-0.0014931775472878,0.001493177563565,-0.0014931766800685,0.0014931783274379,-0.0014931774836917,0.0014931774999338,-0.0014931766011182,0.0014931782484167,-0.0011736690797115,0.001173670193454,-0.0011736688196212,0.0011736699333223,0.40445605707229,125301,3014,0.0037669906495127,0.004068479445499,0.0051253291886954,37.627608289463,0.00021622086631571,0.00021622086631571,0.00021622086631571,3840531.3093036,0.013046135926171
12419200,0.98959803348534,0.014665139639343,0.0044173675188198,0.0046975976740681,0.0055501744464553,-0.00090428871048703,0.00090428816168447,-1.8866455101571e-10,-1.8865735414733e-10,1.9294844457217e-10,-5.4764435838489e-10,-0.001131204606018,0.00113120449654,-0.0011312045344012,0.0011312044248531,-0.0011312049101445,0.0011312042742668,-0.0011312048390085,0.001131204203079,-0.0010153482667606,0.0010153482898446,-0.0010153485455709,0.0010153485686944,8.5299632888432e-10,1.4931548504641e-09,2.786879967287e-09,-2.3928354440661e-10,-0.00097622204695865,0.00097622466032062,-0.0012088507673541,0.0012088543102225,-0.0012088517137131,0.001208853275072,-0.0012088507395142,0.0012088547310899,-0.001208851685895,0.001208853695978,-0.0010759731267727,0.0010759796732773,-0.0010759763435521,0.0010759769614422,-0.00096804337597915,0.00096804419356006,-0.00096804257327253,0.00096804463916822,2.6714867620309e-10,2.671551740634e-10,-0.0012306069372795,0.0012306078378065,-1.0566753531756e-09,1.8335139737302e-09,-0.0014937966690134,0.0014937969244376,-0.0014937956377173,0.0014937977637744,-0.0014937965592531,0.0014937968146429,-0.0014937955142367,0.0014937976402236,-0.0011721956407007,0.0011721972076929,-0.0011721953860023,0.0011721969529524,0.45322610794666,125301,3014,0.0037622027768679,0.0040602873304465,0.0051138378003802,36.803302097809,0.00020962641678247,0.00020962641678247,0.00020962641678247,3771434.1372355,0.013021378232911
13419200,0.99350798890548,0.014701482837443,0.0044292160032884,0.0047094314946973,0.005562835339457,-0.00089830422948405,0.00089830507635494,3.5474233892387e-10,3.5474962093671e-10,7.1197554569462e-10,-1.7264662649936e-11,-0.0011309509738457,0.0011309520606596,-0.0011309508370351,0.0011309519237789,-0.0011309511986956,0.0011309517596945,-0.0011309510626607,0.0011309516236079,-0.0010090588226839,0.0010090600123104,-0.0010090591008261,0.0010090602904927,1.3167415411538e-09,1.9647962528507e-09,3.4674437553774e-09,5.4035531284268e-11,-0.00096882574201707,0.00096882962303198,-0.001207269380751,0.0012072741294507,-0.0012072703893215,0.0012072728960631,-0.001207269265197,0.0012072744586011,-0.0012072702737891,0.0012072732252515,-0.0010684978450103,0.0010685058172258,-0.0010685014307919,0.0010685027173315,-0.00096182855733497,0.00096183025535676,-0.00096182778044231,0.00096183073496152,5.991913209988e-10,5.9919788097487e-10,-0.0012210687902805,0.0012210706146144,-9.1798437694271e-10,2.3607005118963e-09,-0.0014896539472529,0.0014896548270448,-0.0014896526778515,0.0014896556878693,-0.0014896537203636,0.0014896546001214,-0.0014896524403531,0.0014896554503009,-0.001164619894428,0.0011646223134601,-0.0011646196661798,0.0011646220851697,0.4150894025916,125301,3014,0.0037373978084756,0.0040296363738445,0.005074312406429,34.792266686972,0.00019353813349578,0.00019353813349578,0.00019353813349578,3643846.1648568,0.01292522662057
14419200,0.99576582583374,0.014720920772517,0.0044355911329099,0.0047157778370961,0.005569551802511,-0.00089310408674765,0.00089310512835266,4.2758737964612e-10,4.2759460180784e-10,7.7783882751363e-10,5.6133304857245e-11,-0.001126325166425,0.0011263264433317,-0.001126325015523,0.0011263262923599,-0.0011263253753247,0.0011263261295784,-0.001126325224799,0.0011263259790012,-0.0010041405319651,0.0010041418784866,-0.0010041408162785,0.00100414216284,1.3823273280415e-09,2.0326758766178e-09,3.7302424747582e-09,-6.7929399320253e-11,-0.00096344192457818,0.00096344599391602,-0.0012024103148522,0.0012024153767065,-0.0012024114327047,0.0012024139992246,-0.0012024101825555,0.0012024156886571,-0.0012024113004291,0.0012024143112129,-0.0010634299712946,0.0010634384708691,-0.0010634339358672,0.0010634349949442,-0.00095679599683749,0.00095679770994134,-0.00095679523028638,0.00095679820321868,6.8792922546967e-10,6.8793572574168e-10,-0.0012155718001729,0.0012155738427513,-1.0180614985671e-09,2.6426354542714e-09,-0.0014847437243019,0.0014847446901194,-0.0014847423051974,0.0014847456548988,-0.0014847434739419,0.0014847444397254,-0.0014847420453516,0.001484745394983,-0.0011594371722636,0.0011594399036446,-0.0011594369380394,0.0011594396693777,0.38312450045663,125301,3014,0.0037158122149142,0.0040072950324988,0.0050515226763189,32.641418183885,0.00017633134547108,0.00017633134547108,0.00017633134547108,3636161.4325715,0.012857651576499
15419200,0.99694144460782,0.01473449252293,0.0044400425547858,0.0047202134446011,0.0055742365235431,-0.00088127984023297,0.00088128469893142,1.916522529317e-09,1.9165297622431e-09,2.1725037249584e-09,1.5530904089923e-09,-0.0011150687190639,0.0011150733400436,-0.0011150683916023,0.0011150730125119,-0.0011150686743264,0.0011150728193801,-0.0011150683489864,0.0011150724939888,-0.00099273368816319,0.00099273823058764,-0.00099273396634327,0.00099273850880804,2.661479086452e-09,3.2827009370724e-09,5.3421876885648e-09,9.4000757274131e-10,-0.00095175362073131,0.00095176109142102,-0.0011912417767035,0.0011912500448355,-0.0011912429235227,0.0011912482806342,-0.0011912414006583,0.001191250067349,-0.0011912425474984,0.0011912483031851,-0.0010521488508205,0.0010521607152194,-0.0010521533843481,0.0010521566310619,-0.00094533016486539,0.00094533443037046,-0.00094532949586472,0.0009453349430436,1.5450375686334e-09,1.5450440054368e-09,-0.001204428863275,0.0012044332546434,-4.736764843909e-10,3.8032877689929e-09,-0.0014740963775783,0.0014740991336504,-0.0014740944465046,0.0014741000016761,-0.0014740957942191,0.0014740985502572,-0.0014740938649591,0.0014740994200607,-0.0011484257847707,0.0011484305651499,-0.0011484256018348,0.0011484303821711,0.51103778709309,125301,3014,0.0036667400278211,0.0039587975347694,0.0050053267081939,27.063441009038,0.0001317075280723,0.0001317075280723,0.0001317075280723,3652496.8976428,0.012712056012096
16419200,0.99769634246665,0.014742401501985,0.0044426355472577,0.0047227966785938,0.005576969276134,-0.00087236420153607,0.00087236581615638,6.492541678779e-10,6.4926161900321e-10,9.6502831701793e-10,2.9397407001454e-10,-0.0011132204594648,0.0011132221700638,-0.0011132202823363,0.0011132219928658,-0.0011132206268369,0.0011132218456549,-0.001113220449051,0.0011132216678177,-0.00098313873017423,0.0009831405773246,-0.00098313902080893,0.00098314086800068,1.6005156445032e-09,2.1980910693836e-09,4.3459606762545e-09,-2.793317280249e-10,-0.00094095407522712,0.00094095867964882,-0.001187746345791,0.001187752107219,-0.0011877477024829,0.0011877504253827,-0.0011877462035812,0.0011877523726257,-0.0011877475602935,0.0011877506908263,-0.0010409326277615,0.0010409423656827,-0.0010409373978279,0.0010409380725536,-0.00093592049861517,0.00093592241654889,-0.00093591981077759,0.00093592288123511,8.6839110371846e-10,8.6839767334129e-10,-0.0011902056136388,0.0011902081579053,-1.2392543864527e-09,3.239220579623e-09,-0.0014667065237227,0.0014667075974757,-0.0014667047954139,0.0014667087952745,-0.0014667062338827,0.0014667073076019,-0.0014667044959099,0.0014667084957014,-0.0011367122710217,0.0011367156724624,-0.0011367120493269,0.0011367154507241,0.46538451425637,125301,3014,0.0036297625678736,0.0039140240192338,0.0049463815126554,24.415328452166,0.00011052262761733,0.00011052262761733,0.00011052262761733,3485023.6522387,0.012569666185435
17419200,0.99820333612097,0.014748440933764,0.0044446290488789,0.0047247764085162,0.0055790354763691,-0.00086609046214629,0.00086609185372439,5.5760948911875e-10,5.5761683768837e-10,8.8175939320874e-10,1.9813050841074e-10,-0.0011060234140776,0.0011060249669233,-0.0011060232409976,0.0011060247937736,-0.0011060235944468,0.0011060246471546,-0.0011060234203612,0.0011060244730178,-0.00097730096160553,0.00097730260913998,-0.00097730125737804,0.00097730290495355,1.5183355244177e-09,2.1346254085745e-09,4.3587356844716e-09,-4.4176151231811e-10,-0.00093478401625107,0.00093478843442683,-0.0011805452384532,0.0011805509251022,-0.0011805466541383,0.0011805491881532,-0.0011805450994482,0.001180551206175,-0.0011805465151535,0.001180549469263,-0.0010351948510829,0.0010352046067364,-0.0010351997968186,0.0010352001448427,-0.00092996036127823,0.00092996204755074,-0.00092995965565222,0.00092996253231914,8.592684126457e-10,8.592748790658e-10,-0.0011843655468243,0.0011843680386693,-1.3337881425701e-09,3.3179172058775e-09,-0.0014599611598886,0.0014599621736816,-0.0014599593818311,0.0014599634363197,-0.0014599608797425,0.0014599618935018,-0.0014599590924346,0.0014599631468535,-0.0011308537442397,0.0011308571772096,-0.0011308535097042,0.0011308569426311,0.52521873377382,125301,3014,0.0036037060844727,0.0038884039544832,0.0049221596757523,21.977490363884,9.1019922911072e-05,9.1019922911072e-05,9.1019922911072e-05,3505934.956039,0.012492799198415
18419200,0.9985184119897,0.014752042699909,0.0044458173788299,0.0047259565336338,0.0055802687874456,-0.00085428538053239,0.00085428902567954,1.4319714846364e-09,1.4319788976747e-09,1.7111318761546e-09,1.0652507027781e-09,-0.0010978674186168,0.0010978709021238,-0.0010978671410634,0.0010978706245007,-0.0010978674607386,0.0010978704577624,-0.0010978671832801,0.0010978701802526,-0.00096529345474571,0.00096529698535406,-0.00096529374917233,0.00096529727982233,2.2695346474246e-09,2.8815068009856e-09,5.2625992439523e-09,2.0676312898899e-10,-0.00092206304715684,0.00092206949463557,-0.0011715664830715,0.0011715739924373,-0.0011715678829567,0.0011715720610272,-0.0011715662032682,0.0011715741152475,-0.0011715676031732,0.0011715721838735,-0.0010223972372392,0.0010224089042519,-0.0010224024217166,0.0010224041847614,-0.0009180140438735,0.00091801727613297,-0.00091801338627774,0.00091801778846696,1.3584509365211e-09,1.3584574665863e-09,-0.0011700107461948,0.001170014645645,-9.6859722494612e-10,3.945897612463e-09,-0.0014491423884299,0.0014491444615143,-0.0014491403485299,0.0014491456401583,-0.0014491419203913,0.0014491439934422,-0.0014491398764488,0.0014491451680084,-0.0011177901809761,0.0011177947912798,-0.0011177899826819,0.0011177945929418,0.50516361584657,125301,3014,0.0035547191026946,0.0038356344952722,0.004862657640001,17.481078218346,5.5048625746771e-05,5.5048625746771e-05,5.5048625746771e-05,3429194.988005,0.012329585382772
19419200,0.99877925009634,0.014755921273118,0.0044471001447772,0.0047272297063239,0.0055815914220173,-0.00085332724712532,0.00085332642888166,-2.8265553859673e-10,-2.8264819617398e-10,6.0436542440408e-11,-6.7072563636574e-10,-0.0010965807486045,0.0010965803308788,-0.0010965804685503,0.0010965800507551,-0.0010965808187091,0.0010965798528479,-0.0010965805387536,0.0010965795728414,-0.00096446057873651,0.00096446018323111,-0.00096446087194983,0.00096446047648608,8.6729256026698e-10,1.4046957339562e-09,3.8171254631248e-09,-1.2625532248184e-09,-0.00092093533657899,0.00092093792305281,-0.0011700906474246,0.0011700948239168,-0.0011700920525539,0.0011700928818213,-0.0011700903903083,0.0011700949156815,-0.0011700917954573,0.0011700929736224,-0.0010214101048914,0.0010214184365317,-0.0010214153116753,0.0010214136925797,-0.00091707348333699,0.00091707346119295,-0.00091707288501155,0.00091707390881398,5.7217919796532e-10,5.7218566603243e-10,-0.0011686014123181,0.0011686030447409,-1.7372972352767e-09,3.1614564989241e-09,-0.0014474097573845,0.001447409945676,-0.0014474077190434,0.001447411113642,-0.001447409283918,0.001447409472176,-0.0014474072417848,0.0014474106363141,-0.0011165714993507,0.0011165742465197,-0.0011165712990516,0.0011165740461772,0.65325215552179,125301,3014,0.0035507254061579,0.003830941016531,0.0048568089967534,17.551544416056,5.5612355328452e-05,5.5612355328452e-05,5.5612355328452e-05,3418386.8047225,0.012314865285
20419200,0.99900624423207,0.014759535877638,0.0044482960880533,0.0047284162735162,0.005582823516069,-0.00085212274517047,0.00085212037657144,-9.0556938300637e-10,-9.0556190402897e-10,-4.9929894234828e-10,-1.2750421417643e-09,-0.0011016080232688,0.0011016062892827,-0.0011016080195784,0.0011016062855227,-0.0011016084536957,0.0011016061789636,-0.0011016084465449,0.0011016061717618,-0.00096233992181864,0.00096233842708065,-0.00096234023930387,0.00096233874460824,2.7379695570936e-10,9.053752005341e-10,3.1368563054086e-09,-1.7706461369133e-09,-0.00091762123821518,0.0009176223352943,-0.001173270919302,0.0011732737148149,-0.0011732725275985,0.0011732721195294,-0.0011732710282984,0.0011732742800392,-0.001173272636614,0.0011732726847894,-0.0010174521221512,0.0010174592765045,-0.0010174572048383,0.0010174547331744,-0.00091512538527594,0.0009151243547981,-0.0009151246325656,0.00091512484338438,7.5402321363782e-11,7.540896621961e-11,-0.0011608502143028,0.0011608505367241,-2.1508490030541e-09,2.587609763445e-09,-0.0014460007596879,0.0014459999103316,-0.0014459992502966,0.0014460014927203,-0.0014460008015314,0.0014459999521421,-0.0014459992715002,0.0014460015138547,-0.001111289870113,0.0011112916401973,-0.0011112895780874,0.0011112913481277,0.70012779305904,125301,3014,0.0035457460489388,0.0038172250203033,0.0048247081339334,18.596593131081,6.3972745048646e-05,6.3972745048646e-05,6.3972745048646e-05,3247241.8187331,0.012263521916614
21419200,0.99916069991767,0.014761826665076,0.0044490591225839,0.0047291705127275,0.0055835970297648,-0.00084193197331063,0.00084193445380375,9.6783941011155e-10,9.6784684370799e-10,1.2903761880844e-09,5.738401124167e-10,-0.0010936715250813,0.0010936739790448,-0.0010936712897219,0.0010936737436166,-0.0010936716579761,0.0010936735847297,-0.0010936714220683,0.0010936733487714,-0.00095208282426119,0.00095208535770443,-0.00095208313879267,0.00095208567227862,1.8685516002955e-09,2.5254856438512e-09,4.8817323343353e-09,-1.8778406018883e-10,-0.00090651463984092,0.00090652010466178,-0.0011644462686291,0.001164452879879,-0.0011644477117218,0.0011644509878297,-0.0011644460550067,0.0011644531057741,-0.0011644474981181,0.0011644512137603,-0.0010064042123382,0.0010064150968759,-0.0010064094321637,0.0010064103835102,-0.00090488185210208,0.00090488423557024,-0.00090488115984473,0.00090488480850482,1.1493725243995e-09,1.1493791904606e-09,-0.0011478384135505,0.0011478417637342,-1.1785542283744e-09,3.7439357993607e-09,-0.0014352500426508,0.0014352516283447,-0.0014352480866356,0.0014352528943259,-0.0014352496713724,0.0014352512570334,-0.0014352477072212,0.0014352525148426,-0.0010995003925298,0.0010995045680462,-0.0010995001692143,0.0010995043446867,0.64990944923706,125301,3014,0.0035034479608617,0.0037711431654683,0.0047707714616403,15.227929004278,3.7023432034222e-05,3.7023432034222e-05,3.7023432034222e-05,3185766.6689387,0.012119493061794
22419200,0.99928854224995,0.014763775482484,0.004449709603482,0.0047298129448598,0.0055842529341427,-0.00083996865018737,0.00083996788162605,-2.9068555743223e-10,-2.906782372735e-10,9.9804727681137e-11,-6.807351655962e-10,-0.001090316564764,0.0010903162439451,-0.001090316478925,0.001090316158037,-0.0010903169041304,0.001090316030442,-0.0010903168157155,0.0010903159419765,-0.00095025593383914,0.0009502557536576,-0.00095025626028657,0.00095025608014728,7.9283072644115e-10,1.4642382897441e-09,3.7557826832939e-09,-1.2737362872303e-09,-0.00090465716461955,0.00090465972944987,-0.0011610047958135,0.001161008913406,-0.0011610063651672,0.0011610071904589,-0.0011610047869079,0.0011610093752298,-0.0011610063562804,0.0011610076523181,-0.0010047076623033,0.0010047161433718,-0.0010047128662474,0.0010047114856648,-0.00090311690277026,0.00090311696498184,-0.00090311614932655,0.00090311752275724,4.7483448133842e-10,4.7484103193242e-10,-0.0011462654114535,0.0011462668322922,-1.8191843018742e-09,3.0485654581973e-09,-0.0014320170431316,0.0014320170928769,-0.0014320153577036,0.0014320185877032,-0.0014320169440517,0.0014320169937638,-0.0014320152426087,0.0014320184725392,-0.0010978835490749,0.0010978862276001,-0.0010978832666469,0.0010978859451278,0.66642562144511,125301,3014,0.0034952728673809,0.0037634091249314,0.0047642348783575,14.859262929123,3.4074103432984e-05,3.4074103432984e-05,3.4074103432984e-05,3202386.6455979,0.012096754985576
23419200,0.99940206249755,0.014765405473583,0.0044502535524128,0.0047303501266792,0.0055848017944913,-0.0008405704337755,0.00084056831314718,-8.1500225900513e-10,-8.1499493716999e-10,-3.8265499271146e-10,-1.2183152349088e-09,-0.0010919994845383,0.0010919979949301,-0.001091999462877,0.0010919979731999,-0.0010919999213287,0.0010919978502994,-0.0010919998964191,0.0010919978253391,-0.00095054728762614,0.0009505459720432,-0.00095054761501164,0.00095054629947085,3.3542403762203e-10,1.0364673774676e-09,3.2381188875997e-09,-1.6725188579376e-09,-0.00090470778956905,0.00090470915387159,-0.0011621462043142,0.0011621492247518,-0.0011621477958273,0.0011621476087222,-0.0011621462763848,0.0011621497964373,-0.0011621478679165,0.0011621481804429,-0.0010045267478927,0.0010045341448371,-0.0010045318419501,0.0010045296076224,-0.00090349413136971,0.00090349324640099,-0.00090349332572893,0.0009034938180692,1.8110537050231e-10,1.8111192339035e-10,-0.0011451038653128,0.001145104464829,-2.0487365892829e-09,2.6949410845615e-09,-0.0014318600497246,0.0014318594535061,-0.00143185851442,0.0014318610139139,-0.0014318600676124,0.0014318594713607,-0.001431858512465,0.0014318610118899,-0.001097336863155,0.001097338863303,-0.0010973365647147,0.0010973385648184,0.62875729639221,125301,3014,0.0034977673440698,0.0037636208801992,0.0047594276138028,15.705139203985,4.0841113631878e-05,4.0841113631878e-05,4.0841113631878e-05,3158909.4156485,0.01209464427089
24419200,0.9995092205568,0.01476703050937,0.0044507964170504,0.0047308860744283,0.0055853480178918,-0.00084480132602515,0.0008447977108394,-1.3965795376597e-09,-1.3965722625584e-09,-9.1570039074633e-10,-1.8146263830273e-09,-0.0010952760196156,0.0010952732412373,-0.0010952760676926,0.0010952732892454,-0.0010952765628674,0.0010952731697056,-0.0010952766069569,0.0010952732137444,-0.00095472298263921,0.00095472040674629,-0.00095472330992994,0.00095472073407916,-1.7468638824322e-10,5.6432826930213e-10,2.6338338080647e-09,-2.0867339937185e-09,-0.0009089239449513,0.00090892397970525,-0.0011653110235109,0.0011653128120566,-0.0011653126188182,0.0011653113321326,-0.0011653111807675,0.0011653135039451,-0.0011653127760933,0.0011653120240565,-0.0010087126030457,0.0010087187394752,-0.0010087175169216,0.0010087143919444,-0.00090773259932293,0.00090773067753808,-0.00090773172625683,0.00090773126497075,-1.4373062103995e-10,-1.4372412923827e-10,-0.0011492535910561,0.001149253280101,-2.2739545444113e-09,2.2744586296295e-09,-0.0014349147617703,0.0014349134745264,-0.001434913409503,0.0014349150859146,-0.0014349149070474,0.0014349136197701,-0.0014349135309692,0.0014349152073116,-0.001101485265583,0.0011014864950151,-0.0011014849478095,0.0011014861771973,0.66255127740754,125301,3014,0.0035153195253265,0.0037811081997756,0.0047766309000401,17.880076612902,5.8240612903219e-05,5.8240612903219e-05,5.8240612903219e-05,3160821.5052322,0.012147507414654
25419200,0.99960691984213,0.014768777048734,0.0044513794635038,0.0047314620679715,0.0055859355172587,-0.00084813448021036,0.00084813100742619,-1.3409698209395e-09,-1.3409625011337e-09,-8.4642116059102e-10,-1.7787423807589e-09,-0.0011002990906685,0.001100296445158,-0.0011002991321859,0.0011002964866064,-0.0011002996374486,0.0011002963548656,-0.0011002996754218,0.0011002963927881,-0.00095763382094197,0.00095763135398372,-0.00095763414788021,0.00095763168096435,-1.4102961768824e-10,6.3244073598729e-10,2.6076321397756e-09,-1.9543580884194e-09,-0.00091151592854181,0.00091151609927263,-0.0011696828194658,0.0011696846605006,-0.0011696843587798,0.0011696832270873,-0.0011696829580918,0.0011696853551111,-0.0011696844974243,0.0011696839217327,-0.0010109714954693,0.0010109776019268,-0.0010109762549254,0.0010109734116381,-0.00091070651423451,0.00091070472203271,-0.00091070561218034,0.00091070534799043,-1.2386013809898e-10,-1.2385360994547e-10,-0.0011501542668018,0.0011501540235247,-2.1782690716692e-09,2.2147239240132e-09,-0.0014375574655999,0.0014375562787525,-0.0014375561540929,0.0014375578283791,-0.0014375575988905,0.0014375564120099,-0.0014375562638492,0.0014375579380663,-0.001103157041485,0.0011031582661293,-0.0011031567286155,0.0011031579532154,0.77991302017261,125301,3014,0.003529161914644,0.0037918779678872,0.0047803830761234,19.925145132096,7.4601161056768e-05,7.4601161056768e-05,7.4601161056768e-05,3101003.2584894,0.012176239337264
26419200,0.99968703483694,0.01477030205163,0.0044518895362085,0.0047319654678372,0.0055864470475847,-0.0008466575687308,0.00084665586430198,-6.544742345555e-10,-6.5446681807619e-10,-1.8930667631098e-10,-1.1066445911644e-09,-0.0011030584298865,0.0011030573145445,-0.0011030583880728,0.0011030572726619,-0.0011030588729661,0.0011030571214331,-0.0011030588289224,0.0011030570773391,-0.00095554355475742,0.00095554256087114,-0.00095554388436791,0.00095554289052446,4.4027682600432e-10,1.2263845518857e-09,3.2071171973423e-09,-1.3342346264323e-09,-0.0009084562707047,0.00090845803544969,-0.0011711312543112,0.0011711344587261,-0.001171132710214,0.0011711329456179,-0.0011711312781898,0.0011711350348365,-0.0011711327341106,0.0011711335217629,-0.001007462054053,0.0010074694501448,-0.0010074667904981,0.0010074652813907,-0.00090861678007093,0.0009086162581705,-0.00090861590700974,0.00090861692872177,2.5704888574475e-10,2.5705552471841e-10,-0.0011434312935172,0.0011434321361279,-1.7960798572432e-09,2.5856918639914e-09,-0.0014354284454512,0.0014354281479783,-0.0014354270000411,0.0014354295595609,-0.0014354284307377,0.0014354281332317,-0.0014354269660658,0.0014354295255169,-0.0010981677228196,0.0010981697786401,-0.0010981674342357,0.0010981694900111,0.82922923068302,125301,3014,0.0035230467479976,0.0037792102386892,0.0047525454174172,20.393791025891,7.8350328207132e-05,7.8350328207132e-05,7.8350328207132e-05,2981050.0280332,0.012129106446936
27419200,0.99975690168966,0.014771502581914,0.0044522928663016,0.0047323625479137,0.0055868471676983,-0.00084840723554227,0.00084840398138644,-1.2562042818803e-09,-1.2561968828416e-09,-7.586373910014e-10,-1.7089025409357e-09,-0.0011064145222134,0.001106412071743,-0.0011064145524475,0.0011064121019082,-0.0011064150662732,0.0011064119659279,-0.0011064150934458,0.0011064119930502,-0.0009568748986955,0.00095687260828491,-0.00095687523392609,0.00095687294355861,-7.8790531642646e-11,7.1458712917541e-10,2.6222839102669e-09,-1.8140072527247e-09,-0.00090920504084803,0.00090920541626428,-0.0011735447302197,0.0011735466979658,-0.0011735462194188,0.0011735452951175,-0.0011735448537528,0.0011735473888002,-0.0011735463429693,0.0011735459859859,-0.0010079200431938,0.001007926200892,-0.0010079246880764,0.0010079221433842,-0.00091002433676181,0.00091002272571579,-0.00091002343711894,0.00091002339244728,-8.4345968288566e-11,-8.4339319432861e-11,-0.001141756588641,0.0011417564781765,-2.0790128233059e-09,2.1914185331975e-09,-0.0014354434113072,0.001435442364424,-0.001435442124768,0.0014354438584346,-0.0014354435275212,0.0014354424806052,-0.0014354422176982,0.0014354439512965,-0.0010975796300983,0.0010975809060804,-0.0010975793158832,0.0010975805918198,0.74718867332314,125301,3014,0.0035303030676173,0.0037823208468988,0.00474561844965,22.251543876905,9.3212351015241e-05,9.3212351015241e-05,9.3212351015241e-05,2913062.9468654,0.012132604131519
28419200,0.99981432643198,0.014772628591146,0.0044526716101576,0.0047327353782718,0.0055872216027169,-0.00085044016336465,0.00085043764075942,-9.7565526054857e-10,-9.7564799653518e-10,-4.8577151744006e-10,-1.4341236227577e-09,-0.0011061271203451,0.0011061253136997,-0.0011061271130844,0.0011061253063701,-0.0011061276202144,0.0011061251609589,-0.0011061276104132,0.0011061251511075,-0.00095901666234472,0.0009590149728517,-0.00095901699833599,0.00095901530888574,1.6198976693621e-10,9.7059696718625e-10,2.8578308802678e-09,-1.538129442887e-09,-0.0009116325895747,0.00091163363716559,-0.0011733767633305,0.0011733793070614,-0.0011733782039764,0.0011733778778325,-0.0011733768321822,0.0011733799480337,-0.0011733782728458,0.0011733785188388,-0.0010104671096585,0.0010104737789662,-0.0010104717133511,0.001010469761322,-0.00091233383559235,0.00091233276231772,-0.00091233293052266,0.00091233344963714,9.7122971283425e-11,9.7129499789866e-11,-0.0011451289243241,0.0011451293087835,-1.8821982548853e-09,2.3526252003856e-09,-0.0014359990264909,0.0014359984197324,-0.0014359976902889,0.0014359998418379,-0.0014359990779606,0.0014359984711691,-0.0014359977207018,0.001435999872182,-0.0011006145553685,0.001100616211242,-0.0011006142473545,0.0011006159031829,0.8493285419621,125301,3014,0.0035387260731901,0.0037923746717623,0.0047595840957833,23.440933614336,0.00010272746891469,0.00010272746891469,0.00010272746891469,2950483.7319912,0.012165407082527
29419200,0.99986098758733,0.01477328051439,0.0044528911885028,0.0047329511588173,0.0055874381670698,-0.00085158857791933,0.00085158589410301,-1.0368135587339e-09,-1.0368062037233e-09,-5.4271632446235e-10,-1.5001301303484e-09,-0.0011107488466517,0.0011107468947958,-0.0011107488482685,0.0011107468963438,-0.0011107493613584,0.0011107467521203,-0.0011107493604702,0.0011107467511818,-0.0009594862008504,0.00095948437884468,-0.00095948653968386,0.00095948471772146,1.0711846650915e-10,9.1774503213504e-10,2.784567696513e-09,-1.5731644118863e-09,-0.00091144763777033,0.0009114485418161,-0.0011769133604166,0.0011769157563836,-0.0011769147980597,0.0011769143497951,-0.0011769134427777,0.0011769164135784,-0.0011769148804382,0.0011769150070239,-0.0010097275748149,0.0010097340932634,-0.0010097321452873,0.0010097301170968,-0.00091281140356098,0.00091281022509732,-0.00091281050244942,0.00091281092149302,5.231126410326e-11,5.2317892812522e-11,-0.0011417126181752,0.0011417128909233,-1.9075753767934e-09,2.2886605359034e-09,-0.0014364051641769,0.0014364044628034,-0.0014364038565,0.0014364058876763,-0.0014364052316821,0.0014364045302758,-0.0014364039021118,0.0014364059332198,-0.0010985219717739,0.0010985235213901,-0.0010985216631436,0.0010985232127143,0.60881578646039,125301,3014,0.0035435019699415,0.003791629609116,0.0047454553533912,24.779842682684,0.00011343874146147,0.00011343874146147,0.00011343874146147,2847703.1699211,0.012155235423574
30419200,0.9998981060543,0.014773720488892,0.0044530398616239,0.004733097035177,0.0055875835920914,-0.00085623727471161,0.00085623454075127,-1.0611605781257e-09,-1.0611534981067e-09,-5.5970490345822e-10,-1.5221120197579e-09,-0.0011078383763382,0.0011078364007164,-0.0011078383759234,0.0011078364002331,-0.0011078388902415,0.0011078362538998,-0.0011078388872223,0.0011078362508299,-0.00096509782091196,0.00096509594354766,-0.00096509815853422,0.00096509628121191,9.07880086275e-11,9.1604151229221e-10,2.7568403239867e-09,-1.5713848741203e-09,-0.00091821259873886,0.00091821347339709,-0.0011754932907491,0.0011754956736654,-0.0011754947153054,0.0011754942733644,-0.0011754933638815,0.0011754963313197,-0.0011754947884552,0.001175494931053,-0.0010173085040191,0.0010173149663769,-0.0010173130439653,0.0010173110178353,-0.00091857903076624,0.00091857782566067,-0.00091857810053441,0.00091857852176311,7.7775604743957e-11,7.7781968108384e-11,-0.0011534794109742,0.0011534797168578,-1.868637621918e-09,2.2990066143084e-09,-0.0014396812742319,0.0014396806514399,-0.0014396799724679,0.0014396820632256,-0.0014396813400978,0.001439680717272,-0.0014396800171783,0.0014396821078668,-0.0011081918679681,0.0011081934522034,-0.0011081915510645,0.0011081931352548,0.51512748248588,125301,3014,0.0035627652270048,0.0038196494648158,0.0047941827301355,26.130537171469,0.00012424429737176,0.00012424429737176,0.00012424429737176,3021734.7137623,0.012252315713021
31419200,0.99992815453622,0.014774179804348,0.0044531939226035,0.0047332488701335,0.0055877370116112,-0.0008634143127403,0.00086341044198349,-1.5037558106746e-09,-1.5037487643604e-09,-9.7090106315368e-10,-1.9681394160889e-09,-0.0011126616245198,0.0011126586467718,-0.0011126616792392,0.0011126587014224,-0.0011126622141227,0.0011126585593621,-0.0011126622655297,0.0011126586107188,-0.00097235295891556,0.00097235012873732,-0.00097235329204684,0.00097235046190965,-2.8988635581601e-10,5.4643556843943e-10,2.3175399388698e-09,-1.9118821778537e-09,-0.00092625773551086,0.00092625759294187,-0.0011810850897678,0.0011810865330539,-0.0011810865340975,0.0011810852235102,-0.0011810852324714,0.0011810872759011,-0.0011810866768192,0.001181085966392,-0.0010253226956355,0.0010253282344514,-0.0010253271390394,0.0010253243807797,-0.00092582426023949,0.00092582226537861,-0.00092582328923563,0.00092582294884116,-1.7852228300209e-10,-1.7851593346077e-10,-0.0011634517086368,0.0011634513016105,-2.0707682446427e-09,1.9928141697774e-09,-0.0014471961842319,0.0014471949881508,-0.0014471950093041,0.0014471964555974,-0.0014471963489669,0.001447195152852,-0.001447195149474,0.0014471965956976,-0.0011169920533403,0.0011169930476153,-0.0011169917282357,0.0011169927224664,0.66479676253864,125301,3014,0.0035925513979188,0.0038530244230319,0.0048355187415154,28.438637520294,0.00014270910016235,0.00014270910016235,0.00014270910016235,3079424.4907045,0.012358076545811
32419200,0.99995010765738,0.014774574872565,0.0044533260895978,0.0047333793109571,0.0055878694720106,-0.00086376408006614,0.00086376191427301,-8.3448370856611e-10,-8.3447644987609e-10,-3.3651178838409e-10,-1.3102693879049e-09,-0.0011191318858721,0.0011191303953452,-0.001119131863934,0.0011191303733378,-0.0011191323739147,0.0011191302130542,-0.0011191323500046,0.0011191301890938,-0.00097183065701456,0.00097182925910098,-0.00097183099151934,0.0009718295936489,2.7573846883137e-10,1.1124919724813e-09,2.9151255293394e-09,-1.3317659906478e-09,-0.00092481458120886,0.00092481596111484,-0.0011862465838612,0.0011862493552555,-0.001186247964719,0.0011862479610913,-0.0011862466212832,0.0011862499813122,-0.0011862480021591,0.0011862485871831,-0.0010231598275885,0.0010231666387092,-0.0010231642850128,0.0010231627685975,-0.00092526092253579,0.00092526014327231,-0.00092525999638658,0.00092526086348867,1.7176993463464e-10,1.7177651605123e-10,-0.0011579099883217,0.0011579105792101,-1.737554555754e-09,2.3522194014737e-09,-0.0014483718959264,0.0014483715041566,-0.0014483705816257,0.0014483728529818,-0.0014483719183476,0.0014483715265448,-0.0014483705837459,0.0014483728550329,-0.0011133150995215,0.0011133168681601,-0.0011133148006873,0.0011133165692812,0.7835582016357,125301,3014,0.0035940383740956,0.0038470871810174,0.0048125936995885,29.295498573718,0.00014956398858975,0.00014956398858975,0.00014956398858975,2926384.9703637,0.012330444817899
33419200,0.99996536654331,0.014774859810641,0.0044534218774092,0.0047334736181744,0.0055879643150574,-0.00086139920603796,0.00086139801214312,-4.5840487425164e-10,-4.583975169764e-10,1.2645771562712e-11,-9.3220588820589e-10,-0.0011206701788347,0.0011206695158184,-0.0011206701106175,0.0011206694475324,-0.001120670604638,0.0011206692850579,-0.0011206705349771,0.0011206692153467,-0.00096902945932127,0.00096902887708778,-0.00096902979825188,0.00096902921606165,6.0019776337849e-10,1.4226775696731e-09,3.2839462441505e-09,-1.0399177239059e-09,-0.00092094261402972,0.00092094486483294,-0.001186586225049,0.0011865897688443,-0.0011865875872917,0.0011865883007563,-0.0011865862081977,0.0011865903247077,-0.0011865875704569,0.0011865888566536,-0.0010189931567217,0.0010190007490803,-0.0010189976895908,0.0010189968054079,-0.00092236877326782,0.00092236867495897,-0.00092236788886153,0.00092236940343754,3.8278576901045e-10,3.8279245577677e-10,-0.0011504130549973,0.0011504142555823,-1.5680620122231e-09,2.6023367321786e-09,-0.0014453416918367,0.0014453417624418,-0.0014453402766061,0.0014453430653873,-0.0014453416348189,0.0014453417053912,-0.0014453402014346,0.0014453429901473,-0.0011074590192898,0.001107461280292,-0.0011074587309267,0.0011074609918838,0.80945760226261,125301,3014,0.0035842334096086,0.0038310452510324,0.0047815468893893,29.317298545141,0.00014973838836113,0.00014973838836113,0.00014973838836113,2819184.371671,0.01227289747722
34419200,0.99997691406049,0.014775055703705,0.0044534879915405,0.0047335385741772,0.0055880291379871,-0.0008642880282052,0.00086428436841245,-1.4158256514688e-09,-1.415818324575e-09,-8.9845978269978e-10,-1.8824443574259e-09,-0.0011242824792516,0.0011242796855413,-0.0011242825265204,0.0011242797327414,-0.0011242830601544,0.0011242795967239,-0.0011242831044843,0.0011242796410036,-0.00097157657709785,0.00097157393797895,-0.00097157691842731,0.0009715742793518,-2.2084315806549e-10,5.9999510368276e-10,2.3907188006739e-09,-1.8463195256817e-09,-0.00092313362206889,0.00092313365497637,-0.0011894995246088,0.0011895011230296,-0.0011895009661199,0.0011894998043866,-0.0011894996687055,0.0011895018552476,-0.0011895011102336,0.0011895005366383,-0.001020939805711,0.0010209454975388,-0.0010209442644395,0.0010209416444126,-0.00092500591527989,0.00092500406849351,-0.00092500499053179,0.00092500476668717,-1.6161164208115e-10,-1.6160498699034e-10,-0.0011508485057459,0.0011508481815014,-2.0582612297823e-09,2.014086610463e-09,-0.0014464960248501,0.0014464948700621,-0.0014464948358678,0.001446496329865,-0.0014464961756497,0.0014464950208289,-0.0014464949621836,0.0014464964561122,-0.0011086207668684,0.001108621810971,-0.0011086204436658,0.0011086214877228,0.73398852679868,125301,3014,0.0035962132716344,0.0038401336208782,0.0047833611648381,31.482590284125,0.000167060722273,0.000167060722273,0.000167060722273,2775496.2939932,0.012296064360433
35419200,0.99998597061907,0.014775191699711,0.0044535339785863,0.004733583706269,0.0055880740148556,-0.00087358373413788,0.00087357731898204,-2.4871119762893e-09,-2.4871047658919e-09,-1.9022542530413e-09,-2.9569290865226e-09,-0.0011312226538001,0.0011312174601932,-0.0011312228323572,0.0011312176386816,-0.0011312234170381,0.0011312175222346,-0.0011312235910164,0.0011312176961625,-0.00098073578874558,0.00098073084111349,-0.00098073612650063,0.00098073117891151,-1.1456376220483e-09,-3.0258427689591e-10,1.3318556680756e-09,-2.6818828778278e-09,-0.00093270860294416,0.00093270616432067,-0.0011964683172264,0.001196467673835,-0.0011964698083389,0.0011964665663373,-0.0011964686336754,0.0011964686121145,-0.0011964701248049,0.0011964675046505,-0.0010304002956297,0.0010304037534644,-0.0010304045418995,0.0010304001200257,-0.00093436826476554,0.00093436449195217,-0.00093436725812808,0.00093436516711507,-7.7337965034138e-10,-7.7337309957091e-10,-0.0011610502543537,0.001161048218495,-2.5471404724452e-09,1.2899244688253e-09,-0.0014538468136683,0.0014538443069664,-0.0014538459226916,0.0014538459037145,-0.0014538472006728,0.0014538446939381,-0.0014538462777409,0.0014538462586952,-0.0011184715773956,0.0011184712126695,-0.0011184712218492,0.0011184708570779,0.64952121200817,125301,3014,0.0036347794003926,0.0038798465846058,0.0048256435714675,35.930314298601,0.00020264251438881,0.00020264251438881,0.00020264251438881,2800723.6083346,0.012418080964303
36419200,0.99999176857739,0.014775283054356,0.0044535648288166,0.0047336140085124,0.0055881042170267,-0.0008776213924356,0.00087761836187009,-1.175423905783e-09,-1.1754167610013e-09,-6.4674571261242e-10,-1.6625685456133e-09,-0.0011330068647707,0.0011330046319822,-0.0011330068797093,0.0011330046468521,-0.0011330074171928,0.0011330044907899,-0.0011330074299584,0.0011330045035053,-0.00098488754564608,0.00098488541125617,-0.00098488788245496,0.00098488574810775,-2.4903086843169e-11,8.4350109116846e-10,2.5009104825628e-09,-1.5077667659019e-09,-0.00093737055501913,0.00093737117531147,-0.0011986713069208,0.0011986733334376,-0.0011986726448272,0.0011986720566337,-0.0011986713913272,0.0011986740325909,-0.0011986727292508,0.0011986727558207,-0.001035136829823,0.0010351427918517,-0.0010351410600016,0.0010351391601741,-0.00093862394945222,0.00093862260834059,-0.00093862297571963,0.00093862334811587,-1.1526706455265e-11,-1.1520229770771e-11,-0.0011672055980833,0.0011672056827554,-1.8015252128031e-09,2.0493560227126e-09,-0.0014573661030576,0.0014573653768803,-0.0014573649335732,0.0014573667107509,-0.0014573661972071,0.0014573654709967,-0.0014573650052826,0.0014573667823914,-0.0011239398720031,0.0011239411664326,-0.0011239395590404,0.0011239408534248,0.6811981079479,125301,3014,0.0036515370559974,0.0038991837370066,0.0048511518359422,37.480755865021,0.00021504604692017,0.00021504604692017,0.00021504604692017,2847336.4864199,0.012480423339223
37419200,0.99999519271968,0.014775334832794,0.0044535822950546,0.0047336311707816,0.0055881213669579,-0.00087741739342267,0.00087741579035317,-6.256324059771e-10,-6.2562519160926e-10,-1.1812076974157e-10,-1.1061588615031e-09,-0.001134031101563,0.0011340301214718,-0.0011340311168425,0.0011340301366825,-0.0011340316448915,0.0011340299910804,-0.0011340316580257,0.0011340300041643,-0.0009847356186841,0.00098473474093677,-0.00098473595810752,0.00098473508040302,4.2702781368477e-10,1.3177311609749e-09,2.970655741469e-09,-1.0387512349158e-09,-0.00093678086985449,0.00093678272973062,-0.0011994288113351,0.0011994319154305,-0.0011994301501212,0.0011994306388937,-0.0011994288890344,0.0011994326239309,-0.0011994302278377,0.0011994313474278,-0.0010346314452054,0.0010346384869867,-0.0010346356787302,0.0010346348572696,-0.00093820783209458,0.00093820753436131,-0.00093820684620369,0.00093820829864159,2.4523599370873e-10,2.4524253139136e-10,-0.0011658051676505,0.0011658059899726,-1.5546594388831e-09,2.3096886726259e-09,-0.001457464689443,0.0014574645764062,-0.0014574635156635,0.0014574659155426,-0.0014574647841311,0.0014574646710612,-0.0014574635878821,0.0014574659876925,-0.0011228644403292,0.0011228663444358,-0.0011228641259673,0.0011228660300286,0.6549576309095,125301,3014,0.0036506942972724,0.0038967450008608,0.0048453568068223,37.680445035711,0.00021664356028569,0.00021664356028569,0.00021664356028569,2795592.197793,0.012471252411034
38419200,0.99999716086908,0.014775368032225,0.0044535934938969,0.0047336421785341,0.0055881323597936,-0.00087666643167762,0.00087666584264274,-2.247050997958e-10,-2.2469789795699e-10,2.4481410731766e-10,-7.0925740440844e-10,-0.0011333521119211,0.0011333520109076,-0.0011333520115764,0.0011333519104943,-0.0011333525044776,0.0011333517374506,-0.0011333524034394,0.0011333516363622,-0.00098377250900903,0.00098377241887666,-0.00098377285299462,0.00098377276290511,7.9759121955787e-10,1.6480150036442e-09,3.4309323243956e-09,-7.514377106489e-10,-0.00093602735731772,0.0009360301718224,-0.0011987357634129,0.0011987397779811,-0.0011987370505526,0.0011987383230022,-0.0011987356955904,0.0011987402965621,-0.0011987369827472,0.0011987388416171,-0.0010336643639345,0.0010336722859003,-0.0010336687629598,0.0010336684879769,-0.00093749063421804,0.00093749100908268,-0.00093748973626658,0.00093749177586467,5.3823220675789e-10,5.3823872694106e-10,-0.0011649390218733,0.0011649406332326,-1.3490618468513e-09,2.686529707141e-09,-0.0014565553624891,0.0014565558593406,-0.0014565539381299,0.0014565570654231,-0.0014565552488098,0.0014565557456283,-0.0014565538086541,0.0014565569358784,-0.001122093470849,0.0011220960167403,-0.0011220931811424,0.0011220957269885,0.72891346290552,125301,3014,0.0036475834602258,0.0038936235919137,0.004841769477109,37.195865999799,0.00021276692799839,0.00021276692799839,0.00021276692799839,2815223.5639221,0.012461310754835
38880000,0.99999784816033,0.014775379885543,0.0044535974923381,0.0047336461087092,0.0055881362844957,-0.0008756274819335,0.00087562633350676,-4.4126781518879e-10,-4.4126049058902e-10,3.308614509392e-11,-9.2478119170174e-10,-0.0011344437836994,0.0011344431771191,-0.0011344437010945,0.0011344430943951,-0.001134444201599,0.001134442928308,-0.0011344441180821,0.0011344428447368,-0.00098271752446173,0.0009827169459194,-0.00098271788283241,0.00098271730445413,6.1211480922421e-10,1.4515858615134e-09,3.2476127995792e-09,-9.552633036593e-10,-0.00093421943146765,0.00093422174181223,-0.0011992627608644,0.0011992663278767,-0.0011992640714366,0.0011992648846039,-0.0011992627247123,0.0011992668734455,-0.0011992640352732,0.0011992654302491,-0.0010318847381294,0.001031892240694,-0.001031889172321,0.0010318884374508,-0.00093604665631475,0.00093604660059325,-0.00093604578802431,0.00093604737836654,4.0974225991992e-10,4.0974945872942e-10,-0.0011613426674549,0.0011613439357333,-1.4837003460464e-09,2.5683321953321e-09,-0.0014555553167748,0.0014555555000764,-0.0014555539181266,0.0014555567422007,-0.0014555552370345,0.0014555554203055,-0.0014555538213496,0.0014555566453904,-0.0011191160098252,0.0011191182698065,-0.0011191156974914,0.0011191179574353,0.7453747694247,125301,3014,0.0036432745141897,0.0038861330449715,0.0048268780951152,37.193643275226,0.00021274914620181,0.00021274914620181,0.00021274914620181,2747852.0258137,0.012434317397119
