time,ASR_ext,ASR_strain,ASR_strain_xx,ASR_strain_yy,ASR_strain_zz,disp_x_101,disp_x_102,disp_x_103,disp_x_104,disp_x_105,disp_x_106,disp_x_p1_neg,disp_x_p1_pos,disp_x_p2_neg,disp_x_p2_pos,disp_x_p3_neg,disp_x_p3_pos,disp_x_p4_neg,disp_x_p4_pos,disp_x_p5_neg,disp_x_p5_pos,disp_x_p6_neg,disp_x_p6_pos,disp_y_101,disp_y_102,disp_y_103,disp_y_104,disp_y_105,disp_y_106,disp_y_p1_neg,disp_y_p1_pos,disp_y_p2_neg,disp_y_p2_pos,disp_y_p3_neg,disp_y_p3_pos,disp_y_p4_neg,disp_y_p4_pos,disp_y_p5_neg,disp_y_p5_pos,disp_y_p6_neg,disp_y_p6_pos,disp_y_p7_neg,disp_y_p7_pos,disp_y_p8_neg,disp_y_p8_pos,disp_z_101,disp_z_102,disp_z_103,disp_z_104,disp_z_105,disp_z_106,disp_z_p1_neg,disp_z_p1_pos,disp_z_p2_neg,disp_z_p2_pos,disp_z_p3_neg,disp_z_p3_pos,disp_z_p4_neg,disp_z_p4_pos,disp_z_p5_neg,disp_z_p5_pos,disp_z_p6_neg,disp_z_p6_pos,humidity,ndof,nelem,strain_xx,strain_yy,strain_zz,temp,thermal_strain_xx,thermal_strain_yy,thermal_strain_zz,vonmises,vstrain
2419200,0,0,0,0,0,0,0,0,0,0,0,0,0,0,0,0,0,0,0,0,0,0,0,0,0,0,0,0,0,0,0,0,0,0,0,0,0,0,0,0,0,0,0,0,0,0,0,0,0,0,0,0,0,0,0,0,0,0,0,0,0,0,0,0,0,0,0,0,0,0,0,0,0,0,0
3419200,0.15985862435789,0.002756943553905,0.00091898118463501,0.00091898118463501,0.00091898118463501,-0.00024065822290062,0.000240658214901,-2.7019641406737e-12,-2.7019868238043e-12,-2.4775700288481e-12,-2.8006951796553e-12,-0.00024839803085352,0.00024839802473404,-0.0002483980312859,0.00024839802516641,-0.00024839803169798,0.00024839802539723,-0.00024839803212809,0.00024839802582732,-0.00024650839590792,0.00024650838977794,-0.00024650839608985,0.00024650838995983,-2.2145998303586e-12,-1.9962693930977e-12,-2.721216215105e-12,-1.6191031854727e-12,-0.00024740736865599,0.00024740736216025,-0.0002547466334916,0.00025474662803357,-0.00025474663355194,0.00025474662884147,-0.00025474663434596,0.0002547466290747,-0.0002547466344063,0.0002547466298826,-0.00025193795665682,0.0002519379508104,-0.00025193795577422,0.00025193795208113,-0.00024699988628599,0.00024699988167266,-0.00024699988626619,0.00024699988211663,-1.2715013256249e-12,-1.2714785910254e-12,-0.00026043528224099,0.00026043527843017,-7.1029224223603e-13,-1.8244496760795e-12,-0.00026679973221985,0.00026679972968339,-0.00026679973344943,0.00026679973016627,-0.00026679973326232,0.00026679973072588,-0.00026679973447182,0.00026679973118867,-0.00025718376677268,0.00025718376357027,-0.00025718376640996,0.0002571837632075,0.78394350386653,134343,3014,0.0010022430677751,0.0010303326131588,0.0010845539770715,31.882667635975,0.0001702613410878,0.0001702613410878,0.0001702613410878,2044552.3901532,0.0031219963659929
4419200,0.35009544649025,0.0058600187919808,0.0018564928846592,0.0019265222105777,0.002077003696744,-0.00044591429438279,0.00044591428033211,-5.3670991858628e-12,-5.3671860949725e-12,-4.8071151606375e-12,-5.2101773400116e-12,-0.0004763614533734,0.00047636144117262,-0.00047636145507365,0.00047636144287284,-0.00047636145570357,0.0004763614433036,-0.00047636145739223,0.0004763614449922,-0.00047479528015461,0.00047479526876577,-0.00047479528133755,0.00047479526994853,-4.5317462415408e-12,-4.4957087373091e-12,-6.1891437099154e-12,-3.6689667495687e-12,-0.00047331120969612,0.00047331119683176,-0.00050470383850139,0.00050470382639278,-0.00050470383949045,0.00050470382911515,-0.00050470384118511,0.00050470382917872,-0.00050470384217417,0.00050470383190108,-0.00049687906823231,0.00049687905547241,-0.00049687906709665,0.00049687905925669,-0.00047077878356329,0.00047077877462425,-0.00047077878403336,0.0004707787752455,-3.5303600469827e-12,-3.5302720790819e-12,-0.00053513123749576,0.00053513122803769,-2.2326738374645e-12,-4.8235550187052e-12,-0.00056880013860646,0.00056880013145923,-0.00056880014296174,0.00056880013406777,-0.00056880014237583,0.00056880013522864,-0.00056880014665794,0.00056880013776404,-0.00051816067098822,0.00051816066261436,-0.00051816066894561,0.00051816066057156,0.77879287408786,134343,3014,0.0018563240379842,0.0019702098607902,0.0022271760194069,33.607450479952,0.00018405960383961,0.00018405960383961,0.00018405960383961,3547846.0775567,0.006072103535515
5419200,0.54955102985154,0.0089615480395325,0.0027513410088768,0.0029119166812143,0.0032982903494413,-0.0006380356069249,0.00063803560667442,6.1219182737166e-13,6.1198774537094e-13,3.6546173245376e-13,6.5220835489422e-13,-0.00070628157886911,0.00070628157901766,-0.00070628157958133,0.00070628157972976,-0.00070628157956426,0.00070628157985307,-0.00070628158026779,0.00070628158055647,-0.00070015059602169,0.00070015059719466,-0.00070015059599428,0.00070015059716684,2.2735669569463e-13,-3.209703692079e-13,-5.0877318205279e-13,7.0806053338541e-13,-0.0006890686204641,0.00068906861903489,-0.00076059755220083,0.00076059755101486,-0.00076059755256816,0.0007605975521979,-0.00076059755304328,0.00076059755143927,-0.00076059755341062,0.00076059755262231,-0.00074260538265321,0.00074260538137517,-0.00074260538117909,0.00074260538230531,-0.0006823118681295,0.00068231186831455,-0.00068231186811346,0.00068231186721613,-1.265855240756e-12,-1.2656495117468e-12,-0.00081969175441371,0.00081969175065517,-5.0507542323369e-13,-1.813228548289e-12,-0.00090355480242919,0.00090355479950659,-0.00090355480363147,0.00090355479981148,-0.00090355480292155,0.00090355479999907,-0.00090355480408666,0.00090355480026681,-0.00078302806872234,0.0007830280653334,-0.00078302806934851,0.00078302806595915,0.77316544217834,134343,3014,0.0026552552601222,0.0028671327745496,0.0034093567214444,36.279054989101,0.00020543243991281,0.00020543243991281,0.00020543243991281,4352065.9541557,0.0089718822182879
6419200,0.70578513311294,0.011177956011087,0.0033858274246771,0.0036050371694973,0.0041870914169127,-0.00076045790455181,0.00076045790394887,-7.803441021998e-14,-7.835251814906e-14,-1.7801082659732e-13,1.6909548130794e-13,-0.00087438735771807,0.00087438735742148,-0.00087438735814425,0.00087438735784744,-0.00087438735809002,0.00087438735797126,-0.00087438735851762,0.00087438735839866,-0.00084341201037451,0.00084341201054162,-0.00084341201052844,0.00084341201069492,8.4543734744639e-15,-4.1455441652949e-13,-6.5678861019115e-13,1.0351731527103e-13,-0.00082623205371344,0.00082623205252283,-0.00094487420854096,0.0009448742076538,-0.00094487420879631,0.00094487420840581,-0.00094487420902433,0.00094487420780264,-0.0009448742092797,0.00094487420855466,-0.00089842815844997,0.00089842815713397,-0.00089842815769504,0.00089842815790131,-0.00081361376160882,0.00081361376164048,-0.00081361376211684,0.00081361376131029,-7.7372268683243e-13,-7.7340457890335e-13,-0.001013350457889,0.0010133504555786,-3.382981358124e-13,-1.1461761909865e-12,-0.0011522588340723,0.0011522588324903,-0.0011522588348367,0.0011522588326991,-0.0011522588343658,0.0011522588327841,-0.0011522588351378,0.0011522588330005,-0.00095868874780053,0.00095868874579716,-0.0009586887473532,0.0009586887453492,0.72911303981005,134343,3014,0.0031641872230129,0.0034370372640623,0.0042130251796534,36.740631118939,0.00020912504895151,0.00020912504895151,0.00020912504895151,4572279.8617168,0.010873226264116
7419200,0.83148234831476,0.01288620266175,0.0038923667179088,0.0041416312382674,0.0048522047055739,-0.00085234244934619,0.00085234244812109,-1.9550167461686e-13,-1.9586210478244e-13,-3.572254840655e-13,1.6591890187967e-14,-0.0010096365537001,0.0010096365531032,-0.001009636554058,0.0010096365534609,-0.001009636554063,0.0010096365536701,-0.001009636554422,0.0010096365540289,-0.00094847349939907,0.00094847349918441,-0.00094847349951625,0.0009484734993009,-1.5181321865569e-13,-5.6045884895511e-13,-5.7328013052744e-13,-1.3661525673091e-13,-0.00092487935286261,0.00092487935117668,-0.0010880804656102,0.0010880804645625,-0.0010880804658841,0.0010880804651233,-0.0010880804661237,0.0010880804647549,-0.0010880804663977,0.0010880804653157,-0.0010089230325707,0.0010089230313106,-0.0010089230320535,0.0010089230316748,-0.00090879089085897,0.00090879089041827,-0.00090879089136929,0.00090879089012868,-7.3855320241251e-13,-7.3819333105339e-13,-0.0011497513926927,0.0011497513903776,-4.544549255375e-13,-9.3311028823885e-13,-0.0013404544381444,0.0013404544365098,-0.0013404544387252,0.0013404544367545,-0.0013404544383993,0.001340454436765,-0.0013404544389918,0.0013404544370214,-0.001082587520175,0.0010825875182883,-0.001082587519784,0.0010825875178966,0.71231368641829,134343,3014,0.003546101179349,0.0038468010627963,0.004778648484632,40.779748485954,0.00024143798788763,0.00024143798788763,0.00024143798788763,4521437.906665,0.01224641057074
8419200,0.90741172788621,0.013896314557418,0.0042025147787374,0.0044627723891216,0.005231027389559,-0.00089414580646396,0.00089414580751569,5.3131841564594e-13,5.3097698489994e-13,3.1315866851176e-13,7.33948519553e-13,-0.001084841889553,0.0010848418907432,-0.0010848418897376,0.0010848418909276,-0.0010848418896993,0.0010848418911166,-0.0010848418898859,0.001084841891303,-0.00099610881162864,0.00099610881312112,-0.00099610881177949,0.0009961088132713,4.8859347698136e-13,8.1511574215595e-14,3.2302742952788e-13,3.2500192042063e-13,-0.00096727431362647,0.0009672743140393,-0.0011641740959672,0.0011641740967317,-0.0011641740962044,0.0011641740969603,-0.0011641740962536,0.0011641740966892,-0.0011641740964908,0.0011641740969179,-0.0010570733721932,0.0010570733729319,-0.001057073372116,0.0010570733728863,-0.00095132725924075,0.00095132726018689,-0.00095132725988843,0.00095132726003136,-2.0558254312384e-13,-2.0524208293643e-13,-0.0012080404288828,0.0012080404282059,-1.4318521402529e-13,-1.7895138609917e-13,-0.0014350186043725,0.0014350186039094,-0.0014350186045209,0.0014350186040193,-0.0014350186043322,0.0014350186038693,-0.0014350186044979,0.0014350186039965,-0.0011376421045225,0.001137642104006,-0.001137642104112,0.0011376421035948,0.6984543878663,134343,3014,0.003719915939804,0.0040229535933113,0.0050202334924737,41.436353354729,0.00024669082683783,0.00024669082683783,0.00024669082683783,4248637.1596114,0.012845573564452
9419200,0.94946770977402,0.014445290471053,0.0043759188529572,0.0046392046896745,0.0054301669284214,-0.00090973413844426,0.00090973414047841,8.4778586542964e-13,8.4747661017129e-13,5.9584644435895e-13,1.0405816521213e-12,-0.0011228917864318,0.0011228917884433,-0.0011228917865012,0.0011228917885125,-0.0011228917864577,0.001122891788708,-0.0011228917865291,0.0011228917887793,-0.001013261798269,0.0010132618005015,-0.0010132617984494,0.0010132618006813,7.8100463487024e-13,3.7632873503311e-13,8.7064990775766e-13,4.1387180273214e-13,-0.00098089778522476,0.00098089778660646,-0.0012002668813285,0.0012002668830638,-0.001200266881594,0.0012002668830141,-0.0012002668814946,0.0012002668828987,-0.0012002668817601,0.0012002668828491,-0.0010726456092254,0.0010726456111441,-0.0010726456096125,0.0010726456106646,-0.0009663187854343,0.00096631878692805,-0.00096631878617436,0.00096631878686675,1.016181897517e-13,1.0192670973839e-13,-0.0012251320897081,0.0012251320899492,-6.475684525224e-14,3.6034807984881e-13,-0.0014751636104638,0.0014751636106266,-0.0014751636102862,0.0014751636107185,-0.0014751636102508,0.0014751636104139,-0.0014751636100929,0.0014751636105254,-0.0011556692522086,0.0011556692525428,-0.0011556692517873,0.0011556692521209,0.67991627713694,134343,3014,0.003784787663903,0.0040796292598388,0.0050910546722253,41.144138447631,0.00024435310758105,0.00024435310758105,0.00024435310758105,3955922.0121583,0.013040576954048
10419200,0.97050408096911,0.014728863096895,0.0044673305800105,0.0047311815522837,0.005530350964601,-0.00090897778222435,0.0009089777865625,1.5997642459475e-12,1.5995986921815e-12,1.2919811043935e-12,1.7833758867379e-12,-0.0011346144604897,0.0011346144643768,-0.0011346144603439,0.0011346144642309,-0.0011346144602497,0.0011346144643953,-0.0011346144601067,0.0011346144642522,-0.0010133303364892,0.001013330340465,-0.0010133303367186,0.0010133303406939,1.4599498298542e-12,1.0538417268145e-12,1.9074683531512e-12,8.0611935849894e-13,-0.00097822005037065,0.00097822005392943,-0.0012100291365986,0.0012100291403414,-0.0012100291368577,0.00121002913985,-0.0012100291364881,0.0012100291398868,-0.0012100291367473,0.0012100291393953,-0.0010711449624333,0.0010711449666181,-0.0010711449634805,0.0010711449655388,-0.00096552745746663,0.00096552746033921,-0.00096552745832843,0.00096552746038696,7.0982990341899e-13,7.0999513366544e-13,-0.0012217279712386,0.0012217279733154,2.1794763596697e-13,1.2939067073324e-12,-0.0014842756684449,0.0014842756699058,-0.0014842756677206,0.001484275669887,-0.0014842756678858,0.0014842756693468,-0.0014842756671869,0.0014842756693533,-0.001154486210268,0.0011544862122066,-0.0011544862098377,0.001154486211776,0.69326328333252,134343,3014,0.0037817315843448,0.004068596705257,0.0050769369448241,38.086341305835,0.00021989073044668,0.00021989073044668,0.00021989073044668,3764782.7154565,0.013012090668051
11419200,0.982662274446,0.01489042700252,0.004519953484588,0.0047838355966725,0.0055866379212593,-0.00091056372227383,0.00091056372474308,9.8379209288569e-13,9.836053927069e-13,7.0767214580759e-13,1.1676986217263e-12,-0.0011460930369854,0.0011460930393757,-0.0011460930369769,0.001146093039367,-0.001146093036949,0.0011460930395866,-0.0011460930369416,0.0011460930395791,-0.0010143593106844,0.0010143593132452,-0.001014359310902,0.0010143593134625,9.212397458034e-13,5.1520529575834e-13,1.4334400320013e-12,1.6532337879837e-13,-0.00097780285768319,0.00097780285954894,-0.0012194395773961,0.0012194395798231,-0.0012194395778391,0.0012194395794172,-0.0012194395775091,0.0012194395796035,-0.001219439577952,0.0012194395791975,-0.001070554647371,0.0010705546504513,-0.0010705546485745,0.0010705546491969,-0.00096648263064792,0.00096648263222129,-0.00096648263148117,0.00096648263224986,3.2709359575047e-13,3.2727941360327e-13,-0.0012188984546546,0.0012188984555445,-2.353106643619e-13,9.9454038217989e-13,-0.0014907241178405,0.0014907241183023,-0.0014907241172958,0.0014907241185613,-0.0014907241175347,0.0014907241179965,-0.0014907241170101,0.0014907241182757,-0.0011540482657931,0.0011540482669039,-0.0011540482653507,0.0011540482664611,0.67903392424652,134343,3014,0.0037883704506967,0.0040669266403028,0.0050652209466374,37.62592183767,0.00021620737470136,0.00021620737470136,0.00021620737470136,3578131.6415077,0.013005345289551
12419200,0.9896361693165,0.014985857994214,0.0045512892511107,0.0048150644380134,0.00561950430509,-0.00090885374012374,0.00090885374293807,1.0922945723271e-12,1.0920836081836e-12,8.1248954664912e-13,1.2682610349077e-12,-0.001149247119664,0.0011492471223462,-0.0011492471196169,0.0011492471222989,-0.0011492471195905,0.0011492471225156,-0.0011492471195445,0.0011492471224694,-0.0010126991931944,0.0010126991960074,-0.0010126991934276,0.0010126991962402,1.0165658240495e-12,6.2387454584028e-13,1.6444278488764e-12,1.7075595884436e-13,-0.00097479335834739,0.00097479336055253,-0.0012212724026834,0.0012212724054604,-0.0012212724031531,0.0012212724049446,-0.0012212724027518,0.0012212724052031,-0.0012212724032216,0.0012212724046873,-0.0010678113443629,0.0010678113479005,-0.0010678113457784,0.0010678113464555,-0.00096468953682619,0.00096468953856285,-0.00096468953767693,0.00096468953863402,4.3683441971422e-13,4.3704506033811e-13,-0.001213862692679,0.0012138626939004,-2.2717003069973e-13,1.2079021582417e-12,-0.0014904849708352,0.00149048497151,-0.0014904849701689,0.0014904849717842,-0.0014904849704756,0.0014904849711506,-0.0014904849698302,0.0014904849714456,-0.0011506766767737,0.0011506766782049,-0.0011506766763209,0.0011506766777517,0.69352050815022,134343,3014,0.0037812952490858,0.0040544658948288,0.0050443536928871,36.800418347207,0.00020960334677766,0.00020960334677766,0.00020960334677766,3476341.7141306,0.012964453382128
13419200,0.99353087774197,0.015037901179445,0.0045684536143242,0.0048321308422704,0.0056373167228507,-0.00090446084362203,0.00090446084740591,1.4122663268214e-12,1.4120440394944e-12,1.1142594160221e-12,1.5778945169939e-12,-0.0011498045744527,0.001149804577905,-0.0011498045743181,0.0011498045777701,-0.0011498045742761,0.0011498045779725,-0.0011498045741428,0.001149804577839,-0.0010077403640754,0.0010077403676288,-0.0010077403643326,0.0010077403678857,1.3081948747277e-12,9.1947067734608e-13,2.0650789854053e-12,3.6755674764021e-13,-0.00096923560778345,0.00096923561091794,-0.0012206360551717,0.0012206360587666,-0.0012206360556277,0.001220636058085,-0.0012206360551292,0.0012206360583966,-0.0012206360555852,0.001220636057715,-0.0010618962004778,0.0010618962049446,-0.0010618962021299,0.0010618962032992,-0.00095989295603364,0.00095989295838148,-0.0009598929569375,0.00095989295850954,6.9131241029217e-13,6.915342564561e-13,-0.0012063712396969,0.0012063712416948,-8.6107810641962e-14,1.5753146105141e-12,-0.0014874807608601,0.0014874807620796,-0.0014874807599883,0.0014874807623001,-0.0014874807603641,0.0014874807615838,-0.0014874807595149,0.0014874807618268,-0.0011446784818638,0.0011446784839563,-0.0011446784814069,0.0011446784834991,0.67547399841564,134343,3014,0.0037630834110273,0.0040314314147738,0.0050133121985923,34.785274792863,0.00019348219834291,0.00019348219834291,0.00019348219834291,3377140.3451477,0.012891286577772
14419200,0.99578014232998,0.015067590920874,0.0045782817888575,0.0048418842891786,0.0056474248428376,-0.00089827120867917,0.00089827121260278,1.4534460688085e-12,1.4532043997208e-12,1.151273770553e-12,1.6196398593494e-12,-0.0011452660735627,0.0011452660771425,-0.0011452660734097,0.0011452660769893,-0.0011452660733674,0.0011452660771932,-0.0011452660732155,0.0011452660770412,-0.001001724084735,0.0010017240883873,-0.001001724085002,0.0010017240886538,1.3458672053953e-12,9.5905454345378e-13,2.2183718097676e-12,2.9603933229306e-13,-0.00096242440024383,0.00096242440351565,-0.0012154623152736,0.001215462319068,-0.0012154623157828,0.0012154623182917,-0.0012154623152127,0.0012154623186797,-0.0012154623157219,0.0012154623179034,-0.0010553540163717,0.0010553540211559,-0.0010553540182503,0.0010553540192959,-0.00095381016550177,0.0009538101678673,-0.0009538101664178,0.00095381016801068,7.4935707824388e-13,7.4959836499038e-13,-0.001198379718898,0.0011983797210632,-1.3792610998143e-13,1.7464565293048e-12,-0.0014812010396924,0.0014812010409911,-0.001481201038723,0.0014812010412618,-0.0014812010391731,0.0014812010404719,-0.0014812010382266,0.0014812010407656,-0.0011375533167946,0.0011375533190922,-0.0011375533163279,0.0011375533186251,0.66541085069888,134343,3014,0.0037373945856322,0.0040031730419107,0.0049801839903074,32.633968079142,0.00017627174463313,0.00017627174463313,0.00017627174463313,3336683.5374272,0.01280309903682
15419200,0.99695082777157,0.015083961248218,0.0045837065576897,0.0048472676242426,0.0056529870662858,-0.00088481050358623,0.0008848105101815,2.3287725046573e-12,2.3271058202793e-12,1.9692627962557e-12,2.4875473747823e-12,-0.0011334191287784,0.0011334191345142,-0.0011334191283903,0.001133419134125,-0.0011334191282808,0.0011334191342827,-0.001133419127895,0.0011334191338958,-0.0009885710725326,0.00098857107821211,-0.00098857107285732,0.00098857107853357,2.1363450797881e-12,1.7450863707945e-12,3.3022204452593e-12,8.6019967148476e-13,-0.00094859443268954,0.00094859443847125,-0.0012032224994437,0.0012032225054602,-0.0012032224998901,0.0012032225042654,-0.0012032224990663,0.0012032225047381,-0.0012032224995127,0.0012032225035433,-0.0010418946816313,0.0010418946888106,-0.001041894684058,0.0010418946864848,-0.0009406261350002,0.00094062613904029,-0.00094062613603718,0.00094062613928366,1.4243697217768e-12,1.4260342003399e-12,-0.0011839628340099,0.0011839628382299,2.71201553214e-13,2.6843931259856e-12,-0.0014683482067316,0.0014683482095294,-0.0014683482052263,0.00146834820962,-0.0014683482058307,0.0014683482086296,-0.0014683482043549,0.0014683482087496,-0.0011238921001672,0.001123892104191,-0.0011238920996883,0.0011238921037088,0.70136005659902,134343,3014,0.0036815247933146,0.0039457862666712,0.0049204116269472,27.044459491783,0.00013155567593426,0.00013155567593426,0.00013155567593426,3315158.3832493,0.0126278835048
16419200,0.99770310197455,0.015094106142257,0.0045870724677433,0.0048506054302855,0.0056564282442287,-0.00087920014038241,0.00087920014469487,1.5844183912234e-12,1.5827508245193e-12,1.2684111479689e-12,1.7475255407649e-12,-0.0011318655606639,0.0011318655645396,-0.0011318655604727,0.0011318655643472,-0.0011318655604271,0.001131865564555,-0.0011318655602364,0.0011318655643632,-0.00098202946168039,0.00098202946564233,-0.00098202946197042,0.00098202946592909,1.4770540804814e-12,1.0787643239022e-12,2.6277987276078e-12,1.5312101452604e-13,-0.00094218270878403,0.00094218271245006,-0.0012008501485685,0.0012008501528541,-0.001200850149216,0.0012008501518531,-0.0012008501484723,0.0012008501524226,-0.0012008501491197,0.0012008501514216,-0.0010346938217132,0.0010346938273449,-0.0010346938241482,0.0010346938249579,-0.0009343976704631,0.00093439767295621,-0.00093439767143647,0.00093439767313298,8.9075867028701e-13,8.9242373706742e-13,-0.0011761702613634,0.0011761702639399,-2.649592586177e-13,2.1661217676434e-12,-0.0014639884898024,0.001463988491247,-0.0014639884885999,0.0014639884916472,-0.0014639884892304,0.001463988490676,-0.0014639884880508,0.0014639884910992,-0.0011170468201224,0.0011170468229269,-0.0011170468196466,0.0011170468224479,0.67694980784973,134343,3014,0.0036582513738163,0.003919199640551,0.0048881221958416,24.406321688027,0.00011045057350422,0.00011045057350422,0.00011045057350422,3239562.7808558,0.012544765993473
17419200,0.99820840888232,0.015101117814556,0.0045894036124495,0.0048529151069144,0.0056587990951923,-0.00087196989684353,0.00087196990101407,1.5318739375968e-12,1.5301214029003e-12,1.2220613727463e-12,1.6931839361577e-12,-0.0011246501066435,0.0011246501104242,-0.0011246501064598,0.0011246501102393,-0.0011246501064215,0.0011246501104492,-0.0011246501062381,0.0011246501102647,-0.00097526897495782,0.00097526897879897,-0.00097526897524752,0.00097526897908524,1.4242166179264e-12,1.0374251180365e-12,2.5797193480543e-12,1.0256083067549e-13,-0.00093470558115375,0.00093470558468713,-0.0011933787508723,0.0011933787550631,-0.0011933787515272,0.0011933787540686,-0.0011933787507866,0.0011933787546495,-0.0011933787514416,0.001193378753655,-0.0010277215827184,0.0010277215882461,-0.0010277215851552,0.0010277215858557,-0.00092754290019478,0.00092754290256892,-0.00092754290115013,0.00092754290275086,8.646373800392e-13,8.6638782656426e-13,-0.0011681240880387,0.0011681240905361,-2.9166681036739e-13,2.1413401129412e-12,-0.0014561340827908,0.0014561340841866,-0.0014561340816021,0.0014561340846017,-0.0014561340822353,0.0014561340836323,-0.0014561340810696,0.0014561340840704,-0.0011095458541587,0.0011095458569042,-0.0011095458536781,0.0011095458564201,0.69391424293965,134343,3014,0.0036282325138078,0.0038881645835509,0.0048547563144287,21.969289191536,9.0954313532286e-05,9.0954313532286e-05,9.0954313532286e-05,3230970.3810133,0.012449152131283
18419200,0.99852231991578,0.015105401716536,0.0045908286920386,0.0048543266182687,0.0056602464062287,-0.00086162134704282,0.0008616213540242,2.4605795956882e-12,2.4588592953011e-12,2.0973720149599e-12,2.6081593813447e-12,-0.0011167922576134,0.0011167922636337,-0.001116792257188,0.0011167922632072,-0.0011167922570841,0.0011167922633654,-0.0011167922566607,0.0011167922629409,-0.00096462040972196,0.0009646204157093,-0.00096462041007358,0.00096462041605755,2.266816722746e-12,1.8781294387731e-12,3.6310478975086e-12,8.0920514974255e-13,-0.00092390893500443,0.00092390894118854,-0.0011850639110338,0.0011850639174737,-0.0011850639115648,0.0011850639161137,-0.0011850639106223,0.0011850639167195,-0.0011850639111533,0.0011850639153595,-0.0010167004132459,0.0010167004211221,-0.0010167004160662,0.0010167004184454,-0.00091703954392517,0.00091703954815131,-0.00091703954501266,0.00091703954844927,1.5614919445518e-12,1.5632097156045e-12,-0.0011565766748235,0.0011565766794497,2.236254331024e-13,3.0126203635747e-12,-0.0014467683649472,0.0014467683679289,-0.0014467683632718,0.0014467683680987,-0.0014467683640015,0.0014467683669843,-0.0014467683623548,0.0014467683671828,-0.0010986719509526,0.001098671955419,-0.0010986719504574,0.0010986719549205,0.68264644531469,134343,3014,0.003585281246854,0.0038433674962121,0.0048068845547131,17.464467697784,5.4915741582276e-05,5.4915741582276e-05,5.4915741582276e-05,3192722.1550075,0.012311891307924
19419200,0.99878247367732,0.015109170817967,0.0045920831089269,0.0048555693061049,0.0056615184029351,-0.00086036117520768,0.00086036117746398,9.0007809146744e-13,8.9866922274271e-13,6.257534424854e-13,1.067566974797e-12,-0.0011158579870531,0.0011158579892982,-0.0011158579870295,0.0011158579892736,-0.0011158579870445,0.0011158579895263,-0.0011158579870199,0.0011158579895007,-0.0009634333952834,0.00096343339766919,-0.0009634333955441,0.00096343339792713,8.5969308539811e-13,4.7174168236542e-13,2.008281831273e-12,-5.0355245835642e-13,-0.00092228232776231,0.00092228232951539,-0.0011837609706169,0.0011837609733755,-0.0011837609714379,0.0011837609725358,-0.001183760970761,0.0011837609732014,-0.0011837609715821,0.0011837609723617,-0.0010152016710658,0.0010152016752843,-0.0010152016735168,0.0010152016728355,-0.0009158527106315,0.00091585271168204,-0.00091585271152452,0.00091585271180814,4.2062312084062e-13,4.2202978375039e-13,-0.0011540932557212,0.0011540932568542,-7.4246593582237e-13,1.7136728396475e-12,-0.001444663465229,0.0014446634655202,-0.0014446634642855,0.0014446634661918,-0.0014446634649438,0.0014446634652359,-0.0014446634640186,0.0014446634659259,-0.0010967207486669,0.0010967207503995,-0.0010967207481844,0.0010967207499142,0.7215588405441,134343,3014,0.0035800461941761,0.0038366157518431,0.0047965894603519,17.551745954435,5.5613967635483e-05,5.5613967635483e-05,5.5613967635483e-05,3169158.305914,0.012289331783075
20419200,0.99900891434351,0.015112488678965,0.0045931881690687,0.0048566636673262,0.0056626368425702,-0.00086279018988129,0.00086279019113936,5.7351742061295e-13,5.7209275825305e-13,3.2779857421386e-13,7.2806130234462e-13,-0.0011212129438773,0.0011212129453177,-0.0011212129439383,0.0011212129453778,-0.0011212129439893,0.0011212129456445,-0.0011212129440494,0.0011212129457036,-0.00096482365743135,0.00096482365905671,-0.00096482365767052,0.00096482365929309,5.5892726294588e-13,1.9297011960119e-13,1.4807375075922e-12,-5.7687400634707e-13,-0.00092398884982656,0.00092398885065912,-0.0011884033214679,0.0011884033233148,-0.0011884033222276,0.0011884033227155,-0.0011884033217261,0.0011884033232747,-0.0011884033224858,0.0011884033226755,-0.0010159756791435,0.0010159756822373,-0.0010159756811388,0.0010159756802222,-0.00091752435416809,0.00091752435467342,-0.00091752435500556,0.00091752435479218,1.4922382366756e-13,1.506390451394e-13,-0.0011543733508418,0.0011543733511791,-7.9002835047031e-13,1.2133554034135e-12,-0.001447420408059,0.001447420407839,-0.0014474204073968,0.0014474204084905,-0.0014474204079132,0.0014474204076941,-0.0014474204072666,0.0014474204083612,-0.0010976042242498,0.0010976042252188,-0.0010976042237811,0.0010976042247473,0.72908277580476,134343,3014,0.0035901388538015,0.0038437150962939,0.0047977744750615,18.60044714623,6.4003577169844e-05,6.4003577169844e-05,6.4003577169844e-05,3100964.0744297,0.012307991119946
21419200,0.99916284997574,0.015114684992965,0.004593921430582,0.0048573888511502,0.0056633747112332,-0.00085431151386309,0.00085431151970314,2.0863723509921e-12,2.0849636881434e-12,1.7398586720413e-12,2.2389411018862e-12,-0.0011141450010756,0.0011141450061511,-0.0011141450007478,0.0011141450058224,-0.0011141450006771,0.0011141450060121,-0.0011141450003501,0.0011141450056842,-0.00095644553919206,0.00095644554432346,-0.00095644553952733,0.00095644554465597,1.9412175555777e-12,1.5400666652558e-12,3.3631773316896e-12,3.87626644313e-13,-0.00091514442965591,0.00091514443478948,-0.0011809959929356,0.0011809959985522,-0.0011809959936105,0.0011809959972424,-0.0011809959926723,0.0011809959979455,-0.0011809959933472,0.0011809959966357,-0.0010072835770974,0.0010072835843378,-0.0010072835800572,0.0010072835814959,-0.00090919308490049,0.00090919308832065,-0.00090919308597108,0.00090919308858262,1.3041941577637e-12,1.3055982031064e-12,-0.0011447724575867,0.001144772461423,-1.0185768243537e-13,2.8318606062494e-12,-0.0014392093017174,0.0014392093039933,-0.0014392093001508,0.0014392093043653,-0.0014392093009399,0.0014392093032167,-0.0014392092993983,0.0014392093036138,-0.0010886964742429,0.0010886964781692,-0.0010886964737486,0.0010886964776722,0.70949067210746,134343,3014,0.0035549453306063,0.0038070142212045,0.0047579673058627,15.215521520802,3.6924172166413e-05,3.6924172166413e-05,3.6924172166413e-05,3073833.1333496,0.012194934452904
22419200,0.99929035509441,0.015116523527788,0.0045945356387076,0.0048579961719242,0.0056639917171564,-0.00085200224780558,0.00085200225054288,1.05860757203e-12,1.0572094382715e-12,7.6830110245812e-13,1.2256702624972e-12,-0.0011117030786245,0.0011117030812393,-0.0011117030785579,0.0011117030811718,-0.0011117030785637,0.0011117030814236,-0.001111703078496,0.001111703081355,-0.00095441927692367,0.0009544192796831,-0.00095441927719818,0.00095441927995489,1.011310839164e-12,6.1175989387576e-13,2.2981051184551e-12,-4.847839740461e-13,-0.00091257992242119,0.00091257992463981,-0.0011783016828786,0.0011783016860951,-0.0011783016837451,0.0011783016851206,-0.0011783016829761,0.001178301685865,-0.0011783016838426,0.0011783016848905,-0.0010050415270102,0.0010050415318479,-0.0010050415297369,0.0010050415291436,-0.00090712307848286,0.00090712307980044,-0.00090712307942242,0.0009071230799481,5.5478258118473e-13,5.5618665593827e-13,-0.0011415389299662,0.0011415389315083,-7.4243230449684e-13,1.9841645468998e-12,-0.0014359833132248,0.0014359833137456,-0.0014359833121302,0.0014359833144462,-0.0014359833128758,0.0014359833133975,-0.0014359833118,0.0014359833141169,-0.0010859538992798,0.0010859539014129,-0.0010859538987937,0.001085953900924,0.71602859694025,134343,3014,0.003545353882664,0.0037963671380889,0.0047445568512515,14.85786005564,3.406288044512e-05,3.406288044512e-05,3.406288044512e-05,3061386.0368744,0.012160861145317
23419200,0.99940360552452,0.01511812856709,0.0045950721863743,0.0048585264939419,0.0056645298867741,-0.00085312369527436,0.00085312369676254,6.4579812425177e-13,6.4436205047578e-13,3.8984866392033e-13,8.0479217885725e-13,-0.0011138353600518,0.0011138353616756,-0.0011138353600902,0.001113835361713,-0.0011138353601359,0.0011138353619828,-0.001113835360173,0.0011138353620189,-0.00095522959565687,0.00095522959745663,-0.00095522959590762,0.00095522959770456,6.3007697435208e-13,2.5408928370268e-13,1.7059253539014e-12,-6.6281687458994e-13,-0.00091326137275159,0.00091326137380556,-0.0011800065548715,0.0011800065570043,-0.001180006555708,0.0011800065562774,-0.0011800065551085,0.0011800065569354,-0.0011800065559451,0.0011800065562085,-0.0010054738811935,0.0010054738847525,-0.0010054738835008,0.001005473882439,-0.00090802024824309,0.0009080202488141,-0.00090802024911129,0.0009080202489427,2.309204455389e-13,2.3235504877158e-13,-0.0011412251666122,0.0011412251671883,-8.5971066289997e-13,1.4516332418362e-12,-0.0014366011503546,0.0014366011502306,-0.0014366011495605,0.0014366011509543,-0.0014366011501787,0.0014366011500556,-0.0014366011494006,0.0014366011507953,-0.0010861095993925,0.0010861096006503,-0.0010861095989117,0.0010861096001666,0.70402580109908,134343,3014,0.0035500102792667,0.0037992005194627,0.0047432657171224,15.708253207714,4.0866025661708e-05,4.0866025661708e-05,4.0866025661708e-05,3026675.7819114,0.012167150117085
24419200,0.99951053232538,0.015119671687683,0.0045955884414937,0.0048590366159975,0.0056650466301918,-0.00085668859786344,0.0008566885979713,1.8813928188585e-13,1.866470039445e-13,-1.6813118723705e-14,3.2739121901123e-13,-0.0011173370275504,0.0011173370280918,-0.0011173370277034,0.0011173370282439,-0.0011173370278005,0.0011173370285252,-0.0011173370279534,0.001117337028677,-0.00095875526337196,0.00095875526409934,-0.00095875526359889,0.00095875526432334,1.9607408199234e-13,-1.2822202775801e-13,6.7335255454167e-13,-4.8359749943501e-13,-0.00091647932010212,0.00091647931986854,-0.0011831645331222,0.0011831645338073,-0.0011831645336837,0.0011831645336049,-0.0011831645335037,0.0011831645339232,-0.0011831645340653,0.0011831645337208,-0.0010087046017191,0.0010087046031298,-0.0010087046028324,0.0010087046019984,-0.00091155754559325,0.000911557545562,-0.00091155754635564,0.00091155754569334,-1.7051793785287e-13,-1.6903139503044e-13,-0.0011435413723015,0.0011435413717214,-6.6754360700103e-13,4.410358354815e-13,-0.0014389259134704,0.0014389259128012,-0.0014389259132545,0.0014389259133044,-0.0014389259134857,0.0014389259128175,-0.0014389259132827,0.0014389259133336,-0.0010888406091411,0.0010888406090959,-0.0010888406086613,0.0010888406086132,0.71547577169653,134343,3014,0.0035648050885972,0.0038125549468935,0.0047528743220376,17.888107070727,5.8304856565814e-05,5.8304856565814e-05,5.8304856565814e-05,3004106.5122269,0.012205359963975
25419200,0.99960800790086,0.015121151592278,0.0045960835824622,0.0048595259796565,0.0056655420301593,-0.00086063994005583,0.00086063994030069,2.3385262066884e-13,2.3231922633652e-13,2.3777626551007e-14,3.7273915719225e-13,-0.0011223675899453,0.0011223675905927,-0.0011223675900866,0.0011223675907329,-0.0011223675901804,0.0011223675910136,-0.0011223675903217,0.0011223675911538,-0.00096223925263598,0.00096223925347046,-0.00096223925286429,0.00096223925369577,2.3883095255711e-13,-8.8983586759564e-14,6.6241005748553e-13,-3.852353707138e-13,-0.00091994925019645,0.0009199492500932,-0.0011877325111788,0.0011877325119327,-0.0011877325116945,0.0011877325117545,-0.0011877325115468,0.0011877325120321,-0.0011877325120625,0.001187732511854,-0.001011772093101,0.0010117720945035,-0.0010117720941093,0.0010117720934822,-0.00091515276883361,0.00091515276893847,-0.00091515276960696,0.00091515276907323,-1.452473569106e-13,-1.4371652132363e-13,-0.0011459072749522,0.001145907274459,-5.9022368965966e-13,4.114493275643e-13,-0.0014422691545701,0.0014422691540008,-0.0014422691543712,0.0014422691544509,-0.001442269154566,0.0014422691539978,-0.0014422691543803,0.001442269154461,-0.0010916338752089,0.0010916338751894,-0.0010916338747324,0.0010916338747098,0.75063327654534,134343,3014,0.0035812095464205,0.0038269626438734,0.0047626982084284,19.932713683095,7.4661709464761e-05,7.4661709464761e-05,7.4661709464761e-05,2964420.8906838,0.01224651156141
26419200,0.99968790757223,0.015122392922631,0.0045964993287752,0.0048599366945807,0.0056659568992748,-0.00086151430185737,0.00086151430386113,8.1691133803702e-13,8.1539191386615e-13,5.7100782080891e-13,9.4797461355568e-13,-0.0011252877419466,0.0011252877439839,-0.0011252877419394,0.0011252877439757,-0.0011252877419908,0.0011252877442248,-0.0011252877419846,0.0011252877442176,-0.00096250371241848,0.00096250371460098,-0.0009625037126807,0.00096250371486023,7.6910595096051e-13,4.3537192762764e-13,1.2941912983626e-12,8.5516308089257e-14,-0.00092026423576864,0.00092026423732264,-0.0011901444230617,0.0011901444251952,-0.0011901444234851,0.0011901444248095,-0.0011901444232297,0.0011901444250826,-0.001190144423653,0.0011901444246969,-0.0010115423999208,0.00101154240274,-0.0010115424011112,0.0010115424015891,-0.00091557357140552,0.00091557357269313,-0.00091557357226295,0.0009155735728925,2.8694588105913e-13,2.8846127594132e-13,-0.0011450173600227,0.00114501736085,-2.4459052792727e-13,9.2535683392509e-13,-0.0014432688919956,0.0014432688924175,-0.0014432688915132,0.0014432688926989,-0.0014432688917498,0.0014432688921727,-0.001443268891284,0.0014432688924707,-0.001091259781504,0.0010912597825346,-0.0010912597810252,0.0010912597820528,0.76690380774562,134343,3014,0.0035848465479525,0.003828283221072,0.0047590273144974,20.39538201227,7.8363056098162e-05,7.8363056098162e-05,7.8363056098162e-05,2914594.4051678,0.012247852363584
27419200,0.99975760061822,0.015123434351724,0.0045968487977666,0.0048602815378366,0.0056663040161204,-0.00086468711892993,0.00086468711987084,4.6563015767125e-13,4.635976609391e-13,2.3505865735466e-13,6.0281851077888e-13,-0.0011294283780366,0.0011294283792307,-0.0011294283781193,0.001129428379312,-0.0011294283781952,0.0011294283795844,-0.0011294283782783,0.0011294283796662,-0.00096546945303839,0.00096546945441168,-0.00096546945328009,0.00096546945464941,4.5319268340822e-13,1.1415779380776e-13,9.5197596236502e-13,-2.3468622784288e-13,-0.00092289994705838,0.00092289994761408,-0.0011938160751794,0.001193816076508,-0.0011938160756831,0.001193816076223,-0.0011938160754733,0.001193816076523,-0.001193816075977,0.001193816076238,-0.0010140365797755,0.0010140365818143,-0.0010140365809291,0.0010140365806671,-0.0009185884702466,0.00091858847080472,-0.00091858847106913,0.00091858847096334,2.9847499944071e-14,3.1877261465661e-14,-0.0011463326626403,0.0011463326626812,-4.8576483668827e-13,6.5689360882175e-13,-0.0014456448226055,0.0014456448224101,-0.00144564482227,0.0014456448228183,-0.0014456448225058,0.0014456448223117,-0.0014456448221847,0.0014456448227343,-0.001093216632754,0.0010932166331852,-0.0010932166322786,0.0010932166327058,0.7378711504065,134343,3014,0.0035980203459316,0.0038392299141588,0.0047644942339107,22.257776690463,9.3262213523701e-05,9.3262213523701e-05,9.3262213523701e-05,2872369.8524563,0.012277810786163
28419200,0.9998148711429,0.015124336514977,0.0045971516627588,0.0048605804190113,0.0056666044332066,-0.00086590850044262,0.00086590850189473,6.3246891380295e-13,6.3006948710378e-13,3.9323750157014e-13,7.6959712168915e-13,-0.0011299543299382,0.0011299543315412,-0.0011299543299774,0.0011299543315788,-0.0011299543300405,0.0011299543318419,-0.0011299543300802,0.00112995433188,-0.00096696998350767,0.00096696998526703,-0.00096696998376123,0.00096696998551589,6.0307283562949e-13,2.6469852393591e-13,1.1377443038138e-12,-1.0926980089913e-13,-0.000923927449951,0.0009239274509835,-0.0011941415273322,0.0011941415290656,-0.0011941415278123,0.0011941415287147,-0.0011941415275663,0.0011941415290184,-0.0011941415280464,0.0011941415286676,-0.0010153829547466,0.0010153829572015,-0.001015382955967,0.0010153829560038,-0.0009200363734565,0.00092003637434463,-0.00092003637429715,0.00092003637452034,1.5724199048277e-13,1.5963679967594e-13,-0.0011467436297924,0.001146743630223,-3.8979853309885e-13,8.1520533133083e-13,-0.0014455258517482,0.0014455258518464,-0.0014455258513264,0.0014455258522106,-0.0014455258515792,0.001445525851679,-0.001445525851173,0.0014455258520587,-0.0010940128607782,0.0010940128615239,-0.0010940128602958,0.0010940128610368,0.7751903865439,134343,3014,0.0036030841022772,0.0038434888648943,0.0047661945405756,23.444957328552,0.00010275965862841,0.00010275965862841,0.00010275965862841,2866545.3540679,0.012288945090682
29419200,0.99986140508843,0.015124984844753,0.0045973697536724,0.0048607952884517,0.0056668198026291,-0.00086882719968035,0.00086882720101175,5.9692397026481e-13,5.8926876294967e-13,3.5901769402059e-13,7.25670110688e-13,-0.0011347765442343,0.0011347765457389,-0.0011347765442857,0.0011347765457852,-0.0011347765443538,0.0011347765460512,-0.0011347765444056,0.001134776546098,-0.0009692124663885,0.00096921246806324,-0.00096921246664408,0.00096921246830383,5.6744061438366e-13,2.3450272764676e-13,1.1177872990565e-12,-1.5511029230621e-13,-0.00092628560119217,0.00092628560211864,-0.0011984675269203,0.0011984675285694,-0.0011984675274193,0.0011984675282211,-0.0011984675271688,0.0011984675285412,-0.0011984675276678,0.0011984675281929,-0.0010171221953075,0.0010171221977145,-0.0010171221965513,0.0010171221964892,-0.00092241668569348,0.00092241668649188,-0.00092241668652984,0.0009224166866747,1.2707958839404e-13,1.3472579598412e-13,-0.0011478518675504,0.0011478518678968,-4.293195610527e-13,8.0049428074332e-13,-0.0014484311000951,0.0014484311001096,-0.001448431099681,0.0014484311004975,-0.0014484310999409,0.0014484310999605,-0.0014484310995419,0.0014484311003635,-0.0010955424955111,0.0010955424962074,-0.0010955424950388,0.0010955424957201,0.68887395937304,134343,3014,0.0036152065300871,0.0038532888202366,0.0047708118099706,24.784378675777,0.00011347502940622,0.00011347502940622,0.00011347502940622,2817276.2174374,0.012315850210421
30419200,0.99989841964066,0.015125491755825,0.004597540529892,0.0048609634008458,0.0056669878250869,-0.00086955480367467,0.00086955480499628,5.883403207247e-13,5.8074222931177e-13,3.5093755851025e-13,7.2653743713295e-13,-0.0011322388499081,0.0011322388514195,-0.0011322388499585,0.0011322388514649,-0.0011322388500232,0.0011322388517327,-0.001132238850074,0.0011322388517784,-0.00097089538132594,0.00097089538298306,-0.00097089538158703,0.00097089538322927,5.5908343929842e-13,2.2355688740231e-13,1.1131082903426e-12,-1.7691842223975e-13,-0.00092727824031338,0.0009272782412182,-0.0011960812698593,0.0011960812715128,-0.0011960812703616,0.0011960812711568,-0.0011960812701066,0.0011960812714808,-0.0011960812706089,0.0011960812711249,-0.0010190784504105,0.0010190784528038,-0.0010190784516747,0.0010190784515649,-0.00092392546745509,0.00092392546822725,-0.00092392546828651,0.00092392546839993,1.2817811365838e-13,1.3576711711365e-13,-0.001149132311914,0.0011491323122611,-4.3636765456181e-13,8.1047926982641e-13,-0.0014467205447164,0.0014467205447443,-0.0014467205442974,0.0014467205451387,-0.0014467205445641,0.0014467205445971,-0.0014467205441606,0.0014467205450069,-0.0010968729384698,0.0010968729391724,-0.0010968729379818,0.0010968729386695,0.676617232537,134343,3014,0.0036182071726391,0.0038573842307637,0.0047760946111928,26.135132273501,0.000124281058188,0.000124281058188,0.000124281058188,2860728.8705082,0.01232830710742
31419200,0.99992838560086,0.015125933270393,0.0045976889317376,0.0048611097211743,0.0056671346174816,-0.00087387388956206,0.00087387389012586,3.3827190131973e-13,3.3028217481216e-13,1.2134786643539e-13,4.7405854724855e-13,-0.0011363156303848,0.0011363156312965,-0.0011363156304995,0.0011363156314059,-0.0011363156305869,0.0011363156316852,-0.0011363156307017,0.0011363156317947,-0.00097507658953739,0.00097507659061335,-0.0009750765897874,0.00097507659084772,3.2920837921801e-13,5.3316937380632e-15,8.1213040964257e-13,-3.4489853191725e-13,-0.00093136411806921,0.00093136411826501,-0.0011999071702095,0.0011999071712451,-0.0011999071707314,0.001199907171,-0.001199907170542,0.0011999071713097,-0.0011999071710638,0.0011999071710646,-0.0010230677721642,0.0010230677738945,-0.0010230677732909,0.0010230677727776,-0.00092814358805182,0.00092814358833383,-0.00092814358884324,0.00092814358849314,-6.0253923989865e-14,-5.2273608959481e-14,-0.0011525803988639,0.0011525803986398,-5.5608571784539e-13,5.5514648183252e-13,-0.0014499264049653,0.0014499264045808,-0.0014499264046909,0.0014499264050283,-0.0014499264049187,0.0014499264045394,-0.0014499264046579,0.0014499264050006,-0.0011005294719017,0.0011005294721282,-0.0011005294714123,0.0011005294716231,0.72613574125638,134343,3014,0.0036361316102452,0.0038743392847079,0.0047903958916378,28.446526292823,0.00014277221034259,0.00014277221034259,0.00014277221034259,2847473.7059833,0.012378091245372
32419200,0.99995027079194,0.015126272334406,0.0045978028772761,0.0048612220987743,0.0056672473583559,-0.0008764489108931,0.00087644891258687,7.1435494165277e-13,7.0638768504699e-13,4.7062916671966e-13,8.4370034318071e-13,-0.0011417914652483,0.001141791467046,-0.0011417914652673,0.0011417914670598,-0.0011417914653277,0.0011417914673208,-0.0011417914653475,0.0011417914673353,-0.00097657691153053,0.00097657691347747,-0.00097657691179804,0.00097657691372938,6.7338293625369e-13,3.4135548175082e-13,1.2213881056303e-12,-3.902008404318e-14,-0.00093333134520322,0.00093333134646876,-0.0012048434437979,0.0012048434457204,-0.0012048434442608,0.0012048434453422,-0.0012048434440043,0.0012048434456487,-0.0012048434444672,0.0012048434452704,-0.0010240136018176,0.0010240136044645,-0.0010240136030584,0.0010240136032616,-0.00092985846545847,0.00092985846650917,-0.00092985846630956,0.00092985846670699,2.1529548169435e-13,2.232555326379e-13,-0.001153322124962,0.0011533221255829,-3.3668375865993e-13,8.8287867572131e-13,-0.0014532817505765,0.0014532817508199,-0.0014532817501182,0.0014532817511576,-0.0014532817503726,0.0014532817506213,-0.0014532817499301,0.0014532817509748,-0.0011015753943599,0.0011015753952571,-0.00110157539388,0.0011015753947616,0.76212037556426,134343,3014,0.0036468301134319,0.0038825208153584,0.0047934995437409,29.298458796343,0.00014958767037074,0.00014958767037074,0.00014958767037074,2786818.7271865,0.012400410359734
33419200,0.99996547984087,0.015126510931022,0.0045978831861282,0.0048613012470445,0.0056673264978493,-0.00087619691315615,0.00087619691549901,9.301763778678e-13,9.2219194531615e-13,6.7050404597341e-13,1.0578939173611e-12,-0.0011432397368539,0.0011432397391559,-0.0011432397368191,0.0011432397391159,-0.0011432397368631,0.0011432397393673,-0.0011432397368293,0.0011432397393282,-0.00097596190215977,0.00097596190460788,-0.00097596190243941,0.00097596190487188,8.72492318184e-13,5.3283976071401e-13,1.5012119666703e-12,9.0554955690065e-14,-0.00093259886692295,0.00093259886880215,-0.0012058923542944,0.0012058923567519,-0.0012058923547533,0.0012058923562679,-0.0012058923544308,0.0012058923566024,-0.0012058923548897,0.0012058923561184,-0.0010229625339855,0.0010229625372464,-0.0010229625353816,0.0010229625359053,-0.00092931824011004,0.00092931824157506,-0.00092931824100007,0.00092931824179392,3.8044852461755e-13,3.8842319276162e-13,-0.0011514965110372,0.0011514965121591,-2.4727038723587e-13,1.1238269619754e-12,-0.0014531641814823,0.0014531641820667,-0.0014531641808917,0.0014531641823737,-0.0014531641811913,0.001453164181781,-0.0014531641806176,0.0014531641821049,-0.0011002486833227,0.00110024868465,-0.0011002486828425,0.0011002486841542,0.77026309110691,134343,3014,0.0036457901242866,0.003879492256269,0.0047859465962097,29.317385105082,0.00014973908084065,0.00014973908084065,0.00014973908084065,2744773.5504513,0.012388672549411
34419200,0.99997699292679,0.015126684790464,0.004597941800424,0.0048613589587161,0.005667384031324,-0.00088007640024911,0.00088007640091497,3.7500230864277e-13,3.6713328433017e-13,1.4556508249841e-13,5.0904206676134e-13,-0.0011475531711775,0.0011475531721579,-0.0011475531712835,0.0011475531722586,-0.0011475531713684,0.0011475531725422,-0.0011475531714744,0.001147553172643,-0.00097974716460284,0.00097974716576869,-0.0009797471648506,0.00097974716600105,3.6928911277257e-13,3.1347468826933e-14,9.0885571026574e-13,-3.6334191681286e-13,-0.00093605505052063,0.00093605505082372,-0.0012098437036768,0.0012098437048326,-0.0012098437042283,0.001209843704541,-0.0012098437040061,0.0012098437048851,-0.0012098437045576,0.0012098437045935,-0.0010263771342404,0.0010263771361696,-0.0010263771354787,0.0010263771349384,-0.00093310714866162,0.0009331071489998,-0.00093310714948512,0.00093310714916287,-3.0911790960123e-14,-2.3051854605195e-14,-0.0011538385096261,0.0011538385094925,-5.8368703640876e-13,6.4200250491122e-13,-0.0014560903836791,0.0014560903833167,-0.0014560903833523,0.001456090383788,-0.0014560903836168,0.0014560903832596,-0.0014560903833036,0.0014560903837445,-0.0011031017752459,0.001103101775579,-0.0011031017747684,0.001103101775086,0.74167726424856,134343,3014,0.0036618937473831,0.0038938397595437,0.0047956672574219,31.490036572044,0.00016712029257635,0.00016712029257635,0.00016712029257635,2713566.3957711,0.012429341204167
35419200,0.99998602338557,0.015126816474072,0.0045979862553129,0.0048614026929379,0.0056674275258212,-0.00088868949875787,0.00088868949759033,-2.3204008780518e-13,-2.3985549610865e-13,-4.2172282253961e-13,-9.3742371529015e-14,-0.0011551602504959,0.0011551602500336,-0.0011551602507558,0.0011551602502883,-0.0011551602508877,0.0011551602506036,-0.001155160251147,0.0011551602508576,-0.00098835765223107,0.00098835765199143,-0.0009883576524486,0.00098835765219366,-1.8400220719929e-13,-5.1112279363774e-13,1.5628104143837e-13,-7.5547018302535e-13,-0.00094442962608593,0.00094442962466477,-0.0012171938696143,0.0012171938692744,-0.0012171938701998,0.0012171938692628,-0.0012171938701509,0.0012171938695501,-0.0012171938707364,0.0012171938695385,-0.0010348000727681,0.0010348000730375,-0.0010348000736343,0.0010348000721376,-0.00094171796859684,0.00094171796776522,-0.00094171796933863,0.00094171796787637,-4.9165948014037e-13,-4.8385318920544e-13,-0.001161439912478,0.0011614399109479,-8.6049624184225e-13,-5.7514419444554e-16,-0.001462792035009,0.0014627920336597,-0.0014627920350401,0.0014627920342431,-0.0014627920351978,0.0014627920338537,-0.0014627920352386,0.0014627920344468,-0.0011109616562565,0.0011109616554111,-0.0011109616557752,0.0011109616549146,0.7163957235733,134343,3014,0.003697637559754,0.003928588066686,0.0048271859092074,35.94582796707,0.00020276662373656,0.00020276662373656,0.00020276662373656,2702304.389488,0.012532599894451
36419200,0.99999180058381,0.015126902515144,0.0045980153016528,0.0048614312712937,0.0056674559421973,-0.00089120781108686,0.00089120781221713,5.2538342048538e-13,5.1755439495085e-13,2.9505264810884e-13,6.5499818143164e-13,-0.0011569975818405,0.0011569975831963,-0.0011569975819062,0.0011569975832568,-0.0011569975819834,0.0011569975835282,-0.0011569975820499,0.0011569975835895,-0.00099093697915214,0.0009909369806624,-0.000990936979411,0.00099093698090593,4.9924906443153e-13,1.7428566466317e-13,9.2254526494527e-13,-9.6466299574074e-14,-0.00094684979843879,0.00094684979917422,-0.0012188937635776,0.0012188937649965,-0.0012188937640088,0.0012188937647473,-0.0012188937638484,0.0012188937649962,-0.0012188937642796,0.0012188937647471,-0.0010373128486019,0.0010373128506082,-0.0010373128496021,0.0010373128496372,-0.00094431232530079,0.00094431232602801,-0.00094431232612537,0.00094431232621578,6.6172331421874e-14,7.3992651339998e-14,-0.001163510275864,0.0011635102760461,-3.6618254866861e-13,6.1234830788541e-13,-0.0014641941800491,0.0014641941800202,-0.0014641941797446,0.0014641941803512,-0.0014641941799242,0.0014641941799006,-0.0014641941796344,0.0014641941802461,-0.0011131869174017,0.0011131869178809,-0.001113186916916,0.0011131869173799,0.73062628340315,134343,3014,0.0037080843368219,0.0039386259857638,0.0048357674758543,37.486240178936,0.00021508992143149,0.00021508992143149,0.00021508992143149,2702001.1799286,0.012562015410734
37419200,0.99999521149279,0.015126952528862,0.0045980321912557,0.0048614478850107,0.005667472452596,-0.00089153596104712,0.00089153596324898,8.8014911204879e-13,8.7231199852605e-13,6.2683164484117e-13,1.0064299454325e-12,-0.0011583750617034,0.0011583750639035,-0.0011583750616787,0.0011583750638735,-0.0011583750617295,0.0011583750641269,-0.0011583750617061,0.0011583750640982,-0.00099090637071742,0.00099090637304878,-0.00099090637099602,0.00099090637331205,8.2264305351896e-13,4.9208191208831e-13,1.3397794121108e-12,1.5656571547385e-13,-0.00094688291074522,0.00094688291248998,-0.0012200036474648,0.0012200036497446,-0.0012200036478608,0.0012200036493469,-0.0012200036476149,0.0012200036496148,-0.0012200036480108,0.0012200036492171,-0.0010370145389343,0.0010370145418665,-0.0010370145401088,0.0010370145407501,-0.00094435661179952,0.00094435661322617,-0.00094435661267506,0.00094435661344905,3.3372806954244e-13,3.4155574217712e-13,-0.0011628824897864,0.0011628824907827,-1.8349149740188e-13,9.6284702686073e-13,-0.0014645473831079,0.0014645473836694,-0.0014645473826093,0.0014645473839194,-0.0014645473828363,0.0014645473834029,-0.0014645473823545,0.0014645473836698,-0.0011127757526583,0.0011127757538077,-0.0011127757521728,0.0011127757533068,0.71956885674027,134343,3014,0.0037094483286858,0.0039387689115676,0.0048331756500237,37.681166354642,0.00021664933083714,0.00021664933083714,0.00021664933083714,2677059.4946452,0.012560938555061
38419200,0.99999717184592,0.015126982382645,0.0045980422722961,0.0048614578037286,0.0056674823066204,-0.00088987792055024,0.00088987792329921,1.0599022089504e-12,1.0521005649323e-12,7.9021659471958e-13,1.1910438056058e-12,-0.0011567324167344,0.0011567324193673,-0.0011567324166631,0.0011567324192908,-0.0011567324166968,0.0011567324195383,-0.0011567324166267,0.0011567324194629,-0.00098929486627059,0.00098929486902161,-0.00098929486656034,0.00098929486929609,9.899442944737e-13,6.4696746352926e-13,1.6585291602785e-12,1.738250541079e-13,-0.00094512319788526,0.00094512320014134,-0.0012182425959838,0.0012182425987787,-0.0012182425964305,0.0012182425982317,-0.0012182425960744,0.0012182425985785,-0.0012182425965211,0.0012182425980315,-0.0010353228647512,0.0010353228683601,-0.0010353228662269,0.0010353228669541,-0.00094276489794984,0.00094276489966537,-0.00094276489885979,0.00094276489989557,4.8342629048219e-13,4.9121946417079e-13,-0.0011608457814133,0.0011608457828523,-1.8259767176647e-13,1.264244275264e-12,-0.0014625106969297,0.0014625106977519,-0.0014625106962605,0.0014625106980312,-0.0014625106965829,0.0014625106974103,-0.0014625106959317,0.0014625106977076,-0.0011109332251481,0.0011109332267373,-0.0011109332246591,0.001110933226233,0.74580747229456,134343,3014,0.0037025635649375,0.0039314643923804,0.0048247298914233,37.194176606888,0.0002127534128551,0.0002127534128551,0.0002127534128551,2673226.8661612,0.012538016223092
38880000,0.99999785647899,0.015126992869481,0.0045980458136276,0.0048614612881174,0.0056674857677361,-0.00089007857977819,0.0008900785821409,9.3421843085645e-13,9.2641887500988e-13,6.6966492454917e-13,1.0665885635103e-12,-0.0011580969160133,0.001158096918332,-0.0011580969159756,0.0011580969182891,-0.0011580969160188,0.0011580969185454,-0.0011580969159818,0.0011580969185033,-0.00098916100946372,0.00098916101192559,-0.00098916100974632,0.00098916101219293,8.7923875460568e-13,5.3212313187123e-13,1.5766383297261e-12,2.2057311803052e-14,-0.00094507474842357,0.00094507475032094,-0.001219410624832,0.0012194106273567,-0.0012194106253338,0.0012194106268215,-0.0012194106249707,0.0012194106272043,-0.0012194106254725,0.0012194106266691,-0.0010349524706851,0.0010349524740943,-0.0010349524722238,0.0010349524726132,-0.00094267795364542,0.00094267795507954,-0.00094267795454854,0.00094267795529658,3.9510392984615e-13,4.0289598592184e-13,-0.0011602660225427,0.0011602660237061,-3.0261868167759e-13,1.2107842172556e-12,-0.0014630741022552,0.0014630741028304,-0.0014630741016154,0.0014630741031824,-0.0014630741019628,0.0014630741025432,-0.0014630741013399,0.001463074102912,-0.0011105038800284,0.0011105038814358,-0.0011105038795422,0.0011105038809343,0.74996681888016,134343,3014,0.0037034007994197,0.0039312709322689,0.0048223382308199,37.193611323698,0.00021274889058958,0.00021274889058958,0.00021274889058958,2649135.2537068,0.012536270422914
