time,ASR_ext,ASR_strain,ASR_strain_xx,ASR_strain_yy,ASR_strain_zz,disp_x_101,disp_x_102,disp_x_103,disp_x_104,disp_x_105,disp_x_106,disp_x_p1_neg,disp_x_p1_pos,disp_x_p2_neg,disp_x_p2_pos,disp_x_p3_neg,disp_x_p3_pos,disp_x_p4_neg,disp_x_p4_pos,disp_x_p5_neg,disp_x_p5_pos,disp_x_p6_neg,disp_x_p6_pos,disp_y_101,disp_y_102,disp_y_103,disp_y_104,disp_y_105,disp_y_106,disp_y_p1_neg,disp_y_p1_pos,disp_y_p2_neg,disp_y_p2_pos,disp_y_p3_neg,disp_y_p3_pos,disp_y_p4_neg,disp_y_p4_pos,disp_y_p5_neg,disp_y_p5_pos,disp_y_p6_neg,disp_y_p6_pos,disp_y_p7_neg,disp_y_p7_pos,disp_y_p8_neg,disp_y_p8_pos,disp_z_101,disp_z_102,disp_z_103,disp_z_104,disp_z_105,disp_z_106,disp_z_p1_neg,disp_z_p1_pos,disp_z_p2_neg,disp_z_p2_pos,disp_z_p3_neg,disp_z_p3_pos,disp_z_p4_neg,disp_z_p4_pos,disp_z_p5_neg,disp_z_p5_pos,disp_z_p6_neg,disp_z_p6_pos,humidity,ndof,nelem,strain_xx,strain_yy,strain_zz,temp,thermal_strain_xx,thermal_strain_yy,thermal_strain_zz,vonmises,vstrain
2419200,0,0,0,0,0,0,0,0,0,0,0,0,0,0,0,0,0,0,0,0,0,0,0,0,0,0,0,0,0,0,0,0,0,0,0,0,0,0,0,0,0,0,0,0,0,0,0,0,0,0,0,0,0,0,0,0,0,0,0,0,0,0,0,0,0,0,0,0,0,0,0,0,0,0,0
2919200,0.076571943229811,0.0015991648254188,0.00053305494180627,0.00053305494180627,0.00053305494180627,-0.00015986232749304,0.00015983938385247,-8.9585156107328e-09,-8.9585154787074e-09,-8.3387113873999e-09,-9.17273040557e-09,-0.00016138302020293,0.00016136361486694,-0.00016138373140797,0.00016136432607888,-0.00016138451828518,0.00016136465809349,-0.00016138522199738,0.00016136536179771,-0.00016489912334294,0.00016488006202197,-0.00016489977690376,0.00016488071559182,-6.5331658800138e-09,-6.0733613178106e-09,-6.7010421273027e-09,-6.2571160856648e-09,-0.00016317445395227,0.0001631572930178,-0.0001644355553832,0.00016442085069305,-0.00016443608727086,0.00016442171994089,-0.00016443694677858,0.00016442271841787,-0.000164437478659,0.0001644235876735,-0.00016754196580779,0.00016752805737792,-0.0001675422042757,0.00016752914958022,-0.00016528607657506,0.00016527235097144,-0.00016528629950994,0.00016527358026551,-2.1704065007404e-09,-2.1704065838702e-09,-0.00016945728093965,0.00016945042138228,-1.9089939692615e-09,-2.3917702552333e-09,-0.00017010369057484,0.00017009882651977,-0.00017010539001551,0.0001701001915695,-0.00017010560035281,0.00017010073629439,-0.00017010722693219,0.00017010202848382,-0.0001701578944176,0.00017015301411765,-0.00017015676044926,0.00017015188016325,0.83502648770561,125301,3014,0.00066582360877968,0.00067962616230678,0.00070580703259134,32.430638472936,0.00017464510778349,0.00017464510778349,0.00017464510778349,1320104.7447104,0.0020533644779421
3419200,0.15547312656157,0.0031001031169521,0.0010078010378231,0.0010272560415841,0.001065046037545,-0.0002625161476107,0.0002624956207782,-8.6035671809945e-09,-8.6035463329035e-09,-8.0954230193616e-09,-8.376163401546e-09,-0.00027228665773161,0.00027226863421065,-0.00027228762140332,0.00027226959776384,-0.00027228842684276,0.00027227030782535,-0.00027228937358139,0.00027227125460716,-0.00027461500109851,0.00027459707028585,-0.00027461660913685,0.00027459867836762,-7.0117966011696e-09,-7.2387438707338e-09,-8.0852585225038e-09,-6.945579079436e-09,-0.00027309173549618,0.00027307372250058,-0.00028238577682115,0.0002823697298032,-0.00028238638873095,0.00028237117721506,-0.00028238797125147,0.00028237189990685,-0.0002823885832506,0.00028237334732048,-0.00028332046395786,0.00028330372966148,-0.0002833212121133,0.00028330667642873,-0.00027513852510847,0.00027512410786019,-0.00027514022292937,0.00027512550505923,-4.0754094249072e-09,-4.0753887511858e-09,-0.00029462003520295,0.00029460980862846,-3.434704232511e-09,-4.6651565995799e-09,-0.00030252463387521,0.00030251683251072,-0.00030252771000806,0.00030251906211796,-0.00030252756747435,0.00030251976606553,-0.00030253054542876,0.00030252189745062,-0.00029235045859106,0.00029234149418832,-0.00029234769564365,0.00029233873133951,0.77960726241633,125301,3014,0.0010931855406286,0.0011371993526198,0.0012268007115008,31.910859824523,0.00017048687859618,0.00017048687859618,0.00017048687859618,2058360.2392494,0.0034631769784608
3919200,0.24190802270253,0.0046342413942885,0.0014731421502903,0.0015249683030745,0.0016361309409236,-0.0003653184077536,0.00036531018341579,-3.1235576505902e-09,-3.1235365196328e-09,-3.2112665325853e-09,-2.8345831254092e-09,-0.00038712433089807,0.00038711785467641,-0.00038712490203881,0.00038711842572375,-0.00038712509052391,0.00038711889692592,-0.00038712564613065,0.00038711945256169,-0.00038785348978762,0.0003878468120003,-0.00038785424376812,0.00038784756596027,-3.2125567376526e-09,-3.8815214789121e-09,-4.2177300095845e-09,-3.1440741285857e-09,-0.00038554222147278,0.0003855329625764,-0.00040767961667906,0.00040767190575556,-0.00040767985640826,0.00040767291557575,-0.00040768079172715,0.00040767267200362,-0.00040768103150928,0.00040767368181266,-0.00040467606685814,0.00040466690608973,-0.00040467593565696,0.00040466885859619,-0.00038545132667244,0.00038544452840784,-0.00038545279942751,0.0003854447653373,-3.2946171725598e-09,-3.2945962906095e-09,-0.00043022131577416,0.00043021331877958,-2.6557132494817e-09,-3.8335307765603e-09,-0.00045323611174585,0.00045322992469426,-0.00045323786089472,0.00045323085952831,-0.00045323734502897,0.00045323115794483,-0.00045323904939574,0.00045323204798188,-0.00042053300081916,0.00042052559005335,-0.00042053189945306,0.00042052448872681,0.74640349119053,125301,3014,0.0015210232542047,0.0016051293855857,0.0017909389974929,32.496995083034,0.00017517596066428,0.00017517596066428,0.00017517596066428,2852938.5499163,0.0049292212183712
4419200,0.33656490615365,0.006274002806335,0.0019574378561875,0.0020515812367409,0.0022649837134066,-0.00047291378466065,0.00047290980591423,-1.4822058797454e-09,-1.482188263166e-09,-1.6706306599757e-09,-1.0372671714426e-09,-0.00051027481165581,0.00051027267283436,-0.00051027511706856,0.00051027297814736,-0.00051027489875618,0.00051027320278322,-0.00051027519725556,0.00051027350130207,-0.00051030941955113,0.0005103062904038,-0.00051030986549058,0.00051030673636089,-1.6116888195713e-09,-2.300559261786e-09,-2.532833955219e-09,-1.8930719399661e-09,-0.00050473924304239,0.00050473387700139,-0.00054354453399628,0.00054354094233585,-0.00054354468762035,0.00054354154374085,-0.00054354497045492,0.00054354093989377,-0.00054354512411684,0.00054354154127175,-0.00053700010636237,0.00053699432219103,-0.00053700020707729,0.00053699567352954,-0.00050262563263933,0.00050262218152083,-0.00050262707413821,0.00050262231301512,-1.926956263103e-09,-1.9269390346881e-09,-0.00057945343273333,0.00057944852603522,-1.5908970982592e-09,-2.3038602087109e-09,-0.00062293868296581,0.00062293534302278,-0.00062293962435738,0.00062293578900721,-0.00062293911338388,0.00062293577339032,-0.00062294006993094,0.0006229362345171,-0.00056099661737526,0.00056099213583787,-0.00056099537771952,0.00056099089620861,0.74424082049435,125301,3014,0.0019686279701149,0.0021008984295338,0.0024113982989027,33.599289777056,0.00018399431821645,0.00018399431821645,0.00018399431821645,3533459.9784318,0.0065020214160893
4919200,0.43948774353001,0.0080301463920783,0.0024656764222271,0.0026088016472722,0.0029556683225791,-0.00058552766071315,0.00058552576351623,-6.4504356215607e-10,-6.4501764818302e-10,-9.6331310765169e-10,-1.7597478220884e-10,-0.00064445762069388,0.00064445758396939,-0.00064445775504149,0.00064445771822293,-0.00064445730539317,0.00064445782326065,-0.0006444574393108,0.00064445795717913,-0.00064134337173918,0.00064134205085536,-0.00064134357238557,0.00064134225152665,-9.3285523185473e-10,-1.6103510355044e-09,-1.6383333921098e-09,-1.3770685822058e-09,-0.00063023625866971,0.00063023273512318,-0.00069150134612189,0.00069149967741573,-0.0006915014383477,0.00069149994903623,-0.00069150139514746,0.00069149929177694,-0.00069150148739407,0.00069149956336877,-0.00067890582321549,0.00067890180557025,-0.00067890598207194,0.00067890247903178,-0.000626764584913,0.0006267624685622,-0.00062676609438383,0.00062676267123871,-1.1836721301878e-09,-1.1836468347546e-09,-0.00074275208451531,0.00074274888234062,-1.0709954002963e-09,-1.369177694723e-09,-0.00081303795832269,0.00081303598765638,-0.00081303833762456,0.00081303615929599,-0.00081303792361423,0.00081303595291739,-0.0008130383562605,0.00081303617788485,-0.00071528531629141,0.0007152824749473,-0.00071528416075895,0.00071528131941953,0.74696695512676,125301,3014,0.0024369397647188,0.0026226275291328,0.0030898686139287,35.344578020253,0.00019795662416202,0.00019795662416202,0.00019795662416202,4052115.1502433,0.0081828443312079
5419200,0.54002038732274,0.0096813207318898,0.0029393893977765,0.0031268813213847,0.0036150500127286,-0.00068642537016977,0.00068642561263803,1.3608624057053e-10,1.3610979090991e-10,-2.399049407305e-10,6.6085270672697e-10,-0.00077107312021382,0.00077107516296752,-0.00077107312318882,0.00077107516583681,-0.00077107257857801,0.00077107524529779,-0.00077107258530284,0.00077107525202152,-0.00075966778255222,0.00075966816416166,-0.00075966792614076,0.0007596683077958,-2.3485758119315e-10,-9.1113657513468e-10,-7.2622802427533e-10,-9.2943187309488e-10,-0.00074272770763174,0.00074272609412434,-0.00083049341245845,0.00083049377687455,-0.00083049352932145,0.00083049374482648,-0.00083049323385856,0.0008304931497028,-0.00083049335073158,0.00083049311761055,-0.00080693943770359,0.00080693729329274,-0.00080693997856359,0.00080693744813653,-0.00073802030532936,0.00073801958304713,-0.00073802202520682,0.00073801998127675,-3.9061301330528e-10,-3.9059025108888e-10,-0.00089480724556278,0.00089480592194186,-5.5254417052252e-10,-3.554737756084e-10,-0.00099607212858743,0.00099607173624776,-0.00099607206349099,0.00099607180575201,-0.00099607180773313,0.00099607141535253,-0.0009960718220452,0.00099607156424997,-0.00085876844982134,0.00085876738395596,-0.00085876714092182,0.00085876607507059,0.73229095938568,125301,3014,0.0028564012232556,0.0030900951663505,0.0037211826035156,36.273462585484,0.00020538770068387,0.00020538770068387,0.00020538770068387,4416027.0142277,0.0097147681104693
5919200,0.63133147050689,0.010960218741133,0.0033059802632815,0.0035255434364193,0.0041286950414318,-0.00075991580712418,0.00075991815187383,9.7754244748454e-10,9.7756655524806e-10,5.0669330244095e-10,1.5066070348804e-09,-0.00087111642303012,0.00087112047402808,-0.00087111628951206,0.00087112034040341,-0.00087111568396993,0.00087112041480898,-0.00087111555750821,0.00087112028833797,-0.00084456415815389,0.00084456630835784,-0.00084456420820437,0.0008445663584489,4.8026532259542e-10,-1.9868201950179e-10,3.1194399393449e-10,-4.3124591298387e-10,-0.00082466087044959,0.00082466117741489,-0.00093999363174527,0.0009399960015015,-0.00093999377733895,0.00093999562123509,-0.00093999326035616,0.00093999515977859,-0.00093999340595881,0.0009399947794676,-0.00089872610933229,0.00089872607374659,-0.00089872705127533,0.00089872558168866,-0.00081584429821368,0.00081584492521823,-0.00081584613864543,0.00081584542950804,3.3946302769634e-10,3.394861987826e-10,-0.001009502289333,0.0010095027131049,-1.187074160111e-10,6.4598855625774e-10,-0.0011437268330858,0.0011437278423158,-0.0011437262606589,0.0011437277936825,-0.0011437261975669,0.001143727206763,-0.0011437257216581,0.0011437272546286,-0.00096260971294969,0.00096261034549537,-0.00096260847480088,0.000962609107356,0.6360792580923,125301,3014,0.0031618769326729,0.0034304851986036,0.0041971080726101,36.779370106239,0.00020943496084991,0.00020943496084991,0.00020943496084991,4603286.2839038,0.010848183846711
6419200,0.70879990922444,0.011963756345809,0.0035979217752626,0.0038393659872189,0.0045264685833276,-0.00081531000323432,0.00081531413008856,1.6536866138032e-09,1.6537101338788e-09,1.1129792408217e-09,2.1973857084044e-09,-0.00094784701498037,0.00094785279765652,-0.00094784674834971,0.00094785253091452,-0.00094784608734376,0.0009478525980109,-0.00094784582987143,0.00094785234052623,-0.00090883416653399,0.00090883776839945,-0.00090883420681001,0.0009088378087194,1.0823512170872e-09,4.0452869764472e-10,1.2576548764007e-09,-1.0515651475381e-10,-0.00088596435621023,0.00088596633745013,-0.0010236419653764,0.0010236461889276,-0.00102364217564,0.0010236454491928,-0.0010236414136592,0.0010236451506354,-0.0010236416239291,0.0010236444108508,-0.00096776259403845,0.00096776449901125,-0.00096776411701673,0.00096776337967449,-0.00087370404409524,0.00087370576920151,-0.00087370600234016,0.00087370638758939,9.4502718324472e-10,9.4504979652448e-10,-0.0010951995336757,0.0010952014601956,1.5542374608771e-10,1.5609879003029e-09,-0.0012571019582613,0.0012571041742062,-0.0012571009016198,0.0012571040771683,-0.0012571010550503,0.0012571032709584,-0.001257100108176,0.0012571032836707,-0.0010392673655814,0.0010392694606782,-0.0010392661042014,0.0010392681993091,0.59525943091212,125301,3014,0.0033920939892197,0.0036851133296462,0.0045525578466135,36.741500280265,0.00020913200224212,0.00020913200224212,0.00020913200224212,4774862.4526531,0.011698034247546
6919200,0.77870430080053,0.01294137851159,0.003886576668351,0.0041467557539234,0.0049080460893151,-0.00087171637599988,0.00087171799215437,6.4853204070309e-10,6.4855524096493e-10,1.6767238419435e-10,1.1643822784795e-09,-0.0010256315374864,0.0010256352537186,-0.0010256313043232,0.0010256350204408,-0.0010256307239199,0.0010256351270529,-0.0010256304990413,0.0010256349021592,-0.00097562740021098,0.00097562886531241,-0.00097562750570275,0.00097562897085171,3.3548693277706e-10,-2.6540037788997e-10,7.4488960032704e-10,-1.0310889541329e-09,-0.00094707772870909,0.0009470778633121,-0.001106619272873,0.0011066221092243,-0.0011066196348864,0.0011066212507334,-0.0011066188126826,0.0011066212340761,-0.0011066191746995,0.0011066203755319,-0.0010386078945523,0.0010386087126809,-0.0010386098714946,0.0010386072380591,-0.00093523714062903,0.00093523716238353,-0.00093523915421043,0.000935238004143,9.0629113731021e-10,9.0631346109882e-10,-0.001178248193762,0.0011782498002977,-9.3221536822511e-11,1.729224986746e-09,-0.001365301313684,0.0013653032814032,-0.0013653001821482,0.0013653033902869,-0.0013653005301534,0.001365302497836,-0.0013652995039486,0.0013653027120328,-0.001118644248606,0.0011186463583909,-0.001118642854393,0.0011186449641862,0.64378173705164,125301,3014,0.0036264655512898,0.0039388926927417,0.0048968783825884,38.625434898559,0.00022420347918847,0.00022420347918847,0.00022420347918847,4833843.9718698,0.012540724294307
7419200,0.83903166501465,0.013666063880824,0.004102152269856,0.0043744645426805,0.0051894470682875,-0.00090826520435433,0.00090826607306578,3.2512803853219e-10,3.2515099138982e-10,-1.1449117572611e-10,8.106943122423e-10,-0.0010863173687362,0.0010863204280228,-0.0010863171771541,0.0010863202363243,-0.0010863166409805,0.0010863203461497,-0.0010863164564135,0.0010863201615666,-0.0010175847992133,0.0010175855751605,-0.0010175849588088,0.0010175857348045,5.8918168744398e-11,-4.7878856538761e-10,6.2324735719394e-10,-1.4060185357056e-09,-0.00098576414158442,0.00098576370004281,-0.0011696588371931,0.0011696612129581,-0.0011696593136357,0.001169660303089,-0.0011696584322189,0.0011696604400121,-0.0011696589086613,0.0011696595300876,-0.0010825056288658,0.0010825062057313,-0.0010825078954185,0.0010825045251866,-0.00097360168443522,0.00097360105975077,-0.00097360371942406,0.00097360205661875,8.8594736644551e-10,8.8596950312219e-10,-0.0012328467102793,0.001232848228267,-2.3809107742219e-10,1.8366803053833e-09,-0.0014459997208639,0.0014460015456519,-0.0014459985663006,0.0014460018006225,-0.0014459990233363,0.0014460008480881,-0.0014459979687202,0.0014460012029872,-0.0011704400087704,0.0011704421581542,-0.0011704385442177,0.0011704406936099,0.55664260548471,125301,3014,0.0037783797268494,0.0040995771076931,0.0051231637623073,40.764319518049,0.00024131455614439,0.00024131455614439,0.00024131455614439,4657758.0039545,0.013086660907269
7919200,0.88439526739348,0.014163775322725,0.0042538256690886,0.0045320616767787,0.0053778879768581,-0.00092912439092027,0.00092912899724301,1.7695169896765e-09,1.769539791774e-09,1.2526310141441e-09,2.2494952040833e-09,-0.0011222198931455,0.0011222262223115,-0.0011222195590072,0.0011222258880555,-0.0011222189495661,0.0011222259524077,-0.0011222186238437,0.0011222256266687,-0.0010418898196308,0.001041893684068,-0.0010418899624526,0.0010418938269389,1.2357550454661e-09,7.039459811026e-10,2.0849485812419e-09,-4.2552278041513e-10,-0.0010075365313327,0.0010075393042637,-0.0012067063441634,0.0012067116930979,-0.0012067068406524,0.0012067104694257,-0.0012067057106652,0.0012067106664165,-0.0012067062071538,0.0012067094426889,-0.0011075561966772,0.0011075598385741,-0.0011075589014313,0.0011075576595321,-0.00099494548069048,0.00099494723585156,-0.00099494757786822,0.00099494828946173,1.6273694044524e-09,1.627391396957e-09,-0.0012637673701712,0.0012637709391773,2.4980199736751e-10,2.8194926162007e-09,-0.001494216064156,0.0014942194469901,-0.0014942144659516,0.0014942195937419,-0.0014942150617186,0.0014942184445164,-0.0014942135733137,0.0014942187010492,-0.0011989951461612,0.001198999049703,-0.0011989937337948,0.0011989976373429,0.5070717593097,125301,3014,0.0038650898578598,0.0041900166456687,0.0052512987867945,40.956226945185,0.00024284981556148,0.00024284981556148,0.00024284981556148,4582150.5288072,0.013396071461121
8419200,0.9181982704404,0.014517005692571,0.0043629459411753,0.0046445139032817,0.0055095458481144,-0.00094240363724725,0.00094240799000401,1.6699172846438e-09,1.6699399378047e-09,1.1486205783268e-09,2.150174561996e-09,-0.0011483119151232,0.0011483180628345,-0.0011483115767282,0.0011483177243211,-0.0011483109802737,0.0011483178057319,-0.0011483106495196,0.0011483174749597,-0.0010572317846755,0.0010572354393745,-0.0010572319518805,0.0010572356066297,1.180600441899e-09,6.4835534950898e-10,2.2404429349667e-09,-6.8344475903922e-10,-0.0010206489085556,0.0010206515417252,-0.0012326599035556,0.0012326653104443,-0.0012326605256227,0.0012326639391807,-0.0012326592849585,0.0012326643003603,-0.0012326599070238,0.0012326629290394,-0.0011228303329792,0.0011228342701729,-0.0011228334575787,0.0011228317012477,-0.0010085531531163,0.0010085546559863,-0.001008555293394,0.0010085557550537,1.730548412581e-09,1.7305703280879e-09,-0.0012819970989351,0.0012820008696974,1.4904130480221e-10,3.1305837067579e-09,-0.0015260612552342,0.0015260647335783,-0.001526059511962,0.0015260650100123,-0.0015260602570363,0.0015260637353452,-0.001526058621845,0.0015260641198422,-0.0012170199048705,0.0012170241520884,-0.0012170184695526,0.0012170227167767,0.48138031764921,125301,3014,0.0039203014816975,0.0042444992252811,0.0053268300800824,41.432638941809,0.00024666111153447,0.00024666111153447,0.00024666111153447,4447336.2135543,0.013583886009206
8919200,0.9428555950884,0.014748145153891,0.0044352377362248,0.0047184315570878,0.0055944758605784,-0.00094896487769588,0.00094896944830299,1.7555917285543e-09,1.7556143164819e-09,1.2269032947701e-09,2.2315108246702e-09,-0.0011656667156696,0.0011656730712947,-0.0011656663623962,0.001165672717902,-0.0011656657694399,0.0011656728037466,-0.0011656654232997,0.0011656724575883,-0.001064538587819,0.0010645424259759,-0.0010645387683918,0.0010645426065991,1.2668353580552e-09,7.3919746988867e-10,2.5108004593706e-09,-7.6093735460128e-10,-0.0010263098460778,0.0010263127223331,-0.0012490791882118,0.0012490849389967,-0.0012490799057917,0.001249083432395,-0.0012490785568149,0.0012490839178773,-0.0012490792743919,0.0012490824112178,-0.0011294646808919,0.0011294691650363,-0.0011294681508754,0.0011294662604522,-0.0010149263605075,0.001014927936278,-0.001014928522788,0.0010149290668875,1.8701244254531e-09,1.8701462527275e-09,-0.0012896737228721,0.001289677830356,1.1704567077628e-10,3.4453768716016e-09,-0.0015446340778467,0.0015446377560683,-0.0015446321891752,0.0015446381184157,-0.0015446330544199,0.0015446367326062,-0.0015446312731124,0.0015446372022993,-0.0012254194394636,0.0012254240948867,-0.001225418004314,0.0012254226597423,0.43063171924148,125301,3014,0.0039476103540454,0.0042680543972301,0.0053586343081659,41.891652203725,0.0002503332176298,0.0002503332176298,0.0002503332176298,4286067.1211492,0.013667763094203
9419200,0.95973941555131,0.014898734225954,0.0044829411039964,0.004766850279267,0.0056489428426903,-0.00095046757909565,0.00095047496441899,2.8595874536544e-09,2.8596099794663e-09,2.2574232863858e-09,3.3404113041688e-09,-0.001173599338671,0.0011736081945908,-0.0011735988572625,0.0011736077130623,-0.0011735982069479,0.0011736077775481,-0.0011735977339156,0.001173607304497,-0.0010666607421576,0.0010666669423662,-0.0010666609172124,0.0010666671174718,2.2086551575048e-09,1.6636128957882e-09,3.7337468173895e-09,-4.5372264290048e-11,-0.0010271074864247,0.0010271128634714,-0.0012562697028168,0.0012562778645426,-0.0012562704636053,0.0012562760527367,-0.0012562688918475,0.0012562766316946,-0.0012562696526328,0.0012562748198306,-0.0011310345746831,0.0011310416007394,-0.0011310385225525,0.0011310381848396,-0.0010164110351403,0.0010164144634259,-0.0010164132684441,0.0010164156164836,2.5213769079603e-09,2.5213986935301e-09,-0.0012913020071914,0.0012913078644708,5.0575903305577e-10,4.3514747935497e-09,-0.0015528348564366,0.0015528398805818,-0.0015528325626332,0.0015528401865735,-0.0015528335818056,0.0015528386059159,-0.0015528314037582,0.0015528390276455,-0.001227732310889,0.0012277385287552,-0.001227730919456,0.0012277371373272,0.40723906797413,125301,3014,0.0039538962621033,0.0042714081940798,0.0053653806671463,41.150743045652,0.00024440594436522,0.00024440594436522,0.00024440594436522,4191875.801107,0.013684422893304
9919200,0.97109883299335,0.014999846663401,0.0045152135925173,0.0047994779128158,0.0056851551580676,-0.00094925904042979,0.000949267937598,3.45755695942e-09,3.4575794441743e-09,2.8018828079623e-09,3.9536373105352e-09,-0.0011779154822951,0.001177925671782,-0.0011779149292475,0.0011779251186143,-0.0011779142424445,0.0011779251837081,-0.0011779136979481,0.0011779246391929,-0.0010657199288483,0.0010657274163538,-0.0010657201072275,0.0010657275947841,2.7402329455725e-09,2.1570921511445e-09,4.5339690234082e-09,2.2253420069892e-10,-0.0010251095636821,0.0010251163058676,-0.0012597492986848,0.0012597588685092,-0.0012597501622816,0.0012597568021594,-0.0012597484012825,0.0012597575142938,-0.0012597492648756,0.0012597554478855,-0.0011294822708115,0.0011294909357038,-0.0011294867317694,0.0011294869920207,-0.0010152274410534,0.0010152318299278,-0.0010152297473742,0.0010152329732585,2.9158839792166e-09,2.9159057301403e-09,-0.0012892668350865,0.0012892737315457,6.3364747238703e-10,5.0136597705767e-09,-0.0015560943423408,0.0015561000953363,-0.0015560917432588,0.0015561004533041,-0.0015560929324851,0.0015560986854459,-0.001556090453005,0.0015560991629972,-0.0012268166123172,0.0012268238481134,-0.0012268152444515,0.0012268224802523,0.40432824355073,125301,3014,0.0039489204845773,0.0042631567969459,0.0053569464216998,39.827331897453,0.00023381865517962,0.00023381865517962,0.00023381865517962,4098869.2667059,0.013662517435649
10419200,0.97873347514545,0.015072268534518,0.0045384750364828,0.0048229233944458,0.0057108701035894,-0.00094644568480062,0.00094645564023836,3.8762362913479e-09,3.8762587379563e-09,3.1772593223645e-09,4.3890706896385e-09,-0.001179966486361,0.0011799775865178,-0.0011799658833325,0.0011799769833689,-0.0011799651683388,0.0011799770543241,-0.0011799645736216,0.0011799764595881,-0.001063085633199,0.0010630940295442,-0.0010630858139355,0.001063094210332,3.122212285369e-09,2.4971990620659e-09,5.1767841595787e-09,3.3309460372541e-10,-0.0010214826030801,0.0010214903089219,-0.0012609613849544,0.0012609719860362,-0.0012609623710747,0.0012609696880358,-0.001260960433801,0.0012609705444259,-0.0012609614199175,0.0012609682463668,-0.0011262076745904,0.0011262176480654,-0.0011262126485053,0.0011262131752657,-0.0010125378350732,0.0010125428666872,-0.0010125402055327,0.0010125439860873,3.2047380501583e-09,3.2047598009644e-09,-0.0012851134366839,0.001285121096486,6.5944315337609e-10,5.5703540979765e-09,-0.0015564593020423,0.001556465530716,-0.0015564564391767,0.001556465978632,-0.0015564578003846,0.0015564640290238,-0.0015564550591676,0.00155646459857,-0.0012240290678974,0.001224037098791,-0.0012240277213004,0.0012240357521982,0.42845224819223,125301,3014,0.003937279860524,0.0042481434238202,0.0053397344661277,38.098951060276,0.00021999160848221,0.00021999160848221,0.00021999160848221,4011733.2170633,0.013618104395331
10919200,0.98433287276579,0.015121411151711,0.0045543322633684,0.00483886044314,0.0057282184452027,-0.00094567954451321,0.00094568603496179,2.5207593179449e-09,2.5207817804352e-09,1.8917842647893e-09,3.0385970646955e-09,-0.0011842640266504,0.001184272061481,-0.0011842635763045,0.0011842716110146,-0.0011842629291683,0.0011842717256493,-0.0011842624841877,0.0011842712806498,-0.0010620880227173,0.0010620935294045,-0.0010620882221612,0.0010620937288999,1.98876996387e-09,1.3596266789007e-09,4.0980371905314e-09,-9.3368901958673e-10,-0.0010196229278059,0.0010196275963577,-0.0012641864915871,0.0012641944580734,-0.0012641876777092,0.0012641922552807,-0.0012641857722312,0.001264193270969,-0.0012641869583492,0.0012641910681172,-0.0011243200987265,0.0011243277754161,-0.0011243252802858,0.001124323133636,-0.0010116034629818,0.001011606001616,-0.0010116057876559,0.0010116070860905,2.5200439591516e-09,2.5200656924876e-09,-0.0012818845630498,0.0012818903222314,-9.7927102247187e-11,4.9805608320207e-09,-0.001557921024706,0.0015579255843433,-0.0015579183784551,0.0015579263534764,-0.0015579198230803,0.0015579243826831,-0.0015579172866385,0.0015579252616069,-0.0012223399990659,0.0012223466154886,-0.0012223386063754,0.0012223452228019,0.39597081456719,125301,3014,0.0039341263004358,0.0042404572694873,0.0053263552445146,37.946134445558,0.00021876907556446,0.00021876907556446,0.00021876907556446,3901785.6028439,0.013593609663516
11419200,0.98841311680983,0.015157257489571,0.004565967005736,0.0048505173802856,0.0057407731035494,-0.00094506603784734,0.00094507290608055,2.6645543430468e-09,2.6645767934492e-09,2.035711018014e-09,3.1715688388226e-09,-0.0011849208501651,0.0011849292311512,-0.0011849203793485,0.0011849287602141,-0.0011849197337707,0.0011849288665529,-0.0011849192683246,0.0011849284010878,-0.0010617722708736,0.0010617780820865,-0.0010617724705314,0.0010617782817959,2.1044986075955e-09,1.4976827065328e-09,4.3191053821487e-09,-8.9088379099757e-10,-0.0010186724035993,0.0010186774221978,-0.0012644942395684,0.0012645025747033,-0.0012644954635015,0.0012645002904533,-0.0012644934877968,0.0012645013662022,-0.0012644947117258,0.0012644990818932,-0.0011237182183306,0.0011237263596143,-0.001123723572123,0.001123721541119,-0.0010111023157367,0.0010111050505968,-0.0010111046278392,0.0010111061647147,2.6337191025716e-09,2.6337408350842e-09,-0.0012806471595242,0.0012806532179362,-7.355354872487e-11,5.1835857557192e-09,-0.0015580313893068,0.0015580361563224,-0.0015580286487739,0.0015580369504874,-0.0015580301512284,0.0015580349182097,-0.0015580275217302,0.0015580358233909,-0.0012215648781787,0.0012215717969747,-0.0012215634898524,0.001221570408652,0.39457194111806,125301,3014,0.003931587077548,0.0042365210546281,0.0053212265466534,37.628348240107,0.00021622678592086,0.00021622678592086,0.00021622678592086,3877440.4460011,0.013581855986261
11919200,0.99137040063122,0.015185341905571,0.0045750973835659,0.0048596609641215,0.0057505835578834,-0.00094391081398026,0.00094391819186268,2.8646610560711e-09,2.864683489827e-09,2.2281780221909e-09,3.366384479809e-09,-0.0011861133282208,0.0011861221542223,-0.0011861128340835,0.0011861216599643,-0.0011861121827599,0.0011861217597757,-0.001186111694023,0.0011861212710199,-0.0010605762172472,0.0010605824550044,-0.0010605764183802,0.0010605826561892,2.2749106391144e-09,1.6739387211832e-09,4.5855844690026e-09,-7.9658539573104e-10,-0.0010170000669911,0.0010170055497684,-0.0012651746008658,0.0012651833946733,-0.0012651758577998,0.0012651810280341,-0.0012651738150503,0.0012651821526203,-0.0012651750719801,0.001265179785922,-0.0011220975864711,0.0011221062825897,-0.0011221031062137,0.0011221012932275,-0.0010099061560581,0.0010099092019275,-0.0010099084731901,0.0010099103302907,2.7564786119411e-09,2.7565003342187e-09,-0.0012783102177201,0.0012783166116264,-3.6543879933082e-11,5.3930940671782e-09,-0.0015578875734464,0.001557892564638,-0.0015578847343702,0.0015578933754374,-0.0015578862915971,0.0015578912827544,-0.0015578835644415,0.0015578922054561,-0.0012199829272518,0.0012199901689724,-0.0012199815491922,0.0012199887909164,0.42516298576731,125301,3014,0.0039268072606225,0.0042295988215269,0.0053115455351917,37.104791011598,0.00021203832809279,0.00021203832809279,0.00021203832809279,3828621.736889,0.01356021006035
12419200,0.99354771462335,0.015207114410864,0.0045821919252401,0.0048667580100036,0.0057581644756206,-0.00094259036463448,0.00094259727616189,2.6836583275508e-09,2.6836807527775e-09,2.0589336491962e-09,3.1824496936552e-09,-0.0011882051558237,0.0011882135576802,-0.0011882046835903,0.0011882130853261,-0.0011882040437119,0.0011882131900788,-0.0011882035762896,0.0011882127226377,-0.0010590160893832,0.0010590219407078,-0.0010590162950394,0.0010590221464159,2.1240835588122e-09,1.5252824486553e-09,4.4830972799481e-09,-1.0012082477728e-09,-0.0010148466086273,0.0010148516899186,-0.0012664868866377,0.0012664953426787,-0.0012664881959861,0.0012664929643664,-0.0012664861332132,0.0012664941384847,-0.0012664874425573,0.0012664917601132,-0.0011198427489072,0.001119851223144,-0.001119848371921,0.0011198461354439,-0.0010084394598437,0.0010084421496719,-0.0010084417681971,0.0010084432764499,2.661055164062e-09,2.6610769018096e-09,-0.0012748249372789,0.0012748310754722,-1.7824260907535e-10,5.3494174661743e-09,-0.0015575928324192,0.0015575975611084,-0.0015575899990072,0.0015575984415127,-0.0015575915931544,0.0015575963218094,-0.0015575888692131,0.0015575973116661,-0.0012176857933685,0.0012176928667766,-0.0012176844145674,0.0012176914879788,0.44663644431852,125301,3014,0.0039213473582514,0.0042206882564655,0.0052971091647092,36.802292184918,0.00020961833747935,0.00020961833747935,0.00020961833747935,3750272.7041946,0.013531053743497
12919200,0.99513180506203,0.01522197713737,0.0045870517626345,0.0048716089596039,0.0057633164151313,-0.00094015261607814,0.00094016036445768,3.008632311701e-09,3.0086547406041e-09,2.3669072634313e-09,3.5043609220764e-09,-0.0011882623835803,0.0011882715044315,-0.0011882618726961,0.0011882709934267,-0.0011882612200641,0.0011882710903483,-0.0011882607142793,0.0011882705845446,-0.0010564808770553,0.0010564874276374,-0.001056481082552,0.001056487633186,2.4022619939802e-09,1.8034622650834e-09,4.8425794760225e-09,-7.8265658085844e-10,-0.0010117247396987,0.0010117305756849,-0.001265911312172,0.0012659204625955,-0.0012659126302482,0.0012659179965384,-0.0012659105054508,0.0012659191995398,-0.0012659118235224,0.0012659167334234,-0.0011167263026327,0.0011167355336391,-0.0011167320588243,0.0011167303042464,-0.0010059154924626,0.0010059187394632,-0.0010059178151639,0.0010059198762712,2.8468023669065e-09,2.8468241175362e-09,-0.0012705559940755,0.0012705626557655,-6.4569170662041e-11,5.6062808674678e-09,-0.0015557464541591,0.0015557515643079,-0.0015557435067678,0.0015557524270151,-0.0015557451439327,0.0015557502540473,-0.001555742307695,0.0015557512278897,-0.0012143553467485,0.0012143628734109,-0.0012143539842014,0.0012143615108667,0.41875849256559,125301,3014,0.0039112463668738,0.0042077550736339,0.0052794243361171,36.136517065318,0.00020429213652254,0.00020429213652254,0.00020429213652254,3691583.0226766,0.013489811787967
13419200,0.9962604374297,0.015232339206398,0.0045904493298817,0.0048749952228826,0.0057668946536337,-0.00093684614010103,0.00093685543526872,3.6082673609384e-09,3.6082897782535e-09,2.9270082735388e-09,4.1077706450294e-09,-0.0011848223747137,0.0011848328584704,-0.0011848217894899,0.0011848322731259,-0.0011848211067316,0.0011848323591229,-0.0011848205273761,0.0011848317797485,-0.0010534611787948,0.0010534690196037,-0.0010534613829578,0.0010534692238187,2.9163169427622e-09,2.3074131195984e-09,5.4788989824296e-09,-3.6410185918434e-10,-0.0010083980358369,0.0010084052516148,-0.0012624168365817,0.001262427286492,-0.001262418155152,0.0012624246698031,-0.0012624159298641,0.0012624259050783,-0.0012624172484298,0.0012624232883301,-0.0011136871088842,0.0011136976725583,-0.0011136930712178,0.0011136922253496,-0.0010027715997002,0.0010027758845724,-0.0010027739632914,0.0010027770338018,3.2031792161325e-09,3.2032009694092e-09,-0.0012673097598615,0.0012673173977101,1.7751432952967e-10,6.0718464019662e-09,-0.0015524386693149,0.0015524445426399,-0.0015524355200028,0.0015524453544382,-0.0015524372216348,0.0015524430949257,-0.0015524341883415,0.0015524440227245,-0.0012111782535608,0.0012111866215191,-0.0012111769080123,0.0012111852759735,0.40900439415344,125301,3014,0.0038975233930019,0.0041939514594361,0.0052659679812656,34.795366940137,0.00019356293552109,0.00019356293552109,0.00019356293552109,3697370.8453165,0.013448270821872
13919200,0.99709156244342,0.015239809582768,0.0045928986884914,0.0048774365214937,0.0057694743727825,-0.00093445497338421,0.00093446345230373,3.2907431742902e-09,3.2907655808998e-09,2.6192750864588e-09,3.7985353170594e-09,-0.0011830260774889,0.0011830358506014,-0.0011830255288483,0.00118303530184,-0.0011830248568089,0.001183035401719,-0.0011830243132112,0.0011830348581023,-0.0010510826834796,0.0010510898476168,-0.0010510828940659,0.0010510900582552,2.654142158427e-09,2.032002886214e-09,5.27519528197e-09,-7.1596553405939e-10,-0.0010058659714091,0.0010058724635761,-0.0012604652521921,0.0012604751278423,-0.0012604666518163,0.0012604724995576,-0.0012604644031953,0.0012604738013392,-0.0012604658028149,0.0012604711729951,-0.0011111925862499,0.0011112026993784,-0.0011111987010797,0.0011111971120843,-0.0010003756037399,0.001000379272013,-0.0010003779725442,0.0010003804048666,3.0479761144219e-09,3.0479978541696e-09,-0.0012646117645439,0.0012646189574048,-4.5495009041056e-11,5.9909648975759e-09,-0.0015502927518066,0.0015502982148149,-0.0015502896190719,0.0015502991358961,-0.0015502913737913,0.0015502968367656,-0.0015502883545884,0.0015502978713602,-0.0012086717754663,0.0012086798520908,-0.0012086704137043,0.0012086784903318,0.40047476240274,125301,3014,0.0038875990389315,0.0041834463478226,0.0052547856522158,33.828649843228,0.00018582919874583,0.00018582919874583,0.00018582919874583,3685780.533286,0.013416242056422
14419200,0.99770452524836,0.015245065145867,0.0045946228406448,0.004879154339348,0.005771287965874,-0.00093160886793937,0.00093161784388257,3.4843050055797e-09,3.4843274020131e-09,2.7991896310753e-09,3.9944179793608e-09,-0.0011807077156007,0.0011807179223125,-0.0011807071438958,0.0011807173504868,-0.0011807064613191,0.0011807174476599,-0.0011807058947483,0.00118071688107,-0.0010482747618525,0.0010482823431202,-0.0010482749723436,0.0010482825536633,2.82252140162e-09,2.1937442425347e-09,5.5226464870561e-09,-6.2111554267798e-10,-0.0010029078317878,0.0010029147692078,-0.0012580253493607,0.0012580356687463,-0.0012580267761903,0.0012580329651763,-0.0012580244699141,0.0012580343040677,-0.001258025896739,0.0012580316004383,-0.0011082932922377,0.0011083039171768,-0.0011082995534513,0.0011082981777896,-0.00099756211836436,0.00099756609909859,-0.0009975645031528,0.00099756723222592,3.1672534356993e-09,3.1672751718588e-09,-0.0012615250027405,0.0012615325194956,-2.7353878475436e-12,6.1869323548164e-09,-0.0015476957059454,0.0015477013938393,-0.0015476924821941,0.001547702326274,-0.0015476942847281,0.0015476999725881,-0.0015476911758179,0.0015477010198454,-0.0012057779660779,0.0012057863502642,-0.0012057766113022,0.0012057849954915,0.38210045494667,125301,3014,0.0038757897912942,0.0041711759910318,0.0052419929143837,32.642432850323,0.00017633946280258,0.00017633946280258,0.00017633946280258,3676896.38635,0.013378882320111
14919200,0.99814418967354,0.015248986336792,0.004595909711277,0.0048804365639356,0.0057726400615798,-0.00092709078741706,0.00092710173370664,4.2521752112896e-09,4.2521975842826e-09,3.5150018395625e-09,4.7698275684096e-09,-0.0011761852127466,0.0011761971451376,-0.0011761845498211,0.0011761964820913,-0.0011761838252638,0.0011761965656159,-0.0011761831684299,0.0011761959087629,-0.0010439371828213,0.001043946414634,-0.0010439373902494,0.0010439466221141,3.4834176906146e-09,2.8333343470787e-09,6.3337952701706e-09,-8.4984772724443e-11,-0.00099846535027096,0.00099847403963296,-0.001253552996026,0.00125356495848,-0.0012535544260649,0.0012535620675551,-0.0012535519928154,0.0012535634421534,-0.0012535534228496,0.0012535605511692,-0.0011040234247208,0.0011040357432468,-0.0011040299442627,0.0011040297267292,-0.00099318919980965,0.00099319451135165,-0.0009931916417463,0.00099319564885975,3.6072737324401e-09,3.6072954774228e-09,-0.0012573239495842,0.0012573326741054,2.936267484338e-10,6.7650995562935e-09,-0.0015434812321359,0.0015434878528409,-0.0015434777560082,0.0015434887231885,-0.0015434796389344,0.0015434862596056,-0.0015434762835327,0.0015434872506608,-0.0012015803991258,0.001201589823834,-0.0012015790698739,0.001201588494585,0.39678962402156,125301,3014,0.003857041616962,0.0041527454035818,0.0052245797852037,30.57886581608,0.00015983092652864,0.00015983092652864,0.00015983092652864,3686145.0179148,0.01332356166514
15419200,0.99844376070289,0.01525227281514,0.0045969876561963,0.0048815116727114,0.0057737734862323,-0.00091912366338378,0.00091913779671373,5.4965961825832e-09,5.4966185474588e-09,4.6730061288852e-09,6.0309211142498e-09,-0.0011699023216854,0.0011699170043594,-0.0011699015153238,0.0011699161978771,-0.0011699007203665,0.0011699162625323,-0.0011698999215084,0.0011699154636554,-0.0010359661639559,0.0010359780771291,-0.0010359663645951,0.0010359782778203,4.5626517721278e-09,3.8629681220435e-09,7.6409715837377e-09,7.9195907661545e-10,-0.00099026692696084,0.00099027845216027,-0.0012470633095084,0.0012470778927373,-0.0012470647432936,0.0012470747079139,-0.0012470621154291,0.0012470761322661,-0.0012470635492094,0.0012470729473831,-0.0010958615113447,0.0010958765600714,-0.001095868431067,0.0010958701060371,-0.00098527620881904,0.00098528370157399,-0.00098527875068561,0.00098528482394496,4.3000766749622e-09,4.3000984228272e-09,-0.0012488278542842,0.0012488385019229,7.6302286511641e-10,7.6745993589341e-09,-0.0015365466658933,0.0015365547385988,-0.0015365427946442,0.0015365555107351,-0.0015365448030309,0.0015365528757025,-0.001536541060714,0.0015365537767525,-0.0011935582780001,0.0011935693481694,-0.0011935569995054,0.0011935680696772,0.48651353790675,125301,3014,0.0038239925409505,0.0041187457271536,0.0051893705369763,27.069957600786,0.00013175966080628,0.00013175966080628,0.00013175966080628,3664053.0678491,0.013219969927777
15919200,0.99867397323642,0.015255373790807,0.0045980054868212,0.0048825268168861,0.0057748414871,-0.00091372452904621,0.00091373470696113,3.9560529884438e-09,3.9560753960828e-09,3.2040948668512e-09,4.5079149609541e-09,-0.0011692166508079,0.0011692278161518,-0.0011692160289842,0.0011692271942072,-0.0011692152995321,0.0011692273111785,-0.0011692146821638,0.0011692266937911,-0.0010300750665539,0.0010300836951343,-0.0010300752816177,0.0010300839102506,3.2734225576787e-09,2.5446063926556e-09,6.3316989697984e-09,-5.9527023933277e-10,-0.00098368753633403,0.00098369555611157,-0.0012453690464266,0.0012453805381042,-0.0012453706758611,0.0012453775199042,-0.0012453681283795,0.001245379064646,-0.001245369757809,0.0012453760463863,-0.0010889563452266,0.001088968604186,-0.001088963364725,0.0010889620876467,-0.00097955465049416,0.00097955934230692,-0.00097955715352092,0.00097956038989407,3.449226369208e-09,3.4492481245433e-09,-0.0012400207110246,0.0012400290225214,-1.0394652879901e-10,6.8634015130009e-09,-0.001532318789204,0.0015323248361582,-0.0015323152228864,0.0015323259426355,-0.0015323172782712,0.0015323233251913,-0.0015323138273129,0.0015323245470097,-0.0011863624178647,0.0011863716808006,-0.0011863610915478,0.001186370354486,0.59571470761932,125301,3014,0.0038016048138632,0.0040914756033715,0.0051528808509797,25.353598869131,0.00011802879095305,0.00011802879095305,0.00011802879095305,3556334.8843471,0.013132749948037
16419200,0.99886077616163,0.015257491354415,0.004598703683491,0.0048832209279079,0.0057755667430162,-0.00090907260655745,0.00090908105030419,3.2759886472073e-09,3.2760111334027e-09,2.5675503721721e-09,3.8204194523229e-09,-0.0011693609496574,0.0011693705781412,-0.0011693604066401,0.0011693700350031,-0.0011693597154895,0.0011693701666544,-0.0011693591758351,0.0011693696269813,-0.0010250177748947,0.0010250249490269,-0.00102501799756,0.0010250251717453,2.6928499539119e-09,1.9800935638372e-09,5.7068556931404e-09,-1.1520902168307e-09,-0.0009775646709309,0.00097757116465853,-0.0012442808732724,0.0012442909719616,-0.0012442825543097,0.0012442880591721,-0.001244280065922,0.001244289632463,-0.0012442817469542,0.0012442867196139,-0.0010826058706296,0.0010826168206717,-0.0010826128360955,0.0010826103794149,-0.00097451400698636,0.00097451747942242,-0.00097451646535853,0.00097451852382354,3.0623268250176e-09,3.062348573412e-09,-0.0012309192839024,0.001230926557386,-4.4895406861432e-10,6.442677185105e-09,-0.0015281772456828,0.0015281824175382,-0.0015281738429193,0.0015281836343603,-0.0015281758859293,0.0015281810577508,-0.0015281725922451,0.0015281823836336,-0.0011790994993511,0.0011791079142307,-0.0011790981554809,0.0011791065703627,0.50210013400473,125301,3014,0.0037823190110221,0.0040661035470965,0.0051151797545693,24.411882871261,0.00011049506297009,0.00011049506297009,0.00011049506297009,3435226.9450413,0.013049372996159
16919200,0.99901602602681,0.015259796912244,0.0045994671546955,0.0048839789125324,0.0057763508450157,-0.00090729078936963,0.00090729861687286,3.0358159717001e-09,3.0358384525133e-09,2.3331650156015e-09,3.5775816555715e-09,-0.0011645640108264,0.0011645731375581,-0.001164563463488,0.0011645725900991,-0.0011645627782212,0.001164572718917,-0.0011645622342443,0.0011645721749213,-0.0010233207430967,0.0010233273744572,-0.0010233209637857,0.0010233275951992,2.4895732677417e-09,1.776377843152e-09,5.4992640731398e-09,-1.3551525308798e-09,-0.00097629827099174,0.00097630422898471,-0.0012398137358404,0.0012398234043258,-0.0012398154106894,0.0012398204882685,-0.0012398129271783,0.001239822060211,-0.0012398146020225,0.0012398191440942,-0.0010813591970011,0.0010813696777317,-0.0010813661567432,0.0010813632397563,-0.00097309678556964,0.00097309979661209,-0.00097309924349193,0.00097310084236842,2.9968950040913e-09,2.9969167472505e-09,-0.0012306159949934,0.0012306230371475,-5.0918596815937e-10,6.3731526401792e-09,-0.0015246303347047,0.0015246353620584,-0.0015246269295327,0.0015246365701338,-0.0015246289694736,0.0015246339967937,-0.0015246256742409,0.0015246353147898,-0.0011782972454958,0.0011783054876044,-0.001178295896435,0.0011783041385458,0.65164127745866,125301,3014,0.0037749039777479,0.0040608242709601,0.0051139050451124,23.779666532617,0.00010543733226094,0.00010543733226094,0.00010543733226094,3526143.7055993,0.013035169236517
17419200,0.9991378121143,0.015261417673639,0.0046000030226815,0.0048845109931415,0.0057769036578158,-0.00090077775674385,0.00090078804566406,3.984781282373e-09,3.9848037187464e-09,3.249258557852e-09,4.51513990209e-09,-0.001163946034314,0.0011639572471985,-0.0011639454024022,0.001163956615166,-0.0011639446892463,0.0011639567241446,-0.0011639440617158,0.0011639560965953,-0.0010164935856158,0.0010165022856521,-0.0010164938123784,0.0010165025124677,3.2947226782326e-09,2.5986275915895e-09,6.3608787658201e-09,-5.4237928075924e-10,-0.00096821732158741,0.00096822548431571,-0.0012378822055478,0.0012378937417084,-0.001237883816872,0.0012378907209502,-0.0012378812728882,0.0012378922755977,-0.0012378828842074,0.0012378892547802,-0.0010731598737117,0.0010731722305702,-0.0010731668791928,0.0010731657464378,-0.00096596098066936,0.000965965752052,-0.00096596345891113,0.00096596684002597,3.4660939287391e-09,3.4661156955447e-09,-0.0012194667540646,0.001219475184195,-7.4774900001662e-11,6.8692196530548e-09,-0.0015196572027103,0.0015196632987272,-0.0015196536350741,0.0015196643883668,-0.0015196556858837,0.0015196617818667,-0.0015196522310224,0.0015196629842627,-0.0011688749818344,0.0011688843015615,-0.0011688736634597,0.0011688829831887,0.58772740813402,125301,3014,0.003747897589929,0.0040273330228044,0.005067724636723,21.982613664739,9.1060909317914e-05,9.1060909317914e-05,9.1060909317914e-05,3355597.351024,0.01292719418378
17919200,0.99923085554788,0.015262454241847,0.0046003476752191,0.0048848520099457,0.0057772545566826,-0.00089419913493078,0.00089421095168828,4.5690022823519e-09,4.5690247084315e-09,3.7940535420039e-09,5.1008157853732e-09,-0.0011552367359121,0.0011552493280796,-0.0011552360223704,0.0011552486144171,-0.0011552352838318,0.0011552487133086,-0.0011552345755783,0.001155248005036,-0.0010105566578242,0.0010105666160916,-0.0010105568896468,0.0010105668479671,3.7928756728719e-09,3.0977011022308e-09,6.9616026575169e-09,-1.0819570939764e-10,-0.00096199642707833,0.00096200596282268,-0.0012293508892823,0.001229363731345,-0.0012293524778012,0.0012293605693249,-0.0012293498501616,0.0012293621454687,-0.0012293514386754,0.0012293589833888,-0.001067557600952,0.0010675712233898,-0.0010675647704437,0.0010675645802545,-0.0009599189339975,0.00095992473067034,-0.00095992145479211,0.00095992585366943,3.8496116892995e-09,3.8496334854572e-09,-0.0012140719376617,0.0012140814072885,2.1795128467904e-10,7.335655033333e-09,-0.0015120653705279,0.0015120723337193,-0.0015120616095198,0.0015120733483042,-0.001512063709219,0.001512070672377,-0.0015120600670132,0.0015120718057455,-0.0011632738944486,0.0011632840932582,-0.0011632725779385,0.0011632827767499,0.4915601615792,125301,3014,0.0037205748906787,0.0040014975807668,0.0050453413934185,19.502316691449,7.121853353159e-05,7.121853353159e-05,7.121853353159e-05,3401055.5309374,0.012850638336791
18419200,0.99930481815261,0.015263317035524,0.0046006340893609,0.0048851357479699,0.0057775471981937,-0.00089015787110726,0.00089016876402147,4.2121517213327e-09,4.2121740959139e-09,3.4476806378555e-09,4.7522396625904e-09,-0.0011474180996094,0.0011474299693821,-0.001147417423419,0.0011474292930706,-0.0011474166963421,0.0011474294045073,-0.0011474160248424,0.0011474287329885,-0.0010071467000758,0.001007155883414,-0.0010071469413261,0.0010071561247171,3.4878216803287e-09,2.7921756590017e-09,6.7059112827611e-09,-4.8470379077721e-10,-0.0009589484375312,0.00095895714050649,-0.0012222732054346,0.0012222854475941,-0.0012222748679241,0.0012222822838433,-0.0012222722201862,0.0012222839193056,-0.0012222738826705,0.0012222807554951,-0.0010650289317,0.0010650419838262,-0.0010650362333483,0.00106503523429,-0.00095639924476553,0.00095640432992165,-0.00095640176872142,0.00095640545998973,3.7058054054828e-09,3.705827184288e-09,-0.0012132149462888,0.001213223942442,1.7269260700646e-11,7.2513466816893e-09,-0.001507284310884,0.0015072909275615,-0.0015072805726996,0.0015072920410833,-0.0015072827158364,0.0015072893324806,-0.0015072790961991,0.0015072905645309,-0.0011612923639058,0.0011613022648905,-0.0011612910100001,0.0011613009109869,0.51421839069127,125301,3014,0.0037037703147596,0.0039888116210253,0.0050417617633925,17.479116966726,5.5032935733807e-05,5.5032935733807e-05,5.5032935733807e-05,3492874.2455993,0.012817095267698
18919200,0.99936936876818,0.015264177177768,0.0046009185328163,0.0048854182167958,0.0057778404281555,-0.0008886596662334,0.00088866746162567,3.0172267120892e-09,3.0172490776412e-09,2.3293957460001e-09,3.5528252228194e-09,-0.0011475825404306,0.0011475916891718,-0.0011475820160997,0.0011475911647199,-0.0011475813480071,0.0011475913006111,-0.0011475808263493,0.0011475907789341,-0.0010052221120512,0.0010052287224325,-0.001005222356046,0.00100522896648,2.4677578931227e-09,1.7871655935936e-09,5.5924146300461e-09,-1.4705961024878e-09,-0.00095711523203517,0.00095712117370366,-0.0012221343152655,0.0012221440697513,-0.0012221360783202,0.0012221411073205,-0.0012221335354242,0.0012221427804745,-0.0012221352984737,0.0012221398179841,-0.0010628226980772,0.0010628333927769,-0.0010628298870359,0.0010628267738686,-0.00095461634293869,0.00095461926411421,-0.00095461879013695,0.00095462036447399,3.0220398608743e-09,3.0220615939163e-09,-0.0012107445216551,0.0012107516117814,-5.8772217837323e-10,6.5036465110634e-09,-0.001506307986401,0.0015063130295489,-0.001506304553976,0.0015063143483562,-0.0015063066696446,0.0015063117127591,-0.001506303345744,0.0015063131400722,-0.0011591867139521,0.0011591950889233,-0.0011591853262981,0.0011591937012715,0.5877987766322,125301,3014,0.0036975524036246,0.0039812090622303,0.0050315272805559,16.874921880072,5.0199375040573e-05,5.0199375040573e-05,5.0199375040573e-05,3454439.7682332,0.012792762451992
19419200,0.99943025174036,0.015265085512657,0.0046012191908717,0.0048857167095866,0.0057781496121982,-0.00088888004243266,0.00088888503278,1.9292728263924e-09,1.9292952282963e-09,1.3193337819056e-09,2.447330508277e-09,-0.0011511292085356,0.0011511359094961,-0.0011511288176613,0.0011511355185011,-0.0011511282108201,0.0011511356691121,-0.0011511278212257,0.0011511352794986,-0.0010049273474515,0.0010049316103364,-0.0010049275950868,0.0010049318580243,1.5250304913724e-09,8.8516609481098e-10,4.4950250520693e-09,-2.2811795411912e-09,-0.00095632226585534,0.00095632571160994,-0.0012248356142593,0.0012248430634215,-0.0012248374107986,0.0012248403368216,-0.0012248350082352,0.0012248419947008,-0.0012248368047691,0.001224839268041,-0.0010616423302323,0.0010616507259937,-0.0010616492527958,0.0010616443971627,-0.00095444158696658,0.00095444257008868,-0.00095444394121147,0.00095444367347625,2.3823917218329e-09,2.3824134558455e-09,-0.001207786977329,0.0012077923113752,-1.0743932790816e-09,5.7200471158105e-09,-0.0015067161020054,0.0015067197515884,-0.0015067129950036,0.001506721194232,-0.0015067150298872,0.0015067186794366,-0.0015067120226825,0.0015067202218589,-0.0011574579252577,0.0011574648239992,-0.0011574565085616,0.0011574634073047,0.65664642788028,125301,3014,0.0036984796290072,0.0039779402411693,0.0050192869173657,17.545891412395,5.556713129916e-05,5.556713129916e-05,5.556713129916e-05,3365223.0158024,0.012778040804853
19919200,0.99948896018773,0.015265939728248,0.0046015028933329,0.004885997815224,0.0057784390196911,-0.00088960161173233,0.00088960556754816,1.5276881462934e-09,1.527710574873e-09,9.6395856805096e-10,2.0199135480129e-09,-0.0011545849476071,0.0011545907647835,-0.0011545846051523,0.0011545904222077,-0.0011545840329207,0.0011545905661874,-0.001154583691612,0.0011545902248596,-0.0010052924689873,0.0010052958537765,-0.0010052927181857,0.001005296103028,1.1606679269536e-09,5.7420069711065e-10,3.9857020030209e-09,-2.4698908339774e-09,-0.00095600709250107,0.00095600962403325,-0.001227418039319,0.0012274245676589,-0.0012274197791285,0.0012274219992547,-0.0012274174844911,0.0012274235920292,-0.0012274192242953,0.0012274210235652,-0.0010610924718274,0.0010610998277217,-0.0010610990879584,0.0010610938194742,-0.00095482932940365,0.00095482963725652,-0.00095483161183316,0.00095483078028728,2.1330758380562e-09,2.1330975991267e-09,-0.0012051691081408,0.0012051737683288,-1.1634404557221e-09,5.3097777160532e-09,-0.0015070180908238,0.0015070212762448,-0.0015070151721442,0.0015070226928146,-0.0015070171068882,0.001507020292276,-0.0015070142846923,0.0015070218053107,-0.0011560524160566,0.0011560586739583,-0.0011560509900246,0.0011560572479281,0.63949909152815,125301,3014,0.0037014841784221,0.0039766515855882,0.005008455707429,18.682040939033,6.465632751226e-05,6.465632751226e-05,6.465632751226e-05,3283416.8932975,0.012768843245269
20419200,0.99954138193418,0.015266765718365,0.0046017779655064,0.0048862700411364,0.0057787177117222,-0.00088826150732314,0.00088826784308362,2.4400056596196e-09,2.4400280769936e-09,1.8424500754884e-09,2.9424158533331e-09,-0.0011527487236285,0.0011527566317075,-0.0011527483813653,0.0011527562893233,-0.0011527477951075,0.001152756450555,-0.0011527474539799,0.0011527561094083,-0.0010040680768458,0.0010040735534379,-0.0010040683285692,0.0010040738052144,1.9076532922586e-09,1.3669404233734e-09,4.7532146911187e-09,-1.6781196152772e-09,-0.00095454525486462,0.00095454985549493,-0.0012254350022553,0.0012254433224352,-0.001225436733984,0.0012254407621178,-0.0012254344340323,0.001225442365386,-0.0012254361657557,0.0012254398050087,-0.0010597540478376,0.0010597631809066,-0.0010597606427022,0.001059757199103,-0.00095352041502888,0.00095352246404615,-0.00095352266333544,0.0009535236507831,2.5791900066334e-09,2.5792117814682e-09,-0.0012034659102433,0.0012034718381287,-7.2141601550063e-10,5.7489721748463e-09,-0.001504811796663,0.0015048160567835,-0.0015048088797887,0.0015048174742522,-0.001504810815023,0.0015048150751102,-0.001504807994562,0.0015048165889736,-0.001154475087361,0.0011544823920103,-0.001154473658367,0.001154480963018,0.69004788769247,125301,3014,0.003695919693862,0.0039705836520945,0.0050013943043135,18.601894960573,6.4015159684582e-05,6.4015159684582e-05,6.4015159684582e-05,3283020.0067628,0.012749899250489
20919200,0.99958498143065,0.015267406232709,0.0046019913993011,0.0048864811279862,0.0057789337054221,-0.00088402811673534,0.0008840374703447,3.6157499958196e-09,3.6157723813416e-09,2.9532422289771e-09,4.0875985211416e-09,-0.0011507599605726,0.001150770444052,-0.001150759363524,0.0011507698468825,-0.0011507587111014,0.0011507699343431,-0.0011507581185375,0.0011507693417601,-0.00099956299356007,0.00099957086700816,-0.00099956324383307,0.00099957111733438,2.9420928038085e-09,2.3707133104313e-09,5.8729330880101e-09,-6.5471661861473e-10,-0.0009496240652126,0.00094963144966813,-0.0012228067713592,0.0012228175152239,-0.0012228082962903,0.0012228146564237,-0.0012228058622653,0.0012228161586527,-0.001222807387191,0.0012228132997925,-0.0010546607914302,0.0010546721816019,-0.0010546674604648,0.0010546660972737,-0.00094911159037013,0.00094911573882509,-0.00094911395806992,0.00094911696813192,3.3159023629884e-09,3.3159241566167e-09,-0.001197030747393,0.0011970387415598,-4.1394421046498e-11,6.5296844101381e-09,-0.0015006471897978,0.0015006530951495,-0.001500643812364,0.0015006541271955,-0.0015006457491058,0.0015006516544242,-0.0015006424815738,0.0015006527963535,-0.0011488939718782,0.001148902840252,-0.0011488926165276,0.0011489014849029,0.64466974006306,125301,3014,0.0036783579196661,0.0039501782701652,0.0049747349668901,17.277245277061,5.341796221649e-05,5.341796221649e-05,5.341796221649e-05,3227600.586157,0.012684481547553
21419200,0.9996199718725,0.015267918162022,0.0046021623036099,0.0048866500008155,0.0057791058575963,-0.00087924409117081,0.00087925491182293,4.1802770034364e-09,4.1802993878408e-09,3.4921932288793e-09,4.6614889717558e-09,-0.0011446919136206,0.001144703706689,-0.0011446913146382,0.0011447031075852,-0.0011446906515301,0.0011447032079938,-0.0011446900570442,0.0011447026134886,-0.0009949526677719,0.00099496183566458,-0.00099495292017354,0.00099496208811925,3.4062524849981e-09,2.8612451384379e-09,6.3611968451306e-09,-1.7481279457114e-10,-0.00094506513047654,0.00094507379266105,-0.0012168520003581,0.0012168638825552,-0.0012168535260237,0.0012168610187758,-0.0012168510817712,0.0012168625342064,-0.001216852607431,0.0012168596703671,-0.001050250192977,0.0010502627059625,-0.0010502568723187,0.0010502566155809,-0.00094467346547907,0.00094467868510899,-0.0009446758155627,0.00094467994088815,3.6090158220146e-09,3.6090376274661e-09,-0.0011929391867199,0.0011929479915045,2.3660000356171e-10,6.8301741055754e-09,-0.0014950569876231,0.0014950635961695,-0.0014950535998581,0.0014950646334964,-0.0014950555448303,0.0014950621533432,-0.0014950522672959,0.0014950633008824,-0.0011447835459728,0.0011447931014822,-0.0011447821867507,0.0011447917422617,0.64095610021347,125301,3014,0.0036584950540711,0.0039312509715408,0.0049577626671963,15.231165507715,3.7049324061722e-05,3.7049324061722e-05,3.7049324061722e-05,3264342.7851122,0.012627993403573
21919200,0.99964972723711,0.015268340810103,0.0046023033196801,0.0048867893744217,0.0057792481160013,-0.0008757202855275,0.00087572952756937,3.5722996220516e-09,3.5723219827509e-09,2.8987320374319e-09,4.0566939071681e-09,-0.0011413254281308,0.0011413358504826,-0.0011413248321732,0.0011413352544039,-0.0011413241760405,0.0011413353527979,-0.0011413235844301,0.0011413347611683,-0.00099155928090761,0.000991567064904,-0.00099155954188248,0.00099156732593202,2.9160384023472e-09,2.3264769054481e-09,5.8896860587468e-09,-7.4353253431992e-10,-0.00094152732116577,0.0009415346108243,-0.0012133966226849,0.001213407369299,-0.001213398182745,0.0012134044761385,-0.0012133957253437,0.0012134060123253,-0.0012133972853983,0.0012134031191047,-0.0010468737417876,0.0010468851474795,-0.0010468805258813,0.0010468789711898,-0.00094114932699053,0.00094115337851826,-0.00094115172718759,0.0009411546047265,3.3333835815962e-09,3.3334053513429e-09,-0.0011895190862015,0.0011895270918738,-7.6455068570724e-11,6.5995912269005e-09,-0.0014917236115404,0.0014917295395772,-0.0014917202028155,0.0014917306100772,-0.0014917221760421,0.0014917281040457,-0.0014917188776966,0.0014917292849068,-0.0011413374188521,0.0011413463484688,-0.0011413360437221,0.0011413449733404,0.62311101531201,125301,3014,0.0036438558507726,0.003916558522733,0.0049435777982289,13.995900054592,2.7167200436733e-05,2.7167200436733e-05,2.7167200436733e-05,3253726.9038398,0.012583931600757
22419200,0.99967859690154,0.015268769597603,0.0046024463367768,0.0048869307745847,0.005779392486242,-0.00087723477199762,0.00087723938231042,1.7764529614344e-09,1.776475341986e-09,1.2034554746437e-09,2.2642171036629e-09,-0.0011423535300812,0.0011423599270712,-0.0011423531539923,0.0011423595508612,-0.0011423525788705,0.0011423596909723,-0.0011423522042994,0.001142359316382,-0.0009930541881582,0.00099305811038616,-0.00099305444829033,0.00099305837057151,1.3749068017103e-09,7.9942700413466e-10,4.1868436148461e-09,-2.2180816069058e-09,-0.00094303099568559,0.00094303413187084,-0.0012143614470393,0.0012143684926406,-0.0012143631384817,0.001214365905431,-0.0012143608506012,0.0012143674777874,-0.0012143625420382,0.0012143648905177,-0.0010483711682574,0.0010483789653075,-0.0010483777446484,0.0010483730189047,-0.00094267826132146,0.00094267905581257,-0.00094268055871534,0.00094268023206613,2.3199741501469e-09,2.3199958906886e-09,-0.0011909906484004,0.0011909958130835,-9.5560815090048e-10,5.4709440501794e-09,-0.0014926256547291,0.0014926292962329,-0.0014926227005625,0.00149263064755,-0.0014926246189321,0.0014926282604028,-0.0014926217625221,0.0014926297094578,-0.0011428256253937,0.001142832270651,-0.0011428241920005,0.0011428308372594,0.65096373206224,125301,3014,0.0036501269518681,0.0039227844278051,0.0049496713992424,14.850076604684,3.4000612837471e-05,3.4000612837471e-05,3.4000612837471e-05,3254248.8195206,0.012602750432044
22919200,0.99970590048731,0.015269134830452,0.0046025682252259,0.0048870512059691,0.0057795153992567,-0.00087737623907402,0.00087738150877488,2.0287967555929e-09,2.0288191360857e-09,1.4483137165984e-09,2.5176524238584e-09,-0.0011434816078262,0.0011434885799045,-0.001143481232155,0.0011434882041124,-0.001143480653531,0.0011434883473779,-0.0011434802794264,0.0011434879732541,-0.00099323513000818,0.00099323963013897,-0.0009932353906373,0.00099323989082139,1.5813641451078e-09,1.0198504988408e-09,4.3935705001568e-09,-1.9924192598647e-09,-0.00094278714472152,0.00094279085523778,-0.0012151820612391,0.0012151895943945,-0.0012151837472594,0.0012151870139588,-0.0012151814600554,0.0012151885847493,-0.0012151831460705,0.0012151860042537,-0.0010482072939047,0.0010482155726739,-0.0010482138522048,0.0010482096452581,-0.0009426167632091,0.0009426180438393,-0.00094261904835576,0.00094261923212711,2.4321485608251e-09,2.4321702988963e-09,-0.0011899824178165,0.0011899879126612,-8.3878723875798e-10,5.5751899377891e-09,-0.0014927623327602,0.0014927662503672,-0.001492759382475,0.0014927675975484,-0.0014927612968473,0.0014927652144213,-0.0014927584441579,0.0014927666591797,-0.0011421519388693,0.0011421588481003,-0.0011421505075669,0.0011421574167994,0.58748017292925,125301,3014,0.0036507154563372,0.0039217779461416,0.0049454998981951,15.357494516338,3.8059956130703e-05,3.8059956130703e-05,3.8059956130703e-05,3205192.151183,0.012598119408537
23419200,0.99973140598267,0.015269486734811,0.0046026857489325,0.0048871673075144,0.0057796336783641,-0.00087875748381319,0.00087876314243585,2.1786153403851e-09,2.1786377118781e-09,1.5949030485861e-09,2.6642849196893e-09,-0.0011432952992972,0.0011433026192145,-0.0011432948997872,0.0011433022195834,-0.0011432943148323,0.0011433023534086,-0.0011432939171695,0.0011433019557265,-0.00099446050977106,0.0009944653454497,-0.00099446075123632,0.00099446558696808,1.7128072887951e-09,1.1562178519467e-09,4.5240068039117e-09,-1.8492228318578e-09,-0.00094449206482798,0.00094449613450588,-0.0012151898450631,0.0012151976940406,-0.0012151915041114,0.0012151950931087,-0.00121518920784,0.0012151966477847,-0.0012151908668829,0.0012151940467929,-0.001049722371818,0.0010497309468834,-0.0010497288975458,0.0010497250124159,-0.00094415774682887,0.00094415933125892,-0.00094416000742528,0.00094416050266449,2.5450157644565e-09,2.5450375000572e-09,-0.001192235898326,0.0011922416896918,-7.2149126051077e-10,5.6808624387873e-09,-0.0014931807014029,0.001493184885135,-0.0014931777155037,0.0014931861893598,-0.0014931796222217,0.0014931838059208,-0.0014931767351862,0.0014931852089906,-0.0011440938842874,0.0011441010428578,-0.0011440924817101,0.0011440996402821,0.60459639632209,125301,3014,0.003656446383226,0.0039288465277228,0.0049548367112271,15.705783474801,4.0846267798411e-05,4.0846267798411e-05,4.0846267798411e-05,3271068.5854964,0.01262051127561
23919200,0.99975654301062,0.015269895830792,0.0046028221307196,0.0048873022200726,0.0057797714800001,-0.00088105922635731,0.00088106282276394,1.381349798153e-09,1.3813721634992e-09,8.5244090633898e-10,1.8472279407338e-09,-0.0011463368751699,0.0011463423978961,-0.0011463365475377,0.0011463420701427,-0.0011463360045306,0.0011463422050451,-0.0011463356782003,0.0011463418786955,-0.00099658856709863,0.0009965916289604,-0.00099658882483044,0.00099659188674536,1.0187053053696e-09,4.9043731967874e-10,3.6949697286946e-09,-2.4162534735559e-09,-0.00094652852454689,0.00094653076094324,-0.0012179802356975,0.0012179863789593,-0.0012179818786959,0.0012179839405674,-0.0012179796919221,0.0012179854545455,-0.0012179813349151,0.0012179830160935,-0.0010516365001905,0.0010516432916702,-0.0010516427921297,0.0010516376350756,-0.00094631607166929,0.00094631620048779,-0.00094631829873242,0.00094631740547526,2.0855264724508e-09,2.08554819714e-09,-0.0011937345132065,0.0011937390349678,-1.0427974610475e-09,5.0889237996358e-09,-0.0014953973733528,0.001495400568106,-0.001495394598793,0.0014954019019278,-0.0014953964256873,0.0014953996204075,-0.0014953937458537,0.0014954010489369,-0.001145890072611,0.0011458961160189,-0.0011458886315294,0.0011458946749388,0.71228945632067,125301,3014,0.0036659944011125,0.0039372949618288,0.0049610527331451,17.004663648252,5.1237309186015e-05,5.1237309186015e-05,5.1237309186015e-05,3227225.5130433,0.012645042643271
24419200,0.99978051332593,0.015270267407114,0.0046029461519381,0.0048874247975145,0.0057798964576611,-0.00088160945559,0.00088161399240624,1.7490040144515e-09,1.7490263745625e-09,1.2137280266184e-09,2.1971877289819e-09,-0.0011509824534907,0.0011509887967092,-0.0011509820834761,0.0011509884265734,-0.001150981532549,0.0011509885423508,-0.001150981164798,0.0011509881745805,-0.00099649857253747,0.0009965024135642,-0.00099649883283208,0.00099650267391191,1.3218505820518e-09,8.1874765518144e-10,3.9431835950306e-09,-2.0074401107867e-09,-0.00094579456395035,0.00094579764938744,-0.0012216231289147,0.001221629943724,-0.0012216246821868,0.0012216275152644,-0.0012216225157691,0.0012216289605796,-0.0012216240690359,0.00122162653206,-0.0010503908580334,0.0010503982003421,-0.0010503969931411,0.0010503927042224,-0.0009462613107349,0.00094626214858352,-0.00094626353119092,0.00094626339219391,2.2563461990548e-09,2.2563679673898e-09,-0.0011900527988065,0.0011900578284347,-7.9892934272758e-10,5.1796226313929e-09,-0.0014961335430797,0.0014961371949783,-0.0014961307449956,0.0014961384057149,-0.0014961325149929,0.0014961361668582,-0.0014961298133157,0.001496137473983,-0.0011435932561735,0.0011435996275285,-0.0011435918340529,0.0011435982054093,0.6789410524186,125301,3014,0.0036683005856768,0.0039342841741512,0.0049458276732369,17.881915668879,5.8255325351028e-05,5.8255325351028e-05,5.8255325351028e-05,3119872.4443236,0.012628970705433
24919200,0.99980271404719,0.015270575963997,0.0046030495647115,0.0048875267600212,0.0057799996392645,-0.0008818740897395,0.00088187942170057,2.0529784775344e-09,2.0530008448805e-09,1.5056581791467e-09,2.5049892567242e-09,-0.0011503722630954,0.0011503793079332,-0.0011503718929724,0.001150378937689,-0.0011503713378759,0.0011503790601684,-0.0011503709700011,0.0011503786922744,-0.00099683671171938,0.0009968412515208,-0.00099683697322522,0.00099684151307995,1.5708525100651e-09,1.0841395709145e-09,4.1978148711841e-09,-1.7412017786289e-09,-0.00094606309984261,0.0009460668786363,-0.001220966224595,0.001220973641968,-0.0012209677737402,0.0012209712171601,-0.0012209656076232,0.0012209726660931,-0.001220967156763,0.0012209702412252,-0.0010507329570425,0.0010507408910893,-0.0010507390821982,0.0010507354078817,-0.0009465958542498,0.00094659727498187,-0.00094659806370945,0.00094659853561592,2.4159876497945e-09,2.4160094352466e-09,-0.0011903051869025,0.0011903106629371,-6.391266640456e-10,5.3351565880108e-09,-0.0014954429720573,0.0014954470094009,-0.0014954401762139,0.0014954482199001,-0.0014954419455962,0.0014954459829067,-0.0014954392461718,0.0014954472898062,-0.00114384538812,0.0011438521303682,-0.0011438439625482,0.0011438507047975,0.60789483588395,125301,3014,0.0036693947616197,0.0039353934224357,0.0049468691300647,18.352027940181,6.2016223521452e-05,6.2016223521452e-05,6.2016223521452e-05,3138095.3733448,0.012632237243115
25419200,0.99982451927942,0.015270944779868,0.0046031729959931,0.0048876486313681,0.0057801231525066,-0.00088525770252949,0.00088526067350935,1.1364594660905e-09,1.136481830319e-09,6.4632425889931e-10,1.5770437461902e-09,-0.0011510739911598,0.0011510789836282,-0.0011510736919685,0.0011510786843157,-0.0011510731782037,0.0011510788099928,-0.0011510728804756,0.0011510785122453,-0.0010005858853656,0.0010005884064355,-0.001000586145668,0.001000588666791,7.8904999376102e-10,3.1435778497148e-10,3.284536502039e-09,-2.4279527162692e-09,-0.00094999336020281,0.00094999504904292,-0.0012219782807424,0.0012219837963827,-0.0012219798227907,0.0012219815210507,-0.0012219777628741,0.0012219829368595,-0.0012219793049166,0.0012219806614676,-0.0010550096431472,0.001055015612335,-0.0010550155527659,0.0010550103551342,-0.00095036634816081,0.00095036611943079,-0.0009503685136695,0.00095036737231709,1.9391898271113e-09,1.9392115823585e-09,-0.0011954614288614,0.0011954655556467,-9.9278110305701e-10,4.742190228829e-09,-0.0014976721512472,0.0014976751435511,-0.0014976695590175,0.0014976763959854,-0.0014976712591157,0.0014976742513869,-0.0014976687595131,0.0014976755964295,-0.001148470687054,0.0011484762843701,-0.0011484692346396,0.0011484748319571,0.7372586897946,125301,3014,0.0036834137334201,0.0039516724668703,0.0049682213354054,19.920335269485,7.456268215588e-05,7.456268215588e-05,7.456268215588e-05,3179691.4902249,0.012684501417666
25919200,0.99984481321279,0.015271283309269,0.004603286155893,0.0048877604019814,0.0057802367513943,-0.00088582840192761,0.00088583306794914,1.7983219678807e-09,1.7983443382855e-09,1.2801863368185e-09,2.2254222267903e-09,-0.0011565277288693,0.0011565341955675,-0.0011565273526434,0.0011565338192203,-0.0011565268136156,0.0011565339215806,-0.0011565264402163,0.0011565335481621,-0.0010002598967704,0.0010002638324911,-0.0010002601591547,0.0010002640949288,1.3480106856739e-09,8.854832327844e-10,3.8303305687565e-09,-1.7988466812649e-09,-0.00094914693681652,0.00094915014755166,-0.0012263486296471,0.001226355433889,-0.0012263500745607,0.0012263531064212,-0.0012263479966607,0.0012263544564566,-0.001226349441569,0.0012263521289283,-0.0010533943988371,0.001053401542705,-0.0010534002234089,0.0010533963676095,-0.0009500784155979,0.00095007942190454,-0.0009500805995991,0.00095008070893665,2.2703107000077e-09,2.2703324579901e-09,-0.0011913480286915,0.0011913531132736,-6.2983958703884e-10,5.0322287346164e-09,-0.0014988066780235,0.0014988104755249,-0.0014988039751132,0.0014988115721519,-0.0014988056400364,0.0014988094375049,-0.0014988030333911,0.001498810630378,-0.0011457291405767,0.0011457354419627,-0.0011457277207459,0.0011457340221327,0.72914636768882,125301,3014,0.0036858092197495,0.0039482014126816,0.004951216750853,20.734577104948,8.1076616839584e-05,8.1076616839584e-05,8.1076616839584e-05,3056117.7828739,0.012666267709922
26419200,0.99986242963386,0.015271604083933,0.0046033937302719,0.0048878665110993,0.0057803438425619,-0.00088409941181985,0.00088410663426177,2.7871874948646e-09,2.7872098648577e-09,2.2128302629515e-09,3.2140791963368e-09,-0.0011547023844434,0.0011547110675865,-0.0011547018850612,0.0011547105680831,-0.0011547013037175,0.0011547106509167,-0.0011547008087171,0.001154710155897,-0.00099867459032489,0.00099868065648079,-0.00099867485590218,0.00099868092211153,2.2014404170761e-09,1.7298415450429e-09,4.7559678935604e-09,-9.6773152457302e-10,-0.00094722216467852,0.00094722767848219,-0.0012242947726978,0.0012243036151859,-0.0012242961331346,0.0012243011273888,-0.0012242939765208,0.0012243024508471,-0.001224295336952,0.0012242999629899,-0.0010516550974797,0.0010516642077761,-0.0010516610092985,0.0010516589404802,-0.00094851085549147,0.00094851367970083,-0.00094851310108023,0.0009485149962576,2.8519742654086e-09,2.8519960488313e-09,-0.0011889360240486,0.0011889427324575,-1.071829619135e-10,5.6614825330507e-09,-0.0014962897411271,0.0014962948591977,-0.0014962867989878,0.0014962957919429,-0.0014962884854061,0.0014962936034437,-0.0014962856463342,0.0014962946392377,-0.0011437098141648,0.0011437174139802,-0.0011437084206532,0.0011437160204697,0.7920419595447,125301,3014,0.003678632854142,0.0039402151606523,0.0049412177207774,20.398838450138,7.8390707601108e-05,7.8390707601108e-05,7.8390707601108e-05,3050184.9629275,0.012640778529469
26919200,0.99987883148358,0.015271885324473,0.0046034881339405,0.0048879595581773,0.0057804376323556,-0.00088479685029959,0.00088480138198002,1.7459972890401e-09,1.7460196797385e-09,1.2186201144479e-09,2.1842205482674e-09,-0.0011575177641357,0.0011575241128834,-0.0011575173930857,0.0011575237417123,-0.0011575168506751,0.0011575238544223,-0.0011575164823054,0.0011575234860334,-0.00099895997795225,0.00099896380724523,-0.00099896024944134,0.00099896407878801,1.3133686529943e-09,8.2894813585971e-10,3.793013478961e-09,-1.8536774814022e-09,-0.00094710028034952,0.00094710337280015,-0.001226433231856,0.0012264399510661,-0.0012264346872684,0.0012264376232759,-0.0012264326155555,0.0012264389770409,-0.0012264340709622,0.0012264366491904,-0.001051201141956,0.0010512081964318,-0.0010512069935306,0.0010512030138876,-0.00094880012538046,0.00094880104748717,-0.00094880234007795,0.00094880232268564,2.2474486867206e-09,2.2474704568203e-09,-0.0011868444085487,0.0011868494303412,-6.6077246534005e-10,5.0180848031303e-09,-0.0014965312355515,0.0014965349803729,-0.0014965285374843,0.001496536092864,-0.0014965302096679,0.0014965339544564,-0.0014965276070039,0.001496535162332,-0.001142422860188,0.0011424291164757,-0.0011424214299078,0.0011424276861961,0.74688297492094,125301,3014,0.0036815272172755,0.0039397184297448,0.0049325665031964,21.28723505077,8.549788040616e-05,8.549788040616e-05,8.549788040616e-05,2987169.4599602,0.012634476709285
27419200,0.99989405704645,0.015272139449721,0.0046035736086462,0.0048880437181582,0.0057805221229165,-0.00088617906912169,0.00088618338770286,1.6605159757297e-09,1.6605383597518e-09,1.142800499391e-09,2.0950161326364e-09,-0.0011574505675581,0.0011574567352938,-0.0011574502052196,0.0011574563728341,-0.001157449670998,0.0011574564855481,-0.0011574493113045,0.0011574561258353,-0.0010004704878372,0.001000474133345,-0.00100047075621,0.0010004744017714,1.2368221094343e-09,7.6416675354089e-10,3.6780675171163e-09,-1.887508095342e-09,-0.00094863206180108,0.00094863496693249,-0.0012263581771988,0.0012263647051583,-0.0012263596145021,0.0012263624133652,-0.0012263575717517,0.0012263637505646,-0.0012263590090492,0.0012263614587113,-0.001052878882524,0.0010528857047351,-0.0010528846533212,0.0010528806002501,-0.00095039169030642,0.00095039247893642,-0.00095039388642805,0.0009503937597787,2.2135837045079e-09,2.2136054763428e-09,-0.0011887125909602,0.0011887175106092,-6.5453197358573e-10,4.9432143568563e-09,-0.0014966975777709,0.0014967012703043,-0.0014966949229254,0.0014967023719584,-0.0014966965700821,0.0014967002625829,-0.0014966940103178,0.0014967014592993,-0.0011442250887212,0.0011442312434016,-0.0011442236546545,0.0011442298093359,0.72588280929977,125301,3014,0.0036872512351683,0.0039460593825718,0.0049402982156003,22.251217883136,9.3209743065088e-05,9.3209743065088e-05,9.3209743065088e-05,3006921.5616636,0.012654497253631
27919200,0.99990785674782,0.015272382353235,0.0046036552402776,0.0048881241396779,0.0057806029732795,-0.00088729491875848,0.00088729989793233,1.9157070036131e-09,1.9157293648123e-09,1.3878972491476e-09,2.3457742938085e-09,-0.0011580196904092,0.0011580264360077,-0.0011580192960812,0.0011580260415584,-0.0011580187536408,0.0011580261462278,-0.0011580183624604,0.001158025755028,-0.0010015038068191,0.00100150799939,-0.0010015040757983,0.0010015082684227,1.4536202914505e-09,9.8770366716184e-10,3.8925491473893e-09,-1.6468851504983e-09,-0.00094979216033188,0.00094979566194268,-0.0012268877594909,0.001226894798939,-0.0012268891587579,0.0012268924823526,-0.0012268871087643,0.0012268937987411,-0.0012268885080256,0.0012268914820946,-0.0010539659447804,0.0010539732295602,-0.0010539716888133,0.0010539681512468,-0.0009514932972154,0.00095149456507178,-0.00095149549965515,0.00095149586203394,2.3634213555411e-09,2.3634431158175e-09,-0.0011899890916053,0.0011899944286437,-4.9569394203739e-10,5.079904752235e-09,-0.0014972468018318,0.0014972508531375,-0.0014972441009813,0.0014972518953856,-0.0014972457372549,0.0014972497885279,-0.0014972431333176,0.0014972509276704,-0.0011454213525273,0.0011454278251295,-0.0011454199256674,0.0011454263982707,0.76533978020323,125301,3014,0.0036918774622194,0.0039508673800212,0.0049455875993871,22.918726394479,9.8549811155836e-05,9.8549811155836e-05,9.8549811155836e-05,3011297.8647214,0.012669401099961
28419200,0.99992019872768,0.015272616818349,0.0046037339936337,0.0048882017579822,0.0057806810667334,-0.0008877979803452,0.00088780329939872,2.0487970329511e-09,2.0488193907387e-09,1.5133189209399e-09,2.4781621718467e-09,-0.001160025760588,0.0011600327979162,-0.0011600253511063,0.0011600323883132,-0.0011600248023952,0.0011600324899456,-0.0011600243962816,0.0011600320838128,-0.0010016775214313,0.0010016819996175,-0.0010016777933441,0.0010016822715839,1.568712159584e-09,1.1001587261506e-09,4.0099979816755e-09,-1.5272562613273e-09,-0.00094976703685638,0.00094977084479252,-0.0012284623913141,0.0012284696938877,-0.0012284637759717,0.0012284673622821,-0.0012284617196452,0.0012284686691691,-0.0012284631042971,0.0012284663375032,-0.0010536622541406,0.0010536697885981,-0.001053667997557,0.0010536647147386,-0.00095169605349966,0.00095169756960419,-0.00095169826709457,0.00095169887091541,2.4311074808352e-09,2.4311292395529e-09,-0.0011886962751202,0.0011887018087129,-4.2846007955926e-10,5.146708832328e-09,-0.0014975676906411,0.001497571900369,-0.0014975649636756,0.001497572916812,-0.0014975665978072,0.0014975708075022,-0.0014975639682155,0.0014975719213006,-0.0011446419106387,0.0011446485322297,-0.0011446404891045,0.0011446471106964,0.82558911402084,125301,3014,0.0036939705987202,0.0039507740115326,0.004940245167917,23.441580351924,0.00010273264281539,0.00010273264281539,0.00010273264281539,2967863.2175637,0.012666040252313
28919200,0.99993119902819,0.015272810155868,0.0046037990567,0.0048882658049113,0.0057807452942567,-0.00088730945984131,0.00088731474906355,2.0375997748726e-09,2.0376221459539e-09,1.5027540099995e-09,2.4665253297854e-09,-0.0011609618019372,0.0011609688098986,-0.0011609613931512,0.0011609684009912,-0.0011609608445564,0.0011609685022027,-0.0011609604391259,0.001160968096753,-0.0010012981687111,0.0010013026208599,-0.0010012984425649,0.0010013028947674,1.560739876525e-09,1.0905774034729e-09,4.0011238007563e-09,-1.5357665147861e-09,-0.0009486545441732,0.00094865832885971,-0.0012289200418399,0.001228927320561,-0.0012289214271412,0.0012289249898445,-0.0012289193710269,0.0012289262958668,-0.0012289207563224,0.00122892396509,-0.0010527184392042,0.001052725953046,-0.0010527241841506,0.0010527208814103,-0.0009508900394369,0.00095089153716577,-0.00095089225624119,0.00095089283877206,2.4224801968634e-09,2.4225019671984e-09,-0.0011862423838458,0.0011862478991449,-4.3658034882885e-10,5.1379110698289e-09,-0.001496896445805,0.001496900635384,-0.0014968937194291,0.0014969016519282,-0.0014968953533045,0.0014968995428506,-0.0014968927240259,0.0014969006564736,-0.0011427098844674,0.0011427164883317,-0.0011427084628396,0.0011427150667046,0.7640056113105,125301,3014,0.0036919395339936,0.0039461619394002,0.004930084369511,23.983858890178,0.00010707087112142,0.00010707087112142,0.00010707087112142,2895124.7216532,0.012649043313096
29419200,0.99994108650816,0.015272951916518,0.0046038468943654,0.0048883128033412,0.0057807922188116,-0.00088918873635284,0.00088919342770892,1.8035614184661e-09,1.8035837925179e-09,1.2802514861371e-09,2.2346418579163e-09,-0.0011614996714128,0.0011615061667141,-0.0011614992904578,0.0011615057856377,-0.001161498753264,0.0011615058947917,-0.0011614983752926,0.001161505516801,-0.0010029794215178,0.001002983373885,-0.0010029796954566,0.0010029836478774,1.3593442276367e-09,8.9185113269244e-10,3.77728610989e-09,-1.7271622317626e-09,-0.00095070983538545,0.00095071308298024,-0.0012294447661177,0.001229451573538,-0.0012294461668093,0.0012294492826619,-0.0012294441358291,0.0012294505948811,-0.0012294455365149,0.0012294483039449,-0.0010545962038712,0.0010546032454222,-0.001054601920037,0.0010545982074043,-0.0009530839065586,0.00095308498199249,-0.00095308611073066,0.00095308627926559,2.3042186282026e-09,2.3042403883025e-09,-0.0011885017588407,0.0011885069323641,-5.3667959538028e-10,5.0030826749203e-09,-0.0014973834768985,0.0014973874048174,-0.0014973808110728,0.0014973884579218,-0.0014973824377856,0.0014973863656717,-0.0014973798675707,0.0014973875143685,-0.0011450634646097,0.001145069797188,-0.0011450620309656,0.0011450683635447,0.62417410960896,125301,3014,0.0036997339340564,0.0039546813461883,0.0049394418109054,24.778720287297,0.00011342976229838,0.00011342976229838,0.00011342976229838,2943280.8608473,0.01267501516198
29919200,0.99994985974757,0.015273090633914,0.0046038936270657,0.0048883587805222,0.0057808382263259,-0.00089156202053196,0.00089156692443545,1.8817219904496e-09,1.88174433062e-09,1.3574799713157e-09,2.3113541191888e-09,-0.0011590590350265,0.0011590657294342,-0.001159058640504,0.0011590653347904,-0.0011590581031923,0.0011590654413182,-0.0011590577118872,0.0011590650499938,-0.0010059600599705,0.0010059641800606,-0.0010059603309643,0.0010059644511078,1.4250904118042e-09,9.6685250391895e-10,3.8439548981469e-09,-1.6527351280004e-09,-0.00095439080603111,0.00095439424788086,-0.0012279178675936,0.0012279248547939,-0.0012279192531179,0.0012279225519545,-0.0012279172193865,0.0012279238616587,-0.0012279186049051,0.0012279215587589,-0.0010587867657099,0.0010587939529293,-0.0010587924719543,0.0010587889210322,-0.00095614311596775,0.000956144339073,-0.00095614531455099,0.00095614564748613,2.383025313683e-09,2.383047045578e-09,-0.0011953158742691,0.0011953212413588,-4.5652803902884e-10,5.0773712849396e-09,-0.0014987742210397,0.0014987783360194,-0.0014987715371661,0.0014987793678539,-0.0014987731614257,0.0014987772763729,-0.0014987705748477,0.0014987784054845,-0.0011505586078709,0.0011505651016494,-0.0011505571693403,0.0011505636631199,0.68688558505508,125301,3014,0.0037095603875839,0.0039699176353964,0.00496764838203,25.465321334378,0.00011892257067502,0.00011892257067502,0.00011892257067502,3053320.1830502,0.012728894781406
30419200,0.99995758562804,0.0152731900823,0.0046039270775017,0.0048883916938493,0.0057808713109491,-0.00089241443550137,0.00089241941414431,1.9137703732758e-09,1.9137927014172e-09,1.3901006773785e-09,2.3425417966914e-09,-0.0011621731388771,0.0011621798930911,-0.0011621727452764,0.0011621794993688,-0.0011621722064292,0.001162179604339,-0.0011621718160519,0.0011621792139425,-0.0010067283656248,0.0010067325532186,-0.0010067286380234,0.0010067328256708,1.4525307936274e-09,9.9269655554981e-10,3.8706157409375e-09,-1.6249451666468e-09,-0.00095468758714241,0.00095469109259033,-0.0012306527048519,0.0012306597402696,-0.0012306540910276,0.0012306574387977,-0.0012306520554571,0.0012306587457537,-0.0012306534416268,0.0012306564442217,-0.0010590501587871,0.0010590574024241,-0.0010590558648143,0.0010590523725034,-0.00095654649929392,0.00095654778166499,-0.00095654869917267,0.00095654908817125,2.376527480305e-09,2.3765491919653e-09,-0.0011944822033551,0.0011944875662511,-4.6230111434182e-10,5.0705965366976e-09,-0.0015005608210826,0.0015005649195647,-0.0015005581367814,0.0015005659502396,-0.0015005597600827,0.001500563858532,-0.0015005571728101,0.0015005649862171,-0.0011501038658847,0.0011501103490781,-0.0011501024311847,0.0011501089143791,0.56251928746541,125301,3014,0.0037131029345087,0.0039711609892517,0.004964211168402,26.130627078086,0.00012424501662469,0.00012424501662469,0.00012424501662469,2964464.8138673,0.012730301494578
30919200,0.99996445651675,0.015273296957533,0.0046039630054361,0.0048884270830305,0.0057809068690665,-0.0008967265617555,0.00089673086740395,1.6538054241148e-09,1.6538277530797e-09,1.1385348645708e-09,2.0796287765625e-09,-0.0011635481107411,0.0011635542800938,-0.0011635477151082,0.0011635538843394,-0.0011635471806321,0.001163553984628,-0.0011635467882427,0.001163553592219,-0.0010106163103663,0.0010106199052871,-0.0010106165791228,0.0010106201740969,1.2381250390211e-09,7.6922953263749e-10,3.6492763749481e-09,-1.8465139864525e-09,-0.00095984576970432,0.00095984869115542,-0.0012326249772014,0.0012326315116667,-0.0012326263614273,0.0012326292080082,-0.0012326243293496,0.0012326305111931,-0.0012326257135699,0.0012326282074741,-0.0010637056897807,0.0010637124253394,-0.0010637113926318,0.0010637073918485,-0.00096111766251699,0.00096111844966509,-0.00096111986635559,0.00096111974542045,2.2738421578594e-09,2.2738638679609e-09,-0.0012012508368707,0.0012012558872259,-5.6111497867551e-10,4.966431522132e-09,-0.0015037959919362,0.0015037998423464,-0.0015037933073659,0.0015038008690193,-0.001503794928574,0.0015037987789515,-0.0015037923413514,0.0015037999029534,-0.0011559823158496,0.0011559885487035,-0.0011559808818161,0.0011559871146715,0.67617106509292,125301,3014,0.0037310007764962,0.0039925548467884,0.004992254812752,27.119860019162,0.0001321588801533,0.0001321588801533,0.0001321588801533,3106767.3240055,0.012798450336873
31419200,0.99997060353067,0.015273395596024,0.0046039960974783,0.0048884597094952,0.0057809397890501,-0.0008985263951211,0.00089852987561282,1.3338219690368e-09,1.3338443097955e-09,8.4141286042939e-10,1.7607210770915e-09,-0.0011692409095165,0.001169246350373,-0.0011692405871748,0.00116924602791,-0.0011692400716116,0.0011692461425164,-0.0011692397516521,0.0011692458225377,-0.0010120174177641,0.001012020356219,-0.0010120176881454,0.0010120206266536,9.5074851610535e-10,4.9479720537877e-10,3.301338605778e-09,-2.0848751659033e-09,-0.00096056192253175,0.00096056407908221,-0.0012375823954141,0.0012375882049013,-0.0012375838130073,0.0012375860146213,-0.0012375818391318,0.0012375873161953,-0.0012375832567192,0.001237585125855,-0.001064096413843,0.0010641024531262,-0.0010641020148541,0.0010640975292383,-0.00096223888608818,0.000962239115713,-0.00096224105089379,0.00096224040313941,2.0237060196408e-09,2.0237277243895e-09,-0.0011996097784662,0.0011996141723205,-7.5360518384952e-10,4.6631622260361e-09,-0.001506569700255,0.0015065730127995,-0.0015065671711487,0.0015065741188487,-0.0015065687632709,0.0015065720757827,-0.0015065663267139,0.0015065732743624,-0.0011553359335981,0.0011553416171085,-0.0011553344914243,0.0011553401749354,0.69952705654839,125301,3014,0.0037384839357577,0.0039955524112781,0.0049854860005492,28.437152857285,0.00014269722285828,0.00014269722285828,0.00014269722285828,2967397.1524628,0.012802273632316
31919200,0.99997589800316,0.015273483264622,0.0046040255861367,0.0048884887479554,0.0057809689305296,-0.00089966074924142,0.00089966532739455,1.760920383591e-09,1.7609427460549e-09,1.2504177478902e-09,2.1813360094322e-09,-0.0011713134753474,0.0011713198744541,-0.0011713131011308,0.0011713195001161,-0.0011713125709883,0.0011713196021057,-0.0011713121999435,0.0011713192310416,-0.001013119233199,0.0010131230866554,-0.0010131195039356,0.0010131233574456,1.3146159436301e-09,8.6682354730292e-10,3.6693839654416e-09,-1.6915688721411e-09,-0.00096123964541421,0.00096124279297833,-0.0012392994210454,0.0012393060839519,-0.0012393007825497,0.0012393038480867,-0.0012392987912908,0.0012393051196899,-0.0012393001527893,0.0012393028837645,-0.0010647919799482,0.0010647988094602,-0.0010647975534673,0.0010647939102479,-0.00096330564541958,0.00096330667213277,-0.00096330782305289,0.00096330798254208,2.2674850491823e-09,2.2675067867536e-09,-0.0011991423891169,0.0011991474647278,-5.032247681817e-10,4.8943974218714e-09,-0.0015072643587504,0.0015072682461963,-0.0015072617493332,0.0015072692613574,-0.0015072633288951,0.0015072672163082,-0.0015072608148057,0.0015072683267784,-0.001155449402613,0.0011554556099063,-0.0011554479738507,0.0011554541811449,0.71926751588325,125301,3014,0.0037431985448467,0.0039983756062298,0.0049835608493368,29.269335132677,0.00014935468106141,0.00014935468106141,0.00014935468106141,2936477.2185583,0.012807965776407
32419200,0.99998024519542,0.015273562391223,0.0046040522144382,0.0048885149691869,0.005780995207598,-0.00089883565902842,0.00089884187365258,2.3897926936795e-09,2.3898150569963e-09,1.8546606878891e-09,2.8184329251911e-09,-0.0011711045814957,0.0011711124175495,-0.0011711042074865,0.001171112043419,-0.0011711036662497,0.0011711121577422,-0.0011711032954052,0.0011711117868783,-0.0010123638137455,0.001012369107807,-0.0010123640871139,0.001012369381229,1.8311021879686e-09,1.4109731672217e-09,4.2058217494944e-09,-1.1534226089526e-09,-0.00096011785672026,0.00096012242663652,-0.0012388570382988,0.0012388649386434,-0.0012388583993974,0.0012388627035062,-0.0012388563998066,0.0012388639853606,-0.0012388577608995,0.0012388617501632,-0.0010637640652613,0.0010637721313466,-0.001063769639535,0.0010637672362487,-0.0009623487550741,0.0009623509783845,-0.0009623509136061,0.00096235231576979,2.5657275897245e-09,2.5657493409424e-09,-0.0011973813509879,0.0011973872804675,-2.1525085852814e-10,5.1955137792527e-09,-0.001506281540086,0.0015062861430458,-0.0015062789263866,0.0015062871633318,-0.0015062805110815,0.0015062851140086,-0.0015062779925829,0.0015062862294768,-0.001153935803242,0.0011539427177948,-0.001153934372969,0.0011539412875227,0.78912843059543,125301,3014,0.0037397754972522,0.0039937251962031,0.0049762664486876,29.299123614826,0.0001495929889186,0.0001495929889186,0.0001495929889186,2905914.2051202,0.012792407387825
32919200,0.99998378688195,0.015273618738889,0.0046040712110919,0.0048885336495516,0.0057810138782454,-0.00089711809796128,0.00089712485798115,2.6009192770544e-09,2.6009416479004e-09,2.0638675590128e-09,3.0221460635564e-09,-0.0011712041550932,0.0011712124648219,-0.0011712037256264,0.0011712120352338,-0.0011712031694566,0.0011712121240724,-0.0011712027437674,0.0011712116983639,-0.0010107198726439,0.0010107256349825,-0.0010107201051964,0.0010107258675888,2.0355411603575e-09,1.6044761785765e-09,4.4159170203389e-09,-9.5539232567965e-10,-0.00095770371153827,0.00095770881443273,-0.0012384261045463,0.0012384344741902,-0.0012384274169703,0.0012384321776798,-0.0012384253865787,0.0012384334259633,-0.0012384266989969,0.0012384311293926,-0.0010614775085532,0.0010614860396003,-0.0010614830509347,0.0010614810896845,-0.00096029662314968,0.00096029930427454,-0.00096029874604676,0.00096030058203001,2.7276167945322e-09,2.7276385593673e-09,-0.0011934002210988,0.0011934065970604,-5.9930060457202e-11,5.360710515547e-09,-0.0015045222433762,0.0015045272165566,-0.0015045195326523,0.0015045281469705,-0.0015045211111015,0.0015045260842492,-0.0015045184978873,0.0015045271121542,-0.0011505455156528,0.0011505528050877,-0.0011505441571688,0.0011505514466043,0.69092321609736,125301,3014,0.0037326469262465,0.0039837161098725,0.0049597786124356,29.174592003544,0.00014859673602835,0.00014859673602835,0.00014859673602835,2833129.3220055,0.01275837732905
33419200,0.9999867136026,0.0152736712153,0.004604088907467,0.0048885510580251,0.0057810312498082,-0.0008982922299172,0.00089829849503498,2.4167708460155e-09,2.4167932125087e-09,1.8809005871017e-09,2.8319577055184e-09,-0.001170366349407,0.0011703742266573,-0.0011703658882805,0.0011703737654095,-0.0011703653317861,0.0011703738439929,-0.0011703648748897,0.001170373387077,-0.0010116553383064,0.0010116606401241,-0.0010116555640832,0.0010116608659545,1.8881563504134e-09,1.4457550696419e-09,4.2728898286842e-09,-1.1119532355601e-09,-0.00095931542735096,0.00095932011632069,-0.0012378178223626,0.0012378258439407,-0.0012378191097163,0.0012378235099593,-0.0012378170700137,0.0012378247479321,-0.0012378183573616,0.0012378224138904,-0.0010628062335583,0.0010628143928834,-0.0010628117808065,0.0010628094224203,-0.00096176229451482,0.00096176459695196,-0.00096176443190783,0.00096176586854383,2.6788973028498e-09,2.6789190593322e-09,-0.0011957626926193,0.0011957688957129,-1.1237641518354e-10,5.3168933434845e-09,-0.0015043644494063,0.0015043692843143,-0.0015043616863019,0.001504370168795,-0.0015043632649764,0.0015043680998518,-0.0015043606012934,0.0015043690837352,-0.0011525679589589,0.0011525751016948,-0.001152566609853,0.0011525737525897,0.77567308772674,125301,3014,0.0037375209205362,0.0039903974685374,0.004969560794365,29.316125554193,0.00014972900443354,0.00014972900443354,0.00014972900443354,2931960.7729231,0.012779954496006
33919200,0.99998920047163,0.015273714968054,0.0046041036549862,0.0048885655657719,0.0057810457472954,-0.00089882072463968,0.00089882551414231,1.8433455324417e-09,1.8433679005819e-09,1.3247183463668e-09,2.266147780035e-09,-0.0011735134210399,0.0011735200027532,-0.0011735130373673,0.0011735196189591,-0.0011735125030118,0.0011735197227897,-0.0011735121225599,0.0011735193423185,-0.0010116850496671,0.001011689083658,-0.0010116853279087,0.0010116893619535,1.3888887615411e-09,9.3394765505126e-10,3.7526384799694e-09,-1.6265458641721e-09,-0.000959074833052,0.00095907817411116,-0.001240347864008,0.0012403547039103,-0.0012403492225574,0.0012403524521749,-0.0012403472251747,0.0012403537249141,-0.0012403485837182,0.0012403514731186,-0.0010621702802106,0.001062177285169,-0.0010621758783161,0.0010621723752542,-0.00096189413568943,0.000961895317431,-0.00096189633138426,0.00096189663103997,2.3123367531112e-09,2.3123584917412e-09,-0.0011937342504214,0.0011937394596544,-4.6826589772473e-10,4.9485561573298e-09,-0.0015051801454427,0.0015051841366933,-0.0015051775145605,0.0015051851434856,-0.0015051791001823,0.0015051830914001,-0.001505176564311,0.001505184193185,-0.0011513784446398,0.0011513847591789,-0.0011513770152125,0.0011513833297525,0.76303060755971,125301,3014,0.0037397134244525,0.0039894084299729,0.0049611743179279,30.069881243108,0.00015575904994487,0.00015575904994487,0.00015575904994487,2842671.9484875,0.012772720670846
34419200,0.99999136077195,0.015273751278894,0.0046041159185723,0.0048885776174429,0.0057810577428782,-0.00090129009634074,0.00090129334300585,1.2437554603597e-09,1.2437778334704e-09,7.5911518622861e-10,1.6670711983398e-09,-0.0011755736886777,0.0011755789322707,-0.0011755733779283,0.0011755786213999,-0.0011755728708176,0.0011755787383749,-0.0011755725623972,0.001175578429935,-0.0010141443944757,0.0010141471389175,-0.0010141446704528,0.0010141474149486,8.7186910762218e-10,4.2401107478948e-10,3.1695188247211e-09,-2.1071318018965e-09,-0.000961416981613,0.00096141893598511,-0.0012422336335846,0.0012422392307988,-0.0012422350271057,0.0012422370894912,-0.0012422330934817,0.0012422383654584,-0.0012422344869969,0.0012422362240905,-0.0010645386100494,0.0010645443820755,-0.001064544111566,0.0010645395733049,-0.00096441297757667,0.00096441307620834,-0.00096441513560231,0.00096441437439807,1.9727425755391e-09,1.9727643274628e-09,-0.0011957176219268,0.0011957218796056,-7.504629874444e-10,4.557181888398e-09,-0.0015066812410251,0.0015066844771791,-0.0015066787689848,0.0015066855677256,-0.0015066803274175,0.0015066835635389,-0.001506677946322,0.0015066847450116,-0.0011535795735752,0.0011535851133101,-0.0011535781249896,0.0011535836647253,0.72790058071017,125301,3014,0.0037499542847849,0.0039991202122581,0.0049693933418661,31.479586826157,0.00016703669460925,0.00016703669460925,0.00016703669460925,2838441.1212863,0.01280124190467
34919200,0.99999326227385,0.015273784594229,0.0046041271681997,0.0048885886754875,0.0057810687505419,-0.00090562735584461,0.00090562896130538,6.0577126648598e-10,6.0579364086128e-10,1.6602590391966e-10,1.0218702046402e-09,-0.0011787968592482,0.0011788006738643,-0.0011787966269983,0.0011788004414929,-0.0011787961539065,0.0011788005670832,-0.00117879592313,0.0011788003362872,-0.0010184317424336,0.0010184331109596,-0.0010184320136577,0.0010184333822374,3.1592922260053e-10,-1.0973559407572e-10,2.5069665650435e-09,-2.5748787348315e-09,-0.00096587705645565,0.00096587753717623,-0.001245466372562,0.0012454706063524,-0.0012454677765266,0.0012454686120285,-0.0012454659338335,0.0012454698680297,-0.0012454673377921,0.0012454678736456,-0.001068959024492,0.0010689634083475,-0.00106896433726,0.0010689587894921,-0.00096878881255967,0.0009687877768327,-0.00096879091196808,0.00096878906916152,1.6050573948925e-09,1.6050791311402e-09,-0.0012004523921325,0.0012004556249153,-1.0150684105333e-09,4.091426892761e-09,-0.0015100783295965,0.0015100807706512,-0.0015100760566514,0.0015100819239872,-0.0015100775580646,0.0015100799990867,-0.0015100753716167,0.0015100812389012,-0.0011581637965542,0.0011581684720286,-0.0011581623307947,0.0011581670062699,0.75808686568767,125301,3014,0.0037679447850223,0.0040176146624941,0.0049890123964086,33.573062753058,0.00018378450202446,0.00018378450202446,0.00018378450202446,2850460.8190917,0.012858048376772
35419200,0.99999490627348,0.015273810142269,0.0046041358018192,0.0048885971552413,0.0057810771852083,-0.00091032390283623,0.00091032485920492,3.5428363626046e-10,3.5430601216512e-10,-6.0024201860659e-11,7.5746057474644e-10,-0.0011844484209814,0.0011844516820038,-0.0011844482200885,0.0011844514809894,-0.0011844477650141,0.001184451603134,-0.0011844475655181,0.0011844514036185,-0.001022758035982,0.0010227588549693,-0.0010227583053634,0.0010227591244045,8.7232811360475e-11,-3.1131945773882e-10,2.1817537115008e-09,-2.693765546073e-09,-0.00097011764125564,0.00097011753918255,-0.0012507518024881,0.0012507554541071,-0.0012507531701013,0.0012507535616391,-0.0012507513967429,0.0012507547706935,-0.0012507527643503,0.0012507528781651,-0.0010728676795433,0.0010728713954645,-0.0010728727920563,0.0010728669798666,-0.00097312400126402,0.00097312254070916,-0.00097312605917267,0.0009731238488728,1.4413770508911e-09,1.4413987816096e-09,-0.0012035409661703,0.0012035437541312,-1.0756305933414e-09,3.8241538284608e-09,-0.0015142628192954,0.0015142649544579,-0.0015142606653853,0.0015142660888221,-0.0015142621014217,0.0015142642365516,-0.0015142600322106,0.0015142654555959,-0.0011615766188499,0.0011615808733007,-0.0011615751502231,0.0011615794046747,0.67379056419233,125301,3014,0.0037874381300983,0.0040352171530304,0.005001832298254,35.929068935161,0.00020263255148129,0.00020263255148129,0.00020263255148129,2812383.09319,0.012908623155605
35919200,0.99999623600458,0.015273832336981,0.0046041433030292,0.0048886045249291,0.0057810845090227,-0.00091404371829145,0.00091404636840065,1.0077375262515e-09,1.0077598792451e-09,5.699112595287e-10,1.3992343022643e-09,-0.0011855044278526,0.0011855091596107,-0.0011855041444683,0.0011855088761048,-0.0011855036701193,0.001185508977708,-0.0011855033893979,0.0011855086969673,-0.0010267458529924,0.001026748073986,-0.0010267461219494,0.0010267483429967,6.439932320895e-10,2.6412411501679e-10,2.7300221187396e-09,-2.0746623283984e-09,-0.00097444903945684,0.00097445047063837,-0.0012521768049985,0.0012521817579617,-0.0012521780732031,0.0012521798028374,-0.0012521762837997,0.0012521809593744,-0.0012521775519985,0.0012521790041898,-0.0010774458268595,0.0010774507279635,-0.0010774508652574,0.0010774463814949,-0.00097722975413412,0.00097722952780663,-0.00097723182520707,0.0009772308766424,1.8305289688612e-09,1.830550703109e-09,-0.0012093420816553,0.0012093459547801,-6.6122858497944e-10,4.1776347505672e-09,-0.0015169646173716,0.0015169676772515,-0.0015169623494058,0.001516968660468,-0.0015169637566138,0.0015169668164611,-0.0015169615780958,0.0015169678891069,-0.0011668435281779,0.0011668486075172,-0.0011668420758203,0.0011668471551604,0.72183945217264,125301,3014,0.0038028671559045,0.004053172200032,0.0050258576656258,37.536090494998,0.00021548872395998,0.00021548872395998,0.00021548872395998,2865281.4321929,0.012966733836881
36419200,0.99999721667475,0.015273848279142,0.0046041486853713,0.0048886098146779,0.005781089779093,-0.00091334133129002,0.00091334745017813,2.3425074738576e-09,2.3425298015578e-09,1.8527218447959e-09,2.7510323563205e-09,-0.0011862602489507,0.0011862680299585,-0.0011862599653968,0.0011862677462832,-0.0011862594664024,0.0011862678727029,-0.0011862591855313,0.0011862675918125,-0.0010260507258887,0.0010260560017196,-0.0010260509988985,0.001026056274783,1.7384264450388e-09,1.4170227715814e-09,3.8662093310879e-09,-9.3337346668058e-10,-0.0009733450307097,0.00097334947155312,-0.0012526588258998,0.001252666399651,-0.0012526600922865,0.0012526644459173,-0.0012526582836838,0.0012526656218779,-0.0012526595500646,0.0012526636680839,-0.0010763799601429,0.0010763874781482,-0.0010763849968928,0.0010763831400366,-0.00097626194111587,0.00097626424868026,-0.00097626396885629,0.00097626565159385,2.4523304033719e-09,2.452352143443e-09,-0.0012073855313611,0.0012073911870409,-6.0344845006407e-11,4.8047893730122e-09,-0.0015167607433286,0.0015167652970114,-0.0015167584645745,0.0015167662883059,-0.0015167598814687,0.0015167644351191,-0.0015167576920916,0.0015167655157718,-0.0011651897764835,0.0011651963305346,-0.0011651883248002,0.001165194878852,0.70447270805608,125301,3014,0.0037999600273752,0.0040486038916214,0.0050177634490263,37.488412638692,0.00021510730110954,0.00021510730110954,0.00021510730110954,2806470.5394115,0.012950988147565
36919200,0.99999792315878,0.015273858834609,0.004604152254273,0.0048886133190181,0.005781093261318,-0.00091221155286094,0.0009122195453871,3.0851728710865e-09,3.0851951931399e-09,2.5249010479326e-09,3.4777144935624e-09,-0.0011852973578223,0.0011853067570398,-0.0011852968199405,0.0011853062190365,-0.0011852962510657,0.0011853062789111,-0.0011852957191358,0.0011853057469616,-0.0010246743273853,0.0010246810137808,-0.0010246746099869,0.0010246812964361,2.4368027931271e-09,2.0319711921344e-09,4.7273685995773e-09,-3.8286957597729e-10,-0.00097217591763815,0.0009721821543766,-0.0012516509954448,0.0012516602745946,-0.0012516521257544,0.0012516579516563,-0.0012516501326346,0.0012516590815716,-0.0012516512629383,0.001251656758573,-0.0010749639086102,0.0010749730309222,-0.0010749692408872,0.001074968391173,-0.0009751416115591,0.00097514515429363,-0.00097514382424198,0.00097514656653905,3.0280517990667e-09,3.028073557549e-09,-0.0012060084401022,0.0012060156456835,3.5960761364601e-10,5.5291845743831e-09,-0.00151543447416,0.0015154402306161,-0.0015154316683709,0.0015154409052836,-0.0015154331546471,0.0015154389110708,-0.0015154304528516,0.0015154396897131,-0.0011639364905965,0.0011639442754591,-0.0011639350928942,0.0011639428777576,0.64727478642576,125301,3014,0.0037952802679355,0.0040437615199713,0.005012061255661,36.861739303991,0.00021009391443193,0.00021009391443193,0.00021009391443193,2827569.4079822,0.012935567532613
37419200,0.99999846841767,0.015273867078113,0.0046041550407656,0.0048886160558852,0.0057810959814618,-0.0009142741564123,0.00091427875857044,1.767204848105e-09,1.7672271830697e-09,1.2597504746201e-09,2.1841148630696e-09,-0.0011856795669537,0.0011856860008945,-0.0011856791899317,0.0011856856237511,-0.0011856786655724,0.0011856857267728,-0.0011856782920431,0.0011856853532238,-0.0010269049519443,0.0010269088190897,-0.0010269052320502,0.0010269090992492,1.3191506805733e-09,8.8198477202211e-10,3.5777520915376e-09,-1.58084084993e-09,-0.00097467024076022,0.00097467342055898,-0.0012523163223698,0.0012523229570576,-0.0012523176169326,0.0012523207857715,-0.0012523156914005,0.0012523219980751,-0.0012523169859574,0.0012523198267287,-0.0010776020955904,0.001077608751847,-0.0010776074832231,0.0010776040645986,-0.00097743480568712,0.00097743591224863,-0.0009774369849925,0.00097743724532184,2.2878865643124e-09,2.287908297472e-09,-0.0012095440412924,0.0012095491698677,-3.8629276555059e-10,4.8128049593474e-09,-0.0015170240984744,0.0015170281118456,-0.0015170215539311,0.0015170290608633,-0.0015170230697402,0.0015170270830789,-0.0015170206201604,0.0015170281270415,-0.0011670554917586,0.0011670616760819,-0.0011670540507538,0.0011670602350781,0.65462458225499,125301,3014,0.003803825930712,0.0040540920382183,0.0050266976451037,37.673859754688,0.0002165908780375,0.0002165908780375,0.0002165908780375,2863570.5294189,0.012969489544104
37919200,0.99999887056725,0.015273872740291,0.0046041569538356,0.00488861793491,0.0057810978515458,-0.00091427605210586,0.00091428231696554,2.4055796281642e-09,2.4056019472471e-09,1.8737756046768e-09,2.8307468759349e-09,-0.0011861704356432,0.0011861783253015,-0.0011861700588245,0.0011861779483612,-0.0011861695227921,0.0011861780631901,-0.0011861691494638,0.0011861776898424,-0.0010268822042711,0.0010268875345036,-0.0010268824848025,0.0010268878150887,1.8431423575165e-09,1.4331601835302e-09,4.1234061046581e-09,-1.037531308586e-09,-0.00097457933679203,0.00097458395917532,-0.0012527531559808,0.0012527610429448,-0.0012527544514035,0.0012527588710274,-0.0012527525155591,0.0012527600941048,-0.0012527538109758,0.001252757922127,-0.0010774926649219,0.0010775005788593,-0.001077498054868,0.0010774958892742,-0.00097734876635057,0.00097735108646263,-0.00097735092357308,0.00097735244252418,2.584917774007e-09,2.5849395091077e-09,-0.0012092645194043,0.0012092705025949,-1.0133594155066e-10,5.1147564840827e-09,-0.0015173160269724,0.0015173207504056,-0.001517313476424,0.001517321705307,-0.0015173149983568,0.0015173197217576,-0.0015173125427326,0.0015173207715645,-0.0011668308245506,0.001166837716392,-0.0011668293853833,0.0011668362772255,0.61069305856338,125301,3014,0.0038038384158817,0.0040537204597857,0.0050255452567688,37.676474616829,0.00021661179693463,0.00021661179693463,0.00021661179693463,2846050.6164375,0.012967968493873
38419200,0.99999916130487,0.01527387742441,0.0046041585346463,0.0048886194892116,0.0057810994005525,-0.00091369959694085,0.00091370724774417,2.9537751756371e-09,2.9537974825733e-09,2.3751126959081e-09,3.3737315692429e-09,-0.0011845888882798,0.0011845979920701,-0.0011845883670281,0.0011845974706969,-0.0011845877866321,0.0011845975500336,-0.0011845872707274,0.0011845970341093,-0.0010264116606799,0.0010264180788284,-0.0010264119408126,0.0010264183590148,2.3433709538046e-09,1.8901171141957e-09,4.7487441548762e-09,-6.4793336399165e-10,-0.00097434783442909,0.00097435375145662,-0.0012514368696537,0.0012514459982476,-0.0012514381069867,0.0012514435967735,-0.0012514360437902,0.0012514448126956,-0.0012514372811174,0.0012514424111612,-0.0010773333483932,0.0010773424728795,-0.0010773389583231,0.0010773375475385,-0.00097694636701121,0.00097694960610513,-0.00097694862042762,0.00097695096487267,2.9781635745589e-09,2.9781853163358e-09,-0.0012098458639807,0.0012098528978506,1.7177213047932e-10,5.6228121931236e-09,-0.0015167276665512,0.0015167332102884,-0.0015167247935053,0.0015167340035374,-0.0015167263746818,0.0015167319183865,-0.0015167236054965,0.0015167328154774,-0.0011670855901869,0.0011670933509151,-0.0011670841850285,0.0011670919457577,0.69725492786575,125301,3014,0.0038014468195061,0.0040527564067836,0.0050279467854049,37.198059303449,0.00021278447442759,0.00021278447442759,0.00021278447442759,2880737.2917419,0.012966987144171
38880000,0.99999936433501,0.015273880818605,0.0046041596791419,0.0048886206149816,0.005781100524481,-0.00091298938982398,0.00091299593902269,2.5297050126307e-09,2.5297199192635e-09,1.9636745372526e-09,2.9512357794198e-09,-0.0011866515837076,0.0011866596941035,-0.0011866510989826,0.001186659209124,-0.0011866505316933,0.0011866592987773,-0.0011866500516992,0.0011866588188251,-0.0010256034899137,0.001025608947588,-0.0010256037987166,0.0010256092564672,1.9815473857656e-09,1.511401933451e-09,4.3850262986243e-09,-1.0364854494907e-09,-0.0009728045482021,0.0009728094759669,-0.0012529237935961,0.0012529320408341,-0.0012529250728123,0.0012529296688725,-0.0012529230255576,0.0012529309078373,-0.0012529243047132,0.0012529285357929,-0.0010757355345796,0.0010757438265246,-0.0010757411981016,0.0010757389056877,-0.00097570964897215,0.00097571204930706,-0.00097571194690891,0.00097571342542716,2.7201856718714e-09,2.7201974426589e-09,-0.0012063615006206,0.0012063678378636,-9.0404811871524e-11,5.3774918606385e-09,-0.0015165896203263,0.0015165945397812,-0.0015165868027243,0.0015165953985398,-0.0015165883950712,0.0015165933146122,-0.0015165856788744,0.0015165942746306,-0.0011642147183342,0.0011642218968288,-0.0011642132717823,0.0011642204503766,0.72416034322607,125301,3014,0.003798506628974,0.0040463705435198,0.0050135299908742,37.193677108994,0.00021274941687195,0.00021274941687195,0.00021274941687195,2799553.9961103,0.01294298109167
