time,ASR_ext,ASR_strain,ASR_strain_xx,ASR_strain_yy,ASR_strain_zz,disp_x_101,disp_x_102,disp_x_103,disp_x_104,disp_x_105,disp_x_106,disp_x_p1_neg,disp_x_p1_pos,disp_x_p2_neg,disp_x_p2_pos,disp_x_p3_neg,disp_x_p3_pos,disp_x_p4_neg,disp_x_p4_pos,disp_x_p5_neg,disp_x_p5_pos,disp_x_p6_neg,disp_x_p6_pos,disp_y_101,disp_y_102,disp_y_103,disp_y_104,disp_y_105,disp_y_106,disp_y_p1_neg,disp_y_p1_pos,disp_y_p2_neg,disp_y_p2_pos,disp_y_p3_neg,disp_y_p3_pos,disp_y_p4_neg,disp_y_p4_pos,disp_y_p5_neg,disp_y_p5_pos,disp_y_p6_neg,disp_y_p6_pos,disp_y_p7_neg,disp_y_p7_pos,disp_y_p8_neg,disp_y_p8_pos,disp_z_101,disp_z_102,disp_z_103,disp_z_104,disp_z_105,disp_z_106,disp_z_p1_neg,disp_z_p1_pos,disp_z_p2_neg,disp_z_p2_pos,disp_z_p3_neg,disp_z_p3_pos,disp_z_p4_neg,disp_z_p4_pos,disp_z_p5_neg,disp_z_p5_pos,disp_z_p6_neg,disp_z_p6_pos,humidity,ndof,nelem,strain_xx,strain_yy,strain_zz,temp,thermal_strain_xx,thermal_strain_yy,thermal_strain_zz,vonmises,vstrain
2419200,0,0,0,0,0,0,0,0,0,0,0,0,0,0,0,0,0,0,0,0,0,0,0,0,0,0,0,0,0,0,0,0,0,0,0,0,0,0,0,0,0,0,0,0,0,0,0,0,0,0,0,0,0,0,0,0,0,0,0,0,0,0,0,0,0,0,0,0,0,0,0,0,0,0,0
3419200,0.15846859742819,0.0027326333187122,0.00091087777290405,0.00091087777290405,0.00091087777290405,-0.00023592675240218,0.00023590712757314,-1.7204708026828e-06,1.7007822377998e-06,1.4914536016556e-08,-3.515163094371e-08,-0.00024462189327707,0.00024347818667446,-0.00024348091419521,0.0002446187599938,-0.00024463764801238,0.00024346148262957,-0.00024349728990209,0.00024460186701474,-0.00024427122731504,0.00024088467103502,-0.00024092237774518,0.00024423402579195,-1.8225615613516e-08,3.1757377812291e-08,-6.1869527793737e-08,7.4144573597727e-08,-0.00024306937812444,0.00024308197477357,-0.00025090481623589,0.00025085616695133,-0.00025086127128213,0.00025090173702057,-0.0002508886300464,0.00025087278687016,-0.0002508447564161,0.00025091848395295,-0.00024850938963925,0.00024840482319199,-0.00024837802195502,0.00024853995024039,-0.00024288027132788,0.00024288961239048,-0.0002428301514719,0.00024293900695821,1.6927150166445e-06,-1.7282641630461e-06,-0.0002575587931056,0.00025752327817665,4.8570783298256e-08,-8.6060240366503e-08,-0.0002639945714417,0.00026514515563161,-0.00026403979449472,0.00026510047799155,-0.00026513524849733,0.00026400473224542,-0.00026518003066363,0.00026395999492418,-0.00025621921407632,0.00025278959692406,-0.00025286908287281,0.00025613768740762,0.78396788080293,134640,3014,0.00098250816419651,0.0010123027229364,0.0010725071261388,31.785376163642,0.00016948300930914,0.00016948300930914,0.00016948300930914,2344443.6647828,0.0030720307797848
4419200,0.34834195231091,0.0058101411184318,0.0018292014079778,0.0019054559494184,0.0020754837610355,-0.00043870719141514,0.00043875468432966,-8.8436790336284e-07,9.3444238379813e-07,-1.1176240272393e-07,1.6058158093244e-07,-0.00047179242354079,0.00047114176895933,-0.00047117962781458,0.00047174539813249,-0.00047170212330706,0.00047123305805739,-0.0004710990528582,0.00047183825123986,-0.00047021083000778,0.00046858104080956,-0.0004684386172233,0.0004703460358157,1.0560632610027e-07,-1.6713070638439e-07,-1.3586209302088e-06,1.3049489692601e-06,-0.00046707957392514,0.00046702390625326,-0.0005014984679953,0.00050065969738046,-0.00050064380225598,0.00050155131700086,-0.00050158648701203,0.00050056948351994,-0.00050073186835297,0.0005014630582613,-0.00049447336845305,0.00049171978084549,-0.00049190451075246,0.00049437447870079,-0.00046367377879719,0.00046476043160837,-0.00046393781811381,0.00046449798646825,5.5878452212698e-07,-1.2591360489294e-06,-0.00053362293858398,0.00053291730886749,9.4073541762669e-07,-1.6917821978602e-06,-0.00057080163127577,0.0005715907778601,-0.00057167523116154,0.00057071403800086,-0.00057140763560538,0.00057098135480384,-0.00057227821282644,0.00057010784675842,-0.00051736583381776,0.00051402018467698,-0.00051559901662275,0.00051579271646405,0.77882047341517,134640,3014,0.0018264571154107,0.0019441854928681,0.002219432837885,33.59860476308,0.00018398883810464,0.00018398883810464,0.00018398883810464,3634716.75726,0.0060080887092126
5419200,0.54793944019293,0.0089048268634952,0.0027262139541394,0.0028885035604465,0.0032901093489092,-0.00063153817828988,0.00063173790837533,-1.6294311413369e-06,1.8363166903172e-06,-1.691614268004e-07,3.7679428543414e-07,-0.00070429186445123,0.00070314947880235,-0.00070311973728968,0.00070429550753407,-0.00070411109457046,0.00070333262049067,-0.00070296149443839,0.00070448248621456,-0.0006961403675902,0.00069315896876027,-0.00069276178662118,0.00069651925321138,1.7278181642815e-07,-3.7315823750811e-07,-2.278561203958e-06,2.1023284423875e-06,-0.00068266175555585,0.0006824804791235,-0.0007589968653955,0.00075755950616694,-0.00075758966873776,0.00075902961147507,-0.00075917315292935,0.00075737954609351,-0.00075776651581708,0.00075885424185568,-0.00073995794170302,0.00073531262062196,-0.00073577268501482,0.00073971021328127,-0.00067487289743778,0.00067665356386346,-0.00067539985382354,0.00067612586575797,9.5661068833853e-07,-2.5065513981869e-06,-0.00081679138544778,0.00081522633549257,1.3041277844614e-06,-2.9885956590432e-06,-0.00090506713713493,0.00090611925184866,-0.00090648275215409,0.00090469059870314,-0.00090622155462393,0.00090495756800465,-0.0009076313872142,0.00090353699963866,-0.00078303050535381,0.00077667455444825,-0.00077966460600496,0.00078005546442712,0.77319618806626,134640,3014,0.0026286805181165,0.0028401495447942,0.003394059204009,36.266592204086,0.00020533273763269,0.00020533273763269,0.00020533273763269,4461708.1123378,0.0089024189285559
6419200,0.70459189481436,0.011123825992142,0.0033633882488034,0.0035820112861868,0.0041784264571521,-0.00075521409772583,0.00075547504176339,-3.0962475729444e-06,3.3571894914151e-06,-4.5062944579373e-07,7.3903704269944e-07,-0.00087566601985081,0.0008733812663097,-0.00087349679993206,0.00087551192718087,-0.00087528287649579,0.00087377302349572,-0.0008731301591904,0.00087591574731001,-0.00084178352698223,0.00083612636359902,-0.00083547456671042,0.00084243003241641,4.4473892885103e-07,-7.4481729077825e-07,-2.9895078415665e-06,2.7353042023063e-06,-0.0008205580846296,0.00082029563402363,-0.0009455118554408,0.00094376830154921,-0.00094367019824682,0.00094568400733984,-0.00094589119026637,0.00094337695282343,-0.0009440538078291,0.00094529310104501,-0.00089667384899818,0.00089043028376471,-0.00089120025314753,0.00089616100461655,-0.0008069711391413,0.0008097402931453,-0.00080812427552761,0.00080854364793786,2.4943052087052e-06,-3.9524151745092e-06,-0.0010101447873292,0.001008675673439,1.9844678575205e-06,-3.617414055053e-06,-0.0011539625808014,0.0011565503452976,-0.001155802172057,0.0011546915119357,-0.001156107822794,0.0011543958836597,-0.0011579510259765,0.0011525446602165,-0.00096067646926447,0.00095103585189272,-0.00095435674947167,0.00095732883682532,0.72914355969409,134640,3014,0.003142972683845,0.0034129542185443,0.0041966733979727,36.73837275282,0.00020910698202256,0.00020910698202256,0.00020910698202256,4632277.0827636,0.010810918562959
7419200,0.83067206061681,0.012836061976455,0.0038732363161293,0.0041211131923691,0.0048417124679562,-0.00084557008937586,0.00084598866100593,-3.4225201597134e-06,3.8428927320904e-06,-8.6731263514354e-07,1.2973325350829e-06,-0.0010113401183265,0.0010086213148435,-0.0010088939111542,0.0010110352066747,-0.0010106442971226,0.001009364497883,-0.0010082241691227,0.0010117684631062,-0.00094525051747419,0.00093934777255387,-0.00093816413016333,0.00094644022976136,8.8351915801448e-07,-1.2828503876042e-06,-2.3259347804189e-06,1.9869851847115e-06,-0.00091832406331504,0.00091796318439454,-0.0010890157073303,0.0010879455935124,-0.001087624059477,0.0010893861373754,-0.0010897008754992,0.001087206782929,-0.0010883058863939,0.0010886560312924,-0.0010055690900407,0.0010002306169181,-0.0010014690780903,0.001004614850033,-0.00090152343086172,0.00090458709715313,-0.00090362503853014,0.0009025847114932,3.0190816617304e-06,-4.2402251279105e-06,-0.0011455541543591,0.0011443383041446,1.4001949026943e-06,-2.7840060927607e-06,-0.0013418170944995,0.0013444862555933,-0.0013431997727938,0.0013430945138426,-0.0013442610084027,0.0013420631302822,-0.0013456129971559,0.0013406858320535,-0.0010846795182679,0.0010749622637558,-0.0010776028462615,0.0010820778671361,0.71234621127363,134640,3014,0.0035188975329228,0.003818881719794,0.0047587175642182,40.760780633978,0.00024128624507183,0.00024128624507183,0.00024128624507183,4642711.1484172,0.012170450489601
8419200,0.90694245091915,0.013848404575574,0.0041835837363069,0.0044431006476695,0.0052217201915972,-0.00088592070300836,0.00088639124364734,-3.0131655922358e-06,3.505385742009e-06,-7.971080753101e-07,1.2999836607124e-06,-0.0010859804491392,0.0010835679877263,-0.0010837875958104,0.0010857294081818,-0.0010853069742918,0.0010842775386522,-0.0010831324591602,0.0010864380365364,-0.00099216818522862,0.00098702743758761,-0.00098578078359762,0.00099338375307065,8.3351332395202e-07,-1.263362735309e-06,-2.225861716804e-06,1.8640559315232e-06,-0.00095983075304811,0.00095944811765108,-0.0011652697232719,0.0011642270857691,-0.0011639438547394,0.0011655905343846,-0.0011659330539976,0.0011635251562184,-0.0011646095254923,0.0011648910217255,-0.0010535411865952,0.0010484994541771,-0.001049729595567,0.0010526196018901,-0.00094344994349241,0.00094640152371678,-0.00094549894493708,0.00094442619129459,2.7304287793591e-06,-3.7800618689991e-06,-0.0012035739632689,0.0012025222584381,1.3634063601345e-06,-2.5978560166323e-06,-0.0014374309766762,0.0014399408341706,-0.0014387488634428,0.0014386306529563,-0.0014396169980357,0.0014377682508791,-0.0014409048958536,0.0014364698472885,-0.0011387828126353,0.0011300473313356,-0.0011324606397388,0.0011364682165568,0.69848786093393,134640,3014,0.0036868180887289,0.003991325344362,0.0049995336403026,41.433084658874,0.00024666467727099,0.00024666467727099,0.00024666467727099,4372730.1881628,0.012759068691318
9419200,0.94920839701601,0.014398797412871,0.0043569622318511,0.0046199693187991,0.0054218658622205,-0.00090037551775037,0.0009007697408366,-2.9521216031853e-06,3.3605195873765e-06,-8.3279907643703e-07,1.2702323151503e-06,-0.001123501172708,0.0011210792738857,-0.0011213750237972,0.0011231696192971,-0.0011228262283393,0.0011217893199885,-0.0011207181196298,0.001123877666954,-0.0010088937460884,0.0010038686576404,-0.0010027068408266,0.0010100144972657,8.2632495410437e-07,-1.2770501549032e-06,-2.0526944401387e-06,1.6730684082813e-06,-0.00097263144500711,0.00097224264559544,-0.0012011225781609,0.0012002148769546,-0.0011999119375564,0.0012014464672212,-0.0012017866279285,0.0011995029203662,-0.0012005763096825,0.0012007464909353,-0.0010688495829192,0.0010641072833904,-0.0010653601956167,0.0010679010239255,-0.00095787734004338,0.00096069385193645,-0.00095990479001296,0.00095867962356525,2.7020231323586e-06,-3.6053798999692e-06,-0.0012203372387089,0.0012194266662707,1.2566738703167e-06,-2.3437464847571e-06,-0.0014781408239209,0.0014805901915249,-0.0014793247762986,0.0014793970813091,-0.0014802471187188,0.0014784877117302,-0.0014814236884757,0.0014773014821014,-0.0011561348722897,0.001147862009284,-0.0011499889677649,0.001154067626496,0.67994984270351,134640,3014,0.0037468459991014,0.0040445893402902,0.0050692904911384,41.145479031608,0.00024436383225286,0.00024436383225286,0.00024436383225286,4071477.2137379,0.012944618977036
10419200,0.97036113950275,0.014683236736622,0.0044484109282927,0.0047122047734762,0.0055226210348527,-0.00090085402799941,0.00090105992909208,-3.0721366344755e-06,3.2867349271127e-06,-3.4589804608701e-07,5.7714048442999e-07,-0.0011359689220049,0.0011337397494661,-0.0011338314880217,0.0011358481555904,-0.0011356731458674,0.0011340532035157,-0.0011335517771685,0.0011361589077742,-0.0010102280926603,0.001004559827099,-0.0010040226488907,0.0010107674098867,3.4960519470339e-07,-5.7352772901694e-07,-1.8471763158974e-06,1.6720506033215e-06,-0.00097084231449265,0.00097065756566865,-0.0012116219342327,0.0012105904068105,-0.0012104804069707,0.0012117580625586,-0.0012119105856909,0.0012102796205417,-0.0012107688214669,0.0012114519997645,-0.0010677923461905,0.0010638593438521,-0.0010644653991618,0.0010674164010203,-0.00095856306282125,0.00096038231629321,-0.00095944920050398,0.00095950552936738,2.7474676289987e-06,-3.6043219363776e-06,-0.0012173118360877,0.0012164592974704,1.1907014739141e-06,-2.2058840683172e-06,-0.0014873884083957,0.0014898444803453,-0.0014885040229991,0.0014887200513696,-0.0014895156635355,0.0014877248272279,-0.0014906170018387,0.0014866095910076,-0.0011553262827101,0.0011471209873785,-0.0011491256787028,0.0011533399880266,0.69329667458822,134640,3014,0.0037485224903727,0.0040376683255426,0.0050568719790796,38.10058385311,0.00022000467082488,0.00022000467082488,0.00022000467082488,3838503.829273,0.012926808853718
11419200,0.98257869176907,0.014845368879029,0.0045011558777127,0.0047650567203563,0.00557915628096,-0.00090202169468803,0.00090222465759074,-3.0294599147152e-06,3.2407167139806e-06,-3.5997883802638e-07,5.8856907538718e-07,-0.0011472938695296,0.0011450834171927,-0.0011451860547434,0.0011471619492714,-0.0011469897722288,0.0011454071773158,-0.0011448984912403,0.0011474812258779,-0.001011090433877,0.0010055135132858,-0.0010049666971242,0.0010116291598198,3.6131317636839e-07,-5.8727559424689e-07,-1.8604283438439e-06,1.6834216626557e-06,-0.00097010512132164,0.00096991897261846,-0.0012209648856237,0.0012199334258644,-0.0012198154638106,0.0012211077614388,-0.0012212607040626,0.0012196130238794,-0.0012201113697542,0.0012207931099001,-0.0010671734275826,0.0010632025676711,-0.0010638218517605,0.0010667889071214,-0.00095940855469755,0.00096125986684109,-0.00096031860273559,0.00096035700398228,2.7123821256923e-06,-3.5508418378678e-06,-0.0012142843113297,0.0012134479583298,1.2099405752383e-06,-2.2107881057872e-06,-0.0014938593581512,0.0014963075780595,-0.0014949816489007,0.0014951753558412,-0.0014959557424156,0.001494218169605,-0.0014970639379248,0.0014930942435801,-0.0011547755634871,0.0011466700750835,-0.0011486600902944,0.0011528014585969,0.67906583211674,134640,3014,0.0037534256353948,0.00403467266444,0.0050443706686269,37.628197151757,0.00021622557721405,0.00021622557721405,0.00021622557721405,3646822.949723,0.012916174775453
12419200,0.98958695392077,0.014941133486225,0.0045325654598251,0.0047964010828037,0.0056121669435959,-0.00090038850977228,0.00090058545224005,-3.0071402014154e-06,3.2016178444359e-06,-3.5490283701615e-07,5.8532366280738e-07,-0.0011503579578346,0.0011481740668719,-0.0011482806269571,0.0011502355298379,-0.0011500537319857,0.0011484738296145,-0.0011479904926118,0.0011505494151634,-0.0010096165524365,0.0010040796663759,-0.0010035279708036,0.0010101126424245,3.7202858002158e-07,-5.6584110796972e-07,-1.7791153271901e-06,1.6312832711692e-06,-0.00096716872848745,0.00096700820347363,-0.0012227281494095,0.0012217522384974,-0.0012216256879509,0.0012228931913131,-0.0012230338940809,0.0012214444750198,-0.0012219236019371,0.0012225866166054,-0.0010645305919688,0.0010607257179321,-0.0010613341735199,0.0010641830644813,-0.00095763874583044,0.00095945743755286,-0.00095853229515584,0.00095858228814442,2.6933061695235e-06,-3.5075338697734e-06,-0.0012092951826115,0.0012084755022867,1.1520784478532e-06,-2.1391256463881e-06,-0.0014936332568637,0.0014960408132814,-0.0014947302949236,0.0014949603602592,-0.0014957156489381,0.0014939688107502,-0.0014967888467256,0.0014928980457476,-0.001151259814217,0.0011433072608243,-0.0011452023636283,0.0011493665194306,0.6935517295502,134640,3014,0.0037466571547305,0.0040225692427704,0.0050237336059163,36.80426716666,0.00020963413733328,0.00020963413733328,0.00020963413733328,3535018.6472656,0.012876189640489
13419200,0.99350140497528,0.014993383710623,0.0045497802165867,0.0048135391856108,0.0056300643084258,-0.00089718025776827,0.00089736989058851,-2.9222818323568e-06,3.1193569265408e-06,-3.3461833760226e-07,5.4902553182459e-07,-0.0011518433240824,0.0011497169765524,-0.0011498123328292,0.0011517199453699,-0.0011515610491757,0.0011500214062443,-0.0011495448595258,0.0011520175655546,-0.0010054365918442,0.0010000452290921,-0.00099953491003285,0.0010059375150233,3.3139562923455e-07,-5.5250149483617e-07,-1.7116433093434e-06,1.5370477116877e-06,-0.00096262288318158,0.00096244089128114,-0.0012228288845435,0.0012218780065876,-0.0012217734507774,0.0012229528058126,-0.0012231031889648,0.0012215781882793,-0.0012220484445509,0.0012226584418761,-0.0010592709167265,0.001055615090088,-0.0010562052518122,0.0010589068700068,-0.00095402211035688,0.00095571761745176,-0.00095486835044616,0.00095487876139809,2.6334319210674e-06,-3.4020409787593e-06,-0.0012021717942987,0.0012014047061037,1.1018849552233e-06,-2.0274412306923e-06,-0.001490728037416,0.0014930704610963,-0.0014917546425707,0.001492034060511,-0.0014927480492331,0.0014910580891192,-0.0014937609975664,0.0014900298604517,-0.0011457459661651,0.0011380280588734,-0.001139848463145,0.0011439342415113,0.67550368063435,134640,3014,0.0037333413833389,0.0040036863747638,0.0049943325318989,34.794598025561,0.00019355678420449,0.00019355678420449,0.00019355678420449,3413954.0368011,0.012813854084702
14419200,0.99576174676421,0.015023208003765,0.0045596500235117,0.0048233419386075,0.0056402160416457,-0.00089237477208195,0.0008925560285252,-2.8914715476757e-06,3.0808405387786e-06,-3.0803334892349e-07,5.1323625039611e-07,-0.0011481134804549,0.0011460225557256,-0.0011461064700355,0.0011480034151596,-0.0011478500186451,0.0011463018807851,-0.0011458578412973,0.0011482793617072,-0.0010003956066509,0.0009950460833934,-0.00099456638848726,0.0010008736455168,3.1184994649961e-07,-5.0945034733874e-07,-1.6551397057567e-06,1.5035910424533e-06,-0.00095697743383625,0.0009568170514431,-0.0012182743676757,0.0012173518244952,-0.0012172476396356,0.001218398372335,-0.0012185314110176,0.0012170752731354,-0.0012175042165182,0.0012181263038776,-0.0010534863081138,0.0010499643775663,-0.0010505079867988,0.0010531625970572,-0.00094898211420167,0.00095060720571644,-0.00094976890118745,0.00094983223232799,2.603052757948e-06,-3.3629539462171e-06,-0.0011947202468952,0.0011939648708538,1.0646154478502e-06,-1.9767641946755e-06,-0.0014844987052714,0.0014868034374529,-0.0014854975565986,0.0014857976005284,-0.0014864973043894,0.0014848122338758,-0.0014874813026945,0.0014838156554741,-0.0011390390963654,0.0011314287828807,-0.0011332155683982,0.0011372688402098,0.66543915435704,134640,3014,0.0037133713089596,0.0039803049799095,0.0049634727961074,32.643906427228,0.00017635125141782,0.00017635125141782,0.00017635125141782,3350000.3136439,0.012738691587239
15419200,0.9969388221755,0.01503966645181,0.0045651063397609,0.0048287584296254,0.0056458016824233,-0.0008830565788574,0.0008832302106469,-2.8421933712991e-06,3.0233173026055e-06,-2.9530074590971e-07,4.9172141160448e-07,-0.0011389099190048,0.0011368613894702,-0.001136941992696,0.0011388059172698,-0.0011386596293807,0.0011371285039098,-0.0011367022766047,0.0011390713185733,-0.00099024634102184,0.00098497408807459,-0.00098451264968623,0.00099069975221751,2.9776163063619e-07,-4.8940329161102e-07,-1.5974565505895e-06,1.4503172857222e-06,-0.00094663829905168,0.00094648290253636,-0.0012080678567549,0.0012071740135832,-0.0012070755430032,0.0012081842120156,-0.0012083141282374,0.0012069101012727,-0.0012073217924314,0.0012079232168231,-0.0010424535076623,0.0010390558317574,-0.0010395837280821,0.0010421440419226,-0.00093899589024807,0.00094056182058503,-0.00093975337988071,0.00093981796686335,2.5623790501276e-06,-3.2972944388717e-06,-0.0011818668004323,0.0011811351353355,1.0227168953637e-06,-1.9093000367927e-06,-0.0014718544422097,0.001474109095596,-0.0014728174354022,0.0014731405141851,-0.0014738175355421,0.0014721550331777,-0.0014747649626919,0.0014711933223788,-0.0011268590050397,0.001119410845085,-0.0011211340186791,0.0011251499659335,0.70138893249329,134640,3014,0.0036746543471908,0.0039373993178875,0.0049102467195562,27.069722678286,0.00013175778142628,0.00013175778142628,0.00013175778142628,3265642.6158475,0.012602127670524
16419200,0.99769447398526,0.015049875804658,0.0045685017117849,0.0048321227373737,0.0056492513554994,-0.00087937967836146,0.0008795491061186,-2.7610534026453e-06,2.9369782996494e-06,-2.7214152737214e-07,4.7032565333391e-07,-0.0011384986524461,0.0011365280949194,-0.0011365954831446,0.0011384140002832,-0.0011382651003961,0.0011367532219411,-0.0011363683737107,0.0011386617513107,-0.0009855494982415,0.00098040867507408,-0.00097995642975551,0.00098597473864642,3.1666785471589e-07,-4.2259498093732e-07,-1.4731361596182e-06,1.4153376242743e-06,-0.00094183023852874,0.00094175492690769,-0.0012065689125351,0.0012057769684463,-0.0012056352819693,0.0012067435198854,-0.0012068092913603,0.0012055400267806,-0.0012058675329481,0.0012065094242219,-0.0010367455192017,0.0010336051955914,-0.0010340367935012,0.0010365438667506,-0.00093445751168937,0.00093600706637957,-0.00093516833648266,0.00093531488318325,2.463509401477e-06,-3.2262003502169e-06,-0.0011748107955337,0.001174050412068,9.2992819875542e-07,-1.8478644313261e-06,-0.0014677708904193,0.0014698921201,-0.0014686908175069,0.0014689873145591,-0.0014696716244302,0.0014679904221469,-0.0014705865821912,0.0014670873888837,-0.0011206322475625,0.0011133770783379,-0.001115070700538,0.0011189688621402,0.67697638081859,134640,3014,0.0036593869842102,0.0039176276881342,0.004880959751246,24.418335321122,0.00011054668256898,0.00011054668256898,0.00011054668256898,3162879.5372225,0.012537056824114
17419200,0.99820194637727,0.015056934843542,0.004570855887912,0.0048344523307249,0.0056516266249049,-0.0008739288719855,0.00087409068337289,-2.7380149955238e-06,2.9040738439702e-06,-2.5312280064146e-07,4.3363641340898e-07,-0.0011324492805836,0.0011305020750131,-0.0011305544367755,0.0011323674661914,-0.0011322339035098,0.0011307327204514,-0.0011303474212379,0.0011326051332571,-0.00097982914462747,0.000974719704191,-0.00097430012441755,0.00098022764819259,2.8035279413152e-07,-4.063310990595e-07,-1.4378325845765e-06,1.3538617641916e-06,-0.00093587877328112,0.00093578306797652,-0.0012000181891277,0.0011992340911378,-0.0011991097855115,0.0012001554693214,-0.0012002261400407,0.0011989930781764,-0.0011993228285734,0.0011999229969813,-0.0010305778427087,0.0010275295403626,-0.0010279675801674,0.001030370225028,-0.00092895242262652,0.00093040967200213,-0.00092962352877098,0.00092976494855262,2.4711312010148e-06,-3.1663743350953e-06,-0.0011674624285202,0.0011667662070367,9.1495116323029e-07,-1.76486810743e-06,-0.001459931137558,0.0014620605542911,-0.001460810891976,0.0014611751084927,-0.0014618124164938,0.0014601788472993,-0.0014626892415644,0.0014593002818996,-0.0011138279503659,0.0011067151085173,-0.0011082979663212,0.0011122329036468,0.69394003157254,134640,3014,0.0036367281625101,0.0038928755593061,0.0048506264995354,21.980202011766,9.1041616094125e-05,9.1041616094125e-05,9.1041616094125e-05,3129147.247495,0.012458314504854
18419200,0.99851721474232,0.015061251372085,0.0045722973497831,0.0048358776893778,0.0056530763329241,-0.00086701602921683,0.00086717279641962,-2.6790447200018e-06,2.8437213648847e-06,-2.3364121517205e-07,4.1101164979156e-07,-0.0011267898911193,0.0011248836113272,-0.001124934569688,0.0011267151065283,-0.0011265842322982,0.0011251056094601,-0.0011247413661118,0.0011269327101162,-0.00097172724530545,0.00096673144449084,-0.00096633261913914,0.0009721179532048,2.3460257733762e-07,-4.1006318019103e-07,-1.4305378457504e-06,1.2968039556682e-06,-0.0009280252735431,0.00092788363264883,-0.001193436585362,0.001192615333874,-0.0011925479723814,0.0011935178857216,-0.0011936369908924,0.0011923982240215,-0.0011927485764966,0.0011933040431923,-0.0010217135874596,0.0010186917840855,-0.0010191545060649,0.0010214627946978,-0.00092134223742355,0.00092267347479329,-0.00092195801462591,0.00092207418506576,2.4152353731995e-06,-3.1018637282902e-06,-0.001157257207344,0.0011565737652415,8.9150793003466e-07,-1.7243089639059e-06,-0.0014507552413061,0.0014528371421167,-0.0014516136036134,0.0014519732279376,-0.0014526037768604,0.0014509966166824,-0.0014534467223396,0.0014501407845374,-0.0011043629853559,0.001097406937616,-0.0010989764655346,0.0011028082941849,0.68267066683877,134640,3014,0.0036080083517941,0.0038601858382578,0.0048083591922194,17.477991088821,5.5023928710566e-05,5.5023928710566e-05,5.5023928710566e-05,3043680.7599703,0.012353375537018
19419200,0.99877826417894,0.01506504937771,0.0045735678438091,0.0048371332795634,0.0056543482543379,-0.00086561734030151,0.00086577844053936,-2.6499947056034e-06,2.8191567986663e-06,-2.5195106096503e-07,4.3432904231596e-07,-0.0011257273400488,0.0011238292657008,-0.0011238891979416,0.0011256431367351,-0.0011255075043824,0.0011240634582046,-0.0011236828677695,0.0011258740564139,-0.00097037719252314,0.00096545406215155,-0.00096503846482785,0.00097078929380672,2.5748980353329e-07,-4.2887655604477e-07,-1.4457051335996e-06,1.3178275854523e-06,-0.00092630736746229,0.00092617019685549,-0.0011920484827398,0.0011912330429205,-0.0011911484427794,0.0011921476294307,-0.001192262771234,0.0011910013404973,-0.0011913620742681,0.0011919204899499,-0.001020155059802,0.001017088463372,-0.0010175593443913,0.0010198947867969,-0.0009199857765452,0.00092137287990281,-0.00092064169190571,0.00092073335170838,2.3859343657945e-06,-3.0778316689591e-06,-0.0011547826657776,0.0011540953130886,9.0729401029031e-07,-1.744565897527e-06,-0.0014486591099797,0.0014507327950913,-0.0014495291451979,0.0014498567855265,-0.0014504897281325,0.0014489089489232,-0.0014513457458671,0.0014480415572544,-0.0011023354577931,0.0010954145013064,-0.0010970030298136,0.0011007637095969,0.72158242287493,134640,3014,0.0036022085494257,0.0038530651677815,0.0047980924854297,17.551568050536,5.5612544404292e-05,5.5612544404292e-05,5.5612544404292e-05,3023387.6110787,0.012329897535648
20419200,0.99900545029904,0.01506839172068,0.0045746864824578,0.0048382385863897,0.0056554666518323,-0.00086725555297998,0.00086742442855624,-2.6036257592584e-06,2.7803349202383e-06,-2.7301222769679e-07,4.6415420145541e-07,-0.0011305665236988,0.001128688267106,-0.0011287567988416,0.0011304735131755,-0.0011303307674618,0.0011289393531381,-0.0011285346598931,0.0011307214135999,-0.00097139168157329,0.00096657605731919,-0.0009661361115002,0.00097182802058508,2.8102360637309e-07,-4.5596042264159e-07,-1.4733828556023e-06,1.3432037734742e-06,-0.00092738921947263,0.00092724939152198,-0.0011963484571103,0.0011955298183758,-0.0011954321989993,0.0011964620455877,-0.0011965784629931,0.0011952812981025,-0.0011956616159937,0.0011962179290117,-0.0010207666859281,0.0010176288637273,-0.0010181200090712,0.0010204884051348,-0.00092127045295123,0.00092272156515196,-0.00092197580631314,0.00092203159039609,2.3369855386996e-06,-3.0417157966836e-06,-0.0011548279671109,0.0011541276090373,9.2587278344175e-07,-1.777870759065e-06,-0.0014514979304175,0.001453547871441,-0.0014523849816744,0.0014526545216058,-0.0014533004161456,0.0014517523847311,-0.0014541730052996,0.0014508679067345,-0.0011030831213683,0.0010962154196265,-0.0010978333975929,0.0011014806855827,0.72910479949698,134640,3014,0.0036090404466178,0.003857569882995,0.0047982740433255,18.597312354036,6.3978498832291e-05,6.3978498832291e-05,6.3978498832291e-05,2971371.1076108,0.012341623200733
21419200,0.99916000970906,0.01507060537402,0.0045754287251678,0.004838971229109,0.0056562054197429,-0.00086134622764012,0.00086151499827823,-2.553245965327e-06,2.7286986784198e-06,-2.8674155179601e-07,4.7708179097336e-07,-0.0011250709310184,0.0011232223337372,-0.0011232988366894,0.0011249697992151,-0.0011248282922253,0.0011234774430993,-0.0011230630453521,0.0011252307456939,-0.00096497935635369,0.00096025950892075,-0.000959813875255,0.00096542458598517,2.1573203571927e-07,-5.5139476748791e-07,-1.5012325297791e-06,1.2035637827655e-06,-0.00092082156275195,0.0009205255852372,-0.0011902351509241,0.0011893153730939,-0.0011893540216772,0.001190210817915,-0.0011904731662147,0.0011890559780236,-0.001189595719243,0.0011899544043052,-0.0010137961389092,0.001010591697347,-0.001011261455134,0.0010133359126085,-0.00091501364703065,0.00091630879822736,-0.00091576310061935,0.00091558444596514,2.2923926251989e-06,-2.9847983650616e-06,-0.0011462825032672,0.0011455959050244,8.7953034641345e-07,-1.715055270866e-06,-0.0014435070649985,0.0014454991764392,-0.0014443604242923,0.0014446459785373,-0.0014452726307049,0.0014437385792711,-0.0014461162280825,0.0014428913249945,-0.0010951007912254,0.0010883727676535,-0.0010899388382603,0.0010935439357579,0.7095108398074,134640,3014,0.0035844981175342,0.0038299856191458,0.0047628817379403,15.225615260313,3.7004922082502e-05,3.7004922082502e-05,3.7004922082502e-05,2910061.1935944,0.012253027832431
22419200,0.99928795525439,0.015072458949406,0.0045760511837628,0.0048395851867798,0.0056568225788638,-0.00085923273385015,0.00085940914189848,-2.541475297007e-06,2.7259158313927e-06,-3.0111562325123e-07,5.0127153264658e-07,-0.0011227460339428,0.00112089184307,-0.0011209751561956,0.0011226386031609,-0.0011224891606826,0.001121164455993,-0.0011207316870856,0.0011229078813552,-0.00096293973069912,0.00095826802586934,-0.00095779836154764,0.00096340588016709,3.0086682856373e-07,-5.0181107612196e-07,-1.4436231597107e-06,1.287859077672e-06,-0.00091838351440007,0.00091821968613631,-0.0011875710963549,0.0011867792041835,-0.001186681489568,0.0011876830290258,-0.0011878222829667,0.0011865089021804,-0.0011869321760278,0.0011874172131135,-0.0010115158646657,0.0010084140719846,-0.0010089516202249,0.0010111884911903,-0.00091295704050731,0.00091441892023392,-0.00091372596858127,0.00091366314382843,2.2868670832286e-06,-2.9754885458322e-06,-0.0011431941398264,0.0011425101401563,8.9306215201213e-07,-1.7268555437576e-06,-0.0014402686374948,0.0014422680453052,-0.0014411282024733,0.0014414025838059,-0.0014420323960888,0.0014405114131104,-0.0014428777757768,0.0014396546517745,-0.0010924514644743,0.0010857418478031,-0.0010873163934435,0.001090893800762,0.7160479761144,134640,3014,0.0035757343370329,0.0038201371011704,0.0047500795668948,14.858990533528,3.4071924268223e-05,3.4071924268223e-05,3.4071924268223e-05,2895412.0352606,0.012221210722887
23419200,0.99940157278265,0.015074077004499,0.0045765949058374,0.0048401212817405,0.0056573608169214,-0.00085967359699019,0.00085985192302459,-2.5242237273984e-06,2.7103579611614e-06,-3.1045107780684e-07,5.1256308615084e-07,-0.0011244243730567,0.0011225760789588,-0.0011226636775852,0.0011243115423307,-0.0011241613624721,0.001122856956289,-0.0011224142601858,0.0011245880412083,-0.00096328601868061,0.00095865510850152,-0.0009581755337853,0.00096375966422509,3.1380622145122e-07,-5.0948403428283e-07,-1.4581520111065e-06,1.3081908312166e-06,-0.00091851946403824,0.00091836090031169,-0.0011889554610021,0.0011881642252188,-0.0011880548137801,0.0011890786042211,-0.0011892118769412,0.0011878856391559,-0.001188311146709,0.0011888053555147,-0.0010116374513745,0.0010084991772425,-0.0010090395418902,0.0010113102656723,-0.0009133727949632,0.00091487259460768,-0.00091416137962366,0.00091409624511808,2.2694853475615e-06,-2.9604032681875e-06,-0.0011426919268736,0.001142004561103,9.0807703545212e-07,-1.7461150052143e-06,-0.0014409123095026,0.0014429080435088,-0.0014417827197857,0.0014420306161716,-0.001442664376706,0.001441162979903,-0.001443521704917,0.0014402937678899,-0.0010924158575129,0.0010857234923737,-0.0010873106179452,0.0010908434122052,0.70404421842736,134640,3014,0.0035775740917787,0.0038207200937526,0.0047479975529793,15.705719502875,4.0845756023004e-05,4.0845756023004e-05,4.0845756023004e-05,2872901.9827168,0.01222157442649
24419200,0.99950882708242,0.015075631638181,0.0045771174536749,0.0048406365121574,0.0056578776723482,-0.00086150344299291,0.00086168338226203,-2.5226465511308e-06,2.7104693537958e-06,-3.1535833797814e-07,5.1960618960434e-07,-0.0011268070394729,0.0011249568573807,-0.0011250466973854,0.0011266921057029,-0.00112654001081,0.0011252409230527,-0.0011247938799708,0.0011269722519633,-0.00096547838763055,0.00096085562300287,-0.0009603707802724,0.00096595807347459,3.2883820538421e-07,-5.0582801674255e-07,-1.4798887970617e-06,1.3493941095481e-06,-0.00092029118958994,0.00092015028372651,-0.0011912705079792,0.001190478130468,-0.0011903495642613,0.0011914136505736,-0.0011915310370351,0.0011901964902223,-0.0011906098175333,0.0011911374341732,-0.0010138222489626,0.0010106382603195,-0.0010111636004422,0.0010135117822482,-0.00091550934529181,0.00091705892684713,-0.00091630849046695,0.00091627226279049,2.2647751395923e-06,-2.9636484659059e-06,-0.0011444180530192,0.0011437231380645,9.3491588064023e-07,-1.7816971818251e-06,-0.0014431834664482,0.0014451928839518,-0.0014440747311564,0.0014442949073963,-0.0014449351793776,0.0014434474405117,-0.0014458130620375,0.0014425583850878,-0.0010945084856687,0.0010877903852261,-0.0010894058856183,0.0010929080329361,0.71549404213539,134640,3014,0.003585180427279,0.0038281152418463,0.0047551372991963,17.881578703145,5.8252629625161e-05,5.8252629625161e-05,5.8252629625161e-05,2876050.523371,0.012243985655745
25419200,0.99960661170955,0.015077121267326,0.0045776177189823,0.0048411301508124,0.0056583733975309,-0.00086385075574303,0.00086403167203629,-2.511871785577e-06,2.7006417283245e-06,-3.2134276293735e-07,5.2650723173004e-07,-0.0011308119697681,0.0011289659136328,-0.0011290587838432,0.0011306938586425,-0.0011305409871915,0.0011292542429873,-0.0011288016462617,0.0011309785210988,-0.00096783831353299,0.00096323966715735,-0.00096275079635497,0.00096832356669136,3.3024618321388e-07,-5.1747785690003e-07,-1.5184909284744e-06,1.3780859989527e-06,-0.00092244019277781,0.00092228991516345,-0.0011950911870525,0.0011942725160193,-0.0011941489120564,0.0011952306248147,-0.0011953557800779,0.0011939864132946,-0.001194413147966,0.0011949496739476,-0.0010160569483875,0.0010127929181612,-0.0010133320870668,0.0010157325487471,-0.00091793616282075,0.00091951148510243,-0.00091874900461159,0.00091871085600388,2.2491003863207e-06,-2.9585942672924e-06,-0.0011462354531516,0.0011455301581666,9.6231313979774e-07,-1.8204622736233e-06,-0.0014465139811132,0.0014485281456889,-0.0014474267956326,0.0014476082750353,-0.0014482589268144,0.0014467900888335,-0.0014491583733494,0.0014458787396003,-0.0010967827396891,0.0010900510065246,-0.0010916996818411,0.0010951485907598,0.75065156698222,134640,3014,0.003594938688227,0.0038370274466707,0.0047626593399971,19.926560985446,7.4612487883571e-05,7.4612487883571e-05,7.4612487883571e-05,2861166.0836344,0.012270527608093
26419200,0.9996867874591,0.015078370141627,0.0045780372112817,0.0048415441045523,0.0056587888257927,-0.00086434598530945,0.00086453261218085,-2.4752542974617e-06,2.670807782357e-06,-3.2806467062427e-07,5.4346629945281e-07,-0.0011334715766023,0.0011316463911859,-0.0011317441059699,0.0011333522664909,-0.0011331932755112,0.001131934859476,-0.0011314773387435,0.0011336437442409,-0.00096800130999597,0.00096348147048626,-0.00096297223352616,0.00096850015767231,3.3656541061006e-07,-5.3410248639391e-07,-1.528567494224e-06,1.3760575489911e-06,-0.00092246745576062,0.00092230636783304,-0.0011973398631252,0.0011965118372957,-0.0011963949018365,0.0011974765403497,-0.0011976161811863,0.0011962248891327,-0.0011966695331924,0.0011971916672882,-0.0010158382398689,0.0010125474959911,-0.0010131117025228,0.0010154920829833,-0.00091819121085925,0.00091978187307092,-0.00091902492280895,0.00091895785913542,2.2093296350044e-06,-2.9317021520923e-06,-0.0011452460828167,0.0011445285938734,9.5930804068385e-07,-1.8312354468042e-06,-0.0014476046422576,0.0014495899499961,-0.0014485250671317,0.0014486710792641,-0.0014493284789068,0.0014478726726759,-0.0014502330442279,0.0014469622128082,-0.0010963037668615,0.0010896276105756,-0.0010912945952158,0.0010946682485016,0.76692112057465,134640,3014,0.0035970170377487,0.0038371335027308,0.0047585495214572,20.393280622158,7.8346244977262e-05,7.8346244977262e-05,7.8346244977262e-05,2818813.8465304,0.012268622809797
27419200,0.99975670258667,0.015079417618838,0.0045783896405035,0.004841891535876,0.0056591364424581,-0.00086597546469507,0.00086615810320046,-2.4654768573742e-06,2.6561782391007e-06,-3.272367138129e-07,5.3463583710772e-07,-0.0011366452972641,0.0011348264983937,-0.0011349223160693,0.0011365239426937,-0.0011363694290284,0.0011351183846519,-0.0011346604738783,0.0011368132889588,-0.00096978809663296,0.00096528513889309,-0.00096479016552753,0.00097028129473787,3.3177025153266e-07,-5.3013554106826e-07,-1.657219915533e-06,1.5054896811945e-06,-0.00092382128455748,0.00092366047023366,-0.0012003308160137,0.0011994195716031,-0.0011993031682163,0.0012004669349559,-0.0012006006230687,0.0011991297172185,-0.001199572433193,0.0012001816348887,-0.0010175226665793,0.0010139820252552,-0.0010145402947911,0.0010171845932143,-0.00092002180659465,0.00092168754681218,-0.0009208484837024,0.00092087328852485,2.1834516034262e-06,-2.9334523548688e-06,-0.0011460354833304,0.0011452902944738,1.0711249282194e-06,-1.9739576372977e-06,-0.0014499004653948,0.0014519336842433,-0.0014509007556645,0.0014509274304592,-0.0014516157151903,0.0014502256752747,-0.0014526019876786,0.0014492279914912,-0.0010978104476188,0.0010910400323081,-0.0010928178749843,0.0010960497649201,0.7378885537229,134640,3014,0.0036037861954692,0.0038427668594693,0.0047617729601716,22.24948783746,9.3195902699681e-05,9.3195902699681e-05,9.3195902699681e-05,2798931.481066,0.012284457614648
28419200,0.99981417068704,0.015080324460106,0.0045786946467655,0.0048421923748087,0.0056594374385316,-0.00086618080008374,0.00086636174752119,-2.4725520537806e-06,2.6602788664919e-06,-3.3131453412738e-07,5.3439702984351e-07,-0.0011364960428335,0.0011346715544313,-0.001134769143749,0.00113637275008,-0.0011362193321883,0.0011349677898895,-0.0011345064249941,0.0011366647744368,-0.00097040314074347,0.0009658890234378,-0.00096539366020004,0.00097089317424872,3.3796410687249e-07,-5.2821842210519e-07,-1.6538545769283e-06,1.507513758435e-06,-0.0009240046995068,0.00092384925359619,-0.0012001404749923,0.0011992372774063,-0.0011991125589085,0.0012002812375343,-0.0012004113405447,0.0011989424741757,-0.0011993831423134,0.0011999923711666,-0.0010181305361052,0.0010145926487126,-0.0010151522565495,0.0010177962942,-0.00092057648469356,0.0009222529519861,-0.00092140578954564,0.00092143927673621,2.1919409897643e-06,-2.9363536687919e-06,-0.0011461218647978,0.0011453815103225,1.0722278030623e-06,-1.9710573473078e-06,-0.0014497109576298,0.0014517502552966,-0.0014507083237303,0.0014507427878035,-0.0014514285086556,0.0014500400131747,-0.0014524117735537,0.0014490414027698,-0.0010982062112379,0.0010914331386768,-0.0010932003370629,0.0010964495322852,0.7752083436359,134640,3014,0.0036046349509424,0.0038435374922241,0.0047621337495411,23.439579031661,0.00010271663225328,0.00010271663225328,0.00010271663225328,2806803.7291959,0.01228643906751
29419200,0.99986086776074,0.015080976278166,0.0045789142254005,0.0048424086622432,0.0056596533905219,-0.00086802767286867,0.00086821171941461,-2.4449058508459e-06,2.6369722493265e-06,-3.3384387070851e-07,5.4289702585292e-07,-0.001140679859369,0.0011388704445985,-0.0011389697106255,0.0011405546037475,-0.0011403994433536,0.0011391681888344,-0.0011387033942915,0.0011408490762225,-0.00097198745777655,0.00096753052655356,-0.00096702744324529,0.00097248609317899,3.3902575077305e-07,-5.3779424310699e-07,-1.669047971846e-06,1.5170003666499e-06,-0.00092547598361953,0.00092531490489592,-0.0012040039700777,0.0012030900489477,-0.0012029687291275,0.0012041444629389,-0.001204277972341,0.0012027943666085,-0.0012032424504792,0.0012038539273645,-0.0010194122143274,0.0010158425219959,-0.0010164077656158,0.0010190698116769,-0.00092226788571164,0.00092395573288188,-0.00092310800243626,0.00092312684580632,2.1640236298156e-06,-2.913366089558e-06,-0.0011468270884459,0.0011460817829802,1.0821819674347e-06,-1.9858096722571e-06,-0.0014526571561997,0.0014546841937133,-0.0014536648532003,0.0014536699551976,-0.001454358755255,0.0014529897935507,-0.0014553528431063,0.0014519838871694,-0.0010993906330646,0.0010926521299231,-0.0010944362641024,0.0010976232016631,0.68889126161844,134640,3014,0.0036123226657822,0.003849650183296,0.0047650659900339,24.778337395781,0.00011342669916625,0.00011342669916625,0.00011342669916625,2773378.7250201,0.012303427246942
30419200,0.99989801569807,0.01508148578029,0.0045790860326552,0.0048425778028123,0.005659821944822,-0.00086761516303399,0.00086779863593963,-2.4869716512828e-06,2.6786224447285e-06,-3.3163372532103e-07,5.4015585881765e-07,-0.0011372971021832,0.0011354609796955,-0.0011355596142165,0.001137173210075,-0.0011370179284396,0.0011357562318229,-0.001135294348799,0.0011374657705487,-0.00097256804682834,0.00096802601026765,-0.00096752720587531,0.00097306512881119,3.3604122931058e-07,-5.3576361781497e-07,-1.6570523232266e-06,1.5039070620472e-06,-0.00092552054398853,0.00092535854177777,-0.0012009384743795,0.0012000299381626,-0.0011999108463349,0.0012010766162492,-0.0012012116823777,0.0011997367408077,-0.0012001834192856,0.0012007880360698,-0.0010203848655375,0.0010168414177377,-0.0010174038507832,0.0010200421407879,-0.00092260766632292,0.0009242820082629,-0.00092344406303336,0.00092345707078566,2.2078007662731e-06,-2.9529900786465e-06,-0.0011477595638292,0.0011470193153264,1.0729613874797e-06,-1.9706575130583e-06,-0.0014508085006764,0.0014528607085552,-0.0014518081966287,0.0014518549780473,-0.0014525383029418,0.0014511381313818,-0.0014535240349796,0.0014501408934647,-0.001100157489214,0.0010933494752091,-0.0010951217397224,0.0010984018767352,0.67663456367898,134640,3014,0.0036105949209376,0.0038498118824765,0.0047689118860438,26.129009144289,0.00012423207315432,0.00012423207315432,0.00012423207315432,2831544.0730728,0.012305654441477
31419200,0.99992808749498,0.015081929144646,0.004579235122404,0.0048427248533822,0.0056599691688601,-0.00087009410784995,0.00087027672888787,-2.4896764774618e-06,2.6804438289645e-06,-3.2991878678138e-07,5.3751964137824e-07,-0.0011401642993949,0.0011383273356513,-0.0011384253114116,0.0011400410245096,-0.0011398865081049,0.0011386210079815,-0.0011381614051833,0.0011403320775195,-0.00097536849325426,0.00097081946288052,-0.00097032332217898,0.00097586329601297,3.342702543123e-07,-5.3318015446601e-07,-1.6636118431022e-06,1.5112319759913e-06,-0.00092806628042287,0.00092790506688481,-0.0012038439762852,0.0012029301960071,-0.0012028118060229,0.0012039814950163,-0.0012041157474133,0.0012026385265408,-0.0012030829689918,0.0012036944333144,-0.0010232551846302,0.0010197003992054,-0.0010202605786951,0.0010229147555862,-0.00092538350039355,0.00092705914937638,-0.00092621592269932,0.00092623829922171,2.2094816734204e-06,-2.9558252273369e-06,-0.0011505423031239,0.0011498010092097,1.0791774630763e-06,-1.9781445657676e-06,-0.0014539338197086,0.0014559911119154,-0.0014549380582801,0.0014549808871617,-0.0014556650647222,0.0014542670547703,-0.0014566554038853,0.0014532652875119,-0.0011031150030088,0.0010962966965983,-0.0010980746096882,0.0011013534153816,0.72615477343843,134640,3014,0.0036208907554136,0.0038603837240591,0.0047804453454677,28.436007460711,0.00014268805968568,0.00014268805968568,0.00014268805968568,2844444.7198467,0.012338458552085
32419200,0.99995006018452,0.015082269470729,0.0045793494535848,0.004842837702788,0.0056600823143567,-0.00087201234511176,0.00087219817479433,-2.450025403576e-06,2.6443925489794e-06,-3.3774498242751e-07,5.4978042886928e-07,-0.0011453520623143,0.0011435354639757,-0.001143637631429,0.0011452241142506,-0.0011450683980954,0.0011438366764576,-0.0011433675091884,0.0011455222340019,-0.00097656001844258,0.0009720973171805,-0.000971585183736,0.00097706371371185,3.4356706193115e-07,-5.4413750571551e-07,-1.6734189806011e-06,1.519585045325e-06,-0.00092948284479834,0.00092932029201957,-0.0012085956719604,0.0012076813859602,-0.0012075573866171,0.0012087378066891,-0.0012088733667782,0.0012073821170646,-0.0012078348044326,0.0012084440353082,-0.0010240350616384,0.0010204525028152,-0.0010210249096204,0.0010236875222995,-0.00092680600486743,0.00092850449557447,-0.00092765475056133,0.00092766480628028,2.1726301148467e-06,-2.917588049347e-06,-0.0011509928583971,0.0011502511808116,1.0871601606502e-06,-1.9875670323659e-06,-0.0014573755213424,0.0014594122866972,-0.0014583860498832,0.0014583959045531,-0.0014590808189999,0.0014577142667062,-0.0014600783342652,0.0014567054856778,-0.0011040148385355,0.0010972662360073,-0.0010990489633909,0.0011022524338781,0.76213984606725,134640,3014,0.0036288758899809,0.0038662814817373,0.0047823390688077,29.294486906669,0.00014955589525336,0.00014955589525336,0.00014955589525336,2793488.6458699,0.012354506593936
33419200,0.99996533356631,0.015082508944807,0.0045794300089097,0.0048429171687249,0.0056601617671727,-0.0008716641825635,0.00087184709453949,-2.42886945528e-06,2.6198696750628e-06,-3.3346286166696e-07,5.4140208477218e-07,-0.0011467880844848,0.0011449895287152,-0.001145089407535,0.0011466626797871,-0.0011465080711408,0.0011452857243617,-0.0011448233665301,0.0011469562893234,-0.00097593206650346,0.00097150512991425,-0.00097100567313624,0.00097643007081319,3.3798525713138e-07,-5.3691300265534e-07,-1.6790486437018e-06,1.526885553928e-06,-0.00092867157311297,0.00092851040478558,-0.0012096548100649,0.001208733459518,-0.0012086131762966,0.0012097949768828,-0.0012099287733412,0.001208439261838,-0.0012088865809784,0.0012095053673057,-0.0010230139469526,0.0010194261390564,-0.0010199895688514,0.0010226715282749,-0.00092629096654047,0.00092798336865417,-0.00092713025347406,0.00092715609868861,2.1466388241596e-06,-2.8974954293563e-06,-0.0011491253198937,0.0011483794002649,1.0916546066572e-06,-1.9960533164164e-06,-0.0014572898090804,0.001459312392145,-0.0014583041927529,0.0014582920887863,-0.0014589807773751,0.0014576287045998,-0.0014599811164693,0.0014566169292007,-0.0011027131093146,0.0010959989852319,-0.001097791894628,0.0011009374607056,0.77028159452163,134640,3014,0.0036274324355436,0.0038629301224236,0.0047746034380498,29.317262035562,0.00014973809628449,0.00014973809628449,0.00014973809628449,2751850.5946774,0.012341853885184
34419200,0.99997689095801,0.015082683404294,0.0045794887853371,0.0048429750974293,0.0056602195215275,-0.00087369719773637,0.00087388600441218,-2.4214710745952e-06,2.6188319975351e-06,-3.4147079953085e-07,5.6128401760301e-07,-0.0011498935021516,0.0011480980920681,-0.0011482039986992,0.0011497703618824,-0.0011496057951713,0.0011483931064116,-0.00114793009284,0.0011500670817947,-0.00097832456982587,0.00097391981705948,-0.00097340870223606,0.0009788370836198,3.5685311258693e-07,-5.4391571660964e-07,-1.6813931003263e-06,1.5409190683165e-06,-0.00093057433243441,0.00093042242067849,-0.0012126585700081,0.0012117436018507,-0.0012116164041807,0.001212814947582,-0.0012129522858334,0.0012114534567443,-0.0012119001446223,0.0012125247026952,-0.0010253177536498,0.0010217118646174,-0.0010222736425261,0.0010249702521762,-0.0009286374824248,0.00093036514359616,-0.00092949164417544,0.00092951348740529,2.132035778273e-06,-2.901614106995e-06,-0.0011507842816801,0.0011500232340393,1.0924606099141e-06,-2.011794860603e-06,-0.001460078847101,0.0014620911685263,-0.0014611024354904,0.0014610687520484,-0.0014617690067084,0.0014604084649162,-0.0014627683565447,0.0014593982059581,-0.0011048599607494,0.0010981477403895,-0.0010999687079229,0.0011030787853952,0.7416971042398,134640,3014,0.0036358955357047,0.0038708572255016,0.0047814538308956,31.480106692709,0.00016704085354167,0.00016704085354167,0.00016704085354167,2743631.3173607,0.012365389045891
35419200,0.99998595494714,0.0150828154472,0.0045795332953759,0.0048430189502786,0.0056602632015452,-0.00087875197012221,0.00087894614185151,-2.4215619658585e-06,2.6274718234127e-06,-3.6691357004604e-07,5.8591995972154e-07,-0.0011552351166894,0.0011534199931033,-0.0011535397073168,0.0011551004463019,-0.0011549284386284,0.0011537475070804,-0.0011532529180857,0.0011554135596921,-0.00098411614886242,0.00097974035541174,-0.00097919443464581,0.00098464909918441,3.8305222966006e-07,-5.6960227299018e-07,-1.6765111898489e-06,1.540034145381e-06,-0.00093595666078748,0.00093580494541124,-0.0012182599312819,0.0012173670204954,-0.0012172179925331,0.001218429720939,-0.0012185720917882,0.0012170534857736,-0.0012175170655228,0.0012181187631815,-0.0010314318399993,0.0010278037400759,-0.0010283846185909,0.0010310672136469,-0.00093443069302186,0.0009361886809951,-0.0009353199727607,0.00093530688363073,2.1439702526623e-06,-2.8996525666636e-06,-0.0011570535660023,0.0011563032655319,1.0941074194187e-06,-2.0035580731239e-06,-0.0014665703988817,0.0014685886725882,-0.0014675847626121,0.0014675641207509,-0.001468261588231,0.0014669051303452,-0.0014692494964435,0.0014658933777661,-0.0011113731551531,0.0011046732666034,-0.0011064794132614,0.0011096130373719,0.71641844054118,134640,3014,0.0036569037713907,0.003893202492509,0.004807458586398,35.925106813297,0.00020260085450637,0.00020260085450637,0.00020260085450637,2781667.7438316,0.01243559684121
36419200,0.99999175902125,0.01508290167403,0.0045795623198312,0.0048430475731651,0.0056602917810334,-0.00088004079505007,0.00088023227402532,-2.4258328844005e-06,2.6254519407575e-06,-3.6292920033883e-07,5.8100729165599e-07,-0.001156236811805,0.0011544230142133,-0.0011545372387168,0.0011560972135486,-0.0011559345797532,0.0011547416557265,-0.0011542492654018,0.0011564131635006,-0.00098582810789028,0.00098143042731451,-0.00098089964815268,0.00098635742528425,3.6726965018717e-07,-5.766447693429e-07,-1.6837216253536e-06,1.5224475405753e-06,-0.00093735842796857,0.00093718812135074,-0.0012193307091682,0.0012184228002071,-0.0012182888889666,0.001219484372361,-0.0012196268875459,0.0012181060347399,-0.0012185841120387,0.0012191724488307,-0.0010332355856541,0.0010296152369108,-0.0010302104145205,0.0010328611476916,-0.00093600232391059,0.00093775265464019,-0.00093690863897436,0.00093685632870017,2.1489672848294e-06,-2.8976553825424e-06,-0.0011586970545282,0.0011579534880155,1.0930013955098e-06,-1.9950727927881e-06,-0.0014679755706252,0.0014700015601187,-0.0014689901008561,0.00146898129294,-0.0014696674232017,0.0014683169981194,-0.0014706678874197,0.0014673053039189,-0.0011130534815621,0.001106339616007,-0.0011081303085912,0.0011112802276317,0.73065038834161,134640,3014,0.0036622499468836,0.0038989805593538,0.0048142798321816,37.478875580642,0.00021503100464514,0.00021503100464514,0.00021503100464514,2799214.3423941,0.012453753040989
37419200,0.99999518710985,0.015082951792054,0.0045795791860591,0.0048430642078581,0.0056603083981366,-0.00088017039861648,0.00088036090805795,-2.4175494627287e-06,2.6166759422792e-06,-3.540041122636e-07,5.726348902071e-07,-0.0011575490177992,0.0011557453369688,-0.0011558566736485,0.0011574142804886,-0.001157252903116,0.00115605613906,-0.0011555730256003,0.0011577246934805,-0.00098571084972096,0.00098132372636058,-0.00098079334112196,0.00098623101845811,3.6330863821989e-07,-5.6295941449888e-07,-1.6853798521382e-06,1.5324649615544e-06,-0.00093721295596982,0.00093705131333695,-0.0012204012872288,0.0012194905998062,-0.0012193548614038,0.0012205576698748,-0.0012206934395541,0.0012191815261164,-0.0012196459896563,0.0012202522070158,-0.0010328742368818,0.0010292583537935,-0.0010298433467408,0.001032515609938,-0.00093593871393083,0.00093768609728161,-0.00093682665541327,0.00093680679695791,2.1403603514072e-06,-2.8894636413354e-06,-0.0011579612537026,0.0011572156838085,1.0969076804159e-06,-2.0025048632201e-06,-0.0014683614238066,0.0014703841933307,-0.0014693818277708,0.0014693609032348,-0.0014700479309931,0.0014687051488747,-0.0014710534374911,0.0014676900031619,-0.0011125655396418,0.0011058665709703,-0.0011076620965498,0.0011107942884055,0.71959281111244,134640,3014,0.003662790009254,0.0038984020152398,0.004811235711565,37.680188805282,0.00021664151044225,0.00021664151044225,0.00021664151044225,2775581.4092723,0.012450658970501
38419200,0.99999715759326,0.015082981706488,0.0045795892534694,0.0048430741386922,0.0056603183143268,-0.00087882047367559,0.00087900567771591,-2.4234908231306e-06,2.6169235468978e-06,-3.4390932507672e-07,5.5481089639884e-07,-0.0011560726391526,0.0011542715148248,-0.0011543774135536,0.001155942216423,-0.0011557852196857,0.0011545753788113,-0.0011541036567272,0.0011562432212738,-0.00098429319695573,0.00097988357481288,-0.00097937415412242,0.00098480029840483,3.4815333708998e-07,-5.5057753586161e-07,-1.6854799081582e-06,1.530127104746e-06,-0.00093571474940378,0.00093555047787437,-0.0012187703600993,0.0012178502442377,-0.0012177253021869,0.0012189151619667,-0.0012190525514076,0.0012175490971945,-0.0012180065359188,0.0012186179742593,-0.0010313268747661,0.0010277180760815,-0.0010282924842292,0.0010309727601596,-0.00093458205415347,0.00093629816156312,-0.00093544439356624,0.00093544639471103,2.143507383699e-06,-2.8922309792155e-06,-0.0011560552202719,0.0011553114915537,1.0975140466326e-06,-1.9998035731485e-06,-0.001466313284938,0.0014683383078857,-0.0014673308712065,0.0014673149302802,-0.0014680015514661,0.001466657386915,-0.0014690042476566,0.0014656427510389,-0.0011108526129831,0.0011041463054838,-0.0011059398759322,0.0011090766058214,0.74583042549311,134640,3014,0.0036571704976192,0.0038921755299229,0.0048033366414195,37.196433269657,0.00021277146615725,0.00021277146615725,0.00021277146615725,2766636.9463098,0.012430661629443
38880000,0.99999784567809,0.015082992214603,0.0045795927905516,0.0048430776275324,0.0056603217965189,-0.00087899147308105,0.00087917233258949,-2.4123544754341e-06,2.6014223122537e-06,-3.2912794743711e-07,5.3493358528135e-07,-0.0011574980167659,0.0011557126271265,-0.0011558111342074,0.0011573742512953,-0.0011572213834799,0.0011560050829593,-0.0011555485194801,0.0011576640513625,-0.00098418455979218,0.00097978632501491,-0.00097929254810701,0.0009846769672814,3.3403072021023e-07,-5.300321020818e-07,-1.6953892966551e-06,1.5458652684398e-06,-0.00093562615327924,0.00093546761786609,-0.0012200004080203,0.0012190664147453,-0.0012189473507778,0.0012201396561866,-0.0012202712933647,0.0012187761151305,-0.0012192173875645,0.0012198538625192,-0.0010309912346252,0.001027374763205,-0.0010279322455896,0.0010306551328429,-0.00093455059212816,0.00093624667089502,-0.00093537895809322,0.00093543036340215,2.1283119371973e-06,-2.8808882283417e-06,-0.0011554162192041,0.0011546687448556,1.1079778867215e-06,-2.0145801065145e-06,-0.0014668954574085,0.0014689166101959,-0.0014679214487118,0.0014678848952228,-0.0014685747942958,0.0014672445383351,-0.0014695864575786,0.0014662214164197,-0.001110440612237,0.0011037478714279,-0.0011055542086489,0.0011086522007996,0.74998938909187,134640,3014,0.0036578768537187,0.003891828480165,0.0048006918579822,37.193663116545,0.00021274930493236,0.00021274930493236,0.00021274930493236,2741456.1480369,0.01242837709057
