time,ASR_ext,ASR_strain,ASR_strain_xx,ASR_strain_yy,ASR_strain_zz,disp_x_101,disp_x_102,disp_x_103,disp_x_104,disp_x_105,disp_x_106,disp_x_p1_neg,disp_x_p1_pos,disp_x_p2_neg,disp_x_p2_pos,disp_x_p3_neg,disp_x_p3_pos,disp_x_p4_neg,disp_x_p4_pos,disp_x_p5_neg,disp_x_p5_pos,disp_x_p6_neg,disp_x_p6_pos,disp_y_101,disp_y_102,disp_y_103,disp_y_104,disp_y_105,disp_y_106,disp_y_p1_neg,disp_y_p1_pos,disp_y_p2_neg,disp_y_p2_pos,disp_y_p3_neg,disp_y_p3_pos,disp_y_p4_neg,disp_y_p4_pos,disp_y_p5_neg,disp_y_p5_pos,disp_y_p6_neg,disp_y_p6_pos,disp_y_p7_neg,disp_y_p7_pos,disp_y_p8_neg,disp_y_p8_pos,disp_z_101,disp_z_102,disp_z_103,disp_z_104,disp_z_105,disp_z_106,disp_z_p1_neg,disp_z_p1_pos,disp_z_p2_neg,disp_z_p2_pos,disp_z_p3_neg,disp_z_p3_pos,disp_z_p4_neg,disp_z_p4_pos,disp_z_p5_neg,disp_z_p5_pos,disp_z_p6_neg,disp_z_p6_pos,humidity,ndof,nelem,strain_xx,strain_yy,strain_zz,temp,thermal_strain_xx,thermal_strain_yy,thermal_strain_zz,vonmises,vstrain
2419200,0,0,0,0,0,0,0,0,0,0,0,0,0,0,0,0,0,0,0,0,0,0,0,0,0,0,0,0,0,0,0,0,0,0,0,0,0,0,0,0,0,0,0,0,0,0,0,0,0,0,0,0,0,0,0,0,0,0,0,0,0,0,0,0,0,0,0,0,0,0,0,0,0,0,0
3419200,0.15985862428743,0.0027569435526734,0.00091898118422446,0.00091898118422446,0.00091898118422446,-0.00025475629583879,0.00025475629224775,-1.166943394798e-12,-1.1669479755404e-12,-1.164075864752e-12,-1.1295587464321e-12,-0.00025934213075913,0.00025934212805476,-0.00025934213121404,0.00025934212850959,-0.00025934213117697,0.00025934212851288,-0.00025934213163048,0.00025934212896647,-0.00025502924959878,0.00025502924700342,-0.00025502924982565,0.00025502924723063,-1.1186486455744e-12,-1.2028826479814e-12,-1.9885839664622e-12,-3.7068956346977e-13,-0.00025475629585166,0.00025475629223488,-0.00025934213102705,0.00025934212779373,-0.00025934213093329,0.00025934212878548,-0.0002593421314822,0.00025934212821133,-0.0002593421313885,0.00025934212920301,-0.00025502925042738,0.0002550292461841,-0.000255029249062,0.00025502924798466,-0.00025502924931611,0.00025502924732193,-0.00025502924958426,0.0002550292474439,-1.3475157828472e-12,-1.3475112829847e-12,-0.00025475629602052,0.000254756292066,-5.2974144543894e-13,-2.1542186570105e-12,-0.00025934213064354,0.00025934212814634,-0.00025934213164664,0.00025934212806448,-0.00025934213110431,0.00025934212860711,-0.00025934213209767,0.00025934212851551,-0.00025502925028613,0.000255029246772,-0.00025502925006515,0.00025502924655121,0.78394350386785,134343,3014,0.0010609199660863,0.0010609199660863,0.0010609199660863,31.882667631062,0.0001702613410485,0.0001702613410485,0.0001702613410485,1020910.5073055,0.0031878321567481
4419200,0.35092195812469,0.0059338171455132,0.0019779390485042,0.0019779390485043,0.0019779390485047,-0.00050166281995691,0.00050166281159066,-3.0688413225335e-12,-3.0688135439704e-12,-2.9847474650726e-12,-2.9987423316567e-12,-0.00052182904452246,0.00052182903755874,-0.00052182904619071,0.00052182903922682,-0.00052182904611873,0.00052182903919045,-0.00052182904777828,0.00052182904085021,-0.0005047212606748,0.00050472125412092,-0.00050472126193978,0.0005047212553866,-2.9180801055749e-12,-3.1124966249234e-12,-4.8164459955317e-12,-1.3626631426299e-12,-0.00050166281997801,0.00050166281156959,-0.00052182904511564,0.0005218290370015,-0.00052182904557994,0.00052182903980481,-0.00052182904676579,0.00052182903856798,-0.00052182904723026,0.00052182904137113,-0.00050472126244064,0.00050472125240852,-0.00050472126027578,0.00050472125699652,-0.00050472126004025,0.00050472125487773,-0.00050472126135707,0.00050472125586786,-3.4657971222769e-12,-3.4658255919954e-12,-0.00050166282035707,0.00050166281119069,-1.6818849872152e-12,-5.1804077126886e-12,-0.00052182904427453,0.00052182903772686,-0.00052182904713476,0.0005218290382434,-0.00052182904596338,0.0005218290394157,-0.0005218290487861,0.0005218290398947,-0.00050472126293169,0.0005047212544049,-0.00050472126169267,0.00050472125316627,0.77879287408957,134343,3014,0.0020880783971132,0.0020880783971133,0.0020880783971136,33.607450478797,0.00018405960383038,0.00018405960383038,0.00018405960383038,1916697.6331735,0.0062839145763485
5419200,0.55081100476505,0.0091452905730317,0.0030484301910103,0.0030484301910104,0.0030484301910109,-0.00074783210830174,0.00074783210409319,-1.3895705789844e-12,-1.3895942841426e-12,-1.3035042964856e-12,-1.3413696691362e-12,-0.00079508255934047,0.00079508255549571,-0.00079508256031163,0.0007950825564668,-0.0007950825603043,0.00079508255643015,-0.00079508256126861,0.00079508255739453,-0.00075496918695438,0.00075496918384574,-0.00075496918707017,0.00075496918396177,-1.2400098371858e-12,-1.4270659519089e-12,-2.7554392101721e-12,-4.1961604791805e-14,-0.00074783210831073,0.00074783210408426,-0.00079508255978124,0.00079508255506821,-0.00079508255983831,0.0007950825569286,-0.00079508256079031,0.00079508255594914,-0.00079508256084744,0.00079508255780947,-0.0007549691883373,0.00075496918249762,-0.00075496918575516,0.00075496918524151,-0.00075496918640374,0.00075496918448602,-0.00075496918661624,0.00075496918434244,-1.6143059781781e-12,-1.6142818906787e-12,-0.00074783210852432,0.00074783210387085,-2.051686145926e-13,-2.9659288929082e-12,-0.0007950825590706,0.0007950825557243,-0.00079508256097939,0.00079508255578829,-0.00079508256005716,0.00079508255671088,-0.00079508256193756,0.00079508255674647,-0.00075496918775722,0.00075496918327912,-0.00075496918767682,0.00075496918319884,0.77316544218071,134343,3014,0.0031111317421798,0.0031111317421799,0.0031111317421803,36.279054986362,0.0002054324398909,0.0002054324398909,0.0002054324398909,2707586.2560278,0.0093771540246763
6419200,0.70695752665983,0.011452695619613,0.0038175652065375,0.0038175652065376,0.0038175652065379,-0.00091263675392537,0.00091263675123027,-9.0540795805544e-13,-9.0543913357364e-13,-8.7677325929642e-13,-8.7028700156479e-13,-0.00099417771535197,0.00099417771297099,-0.00099417771601858,0.00099417771363751,-0.00099417771603389,0.00099417771364153,-0.00099417771670374,0.00099417771431147,-0.00091994948024176,0.0009199494783813,-0.00091994948030343,0.00091994947844328,-8.1800214966982e-13,-9.6344567769e-13,-2.1067039932016e-12,2.6597783193573e-13,-0.00091263675394023,0.00091263675121544,-0.00099417771572142,0.00099417771258376,-0.00099417771562755,0.00099417771404811,-0.00099417771645425,0.00099417771320511,-0.00099417771636045,0.00099417771466938,-0.00091994948143897,0.00091994947716803,-0.00091994947918663,0.00091994947957565,-0.00091994947977856,0.00091994947887171,-0.00091994947996307,0.00091994947876856,-1.1065596365391e-12,-1.1065279610362e-12,-0.00091263675412287,0.0009126367510329,8.3417275188915e-14,-2.2997727729322e-12,-0.00099417771513766,0.0009941777131815,-0.00099417771660441,0.00099417771306565,-0.00099417771581345,0.00099417771385732,-0.00099417771727523,0.00099417771373649,-0.00091994948090677,0.00091994947784026,-0.00091994948086386,0.00091994947779752,0.72911303981267,134343,3014,0.0037954887417829,0.003795488741783,0.0037954887417832,36.740631118317,0.00020912504894653,0.00020912504894653,0.00020912504894653,3123362.884996,0.011451703014379
7419200,0.83227234673764,0.013225525858357,0.0044085086194521,0.0044085086194522,0.0044085086194524,-0.0010332734146311,0.0010332734116048,-1.0170017842348e-12,-1.0170739585005e-12,-9.9644745627302e-13,-9.8282234309911e-13,-0.0011508807842036,0.0011508807816149,-0.0011508807847829,0.0011508807821941,-0.0011508807847992,0.0011508807822035,-0.0011508807853817,0.0011508807827861,-0.0010400984204933,0.0010400984183259,-0.0010400984205333,0.0010400984183662,-9.3661861201326e-13,-1.0707958761563e-12,-2.1035233605883e-12,4.5690753305688e-14,-0.0010332734146428,0.0010332734115931,-0.0011508807845343,0.0011508807812673,-0.0011508807844254,0.0011508807825699,-0.0011508807851797,0.0011508807818081,-0.0011508807850708,0.0011508807831107,-0.0010400984215773,0.001040098417228,-0.0010400984195222,0.0010400984193907,-0.0010400984200743,0.0010400984187669,-0.0010400984202276,0.0010400984186593,-1.1696225041295e-12,-1.1695491240183e-12,-0.0010332734147791,0.0010332734114569,-9.4846867199195e-14,-2.2494280168123e-12,-0.0011508807839811,0.0011508807818398,-0.0011508807852814,0.0011508807817111,-0.0011508807845672,0.001150880782426,-0.0011508807858657,0.0011508807822955,-0.0010400984210503,0.0010400984178478,-0.0010400984210273,0.0010400984178249,0.71231368642157,134343,3014,0.0042961712877279,0.004296171287728,0.0042961712877281,40.779748479507,0.00024143798783606,0.00024143798783606,0.00024143798783606,3303122.0729859,0.012972219946377
8419200,0.90787923910334,0.014267490170867,0.0047558300569555,0.0047558300569555,0.0047558300569558,-0.0010878116465646,0.0010878116450537,-5.3912088316826e-13,-5.3923646787252e-13,-5.3452490592515e-13,-5.0853355288433e-13,-0.0012339307625887,0.0012339307612007,-0.0012339307629606,0.0012339307615725,-0.0012339307629851,0.0012339307615898,-0.0012339307633615,0.0012339307619662,-0.0010953736219918,0.0010953736209231,-0.0010953736220197,0.0010953736209511,-4.7634354631978e-13,-5.9338740551032e-13,-1.4516855775536e-12,3.5095230794477e-13,-0.0010878116465756,0.0010878116450427,-0.001233930762857,0.0012339307609101,-0.0012339307626656,0.001233930761891,-0.0012339307633023,0.0012339307612537,-0.0012339307631109,0.0012339307622346,-0.0010953736229023,0.0010953736199927,-0.0010953736211792,0.001095373621811,-0.0010953736216402,0.0010953736212836,-0.0010953736217796,0.0010953736211894,-6.6012518656986e-13,-6.6000821955488e-13,-0.0010878116466807,0.0010878116449377,2.3122189221226e-13,-1.5677611647961e-12,-0.0012339307624012,0.0012339307614016,-0.0012339307633716,0.0012339307611832,-0.0012339307627775,0.001233930761778,-0.0012339307637508,0.0012339307615626,-0.0010953736224461,0.0010953736205219,-0.0010953736224324,0.0010953736205081,0.69845438787044,134343,3014,0.0045224840182831,0.0045224840182832,0.0045224840182833,41.436353353579,0.00024669082682863,0.00024669082682863,0.00024669082682863,3267902.8412352,0.013660321279953
9419200,0.94973186929008,0.014829975218029,0.0049433250726763,0.0049433250726764,0.0049433250726766,-0.0011064993883148,0.0011064993876306,-2.7113842278965e-13,-2.7129700618033e-13,-2.7705321268512e-13,-2.4263638174274e-13,-0.0012724921073804,0.0012724921066813,-0.001272492107617,0.0012724921069177,-0.0012724921076454,0.0012724921069396,-0.0012724921078867,0.0012724921071809,-0.0011150871066571,0.0011150871061983,-0.0011150871066783,0.0011150871062195,-2.1970531055707e-13,-3.2576545617716e-13,-1.0026533195374e-12,4.3866635875203e-13,-0.0011064993883254,0.00110649938762,-0.0012724921075872,0.001272492106451,-0.0012724921073834,0.001272492107176,-0.0012724921079004,0.0012724921066648,-0.0012724921076967,0.0012724921073898,-0.0011150871073894,0.0011150871054449,-0.0011150871060143,0.0011150871069043,-0.0011150871063722,0.001115087106484,-0.001115087106503,0.0011150871063993,-3.639086475465e-13,-3.6374924065156e-13,-0.0011064993884025,0.001106499387543,3.4297355180518e-13,-1.0910379930676e-12,-0.0012724921072305,0.0012724921068517,-0.0012724921079412,0.0012724921066181,-0.0012724921074694,0.0012724921070906,-0.0012724921081859,0.0012724921068629,-0.0011150871070162,0.0011150871058784,-0.001115087107007,0.0011150871058691,0.67991627714153,134343,3014,0.0046000571221905,0.0046000571221905,0.0046000571221906,41.144138448148,0.00024435310758518,0.00024435310758518,0.00024435310758518,3162882.8596354,0.013896342662795
10419200,0.97066095688386,0.01511880165164,0.0050396005505464,0.0050396005505465,0.0050396005505467,-0.0011055173793079,0.0011055173803699,3.0049414363959e-13,3.0046314458659e-13,2.7462319868508e-13,3.2519433024232e-13,-0.0012829072523745,0.0012829072531004,-0.0012829072523663,0.0012829072530921,-0.0012829072524036,0.0012829072531235,-0.0012829072524014,0.0012829072531213,-0.0011155072756574,0.0011155072765025,-0.001115507275672,0.0011155072765175,3.3110424413784e-13,2.4355418642502e-13,-1.6919623742109e-13,7.4916436934469e-13,-0.0011055173793182,0.0011055173803596,-0.0012829072524894,0.0012829072529564,-0.0012829072522248,0.0012829072532639,-0.0012829072525666,0.0012829072529363,-0.0012829072523021,0.0012829072532438,-0.0011155072761299,0.0011155072760015,-0.0011155072752664,0.0011155072769511,-0.0011155072754698,0.0011155072766742,-0.0011155072755959,0.0011155072766122,2.4711877422049e-13,2.4715086147554e-13,-0.0011055173793562,0.0011055173803216,6.8204489929062e-13,-2.2023958065552e-13,-0.0012829072522829,0.0012829072532253,-0.0012829072525675,0.0012829072529229,-0.0012829072522743,0.0012829072532166,-0.0012829072525698,0.0012829072529252,-0.0011155072758831,0.0011155072763021,-0.0011155072758764,0.0011155072762955,0.69326328333746,134343,3014,0.0045960250023245,0.0045960250023245,0.0045960250023246,38.086341311276,0.00021989073049021,0.00021989073049021,0.00021989073049021,3079838.8631397,0.013884133033077
11419200,0.98275535283683,0.015282811513706,0.0050942705045686,0.0050942705045686,0.0050942705045689,-0.0011052070252626,0.0011052070251008,-1.0249560412377e-13,-1.0251280948051e-13,-1.1484125638433e-13,-7.5428342774728e-14,-0.0012916050012456,0.0012916050009918,-0.001291605001389,0.0012916050011352,-0.0012916050014186,0.0012916050011587,-0.0012916050015657,0.001291605001306,-0.0011162586858139,0.0011162586857408,-0.0011162586858408,0.001116258685768,-5.8536896968907e-14,-1.5659584294273e-13,-4.856461684385e-13,2.5993023112742e-13,-0.0011052070252727,0.0011052070250906,-0.00129160500134,0.0012916050008783,-0.0012916050012679,0.0012916050012765,-0.0012916050015598,0.0012916050010013,-0.0012916050014878,0.0012916050013994,-0.0011162586862075,0.0011162586853328,-0.0011162586855138,0.0011162586861092,-0.0011162586856486,0.001116258685901,-0.0011162586857825,0.0011162586858334,-1.4961087066707e-13,-1.4959293003867e-13,-0.0011052070253046,0.0011052070250587,2.1516967671407e-13,-5.2735458085602e-13,-0.00129160500117,0.0012916050010929,-0.0012916050015554,0.0012916050009936,-0.0012916050013133,0.0012916050012362,-0.0012916050017062,0.0012916050011444,-0.0011162586860187,0.0011162586855872,-0.0011162586860017,0.0011162586855704,0.67903392425082,134343,3014,0.0045947754857307,0.0045947754857308,0.0045947754857308,37.625921838492,0.00021620737470794,0.00021620737470794,0.00021620737470794,2984791.3562929,0.013880392758805
12419200,0.98969209708089,0.015379415406028,0.0051264718020092,0.0051264718020093,0.0051264718020095,-0.001102017377098,0.0011020173772316,-8.9991662581187e-15,-9.0611643641191e-15,-2.5065087219967e-14,1.7294059913635e-14,-0.0012931501457379,0.0012931501457307,-0.0012931501458363,0.0012931501458291,-0.0012931501458671,0.0012931501458541,-0.0012931501459693,0.0012931501459563,-0.0011139130328445,0.0011139130329889,-0.0011139130328753,0.0011139130330198,3.0802919372242e-14,-6.3151028500016e-14,-2.95897376439e-13,2.5737969421231e-13,-0.0011020173771081,0.0011020173772216,-0.0012931501458004,0.0012931501456493,-0.0012931501457471,0.0012931501459382,-0.0012931501459761,0.001293150145729,-0.0012931501459229,0.0012931501460179,-0.0011139130331438,0.0011139130326756,-0.0011139130326418,0.0011139130332668,-0.0011139130327135,0.0011139130331118,-0.0011139130328504,0.0011139130330539,-4.1997599355109e-14,-4.1934777744855e-14,-0.001102017377126,0.0011020173772037,2.267866600585e-13,-3.2339539990429e-13,-0.0012931501456824,0.0012931501458143,-0.0012931501459579,0.0012931501457332,-0.0012931501457799,0.0012931501459118,-0.0012931501460637,0.0012931501458391,-0.0011139130330072,0.0011139130328849,-0.0011139130329856,0.0011139130328634,0.69352050815422,134343,3014,0.0045815645727945,0.0045815645727945,0.0045815645727946,36.800418348658,0.00020960334678926,0.00020960334678926,0.00020960334678926,2931642.6309857,0.013840233598977
13419200,0.99356589272537,0.015432020855311,0.0051440069517703,0.0051440069517704,0.0051440069517706,-0.0010960473759522,0.0010960473768616,2.4955828793031e-13,2.4950767182954e-13,2.2672763244999e-13,2.7455187733449e-13,-0.0012917596616386,0.0012917596622495,-0.0012917596616386,0.0012917596622494,-0.0012917596616726,0.0012917596622774,-0.0012917596616768,0.0012917596622817,-0.0011085585200469,0.0011085585207798,-0.0011085585200768,0.0011085585208099,2.8262256046816e-13,1.9418417258623e-13,6.7518172200745e-14,4.1118656169456e-13,-0.0010960473759622,0.0010960473768517,-0.0012917596616644,0.0012917596622027,-0.0012917596615862,0.0012917596623239,-0.001291759661745,0.0012917596621874,-0.0012917596616669,0.0012917596623085,-0.0011085585202424,0.0011085585205675,-0.001108558519947,0.0011085585209562,-0.0011085585199536,0.0011085585208594,-0.0011085585200915,0.0011085585208094,2.2501227308834e-13,2.2506415385635e-13,-0.0010960473759717,0.0010960473768422,3.8519426199147e-13,4.766429388854e-14,-0.001291759661613,0.0012917596623073,-0.0012917596617178,0.0012917596621983,-0.0012917596616112,0.0012917596623055,-0.0012917596617261,0.0012917596622067,-0.0011085585201652,0.0011085585207184,-0.0011085585201432,0.0011085585206964,0.67547399841927,134343,3014,0.0045568245224985,0.0045568245224985,0.0045568245224986,34.78527479635,0.0001934821983708,0.0001934821983708,0.0001934821983708,2876519.6761682,0.013765027751543
14419200,0.99580302407604,0.015461994656997,0.005153998218999,0.0051539982189991,0.0051539982189993,-0.0010890524876407,0.0010890524886734,2.8586129654538e-13,2.8583241507475e-13,2.6042677943477e-13,3.1062733407758e-13,-0.0012865326597905,0.0012865326605125,-0.0012865326597689,0.0012865326604908,-0.0012865326598033,0.0012865326605198,-0.0012865326597856,0.0012865326605022,-0.001102030364787,0.001102030365607,-0.0011020303648225,0.0011020303656428,3.1630860876073e-13,2.3030317579313e-13,2.0537572591255e-13,3.459872426549e-13,-0.0010890524876507,0.0010890524886634,-0.0012865326597834,0.0012865326604998,-0.0012865326597493,0.0012865326605313,-0.0012865326598427,0.0012865326604637,-0.0012865326598086,0.0012865326604951,-0.0011020303648837,0.0011020303654951,-0.0011020303647915,0.0011020303656886,-0.0011020303647288,0.0011020303656492,-0.0011020303648721,0.0011020303656087,2.779003044541e-13,2.7792989178553e-13,-0.0010890524876437,0.0010890524886705,3.3833782577637e-13,2.0252798937953e-13,-0.0012865326597837,0.0012865326605534,-0.0012865326597991,0.0012865326604891,-0.0012865326597595,0.0012865326605293,-0.0012865326597855,0.0012865326604755,-0.0011020303648612,0.0011020303656012,-0.0011020303648327,0.0011020303655728,0.66541085070209,134343,3014,0.0045278170286046,0.0045278170286046,0.0045278170286046,32.633968082852,0.00017627174466282,0.00017627174466282,0.00017627174466282,2854890.5449064,0.013676814502723
15419200,0.99696737947965,0.015478508118437,0.0051595027061456,0.0051595027061457,0.0051595027061459,-0.0010752864974539,0.0010752865004978,9.4754005330179e-13,9.473398535354e-13,8.9843164176535e-13,9.703047990309e-13,-0.0012743406947667,0.001274340697117,-0.0012743406944812,0.0012743406968313,-0.0012743406945243,0.0012743406968722,-0.0012743406942444,0.0012743406965923,-0.001088758375096,0.0010887583774287,-0.0010887583751336,0.0010887583774663,9.5735452493207e-13,8.8586054602428e-13,1.0834979665169e-12,7.9013444333448e-13,-0.0010752864974644,0.0010752865004874,-0.0012743406946799,0.0012743406971761,-0.0012743406945399,0.0012743406968014,-0.0012743406944871,0.0012743406968864,-0.0012743406943472,0.0012743406965116,-0.0010887583749776,0.0010887583775212,-0.0010887583753209,0.0010887583773045,-0.0010887583751197,0.001088758377371,-0.0010887583752731,0.0010887583773582,9.7020289037944e-13,9.7040411952614e-13,-0.0010752864974261,0.0010752865005256,8.0002300102295e-13,1.1093755652203e-12,-0.0012743406948118,0.0012743406971193,-0.0012743406944107,0.0012743406969388,-0.0012743406945212,0.0012743406968288,-0.001274340694136,0.0012743406966642,-0.0010887583750689,0.0010887583775269,-0.0010887583750348,0.0010887583774927,0.70136005660258,134343,3014,0.0044707225285797,0.0044707225285797,0.0044707225285798,27.044459501291,0.00013155567601033,0.00013155567601033,0.00013155567601033,2844932.4294858,0.013503210818798
16419200,0.99771557930427,0.015488738467131,0.0051629128223769,0.005162912822377,0.0051629128223772,-0.0010684092546058,0.0010684092560204,4.1663606617182e-13,4.1641210242552e-13,3.8848529380565e-13,4.4209546487525e-13,-0.0012710483464292,0.0012710483474503,-0.0012710483463643,0.0012710483473851,-0.001271048346398,0.0012710483474147,-0.0012710483463362,0.0012710483473529,-0.0010821496983465,0.0010821496994634,-0.0010821496983892,0.0010821496995059,4.4645466476994e-13,3.5911683621246e-13,6.0306291048175e-13,2.0917620591573e-13,-0.001068409254616,0.0010684092560102,-0.0012710483463356,0.0012710483475277,-0.0012710483464301,0.0012710483473366,-0.001271048346352,0.0012710483474468,-0.0012710483464466,0.0012710483472555,-0.0010821496981846,0.0010821496996149,-0.0010821496986188,0.0010821496992863,-0.0010821496983762,0.0010821496994155,-0.00108214969853,0.0010821496993812,4.3103447925136e-13,4.3125941355624e-13,-0.0010684092545861,0.0010684092560401,2.3016576271159e-13,6.2407872894086e-13,-0.0012710483464896,0.0012710483474258,-0.0012710483462848,0.0012710483474925,-0.0012710483464208,0.001271048347357,-0.0012710483462269,0.0012710483474347,-0.0010821496983175,0.0010821496995751,-0.0010821496982817,0.0010821496995391,0.67694980785237,134343,3014,0.0044422150067917,0.0044422150067917,0.0044422150067918,24.406321692431,0.00011045057353945,0.00011045057353945,0.00011045057353945,2800376.2508344,0.013416585095801
17419200,0.99821814616624,0.015495802986949,0.0051652676623163,0.0051652676623164,0.0051652676623166,-0.0010608821913527,0.0010608821926603,3.7559890806412e-13,3.7544970673977e-13,3.4705704470434e-13,4.0083274012905e-13,-0.0012637572039133,0.0012637572048604,-0.0012637572038559,0.0012637572048028,-0.0012637572038896,0.0012637572048324,-0.001263757203835,0.0012637572047778,-0.0010750204844647,0.0010750204854935,-0.00107502048451,0.0010750204855388,4.0435539087271e-13,3.1872463634291e-13,5.9397418583826e-13,1.3643678174317e-13,-0.0010608821913628,0.0010608821926502,-0.0012637572038102,0.0012637572049484,-0.0012637572039316,0.0012637572047432,-0.0012637572038334,0.0012637572048754,-0.0012637572039549,0.0012637572046701,-0.001075020484272,0.0010750204856776,-0.0010750204847698,0.0010750204852873,-0.0010750204845058,0.0010750204854335,-0.0010750204846607,0.0010750204854042,4.0113886313014e-13,4.0128924088915e-13,-0.001060882191322,0.001060882192691,1.7029291531539e-13,6.2643477461234e-13,-0.0012637572039739,0.0012637572048362,-0.0012637572037557,0.0012637572049306,-0.0012637572039122,0.0012637572047747,-0.0012637572037051,0.00126375720488,-0.0010750204844172,0.0010750204856294,-0.0010750204843782,0.0010750204855903,0.69391424294185,134343,3014,0.004410989137069,0.004410989137069,0.0044109891370691,21.969289195589,9.0954313564713e-05,9.0954313564713e-05,9.0954313564713e-05,2796430.5832242,0.013321643426779
18419200,0.99853035371926,0.015500118459992,0.0051667061533307,0.0051667061533308,0.005166706153331,-0.0010499194935752,0.0010499194970264,1.0892985462066e-12,1.089142786259e-12,1.041468492676e-12,1.1107212299936e-12,-0.0012550417913362,0.0012550417939964,-0.0012550417910093,0.0012550417936694,-0.001255041791053,0.0012550417937085,-0.0012550417907311,0.0012550417933866,-0.0010643570376565,0.0010643570403097,-0.001064357037704,0.0010643570403572,1.098540587082e-12,1.0289733578496e-12,1.443272320786e-12,7.146512442967e-13,-0.0010499194935853,0.0010499194970164,-0.0012550417911799,0.0012550417941283,-0.0012550417911383,0.001255041793566,-0.0012550417909445,0.0012550417937966,-0.001255041790903,0.0012550417932343,-0.0010643570373258,0.0010643570406189,-0.0010643570381015,0.001064357039981,-0.0010643570377516,0.0010643570401802,-0.0010643570379137,0.0010643570401785,1.1251326573814e-12,1.1252894761201e-12,-0.0010499194935342,0.0010499194970675,7.4263488654339e-13,1.4828317593311e-12,-0.0012550417914414,0.0012550417939393,-0.0012550417908552,0.0012550417938595,-0.0012550417911086,0.0012550417936067,-0.0012550417905384,0.0012550417935428,-0.0010643570375542,0.0010643570405036,-0.00106435703751,0.0010643570404593,0.68264644531648,134343,3014,0.0043655234776075,0.0043655234776075,0.0043655234776076,17.464467707836,5.4915741662689e-05,5.4915741662689e-05,5.4915741662689e-05,2774624.436831,0.013183466377281
19419200,0.99878909488476,0.015503913163297,0.0051679710544321,0.0051679710544322,0.0051679710544324,-0.001048004364279,0.0010480043642032,-8.2597329649453e-14,-8.342977480706e-14,-9.6127636896089e-14,-5.6226870542995e-14,-0.0012536100907862,0.001253610090623,-0.0012536100909073,0.0012536100907436,-0.0012536100909339,0.0012536100907649,-0.0012536100910559,0.0012536100908865,-0.0010627201293185,0.0010627201293035,-0.0010627201293714,0.0010627201293552,-4.0670272285704e-14,-1.3581720381883e-13,1.9097111816931e-13,-3.7712251633281e-13,-0.0010480043642888,0.0010480043641934,-0.0012536100906731,0.0012536100907304,-0.0012536100909938,0.0012536100906639,-0.0012536100908654,0.0012536100908277,-0.0012536100911862,0.0012536100907612,-0.0010627201290758,0.0010627201295497,-0.001062720129679,0.0010627201290432,-0.0010627201293713,0.0010627201292425,-0.0010627201295277,0.0010627201292036,-5.5116139769175e-14,-5.4283165215976e-14,-0.0010480043642457,0.0010480043642365,-3.2518913922443e-13,2.2874367380249e-13,-0.0012536100908562,0.0012536100905813,-0.0012536100907867,0.001253610090885,-0.0012536100909733,0.001253610090699,-0.0012536100909112,0.0012536100910101,-0.001062720129258,0.0010627201294672,-0.0010627201292148,0.0010627201294226,0.7215588405452,134343,3014,0.0043575793997583,0.0043575793997583,0.0043575793997583,17.551745954255,5.5613967634037e-05,5.5613967634037e-05,5.5613967634037e-05,2760453.7387519,0.01315931723438
20419200,0.99901430537354,0.015507252585789,0.005169084195263,0.005169084195263,0.0051690841952632,-0.0010490582547048,0.0010490582539148,-3.1468512187965e-13,-3.1556147746053e-13,-3.2019068898247e-13,-2.8669406522251e-13,-0.0012573280124345,0.0012573280116892,-0.0012573280126509,0.0012573280119049,-0.0012573280126736,0.0012573280119226,-0.0012573280128907,0.0012573280121391,-0.0010638089088046,0.0010638089082576,-0.001063808908851,0.0010638089083026,-2.6420511825429e-13,-3.6692065663463e-13,-1.7401136513842e-13,-4.7637377770322e-13,-0.0010490582547146,0.0010490582539049,-0.0012573280123665,0.0012573280117525,-0.0012573280126919,0.0012573280118696,-0.0012573280126505,0.0012573280119408,-0.001257328012976,0.0012573280120578,-0.0010638089086929,0.0010638089083747,-0.0010638089090283,0.0010638089081197,-0.0010638089088098,0.0010638089082523,-0.0010638089089582,0.0010638089081943,-3.1620884003699e-13,-3.1533160213013e-13,-0.0010490582547004,0.0010490582539192,-4.5168217200793e-13,-1.6482811167315e-13,-0.0012573280124845,0.0012573280116618,-0.0012573280126009,0.0012573280119728,-0.0012573280126982,0.0012573280118761,-0.0012573280128199,0.0012573280121925,-0.0010638089088107,0.0010638089083421,-0.0010638089087758,0.0010638089083056,0.7290827758052,134343,3014,0.0043619677900214,0.0043619677900215,0.0043619677900215,18.60044714393,6.4003577151444e-05,6.4003577151444e-05,6.4003577151444e-05,2717875.0125048,0.013172698736345
21419200,0.99916740438047,0.015509461683975,0.005169820561325,0.005169820561325,0.0051698205613253,-0.0010399931214392,0.001039993124102,8.3153136199356e-13,8.3055445066106e-13,7.9410713763087e-13,8.5393289823024e-13,-0.0012496977134011,0.0012496977154079,-0.0012496977131846,0.0012496977151907,-0.0012496977132222,0.0012496977152233,-0.0012496977130082,0.0012496977150087,-0.0010551560623696,0.0010551560644349,-0.0010551560624197,0.0010551560644833,8.5066734280345e-13,7.7296563826857e-13,1.5089665726033e-12,1.328335215595e-13,-0.0010399931214492,0.0010399931240921,-0.0012496977131466,0.001249697715649,-0.0012496977134119,0.0012496977149778,-0.0012496977130139,0.0012496977154199,-0.0012496977132792,0.0012496977147485,-0.0010551560617279,0.0010551560650701,-0.0010551560631275,0.0010551560637817,-0.0010551560625661,0.0010551560642107,-0.0010551560627279,0.0010551560641973,8.9144476697428e-13,8.924225312219e-13,-0.0010399931213732,0.0010399931241681,2.0445600400942e-13,1.5768805626753e-12,-0.0012496977135849,0.0012496977152673,-0.0012496977129,0.001249697715505,-0.0012496977133612,0.0012496977150444,-0.0012496977126897,0.0012496977152954,-0.0010551560621385,0.0010551560647624,-0.0010551560620946,0.0010551560647168,0.70949067210727,134343,3014,0.0043243674380785,0.0043243674380785,0.0043243674380786,15.2155215282,3.6924172225604e-05,3.6924172225604e-05,3.6924172225604e-05,2701563.6188454,0.013058428596732
22419200,0.99929421632978,0.015511310299249,0.0051704367664164,0.0051704367664164,0.0051704367664166,-0.0010372137785671,0.0010372137788969,5.2105172928616e-14,5.1140349462134e-14,3.5073678523197e-14,7.8326121896624e-14,-0.0012470000829407,0.0012470000830946,-0.0012470000830142,0.0012470000831674,-0.0012470000830409,0.0012470000831896,-0.0012470000831144,0.0012470000832625,-0.001052694808489,0.0010526948087804,-0.0010526948085459,0.0010526948088358,9.1533289284952e-14,-2.4905820026647e-15,6.4499337172244e-13,-5.6197623521719e-13,-0.001037213778577,0.001037213778887,-0.0012470000827242,0.0012470000833092,-0.0012470000832035,0.001247000082981,-0.0012470000828693,0.0012470000833585,-0.0012470000833487,0.0012470000830302,-0.0010526948079361,0.0010526948093421,-0.0010526948091648,0.0010526948082078,-0.0010526948086481,0.0010526948086096,-0.0010526948088109,0.0010526948085773,1.0837039524117e-13,1.0933780686388e-13,-0.0010372137785048,0.0010372137789592,-4.7477037844378e-13,7.1296085188831e-13,-0.0012470000830898,0.0012470000829767,-0.0012470000827608,0.0012470000834414,-0.0012470000831576,0.0012470000830451,-0.0012470000828366,0.0012470000835179,-0.0010526948082987,0.0010526948090825,-0.0010526948082509,0.001052694809033,0.71602859693964,134343,3014,0.0043128351384401,0.0043128351384402,0.0043128351384402,14.857860056434,3.4062880451475e-05,3.4062880451475e-05,3.4062880451475e-05,2694099.6209942,0.013023369316911
23419200,0.9994068509339,0.015512923918079,0.0051709746393596,0.0051709746393596,0.0051709746393598,-0.0010374596424413,0.0010374596418482,-2.526448112862e-13,-2.5362810477667e-13,-2.6061759713483e-13,-2.2463568165177e-13,-0.0012483008528811,0.0012483008522937,-0.0012483008530721,0.001248300852484,-0.0012483008530947,0.001248300852502,-0.0012483008532853,0.0012483008526922,-0.0010530893211736,0.0010530893207727,-0.0010530893212254,0.0010530893208229,-2.0406537758686e-13,-3.0558552118974e-13,1.6659011483046e-13,-6.9314239330633e-13,-0.0010374596424513,0.0010374596418383,-0.001248300852724,0.0012483008524506,-0.0012483008532021,0.0012483008523553,-0.0012483008529823,0.001248300852613,-0.0012483008534605,0.0012483008525176,-0.0010530893207919,0.0010530893211661,-0.0010530893216732,0.001053089320363,-0.0010530893212714,0.0010530893206719,-0.0010530893214261,0.0010530893206216,-2.2058084964175e-13,-2.1959696793396e-13,-0.0010374596424032,0.0010374596418863,-6.2698656657901e-13,2.1107922814506e-13,-0.0012483008529917,0.0012483008522081,-0.0012483008528986,0.0012483008526748,-0.0012483008531785,0.0012483008523955,-0.0012483008530912,0.001248300852868,-0.00105308932106,0.0010530893209879,-0.0010530893210192,0.0010530893209452,0.70402580109808,134343,3014,0.0043138608400768,0.0043138608400768,0.0043138608400769,15.708253205861,4.086602564689e-05,4.086602564689e-05,4.086602564689e-05,2672228.5861548,0.013026498259482
24419200,0.99951319616041,0.015514474669215,0.0051714915564049,0.0051714915564049,0.0051714915564052,-0.0010402797186958,0.0010402797170675,-5.9770121122651e-13,-5.9863121222738e-13,-5.955152927107e-13,-5.682460669433e-13,-0.0012512561964605,0.0012512561950471,-0.001251256196777,0.0012512561953629,-0.0012512561967973,0.0012512561953781,-0.0012512561971161,0.0012512561956964,-0.0010560848219262,0.0010560848207408,-0.0010560848219812,0.0010560848207943,-5.3971629147826e-13,-6.4818634173455e-13,-1.1421883789879e-12,-7.4216257847668e-14,-0.0010402797187056,0.0010402797170577,-0.0012512561966141,0.0012512561948809,-0.0012512561965965,0.0012512561955569,-0.0012512561969965,0.0012512561951678,-0.0012512561969789,0.0012512561958438,-0.0010560848224813,0.0010560848201806,-0.0010560848214915,0.0010560848212889,-0.0010560848217033,0.0010560848209739,-0.0010560848218561,0.0010560848209136,-6.8009204718421e-13,-6.7916098739215e-13,-0.0010402797187726,0.0010402797169907,-1.4369475728262e-13,-1.2163818109589e-12,-0.0012512561963583,0.0012512561951643,-0.0012512561970295,0.0012512561951277,-0.0012512561966756,0.0012512561954822,-0.0012512561973501,0.001251256195449,-0.0010560848222475,0.0010560848205268,-0.0010560848222063,0.001056084820484,0.71547577169541,134343,3014,0.0043255599339429,0.0043255599339429,0.004325559933943,17.888107065979,5.8304856527829e-05,5.8304856527829e-05,5.8304856527829e-05,2657716.7898203,0.013062047540623
25419200,0.9996101414506,0.015515961472806,0.0051719871576018,0.0051719871576019,0.0051719871576021,-0.0010432202553762,0.0010432202538557,-5.6123444290831e-13,-5.6216603209596e-13,-5.5962918312437e-13,-5.3232076737772e-13,-0.0012553159857862,0.0012553159844577,-0.0012553159860896,0.0012553159847605,-0.0012553159861105,0.0012553159847759,-0.0012553159864164,0.0012553159850812,-0.0010591049401687,0.0010591049390652,-0.0010591049402214,0.0010591049391164,-5.0438629737081e-13,-6.1151475614396e-13,-1.1000822140155e-12,-4.3212064408217e-14,-0.0010432202553859,0.001043220253846,-0.0012553159859376,0.0012553159842933,-0.0012553159859117,0.0012553159849525,-0.0012553159863071,0.0012553159845679,-0.0012553159862813,0.001255315985227,-0.0010591049407178,0.0010591049385103,-0.0010591049397371,0.0010591049396064,-0.0010591049399483,0.0010591049392951,-0.0010591049400985,0.0010591049392343,-6.4386415392148e-13,-6.4293147653178e-13,-0.0010432202554532,0.0010432202537787,-1.13897285222e-13,-1.1748047722853e-12,-0.0012553159856867,0.0012553159845727,-0.0012553159863405,0.0012553159845273,-0.0012553159859909,0.0012553159848775,-0.0012553159866482,0.0012553159848356,-0.0010591049404858,0.0010591049388508,-0.0010591049404467,0.0010591049388101,0.75063327654463,134343,3014,0.0043377656617516,0.0043377656617516,0.0043377656617517,19.932713678673,7.4661709429381e-05,7.4661709429381e-05,7.4661709429381e-05,2632155.9756978,0.013099158807132
26419200,0.99968960637184,0.015517208033424,0.0051724026778078,0.0051724026778079,0.0051724026778081,-0.001042950753943,0.0010429507537611,-1.1373990767684e-13,-1.1468679051492e-13,-1.2404021065671e-13,-8.6801436510992e-14,-0.0012570523439084,0.0012570523436406,-0.0012570523440469,0.0012570523437783,-0.0012570523440735,0.0012570523437997,-0.0012570523442156,0.0012570523439412,-0.0010589504955572,0.0010589504954708,-0.001058950495606,0.0010589504955181,-6.8269346058965e-14,-1.6666725034167e-13,-5.7425370740298e-13,3.258139629961e-13,-0.0010429507539528,0.0010429507537513,-0.0012570523440287,0.0012570523435017,-0.0012570523438997,0.0012570523439452,-0.00125705234424,0.0012570523436174,-0.0012570523441111,0.0012570523440608,-0.0010589504960268,0.0010589504949876,-0.0010589504952017,0.0010589504959358,-0.0010589504953677,0.0010589504956603,-0.0010589504955181,0.0010589504956098,-1.8931477538709e-13,-1.8836695140129e-13,-0.0010429507540129,0.0010429507536912,2.5272491178036e-13,-6.437806711777e-13,-0.0012570523438338,0.0012570523437378,-0.0012570523442653,0.0012570523435825,-0.0012570523439719,0.0012570523438765,-0.00125705234441,0.0012570523437278,-0.0010589504958363,0.0010589504952858,-0.0010589504957993,0.0010589504952471,0.76690380774492,134343,3014,0.0043366605370835,0.0043366605370835,0.0043366605370835,20.395382011536,7.8363056092286e-05,7.8363056092286e-05,7.8363056092286e-05,2599867.7084508,0.013095830957252
27419200,0.99975892014927,0.015518253354172,0.0051727511180573,0.0051727511180574,0.0051727511180576,-0.0010449372683972,0.0010449372674194,-3.7867913749464e-13,-3.790253916227e-13,-3.8215147259366e-13,-3.4947357382221e-13,-0.0012602121152767,0.001260212114375,-0.001260212115515,0.0012602121146129,-0.0012602121155376,0.0012602121146307,-0.0012602121157785,0.0012602121148715,-0.0010612158091739,0.0010612158084848,-0.0010612158092219,0.0010612158085324,-3.25316083646e-13,-4.3074282823462e-13,-8.1892640929048e-13,4.0949293374623e-14,-0.0010449372684071,0.0010449372674095,-0.0012602121153939,0.0012602121142437,-0.0012602121153704,0.0012602121147726,-0.0012602121157013,0.0012602121144548,-0.0012602121156779,0.0012602121149836,-0.0010612158096264,0.0010612158080248,-0.0010612158088356,0.0010612158089257,-0.0010612158089871,0.001061215808677,-0.0010612158091366,0.0010612158086158,-4.5232129954184e-13,-4.519740748552e-13,-0.0010449372684658,0.0010449372673508,-2.2978768602628e-14,-8.8547218472669e-13,-0.0012602121152035,0.0012602121144667,-0.0012602121157252,0.001260212114422,-0.0012602121154421,0.0012602121147056,-0.0012602121159687,0.0012602121146657,-0.0010612158094457,0.001061215808307,-0.0010612158094094,0.0010612158082702,0.73787115040613,134343,3014,0.0043449085992994,0.0043449085992994,0.0043449085992995,22.257776687546,9.3262213500371e-05,9.3262213500371e-05,9.3262213500371e-05,2571824.7293933,0.013120907993635
28419200,0.99981587896804,0.0155191584663,0.0051730528220999,0.0051730528221,0.0051730528221002,-0.0010457201190418,0.0010457201184395,-2.5692247472417e-13,-2.5724217084002e-13,-2.6447508223249e-13,-2.2818813195038e-13,-0.0012605507056242,0.0012605507050224,-0.0012605507058133,0.0012605507052112,-0.0012605507058377,0.001260550705231,-0.0012605507060297,0.0012605507054229,-0.0010622485525836,0.0010622485521752,-0.0010622485526338,0.0010622485522251,-2.0741966355782e-13,-3.0976012895245e-13,-6.5743517959331e-13,1.2290239092413e-13,-0.0010457201190517,0.0010457201184296,-0.001260550705727,0.0012605507049043,-0.0012605507056831,0.0012605507053579,-0.0012605507059872,0.0012605507050682,-0.0012605507059434,0.0012605507055216,-0.0010622485529967,0.001062248551753,-0.0010622485522873,0.0010622485525804,-0.0010622485524118,0.0010622485523492,-0.0010622485525645,0.0010622485522953,-3.2375546243403e-13,-3.2343458988353e-13,-0.0010457201191036,0.0010457201183777,6.3590866166219e-14,-7.1750887471404e-13,-0.0012605507055594,0.0012605507051082,-0.0012605507060041,0.0012605507050412,-0.0012605507057485,0.0012605507052974,-0.0012605507061988,0.0012605507052362,-0.0010622485528377,0.0010622485520196,-0.0010622485527983,0.0010622485519798,0.77519038654388,134343,3014,0.0043481517260769,0.004348151726077,0.004348151726077,23.444957326672,0.00010275965861338,0.00010275965861338,0.00010275965861338,2568362.8772276,0.013130746397084
29419200,0.99986215961905,0.015519808917028,0.0051732696390091,0.0051732696390092,0.0051732696390094,-0.0010474321754804,0.0010474321748059,-2.7735005655792e-13,-2.790924739165e-13,-2.8673156407695e-13,-2.4656920277423e-13,-0.001264174102699,0.0012641741020339,-0.0012641741029007,0.0012641741022343,-0.0012641741029222,0.0012641741022554,-0.0012641741031266,0.0012641741024587,-0.0010640028066836,0.0010640028062276,-0.0010640028067322,0.0010640028062731,-2.2518064791358e-13,-3.3392143679697e-13,-6.4627100962163e-13,6.8354432728927e-14,-0.0010474321754909,0.0010474321747953,-0.0012641741027909,0.0012641741019278,-0.0012641741027791,0.0012641741023713,-0.0012641741030641,0.0012641741021011,-0.0012641741030524,0.0012641741025445,-0.001064002807068,0.0010640028058355,-0.0010640028064188,0.0010640028065937,-0.0010640028065215,0.001064002806393,-0.0010640028066762,0.0010640028063289,-3.4538383111398e-13,-3.4364061966201e-13,-0.0010474321755419,0.0010474321747443,1.166821707339e-14,-7.052596018621e-13,-0.0012641741026439,0.0012641741021092,-0.0012641741030795,0.0012641741020755,-0.0012641741028445,0.0012641741023111,-0.0012641741032856,0.0012641741022828,-0.0010640028069245,0.0010640028060793,-0.0010640028068898,0.0010640028060413,0.68887395937322,134343,3014,0.0043552672160733,0.0043552672160733,0.0043552672160733,24.784378673684,0.00011347502938947,0.00011347502938947,0.00011347502938947,2535888.6177516,0.013152405351637
30419200,0.99989897267711,0.015520317260575,0.0051734390868582,0.0051734390868582,0.0051734390868585,-0.0010486900919046,0.0010486900911891,-2.9876672582278e-13,-3.0055202422432e-13,-3.0820814327632e-13,-2.6925473033517e-13,-0.0012625225176044,0.0012625225169196,-0.0012625225178037,0.0012625225171177,-0.0012625225178263,0.0012625225171386,-0.0012625225180282,0.0012625225173394,-0.0010654708893266,0.001065470888828,-0.0010654708893853,0.0010654708888835,-2.4903469311465e-13,-3.5371059328123e-13,-6.4778100852896e-13,2.7420389060771e-14,-0.0010486900919149,0.0010486900911788,-0.0012625225176907,0.0012625225168195,-0.0012625225176889,0.0012625225172473,-0.0012625225179608,0.0012625225169919,-0.0012625225179592,0.0012625225174197,-0.0010654708896911,0.0010654708884569,-0.0010654708890897,0.0010654708891854,-0.0010654708891727,0.0010654708889841,-0.0010654708893341,0.001065470888935,-3.5657151874957e-13,-3.5478507332425e-13,-0.0010486900919559,0.0010486900911377,-1.8353145206365e-14,-6.963875934841e-13,-0.0012625225175467,0.0012625225169983,-0.001262522517967,0.0012625225169748,-0.0012625225177448,0.0012625225171975,-0.0012625225181706,0.0012625225171796,-0.0010654708895607,0.0010654708887067,-0.0010654708895157,0.0010654708886584,0.67661723253734,134343,3014,0.0043604642276921,0.0043604642276921,0.0043604642276921,26.135132271337,0.00012428105817069,0.00012428105817069,0.00012428105817069,2565391.911857,0.013168141381185
31419200,0.99992877550423,0.015520760184453,0.0051735867281508,0.0051735867281509,0.0051735867281511,-0.0010524718803768,0.001052471879095,-4.8733158294289e-13,-4.8814046999666e-13,-4.9499027544568e-13,-4.5167670158681e-13,-0.0012661837348642,0.0012661837337251,-0.0012661837351346,0.001266183733995,-0.001266183735152,0.0012661837340156,-0.0012661837354243,0.0012661837342876,-0.0010692879122974,0.0010692879113725,-0.0010692879123588,0.0010692879114326,-4.2824117281105e-13,-5.4651105078607e-13,-8.627045548945e-13,-1.3621660625431e-13,-0.0010524718803883,0.0010524718790835,-0.0012661837349597,0.0012661837336189,-0.0012661837350073,0.0012661837341344,-0.001266183735301,0.0012661837338566,-0.0012661837353487,0.001266183734372,-0.0010692879126919,0.0010692879109747,-0.0010692879120407,0.0010692879117522,-0.0010692879121303,0.0010692879115466,-0.0010692879123025,0.0010692879114846,-5.4743312923485e-13,-5.4662318338991e-13,-0.0010524718804314,0.0010524718790404,-1.7906508850799e-13,-9.123991856547e-13,-0.0012661837347967,0.0012661837338103,-0.0012661837353079,0.0012661837338396,-0.001266183735067,0.0012661837340811,-0.0012661837355824,0.0012661837341145,-0.0010692879125486,0.0010692879112411,-0.0010692879124999,0.001069287911191,0.72613574125711,134343,3014,0.0043761517979258,0.0043761517979258,0.0043761517979259,28.446526289101,0.00014277221031281,0.00014277221031281,0.00014277221031281,2557068.0544941,0.013215821581544
32419200,0.99995054154682,0.015521100286538,0.0051737000955125,0.0051737000955126,0.0051737000955128,-0.0010537904878012,0.001053790487394,-1.9243815055836e-13,-1.9325333153749e-13,-2.0520248120506e-13,-1.6075250088615e-13,-0.001270219834826,0.0012702198343786,-0.0012702198349905,0.0012702198345424,-0.0012702198350131,0.0012702198345652,-0.0012702198351805,0.0012702198347322,-0.0010704892015696,0.0010704892013104,-0.0010704892016224,0.0010704892013618,-1.4222640783822e-13,-2.5004193308176e-13,-5.3322208864812e-13,1.256203308996e-13,-0.0010537904878119,0.0010537904873833,-0.0012702198349073,0.0012702198342822,-0.0012702198348788,0.0012702198346704,-0.0012702198351455,0.0012702198344196,-0.0012702198351171,0.0012702198348078,-0.0010704892019266,0.0010704892009446,-0.001070489201338,0.0010704892016546,-0.0010704892014176,0.0010704892014633,-0.0010704892015793,0.0010704892014067,-2.5389630246577e-13,-2.5308003328459e-13,-0.0010537904878571,0.0010537904873381,7.3200807883213e-14,-5.8659635929564e-13,-0.0012702198347755,0.0012702198344511,-0.0012702198351546,0.0012702198343995,-0.0012702198349392,0.0012702198346154,-0.0012702198353245,0.0012702198345699,-0.0010704892018009,0.0010704892011817,-0.0010704892017597,0.001070489201139,0.7621203755655,134343,3014,0.0043816397013591,0.0043816397013591,0.0043816397013592,29.298458794988,0.0001495876703599,0.0001495876703599,0.0001495876703599,2516983.5764371,0.013232553408569
33419200,0.99996566779091,0.015521339449652,0.0051737798165505,0.0051737798165505,0.0051737798165508,-0.001052514423721,0.0010525144238167,-2.3546104212091e-14,-2.4372608374721e-14,-3.8884826801115e-14,6.0099781639984e-15,-0.0012707136273666,0.0012707136273117,-0.0012707136274714,0.0012707136274159,-0.0012707136274968,0.0012707136274396,-0.0012707136276049,0.0012707136275472,-0.0010693999909642,0.0010693999910878,-0.0010693999910142,0.0010693999911365,2.1908431154792e-14,-8.0315062974074e-14,-3.1063847390271e-13,2.414807993692e-13,-0.0010525144237314,0.0010525144238063,-0.0012707136274293,0.0012707136272324,-0.0012707136273793,0.0012707136275257,-0.0012707136276092,0.0012707136273129,-0.0012707136275593,0.0012707136276062,-0.0010693999912669,0.0010693999907741,-0.0010693999907816,0.0010693999913796,-0.0010693999908318,0.0010693999912178,-0.0010693999909896,0.0010693999911658,-8.1476716824582e-14,-8.0649095049036e-14,-0.0010525144237734,0.0010525144237643,1.8963748611674e-13,-3.6136910748064e-13,-0.0012707136273327,0.0012707136273701,-0.0012707136276151,0.0012707136272949,-0.0012707136274363,0.0012707136274743,-0.0012707136277259,0.0012707136274062,-0.0010693999911707,0.0010693999909781,-0.0010693999911316,0.0010693999909376,0.77026309110824,134343,3014,0.0043763572290084,0.0043763572290084,0.0043763572290085,29.317385105049,0.00014973908084039,0.00014973908084039,0.00014973908084039,2488536.514301,0.013216520141298
34419200,0.99997711819391,0.015521513653047,0.0051738378843487,0.0051738378843488,0.005173837884349,-0.0010554041424103,0.0010554041412427,-4.4393129114496e-13,-4.4468591515054e-13,-4.4777960005235e-13,-4.1258054300644e-13,-0.001274277575054,0.001274277574,-0.0012742775753155,0.001274277574261,-0.0012742775753354,0.0012742775742788,-0.0012742775755988,0.0012742775745418,-0.0010725285029804,0.0010725285021468,-0.0010725285030319,0.0010725285021971,-3.8758921143196e-13,-4.9809970802818e-13,-7.6141968997834e-13,-1.4825693469088e-13,-0.0010554041424206,0.0010554041412324,-0.0012742775751322,0.0012742775739112,-0.0012742775752083,0.00127427757438,-0.0012742775754621,0.0012742775741424,-0.0012742775755382,0.0012742775746111,-0.0010725285033159,0.0010725285018087,-0.001072528502766,0.0010725285024652,-0.001072528502833,0.0010725285023008,-0.0010725285029884,0.0010725285022367,-5.0548558717406e-13,-5.0472999260989e-13,-0.0010554041424664,0.0010554041411866,-1.9360257086847e-13,-8.1387003388795e-13,-0.0012742775750081,0.0012742775740638,-0.0012742775754726,0.0012742775741216,-0.0012742775752693,0.0012742775743255,-0.0012742775757381,0.0012742775743876,-0.0010725285032033,0.0010725285020246,-0.0010725285031643,0.0010725285019844,0.74167726425057,134343,3014,0.0043883485805756,0.0043883485805756,0.0043883485805757,31.490036568647,0.00016712029254918,0.00016712029254918,0.00016712029254918,2467168.6506982,0.013252970994409
35419200,0.99998609948587,0.01552164555883,0.0051738818529434,0.0051738818529434,0.0051738818529437,-0.0010633785461319,0.001063378543575,-9.0707811291571e-13,-9.076787710366e-13,-8.9653471442106e-13,-8.7483200977673e-13,-0.0012814993472478,0.001281499345097,-0.0012814993476805,0.0012814993455292,-0.0012814993476951,0.0012814993455397,-0.0012814993481285,0.0012814993459728,-0.0010805831923842,0.0010805831904956,-0.0010805831924427,0.0010805831905532,-8.3918652289468e-13,-9.5668479415682e-13,-1.3385667694687e-12,-4.9655324923973e-13,-0.0010633785461418,0.001063378543565,-0.0012814993473695,0.0012814993449701,-0.0012814993475311,0.0012814993456848,-0.0012814993478627,0.0012814993453669,-0.0012814993480243,0.0012814993460815,-0.0010805831928333,0.0010805831900516,-0.0010805831920603,0.0010805831909301,-0.0010805831921938,0.0010805831907031,-0.0010805831923493,0.0010805831906329,-9.7959801512953e-13,-9.7899620998485e-13,-0.0010633785461991,0.0010633785435078,-5.4379963729436e-13,-1.4005646254768e-12,-0.0012814993471691,0.0012814993451859,-0.0012814993478862,0.001281499345336,-0.0012814993476028,0.00128149934562,-0.0012814993483209,0.0012814993457712,-0.0010805831926638,0.0010805831903318,-0.0010805831926195,0.0010805831902866,0.71639572357643,134343,3014,0.0044214231325801,0.0044214231325802,0.0044214231325802,35.945827960001,0.00020276662368001,0.00020276662368001,0.00020276662368001,2459491.0103062,0.013353495317562
36419200,0.99999184522862,0.015521731735495,0.0051739105784984,0.0051739105784984,0.0051739105784987,-0.001065655561675,0.0010656555608387,-3.3837786867074e-13,-3.3898964409907e-13,-3.4417916203344e-13,-3.092148037e-13,-0.0012832090810217,0.0012832090802345,-0.0012832090812375,0.0012832090804499,-0.0012832090812606,0.0012832090804687,-0.0012832090814791,0.0012832090806869,-0.0010829190629079,0.0010829190623179,-0.0010829190629627,0.0010829190623719,-2.8698459566801e-13,-3.9086296197834e-13,-7.526926091582e-13,5.5005656816228e-14,-0.001065655561685,0.0010656555608288,-0.0012832090811299,0.001283209080112,-0.0012832090811017,0.001283209080601,-0.0012832090814155,0.0012832090803013,-0.0012832090813874,0.0012832090807902,-0.0010829190633352,0.0010829190618833,-0.0010829190626019,0.0010829190627395,-0.0010829190627311,0.001082919062499,-0.0010829190628869,0.0010829190624466,-4.069367154215e-13,-4.0632361650419e-13,-0.0010656555617383,0.0010656555607755,-3.8427355482432e-15,-8.1376008136457e-13,-0.0012832090809528,0.0012832090803229,-0.0012832090814342,0.001283209080273,-0.0012832090811686,0.0012832090805391,-0.0012832090816552,0.0012832090804943,-0.0010829190631725,0.0010829190621606,-0.0010829190631294,0.0010829190621165,0.73062628340702,134343,3014,0.0044308642479176,0.0044308642479176,0.0044308642479176,37.48624017646,0.00021508992141168,0.00021508992141168,0.00021508992141168,2459771.9684333,0.013382184598837
37419200,0.99999523756569,0.015521781826305,0.005173927275435,0.0051739272754351,0.0051739272754353,-0.0010653637835887,0.0010653637835681,-6.6458528561101e-14,-6.7070833385021e-14,-7.9473145679364e-14,-3.8847695582507e-14,-0.0012839632651759,0.0012839632650341,-0.0012839632652911,0.0012839632651489,-0.0012839632653179,0.0012839632651711,-0.0012839632654365,0.0012839632652895,-0.0010826437900107,0.0010826437900391,-0.0010826437900625,0.0010826437900901,-2.2479406071735e-14,-1.202070942999e-13,-4.2491163596913e-13,2.7115814794534e-13,-0.0010653637835986,0.0010653637835582,-0.0012839632652627,0.0012839632649298,-0.0012839632651768,0.0012839632652818,-0.0012839632654516,0.0012839632650224,-0.0012839632653658,0.0012839632653744,-0.0010826437903815,0.0010826437896564,-0.0010826437897581,0.0010826437904061,-0.0010826437898558,0.0010826437901923,-0.0010826437900106,0.0010826437901467,-1.2972965449516e-13,-1.2911643793439e-13,-0.0010653637836467,0.0010653637835101,2.1173250230563e-13,-4.819152042919e-13,-0.0012839632651241,0.0012839632651099,-0.0012839632654646,0.0012839632649982,-0.0012839632652385,0.0012839632652248,-0.001283963265586,0.0012839632651201,-0.0010826437902479,0.0010826437899029,-0.0010826437902066,0.0010826437898605,0.71956885674445,134343,3014,0.0044296604188107,0.0044296604188108,0.0044296604188108,37.681166354328,0.00021664933083462,0.00021664933083462,0.00021664933083462,2443127.7265807,0.013378542318051
38419200,0.9999971872449,0.015521811719417,0.0051739372398055,0.0051739372398056,0.0051739372398058,-0.0010635157236151,0.0010635157240036,6.7921630923152e-14,6.7272856625114e-14,5.0941399657561e-14,9.4507068756275e-14,-0.0012821706397866,0.0012821706399728,-0.0012821706398503,0.001282170640036,-0.0012821706398785,0.0012821706400595,-0.001282170639945,0.0012821706401257,-0.0010808997946934,0.0010808997950287,-0.0010808997947463,0.0010808997950807,1.0749361644826e-13,1.3718055187536e-14,-8.7639229850804e-15,1.2386731055036e-13,-0.0010635157236249,0.0010635157239938,-0.0012821706397822,0.0012821706399626,-0.0012821706398273,0.0012821706400746,-0.0012821706399205,0.001282170640005,-0.0012821706399657,0.0012821706401169,-0.0010808997947896,0.0010808997949246,-0.0010808997947159,0.0010808997951186,-0.0010808997946332,0.0010808997950823,-0.0010808997947899,0.0010808997950443,3.9235624908003e-14,3.9885310942894e-14,-0.0010635157236383,0.0010635157239804,1.0413689221884e-13,-3.0194018769923e-14,-0.0012821706397966,0.0012821706399905,-0.0012821706398983,0.0012821706400113,-0.001282170639858,0.0012821706400523,-0.0012821706399677,0.0012821706400812,-0.0010808997948042,0.0010808997950212,-0.0010808997947608,0.0010808997949767,0.74580747229865,134343,3014,0.0044219935546334,0.0044219935546334,0.0044219935546334,37.19417660766,0.00021275341286128,0.00021275341286128,0.00021275341286128,2440886.3244248,0.013355231323699
38880000,0.99999786815022,0.015521822219612,0.0051739407398706,0.0051739407398706,0.0051739407398709,-0.0010631815826491,0.0010631815827611,-2.1362523860148e-14,-2.2015827431584e-14,-3.4921580228519e-14,5.8045579688561e-15,-0.0012829958258291,0.0012829958257901,-0.0012829958259305,0.0012829958258911,-0.0012829958259571,0.0012829958259128,-0.001282995826061,0.0012829958260163,-0.0010805704422947,0.0010805704424248,-0.0010805704423466,0.0010805704424757,2.1693696417686e-14,-7.5052367128173e-14,-9.491191898029e-14,3.1408600748458e-14,-0.0010631815826589,0.0010631815827513,-0.0012829958258251,0.0012829958257812,-0.0012829958259072,0.0012829958259284,-0.0012829958259993,0.0012829958258594,-0.0012829958260814,0.0012829958260064,-0.0010805704423888,0.0010805704423251,-0.0010805704423185,0.0010805704425091,-0.0010805704422337,0.0010805704424819,-0.0010805704423889,0.0010805704424381,-5.3673183850488e-14,-5.3019056774798e-14,-0.0010631815826759,0.0010631815827343,1.0882785185442e-14,-1.1942564574615e-13,-0.001282995825842,0.0012829958258029,-0.0012829958259809,0.0012829958258626,-0.0012829958259414,0.0012829958259027,-0.0012829958260874,0.0012829958259696,-0.0010805704424073,0.0010805704424136,-0.0010805704423655,0.0010805704423707,0.74996681888421,134343,3014,0.0044206152645683,0.0044206152645683,0.0044206152645684,37.193611323703,0.00021274889058963,0.00021274889058963,0.00021274889058963,2424366.4254328,0.013351061247589
