time,ASR_ext,ASR_strain,ASR_strain_xx,ASR_strain_yy,ASR_strain_zz,disp_x_101,disp_x_102,disp_x_103,disp_x_104,disp_x_105,disp_x_106,disp_x_p1_neg,disp_x_p1_pos,disp_x_p2_neg,disp_x_p2_pos,disp_x_p3_neg,disp_x_p3_pos,disp_x_p4_neg,disp_x_p4_pos,disp_x_p5_neg,disp_x_p5_pos,disp_x_p6_neg,disp_x_p6_pos,disp_y_101,disp_y_102,disp_y_103,disp_y_104,disp_y_105,disp_y_106,disp_y_p1_neg,disp_y_p1_pos,disp_y_p2_neg,disp_y_p2_pos,disp_y_p3_neg,disp_y_p3_pos,disp_y_p4_neg,disp_y_p4_pos,disp_y_p5_neg,disp_y_p5_pos,disp_y_p6_neg,disp_y_p6_pos,disp_y_p7_neg,disp_y_p7_pos,disp_y_p8_neg,disp_y_p8_pos,disp_z_101,disp_z_102,disp_z_103,disp_z_104,disp_z_105,disp_z_106,disp_z_p1_neg,disp_z_p1_pos,disp_z_p2_neg,disp_z_p2_pos,disp_z_p3_neg,disp_z_p3_pos,disp_z_p4_neg,disp_z_p4_pos,disp_z_p5_neg,disp_z_p5_pos,disp_z_p6_neg,disp_z_p6_pos,humidity,ndof,nelem,strain_xx,strain_yy,strain_zz,temp,thermal_strain_xx,thermal_strain_yy,thermal_strain_zz,vonmises,vstrain
2419200,0,0,0,0,0,0,0,0,0,0,0,0,0,0,0,0,0,0,0,0,0,0,0,0,0,0,0,0,0,0,0,0,0,0,0,0,0,0,0,0,0,0,0,0,0,0,0,0,0,0,0,0,0,0,0,0,0,0,0,0,0,0,0,0,0,0,0,0,0,0,0,0,0,0,0
3419200,0.15846859678942,0.0027326333794915,0.00091087779316382,0.00091087779316382,0.00091087779316382,-0.00025118344103563,0.00025150393193517,1.6171420544559e-07,1.3624576415944e-07,-6.5367790306929e-07,1.024754125207e-06,-0.00025628518772477,0.00025601921495356,-0.00025645436290446,0.00025619516330283,-0.00025567926393944,0.00025658570682593,-0.00025567992081203,0.00025671519204046,-0.00025162115684579,0.00025202702426845,-0.00025182281519772,0.00025285078711008,1.0896171501117e-06,-5.8084868393924e-07,-7.7735934552496e-07,1.4294630834317e-06,-0.00025106900873189,0.0002516052772188,-0.00025610616664463,0.00025648986595011,-0.0002552834774069,0.00025700142860476,-0.00025669708818416,0.00025573539788345,-0.00025564646073537,0.00025647323206686,-0.00025371083973746,0.00025108191430178,-0.00025033430127006,0.000253062922344,-0.00025058895979399,0.0002534232511618,-0.0002519786213502,0.00025186921175918,-6.9526590164944e-08,-3.8875974116713e-08,-0.00025115913501105,0.00025144604511741,1.3538767675519e-06,-8.1365487861322e-07,-0.00025548636667227,0.00025653490303786,-0.00025618694174743,0.00025600935530431,-0.00025547213337327,0.00025672917542438,-0.0002564012948134,0.00025579021688829,-0.00025280032111044,0.0002513422849538,-0.00025215176322587,0.00025173353524257,0.7839679013449,134640,3014,0.0010467159573402,0.0010466887336295,0.001046544908734,31.785376118746,0.00016948300894997,0.00016948300894997,0.00016948300894997,1170319.3297758,0.0031448862259245
4419200,0.34926843465149,0.005892261688211,0.0019643329968341,0.0019642127814952,0.0019637159098817,-0.00049685325356328,0.0004973357730012,-8.4775966651608e-07,1.2725580483063e-06,-8.1999628786637e-07,1.4049400293759e-06,-0.00051951149333319,0.0005184531799825,-0.00051920295047014,0.00051959623928703,-0.00051863605774263,0.00051923283152874,-0.00051793947141537,0.00052027084034011,-0.0005011898104655,0.00049930291465599,-0.00049932314424957,0.00050308018699842,1.6494315723954e-06,-5.4009773612143e-07,-1.3793549788952e-06,2.7763004553996e-06,-0.00049647908393145,0.00049766150491475,-0.00051903791053121,0.00051966362672173,-0.00051738753552542,0.00052049938986349,-0.00051986976490915,0.00051845279106431,-0.00051768170531583,0.00051982679143616,-0.00050360191895684,0.00049907978205784,-0.00049723225915805,0.00050300926985299,-0.0004983996442538,0.00050300000732483,-0.00050019442781212,0.00050097446721796,7.5706782470468e-07,-1.3586319706871e-06,-0.00049683761912382,0.00049707900350679,2.4204406822885e-06,-1.643463107114e-06,-0.00051744346957235,0.00051982311573372,-0.00051875016734514,0.000518949994843,-0.0005181460813841,0.00051957689555746,-0.00051997618888184,0.00051771072699605,-0.00050347880322948,0.00049812409517764,-0.0004999835248711,0.0005011936135197,0.77882048924983,134640,3014,0.0020690849481436,0.0020689842995861,0.0020685186482562,33.598604762342,0.00018398883809874,0.00018398883809874,0.00018398883809874,2055224.0542876,0.0062259074874455
5419200,0.54927880720659,0.0090950626701195,0.0030318839034212,0.0030317923110555,0.0030313864556429,-0.00074236000666235,0.00074230092503976,3.6270940985626e-07,-4.6093131970867e-07,-6.5706344533441e-07,6.6344914703063e-07,-0.00079301532175565,0.00079266008244496,-0.00079341995337615,0.00079262300282777,-0.00079237586843221,0.00079314391583285,-0.00079262470947206,0.00079298965728836,-0.00074966670606859,0.00075027654914079,-0.00075045982940296,0.00075028604769713,9.3653351557314e-07,-3.5533383587685e-07,-2.1424250952222e-06,2.9236356188188e-06,-0.00074200514343226,0.00074262048263358,-0.00079328103393644,0.00079270128977678,-0.00079150046706876,0.00079408713419982,-0.00079374829776624,0.00079193611367511,-0.00079161747043027,0.00079367800151237,-0.00075298741263637,0.00074781879106164,-0.00074700808115054,0.00075280724594632,-0.00074845595816974,0.00075194858926903,-0.00074953906064556,0.00075073347816821,-9.9847474386887e-07,-1.7969081384563e-07,-0.00074257063983493,0.00074187726510077,2.2426462964542e-06,-2.7320248466988e-06,-0.00079207490638243,0.0007929174341534,-0.00079380310854863,0.00079157598197853,-0.00079186382058948,0.00079347406690183,-0.00079384824791903,0.00079147035237049,-0.00075156467627763,0.00074883078977828,-0.00075158019136254,0.00074859083144693,0.77319620092774,134640,3014,0.0030882842230472,0.0030882109664673,0.0030878417413639,36.266592204149,0.00020533273763319,0.00020533273763319,0.00020533273763319,2855273.3068674,0.0093074547733162
6419200,0.70581808370623,0.011402137776622,0.0038008572051652,0.0038008006576307,0.0038004799138264,-0.0009070650914159,0.00090700587661989,-1.3087910658612e-06,1.1936930254633e-06,-4.9281785833499e-07,4.8968912267845e-07,-0.00099406102397496,0.00099274159588509,-0.00099336052682158,0.00099379800397198,-0.00099356774781882,0.00099310886772336,-0.00099269248151989,0.00099408536427456,-0.00091633764608961,0.0009134873833748,-0.00091393309634364,0.00091695307508387,1.0427149764595e-06,7.768936402364e-08,-2.7675182987775e-06,4.1523231664163e-06,-0.00090645477709448,0.00090759757139161,-0.00099398557461726,0.00099315606747823,-0.00099158016254659,0.00099517245934284,-0.00099433779831558,0.00099250328938039,-0.000991600275707,0.00099485523104067,-0.00091861602687949,0.00091236133888018,-0.00091071934356274,0.00091907334451249,-0.00091302913137678,0.00091738062536368,-0.00091380342894292,0.00091647741851409,5.1355245633204e-07,-1.9899885085774e-06,-0.00090741630332433,0.0009065031548951,3.0561747259026e-06,-3.7497076934254e-06,-0.00099190040010693,0.00099426923937235,-0.00099421830437249,0.00099231727891729,-0.00099280739484123,0.00099371490854914,-0.00099539341891612,0.00099111413732718,-0.00091879056397205,0.00091176678602963,-0.00091545888819005,0.00091480391534213,0.72914357020772,134640,3014,0.0037722493544943,0.0037722108036041,0.003771934766053,36.738372754277,0.00020910698203422,0.00020910698203422,0.00020910698203422,3241557.0738133,0.011380839303058
7419200,0.83149368813765,0.0131761213125,0.0043921658661978,0.0043921228866941,0.0043918325596084,-0.001026736328545,0.0010266064973637,-1.1588142496273e-06,9.7915183793448e-07,-7.6615516264388e-07,6.306801062846e-07,-0.0011512029576805,0.0011497941076405,-0.0011505925812124,0.0011507733120811,-0.0011505610371808,0.0011503414943759,-0.0011498422212216,0.0011511709074923,-0.001035387106293,0.0010331188371624,-0.0010333867964259,0.0010360666559926,1.2015341073634e-06,-1.8093048942612e-07,-2.016563746681e-06,3.3159520710801e-06,-0.0010261506614779,0.0010271708591916,-0.0011508508228535,0.0011505046333608,-0.0011489542521271,0.0011520082252899,-0.0011513508604578,0.0011497231148311,-0.0011490925288782,0.0011515475020787,-0.0010373595265212,0.0010323216413776,-0.0010310598077233,0.0010376556105768,-0.001032597295099,0.0010364602717791,-0.0010337100430824,0.0010354151839127,3.5742500101117e-07,-1.7833594329409e-06,-0.0010270323619585,0.0010261820787814,2.2866834104577e-06,-2.9334461359453e-06,-0.0011492377234717,0.0011510821942739,-0.0011510507897062,0.0011496052289248,-0.0011500716873036,0.0011506296290079,-0.001152059149503,0.0011485773999698,-0.0010377644067715,0.0010318111084305,-0.0010348837560994,0.0010344352953405,0.7123462207863,134640,3014,0.0042688000460827,0.0042687559217398,0.0042685334263984,40.760780593429,0.00024128624474743,0.00024128624474743,0.00024128624474743,3437720.4803636,0.012888740972831
8419200,0.90742810414864,0.014219729770349,0.0047400372116924,0.0047399912970321,0.0047397012616241,-0.0010805112659336,0.0010804685364299,-1.0966507788393e-06,1.0196226240204e-06,-6.8883148346882e-07,6.6960392272418e-07,-0.0012346005609033,0.0012332920500164,-0.0012339848444547,0.0012342165820918,-0.0012339830560537,0.0012338176806791,-0.0012332547354187,0.0012346259715021,-0.0010902754876162,0.0010880678855559,-0.0010881846507259,0.0010909528109512,1.107670516796e-06,-2.3760629404779e-07,-2.1188222237199e-06,3.2546952513983e-06,-0.001080047041051,0.0010809245981969,-0.0012343470721926,0.0012338760569581,-0.0012324790746425,0.0012353875714486,-0.0012348480930154,0.0012330996571471,-0.0012326075937101,0.0012349658905965,-0.0010922136225731,0.0010870236613591,-0.0010859423852161,0.0010924223105455,-0.0010874826769093,0.0010912796312737,-0.0010885639585311,0.0010902206730181,4.5771688472759e-07,-1.6635283334749e-06,-0.0010807776134447,0.001080090445653,2.3745658651443e-06,-2.8829949835098e-06,-0.0012326647411404,0.0012346163384983,-0.0012344721773513,0.0012331593500793,-0.001233440460086,0.0012341824042781,-0.0012354822681707,0.0012321151182377,-0.0010924053305462,0.0010866398142594,-0.0010895321458268,0.0010893086761423,0.69848786965069,134640,3014,0.0044921416882236,0.0044921247920198,0.0044919094388933,41.433084658237,0.0002466646772659,0.0002466646772659,0.0002466646772659,3396789.3023379,0.013567819866997
9419200,0.94948270608697,0.014783490107003,0.0049279525094212,0.0049279104056787,0.0049276271919033,-0.0010985930753146,0.0010985881466598,-9.5411242534574e-07,9.0945815560859e-07,-7.8773753262937e-07,8.210307959946e-07,-0.0012732115242137,0.0012719444720333,-0.0012726790161412,0.0012727651943097,-0.0012725248077989,0.001272548031839,-0.0012718613008272,0.0012732748490543,-0.0011094614482826,0.0011075994780713,-0.001107605760274,0.0011102564330767,1.1601042245307e-06,-4.3704344289343e-07,-2.1469784858374e-06,3.1364075533378e-06,-0.0010982156005249,0.0010989606434961,-0.0012729871444576,0.0012725009332252,-0.0012711378374972,0.0012739983305359,-0.0012735560764928,0.0012716532792835,-0.0012713684298553,0.0012734784945339,-0.0011116233072553,0.0011063247349997,-0.0011054824848989,0.0011116019452722,-0.0011067710558086,0.0011107087619028,-0.0011081379629813,0.0011093026644226,3.6149692688675e-07,-1.5078868264933e-06,-0.0010988569054463,0.0010982228734729,2.3561131103025e-06,-2.8121876070916e-06,-0.0012713535561906,0.0012732392674073,-0.0012731255299191,0.001271803637333,-0.0012720407329651,0.0012728828411764,-0.0012740505207213,0.0012708472309301,-0.0011115684112779,0.0011061365220613,-0.0011089436279537,0.0011085399927472,0.67994985087622,134640,3014,0.0045672889031577,0.0045672785941993,0.0045670778940428,41.145479031525,0.0002443638322522,0.0002443638322522,0.0002443638322522,3280918.1014008,0.013796474714395
10419200,0.97052396177019,0.015073163210645,0.0050245077236859,0.0050244673422057,0.0050241881447535,-0.0010981964930821,0.001098180884401,-8.5433260117133e-07,7.9543431021074e-07,-7.7799177805111e-07,8.040224052718e-07,-0.0012840379541563,0.0012828473575655,-0.0012835793087819,0.0012835934493548,-0.0012833660526181,0.0012834356599015,-0.0012827741991116,0.0012840913649613,-0.0011103074840829,0.0011086192638707,-0.0011086782215619,0.0011110809470528,1.1429815799377e-06,-4.27809853969e-07,-2.1169019483339e-06,3.0913402477166e-06,-0.0010978204784827,0.0010985548190913,-0.0012838493165955,0.0012833658004876,-0.0012820299804852,0.001284845590166,-0.0012844095590326,0.0012825375869549,-0.0012822526291436,0.0012843374634456,-0.0011125378711831,0.0011073100573092,-0.0011064445545662,0.0011124921821153,-0.001107734230331,0.0011116309343338,-0.001109082412955,0.0011102099455106,2.619256059413e-07,-1.3923089798883e-06,-0.0010984484912055,0.0010978380391444,2.3344619148081e-06,-2.7588813557268e-06,-0.0012822705324855,0.0012840837789872,-0.0012840134533994,0.0012826720713747,-0.0012828901103862,0.0012837960149309,-0.0012848673783415,0.0012817886744689,-0.0011123756325159,0.0011071902135187,-0.0011099517906704,0.0011093622784758,0.69329668255888,134640,3014,0.0045656646652444,0.0045656603511182,0.0045654755818354,38.100583853106,0.00022000467082485,0.00022000467082485,0.00022000467082485,3167025.481933,0.01379161609911
11419200,0.98267528425482,0.015237689596684,0.0050793483462069,0.0050793089836718,0.0050790322668051,-0.0010976295142504,0.0010976343796955,-7.8175037285453e-07,7.4347570516209e-07,-8.3536130883427e-07,8.8406683019554e-07,-0.0012927132276171,0.0012915395356373,-0.001292293117052,0.001292240632738,-0.0012919991719061,0.0012921756876617,-0.0012914466236232,0.0012927860307307,-0.0011108855755785,0.0011093853171993,-0.001109374294372,0.0011117222137234,1.1937488832178e-06,-5.1425006653929e-07,-2.1065814819054e-06,3.0496577964734e-06,-0.0010972803467239,0.001097982686719,-0.0012925180931778,0.0012920653751489,-0.0012907184670169,0.0012935294004804,-0.0012931215576467,0.0012911918033287,-0.0012909849693947,0.0012929765092983,-0.0011132200716857,0.001107964851787,-0.0011071803420497,0.001113101675735,-0.0011083622465191,0.0011123421675403,-0.0011098441028439,0.0011107845191234,2.11491974877e-07,-1.3180867464478e-06,-0.0010978840972986,0.0010972945097428,2.3186543454117e-06,-2.7234501138366e-06,-0.0012909796639756,0.0012927523943145,-0.0012927027950348,0.001291357122028,-0.0012915553601466,0.0012925066068147,-0.0012935147568804,0.0012905153867742,-0.0011129664930707,0.0011079421417607,-0.0011106634842496,0.0011099921692914,0.67906583973634,134640,3014,0.0045633958425139,0.0045633940464987,0.0045632182222212,37.62819715173,0.00021622557721384,0.00021622557721384,0.00021622557721384,3066066.9427618,0.013784796263744
12419200,0.98964498500407,0.015334601889686,0.0051116516355651,0.0051116128078311,0.0051113374462903,-0.00109449341685,0.0010945178899303,-7.0292228861849e-07,6.8782075614469e-07,-8.2871541064516e-07,8.9877415191415e-07,-0.0012941998847069,0.0012930997594399,-0.0012938361126282,0.0012937444129101,-0.0012934831173248,0.0012937109686727,-0.0012929791749808,0.0012943021512056,-0.0011085416664691,0.0011071753081916,-0.0011071245336233,0.0011093951433695,1.1857312995692e-06,-5.291169833116e-07,-2.0879660339695e-06,3.0104597355909e-06,-0.0010941681606212,0.0010948471725563,-0.0012940363858484,0.0012935831840019,-0.0012922667061483,0.0012950384160777,-0.0012946581903331,0.0012927120710386,-0.0012925413792893,0.001294487923633,-0.0011109170479822,0.0011057014447468,-0.0011049679793205,0.0011107982932376,-0.0011060837596503,0.0011100261145291,-0.0011075859256654,0.0011084884944313,1.428259155823e-07,-1.2514604791551e-06,-0.0010947654624697,0.0010941669321182,2.2830909380812e-06,-2.7044526035113e-06,-0.0012925388540597,0.001294241427368,-0.0012942543771954,0.001292875677204,-0.0012930627139829,0.0012940391047812,-0.0012950124089847,0.0012920664011534,-0.0011106140253122,0.0011057263534918,-0.0011084380200548,0.0011076825107876,0.69355173702939,134640,3014,0.0045504481650351,0.0045504565940624,0.0045502837885404,36.804267166658,0.00020963413733326,0.00020963413733326,0.00020963413733326,3003521.5204739,0.013745463924531
13419200,0.99353772719149,0.015387400046923,0.0051292505429677,0.0051292120864596,0.0051289374174954,-0.0010891610799148,0.0010891357349581,-7.0351098515011e-07,6.3535383081528e-07,-7.8720830470574e-07,8.0227017676366e-07,-0.0012932783418619,0.0012921799893792,-0.0012929186869561,0.0012928160996978,-0.0012926081412358,0.0012927750838139,-0.0012921145314419,0.0012933201309151,-0.0011037754539892,0.0011023824266066,-0.0011024395256596,0.0011045330950459,1.1385236989702e-06,-4.4004479513707e-07,-2.1117610591141e-06,3.0714243744354e-06,-0.0010887890664711,0.0010895080428152,-0.0012931367806366,0.0012926485596607,-0.0012913303959701,0.0012941237763238,-0.0012936995737445,0.0012918200182069,-0.0012915577422289,0.0012936138607508,-0.0011061417107784,0.001100919597495,-0.0011000835580059,0.0011060886365515,-0.0011013506650406,0.0011052314250192,-0.0011027075566078,0.0011038028631805,1.2264006155378e-07,-1.2209647767065e-06,-0.0010894004684431,0.0010888165935741,2.3334310004047e-06,-2.7350087798303e-06,-0.0012916109144025,0.0012933350932974,-0.0012933413556593,0.001291929635885,-0.0012921227082855,0.0012931509993895,-0.0012940910517005,0.0012911509522994,-0.0011058176458309,0.0011009747360177,-0.0011036939548866,0.0011028414567393,0.67550368780073,134640,3014,0.0045282487687639,0.0045282493549714,0.0045280825467123,34.794598025555,0.00019355678420444,0.00019355678420444,0.00019355678420444,2932503.8126588,0.013677983184432
14419200,0.99578547652468,0.015417495345187,0.005139282072245,0.0051392437688189,0.0051389695041235,-0.0010829449303558,0.0010829046647706,-7.2898009300334e-07,6.4633406095635e-07,-7.357790216469e-07,7.3446847433464e-07,-0.0012884242195959,0.0012873391448468,-0.0012880521777512,0.0012879858596091,-0.00128779071022,0.0012878897687045,-0.0012872866576836,0.001288451460172,-0.0010978892480743,0.0010964078738303,-0.0010965197698273,0.0010985948521688,1.0867179290687e-06,-3.7277992472659e-07,-2.1145053416157e-06,3.0873342300191e-06,-0.0010825594498509,0.0010832914782284,-0.0012883032632126,0.0012877824997672,-0.0012864924660687,0.0012892661507715,-0.0012888299773645,0.0012869947343041,-0.0012866826744835,0.0012887965165743,-0.0011001916507846,0.0010950081595596,-0.0010941187317159,0.0011001931502116,-0.0010954677364098,0.0010992515944405,-0.0010967119132311,0.0010979444103385,1.386379622149e-07,-1.2410682473282e-06,-0.001083179688745,0.0010825923084561,2.3407681679923e-06,-2.746245544883e-06,-0.0012867549904408,0.0012884961347268,-0.0012884935236133,0.0012870852035657,-0.0012872805685528,0.001288298482317,-0.0012892546952707,0.0012862940345855,-0.0010999075596749,0.0010950205899595,-0.0010977538059314,0.0010969237337502,0.66543916130673,134640,3014,0.0045024383661721,0.0045024411127744,0.0045022766084741,32.643906427213,0.00017635125141771,0.00017635125141771,0.00017635125141771,2893119.906496,0.01359949999856
15419200,0.99695597819975,0.015434087669249,0.0051448127234799,0.0051447745000027,0.005144500445766,-0.0010714385822402,0.0010713655591038,-7.5935852199224e-07,6.4293078420409e-07,-6.6512361545221e-07,6.284213459931e-07,-0.0012774342505151,0.0012763676279329,-0.0012770558036323,0.0012770226448187,-0.0012768591638582,0.0012768589088745,-0.0012763434285045,0.0012774302880514,-0.0010864933052896,0.0010848840182892,-0.0010850892321409,0.0010871025369631,1.0141406945988e-06,-2.6862212396127e-07,-2.0897935091714e-06,3.0901346840956e-06,-0.0010710223465526,0.0010717835527144,-0.0012773324121636,0.0012767893466657,-0.0012755280034743,0.0012782678411237,-0.0012778032415906,0.0012760624118387,-0.0012756637340967,0.001277855644369,-0.0010886791118834,0.0010836063087746,-0.0010826304794443,0.0010887670524185,-0.0010840776352897,0.0010877180426691,-0.0010851540447621,0.0010865790938373,1.5546728134327e-07,-1.2512913783059e-06,-0.0010716546709281,0.0010710731916819,2.3329784392327e-06,-2.7321193782999e-06,-0.0012757728413171,0.0012775198892804,-0.0012775039161194,0.0012761167212783,-0.0012763065276538,0.0012773141242248,-0.0012782734335884,0.0012753166216509,-0.0010884581571446,0.0010835542197142,-0.0010862708506722,0.0010854844243502,0.7013889395651,134640,3014,0.0044546427472881,0.0044546463722203,0.0044544837108368,27.069722678281,0.00013175778142625,0.00013175778142625,0.00013175778142625,2838003.4552472,0.013454173617688
16419200,0.99770740375779,0.015444371466603,0.0051482405781815,0.0051482024053598,0.0051479284830615,-0.0010655741602952,0.0010655211693089,-7.3269826012667e-07,6.3238220725212e-07,-6.0439259123711e-07,6.0313654693366e-07,-0.0012746605093815,0.0012736636758238,-0.0012742983138044,0.0012742912834963,-0.001274114756879,0.001274091586037,-0.0012736131069374,0.0012746778473981,-0.0010808870036408,0.0010792731668296,-0.0010794951847248,0.0010814767043359,9.4344301400081e-07,-2.5188969365356e-07,-2.1073998541165e-06,3.0690985270192e-06,-0.0010651905588977,0.0010659087871702,-0.0012746191054509,0.001274005714031,-0.0012728232471457,0.0012754959255495,-0.0012750660210143,0.00127331534494,-0.0012729318272717,0.0012751177811524,-0.0010830653052564,0.0010780146625336,-0.0010770427370958,0.001083163502609,-0.0010785333334393,0.0010820421277709,-0.0010795366866314,0.0010809723197238,1.3631824293351e-07,-1.2319121855275e-06,-0.0010658038272253,0.0010652164398344,2.3293754818376e-06,-2.7355467944092e-06,-0.0012730329423615,0.0012747687482145,-0.0012747794521539,0.0012733734557922,-0.0012735573026233,0.0012745707410309,-0.001275535240724,0.0012725758151547,-0.0010828380832913,0.0010779575783932,-0.0010806799372437,0.0010798697178133,0.67697638762411,134640,3014,0.0044303748114613,0.0044303832019929,0.0044302183140243,24.418335321111,0.00011054668256889,0.00011054668256889,0.00011054668256889,2772680.1778107,0.013380449152243
17419200,0.99821203475473,0.015451474413347,0.0051506081740433,0.0051505700391704,0.0051502962001329,-0.0010590708043756,0.0010589885812269,-7.6748393327118e-07,6.3690237081241e-07,-5.8629269391553e-07,5.4343702722449e-07,-0.0012679207312196,0.0012669038571671,-0.0012675380137466,0.0012675458763556,-0.001267402581782,0.0012673315962227,-0.0012668789837461,0.0012679103767514,-0.0010745552223364,0.0010728532612402,-0.0010731328542582,0.0010750929281901,9.1096151470425e-07,-2.0893141509969e-07,-2.0964240339369e-06,3.0534250981641e-06,-0.0010586693044376,0.001059391521561,-0.0012678795812116,0.0012672609353093,-0.001266083702381,0.0012687308447799,-0.0012682914717745,0.0012665803163187,-0.0012661689696246,0.0012683695212411,-0.0010766670098009,0.0010716530071549,-0.0010706660942481,0.001076780280275,-0.0010721822312003,0.0010756246539579,-0.0010731177240869,0.0010746301020176,1.6992058063159e-07,-1.239631423845e-06,-0.0010592727398649,0.001058711054911,2.3273896190941e-06,-2.706947684121e-06,-0.0012662829082761,0.0012680373616466,-0.0012680065203437,0.0012666464465448,-0.0012668129638897,0.001267832187223,-0.0012687798993254,0.0012658407129343,-0.0010764691541814,0.0010715755516651,-0.0010742512261333,0.0010735135532515,0.69394003836664,134640,3014,0.0044033329034581,0.0044033358660822,0.0044031752704591,21.980202011765,9.1041616094124e-05,9.1041616094124e-05,9.1041616094124e-05,2750073.2170455,0.013298215042442
18419200,0.9985255365916,0.015455816212512,0.0051520554092271,0.0051520172936842,0.0051517435096003,-0.0010499992957464,0.0010498911166133,-7.9263720156471e-07,6.4250497759441e-07,-5.8131687628068e-07,5.0326193367306e-07,-0.0012602399019876,0.0012591955209344,-0.0012598476516762,0.0012598609554012,-0.0012597312162141,0.0012596208441887,-0.0012592049797206,0.0012601990073431,-0.0010655173037076,0.0010637797142578,-0.0010640836500303,0.0010660228901269,9.3090924222813e-07,-1.4270325450587e-07,-2.0309523692209e-06,3.0714708255691e-06,-0.0010495464717571,0.0010503458622202,-0.001260150787597,0.0012596012071506,-0.0012583734829699,0.0012610532757267,-0.0012605553853786,0.0012589437684268,-0.0012584423435614,0.0012607120932233,-0.0010675444539836,0.0010626536613742,-0.001061572695255,0.0010677436507363,-0.001063133330506,0.0010665771329458,-0.0010640027173428,0.0010656557363916,1.7990872727219e-07,-1.2596530416586e-06,-0.0010501915680251,0.0010496251603803,2.302348009655e-06,-2.6865554999704e-06,-0.0012585890450107,0.0012603370981629,-0.0012602939365902,0.0012589581151079,-0.0012591331472788,0.0012601194216961,-0.001261074048833,0.0012581474837315,-0.0010674119413517,0.0010625210908152,-0.0010651974461995,0.0010644828889387,0.68267067346079,134640,3014,0.0043656539861207,0.0043656579372385,0.0043655002663997,17.47799108882,5.5023928710557e-05,5.5023928710557e-05,5.5023928710557e-05,2693413.4704657,0.01318370694256
19419200,0.99878512273139,0.015459633038902,0.0051533276596996,0.0051532895598345,0.0051530158193684,-0.0010480490833306,0.0010479606758268,-7.8833379386911e-07,6.5764629281595e-07,-6.1231104569624e-07,5.5693159696315e-07,-0.001258776177851,0.0012577199036857,-0.001258378928458,0.0012583872768172,-0.0012582394204065,0.0012581701490914,-0.0012577100985123,0.0012587548052626,-0.0010638168513261,0.0010621165573264,-0.0010623733292638,0.0010643712946726,9.5705264899679e-07,-2.0165890154251e-07,-2.0464114875608e-06,3.0563299188159e-06,-0.0010476216636653,0.0010483905464624,-0.0012586816550872,0.0012581306199374,-0.0012569050846614,0.0012595837209349,-0.001259113552481,0.0012574439938544,-0.001257000829899,0.001259214340918,-0.001065889957798,0.0010609422454083,-0.0010599190232453,0.0010660323545481,-0.0010614249723988,0.0010649204032936,-0.0010623789097094,0.0010639143821031,1.863772610291e-07,-1.2639196083818e-06,-0.001048250843362,0.0010476861333811,2.3032485273233e-06,-2.6859968499015e-06,-0.0012571172072017,0.0012588711424106,-0.0012588230964503,0.0012574925954357,-0.0012576651692708,0.0012586492472185,-0.0012596073145262,0.0012566775844617,-0.0010657317343865,0.0010608318100364,-0.0010635080235239,0.001062804659943,0.72158242953128,134640,3014,0.0043576057348112,0.0043576107890674,0.0043574538870313,17.551568050536,5.5612544404292e-05,5.5612544404292e-05,5.5612544404292e-05,2680444.9520085,0.013159243046705
20419200,0.99901103477992,0.015462991151491,0.0051544470086671,0.005154408922709,0.0051541352201152,-0.0010487067673669,0.0010486244379237,-7.5995224541158e-07,6.3529023629073e-07,-6.2765499891646e-07,5.7852667001981e-07,-0.0012623159118535,0.0012612704868348,-0.0012619349986065,0.0012619208022068,-0.0012617676432594,0.0012617338497453,-0.0012612548866738,0.0012623008641672,-0.0010647087053204,0.0010630764951186,-0.0010633144787288,0.0010652812609678,9.6856111135799e-07,-2.2678444459829e-07,-2.0489604876245e-06,3.0477408860107e-06,-0.0010482883386325,0.0010490453802924,-0.0012622258203029,0.0012616771189951,-0.0012604520121943,0.0012631284257986,-0.0012626692418475,0.0012609780563369,-0.0012605588830867,0.00126274681694,-0.0010668246537035,0.0010618590344547,-0.0010608605018682,0.0010669453381069,-0.0010623411854262,0.001065855853954,-0.0010633305916999,0.0010648148555326,1.6227731071541e-07,-1.2372043851493e-06,-0.001048911104235,0.001048348327392,2.3008728382982e-06,-2.6825444596628e-06,-0.0012606708004446,0.0012624083884721,-0.0012623746448791,0.0012610314600614,-0.0012612020476059,0.001262203556169,-0.0012631420566854,0.0012602332904744,-0.0010666326819095,0.0010617863589335,-0.001064457877127,0.0010637090035999,0.72910480586377,134640,3014,0.004360363778315,0.0043603689571659,0.0043602139929746,18.597312354036,6.3978498832292e-05,6.3978498832292e-05,6.3978498832292e-05,2648221.6221879,0.013167678193954
21419200,0.99916472693289,0.015465214070595,0.0051551879672002,0.0051551498904906,0.0051548762129041,-0.0010411021757097,0.0010410044225693,-7.881550305987e-07,6.4153433290963e-07,-5.8209119382403e-07,5.2092720186243e-07,-0.0012554391200834,0.0012544070153819,-0.0012550493922628,0.0012550643114333,-0.0012549282505602,0.0012548273285922,-0.001254399864804,0.0012554145449646,-0.0010573133577081,0.0010555697159709,-0.0010558784076258,0.0010578302637783,9.1797707977427e-07,-1.7372841001409e-07,-2.019460779719e-06,3.0246573635441e-06,-0.0010406731457142,0.0010414367082977,-0.0012553606855024,0.0012548025408315,-0.0012536027495015,0.0012562386562037,-0.0012557677408883,0.001254138276145,-0.0012536764732715,0.001255889289749,-0.0010593358466928,0.001054477319156,-0.0010534217697536,0.0010594969725085,-0.001054941785032,0.0010583539749815,-0.0010558403073773,0.0010573964823058,1.8215327729996e-07,-1.251869416064e-06,-0.0010412954996495,0.0010407396696573,2.2805341406154e-06,-2.6508393359624e-06,-0.0012538035780319,0.0012555410169521,-0.0012554920837502,0.0012541838686118,-0.0012543452035201,0.0012553257437169,-0.0012562726218432,0.0012533712865534,-0.0010592029984825,0.0010543289158075,-0.001056970433087,0.0010562832960404,0.70951084593198,134640,3014,0.0043287871791717,0.0043287939054614,0.0043286381083299,15.225615260312,3.7004922082495e-05,3.7004922082495e-05,3.7004922082495e-05,2606034.8213805,0.013071710266053
22419200,0.99929195445557,0.015467074331743,0.0051558080420687,0.0051557699732878,0.005155496316386,-0.0010384836818326,0.0010383928065111,-7.8367552628041e-07,6.5054201713718e-07,-6.0238458397797e-07,5.4385462685556e-07,-0.0012528135314598,0.0012517664491353,-0.0012524192419054,0.0012524289478908,-0.0012522846268908,0.0012522094429652,-0.0012517585428103,0.0012527896431876,-0.0010549081733516,0.0010532093999949,-0.0010534745372155,0.001055451340152,9.4318251621445e-07,-1.9231758553077e-07,-2.0230939386477e-06,3.0294043520221e-06,-0.0010380572250904,0.0010388220861009,-0.0012527208523415,0.0012521745834976,-0.0012509615887257,0.0012536117653412,-0.0012531453656818,0.001251495951758,-0.0012510498886856,0.0012532502633452,-0.0010569538105943,0.0010520599247591,-0.0010510341047141,0.001057102335249,-0.0010525380894555,0.0010559888157724,-0.0010534699386976,0.0010550068895824,1.8590952819688e-07,-1.2526139390504e-06,-0.0010386803121581,0.0010381253225208,2.283249277445e-06,-2.656488387519e-06,-0.0012511655059136,0.0012529087623558,-0.0012528548333454,0.0012515463241734,-0.0012517094369883,0.0012526906537017,-0.0012536351907998,0.0012507352635115,-0.0010568046239653,0.0010519431411015,-0.001054592259716,0.0010539043088286,0.71604798214705,134640,3014,0.0043179365514335,0.0043179423696532,0.0043177886631212,14.85899053353,3.4071924268242e-05,3.4071924268242e-05,3.4071924268242e-05,2596024.6493739,0.01303871950181
23419200,0.99940493424757,0.015468697986005,0.0051563492497017,0.0051563111875822,0.005156037548721,-0.0010384102967761,0.0010383227281664,-7.7169765442339e-07,6.4159751493886e-07,-6.1430425572191e-07,5.594471747841e-07,-0.0012539482973811,0.0012529017884796,-0.0012535599422042,0.0012535570290192,-0.0012534111439196,0.0012533556146326,-0.001252891019102,0.001253927162655,-0.0010550630084661,0.0010533969895707,-0.0010536485909661,0.0010556171409638,9.5337837546665e-07,-2.0970827158947e-07,-2.0306277349241e-06,3.0305600692419e-06,-0.001037988605633,0.0010387470387608,-0.0012538563700212,0.0012533100370503,-0.001252094178382,0.0012547497651973,-0.0012542889836387,0.0012526215940055,-0.0012521912109048,0.0012543789641218,-0.0010571362066306,0.0010522173285933,-0.0010512090921327,0.0010572705470504,-0.0010526970800491,0.0010561707754544,-0.0010536546389376,0.0010551612088389,1.7646404883892e-07,-1.2413397289509e-06,-0.0010386082736789,0.0010380541736108,2.287638841707e-06,-2.6605785547776e-06,-0.0012523031058304,0.0012540424061345,-0.0012539946749464,0.001252676768372,-0.0012528391552821,0.0012538316019507,-0.0012547684186936,0.0012518726867908,-0.0010569665634781,0.0010521237497425,-0.0010547727858079,0.001054064153858,0.7040442242837,134640,3014,0.0043176455710078,0.004317650962619,0.004317498240989,15.705719502871,4.0845756022968e-05,4.0845756022968e-05,4.0845756022968e-05,2581934.7746188,0.013037849460833
24419200,0.99951158641715,0.015470257595102,0.0051568691097159,0.0051568310536453,0.0051565574317407,-0.0010403425253006,0.001040264094982,-7.606502235736e-07,6.3991384006718e-07,-6.3729906973004e-07,5.9264697265039e-07,-0.001256430927112,0.0012553793178685,-0.0012560463614605,0.0012560298223018,-0.0012558753287914,0.0012558508051275,-0.0012553600860434,0.0012564188395972,-0.0010572903160367,0.0010556664707183,-0.0010558887382864,0.0010578721108498,9.7715608321085e-07,-2.4227812851472e-07,-2.0442305462011e-06,3.0355130272373e-06,-0.0010399298276885,0.0010406798271622,-0.0012563344484497,0.0012557922767594,-0.0012545668285464,0.0012572384523946,-0.0012567853986263,0.0012550853610181,-0.0012546818302044,0.0012568492472383,-0.0010594053758788,0.0010544407944544,-0.0010534612385083,0.0010595134876261,-0.0010549184230083,0.0010584446910537,-0.0010559308943819,0.0010573808325736,1.6884155570258e-07,-1.2362846271612e-06,-0.0010405468004539,0.0010399897941679,2.294996007242e-06,-2.6716032950685e-06,-0.0012547837917499,0.0012565225193305,-0.0012564818336111,0.0012551509105728,-0.0012553160866257,0.0012563154687648,-0.0012572510035408,0.0012543511918283,-0.001059210299716,0.001054373084373,-0.001057030835293,0.0010563008169092,0.71549404792677,134640,3014,0.0043256828452918,0.0043256891023037,0.0043255366604399,17.881578703145,5.8252629625163e-05,5.8252629625163e-05,5.8252629625163e-05,2585171.7935722,0.013062275806076
25419200,0.99960882194933,0.015471751955619,0.0051573672210235,0.0051573291704686,0.0051570555641266,-0.0010424538891952,0.0010423831719772,-7.4170878384853e-07,6.2855358457537e-07,-6.5901295857897e-07,6.2283419427215e-07,-0.0012600681985269,0.0012590175600051,-0.001259693934638,0.0012596576777209,-0.0012594965551578,0.0012595066356502,-0.0012589909484727,0.0012600641757601,-0.0010596611569709,0.0010580901847034,-0.0010582889552429,0.0010602678708305,9.9719846824595e-07,-2.7405004436436e-07,-2.0567732569764e-06,3.038406417976e-06,-0.0010420500102288,0.0010427900842238,-0.0012599710829413,0.0012594313381386,-0.0012581988668769,0.0012608831816243,-0.0012604385260564,0.0012587072760164,-0.0012583304057089,0.001260476498376,-0.0010618244504682,0.0010568183161404,-0.0010558649489322,0.0010619058190751,-0.0010572941209809,0.0010608653642438,-0.0010583577079581,0.0010597483301906,1.5275258791271e-07,-1.2218816191322e-06,-0.0010426630892475,0.0010421045618834,2.301754483817e-06,-2.6801066205368e-06,-0.0012584257499552,0.0012601578329587,-0.0012601281693079,0.0012587808905147,-0.0012589478336424,0.0012599612533647,-0.0012608875433125,0.0012579913598064,-0.0010615979088421,0.0010567821983327,-0.0010594470068136,0.0010586798195006,0.75065157254849,134640,3014,0.0043344668964627,0.0043344731468431,0.0043343219776019,19.926560985447,7.4612487883573e-05,7.4612487883573e-05,7.4612487883573e-05,2576747.8005765,0.01308899491481
26419200,0.99968854737567,0.015473004531041,0.0051577847389666,0.0051577466928515,0.0051574730992231,-0.0010420037576373,0.0010419415283783,-7.2802997844593e-07,6.2300126334955e-07,-6.5089238134381e-07,6.2877331435524e-07,-0.0012617264567368,0.0012606919089843,-0.0012613604971653,0.0012613252570928,-0.0012611548454877,0.0012611711339346,-0.0012606572430246,0.0012617297651222,-0.0010594502332985,0.0010579023494175,-0.0010580918667761,0.0010600627470014,9.9585336860875e-07,-2.7207206722288e-07,-2.0503720512638e-06,3.0370336326502e-06,-0.001041603682491,0.0010423459170734,-0.0012616349127766,0.0012610967614154,-0.001259868117819,0.0012625488105202,-0.0012621051161567,0.0012603784386442,-0.0012599990496825,0.0012621459752411,-0.0010616181744564,0.0010566312492539,-0.0010556717120837,0.0010617091310604,-0.0010570980533098,0.0010606645793197,-0.0010581558239224,0.0010595479020319,1.4089695812219e-07,-1.2144561851209e-06,-0.0010422206113725,0.0010416570381175,2.295229884887e-06,-2.6793544733629e-06,-0.0012600949428816,0.0012618163347072,-0.0012618002967421,0.0012604444818134,-0.0012606127907687,0.0012616242238767,-0.0012625515738866,0.0012596596303923,-0.0010613907718624,0.0010565939632503,-0.0010592623873436,0.0010584778640759,0.76692112583309,134640,3014,0.0043326303541614,0.0043326392876811,0.0043324891073359,20.393280622158,7.8346244977263e-05,7.8346244977263e-05,7.8346244977263e-05,2549064.7201876,0.013083455124922
27419200,0.99975806977923,0.015474054684541,0.0051581347837399,0.0051580967418876,0.0051578231589136,-0.0010431984965319,0.0010431342435259,-7.1633654830036e-07,6.097599960786e-07,-6.8018784478443e-07,6.5113930648924e-07,-0.0012644821332338,0.0012634365352659,-0.0012641223041322,0.0012640616568874,-0.0012638947919386,0.0012639413779447,-0.0012634038474005,0.0012644847591663,-0.0010610682233453,0.0010595633562394,-0.001059738415697,0.0010616977255158,1.0160718109504e-06,-3.0450488754413e-07,-2.0697456804972e-06,3.0420979632668e-06,-0.0010428029665288,0.0010435330220301,-0.0012643870482803,0.0012638477505342,-0.001262610360268,0.0012653060203504,-0.001264870722093,0.0012631080330804,-0.0012627577104475,0.0012648832165178,-0.0010632843881937,0.0010582373000872,-0.0010573112544411,0.0010633420809396,-0.0010587133037195,0.0010623267989413,-0.0010598261401229,0.0010611614490209,1.2955317658428e-07,-1.2008107050578e-06,-0.0010434128186472,0.0010428516377321,2.3080665813495e-06,-2.6903345197333e-06,-0.0012628475491811,0.0012645689009601,-0.0012645559271138,0.0012631864073459,-0.0012633556187537,0.0012643868088167,-0.0012653005560755,0.0012624116083174,-0.0010630212802515,0.0010582410167529,-0.0010609142473628,0.0010600956280527,0.73788855870234,134640,3014,0.0043375920055093,0.0043375986989704,0.0043374493916762,22.249487837461,9.3195902699688e-05,9.3195902699688e-05,9.3195902699688e-05,2536469.7415713,0.013098544973852
28419200,0.99981521501341,0.015474963621216,0.0051584377575744,0.0051583997188505,0.0051581261447908,-0.0010434898791324,0.0010434193570174,-7.2160205729954e-07,6.0748587954902e-07,-6.904768563059e-07,6.5279177638527e-07,-0.0012645318157062,0.0012634758829027,-0.0012641708456616,0.0012641027668077,-0.0012639412106687,0.0012639897051753,-0.0012634491100513,0.0012645302909291,-0.0010616267000289,0.0010601189208065,-0.0010602934679975,0.0010622501428705,1.0265513038958e-06,-3.0650039081657e-07,-2.0693947344165e-06,3.0431451321528e-06,-0.0010430893163517,0.0010438228209949,-0.001264429793189,0.0012638985164609,-0.0012626527505452,0.0012653544824271,-0.0012649174046991,0.0012631507386811,-0.00126280453231,0.001264925744492,-0.0010638407787187,0.0010587855413578,-0.0010578723637324,0.0010638965609267,-0.0010592562050865,0.0010628893495894,-0.0010603794221649,0.0010617170927389,1.3280210724926e-07,-1.2006544752379e-06,-0.0010437002871938,0.0010431414736301,2.3082794739314e-06,-2.6902327276638e-06,-0.0012628936362659,0.0012646164737112,-0.001264600193615,0.00126323254163,-0.0012634012921666,0.0012644355426904,-0.0012653446771573,0.0012624594471448,-0.0010635765038902,0.0010588007490493,-0.0010614653879514,0.0010606529355788,0.77520834847324,134640,3014,0.0043387850568538,0.0043387910201668,0.0043386441278292,23.43957903166,0.00010271663225328,0.00010271663225328,0.00010271663225328,2542323.3939811,0.013102152598667
29419200,0.9998616497067,0.015475617007562,0.0051586555489467,0.0051586175127535,0.0051583439458622,-0.0010446225465432,0.0010445618511479,-6.97660601461e-07,5.9461519583355e-07,-6.9115781233381e-07,6.6625619675216e-07,-0.0012678991472353,0.0012668591218632,-0.0012675496340177,0.0012674726513688,-0.0012673037521813,0.0012673736932744,-0.0012668234292514,0.0012679048225393,-0.0010629863314357,0.0010615279911387,-0.0010616880819877,0.0010636266049428,1.0261182623075e-06,-3.2060221441064e-07,-2.0770760955342e-06,3.0441618132906e-06,-0.0010442314814484,0.0010449561076713,-0.0012678069447856,0.0012672679649311,-0.0012660275693641,0.0012687293110361,-0.0012682989401874,0.0012665190844203,-0.0012661833377802,0.0012682978627909,-0.0010652354959728,0.0010601644143112,-0.0010592549464101,0.0010652813549116,-0.0010606424069203,0.0010642778519356,-0.001061778838696,0.0010630874281424,1.1359657561339e-07,-1.1830563309634e-06,-0.001044838654593,0.0010442781345554,2.3125239183307e-06,-2.6950470848363e-06,-0.0012662719136496,0.0012679853065953,-0.0012679831483207,0.0012665995059029,-0.0012667682817589,0.0012678147593346,-0.0012687165514077,0.0012658361563605,-0.0010649457415673,0.0010601977842838,-0.0010628718081768,0.0010620193937079,0.6888912661557,134640,3014,0.0043435190197071,0.0043435255901696,0.0043433777887494,24.778337395782,0.00011342669916626,0.00011342669916626,0.00011342669916626,2520973.3747514,0.013116580694903
30419200,0.99989858889769,0.015476127576863,0.0051588257355451,0.0051587877013692,0.0051585141399485,-0.0010453361094657,0.00104528112631,-7.1737275239434e-07,6.2005367015788e-07,-6.9870637176109e-07,6.8063004811366e-07,-0.001265861721959,0.0012648058622415,-0.0012654979903252,0.0012654336177753,-0.0012652596180309,0.0012653263326505,-0.001264764650811,0.0012658731082347,-0.0010638225386799,0.0010623311385335,-0.0010624807021413,0.001064475776374,1.0371814175344e-06,-3.3175103950171e-07,-2.0879432774354e-06,3.0528631922658e-06,-0.0010449486229502,0.0010456722976255,-0.0012657614769426,0.0012652225614733,-0.0012639756639298,0.0012666909262495,-0.0012662605835063,0.0012644673934504,-0.0012641390557869,0.0012662523015161,-0.0010660696887897,0.0010609708309562,-0.0010600684998572,0.0010661038539359,-0.0010614473141677,0.0010651141285509,-0.0010626068915207,0.00106389781903,1.3374091573377e-07,-1.2080590435474e-06,-0.0010455569409062,0.0010449927228316,2.3207640709398e-06,-2.7060078748497e-06,-0.0012642195688539,0.0012659497279426,-0.0012659364423318,0.0012645577140279,-0.0012647306682222,0.0012657638275746,-0.0012666846943712,0.0012637797345346,-0.0010657908597557,0.0010609875176364,-0.001063672706036,0.0010628529761065,0.67663456807487,134640,3014,0.0043464715056117,0.0043464791078501,0.0043463303851903,26.129009144291,0.00012423207315433,0.00012423207315433,0.00012423207315433,2560605.610132,0.013125488269914
31419200,0.99992849170497,0.015476572102655,0.005158973908187,0.0051589358756419,0.0051586623188257,-0.0010481500382318,0.0010480993819638,-7.1081118921093e-07,6.1776664267018e-07,-7.0845081093153e-07,6.952722078252e-07,-0.0012689916905603,0.001267935219353,-0.0012686308498079,0.0012685596842435,-0.0012683820069513,0.0012684635498374,-0.001267889890524,0.0012690073905575,-0.0010668269803419,0.0010653561884418,-0.0010654938004606,0.001067492562213,1.0469168622431e-06,-3.4645136143276e-07,-2.1013071070558e-06,3.0615385411976e-06,-0.0010477670369265,0.0010484861899756,-0.0012688929358774,0.0012683504305015,-0.0012671002000195,0.001269826322407,-0.0012693997223213,0.0012675873475988,-0.0012672714160374,0.0012693796304785,-0.0010691014935918,0.0010639684301906,-0.001063078900682,0.0010691230437781,-0.0010644486557958,0.0010681425030397,-0.0010656323827878,0.0010669011539115,1.2769176505733e-07,-1.2052597536491e-06,-0.0010483747901435,0.0010478074034195,2.3298809295739e-06,-2.7185905324401e-06,-0.0012673492518121,0.001269080436985,-0.0012690731433937,0.001267681212801,-0.0012678573346657,0.0012688974880546,-0.0012698184165118,0.0012669062749086,-0.0010688063989635,0.0010640010474842,-0.0010666966089074,0.0010658576142137,0.72615477791951,134640,3014,0.0043581557674878,0.0043581636231881,0.0043580153644543,28.436007460712,0.00014268805968569,0.00014268805968569,0.00014268805968569,2570874.1771856,0.013161003526205
32419200,0.99995034089876,0.015476913353858,0.0051590876566665,0.0051590496252989,0.0051587760718926,-0.00104908107349,0.0010490303256568,-6.8723171363272e-07,5.9414112875641e-07,-7.0386893500276e-07,6.9372995896833e-07,-0.0012729259497388,0.0012718851789183,-0.0012725803591516,0.0012724951997215,-0.0012723171709896,0.0012724084642347,-0.0012718415243099,0.0012729394670247,-0.0010678456148866,0.0010664216256931,-0.0010665557319499,0.0010685082639075,1.0430544772318e-06,-3.4358486281268e-07,-2.0911784022683e-06,3.0555730662835e-06,-0.0010486977803598,0.0010494177702524,-0.0012728330381465,0.0012722931818831,-0.0012710473254736,0.0012737644436985,-0.0012733405753262,0.0012715339000858,-0.0012712162058067,0.0012733221515895,-0.0010701323729582,0.001065022064374,-0.0010641288334332,0.0010701646065283,-0.0010655005277418,0.0010691754652664,-0.0010666702679831,0.0010679443706675,1.0549042281983e-07,-1.1803800775964e-06,-0.001049305842209,0.0010487395572212,2.3220437179856e-06,-2.7107810310043e-06,-0.0012712977773654,0.0012730110582579,-0.0012730199589419,0.0012716182764192,-0.0012717912484376,0.0012728433366885,-0.0012737488182959,0.0012708581613924,-0.0010698227224139,0.0010650738570449,-0.0010677632911897,0.0010668883446118,0.76213985038933,134640,3014,0.0043620368863388,0.0043620454651093,0.0043618989995893,29.29448690667,0.00014955589525336,0.00014955589525336,0.00014955589525336,2537880.0097392,0.013172864515301
33419200,0.99996552843037,0.015477153334396,0.0051591676488554,0.00515912961832,0.0051588560672204,-0.0010477544660354,0.0010476978816529,-6.6682767869978e-07,5.679696444451e-07,-7.0471165545232e-07,6.8422197192925e-07,-0.0012734315576688,0.0012724051233158,-0.0012731011293426,0.0012729985595657,-0.0012728263680568,0.0012729293157685,-0.0012723651911399,0.0012734415824135,-0.0010667641684705,0.001065375613918,-0.0010655221410064,0.0010674189887575,1.0383531071945e-06,-3.3990564174723e-07,-2.0731150593065e-06,3.033654727073e-06,-0.0010473689710752,0.0010480871141656,-0.0012733415405072,0.0012728111205484,-0.0012715676872059,0.0012742686571738,-0.001273843838895,0.0012720527347638,-0.0012717337808338,0.0012738269467649,-0.0010690492565707,0.0010639763997256,-0.0010630835362124,0.0010690781832163,-0.0010644451023872,0.001068100918439,-0.0010656144919596,0.0010668783552767,8.6108338016917e-08,-1.1529452388936e-06,-0.0010479719915431,0.0010474142398838,2.3068646790393e-06,-2.686480695162e-06,-0.0012718228777297,0.0012735152299376,-0.0012735290285136,0.0012721340481352,-0.0012723002345821,0.0012733634727469,-0.0012742432123152,0.001271390017535,-0.0010687266236545,0.0010640419966413,-0.0010667091152848,0.0010658067646803,0.7702815986224,134640,3014,0.0043565330016618,0.0043565407042374,0.004356394850485,29.317262035562,0.00014973809628449,0.00014973809628449,0.00014973809628449,2509611.6254512,0.013156161971741
34419200,0.99997702086395,0.01547732809585,0.0051592259017017,0.0051591878717716,0.0051589143223766,-0.0010496613079294,0.0010496052701598,-6.6408987491479e-07,5.6368223124373e-07,-7.1761231746744e-07,7.0235724359455e-07,-0.0012764293856769,0.0012753985767876,-0.0012761056979175,0.0012759930185379,-0.0012758120110603,0.0012759244817086,-0.0012753617718947,0.0012764375685176,-0.0010690742649093,0.001067707851276,-0.0010678440933143,0.001069735303928,1.0601780239123e-06,-3.4708823760701e-07,-2.0811696668287e-06,3.0531750988847e-06,-0.0010492725041924,0.0010500002212292,-0.0012763319386788,0.0012758073701893,-0.0012745574803399,0.0012772758712125,-0.0012768513275702,0.0012750466765864,-0.0012747303535064,0.0012768311582409,-0.0010713846872172,0.0010662798073202,-0.0010653968289369,0.001071416535703,-0.0010667510175742,0.0010704508545938,-0.0010679359594176,0.0010692034304421,7.5064991463422e-08,-1.1559883362107e-06,-0.0010498870203863,0.0010493164483716,2.3133914227747e-06,-2.7084918087657e-06,-0.0012748146626404,0.0012765062596007,-0.0012765367344523,0.0012751171791248,-0.0012752937106448,0.0012763548317944,-0.0012772421140128,0.0012743792142296,-0.0010710502215291,0.0010663677081587,-0.001069059182715,0.0010681206286647,0.74169710814413,134640,3014,0.0043644509017924,0.0043644636631017,0.0043643190171885,31.480106692808,0.00016704085354246,0.00016704085354246,0.00016704085354246,2504387.6272667,0.013180245617846
35419200,0.99998603391002,0.015477460356892,0.0051592699879081,0.0051592319585432,0.0051589584104403,-0.0010557553997248,0.0010556776826038,-6.8867596132976e-07,5.6692100924013e-07,-7.6793317562382e-07,7.2444509599582e-07,-0.0012826676740109,0.0012815748605298,-0.0012823298888279,0.0012821892901796,-0.0012820234240525,0.0012821476148967,-0.0012815664395251,0.0012826528096873,-0.0010755302402026,0.0010741704593185,-0.0010742783171314,0.0010761872742963,1.0978642906801e-06,-3.8364760025732e-07,-2.1354935416841e-06,3.0945068399549e-06,-0.001055358567014,0.0010560790803142,-0.0012825522737058,0.0012820124002013,-0.0012807442185852,0.0012835090635842,-0.0012830952278889,0.0012812219854122,-0.0012809401803555,0.0012830374111124,-0.0010778931974405,0.0010726412628749,-0.0010718207213729,0.0010778918610746,-0.0010731614658283,0.0010769507259546,-0.0010743996351842,0.0010756525928574,9.2059674720424e-08,-1.1676094789699e-06,-0.0010559695027812,0.0010553988534166,2.3566031903935e-06,-2.7588187943118e-06,-0.0012810012275494,0.0012827319908336,-0.0012827537096313,0.0012813066873452,-0.0012814928084084,0.0012825758079594,-0.0012834657827529,0.0012805671163166,-0.0010775194413457,0.0010728065601317,-0.0010755211761061,0.0010745729145458,0.71641844427457,134640,3014,0.0043896867806341,0.0043896962102656,0.0043895515099089,35.925106813162,0.00020260085450529,0.00020260085450529,0.00020260085450529,2532578.9792148,0.013256935317546
36419200,0.9999918053551,0.01547754675213,0.0051592987858318,0.0051592607567918,0.0051589872095064,-0.0010573874039105,0.0010573480397219,-6.7377611752081e-07,5.9216213995595e-07,-7.4273148752299e-07,7.4213457356019e-07,-0.0012840118764531,0.0012829607440622,-0.0012836705828179,0.0012835633092538,-0.0012833764087545,0.0012835154792386,-0.0012829047236727,0.0012840383985075,-0.0010773232633901,0.0010759523637699,-0.0010760502739443,0.0010780261807767,1.0778952551733e-06,-3.9643619051218e-07,-2.1454771804965e-06,3.0901935068749e-06,-0.0010570184189144,0.0010577212114968,-0.0012839219624664,0.0012833660373078,-0.0012821073370578,0.0012848671128865,-0.0012844548479865,0.0012825766386506,-0.0012823041604151,0.0012843941335745,-0.0010797022181598,0.0010744553444035,-0.0010736116362636,0.0010796850165267,-0.0010749519464406,0.0010787302102642,-0.0010762150891068,0.001077409299416,9.2770734826625e-08,-1.1774665839576e-06,-0.0010576228200007,0.0010570471307645,2.3604674223925e-06,-2.7600452917023e-06,-0.0012823750461335,0.0012841019080525,-0.0012841227897541,0.001282678552746,-0.0012828623292611,0.001283939538054,-0.0012848473083522,0.0012819244098788,-0.0010793369460486,0.0010745617607968,-0.0010772889509388,0.0010763567622121,0.73065039199806,134640,3014,0.0043965339823506,0.0043965426223511,0.0043963971348158,37.478875580642,0.00021503100464514,0.00021503100464514,0.00021503100464514,2545537.3746947,0.013277734981117
37419200,0.99999521416992,0.015477596974132,0.0051593155262129,0.0051592774973522,0.0051590039505673,-0.0010569694314348,0.0010569274246738,-6.5964694260644e-07,5.7558835094457e-07,-7.34514900507e-07,7.3250870465228e-07,-0.0012847453704272,0.0012837071972968,-0.0012844151164285,0.0012842999796339,-0.0012841153298361,0.0012842541386818,-0.0012836539984109,0.0012847692993336,-0.00107697421827,0.0010756242913373,-0.0010757269883865,0.0010776674358189,1.0705112456326e-06,-3.8571523052947e-07,-2.1254123678659e-06,3.0754356350299e-06,-0.0010565974120265,0.001057303922625,-0.001284657542163,0.0012841101834565,-0.0012828547748522,0.0012856003539174,-0.0012851866316864,0.0012833275474993,-0.0012830465413408,0.0012851338193754,-0.0010793411746351,0.0010741410848158,-0.0010732875082678,0.0010793373586795,-0.0010746262339505,0.001078376480608,-0.0010758696979548,0.0010770755765143,8.0431567674034e-08,-1.1592306232706e-06,-0.0010572014569687,0.0010566306556707,2.3455947808965e-06,-2.7405285269612e-06,-0.0012831222506696,0.0012848328955805,-0.0012848605568065,0.001283421843511,-0.0012835998131088,0.0012846807172164,-0.0012855741918172,0.0012826774727993,-0.0010789761987462,0.0010742487860457,-0.0010769589348587,0.0010760173108151,0.71959281466486,134640,3014,0.0043948017573262,0.0043948110072026,0.0043946664531923,37.680188805291,0.00021664151044233,0.00021664151044233,0.00021664151044233,2530040.0999786,0.01327249316902
38419200,0.99999717357426,0.015477626943799,0.0051593255159363,0.0051592874871798,0.0051590139406833,-0.001055302985564,0.001055253817839,-6.583278490102e-07,5.6678812332624e-07,-7.2588622223565e-07,7.1418783930873e-07,-0.0012830240698713,0.0012819916974658,-0.0012826967097841,0.0012825811739991,-0.0012824032674005,0.0012825327536714,-0.0012819450371189,0.0012830411053514,-0.0010753612874747,0.0010740060413313,-0.0010741271606314,0.0010760385789129,1.0597083537344e-06,-3.6981939876077e-07,-2.104246583194e-06,3.0558131976699e-06,-0.0010549256095996,0.0010556354280348,-0.0012829355857078,0.0012823959608319,-0.0012811452946602,0.001283872172035,-0.0012834544087831,0.0012816217600744,-0.0012813280499854,0.0012834139149658,-0.0010777002217666,0.00107254896951,-0.0010716842129778,0.0010777045775725,-0.001073028245264,0.0010767451718251,-0.0010742473906408,0.0010754697704615,7.8731282092194e-08,-1.1506596704428e-06,-0.0010555276331369,0.0010549642959577,2.3297646072086e-06,-2.7161055015377e-06,-0.001281409665041,0.0012831102580957,-0.0012831329920307,0.0012817114802978,-0.0012818837849405,0.0012829617624211,-0.0012838434839127,0.0012809714913617,-0.0010773451053207,0.0010726482092539,-0.0010753376865741,0.0010744030061328,0.7458304289624,134640,3014,0.0043878727277292,0.0043878814621713,0.0043877371471579,37.196433269656,0.00021277146615725,0.00021277146615725,0.00021277146615725,2523916.1543258,0.013251424236564
38880000,0.99999785779045,0.01547763747047,0.0051593290247695,0.0051592909960481,0.0051590174496522,-0.0010549198372501,0.0010548666012638,-6.4844147074687e-07,5.5294187099847e-07,-7.153866680009e-07,6.9879191722997e-07,-0.0012838730598574,0.0012828529029826,-0.0012835530695622,0.0012834342780628,-0.0012832601338213,0.0012833854798285,-0.001282809851219,0.0012838860495108,-0.0010750393146114,0.0010736955148012,-0.0010738289072754,0.0010757044382634,1.0481470469446e-06,-3.5544539859447e-07,-2.0938788286818e-06,3.0487034620947e-06,-0.0010545389921934,0.0010552516091727,-0.001283790270614,0.0012832509494133,-0.0012820058938799,0.0012847211939075,-0.0012843009754525,0.0012824847609463,-0.0012821803430193,0.0012842714230609,-0.0010773692891788,0.001072247114647,-0.0010713707701125,0.0010773860382262,-0.0010727262297447,0.0010764133533487,-0.0010739201386678,0.0010751654961162,6.820441939649e-08,-1.1374422113608e-06,-0.0010551413459646,0.0010545804805711,2.3223730125304e-06,-2.7063182449421e-06,-0.0012822700611355,0.0012839597778332,-0.0012839876470515,0.0012825666278581,-0.0012827361211172,0.0012838190226051,-0.0012846904547899,0.00128183419122,-0.0010770133289703,0.0010723480074013,-0.0010750292467182,0.0010740795129941,0.74998939250478,134640,3014,0.0043862830278111,0.0043862916110751,0.0043861479792072,37.193663116545,0.00021274930493236,0.00021274930493236,0.00021274930493236,2506867.6396023,0.013246616825764
