time,ASR_ext,ASR_strain,ASR_strain_xx,ASR_strain_yy,ASR_strain_zz,disp_x_101,disp_x_102,disp_x_103,disp_x_104,disp_x_105,disp_x_106,disp_x_p1_neg,disp_x_p1_pos,disp_x_p2_neg,disp_x_p2_pos,disp_x_p3_neg,disp_x_p3_pos,disp_x_p4_neg,disp_x_p4_pos,disp_x_p5_neg,disp_x_p5_pos,disp_x_p6_neg,disp_x_p6_pos,disp_y_101,disp_y_102,disp_y_103,disp_y_104,disp_y_105,disp_y_106,disp_y_p1_neg,disp_y_p1_pos,disp_y_p2_neg,disp_y_p2_pos,disp_y_p3_neg,disp_y_p3_pos,disp_y_p4_neg,disp_y_p4_pos,disp_y_p5_neg,disp_y_p5_pos,disp_y_p6_neg,disp_y_p6_pos,disp_y_p7_neg,disp_y_p7_pos,disp_y_p8_neg,disp_y_p8_pos,disp_z_101,disp_z_102,disp_z_103,disp_z_104,disp_z_105,disp_z_106,disp_z_p1_neg,disp_z_p1_pos,disp_z_p2_neg,disp_z_p2_pos,disp_z_p3_neg,disp_z_p3_pos,disp_z_p4_neg,disp_z_p4_pos,disp_z_p5_neg,disp_z_p5_pos,disp_z_p6_neg,disp_z_p6_pos,humidity,ndof,nelem,strain_xx,strain_yy,strain_zz,temp,thermal_strain_xx,thermal_strain_yy,thermal_strain_zz,vonmises,vstrain
2419200,0,0,0,0,0,0,0,0,0,0,0,0,0,0,0,0,0,0,0,0,0,0,0,0,0,0,0,0,0,0,0,0,0,0,0,0,0,0,0,0,0,0,0,0,0,0,0,0,0,0,0,0,0,0,0,0,0,0,0,0,0,0,0,0,0,0,0,0,0,0,0,0,0,0,0
3419200,0.15985851953087,0.0026637872408911,0.00088792908029702,0.00088792908029702,0.00088792908029702,-0.00024754755804955,0.00024754755415476,-8.4427644322831e-13,-1.7923554359482e-12,-6.36711464343e-13,-1.9866057627635e-12,-0.00025257777699239,0.00025257777477048,-0.00025257777775992,0.00025257777490279,-0.00025257777785293,0.00025257777475795,-0.00025257777862582,0.0002525777748895,-0.000247935094482,0.00024793509204377,-0.00024793509561919,0.00024793509133136,-1.6469650597251e-12,-3.4676342086184e-13,-2.6379984402553e-12,5.7000786324801e-13,-0.00024754755776108,0.00024754755444333,-0.00025257777782811,0.00025257777389626,-0.00025257777721798,0.0002525777754353,-0.00025257777783654,0.00025257777478077,-0.00025257777722367,0.00025257777632291,-0.00024793509576334,0.00024793509073339,-0.00024793509289027,0.00024793509410197,-0.00024793509451469,0.0002479350920274,-0.00024793509345292,0.00024793509353601,-1.9883657862019e-12,-1.0402949770555e-12,-0.00024754755825109,0.00024754755395371,7.0677083510672e-14,-3.1261584832983e-12,-0.00025257777716232,0.00025257777454308,-0.00025257777870517,0.00025257777393263,-0.00025257777730126,0.00025257777531998,-0.00025257777883413,0.0002525777746997,-0.00024793509522489,0.00024793509177339,-0.00024793509592604,0.00024793509062933,0.75746877217741,125301,3014,0.001030915103688,0.0010309151036882,0.001030915103689,31.88266033072,0.00017026128264576,0.00017026128264576,0.00017026128264576,974207.02808102,0.0030975348558578
4419200,0.35106322943711,0.0056944364273312,0.0018981454757841,0.0018981454757805,0.0018981454757665,-0.00048350502967195,0.00048350502116656,-2.7138493437654e-12,-3.6629162768927e-12,-2.3116754387257e-12,-3.9685006400295e-12,-0.000502937930087,0.00050293792373728,-0.00050293793198962,0.00050293792500124,-0.0005029379321457,0.00050293792472536,-0.00050293793405039,0.00050293792597794,-0.00048695017794897,0.00048695017152539,-0.00048695017995794,0.00048695017167564,-3.4414550906336e-12,-1.9826560323221e-12,-4.7673589427178e-12,-8.6605978327693e-13,-0.00048350502929241,0.0004835050215448,-0.00050293793107703,0.00050293792273436,-0.00050293793130187,0.00050293792564432,-0.0005029379321098,0.00050293792478894,-0.00050293793232847,0.0005029379277058,-0.0004869501794164,0.0004869501700643,-0.00048695017670642,0.00048695017493819,-0.00048695017778093,0.0004869501717726,-0.00048695017736314,0.0004869501742655,-3.9258821699357e-12,-2.9768925138595e-12,-0.00048350502994152,0.00048350502089053,-1.479524125083e-12,-5.4021639749517e-12,-0.00050293793020698,0.00050293792348041,-0.00050293793317044,0.00050293792376596,-0.00050293793148864,0.00050293792540688,-0.00050293793441541,0.00050293792565605,-0.00048695017971427,0.00048695017198499,-0.00048695017956786,0.00048695016998954,0.73992840791513,125301,3014,0.0020125762791956,0.0020125762791929,0.0020125762791822,33.607449931172,0.00018405959944937,0.00018405959944937,0.00018405959944937,1835524.243265,0.0060560101121615
5419200,0.55102009206955,0.0087234502188292,0.0029078167396154,0.0029078167396125,0.0029078167396013,-0.00071634267699533,0.00071634267217665,-1.1964565373094e-12,-2.1465055433761e-12,-9.4140457897161e-13,-2.2984738126145e-12,-0.00076014266613086,0.00076014266263226,-0.00076014266744914,0.00076014266331206,-0.00076014266757076,0.00076014266314298,-0.00076014266888511,0.00076014266380933,-0.00072534783474486,0.00072534783151091,-0.00072534783587644,0.00072534783077912,-2.0604584299838e-12,-9.1452367773822e-13,-3.1026439328098e-12,-5.2987686323447e-14,-0.0007163426769022,0.00071634267226871,-0.00076014266714398,0.00076014266160897,-0.00076014266711378,0.00076014266362743,-0.00076014266775018,0.00076014266296594,-0.00076014266771561,0.00076014266498933,-0.00072534783620675,0.00072534783008912,-0.00072534783339211,0.00072534783323563,-0.00072534783490835,0.00072534783142921,-0.00072534783390395,0.00072534783270892,-2.2040236685898e-12,-1.2540494837667e-12,-0.00071634267705391,0.00071634267211303,-1.5761480262303e-13,-3.2491662990234e-12,-0.00076014266617705,0.00076014266251426,-0.00076014266825377,0.00076014266248383,-0.00076014266686654,0.00076014266384653,-0.00076014266891408,0.00076014266378716,-0.00072534783531992,0.00072534783137343,-0.00072534783606913,0.00072534783026702,0.72499638738019,125301,3014,0.0029803252675234,0.0029803252675212,0.0029803252675129,36.27905408625,0.00020543243269,0.00020543243269,0.00020543243269,2565894.0831858,0.0089811298060991
6419200,0.70714583235864,0.010628938110513,0.0035429793701743,0.0035429793701725,0.0035429793701658,-0.00085176757781964,0.00085176757426944,-8.0678964724773e-13,-1.7574303117103e-12,-5.902125576468e-13,-1.9250183096591e-12,-0.00092564334539552,0.00092564334302809,-0.00092564334644155,0.00092564334343565,-0.00092564334658407,0.0009256433432991,-0.00092564334763835,0.00092564334370475,-0.00086145855542057,0.00086145855309257,-0.00086145855651415,0.00086145855232275,-1.5390242193904e-12,-3.5130741853481e-13,-2.3732068627513e-12,3.4393445334414e-13,-0.00085176757755068,0.00085176757453794,-0.00092564334615517,0.00092564334222063,-0.00092564334600851,0.00092564334388103,-0.00092564334651779,0.00092564334334837,-0.00092564334636635,0.00092564334501405,-0.00086145855651917,0.00086145855198666,-0.00086145855403971,0.00086145855481734,-0.00086145855548017,0.00086145855306587,-0.00086145855445098,0.00086145855439369,-1.8952360136054e-12,-9.4466849396713e-13,-0.00085176757796131,0.00085176757412585,-5.8312880346239e-14,-2.7852858820164e-12,-0.00092564334559795,0.0009256433427785,-0.00092564334727629,0.00092564334260748,-0.00092564334601424,0.00092564334383798,-0.00092564334768121,0.00092564334365567,-0.00086145855598006,0.00086145855289747,-0.00086145855675249,0.00086145855181444,0.59839168540088,125301,3014,0.0035427914212242,0.0035427914212233,0.0035427914212202,36.740630764926,0.0002091250461194,0.0002091250461194,0.0002091250461194,2883608.460396,0.010685199564267
7419200,0.83240993652029,0.011956248357484,0.0039854161191637,0.0039854161191624,0.0039854161191579,-0.00094439095181072,0.00094439094792523,-8.9222586075946e-13,-1.8432441607444e-12,-6.9830182912316e-13,-1.9947841048325e-12,-0.0010444635739118,0.0010444635714002,-0.0010444635749202,0.0010444635717701,-0.0010444635750529,0.001044463571651,-0.0010444635760693,0.0010444635720191,-0.00095444333108034,0.00095444332853401,-0.00095444333214966,0.00095444332773942,-1.6796358612438e-12,-5.1747234782498e-13,-2.4183940691698e-12,9.1127169080202e-14,-0.00094439095160623,0.00094439094812959,-0.0010444635746913,0.0010444635705756,-0.0010444635745761,0.0010444635721282,-0.001044463575027,0.0010444635716593,-0.0010444635749071,0.001044463573217,-0.00095444333215146,0.00095444332745635,-0.00095444332985071,0.00095444333005723,-0.00095444333123409,0.00095444332840691,-0.00095444333020802,0.00095444332969069,-1.9207255878576e-12,-9.6977869745589e-13,-0.0009443909518921,0.00094439094784354,-1.8936090633076e-13,-2.7053862346605e-12,-0.0010444635740883,0.0010444635711873,-0.0010444635756535,0.0010444635710472,-0.0010444635744647,0.0010444635722067,-0.0010444635760217,0.0010444635720584,-0.00095444333152506,0.00095444332840299,-0.00095444333232085,0.00095444332734267,0.52694121020036,125301,3014,0.0039273261990308,0.0039273261990305,0.0039273261990301,40.779745460726,0.00024143796368581,0.00024143796368581,0.00024143796368581,3026046.1072697,0.011851887207605
8419200,0.90796492504209,0.012669959235124,0.0042233197450432,0.0042233197450422,0.0042233197450386,-0.00098144718491015,0.00098144718254933,-3.8879994595795e-13,-1.3399627415286e-12,-2.2546042116243e-13,-1.4802304858571e-12,-0.001100642574436,0.0011006425731353,-0.0011006425752443,0.0011006425733051,-0.0011006425753754,0.0011006425732051,-0.0011006425761931,0.0011006425733746,-0.00099301116053771,0.00099301115913714,-0.00099301116156486,0.00099301115830011,-1.1913715543823e-12,-4.351638016328e-14,-1.7445265055451e-12,4.0027669208836e-13,-0.00098144718471793,0.0009814471827416,-0.0011006425751532,0.0011006425723685,-0.0011006425749693,0.001100642573601,-0.0011006425753057,0.0011006425732521,-0.0011006425751171,0.0011006425744897,-0.0009930111614481,0.000993011158212,-0.00099301115946872,0.00099301116042262,-0.00099301116076244,0.00099301115892357,-0.00099301115972589,0.00099301116016056,-1.3873812635136e-12,-4.3628917166529e-13,-0.00098144718496162,0.00098144718249841,1.5159550121444e-13,-1.9912718444826e-12,-0.0011006425746481,0.0011006425729005,-0.001100642575884,0.0011006425726836,-0.0011006425748219,0.0011006425737172,-0.0011006425760546,0.0011006425734972,-0.00099301116085275,0.00099301115904934,-0.00099301116168802,0.00099301115802817,0.47156008474719,125301,3014,0.0040811546182868,0.0040811546182869,0.004081154618288,41.436352882143,0.00024669082305714,0.00024669082305714,0.00024669082305714,3002830.3076936,0.012319025749957
9419200,0.94978148634614,0.013010619088038,0.0043368730293476,0.0043368730293466,0.0043368730293435,-0.00099094039615166,0.00099094039456917,-1.2269663405499e-13,-1.0738551944609e-12,2.4023413160042e-14,-1.2081446361283e-12,-0.0011228073116342,0.0011228073109753,-0.0011228073123285,0.0011228073110313,-0.0011228073124585,0.0011228073109413,-0.0011228073131627,0.0011228073109974,-0.0010038476904697,0.0010038476896676,-0.0010038476914775,0.0010038476888113,-9.336863575544e-13,2.0708078963285e-13,-1.3344344347712e-12,5.1009640685207e-13,-0.00099094039596583,0.00099094039475515,-0.0011228073123014,0.0011228073102575,-0.001122807312107,0.0011228073112763,-0.0011228073123484,0.001122807311027,-0.0011228073121493,0.0011228073120509,-0.0010038476912431,0.0010038476888768,-0.0010038476895403,0.001003847690777,-0.0010038476907502,0.0010038476893899,-0.0010038476897105,0.0010038476906056,-1.1002443882892e-12,-1.4915635514044e-13,-0.00099094039618223,0.00099094039453965,2.8472000788155e-13,-1.5545240544749e-12,-0.0011228073118783,0.0011228073107165,-0.0011228073128961,0.0011228073104855,-0.0011228073119364,0.0011228073114175,-0.0011228073129539,0.0011228073111863,-0.0010038476906965,0.0010038476896286,-0.0010038476915493,0.0010038476886249,0.40621133923259,125301,3014,0.0041205837143745,0.0041205837143748,0.0041205837143767,41.144138656454,0.00024435310925163,0.00024435310925163,0.00024435310925163,2927326.6931203,0.012438834209284
10419200,0.97069078596446,0.013195017231438,0.0043983390771476,0.0043983390771467,0.0043983390771437,-0.00098932951563254,0.00098932951565877,4.203654816525e-13,-5.3075640340326e-13,5.4460477446268e-13,-6.6270162256739e-13,-0.0011276376624575,0.0011276376631055,-0.001127637662939,0.0011276376629487,-0.0011276376630736,0.0011276376628712,-0.0011276376635663,0.0011276376627158,-0.0010036116910883,0.0010036116915112,-0.0010036116920743,0.0010036116906332,-4.0616934269578e-13,7.3799579480858e-13,-5.8333618039923e-13,8.3820486957699e-13,-0.00098932951545029,0.0009893295158412,-0.0011276376630495,0.0011276376624575,-0.0011276376627931,0.0011276376631243,-0.0011276376628956,0.0011276376630199,-0.0011276376626346,0.0011276376636918,-0.0010036116916585,0.0010036116909158,-0.0010036116903545,0.0010036116923894,-0.0010036116914468,0.0010036116911405,-0.0010036116904003,0.0010036116923472,-5.2727198043823e-13,4.2377828915828e-13,-0.00098932951563327,0.00098932951565934,6.3628032677866e-13,-7.7190097777851e-13,-0.0011276376627496,0.0011276376628106,-0.001127637663407,0.0011276376625096,-0.0011276376625927,0.0011276376632965,-0.0011276376632544,0.0011276376629998,-0.0010036116911942,0.0010036116915486,-0.0010036116920655,0.0010036116905636,0.43665130715676,125301,3014,0.0041139196983767,0.0041139196983771,0.0041139196983794,38.086342966102,0.00021989074372881,0.00021989074372881,0.00021989074372881,2888995.053575,0.012418625147797
11419200,0.98277314472547,0.013293809382258,0.0044312697940876,0.0044312697940867,0.0044312697940838,-0.0009866473458909,0.00098664734479142,4.5676398735019e-14,-9.0539654663934e-13,1.7954883843564e-13,-1.0323879024347e-12,-0.0011322316367423,0.0011322316364641,-0.0011322316373654,0.0011322316364489,-0.0011322316374913,0.001132231636366,-0.0011322316381235,0.0011322316363502,-0.0010022187731167,0.0010022187726966,-0.0010022187741057,0.0010022187718217,-7.6803796056585e-13,3.6037462683193e-13,-8.6203249638131e-13,3.6338267803316e-13,-0.00098664734571085,0.00098664734497169,-0.0011322316373103,0.0011322316358503,-0.0011322316372447,0.00113223163659,-0.0011322316372914,0.001132231636544,-0.0011322316372212,0.0011322316372888,-0.0010022187736,0.0010022187722009,-0.0010022187724804,0.0010022187734702,-0.0010022187735019,0.0010022187723088,-0.0010022187724606,0.0010022187734959,-8.9735876277636e-13,5.3644390612455e-14,-0.00098664734588702,0.0009866473447968,1.8330090028332e-13,-1.0409537142845e-12,-0.0011322316370556,0.0011322316361414,-0.0011322316377955,0.0011322316360413,-0.0011322316370406,0.0011322316367691,-0.0011322316377815,0.0011322316366701,-0.0010022187731908,0.0010022187727728,-0.0010022187740609,0.0010022187717867,0.40445605707229,125301,3014,0.0041028158522691,0.0041028158522696,0.0041028158522722,37.625922124859,0.00021620737699887,0.00021620737699887,0.00021620737699887,2807380.852571,0.012384948302297
12419200,0.98970281927899,0.013357653786864,0.0044525512622895,0.0044525512622886,0.0044525512622858,-0.00098491419626564,0.00098491419543256,1.3322369481345e-13,-8.1781786916665e-13,2.6215422666244e-13,-9.4335531349566e-13,-0.0011332910470452,0.0011332910469821,-0.0011332910476301,0.0011332910469288,-0.0011332910477561,0.0011332910468486,-0.0011332910483501,0.0011332910467946,-0.0010012193953989,0.0010012193951811,-0.0010012193963839,0.0010012193943022,-6.8286552148106e-13,4.443626842162e-13,-6.9449032148122e-13,3.6876701773876e-13,-0.00098491419608675,0.00098491419561171,-0.0011332910475861,0.0011332910463956,-0.0011332910475365,0.001133291047043,-0.0011332910475314,0.0011332910470512,-0.0011332910474772,0.0011332910477036,-0.0010012193958052,0.0010012193947625,-0.0010012193948402,0.0010012193958686,-0.0010012193958124,0.0010012193947623,-0.0010012193947711,0.0010012193959457,-7.9945984175649e-13,1.5151140084247e-13,-0.00098491419625147,0.00098491419544835,2.0004735927873e-13,-8.6191780135575e-13,-0.0011332910473765,0.0011332910466441,-0.0011332910480233,0.0011332910465592,-0.0011332910473226,0.0011332910472329,-0.0011332910479712,0.0011332910471499,-0.0010012193954324,0.0010012193952896,-0.0010012193963059,0.0010012193943069,0.45322610794666,125301,3014,0.0040956334539175,0.0040956334539181,0.0040956334539209,36.800418769779,0.00020960335015823,0.00020960335015823,0.00020960335015823,2780774.7483181,0.012363148671214
13419200,0.99357261566142,0.013390287189794,0.0044634290632663,0.0044634290632654,0.0044634290632626,-0.00097744907847227,0.00097744907837468,3.7968687141494e-13,-5.7128513586654e-13,5.019714445287e-13,-6.9684653534609e-13,-0.0011305807989708,0.0011305807994633,-0.0011305807994677,0.001130580799322,-0.0011305807995959,0.0011305807992449,-0.0011305808001022,0.0011305807991034,-0.00099460941458885,0.00099460941493353,-0.00099460941555686,0.00099460941403779,-4.415160082551e-13,6.8754657680638e-13,-3.4799755871125e-13,5.1378132983856e-13,-0.00097744907829419,0.00097744907855304,-0.0011305807994769,0.0011305807989102,-0.0011305807994091,0.0011305807994028,-0.0011305807993379,0.0011305807994795,-0.0011305807992655,0.0011305807999772,-0.00099460941489723,0.00099460941461076,-0.00099460941411417,0.00099460941550534,-0.0009946094150377,0.00099460941447467,-0.00099460941398406,0.00099460941564534,-5.4779955921714e-13,4.03102391381e-13,-0.0009774490784529,0.00097744907839577,3.4815727579892e-13,-5.1016290016771e-13,-0.001130580799333,0.0011305807990981,-0.0011305807998227,0.0011305807989926,-0.0011305807991904,0.0011305807995982,-0.0011305807996834,0.0011305807994961,-0.00099460941456681,0.00099460941506337,-0.00099460941545628,0.00099460941409676,0.4150894025916,125301,3014,0.0040646740860307,0.0040646740860312,0.0040646740860342,34.785275961958,0.00019348220769566,0.00019348220769566,0.00019348220769566,2723188.6503444,0.012269162359031
14419200,0.99580742186803,0.013407706321674,0.0044692354405596,0.0044692354405587,0.0044692354405559,-0.00097240081152501,0.00097240081152423,4.0883624562745e-13,-5.4208949836146e-13,5.2806647087297e-13,-6.6682339370893e-13,-0.0011260181563726,0.001126018156958,-0.0011260181568511,0.0011260181567983,-0.0011260181569792,0.0011260181567229,-0.0011260181574668,0.0011260181565627,-0.00098977844634921,0.00098977844676242,-0.00098977844732298,0.00098977844587253,-4.1390447461432e-13,7.1489104476048e-13,-2.1871785600346e-13,4.4180860323426e-13,-0.00097240081134747,0.00097240081170205,-0.0011260181568459,0.0011260181564389,-0.001126018156825,0.0011260181568457,-0.0011260181566897,0.0011260181569898,-0.0011260181566642,0.0011260181574016,-0.00098977844656082,0.00098977844653796,-0.00098977844597945,0.00098977844723935,-0.00098977844683224,0.00098977844626723,-0.00098977844578652,0.00098977844744477,-5.0317083435875e-13,4.4768523528807e-13,-0.00097240081149023,0.00097240081156079,2.9391183001887e-13,-3.6449623253736e-13,-0.0011260181567539,0.0011260181565757,-0.001126018157158,0.0011260181565175,-0.0011260181565922,0.0011260181570567,-0.0011260181570002,0.0011260181570023,-0.00098977844628489,0.00098977844694635,-0.00098977844716788,0.00098977844597334,0.38312450045663,125301,3014,0.0040437255963546,0.0040437255963552,0.0040437255963583,32.633969296473,0.00017627175437179,0.00017627175437179,0.00017627175437179,2722724.1283654,0.012205546015295
15419200,0.99697056247282,0.013419851571413,0.0044732838571394,0.0044732838571385,0.0044732838571357,-0.00096115538074649,0.00096115538256609,1.0157616750604e-12,6.4930634060759e-14,1.1166484165691e-12,-6.2378579671327e-14,-0.0011151413970682,0.0011151413991058,-0.0011151413973162,0.0011151413987157,-0.0011151413974528,0.0011151413986496,-0.0011151413977116,0.0011151413982607,-0.00097875046517112,0.00097875046696125,-0.00097875046612869,0.00097875046605533,1.7573956616315e-13,1.3173938905504e-12,5.496376629908e-13,8.865689832515e-13,-0.00096115538056937,0.00096115538274349,-0.0011151413974812,0.0011151413986396,-0.0011151413973503,0.0011151413987104,-0.0011151413971047,0.0011151413989693,-0.0011151413969692,0.0011151413990451,-0.00097875046522119,0.0009787504668883,-0.00097875046494866,0.00097875046726889,-0.00097875046571551,0.00097875046638968,-0.00097875046466022,0.00097875046757322,1.2608720694591e-13,1.0768477500992e-12,-0.00096115538068945,0.00096115538262492,7.4901145644944e-13,4.2406072170663e-13,-0.00111514139749,0.0011151413986942,-0.001115141397549,0.0011151413985165,-0.0011151413970961,0.0011151413989429,-0.0011151413971635,0.0011151413987736,-0.00097875046501386,0.00097875046720485,-0.00097875046590985,0.000978750466245,0.51103778709309,125301,3014,0.0039970587718202,0.0039970587718208,0.0039970587718239,27.044461057015,0.00013155568845612,0.00013155568845612,0.00013155568845612,2735301.7073741,0.012063848964399
16419200,0.99771797943562,0.013426938029368,0.0044756460097908,0.00447564600979,0.0044756460097871,-0.00094984478481073,0.00094984478519168,5.3731752649487e-13,-4.1341792918957e-13,6.5494675653204e-13,-5.3774710160694e-13,-0.0011099929680206,0.0011099929688583,-0.0011099929684613,0.001109992968661,-0.0011099929685891,0.0011099929685855,-0.0011099929690383,0.001109992968387,-0.00096846960432723,0.0009684696050379,-0.00096846960528571,0.00096846960413316,-2.8585685533225e-13,8.4136422153292e-13,1.3304295584961e-13,3.4609144041382e-13,-0.00094984478463382,0.0009498447853689,-0.0011099929684222,0.0011099929684144,-0.0011099929685073,0.0011099929686333,-0.0011099929682284,0.0011099929689259,-0.0011099929683089,0.0011099929691499,-0.00096846960432254,0.00096846960503393,-0.00096846960416079,0.00096846960527703,-0.0009684696048836,0.00096846960446798,-0.00096846960382591,0.00096846960562849,-3.6265436233464e-13,5.8801162488378e-13,-0.00094984478476386,0.00094984478524043,2.1550747521809e-13,6.0639323980865e-16,-0.0011099929684646,0.0011099929684146,-0.001109992968683,0.0011099929684648,-0.0011099929682644,0.0011099929688569,-0.0011099929684868,0.0011099929689112,-0.00096846960416223,0.00096846960529224,-0.00096846960506006,0.0009684696043345,0.46538451425637,125301,3014,0.0039501446776867,0.0039501446776874,0.0039501446776906,24.406322707108,0.00011045058165687,0.00011045058165687,0.00011045058165687,2653503.2290219,0.011921472529166
17419200,0.99822001977452,0.013432333843887,0.0044774446146306,0.0044774446146297,0.0044774446146269,-0.0009441804142355,0.00094418041450707,4.9599267129377e-13,-4.5471337352445e-13,6.1226686919684e-13,-5.7857173679529e-13,-0.0011035557974554,0.001103555798237,-0.0011035557978997,0.0011035557980434,-0.0011035557980273,0.0011035557979687,-0.0011035557984799,0.0011035557977736,-0.00096289289989254,0.00096289290051245,-0.00096289290086229,0.00096289289961899,-3.2801476461652e-13,7.9953887610675e-13,1.3553318538143e-13,2.6050918483324e-13,-0.00094418041405883,0.00094418041468405,-0.0011035557978431,0.001103555797808,-0.0011035557979595,0.0011035557980009,-0.0011035557976532,0.0011035557983233,-0.0011035557977651,0.0011035557985212,-0.00096289289984584,0.00096289290055209,-0.00096289289978034,0.00096289290071824,-0.00096289290046431,0.00096289289992609,-0.00096289289941787,0.00096289290109913,-3.9092061646704e-13,5.5971545990043e-13,-0.00094418041417569,0.0009441804145688,1.4495564523395e-13,1.681370694103e-14,-0.0011035557979018,0.001103555797792,-0.0011035557980946,0.0011035557978741,-0.0011035557977048,0.0011035557982375,-0.0011035557979018,0.0011035557983239,-0.00096289289971174,0.00096289290080528,-0.0009628929005978,0.00096289289983577,0.52521873377382,125301,3014,0.0039266309923459,0.0039266309923465,0.0039266309923499,21.969289883362,9.0954319066894e-05,9.0954319066894e-05,9.0954319066894e-05,2667303.4338854,0.011850078913291
18419200,0.998531926232,0.013435552436184,0.0044785174787296,0.0044785174787287,0.0044785174787259,-0.00093139333679041,0.00093139333822221,8.8105037863336e-13,-6.9559404419707e-14,9.8839093768825e-13,-1.9519843388066e-13,-0.0010939729217823,0.0010939729234476,-0.0010939729220871,0.0010939729231145,-0.0010939729222195,0.001093972923044,-0.0010939729225335,0.0010939729227103,-0.00095069634516859,0.00095069634666908,-0.00095069634612145,0.00095069634575889,4.7992955435931e-14,1.1824546856446e-12,6.1093672049373e-13,5.5493599007241e-13,-0.00093139333661399,0.00093139333839896,-0.0010939729221366,0.001093972923048,-0.0010939729221808,0.0010939729230422,-0.0010939729218125,0.0010939729234283,-0.001093972921852,0.0010939729234275,-0.00095069634503123,0.00095069634679374,-0.00095069634513051,0.00095069634677263,-0.00095069634577398,0.00095069634604167,-0.00095069634471402,0.00095069634720867,-2.8437072443427e-15,9.4769584266018e-13,-0.00093139333672764,0.00093139333828694,4.3560198677596e-13,4.9389797057955e-13,-0.0010939729222604,0.0010939729229764,-0.0010939729222498,0.0010939729229812,-0.0010939729219231,0.0010939729232816,-0.001093972921919,0.0010939729232929,-0.00095069634493718,0.00095069634697833,-0.00095069634583841,0.00095069634602419,0.50516361584657,125301,3014,0.0038735726695162,0.0038735726695169,0.0038735726695203,17.466071138348,5.4928569106787e-05,5.4928569106787e-05,5.4928569106787e-05,2630570.333949,0.011689058594657
19419200,0.99879039069566,0.013439015346447,0.0044796717821507,0.0044796717821498,0.004479671782147,-0.00093045167540326,0.00093045167441641,7.8131495489386e-14,-8.7247361123595e-13,2.0592881195733e-13,-9.9371059870567e-13,-0.001092903654406,0.0010929036541977,-0.0010929036550074,0.0010929036541612,-0.0010929036551282,0.0010929036540804,-0.0010929036557361,0.0010929036540406,-0.00094987197846098,0.0009498719781311,-0.00094987197944616,0.00094987197725325,-7.3416164476322e-13,3.8310687723023e-13,-2.3153383902441e-13,-2.0899329293168e-13,-0.00093045167522711,0.00093045167459289,-0.0010929036547838,0.0010929036537868,-0.0010929036550777,0.0010929036541002,-0.0010929036547438,0.0010929036544517,-0.0010929036550331,0.00109290365477,-0.00094987197836918,0.00094987197822688,-0.00094987197841071,0.00094987197829486,-0.00094987197904447,0.00094987197754243,-0.00094987197801061,0.00094987197871465,-8.0715151854575e-13,1.4338370796144e-13,-0.00093045167534192,0.00093045167447975,-3.0917933419533e-13,-3.4553107661573e-13,-0.001092903654862,0.0010929036537366,-0.0010929036551836,0.0010929036540049,-0.0010929036548226,0.0010929036543396,-0.0010929036551453,0.0010929036546091,-0.00094987197827873,0.00094987197845743,-0.00094987197915094,0.00094987197747427,0.65325215552177,125301,3014,0.0038696627532333,0.003869662753234,0.0038696627532375,17.551719729885,5.5613757839082e-05,5.5613757839082e-05,5.5613757839082e-05,2626233.8521794,0.011677186530772
20419200,0.9990153561802,0.013442243229149,0.0044807477430513,0.0044807477430504,0.0044807477430476,-0.00092602954181868,0.00092602954037641,-6.9410585436613e-14,-1.019947517774e-12,6.3883445463416e-14,-1.1402694008466e-12,-0.0010942088514899,0.0010942088509033,-0.0010942088521525,0.001094208850928,-0.0010942088522708,0.0010942088508445,-0.0010942088529397,0.0010942088508658,-0.00094636652009459,0.00094636651942864,-0.00094636652107251,0.00094636651854367,-8.7637529259373e-13,2.3624166717041e-13,-4.4147681649512e-13,-2.9424933619496e-13,-0.0009260295416427,0.00092602954055274,-0.00109420885189,0.0010942088504716,-0.0010942088522011,0.0010942088508876,-0.0010942088519084,0.0010942088511947,-0.0010942088522149,0.0010942088516158,-0.0009463665200645,0.00094636651946447,-0.00094636651997544,0.00094636651964498,-0.00094636652065502,0.00094636651886823,-0.00094636651961251,0.00094636652002502,-9.7644469969645e-13,-2.5977294646774e-14,-0.00092602954177914,0.00092602954041804,-4.1408865869925e-13,-5.7675538051903e-13,-0.0010942088519438,0.0010942088504406,-0.0010942088523698,0.0010942088507285,-0.0010942088519665,0.0010942088511057,-0.0010942088523923,0.0010942088513934,-0.00094636651994756,0.00094636651970544,-0.00094636652082797,0.00094636651873058,0.70012779305903,125301,3014,0.0038513339555356,0.0038513339555363,0.0038513339555399,18.600074111449,6.4000592891592e-05,6.4000592891592e-05,6.4000592891592e-05,2533949.4826368,0.011621610634579
21419200,0.99916830232748,0.013444282801823,0.0044814276006092,0.0044814276006083,0.0044814276006055,-0.00091482516674708,0.00091482516776768,7.3895242551064e-13,-2.1148624512273e-13,8.5081200827717e-13,-3.3570402388427e-13,-0.0010851847259676,0.0010851847272819,-0.0010851847263234,0.0010851847269998,-0.001085184726453,0.0010851847269268,-0.0010851847268174,0.0010851847266438,-0.00093571555463562,0.00093571555582616,-0.00093571555559093,0.00093571555491876,-8.9376131092283e-14,1.0401364598392e-12,4.2407469646353e-13,4.5656635738696e-13,-0.00091482516657139,0.00091482516794374,-0.001085184726339,0.0010851847268677,-0.001085184726401,0.0010851847269416,-0.0010851847260632,0.0010851847272955,-0.0010851847261207,0.0010851847273744,-0.00093571555454379,0.00093571555590853,-0.00093571555455658,0.00093571555597301,-0.00093571555522482,0.00093571555522003,-0.00093571555416624,0.00093571555638112,-1.6124672108218e-13,7.8912106936359e-13,-0.00091482516670091,0.00091482516781601,3.2464652344803e-13,2.918584515717e-13,-0.0010851847264448,0.0010851847268087,-0.0010851847265164,0.0010851847268341,-0.0010851847261592,0.0010851847271654,-0.0010851847262359,0.0010851847271959,-0.00093571555443852,0.00093571555610678,-0.00093571555533789,0.00093571555515106,0.64990944923706,125301,3014,0.0038048356883497,0.0038048356883505,0.0038048356883542,15.216724427038,3.6933795416305e-05,3.6933795416305e-05,3.6933795416305e-05,2503342.3871018,0.011480517371679
22419200,0.99929497859039,0.013446017230879,0.0044820057436279,0.004482005743627,0.0044820057436242,-0.00091341950690962,0.00091341950627889,1.9258285202018e-13,-7.5785384808515e-13,3.1702355044227e-13,-8.7914331924565e-13,-0.0010824734465066,0.0010824734465706,-0.0010824734470603,0.0010824734464865,-0.0010824734471824,0.0010824734464074,-0.0010824734477431,0.0010824734463206,-0.00093427704940412,0.00093427704934118,-0.00093427705038847,0.00093427704846284,-6.2293303364465e-13,4.956859472081e-13,-1.3828849551006e-13,-7.4709273892754e-14,-0.00091341950673436,0.00091341950645453,-0.0010824734468901,0.0010824734461522,-0.0010824734471262,0.0010824734464322,-0.0010824734468045,0.0010824734467706,-0.0010824734470359,0.0010824734470555,-0.00093427704933239,0.00093427704941414,-0.00093427704933515,0.00093427704952492,-0.00093427704998291,0.00093427704875541,-0.00093427704894974,0.00093427704992923,-7.0251871500607e-13,2.4784798723765e-13,-0.00091341950685843,0.00091341950633228,-1.8751250691575e-13,-2.6218254932662e-13,-0.0010824734469671,0.0010824734461067,-0.0010824734472532,0.001082473446315,-0.0010824734468802,0.0010824734466621,-0.001082473447168,0.0010824734468722,-0.00093427704923782,0.00093427704965006,-0.00093427705011001,0.0009342770486672,0.66642562144511,125301,3014,0.0037989934095746,0.0037989934095754,0.0037989934095792,14.857990882398,3.4063927059187e-05,3.4063927059187e-05,3.4063927059187e-05,2513168.7519252,0.011462772627942
23419200,0.99940748980762,0.01344746879078,0.0044824895969283,0.0044824895969274,0.0044824895969246,-0.00091321368343785,0.00091321368216094,-1.9082446456124e-14,-9.6950129416566e-13,1.1126411566352e-13,-1.0893517945798e-12,-0.0010832983315855,0.0010832983311416,-0.001083298332221,0.0010832983311394,-0.0010832983323398,0.0010832983310575,-0.0010832983329818,0.001083298331052,-0.0009342670630393,0.00093426706249256,-0.00093426706402498,0.0009342670616156,-8.2857655034811e-13,2.8464087794598e-13,-4.0414610076477e-13,-2.3281752809444e-13,-0.00091321368326293,0.00091321368233625,-0.0010832983319893,0.0010832983307055,-0.001083298332267,0.0010832983311025,-0.0010832983319821,0.0010832983314022,-0.0010832983322553,0.0010832983318042,-0.00093426706302218,0.00093426706251445,-0.000934267062918,0.00093426706272778,-0.00093426706359773,0.00093426706193252,-0.00093426706256438,0.00093426706309898,-9.2231776500186e-13,2.8031231900401e-14,-0.00091321368339487,0.00091321368220615,-3.4931554923799e-13,-5.3499437687726e-13,-0.0010832983320331,0.001083298330687,-0.0010832983324391,0.0010832983309401,-0.0010832983320285,0.0010832983313248,-0.0010832983324349,0.0010832983315782,-0.00093426706290082,0.00093426706277662,-0.00093426706377264,0.00093426706179343,0.62875729639221,125301,3014,0.0037981434944686,0.0037981434944694,0.0037981434944732,15.707951103075,4.0863608824596e-05,4.0863608824596e-05,4.0863608824596e-05,2488322.6429349,0.011460203082759
24419200,0.99951371625299,0.013448915180241,0.0044829717267485,0.0044829717267476,0.0044829717267448,-0.00091748138135248,0.00091748137933728,-2.6435171835411e-13,-1.2148047120793e-12,-1.2785194715195e-13,-1.3330786724204e-12,-0.0010867085344354,0.0010867085334161,-0.0010867085351616,0.0010867085335045,-0.0010867085352768,0.0010867085334197,-0.0010867085360088,0.0010867085335042,-0.00093848063425658,0.00093848063315057,-0.0009384806352493,0.00093848063228057,-1.0674381761984e-12,4.0118678813666e-14,-7.2223070748735e-13,-4.0586388238699e-13,-0.00091748138117783,0.00091748137951231,-0.0010867085348656,0.0010867085329561,-0.0010867085351812,0.0010867085334912,-0.0010867085349457,0.0010867085337399,-0.0010867085352567,0.0010867085342801,-0.00093848063431245,0.00093848063310316,-0.00093848063407026,0.00093848063346107,-0.00093848063478843,0.00093848063262254,-0.00093848063376048,0.00093848063378724,-1.1727671727679e-12,-2.2238397102822e-13,-0.00091748138131475,0.00091748137937726,-5.2266432708123e-13,-8.5704237676722e-13,-0.0010867085348607,0.0010867085329798,-0.0010867085354082,0.001086708533274,-0.0010867085349475,0.0010867085337088,-0.0010867085354936,0.0010867085340017,-0.00093848063415493,0.00093848063341222,-0.0009384806350208,0.000938480632423,0.66255127740754,125301,3014,0.0038158534967377,0.0038158534967384,0.0038158534967423,17.887330804721,5.8298646437769e-05,5.8298646437769e-05,5.8298646437769e-05,2488420.6522676,0.011513933693642
25419200,0.99961055446415,0.013450469324233,0.0044834897747459,0.004483489774745,0.0044834897747422,-0.00091952838986068,0.00091952838793202,-2.3422493282438e-13,-1.1847008376144e-12,-9.8297467668072e-14,-1.3030288404222e-12,-0.0010904073015425,0.0010904073005876,-0.0010904073022585,0.0010904073006659,-0.0010904073023743,0.0010904073005816,-0.0010904073030965,0.0010904073006564,-0.00094077265495826,0.00094077265392028,-0.0009407726559468,0.00094077265304617,-1.0379114983698e-12,6.9873025353509e-14,-7.4911555345317e-13,-3.1896781087066e-13,-0.00091952838968618,0.00091952838810691,-0.0010904073019905,0.0010904073001084,-0.0010904073022607,0.0010904073006718,-0.0010904073020611,0.0010904073008826,-0.0010904073023268,0.0010904073014511,-0.00094077265506912,0.00094077265381577,-0.00094077265471306,0.0009407726542835,-0.00094077265547183,0.00094077265341075,-0.00094077265444001,0.00094077265457153,-1.1528645748962e-12,-2.0245843268091e-13,-0.00091952838983318,0.00091952838796179,-4.4858404606531e-13,-8.945467604458e-13,-0.0010904073019592,0.00109040730016,-0.0010904073025336,0.0010904073004075,-0.0010904073020361,0.0010904073008792,-0.0010904073026093,0.0010904073011256,-0.00094077265488124,0.00094077265414891,-0.00094077265575133,0.00094077265316396,0.77991302017261,125301,3014,0.0038243577481832,0.003824357748184,0.0038243577481879,19.931984403906,7.4655875231249e-05,7.4655875231249e-05,7.4655875231249e-05,2453888.4671192,0.011539755884133
26419200,0.99968993523606,0.013451824881479,0.0044839416271612,0.0044839416271603,0.0044839416271575,-0.00091536783302882,0.00091536783201759,7.1036359299749e-14,-8.7937692975607e-13,1.9964041582822e-13,-9.992222979741e-13,-0.001090464389817,0.0010904643895649,-0.0010904643904219,0.001090464389532,-0.0010904643905418,0.0010904643894513,-0.0010904643911539,0.0010904643894161,-0.00093728920178473,0.00093728920144527,-0.00093728920275973,0.00093728920055764,-7.4007245299034e-13,3.7353716774005e-13,-4.5180660938292e-13,-5.7814408843962e-15,-0.0009153678328544,0.00091536783219241,-0.0010904643902637,0.0010904643890822,-0.0010904643904257,0.0010904643895412,-0.0010904643902277,0.0010904643897494,-0.0010904643903851,0.0010904643902135,-0.00093728920190075,0.0009372892013289,-0.00093728920152082,0.00093728920180663,-0.00093728920229891,0.0009372892009295,-0.00093728920125576,0.00093728920208553,-8.5545389588245e-13,9.4889365900889e-14,-0.00091536783300922,0.00091536783203952,-1.5151750359721e-13,-6.0677318408397e-13,-0.0010904643902425,0.0010904643891326,-0.0010904643907074,0.0010904643892667,-0.001090464390208,0.0010904643897404,-0.0010904643906736,0.0010904643898752,-0.00093728920170358,0.00093728920165012,-0.00093728920258609,0.00093728920067761,0.82922923068302,125301,3014,0.0038071075874684,0.0038071075874692,0.0038071075874733,20.395380521171,7.8363044169366e-05,7.8363044169366e-05,7.8363044169366e-05,2385912.0340866,0.011487447184183
27419200,0.99975917560047,0.013452890718031,0.0044842969060117,0.0044842969060108,0.004484296906008,-0.00091550549617849,0.00091550549438683,-1.8786802546666e-13,-1.1382839320896e-12,-5.2781137572478e-14,-1.2567913264759e-12,-0.0010923292364728,0.0010923292356174,-0.0010923292371721,0.0010923292356789,-0.0010923292372884,0.0010923292355951,-0.0010923292379942,0.0010923292356534,-0.00093778981944928,0.00093778981851698,-0.00093778982043263,0.00093778981763767,-9.9258467199213e-13,1.1565601274408e-13,-7.4875756806585e-13,-2.2693857927432e-13,-0.00091550549600426,0.00091550549456148,-0.0010923292369352,0.0010923292351225,-0.0010923292371605,0.0010923292357002,-0.0010923292369897,0.0010923292358804,-0.0010923292372104,0.0010923292364631,-0.00093778981960432,0.00093778981836601,-0.00093778981915502,0.00093778981892088,-0.00093778981994833,0.0009377898180217,-0.00093778981891158,0.00093778981917763,-1.1191656337875e-12,-1.6881834271551e-13,-0.00091550549616374,0.00091550549440398,-3.7169070392766e-13,-9.0722940241156e-13,-0.0010923292368873,0.0010923292351925,-0.0010923292374745,0.0010923292353938,-0.0010923292369476,0.001092329235895,-0.0010923292375339,0.0010923292360955,-0.00093778981939453,0.00093778981871267,-0.00093778982026972,0.0009377898177328,0.74718867332314,125301,3014,0.0038076856536856,0.0038076856536865,0.0038076856536906,22.257776055599,9.3262208444795e-05,9.3262208444795e-05,9.3262208444795e-05,2346413.902869,0.011489211864419
28419200,0.99981607408436,0.013453889095111,0.0044846296983717,0.0044846296983708,0.004484629698368,-0.00091847668167279,0.00091847668025066,-6.9183121797236e-14,-1.0196310862643e-12,6.1559913504546e-14,-1.138392561124e-12,-0.0010929946807585,0.0010929946802027,-0.0010929946814075,0.001092994680214,-0.0010929946815256,0.0010929946801325,-0.0010929946821816,0.001092994680141,-0.00094055706132659,0.00094055706066851,-0.00094055706231371,0.00094055705979291,-8.7792988452068e-13,2.3310198735018e-13,-6.4901948585977e-13,-9.0059204750357e-14,-0.0009184766814989,0.00091847668042497,-0.0010929946812251,0.0010929946797013,-0.0010929946813919,0.0010929946802415,-0.0010929946812319,0.0010929946804111,-0.0010929946813941,0.0010929946809563,-0.00094055706149937,0.00094055706049696,-0.00094055706101966,0.00094055706109558,-0.00094055706182182,0.000940557060174,-0.00094055706079001,0.00094055706133859,-9.9619677275476e-13,-4.5818747327544e-14,-0.00091847668165386,0.00091847668027201,-2.33866546714e-13,-8.0354896683652e-13,-0.0010929946811647,0.0010929946797886,-0.0010929946817121,0.0010929946799286,-0.0010929946811744,0.0010929946804406,-0.0010929946817219,0.0010929946805807,-0.00094055706127736,0.00094055706086605,-0.0009405570621481,0.00094055705988168,0.8493285419621,125301,3014,0.0038200059066496,0.0038200059066505,0.0038200059066546,23.444957875208,0.00010275966300166,0.00010275966300166,0.00010275966300166,2368195.9630522,0.01152657232319
29419200,0.99986230569834,0.013454467666276,0.0044848225554269,0.004484822555426,0.0044848225554232,-0.00091717511619724,0.0009171751147155,-8.5911022536057e-14,-1.0362987241383e-12,4.6138561086865e-14,-1.1548687489642e-12,-0.0010952120756634,0.0010952120750502,-0.0010952120763229,0.0010952120750721,-0.0010952120764405,0.00109521207499,-0.0010952120771071,0.0010952120750092,-0.00093972635290619,0.0009397263522081,-0.00093972635388779,0.00093972635132711,-8.9340112509147e-13,2.1624221563992e-13,-6.8234079696071e-13,-9.0411445712983e-14,-0.00091717511602352,0.00091717511488964,-0.0010952120761358,0.0010952120745432,-0.0010952120763019,0.0010952120751051,-0.0010952120761526,0.0010952120752628,-0.0010952120763141,0.0010952120758297,-0.0009397263530952,0.00093972635202022,-0.00093972635257776,0.0009397263526456,-0.00093972635339522,0.0009397263517209,-0.00093972635235805,0.00093972635287768,-1.0211228053992e-12,-7.0805278123827e-14,-0.00091717511618654,0.00091717511472865,-2.4232986169495e-13,-8.4500387688807e-13,-0.0010952120760714,0.0010952120746333,-0.0010952120766407,0.0010952120747731,-0.0010952120760921,0.0010952120752962,-0.0010952120766611,0.0010952120754358,-0.000939726352865,0.00093972635238647,-0.00093972635374142,0.00093972635140792,0.60881578646039,125301,3014,0.0038146202814611,0.003814620281462,0.0038146202814662,24.784377771065,0.00011347502216852,0.00011347502216852,0.00011347502216852,2306834.7408658,0.011510263959308
30419200,0.9998990797471,0.013454857603028,0.0044849525343443,0.0044849525343434,0.0044849525343406,-0.00092581756432119,0.00092581756277607,-1.1394210738213e-13,-1.064425953106e-12,1.6200593318289e-14,-1.1823781438652e-12,-0.0010964101293804,0.0010964101287462,-0.001096410130039,0.001096410128767,-0.0010964101301564,0.0010964101286861,-0.0010964101308219,0.0010964101287042,-0.00094751856121792,0.00094751856045962,-0.00094751856221555,0.00094751855959446,-9.2267437419615e-13,1.8750984707053e-13,-7.2611592887004e-13,-1.0362183439537e-13,-0.00092581756414783,0.00092581756294985,-0.0010964101298576,0.0010964101282341,-0.001096410130013,0.0010964101288049,-0.0010964101298741,0.0010964101289532,-0.001096410130025,0.0010964101295291,-0.00094751856142289,0.0009475185602561,-0.00094751856089123,0.0009475185609273,-0.00094751856170333,0.00094751855997496,-0.00094751856068236,0.0009475185611496,-1.0351127309578e-12,-8.4699530134553e-14,-0.00092581756429654,0.00092581756280313,-2.4089583197416e-13,-8.7416583895132e-13,-0.0010964101297703,0.0010964101283484,-0.0010964101303484,0.0010964101284769,-0.0010964101297896,0.00109641012901,-0.0010964101303677,0.0010964101291384,-0.00094751856118431,0.00094751856066266,-0.00094751856204455,0.00094751855966771,0.51512748248588,125301,3014,0.0038504564656474,0.0038504564656483,0.0038504564656524,26.135131493841,0.00012428105195073,0.00012428105195073,0.00012428105195073,2408185.7152845,0.011618942397301
31419200,0.99992885098978,0.013455265475809,0.004485088491938,0.0044850884919371,0.0044850884919343,-0.00093417082583973,0.00093417082373236,-2.9969749150618e-13,-1.2502586878082e-12,-1.6399828408264e-13,-1.3668782133971e-12,-0.0011024677569505,0.0011024677558642,-0.0011024677576823,0.0011024677559582,-0.0011024677577966,0.0011024677558746,-0.0011024677585348,0.0011024677559653,-0.00095534526830514,0.00095534526712336,-0.0009553452693046,0.00095534526625991,-1.102593849287e-12,2.3084515372137e-15,-9.5536008416624e-13,-2.464725046713e-13,-0.00093417082566659,0.00093417082390592,-0.0011024677574441,0.001102467755338,-0.0011024677576399,0.0011024677560101,-0.0011024677575309,0.001102467756127,-0.0011024677577221,0.0011024677568041,-0.00095534526855407,0.00095534526687894,-0.00095534526793718,0.0009553452676328,-0.00095534526877349,0.00095534526666048,-0.00095534526775356,0.00095534526782879,-1.2251393963618e-12,-2.746484332083e-13,-0.0009341708258193,0.00093417082375515,-3.8366051472875e-13,-1.1066237963438e-12,-0.0011024677573271,0.001102467755476,-0.0011024677580095,0.0011024677556477,-0.0011024677574202,0.0011024677562114,-0.0011024677581011,0.0011024677563816,-0.0009553452682923,0.00095534526730962,-0.00095534526915172,0.00095534526631376,0.66479676253864,125301,3014,0.00388511816037,0.0038851181603708,0.0038851181603749,28.446526103021,0.00014277220882417,0.00014277220882417,0.00014277220882417,2437532.9089219,0.011724126499154
32419200,0.99995059396533,0.013455616486787,0.0044852054955972,0.0044852054955964,0.0044852054955936,-0.00093119325620573,0.00093119325497149,-2.243725573371e-15,-9.527405120784e-13,1.269912822682e-13,-1.0712778761374e-12,-0.0011054125473907,0.0011054125469786,-0.0011054125480203,0.0011054125469703,-0.0011054125481388,0.0011054125468898,-0.0011054125487758,0.0011054125468794,-0.00095309218652589,0.00095309218601647,-0.00095309218750776,0.00095309218513554,-8.1205652047061e-13,2.9872329332609e-13,-6.5136952114501e-13,4.5085932685576e-14,-0.00093119325603234,0.00093119325514529,-0.0011054125478786,0.0011054125464537,-0.0011054125479839,0.0011054125470209,-0.0011054125478671,0.0011054125471446,-0.0011054125479678,0.0011054125477169,-0.00095309218676557,0.0009530921857748,-0.00095309218614847,0.00095309218650666,-0.00095309218699902,0.00095309218554359,-0.00095309218596348,0.00095309218670294,-9.393940374511e-13,1.103375116177e-14,-0.00093119325619693,0.00093119325498269,-1.1225501186291e-13,-8.1630172430736e-13,-0.0011054125477843,0.0011054125465772,-0.0011054125483568,0.0011054125466538,-0.0011054125477748,0.0011054125472101,-0.0011054125483477,0.001105412547287,-0.00095309218650387,0.00095309218617597,-0.00095309218737992,0.00095309218519682,0.7835582016357,125301,3014,0.0038727884806411,0.0038727884806419,0.0038727884806461,29.298459220336,0.00014958767376269,0.00014958767376269,0.00014958767376269,2349508.8334665,0.011686762915418
33419200,0.99996570417859,0.013455869083856,0.0044852896946201,0.0044852896946192,0.0044852896946164,-0.00092621128840173,0.00092621128768169,1.673835041959e-13,-7.8305128420313e-13,2.9278315861666e-13,-9.0251689931647e-13,-0.0011044780383758,0.0011044780383489,-0.0011044780389437,0.0011044780382791,-0.0011044780390645,0.0011044780382003,-0.0011044780396404,0.0011044780381288,-0.00094879141454106,0.00094879141442233,-0.0009487914155144,0.000948791413533,-6.4628718976268e-13,4.6776911990095e-13,-4.5735755239734e-13,1.908298930489e-13,-0.00092621128822818,0.00092621128785567,-0.0011044780388539,0.001104478037832,-0.001104478038917,0.0011044780383221,-0.0011044780387831,0.0011044780384633,-0.0011044780388417,0.0011044780389584,-0.00094879141475567,0.00094879141420288,-0.00094879141417949,0.00094879141488236,-0.00094879141502366,0.00094879141393686,-0.00094879141398078,0.00094879141509255,-7.7169439585416e-13,1.7867042409413e-13,-0.00092621128839489,0.00092621128769099,2.7869060384041e-14,-6.2519462132171e-13,-0.0011044780387814,0.001104478037938,-0.0011044780392745,0.0011044780379701,-0.0011044780387101,0.0011044780385089,-0.0011044780392045,0.0011044780385424,-0.00094879141450404,0.00094879141457954,-0.00094879141538786,0.00094879141360831,0.80945760226261,125301,3014,0.003852128876567,0.0038521288765679,0.0038521288765721,29.317385110633,0.00014973908088506,0.00014973908088506,0.00014973908088506,2288184.4321112,0.011624095161823
34419200,0.99997714244504,0.013456042556491,0.004485347518832,0.0044853475188311,0.0044853475188283,-0.00092797625813451,0.00092797625616463,-2.4774469627547e-13,-1.1981892490821e-12,-1.1190953712281e-13,-1.3155754424262e-12,-0.0011070933205079,0.0011070933195151,-0.0011070933212268,0.0011070933195962,-0.001107093321342,0.0011070933195124,-0.0011070933220676,0.0011070933195905,-0.00095075516386214,0.00095075516279398,-0.00095075516484795,0.00095075516191706,-1.0510172845205e-12,5.4564347802512e-14,-8.9996142085885e-13,-1.9688260276019e-13,-0.00092797625796104,0.00092797625633854,-0.0011070933210002,0.0011070933189897,-0.0011070933211859,0.0011070933196475,-0.0011070933210742,0.0011070933197662,-0.0011070933212553,0.001107093320429,-0.00095075516410671,0.00095075516255241,-0.00095075516348309,0.00095075516328846,-0.00095075516433125,0.00095075516233049,-0.00095075516329768,0.00095075516348547,-1.1893979882373e-12,-2.3902299212931e-13,-0.0009279762581303,0.00092797625617136,-3.5241866032243e-13,-1.0683422452307e-12,-0.0011070933209017,0.0011070933191098,-0.0011070933215688,0.0011070933192712,-0.0011070933209821,0.0011070933198325,-0.0011070933216478,0.0011070933199927,-0.00095075516385051,0.0009507551629518,-0.00095075516472338,0.00095075516196953,0.73398852679868,125301,3014,0.0038594568813178,0.0038594568813187,0.0038594568813231,31.490035645427,0.00016712028516341,0.00016712028516341,0.00016712028516341,2262209.6706321,0.011646336933435
35419200,0.99998611421667,0.01345616293988,0.0044853876466283,0.0044853876466274,0.0044853876466246,-0.00093784032625548,0.00093784032290456,-7.0623821902484e-13,-1.6567647105048e-12,-5.5817183058666e-13,-1.7714955584973e-12,-0.0011146418367543,0.0011146418346771,-0.0011146418376444,0.0011146418349294,-0.0011146418377531,0.0011146418348396,-0.0011146418386485,0.0011146418350877,-0.00096032007987846,0.00096032007776454,-0.00096032008087272,0.00096032007689596,-1.4972030106428e-12,-4.0190378645344e-13,-1.4453413844158e-12,-5.6917901850891e-13,-0.00093784032608227,0.00093784032307821,-0.0011146418372805,0.0011146418341236,-0.0011146418375698,0.0011146418350086,-0.0011146418375189,0.0011146418350645,-0.0011146418378035,0.0011146418359544,-0.00096032008021166,0.00096032007744288,-0.00096032007942027,0.00096032007834672,-0.00096032008031363,0.00096032007734525,-0.00096032007928489,0.00096032007849219,-1.6537956835594e-12,-7.033386899564e-13,-0.00093784032625719,0.00093784032290538,-7.2000471023269e-13,-1.6172220655642e-12,-0.0011146418371189,0.0011146418342935,-0.0011146418380201,0.0011146418345655,-0.0011146418373717,0.0011146418351885,-0.0011146418382683,0.001114641835456,-0.00096032007991097,0.0009603200778958,-0.00096032008077755,0.00096032007690716,0.64952121200817,125301,3014,0.0039003855682797,0.0039003855682806,0.0039003855682849,35.945825109658,0.00020276660087726,0.00020276660087726,0.00020276660087726,2275594.6849045,0.011770535319967
36419200,0.99999185387027,0.013456243773219,0.0044854145910745,0.0044854145910736,0.0044854145910708,-0.0009429747964623,0.00094297479481375,-1.4451990854541e-13,-1.0950993395845e-12,-1.2664539577597e-14,-1.2125003412998e-12,-0.0011174933590717,0.0011174933583417,-0.0011174933597463,0.0011174933583784,-0.0011174933598631,0.001117493358297,-0.0011174933605451,0.0011174933583315,-0.00096512359138017,0.00096512359055183,-0.00096512359236763,0.00096512358967635,-9.5154287509577e-13,1.565309037501e-13,-8.8624467123805e-13,-5.4099084614788e-15,-0.00094297479628933,0.00094297479498716,-0.0011174933595908,0.0011174933577861,-0.001117493359679,0.0011174933584595,-0.0011174933596231,0.0011174933585205,-0.0011174933597068,0.0011174933591989,-0.00096512359171117,0.00096512359021989,-0.00096512359091812,0.00096512359113654,-0.00096512359182232,0.0009651235901131,-0.00096512359079088,0.00096512359127357,-1.0890117314391e-12,-1.3850206297469e-13,-0.00094297479646094,0.00094297479481761,-1.6865575944702e-13,-1.0577750974616e-12,-0.0011174933594405,0.0011174933579634,-0.0011174933601202,0.0011174933580236,-0.0011174933594766,0.0011174933586418,-0.0011174933601558,0.0011174933587016,-0.00096512359140182,0.0009651235906788,-0.00096512359227287,0.00096512358969452,0.6811981079479,125301,3014,0.0039216848470475,0.0039216848470484,0.0039216848470527,37.486239723577,0.00021508991778861,0.00021508991778861,0.00021508991778861,2302005.6245677,0.011835167183819
37419200,0.99999524261246,0.013456289605848,0.0044854298686174,0.0044854298686165,0.0044854298686137,-0.00094218353198114,0.0009421835311407,1.2543507980912e-13,-8.2512682235373e-13,2.5024439932302e-13,-9.4394947181512e-13,-0.0011182899210542,0.0011182899209583,-0.0011182899216299,0.0011182899208962,-0.0011182899217504,0.0011182899208182,-0.0011182899223343,0.0011182899207547,-0.00096450559847674,0.00096450559826103,-0.00096450559946005,0.00096450559738142,-6.8861904901207e-13,4.2494006616679e-13,-5.7551270524661e-13,2.2373939558485e-13,-0.0009421835318082,0.00094218353131407,-0.0011182899215567,0.0011182899204157,-0.0011182899215793,0.0011182899209642,-0.0011182899214941,0.0011182899210551,-0.0011182899215122,0.0011182899216086,-0.00096450559876574,0.0009645055979658,-0.00096450559805258,0.00096450559880479,-0.00096450559893542,0.00096450559779976,-0.00096450559790247,0.00096450559896516,-8.1708230340238e-13,1.3340989500752e-13,-0.00094218353197778,0.00094218353114656,5.6303603492973e-14,-7.4635312589491e-13,-0.001118289921438,0.001118289920569,-0.0011182899219886,0.0011182899205596,-0.0011182899213747,0.0011182899211481,-0.0011182899219267,0.00111828992114,-0.0009645055984781,0.00096450559839964,-0.00096450559935213,0.00096450559741837,0.65495763090949,125301,3014,0.0039184089347054,0.0039184089347063,0.0039184089347106,37.681166276907,0.00021664933021526,0.00021664933021526,0.00021664933021526,2277444.7497423,0.01182524057178
38419200,0.99999719022561,0.013456318977284,0.0044854396590962,0.0044854396590954,0.0044854396590926,-0.00094127833873133,0.00094127833829009,2.5729881616837e-13,-6.9325799791462e-13,3.7806196517236e-13,-8.1271403979101e-13,-0.0011170859515595,0.0011170859517828,-0.0011170859520844,0.0011170859516699,-0.0011170859522068,0.0011170859515939,-0.0011170859527402,0.0011170859514799,-0.00096360965707972,0.00096360965716472,-0.00096360965806287,0.00096360965628495,-5.6070713143804e-13,5.5597541790615e-13,-3.9442914485375e-13,3.062925539332e-13,-0.00094127833855844,0.00094127833846342,-0.0011170859520444,0.0011170859512564,-0.0011170859520514,0.0011170859517217,-0.0011170859519332,0.0011170859518471,-0.0011170859519356,0.0011170859523174,-0.00096360965731986,0.00096360965691656,-0.00096360965670448,0.00096360965766111,-0.00096360965755656,0.00096360965668196,-0.0009636096565246,0.00096360965785237,-6.7837083506017e-13,2.7211618703727e-13,-0.00094127833872114,0.00094127833830281,1.4348442547282e-13,-5.5881484035492e-13,-0.0011170859519549,0.0011170859513845,-0.0011170859524205,0.0011170859513575,-0.0011170859518404,0.0011170859519122,-0.0011170859523083,0.0011170859518877,-0.00096360965705761,0.00096360965732635,-0.00096360965793111,0.00096360965634455,0.72891346290552,125301,3014,0.0039146504426202,0.0039146504426211,0.0039146504426254,37.194176560433,0.00021275341248346,0.00021275341248346,0.00021275341248346,2282970.4689724,0.01181382809712
38880000,0.99999787040937,0.013456329464793,0.0044854431549326,0.0044854431549317,0.004485443154929,-0.00093890911023767,0.00093890910953611,1.7193277698345e-13,-7.7858744998197e-13,2.9601730981556e-13,-8.9761663725141e-13,-0.0011171766822431,0.0011171766822455,-0.0011171766828043,0.0011171766821688,-0.001117176682925,0.0011171766820909,-0.0011171766834941,0.0011171766820126,-0.00096156495738467,0.00096156495727554,-0.00096156495836468,0.00096156495639271,-6.4276659912956e-13,4.7122369083677e-13,-4.5016572247045e-13,1.9154855698575e-13,-0.0009389091100647,0.00093890910970953,-0.0011171766827202,0.0011171766817293,-0.0011171766827791,0.0011171766822105,-0.0011171766826432,0.0011171766823541,-0.0011171766826976,0.0011171766828402,-0.00096156495759689,0.00096156495705816,-0.00096156495703384,0.00096156495773825,-0.00096156495786932,0.00096156495678727,-0.00096156495683376,0.00096156495795015,-7.6466166952265e-13,1.8578876545722e-13,-0.00093890911022836,0.00093890910954795,3.1399158424322e-14,-6.1491286189299e-13,-0.0011171766826477,0.0011171766818362,-0.0011171766831315,0.0011171766818637,-0.0011171766825695,0.0011171766824003,-0.0011171766830548,0.0011171766824293,-0.00096156495735085,0.00096156495744283,-0.00096156495822793,0.00096156495646467,0.74537476942469,125301,3014,0.0039048291763972,0.0039048291763981,0.0039048291764024,37.193611324069,0.00021274889059255,0.00021274889059255,0.00021274889059255,2246448.0372382,0.011784040472641
