time,ASR_ext,ASR_strain,ASR_strain_xx,ASR_strain_yy,ASR_strain_zz,disp_x_101,disp_x_102,disp_x_103,disp_x_104,disp_x_105,disp_x_106,disp_x_p1_neg,disp_x_p1_pos,disp_x_p2_neg,disp_x_p2_pos,disp_x_p3_neg,disp_x_p3_pos,disp_x_p4_neg,disp_x_p4_pos,disp_x_p5_neg,disp_x_p5_pos,disp_x_p6_neg,disp_x_p6_pos,disp_y_101,disp_y_102,disp_y_103,disp_y_104,disp_y_105,disp_y_106,disp_y_p1_neg,disp_y_p1_pos,disp_y_p2_neg,disp_y_p2_pos,disp_y_p3_neg,disp_y_p3_pos,disp_y_p4_neg,disp_y_p4_pos,disp_y_p5_neg,disp_y_p5_pos,disp_y_p6_neg,disp_y_p6_pos,disp_y_p7_neg,disp_y_p7_pos,disp_y_p8_neg,disp_y_p8_pos,disp_z_101,disp_z_102,disp_z_103,disp_z_104,disp_z_105,disp_z_106,disp_z_p1_neg,disp_z_p1_pos,disp_z_p2_neg,disp_z_p2_pos,disp_z_p3_neg,disp_z_p3_pos,disp_z_p4_neg,disp_z_p4_pos,disp_z_p5_neg,disp_z_p5_pos,disp_z_p6_neg,disp_z_p6_pos,humidity,ndof,nelem,strain_xx,strain_yy,strain_zz,temp,thermal_strain_xx,thermal_strain_yy,thermal_strain_zz,vonmises,vstrain
2419200,0,0,0,0,0,0,0,0,0,0,0,0,0,0,0,0,0,0,0,0,0,0,0,0,0,0,0,0,0,0,0,0,0,0,0,0,0,0,0,0,0,0,0,0,0,0,0,0,0,0,0,0,0,0,0,0,0,0,0,0,0,0,0,0,0,0,0,0,0,0,0,0,0,0,0
2919200,0.076434434552463,0.0015963594949857,0.0005321198316619,0.0005321198316619,0.0005321198316619,-0.00016643704592455,0.00016642654666105,-3.8600760675905e-09,-3.8600760431354e-09,-3.7509351244993e-09,-3.843471896002e-09,-0.00016620731703635,0.00016619877887775,-0.0001662081491605,0.0001661996110025,-0.00016620809172137,0.00016619955127577,-0.00016620890889549,0.00016620036845288,-0.00016881161002217,0.00016880326202993,-0.00016881255769746,0.00016880420970237,-3.7509340026942e-09,-3.8434715832275e-09,-4.0416422235627e-09,-3.6785078063815e-09,-0.00016643704592125,0.00016642654666203,-0.00016620742873972,0.00016619873139998,-0.00016620803744298,0.00016619965849568,-0.00016620819596084,0.00016619949631259,-0.00016620880467055,0.00016620042341731,-0.00016881182105901,0.00016880312729226,-0.00016881234664855,0.0001688043444487,-0.00016881150460685,0.00016880344726604,-0.00016881242897183,0.00016880426000023,-3.9052079471955e-09,-3.9052079343944e-09,-0.00016643709112483,0.00016642650145985,-3.6195973488885e-09,-4.0703418150354e-09,-0.00016620724883172,0.00016619878036728,-0.0001662082487345,0.00016619946084518,-0.00016620808901779,0.00016619962055157,-0.00016620905797904,0.00016620027010134,-0.00016881267561812,0.0001688041067334,-0.00016881174595072,0.00016880317706178,0.83502648770561,125301,3014,0.00069322471529068,0.00069322471528584,0.00069322471528876,32.411067524255,0.00017448854019404,0.00017448854019404,0.00017448854019404,792994.0062285,0.0020818398467115
3419200,0.15575022884276,0.003121767493453,0.0010405891644879,0.0010405891644904,0.0010405891644747,-0.00028359068563511,0.00028358416809466,-2.0229515768209e-09,-2.0229001297308e-09,-1.9825268718782e-09,-2.0191279593283e-09,-0.00028823239318094,0.00028822785868251,-0.00028823345029413,0.00028822891607954,-0.00028823346801371,0.00028822890628425,-0.00028823451984367,0.00028822995840107,-0.00028709999899387,0.00028709525745159,-0.00028710209824013,0.00028709735697113,-1.9825285016613e-09,-2.0191313636439e-09,-1.6828570620345e-09,-2.3630017585568e-09,-0.00028359068563668,0.00028358416809411,-0.00028823227889195,0.00028822797703199,-0.00028823356458346,0.00028822879774811,-0.00028823335119468,0.00028822902208467,-0.00028823463668609,0.00028822984260057,-0.00028709968023707,0.00028709559610465,-0.00028710241699868,0.00028709701831713,-0.00028710009356369,0.00028709517260939,-0.00028710220141247,0.00028709724063519,-1.9122542892529e-09,-1.9122028697502e-09,-0.00028359057489179,0.0002835842788325,-2.2041759208136e-09,-1.5665349776156e-09,-0.0002882324025472,0.00028822785287166,-0.0002882332407766,0.00028822913077413,-0.00028823346047127,0.00028822891107395,-0.00028823429096786,0.00028823018126308,-0.00028710187969732,0.00028709758393581,-0.00028709979000741,0.00028709549395879,0.77960726241633,125301,3014,0.0011809159911568,0.0011809159911589,0.0011809159911454,31.910911354132,0.00017048729083305,0.00017048729083305,0.00017048729083305,1079854.8420976,0.0035490347075834
3919200,0.2427775566362,0.0046972501825904,0.0015657500608654,0.0015657500608673,0.0015657500608577,-0.00040632841301962,0.00040632364411362,-1.4297549386298e-09,-1.4297223081708e-09,-1.4418594888956e-09,-1.4320378265215e-09,-0.00041975418456615,0.00041975083630202,-0.00041975493374842,0.00041975158572042,-0.00041975494490924,0.00041975161128719,-0.0004197556980742,0.00041975236469028,-0.00041056261267947,0.00041055909372689,-0.00041056384857865,0.00041056032980634,-1.4418613428163e-09,-1.4320412913081e-09,-1.0467628549476e-09,-1.8127203593947e-09,-0.00040632841302139,0.00040632364411325,-0.00041975404865909,0.00041975095696172,-0.00041975506964624,0.00041975146508321,-0.00041975481110283,0.0004197517340231,-0.00041975583190796,0.0004197522419555,-0.0004105622266795,0.00041055946229324,-0.00041056423457374,0.00041055996123939,-0.00041056276180453,0.00041055891238024,-0.00041056399750221,0.00041056020826651,-1.3037663510094e-09,-1.3037337762398e-09,-0.00040632828680237,0.00040632377032866,-1.6843366592521e-09,-9.210188741012e-10,-0.00041975420092365,0.00041975084508414,-0.00041975468369979,0.00041975184973049,-0.00041975494451863,0.00041975158890191,-0.00041975544007143,0.00041975260635749,-0.00041056359797422,0.00041056058445153,-0.00041056235204567,0.00041055933834201,0.74640349119053,125301,3014,0.0016915937162421,0.001691593716245,0.0016915937162375,32.496471004082,0.00017517176803266,0.00017517176803266,0.00017517176803266,1544837.7430913,0.0050876892791895
4419200,0.33801778209059,0.0063914481568319,0.0021304827189436,0.002130482718947,0.0021304827189413,-0.00053864747370256,0.00053864484715352,-5.8342936622158e-10,-5.8339999570706e-10,-6.3139640042043e-10,-5.8557195764924e-10,-0.00056319185025682,0.00056319049355754,-0.00056319235923949,0.00056319100277599,-0.00056319237380174,0.00056319104719813,-0.00056319288880129,0.00056319156243886,-0.00054468912156043,0.00054468730254528,-0.00054469010605984,0.00054468828721386,-6.3139698596852e-10,-5.8557447734708e-10,4.7040345583923e-11,-1.21387391561e-09,-0.000538647473703,0.00053864484715401,-0.0005631916245959,0.00056319069483662,-0.00056319258488817,0.0005631908015176,-0.00056319215125363,0.00056319125156852,-0.0005631931113761,0.00056319135807108,-0.00054468848855201,0.00054468790654282,-0.00054469073906915,0.00054468768321561,-0.00054468937994733,0.00054468699290439,-0.00054469035078611,0.00054468808650552,-4.2411192414243e-10,-4.2408261324374e-10,-0.00053864731470604,0.00053864500615008,-1.0791727774536e-09,2.0681525858287e-10,-0.00056319192752586,0.00056319045503556,-0.00056319199102563,0.0005631913942756,-0.00056319242877788,0.00056319095651216,-0.00056319251070356,0.00056319191421243,-0.00054468973820332,0.00054468865566116,-0.00054468873698669,0.00054468765426563,0.74424082049435,125301,3014,0.0022418465930416,0.0022418465930435,0.0022418465930417,33.59828487088,0.00018398627896704,0.00018398627896704,0.00018398627896704,1996099.4910785,0.0067482307850263
4919200,0.44137976787523,0.0082145809924605,0.0027381936641526,0.0027381936641551,0.0027381936641528,-0.0006808337052907,0.00068083222104912,-1.1418768820333e-10,-1.1415628425094e-10,-2.0510483883502e-10,-1.212533489993e-10,-0.00071999532799913,0.00071999505550277,-0.0007199956836134,0.00071999541132375,-0.00071999568091771,0.00071999547914604,-0.00071999604686274,0.00071999584530532,-0.00069022529956718,0.00069022445307436,-0.00069022610161351,0.00069022525518983,-2.0510272219363e-10,-1.2125317915523e-10,6.2408975790472e-10,-8.5243200572181e-10,-0.0006808337052883,0.00068083222105188,-0.00071999506537468,0.00071999528787742,-0.00071999594622181,0.00071999517897271,-0.00071999542356485,0.00071999571677236,-0.00071999630423634,0.00071999560768398,-0.00069022454416264,0.00069022514961111,-0.00069022685701459,0.00069022455865826,-0.00069022561873763,0.00069022404563343,-0.00069022641042595,0.00069022502525933,7.5123292505569e-11,7.5154705751798e-11,-0.00068083351623468,0.00068083241010612,-7.2145691945693e-10,8.098103715255e-10,-0.00071999541319228,0.00071999501786385,-0.00071999523506277,0.00071999588297642,-0.00071999575657998,0.00071999536144935,-0.00071999560770296,0.00071999625584529,-0.00069022566508105,0.000690225689027,-0.00069022483574959,0.00069022485961509,0.74696695512676,125301,3014,0.002832797264087,0.0028327972640878,0.0028327972640891,35.3429722163,0.0001979437777304,0.0001979437777304,0.0001979437777304,2441604.3454646,0.0085346585854315
5419200,0.54211640466093,0.009934208049012,0.003311402683003,0.0033114026830038,0.0033114026830052,-0.00081146595159146,0.00081146620639948,5.8827253594254e-10,5.8830486157266e-10,4.5569666707374e-10,5.737922209974e-10,-0.0008689598815167,0.0008689612278716,-0.00086896008882652,0.00086896143540288,-0.00086896008606395,0.00086896152702821,-0.00086896030757381,0.00086896174876607,-0.00082440100598989,0.00082440161641589,-0.00082440171429064,0.000824402324771,4.5569958079065e-10,5.7379437542239e-10,1.5276369180211e-09,-3.510548341011e-10,-0.00081146595158699,0.0008114662064033,-0.00086895954419245,0.00086896152308767,-0.00086896042613118,0.00086896114020997,-0.00086895975594337,0.00086896182943107,-0.00086896063770993,0.00086896144637191,-0.00082440003903727,0.00082440249159693,-0.00082440268123688,0.000824401449597,-0.00082440140903386,0.00082440108269105,-0.00082440212371295,0.0008244020342175,8.0041400990142e-10,8.004463770891e-10,-0.00081146573982604,0.00081146641816701,-2.284754201004e-10,1.7302430082344e-09,-0.00086896002207868,0.00086896115201369,-0.00086895954461813,0.00086896201156364,-0.00086896021301262,0.0008689613431601,-0.00086895977471176,0.00086896224189958,-0.0008244011857883,0.00082440284779089,-0.00082440044318056,0.00082440210511852,0.73229095938568,125301,3014,0.0033754309704066,0.0033754309704052,0.003375430970411,36.272581833054,0.00020538065466444,0.00020538065466444,0.00020538065466444,2800994.3679011,0.010177837673273
5919200,0.63340087792035,0.011268729360946,0.0037562431203141,0.0037562431203139,0.0037562431203183,-0.00090932682136335,0.00090932881769258,1.3107840528587e-09,1.3108169379717e-09,1.1312186000924e-09,1.2881855133315e-09,-0.00098797576050995,0.00098797872436542,-0.00098797579058136,0.00098797875464547,-0.00098797579508322,0.00098797887299767,-0.0009879758442172,0.00098797892234773,-0.00092208062967707,0.00092208272770212,-0.00092208120096283,0.00092208329901583,1.1312219303764e-09,1.2881904535666e-09,2.4906560995707e-09,1.3095303835491e-10,-0.00090932682135708,0.00090932881769808,-0.00098797533132044,0.00098797909523318,-0.00098797621974815,0.00098797838380309,-0.00098797537552885,0.00098797925348497,-0.00098797626378142,0.00098797854187144,-0.00092207941388395,0.00092208382131192,-0.00092208241674427,0.00092208220541628,-0.00092208113824518,0.0009220820468917,-0.00092208172466145,0.00092208293287743,1.5764941826555e-09,1.5765271523247e-09,-0.00090932655594102,0.00090932908311773,2.728693092505e-10,2.7405782878616e-09,-0.00098797594451437,0.00098797862926587,-0.00098797510959844,0.00098797948046468,-0.00098797595255179,0.0009879786375024,-0.00098797516988343,0.00098797954097854,-0.00092208053677033,0.0009220839553395,-0.00092207992185535,0.00092208334038544,0.6360792580923,125301,3014,0.0037817589950355,0.0037817589950339,0.0037817589950414,36.778889352402,0.00020943111481921,0.00020943111481921,0.00020943111481921,3042890.9186388,0.011410033623767
6419200,0.71068747989616,0.012313984023882,0.0041046613412926,0.0041046613412919,0.0041046613412976,-0.00098314704406387,0.00098315075275339,2.0105291633024e-09,2.0105614538159e-09,1.7847684589016e-09,1.9812872580196e-09,-0.0010796029503471,0.0010796075465014,-0.0010796028070605,0.0010796074034239,-0.0010796028186803,0.0010796075475971,-0.0010796026984116,0.0010796074275445,-0.00099536713262799,0.0009953706775319,-0.00099536763905535,0.00099537118398279,1.7847717312199e-09,1.9812942077448e-09,3.5085157562139e-09,5.1258500219489e-10,-0.00098314704405607,0.0009831507527596,-0.0010796024049672,0.0010796080197672,-0.0010796033524148,0.0010796069301839,-0.0010796022849126,0.0010796080324612,-0.0010796032321857,0.0010796069426943,-0.00099536559448731,0.00099537206929266,-0.0009953691771821,0.0009953697922343,-0.0009953677748694,0.000995369825039,-0.00099536829895794,0.00099537071587017,2.3466735263228e-09,2.3467059678906e-09,-0.00098314670824429,0.00098315108857626,6.9421459823526e-10,3.8243360663936e-09,-0.00107960318708,0.0010796074222987,-0.0010796019480639,0.0010796083197566,-0.0010796030161972,0.001079607251615,-0.001079601841325,0.0010796082132463,-0.00099536679728617,0.0009953720155478,-0.00099536623786875,0.0009953714560967,0.59525943091212,125301,3014,0.0040881661495823,0.004088166149579,0.0040881661495892,36.741524590922,0.00020913219672737,0.00020913219672737,0.00020913219672737,3244850.7664411,0.012340222486864
6919200,0.78029151237608,0.013329146860457,0.0044430489534843,0.0044430489534827,0.0044430489534901,-0.001056244026711,0.0010562469121892,1.7396654753551e-09,1.7396973136177e-09,1.5043055181314e-09,1.7108277805915e-09,-0.0011692501597653,0.0011692541745028,-0.0011692500563674,0.0011692540713127,-0.0011692500536628,0.0011692542194301,-0.0011692499722622,0.0011692541382445,-0.0010712233226223,0.0010712262772312,-0.0010712238807949,0.0010712268354187,1.5043090740298e-09,1.7108360702666e-09,3.4145149676602e-09,6.485974797605e-11,-0.0010562440267025,0.0010562469121962,-0.0011692495622394,0.0011692547077359,-0.001169250653866,0.0011692535381065,-0.0011692494672392,0.0011692547637517,-0.0011692505586894,0.001169253593938,-0.001071221612928,0.0010712278456301,-0.0010712255904733,0.0010712252670345,-0.0010712240359201,0.0010712253490112,-0.0010712246016403,0.0010712263087827,2.1073831922724e-09,2.1074151911478e-09,-0.0010562436594307,0.0010562472794733,2.7981704004621e-10,3.7639541917243e-09,-0.0011692504217715,0.0011692540238308,-0.0011692491018429,0.0011692550770865,-0.0011692502883315,0.0011692538905894,-0.0011692490333211,0.001169255008792,-0.00107122295025,0.0010712277565728,-0.0010712223363595,0.0010712271426583,0.64378173705164,125301,3014,0.0043914795308366,0.0043914795308334,0.0043914795308445,38.623702567936,0.00022418962054349,0.00022418962054349,0.00022418962054349,3377062.164542,0.013261879440663
7419200,0.84027009257378,0.014081101081792,0.0046937003605959,0.004693700360594,0.0046937003606022,-0.001104928428809,0.0011049310612237,1.6443423424113e-09,1.6443739877975e-09,1.4061023665085e-09,1.6165909958136e-09,-0.001237464980932,0.0012374687904816,-0.0012374649160849,0.0012374687258419,-0.0012374649037283,0.0012374688729142,-0.0012374648594339,0.0012374688288345,-0.0011209822293847,0.0011209849833078,-0.001120982826346,0.0011209855802791,1.4061060221172e-09,1.6166004633534e-09,3.407973382684e-09,-1.192435627959e-10,-0.0011049284287996,0.0011049310612314,-0.0012374643584145,0.0012374693550615,-0.0012374655385739,0.0012374681612897,-0.0012374642915904,0.0012374694478612,-0.0012374654715728,0.0012374682539037,-0.0011209804360111,0.0011209866423096,-0.001120984619701,0.0011209839212933,-0.0011209829791447,0.0011209840212445,-0.0011209835747533,0.0011209850231039,2.0107955483998e-09,2.0108273706041e-09,-0.0011049280630963,0.0011049314269406,9.8045199462928e-11,3.7580270467357e-09,-0.0012374652715736,0.0012374686078018,-0.0012374639306012,0.0012374697573478,-0.0012374651757573,0.0012374685121842,-0.0012374638980163,0.0012374697249897,-0.0011209818691142,0.0011209865295155,-0.0011209812163338,0.0011209858767159,0.55664260548471,125301,3014,0.0045934704144057,0.0045934704144021,0.0045934704144147,40.762297735266,0.00024129838188213,0.00024129838188213,0.00024129838188213,3387953.8126044,0.013876168358123
7919200,0.88532846016007,0.014594966780604,0.0048649889268663,0.0048649889268643,0.0048649889268731,-0.0011332143090344,0.0011332196084572,2.666158312576e-09,2.66618972144e-09,2.3879902450078e-09,2.6320261128795e-09,-0.0012786449948811,0.0012786511213956,-0.0012786447305385,0.0012786508572609,-0.0012786447320478,0.0012786510241838,-0.0012786444914464,0.0012786507837962,-0.0011495531950789,0.0011495581081733,-0.0011495537149072,0.0011495586280096,2.38799413889e-09,2.6320355502475e-09,4.7054947010695e-09,6.2686657168577e-10,-0.0011332143090251,0.0011332196084649,-0.0012786442679432,0.001278651775641,-0.0012786454574477,0.0012786502030433,-0.001278644017084,0.0012786516903898,-0.0012786452064107,0.0012786501176063,-0.0011495511231254,0.001149560024397,-0.001149555786844,0.0011495567118021,-0.0011495540574922,0.0011495570017428,-0.0011495545819956,0.0011495579812738,3.079637236314e-09,3.0796688217021e-09,-0.0011332138966058,0.0011332200208902,8.637433349399e-10,5.0977202988206e-09,-0.0012786453487698,0.001278650897498,-0.0012786436090255,0.0012786520387059,-0.0012786450493992,0.0012786505983254,-0.0012786433819717,0.0012786518118784,-0.0011495526173356,0.0011495597156149,-0.0011495520348872,0.0011495591331499,0.5070717593097,125301,3014,0.0047108211463189,0.0047108211463155,0.0047108211463279,40.956004974844,0.00024284803979875,0.00024284803979875,0.00024284803979875,3407859.3774172,0.014233219637146
8419200,0.91887991955464,0.014958371337175,0.0049861237790568,0.0049861237790547,0.0049861237790638,-0.0011507363333186,0.0011507417381208,2.7247513219528e-09,2.7247825845859e-09,2.4398353216175e-09,2.6905707679687e-09,-0.0013070485948248,0.0013070548675811,-0.0013070483206369,0.0013070545935996,-0.0013070483183904,0.0013070547621921,-0.0013070480669154,0.001307054510931,-0.0011678707486862,0.0011678757753279,-0.0011678712830411,0.0011678763096881,2.439839322703e-09,2.6905807447963e-09,4.9999126656751e-09,4.4963535797373e-10,-0.0011507363333088,0.0011507417381287,-0.0013070477926531,0.0013070556016003,-0.001307049122779,0.0013070538596081,-0.0013070475276786,0.0013070555076589,-0.0013070488576267,0.0013070537654807,-0.0011678684482795,0.0011678779253747,-0.0011678735834295,0.0011678741596574,-0.0011678716959809,0.0011678745808485,-0.0011678722302414,0.0011678755841587,3.1692733251107e-09,3.1693047710912e-09,-0.0011507358900921,0.001150742181352,7.2073145335471e-10,5.4245956995014e-09,-0.0013070489978679,0.0013070545960911,-0.0013070470901894,0.0013070558823453,-0.0013070486870532,0.0013070542854738,-0.0013070468518468,0.0013070556442278,-0.0011678700776214,0.0011678775062599,-0.0011678694792737,0.0011678769078968,0.48138031764921,125301,3014,0.004783517512348,0.004783517512344,0.0047835175123577,41.432191007641,0.00024665752806113,0.00024665752806113,0.00024665752806113,3381871.5926355,0.014454492955528
8919200,0.94334185135737,0.015195415241056,0.0050651384136837,0.0050651384136815,0.0050651384136909,-0.0011590655090586,0.001159071254884,2.8675654677845e-09,2.8675966233033e-09,2.5764799535119e-09,2.8331485167282e-09,-0.0013246903371255,0.0013246969313378,-0.0013246900389589,0.0013246966333776,-0.0013246900354584,0.0013246968035555,-0.0013246897596052,0.001324696527916,-0.001176899985976,0.0011769053097205,-0.0011769005169268,0.0011769058406759,2.5764840532426e-09,2.8331592081773e-09,5.2832092658996e-09,4.5196763595678e-10,-0.0011590655090484,0.0011590712548924,-0.0013246894888811,0.0013246977128433,-0.0013246908871727,0.0013246958519003,-0.0013246891984742,0.0013246975963092,-0.0013246905965877,0.0013246957351801,-0.0011768975491216,0.0011769075982146,-0.0011769029537623,0.0011769035521994,-0.0011769009852675,0.0011769040609344,-0.0011769015128222,0.0011769050680687,3.3230988035538e-09,3.3231301698897e-09,-0.0011590650550863,0.001159071708861,7.3366651907969e-10,5.7193903548153e-09,-0.0013246907780289,0.0013246966236901,-0.0013246887512488,0.0013246979792117,-0.0013246904422972,0.0013246962881555,-0.0013246884882695,0.0013246977164575,-0.001176899254595,0.0011769070948582,-0.0011768986585554,0.0011769064988038,0.43063171924148,125301,3014,0.004818088943309,0.0048180889433051,0.0048180889433187,41.891214648776,0.00025032971719021,0.00025032971719021,0.00025032971719021,3328314.3460488,0.01455976586214
9419200,0.9600873978679,0.015349311182758,0.0051164370609176,0.0051164370609154,0.0051164370609249,-0.0011614819376265,0.0011614899024599,3.7339282867598e-09,3.7339593434581e-09,3.4110358181678e-09,3.6942674846348e-09,-0.0013327801663602,0.0013327887291218,-0.0013327796936366,0.0013327882566043,-0.0013327797027927,0.0013327884423944,-0.0013327792546748,0.0013327879944901,-0.0011798978801996,0.0011799050289233,-0.00117989835761,0.0011799055063379,3.4110396014855e-09,3.6942786882594e-09,6.4950220030183e-09,9.7288073774951e-10,-0.0011614819376161,0.0011614899024683,-0.00133277919398,0.0013327896242112,-0.0013327806659867,0.001332787361543,-0.0013327787428183,0.0013327893498787,-0.0013327802146468,0.001332787087024,-0.0011798950992296,0.001179907646834,-0.0011799011385605,0.0011799028884455,-0.0011798990099929,0.0011799036235604,-0.0011798994899107,0.0011799046204632,4.2400237841839e-09,4.2400550698752e-09,-0.0011614814332666,0.0011614904068246,1.2861107032597e-09,6.9783731148444e-09,-0.0013327806874403,0.0013327883601509,-0.001332778244175,0.0013327897756936,-0.0013327801734769,0.0013327878463842,-0.0013327778105184,0.0013327893422617,-0.0011798969289328,0.0011799069256604,-0.0011798963806807,0.0011799063773945,0.40723906797413,125301,3014,0.0048281333668839,0.0048281333668798,0.004828133366894,41.151422214062,0.00024441137771249,0.00024441137771249,0.00024441137771249,3297162.2617402,0.014590368777504
9919200,0.97135161764587,0.015452397309857,0.005150799103284,0.0051507991032817,0.0051507991032913,-0.0011603754048547,0.0011603846456651,4.2376125319048e-09,4.2376435399575e-09,3.8980375088945e-09,4.1952214610111e-09,-0.0013364813790205,0.0013364910740471,-0.0013364808086119,0.0013364905038447,-0.001336480823476,0.0013364906967562,-0.0013364802779912,0.001336490151485,-0.0011794934732297,0.001179501681675,-0.0011794939228869,0.0011795021313359,3.8980410201757e-09,4.1952330633552e-09,7.3725508912997e-09,1.1027205980679e-09,-0.0011603754048442,0.0011603846456736,-0.0013364802803752,0.0013364920937329,-0.0013364819072269,0.0013364894841871,-0.0013364797373954,0.0013364917289959,-0.0013364813640687,0.0013364891192636,-0.00117949032539,0.0011795046639858,-0.0011794970707064,0.0011794991490435,-0.0011794947349448,0.001179500130356,-0.0011794951901389,0.0011795011216504,4.7897783242071e-09,4.7898095563706e-09,-0.0011603748544314,0.0011603851960933,1.45778819863e-09,7.9013757328069e-09,-0.0013364819868842,0.0013364906285213,-0.0013364791920727,0.0013364921947563,-0.001336481372494,0.0013364900143277,-0.001336478661647,0.0013364916645552,-0.0011794923242312,0.0011795037206269,-0.0011794918005937,0.0011795031969759,0.40432824355073,125301,3014,0.0048235663258055,0.0048235663258013,0.0048235663258157,39.82857037082,0.00023382856296656,0.00023382856296656,0.00023382856296656,3260666.9780445,0.014576501633173
10419200,0.97892122382556,0.015526070925735,0.0051753569752432,0.0051753569752409,0.0051753569752506,-0.0011571911966824,0.0011572013622712,4.6015563582001e-09,4.6015873206072e-09,4.2517776186123e-09,4.5574146036122e-09,-0.00133753813587,0.0013375486346502,-0.0013375374973969,0.0013375479963832,-0.0013375375155419,0.001337548192803,-0.0013375369016517,0.0013375475791264,-0.0011771169041415,0.0011771258812872,-0.0011771173313912,0.0011771263085405,4.2517809250256e-09,4.5574266570785e-09,8.0934617938686e-09,1.1096974918842e-09,-0.0011571911966718,0.0011572013622798,-0.0013375369190193,0.0013375497737987,-0.0013375387142173,0.0013375468572626,-0.0013375363110855,0.0013375493443354,-0.0013375381061049,0.0013375464276128,-0.0011771134076615,0.0011771292139687,-0.0011771208278503,0.0011771229758778,-0.001177118288515,0.0011771241985799,-0.0011771187234685,0.0011771251801744,5.1909749129267e-09,5.1910061257379e-09,-0.0011571906088958,0.0011572019500626,1.5029639290425e-09,8.65987541078e-09,-0.0013375388305187,0.0013375481088187,-0.0013375357278315,0.0013375498425352,-0.0013375381459313,0.0013375474244281,-0.0013375351292289,0.0013375492441571,-0.0011771155774344,0.0011771280533736,-0.001177115074302,0.0011771275502279,0.42845224819223,125301,3014,0.0048103823379886,0.0048103823379845,0.0048103823379988,38.100565159932,0.00022000452127946,0.00022000452127946,0.00022000452127946,3223938.7253202,0.014536408445011
10919200,0.98447188591368,0.015575992447257,0.0051919974824172,0.0051919974824149,0.0051919974824246,-0.001155252715501,0.0011552603091181,3.6081911904124e-09,3.6082221475255e-09,3.2930316284677e-09,3.5707727882836e-09,-0.0013401661332718,0.0013401743779395,-0.0013401656990144,0.0013401739438886,-0.0013401656978934,0.0013401741203224,-0.0013401652829524,0.0013401737055951,-0.0011759199221314,0.0011759268019517,-0.0011759204129731,0.0011759272927974,3.2930353147084e-09,3.5707850003554e-09,7.2261229106617e-09,-9.6934649158205e-12,-0.0011552527154902,0.001155260309127,-0.00134016489377,0.0013401755631294,-0.0013401669384854,0.0013401727587274,-0.0013401644681528,0.0013401753152628,-0.0013401665126895,0.0013401725106741,-0.0011759163154889,0.0011759302773522,-0.0011759240195943,0.0011759238174158,-0.0011759213326035,0.0011759251227322,-0.0011759218196462,0.0011759261199343,4.1939569670817e-09,4.1939881433646e-09,-0.001155252131217,0.0011552608934068,4.1746223422707e-10,7.7966078343648e-09,-0.0013401668558363,0.0013401738029044,-0.0013401638904965,0.0013401758116901,-0.0013401663774572,0.001340173324722,-0.0013401634881896,0.0013401754096072,-0.0011759186248128,0.001175929075038,-0.0011759180638268,0.0011759285140393,0.39597081456719,125301,3014,0.0048023593694026,0.0048023593693987,0.0048023593694126,37.946309376296,0.00021877047501037,0.00021877047501037,0.00021877047501037,3171877.6268667,0.014512029431634
11419200,0.9885163241271,0.015612337237044,0.0052041124123463,0.005204112412344,0.0052041124123537,-0.0011545471647583,0.0011545550913147,3.7356253733856e-09,3.7356562803237e-09,3.4139480129963e-09,3.6973388812175e-09,-0.0013406743850988,0.0013406829307285,-0.0013406739230042,0.0013406824688401,-0.0013406739237003,0.001340682648199,-0.0013406734809791,0.0013406822056914,-0.0011755373122588,0.0011755444633647,-0.0011755377965985,0.0011755449477078,3.4139513570398e-09,3.6973510102036e-09,7.4609857004003e-09,1.0311607117938e-11,-0.0011545471647476,0.0011545550913233,-0.0013406731094006,0.0013406841517158,-0.0013406751986721,0.0013406812478806,-0.0013406726577915,0.0013406838789656,-0.0013406747468844,0.0013406809749437,-0.0011755336002419,0.0011755480436601,-0.0011755415085946,0.0011755413674313,-0.0011755387619997,0.0011755427396486,-0.0011755392426717,0.001175543739423,4.3417612048226e-09,4.3417923266953e-09,-0.0011545465602203,0.0011545556958577,4.5665924143246e-10,8.0517230477114e-09,-0.0013406751263157,0.0013406823407911,-0.0013406720600229,0.0013406843928549,-0.0013406746190992,0.0013406818337713,-0.0013406716301782,0.0013406839632346,-0.0011755359526928,0.0011755467855792,-0.0011755353968339,0.0011755462297073,0.39457194111806,125301,3014,0.0047994382805403,0.004799438280536,0.0047994382805507,37.628643243824,0.00021622914595059,0.00021622914595059,0.00021622914595059,3163297.3797185,0.014503142253843
11919200,0.9914475155531,0.015640788147346,0.0052135960491137,0.0052135960491114,0.0052135960491211,-0.001152860852155,0.0011528692087968,3.9029456459837e-09,3.9029765412752e-09,3.5770147375375e-09,3.8639395352113e-09,-0.0013411174318531,0.0013411263481167,-0.0013411169377683,0.0013411258542379,-0.0013411169401939,0.0013411260351156,-0.0013411164655645,0.0013411255606997,-0.0011742486179282,0.0011742561237477,-0.0011742490917181,0.0011742565975409,3.5770179940663e-09,3.863951739923e-09,7.7388468039361e-09,6.7091102242728e-11,-0.0011528608521442,0.0011528692088054,-0.0013411161187436,0.0013411276059647,-0.0013411182508474,0.0013411245964177,-0.0013411156369148,0.001341127302784,-0.00134111776884,0.0013411242930502,-0.0011742447974935,0.0011742598118363,-0.001174252912132,0.0011742529094713,-0.0011742501063053,0.0011742543582528,-0.001174250577195,0.001174255352475,4.5146921689003e-09,4.514723265715e-09,-0.0011528602419772,0.0011528698189794,5.178184459431e-10,8.3350284331322e-09,-0.0013411182063548,0.0013411257273345,-0.0013411150332607,0.0013411278210524,-0.0013411176665648,0.0013411251877411,-0.0013411145716258,0.001341127359642,-0.0011742472054947,0.0011742584777935,-0.001174246659494,0.0011742579317797,0.42516298576731,125301,3014,0.0047924560063105,0.0047924560063062,0.0047924560063208,37.105276316406,0.00021204221053125,0.00021204221053125,0.00021204221053125,3139866.4282019,0.014481911043186
12419200,0.99360550285579,0.015662824638568,0.0052209415461877,0.0052209415461854,0.0052209415461951,-0.0011503612932619,0.0011503693224704,3.7767669953608e-09,3.7767978756527e-09,3.4574622849005e-09,3.7390318434085e-09,-0.0013417930407208,0.0013418016568534,-0.0013417925753115,0.0013418011916502,-0.0013417925742433,0.0013418013681809,-0.0013417921272357,0.0013418009213868,-0.0011723135901287,0.0011723208308487,-0.0011723140698712,0.0011723213105944,3.457465552746e-09,3.7390440770678e-09,7.6781496365128e-09,-1.2456925228271e-10,-0.0011503612932512,0.0011503693224789,-0.0013417917094716,0.0013418029373738,-0.0013417939065303,0.0013417999111574,-0.0013417912522978,0.0013418026579947,-0.0013417934491775,0.0013417996315914,-0.0011723097082655,0.0011723245868548,-0.0011723179517138,0.0011723175546073,-0.0011723150971453,0.0011723190530602,-0.0011723155717569,0.0011723200429855,4.3788116448394e-09,4.3788427424776e-09,-0.0011503606926666,0.0011503699230705,3.2364648741021e-10,8.266191403615e-09,-0.0013417938431128,0.0013418010037636,-0.0013417906584063,0.0013418031674945,-0.001341793332523,0.0013418004933704,-0.0013417902238127,0.0013418027331253,-0.0011723121723076,0.0011723232029904,-0.0011723116216752,0.0011723226523448,0.44663644431852,125301,3014,0.0047821057851681,0.0047821057851639,0.0047821057851784,36.802578992356,0.00020962063193885,0.00020962063193885,0.00020962063193885,3099722.0976748,0.01445044251825
12919200,0.99517550376994,0.015677853593336,0.005225951197777,0.0052259511977748,0.0052259511977845,-0.0011469078544146,0.0011469165211115,4.0080639502211e-09,4.0080934195561e-09,3.6819757533152e-09,3.9684919658828e-09,-0.0013404299774741,0.0013404391586493,-0.001340429481002,0.0013404386623872,-0.0013404294784863,0.0013404388386137,-0.0013404289969357,0.0013404383572706,-0.0011693501673354,0.0011693579086754,-0.001169350668596,0.0011693584099245,3.6819817622496e-09,3.9684886580629e-09,8.8472218144617e-09,-8.3106119529404e-10,-0.0011469078544149,0.0011469165211186,-0.0013404283464906,0.0013404407544883,-0.0013404311119753,0.0013404370665878,-0.0013404278550695,0.0013404404419948,-0.0013404306203814,0.0013404367539002,-0.001169345373792,0.0011693625924788,-0.0011693554621461,0.0011693537261272,-0.0011693519860512,0.0011693558067294,-0.0011693524875459,0.0011693568298595,4.7151390636206e-09,4.7151715602749e-09,-0.0011469071481373,0.0011469172273945,-2.5557221700303e-10,9.5442947997865e-09,-0.0013404309901831,0.0013404383009461,-0.0013404271539315,0.00134044104554,-0.0013404304442422,0.0013404377552101,-0.0013404266844832,0.0013404405763164,-0.0011693483584707,0.0011693607184191,-0.0011693477840302,0.0011693601439547,0.41875849256559,125301,3014,0.0047677946516814,0.0047677946516968,0.0047677946516934,36.137129963039,0.00020429703970431,0.00020429703970431,0.00020429703970431,3061187.4077044,0.014406908028011
13419200,0.99629409695635,0.01568832214621,0.0052294407154017,0.0052294407153995,0.0052294407154092,-0.0011438749305448,0.0011438848925175,4.5173671092415e-09,4.5173965335779e-09,4.1728704345844e-09,4.475132523685e-09,-0.0013376061595285,0.0013376164544072,-0.0013376055450425,0.0013376158401265,-0.0013376055538035,0.0013376160268065,-0.001337604956673,0.0013376154298885,-0.0011663983324766,0.0011664071477772,-0.0011663987690199,0.0011664075843209,4.1728788461802e-09,4.4751377882779e-09,9.3692104970322e-09,-3.3443277920039e-10,-0.0011438749305349,0.0011438848925254,-0.0013376045153007,0.0013376180524347,-0.0013376071892377,0.0013376142421294,-0.0013376039183601,0.0013376176336003,-0.0013376065921183,0.0013376138231082,-0.0011663935224228,0.0011664118383084,-0.0011664035790586,0.0011664028938031,-0.0011664001639791,0.0011664050208084,-0.0011664006021995,0.0011664060017068,5.239253146001e-09,5.2392856172443e-09,-0.0011438742096385,0.0011438856134288,2.4053911993029e-10,1.0078630700839e-08,-0.0013376071722482,0.0013376156093046,-0.0013376032018846,0.0013376182487323,-0.0013376065066777,0.0013376149439318,-0.0013376026182255,0.0013376176652985,-0.001166396437623,0.0011664099102258,-0.0011663959249582,0.0011664093975453,0.40900439415344,125301,3014,0.0047552212661391,0.004755221266135,0.0047552212661496,34.796595857006,0.00019357276685604,0.00019357276685604,0.00019357276685604,3075638.198648,0.014368640542314
13919200,0.99711779275411,0.015695869191696,0.0052319563972304,0.0052319563972281,0.0052319563972378,-0.0011414000603527,0.0011414093985201,4.2787837411526e-09,4.2788131546658e-09,3.9417632032516e-09,4.2380609712347e-09,-0.0013356735695024,0.001335683332009,-0.0013356730033995,0.0013356827661113,-0.0013356730079517,0.0013356829488414,-0.0013356724582745,0.0013356823993767,-0.0011640308810013,0.0011640391890927,-0.0011640313363474,0.0011640396444393,3.9417699490287e-09,4.2380684735184e-09,9.1064648060613e-09,-5.4885335996755e-10,-0.0011414000603425,0.0011414093985282,-0.0013356719368218,0.0013356849226579,-0.0013356746360482,0.0013356811754919,-0.0013356713835893,0.0013356845477931,-0.001335674082637,0.0013356808004402,-0.0011640260968655,0.0011640438593221,-0.0011640361204663,0.0011640349742251,-0.0011640327014564,0.0011640370795741,-0.0011640331558444,0.0011640380694669,4.9961171918728e-09,4.9961496520576e-09,-0.0011413993440782,0.0011414101147995,2.8311795064683e-11,9.8126958855823e-09,-0.0013356745749571,0.0013356824894404,-0.0013356706724172,0.0013356851590412,-0.0013356739583851,0.001335681873066,-0.0013356701356685,0.0013356846225178,-0.0011640290183711,0.0011640419576942,-0.0011640284880583,0.0011640414273656,0.40047476240274,125301,3014,0.0047449590079004,0.0047449590078964,0.0047449590079109,33.829548969144,0.00018583639175316,0.00018583639175316,0.00018583639175316,3070158.7782747,0.014337416457394
14419200,0.99772526859101,0.015701178017972,0.005233726005989,0.0052337260059867,0.0052337260059965,-0.0011384946033014,0.0011385043448992,4.4344202913275e-09,4.4344496937823e-09,4.0924940766152e-09,4.3928459098375e-09,-0.0013332495305181,0.001333259644183,-0.0013332489328986,0.0013332590467687,-0.0013332489398504,0.0013332592319701,-0.0013332483592605,0.0013332586515927,-0.0011612414252615,0.0011612500635777,-0.0011612418716312,0.0011612505099478,4.0924996241268e-09,4.392855023265e-09,9.2657726026088e-09,-3.9688762795593e-10,-0.0011384946032911,0.0011385043449074,-0.0013332478942223,0.00133326123565,-0.001333250569163,0.0013332574553308,-0.0013332473121738,0.0013332608320427,-0.0013332499869358,0.0013332570515366,-0.0011612366360447,0.001161254735121,-0.0011612466608297,0.001161245838421,-0.0011612432493977,0.0011612479467218,-0.0011612436958633,0.0011612489339769,5.1513738033605e-09,5.1514062604278e-09,-0.0011384938874739,0.0011385050607316,1.7517151507163e-10,9.9706974199498e-09,-0.0013332505400235,0.0013332588002928,-0.0013332466013148,0.0013332614424504,-0.0013332498916455,0.0013332581521124,-0.0013332460339343,0.0013332608752951,-0.0011612395523976,0.0011612528241898,-0.0011612390302401,0.0011612523020164,0.38210045494667,125301,3014,0.0047329130673752,0.004732913067371,0.0047329130673856,32.643518035795,0.00017634814428636,0.00017634814428636,0.00017634814428636,3066156.0215415,0.014300765279346
14919200,0.99816100496563,0.015705137778506,0.0052350459261668,0.0052350459261646,0.0052350459261743,-0.001134265853891,0.0011342771542858,5.0363812904205e-09,5.0364106897576e-09,4.6746946999622e-09,4.9913482525018e-09,-0.0013289766072692,0.001328988078282,-0.0013289758877938,0.0013289873590119,-0.0013289759047261,0.0013289875545004,-0.0013289752045544,0.0013289868545413,-0.0011570748165467,0.0011570847347183,-0.0011570752206572,0.001157085138829,4.6746997757758e-09,4.9913579856916e-09,9.9288655092991e-09,1.4394158931199e-10,-0.0011342658538806,0.0011342771542942,-0.001328974941932,0.0013289896884878,-0.0013289775531,0.0013289857488349,-0.0013289742491448,0.0013289891744493,-0.0013289768601341,0.0013289852346094,-0.0011570699621109,0.0011570894581733,-0.0011570800750742,0.0011570804153911,-0.0011570766702148,0.0011570825729102,-0.0011570770788988,0.0011570835436186,5.766009090792e-09,5.7660415379184e-09,-0.0011342651254758,0.0011342778827059,7.1155096572407e-10,1.0643219387424e-08,-0.001328977634459,0.0013289872286058,-0.0013289735246932,0.0013289897949126,-0.001328976862627,0.0013289864569714,-0.0013289728389961,0.0013289891094408,-0.0011570728667375,0.0011570874860766,-0.0011570723835408,0.001157087002864,0.39678962402156,125301,3014,0.0047153788899285,0.0047153788899244,0.0047153788899389,30.580728166328,0.00015984582533063,0.00015984582533063,0.00015984582533063,3072560.0116352,0.014247410442214
15419200,0.99845791213079,0.015708455568776,0.0052361518562568,0.0052361518562546,0.0052361518562643,-0.001126059824664,0.00112607365392,6.0096207620932e-09,6.0096501911942e-09,5.6201015788428e-09,5.9590174998117e-09,-0.0013222940130091,0.001322307654241,-0.0013222930998321,0.0013223067412693,-0.0013222931316926,0.0013223069504077,-0.001322292240889,0.0013223060598166,-0.0011491421438457,0.0011491541256999,-0.001149142489264,0.0011491544711187,5.6201062865441e-09,5.9590278396741e-09,1.1093584668124e-08,9.2570154441528e-10,-0.0011260598246534,0.0011260736539284,-0.0013222922718213,0.0013223093262008,-0.0013222948409889,0.001322305069338,-0.0013222914017952,0.0013223086336457,-0.0013222939707842,0.001322304376596,-0.0011491370941858,0.0011491590247408,-0.0011491475389046,0.0011491495720952,-0.0011491440728056,0.0011491518653571,-0.0011491444323727,0.0011491528133325,6.7504895816476e-09,6.7505220224213e-09,-0.0011260590848666,0.0011260743937223,1.4811182200315e-09,1.1814365507802e-08,-0.0013222951067529,0.0013223067548923,-0.0013222906638417,0.0013223092623394,-0.0013222941389184,0.0013223057872553,-0.0013222897892308,0.0013223083879537,-0.0011491400580139,0.0011491568940352,-0.0011491396291371,0.0011491564651425,0.48651353790675,125301,3014,0.0046813606600011,0.0046813606599969,0.0046813606600116,27.073080430151,0.00013178464344121,0.00013178464344121,0.00013178464344121,3061784.5858101,0.014143924865311
15919200,0.99868605239348,0.015711583928229,0.0052371946427413,0.0052371946427391,0.0052371946427488,-0.0011185926658218,0.0011186034466836,4.8330128820387e-09,4.8330423005223e-09,4.4867928739546e-09,4.7903815571317e-09,-0.0013194217755776,0.0013194327295801,-0.0013194211086378,0.0013194320628454,-0.001319421118438,0.0013194322481781,-0.0013194204685763,0.0013194315985291,-0.001142407715418,0.0011424172062569,-0.0011424081355792,0.0011424176264186,4.4867970002031e-09,4.7903924713773e-09,9.9399516039606e-09,-2.7388135093241e-10,-0.0011185926658114,0.001118603446692,-0.0013194200467219,0.001319434412989,-0.0013194228374631,0.0013194303794648,-0.0013194193982249,0.0013194339402181,-0.0013194221887872,0.0013194299065069,-0.0011424026561934,0.0011424221471388,-0.0011424131947846,0.0011424126855543,-0.0011424096317773,0.0011424149949664,-0.0011424100544339,0.0011424159581191,5.5331800428243e-09,5.533212525979e-09,-0.001118591966349,0.0011186041461613,2.7998724084669e-10,1.0627995631705e-08,-0.0013194228950564,0.0013194317776468,-0.0013194187023382,0.0013194345345812,-0.0013194221770618,0.0013194310598501,-0.0013194180656932,0.0013194338981613,-0.0011424057411768,0.0011424200162882,-0.0011424052452446,0.0011424195203398,0.59571470761932,125301,3014,0.0046504113709995,0.0046504113709956,0.00465041137101,25.355161496994,0.00011804129197595,0.00011804129197595,0.00011804129197595,3002181.0994284,0.014049820514163
16419200,0.99887116384212,0.01571371816448,0.0052379060548251,0.0052379060548228,0.0052379060548325,-0.0011112734798416,0.0011112829358543,4.3174333561099e-09,4.3174627530942e-09,3.9899957513098e-09,4.278681337928e-09,-0.0013170685346659,0.0013170783142212,-0.0013170679729728,0.0013170777527331,-0.0013170679732465,0.0013170779277612,-0.0013170674267137,0.0013170773814408,-0.0011359547286007,0.001135963134232,-0.001135955176852,0.0011359635824839,3.9899997196216e-09,4.2786922603388e-09,9.3529651746167e-09,-7.1805417323075e-10,-0.0011112734798312,0.0011112829358625,-0.0013170668368213,0.0013170799751238,-0.0013170696707872,0.0013170760918583,-0.0013170662830856,0.0013170795963361,-0.0013170691168723,0.0013170757128837,-0.0011359497442914,0.0011359680127963,-0.0011359601611418,0.0011359587039371,-0.0011359566136905,0.0011359609725174,-0.0011359570569934,0.0011359619365139,4.9775076931743e-09,4.9775401954167e-09,-0.0011112728203218,0.001111283595379,-1.9022921683389e-10,1.0004133466913e-08,-0.0013170696600265,0.0013170773435884,-0.0013170656279716,0.0013170801550684,-0.0013170690496363,0.001317076733396,-0.0013170650933865,0.0013170796207085,-0.001135952847556,0.0011359659086192,-0.0011359523272179,0.0011359653882648,0.50210013400473,125301,3014,0.0046200802743881,0.0046200802743839,0.0046200802743986,24.41273373715,0.0001105018698972,0.0001105018698972,0.0001105018698972,2934179.6310545,0.01395760466629
16919200,0.99902500406766,0.015716036686721,0.0052386788955718,0.0052386788955695,0.0052386788955792,-0.0011106110956653,0.0011106200270549,4.114272529269e-09,4.1143018926955e-09,3.7835458956083e-09,4.0753555812433e-09,-0.0013129026624245,0.0013129120532529,-0.0013129021301222,0.0013129115211557,-0.0013129021299282,0.0013129116985616,-0.0013129016123924,0.0013129111812382,-0.0011350644432964,0.001135072415446,-0.0011350649157746,0.0011350728879245,3.7835497295387e-09,4.0753672588498e-09,9.0562579343017e-09,-8.2766780386067e-10,-0.0011106110956545,0.0011106200270635,-0.0013129009973448,0.0013129136833054,-0.0013129037951712,0.0013129098911316,-0.0013129004723348,0.0013129133360895,-0.0013129032699825,0.0013129095437288,-0.001135059551455,0.0011350772035196,-0.0011350698075957,0.0011350680998693,-0.0011350663001962,0.0011350702776761,-0.0011350667662556,0.0011350712736982,4.8136407533733e-09,4.81367317103e-09,-0.0011106103973293,0.0011106207253958,-2.5788319955115e-10,9.7470601401651e-09,-0.0013129037197538,0.0013129111528899,-0.0013128997796868,0.0013129139293012,-0.0013129031378235,0.0013129105711572,-0.0013128992743256,0.0013129134241652,-0.0011350625794322,0.0011350752209927,-0.0011350620332234,0.0011350746747679,0.65164127745866,125301,3014,0.0046173086097297,0.0046173086097255,0.0046173086097403,23.780232204405,0.00010544185763524,0.00010544185763524,0.00010544185763524,2979760.485325,0.013949118796637
17419200,0.9991456900739,0.015717668520444,0.0052392228401464,0.0052392228401441,0.0052392228401538,-0.0011013019811505,0.0011013129825512,4.9023705961493e-09,4.9023999692814e-09,4.5589180407715e-09,4.8608286258456e-09,-0.00131011337696,0.001310124463827,-0.0013101126952586,0.0013101237823306,-0.0013101127040113,0.0013101239649095,-0.0013101120396177,0.0013101233007282,-0.0011265534051522,0.0011265630653079,-0.0011265538194317,0.0011265634795878,4.5589216947597e-09,4.8608401363984e-09,9.872741845781e-09,-6.7955983701019e-11,-0.0011013019811399,0.0011013129825597,-0.0013101116919086,0.001310126101773,-0.0013101143802795,0.0013101221444125,-0.001310111027717,0.0013101256116018,-0.0013101137159092,0.0013101216540543,-0.0011265484795284,0.001126567871652,-0.0011265587450354,0.0011265586732621,-0.0011265552768927,0.0011265609063884,-0.0011265556892574,0.0011265618555302,5.5471782845994e-09,5.5472107796361e-09,-0.0011013013371372,0.0011013136265693,4.2697660526074e-10,1.0505156976607e-08,-0.0013101145037293,0.0013101234998005,-0.0013101103876654,0.0013101261546463,-0.0013101137730178,0.0013101227692866,-0.0013101097361587,0.0013101255033648,-0.0011265515253917,0.0011265657695668,-0.0011265510366651,0.0011265652808232,0.58772740813402,125301,3014,0.0045787404380475,0.0045787404380434,0.0045787404380576,21.984171982268,9.1073375858148e-05,9.1073375858148e-05,9.1073375858148e-05,2889414.7429556,0.013831888775162
17919200,0.99923789508518,0.015718710779061,0.0052395702596853,0.005239570259683,0.0052395702596927,-0.0010957669709016,0.0010957792344516,5.3820952437141e-09,5.3821245720829e-09,5.0149565457846e-09,5.336381078427e-09,-0.0013024484430758,0.0013024606734864,-0.0013024476514847,0.0013024598821004,-0.0013024476704818,0.0013024600767374,-0.0013024468978451,0.0013024593043131,-0.0011210424555919,0.0011210531347447,-0.0011210428561989,0.0011210535353523,5.0149601963121e-09,5.336392748337e-09,1.0465558864077e-08,2.986764514737e-10,-0.0010957669708909,0.0010957792344602,-0.0013024467138679,0.0013024623480209,-0.0013024493806622,0.001302458207594,-0.0013024459508541,0.0013024617608414,-0.0013024486174697,0.0013024576202276,-0.0011210374146654,0.0011210580450573,-0.0011210478971052,0.0011210486250584,-0.0011210443764605,0.0011210509055058,-0.0011210447802945,0.0011210518750468,6.0757791818519e-09,6.0758116367428e-09,-0.0010957662782927,0.0010957799270654,8.2917176700404e-10,1.1144017766363e-08,-0.0013024495710321,0.0013024597228082,-0.0013024452617167,0.0013024623456614,-0.0013024487276985,0.0013024588796722,-0.0013024445033967,0.0013024615875666,-0.0011210404752164,0.0011210559110619,-0.0011210399952916,0.0011210554311211,0.4915601615792,125301,3014,0.004555770203756,0.004555770203752,0.0045557702037666,19.504465622395,7.1235724979161e-05,7.1235724979161e-05,7.1235724979161e-05,2920136.3351883,0.013761989326678
18419200,0.99931118868766,0.015719578480574,0.0052398594935229,0.0052398594935206,0.0052398594935303,-0.0010939038385926,0.0010939153466372,5.1011741989533e-09,5.1012034901173e-09,4.7345784439373e-09,5.0560320172219e-09,-0.0012966970757489,0.0012967087409123,-0.0012966963339792,0.0012967079993479,-0.0012966963503131,0.0012967081945806,-0.0012966956264525,0.0012967074709324,-0.0011187444039284,0.0011187544722441,-0.001118744838723,0.0011187549070389,4.7345820246089e-09,5.0560439626401e-09,1.0261893414877e-08,-5.9500110983638e-11,-0.0010939038385819,0.0010939153466458,-0.0012966953252169,0.0012967104417855,-0.0012966980844805,0.0012967062985026,-0.0012966946088386,0.0012967099045006,-0.0012966973679235,0.001296705761031,-0.0011187392896418,0.0011187594620338,-0.001118749952989,0.0011187499172677,-0.0011187463511465,0.0011187522145631,-0.001118746787431,0.0011187532218638,5.8445852686378e-09,5.8446176885592e-09,-0.0010939030966759,0.0010939160885589,5.2897255729559e-10,1.099160678409e-08,-0.0012966981804376,0.0012967078144409,-0.0012966938716015,0.0012967105338979,-0.0012966973856455,0.0012967070198464,-0.0012966931619514,0.0012967098244731,-0.0011187423842226,0.0011187573569115,-0.001118741868958,0.0011187568416309,0.51421839069127,125301,3014,0.0045480177728433,0.004548017772839,0.0045480177728539,17.480887822421,5.5047102579365e-05,5.5047102579365e-05,5.5047102579365e-05,2975299.5027793,0.013738366872573
18919200,0.99937515021086,0.015720444262909,0.0052401480876346,0.0052401480876324,0.0052401480876421,-0.0010917701071525,0.0010917791475537,4.1616416269697e-09,4.1616709348096e-09,3.8303613766774e-09,4.1229593406281e-09,-0.0012961048138908,0.0012961143225612,-0.001296104275278,0.0012961137841534,-0.0012961042741296,0.0012961139610953,-0.0012961037498169,0.0012961134369951,-0.001116705110829,0.0011167131794207,-0.0011167055974425,0.0011167136660347,3.8303648102258e-09,4.1229714493796e-09,9.2249054748059e-09,-9.0157702933596e-10,-0.0010917701071417,0.0010917791475624,-0.0012961031098043,0.0012961159934543,-0.001296105979334,0.0012961121132886,-0.0012961025772959,0.001296115639231,-0.0012961054466469,0.0012961117588784,-0.0011167001010911,0.0011167180874797,-0.0011167106071596,0.0011167087579948,-0.001116707008994,0.0011167110004581,-0.001116707488275,0.0011167120114897,4.8690644956866e-09,4.8690969358133e-09,-0.0010917694011354,0.0010917798535758,-3.2141093742531e-10,9.9242136940545e-09,-0.0012961059042023,0.0012961133891629,-0.0012961018776997,0.0012961162387136,-0.0012961053156239,0.0012961128007821,-0.0012961013652624,0.0012961157265015,-0.0011167032137422,0.0011167160476969,-0.0011167026528187,0.0011167154867574,0.5877987766322,125301,3014,0.0045391715480989,0.0045391715480948,0.0045391715481096,16.875473749188,5.0203789993508e-05,5.0203789993508e-05,5.0203789993508e-05,2950927.3525767,0.013711488274538
19419200,0.99943547342657,0.015721358007815,0.0052404526692701,0.0052404526692678,0.0052404526692775,-0.0010899705120057,0.0010899773109197,3.3024884637738e-09,3.3025177857015e-09,3.0010496826981e-09,3.2695684435166e-09,-0.0012977337891975,0.0012977413441666,-0.0012977334292254,0.0012977409843995,-0.0012977334133816,0.0012977411461317,-0.0012977330651499,0.0012977407981124,-0.0011154235246483,0.0011154297687768,-0.0011154240564173,0.0011154303005466,3.0010530578641e-09,3.2695805373438e-09,8.1598300588406e-09,-1.554807974816e-09,-0.001089970511995,0.0010899773109283,-0.0012977321636664,0.001297742948082,-0.0012977350547263,0.0012977393805124,-0.0012977317938234,0.0012977427560097,-0.0012977346847045,0.0012977391882532,-0.0011154187230526,0.0011154344853224,-0.0011154288579922,0.00111542558402,-0.0011154253416679,0.0011154276978358,-0.0011154258567307,0.0011154287128609,3.9564575220268e-09,3.9564899773294e-09,-0.0010899698593546,0.0010899779635758,-1.0084972560864e-09,8.809921916124e-09,-0.0012977348485114,0.0012977404225977,-0.0012977311491086,0.0012977433092181,-0.0012977344420177,0.0012977400163017,-0.0012977308108513,0.001297742971186,-0.0011154217961809,0.0011154325606412,-0.0011154211956088,0.0011154319600528,0.65664642788028,125301,3014,0.0045317225490354,0.0045317225490314,0.004531722549046,17.545329894015,5.5562639152123e-05,5.5562639152123e-05,5.5562639152123e-05,2897517.0003336,0.013688876039404
19919200,0.99949364088578,0.015722216440513,0.0052407388135027,0.0052407388135004,0.0052407388135101,-0.0010886333981122,0.0010886393690475,2.9852822425884e-09,2.9853115684278e-09,2.6943598878461e-09,2.9546474867239e-09,-0.0012993853325248,0.0012993921715777,-0.0012993850370027,0.0012993918762607,-0.0012993850161524,0.001299392032939,-0.0012993847320229,0.0012993917490217,-0.0011146218332275,0.0011146274044981,-0.0011146223804149,0.0011146279516863,2.6943632330026e-09,2.9546595700129e-09,7.6206738943596e-09,-1.6500643522996e-09,-0.0010886333981015,0.0010886393690561,-0.0012993837822581,0.0012993937017104,-0.001299386587239,0.0012993903461559,-0.0012993834716847,0.0012993935688606,-0.0012993862764869,0.001299390213119,-0.0011146172500572,0.0011146319053846,-0.0011146269635642,0.0011146234508187,-0.0011146235731331,0.0011146254218899,-0.00111462409883,0.0011146264371474,3.5996317816611e-09,3.599664230111e-09,-0.0010886327851708,0.0010886399819938,-1.1407770862637e-09,8.2319261567477e-09,-0.0012993863515823,0.0012993912824659,-0.0012993828674881,0.0012993940867774,-0.0012993860115885,0.0012993909426697,-0.0012993825927215,0.0012993938122359,-0.0011146202336348,0.0011146300988061,-0.0011146196198221,0.0011146294849771,0.63949909152816,125301,3014,0.0045261913656757,0.0045261913656715,0.0045261913656861,18.681059624248,6.4648476993983e-05,6.4648476993983e-05,6.4648476993983e-05,2848888.0382137,0.013672086138325
20419200,0.99954558285953,0.015723045644307,0.0052410152147674,0.0052410152147651,0.0052410152147749,-0.0010871785582799,0.0010871866923442,3.8103048015097e-09,3.8103341061733e-09,3.4929145900775e-09,3.7747268652442e-09,-0.0012975522575962,0.0012975609526758,-0.0012975517929822,0.0012975604882668,-0.0012975517857569,0.0012975606583514,-0.0012975513358485,0.0012975602086553,-0.0011132779513992,0.0011132852827571,-0.0011132784504235,0.0011132857817819,3.4929179658489e-09,3.7747389963754e-09,8.3667606140653e-09,-7.4610596828737e-10,-0.0010871785582691,0.0010871866923528,-0.0012975507203752,0.0012975624544691,-0.0012975533301727,0.0012975589865014,-0.0012975502559915,0.00129756216759,-0.0012975528656102,0.0012975586994354,-0.0011132734373849,0.0011132896933672,-0.001113282964417,0.0011132813711908,-0.0011132796777105,0.0011132832930376,-0.0011132801621644,0.0011132842944807,4.4288317917288e-09,4.4288642241204e-09,-0.0010871779414272,0.0010871873092019,-2.5877872866394e-10,8.9768107229473e-09,-0.0012975532595485,0.0012975600955493,-0.0012975496469798,0.0012975626871976,-0.0012975527489858,0.0012975595851842,-0.0012975492081363,0.0012975622485792,-0.001113276323102,0.0011132879074832,-0.0011132757531205,0.0011132873374854,0.69004788769245,125301,3014,0.0045201570316742,0.00452015703167,0.0045201570316848,18.601943316167,6.4015546529338e-05,6.4015546529338e-05,6.4015546529338e-05,2849807.5326537,0.013653723490158
20919200,0.99958878596565,0.015723688741789,0.0052412295805947,0.0052412295805924,0.0052412295806021,-0.0010816335935839,0.0010816435012009,4.4787223650472e-09,4.4787516887103e-09,4.136697875293e-09,4.451516997079e-09,-0.0012935839499513,0.0012935941776931,-0.0012935834855206,0.0012935937134674,-0.0012935834659889,0.0012935938949017,-0.0012935830162546,0.0012935934453798,-0.001108200081201,0.0011082089405128,-0.0011082005821952,0.0011082094415079,4.1367005853625e-09,4.4515283963484e-09,9.0294597736216e-09,-7.1971451550304e-11,-0.0010816335935738,0.001081643501209,-0.0012935824145389,0.0012935956776072,-0.0012935850209041,0.0012935922135804,-0.0012935819380272,0.0012935954022563,-0.0012935845442138,0.0012935919380427,-0.001108195572774,0.0011082133454612,-0.0011082050906029,0.001108205036577,-0.0011082018297485,0.0011082069292446,-0.0011082022884749,0.0011082079593695,5.0850927385545e-09,5.0851251842691e-09,-0.0010816329888261,0.0010816441059638,3.7731531145271e-10,9.6358886922589e-09,-0.0012935849616087,0.0012935933100773,-0.0012935813410305,0.0012935959105697,-0.0012935844514632,0.0012935928001295,-0.0012935809022713,0.0012935954720358,-0.0011081984688062,0.0011082115535654,-0.0011081978970402,0.001108210981783,0.64466974006305,125301,3014,0.0044971652701704,0.0044971652701665,0.0044971652701812,17.278377079501,5.3427016636006e-05,5.3427016636006e-05,5.3427016636006e-05,2797367.7393032,0.013583827861052
21419200,0.99962345938838,0.015724202413079,0.0052414008043578,0.0052414008043555,0.0052414008043652,-0.0010773646821574,0.0010773764432821,5.1967508525345e-09,5.1967801345223e-09,4.8347440952837e-09,5.1530188217681e-09,-0.0012885581163442,0.0012885699492589,-0.0012885573671314,0.0012885692002511,-0.0012885573821453,0.0012885693923478,-0.001288556652424,0.0012885686628388,-0.0011037886276774,0.0011037989125827,-0.0011037890598369,0.0011037993447428,4.8347475259188e-09,5.1530307751069e-09,9.9001282921544e-09,4.9341828957752e-10,-0.0010773646821467,0.0010773764432907,-0.0012885565109934,0.0012885714969545,-0.0012885589724518,0.0012885676525835,-0.0012885557866431,0.0012885709498816,-0.0012885582479228,0.0012885671053238,-0.0011037839576607,0.0011038034483384,-0.0011037937298332,0.0011037948090058,-0.0011037904238611,0.0011037968173943,-0.0011037908529109,0.0011037978103208,5.8383402555363e-09,5.8383726814575e-09,-0.0010773640424499,0.0010773770829946,9.6546183249491e-10,1.0525642100065e-08,-0.0012885591664847,0.0012885690697048,-0.0012885551526241,0.0012885714868125,-0.0012885583680057,0.0012885682714235,-0.0012885544366501,0.0012885707710636,-0.0011037868571756,0.0011038015432069,-0.0011037863466726,0.001103801032688,0.64095610021346,125301,3014,0.0044794590198389,0.0044794590198349,0.0044794590198496,15.232935156985,3.7063481255882e-05,3.7063481255882e-05,3.7063481255882e-05,2838373.9533434,0.013529973724792
21919200,0.99965294371195,0.015724626586741,0.0052415421955787,0.0052415421955765,0.0052415421955862,-0.0010741468271012,0.0010741571787156,4.6607567632566e-09,4.6607860504208e-09,4.3155609004445e-09,4.6201760199264e-09,-0.0012855272264412,0.0012855378571483,-0.0012855265887595,0.0012855372196717,-0.00128552659445,0.001285537403014,-0.0012855259738845,0.0012855367826609,-0.0011006126253275,0.0011006217641458,-0.001100613095611,0.0011006222344298,4.3155643557105e-09,4.6201880816884e-09,9.4188276077663e-09,-9.7269006675142e-11,-0.0010741468270905,0.0010741571787243,-0.0012855256121706,0.0012855394246569,-0.0012855282029995,0.0012855356521911,-0.0012855249888403,0.0012855389791732,-0.0012855275794905,0.0012855352065205,-0.0011006079073656,0.0011006263620409,-0.0011006178135522,0.0011006176365536,-0.001100614431752,0.0011006196712481,-0.0011006148947358,0.0011006206811936,5.3072578813265e-09,5.3072902955422e-09,-0.0010741461824989,0.0010741578233231,3.978631041141e-10,1.0052800215207e-08,-0.0012855282816265,0.001285536962911,-0.0012855243509826,0.0012855395214455,-0.0012855275954692,0.0012855362769514,-0.0012855237429918,0.0012855389136798,-0.0011006108720565,0.0011006244556398,-0.0011006103258607,0.0011006239094277,0.62311101531201,125301,3014,0.0044661087174642,0.0044661087174601,0.0044661087174749,13.996990686786,2.7175925494286e-05,2.7175925494286e-05,2.7175925494286e-05,2834825.691618,0.013489385363256
22419200,0.9996815471649,0.015725056882396,0.0052416856274636,0.0052416856274613,0.0052416856274711,-0.0010756739380658,0.0010756805298466,3.2220802995998e-09,3.222109568735e-09,2.9208652047494e-09,3.1898603819844e-09,-0.0012865668838405,0.0012865742775484,-0.0012865665406148,0.0012865739345277,-0.0012865665229568,0.0012865740958157,-0.0012865661917439,0.0012865737648152,-0.0011021277470026,0.0011021338221086,-0.0011021282978203,0.0011021343729268,2.9208685829743e-09,3.1898725223359e-09,7.8217226175165e-09,-1.3775169939258e-09,-0.001075673938055,0.0010756805298553,-0.0012865653424407,0.0012865757956493,-0.0012865680819841,0.0012865724164548,-0.0012865649876661,0.0012865756200155,-0.0012865677270309,0.0012865722406342,-0.0011021231967011,0.0011021382840543,-0.0011021328481011,0.001102129911,-0.0011021294809538,0.0011021318368117,-0.00110213001199,0.0011021328706809,3.8535642740213e-09,3.8535966803549e-09,-0.0010756733085991,0.0010756811593183,-8.5789035850902e-10,8.4484862291185e-09,-0.0012865678793176,0.0012865734168775,-0.0012865643679571,0.0012865761515088,-0.0012865674908506,0.001286573028608,-0.0012865640464973,0.0012865758302741,-0.0011021261461103,0.0011021365255811,-0.0011021255262191,0.0011021359056738,0.65096373206224,125301,3014,0.0044724322741514,0.0044724322741472,0.0044724322741621,14.849369689036,3.399495751229e-05,3.399495751229e-05,3.399495751229e-05,2834958.9254162,0.013508606187103
22919200,0.99970859948601,0.015725423455639,0.0052418078185448,0.0052418078185425,0.0052418078185522,-0.0010750216366673,0.0010750286888141,3.3946983947943e-09,3.394727675488e-09,3.0878136382953e-09,3.3646044865248e-09,-0.0012869820431223,0.0012869898298173,-0.0012869817001531,0.001286989487053,-0.0012869816793502,0.0012869896509181,-0.0012869813484684,0.0012869893202486,-0.0011017225628474,0.0011017290341763,-0.0011017231112709,0.0011017295826004,3.0878168361922e-09,3.3646164440364e-09,7.9793429285921e-09,-1.1899014831399e-09,-0.0010750216366568,0.0010750286888225,-0.0012869805063513,0.0012869913428593,-0.0012869832368939,0.0012869879740381,-0.0012869801487259,0.0012869911700967,-0.0012869828790898,0.0012869878010885,-0.0011017180271942,0.0011017334814279,-0.0011017276469038,0.0011017251353675,-0.0011017242975496,0.0011017270489892,-0.0011017248191888,0.0011017280861276,4.0150216044931e-09,4.0150540176205e-09,-0.0010750210182917,0.0010750293071947,-6.8869257269405e-10,8.5971709749604e-09,-0.0012869830443238,0.0012869889628737,-0.0012869795399878,0.0012869916913876,-0.0012869826563105,0.0012869885750579,-0.0012869792187964,0.0012869913704213,-0.0011017209754149,0.001101731719401,-0.0011017203581031,0.001101731102073,0.58748017292924,125301,3014,0.0044697310730538,0.0044697310730495,0.0044697310730645,15.357046849131,3.8056374793046e-05,3.8056374793046e-05,3.8056374793046e-05,2799102.0390465,0.013500407234159
23419200,0.99973387052429,0.015725776476642,0.0052419254922123,0.0052419254922101,0.0052419254922198,-0.0010770283359136,0.0010770358233917,3.565627104216e-09,3.5656563597928e-09,3.2524378040518e-09,3.5314440186917e-09,-0.0012870483108163,0.0012870564826667,-0.0012870478972031,0.0012870560692585,-0.0012870478855214,0.0012870562370676,-0.0012870474857568,0.0012870558375154,-0.0011034952833776,0.0011035020921178,-0.0011034958113224,0.0011035026200629,3.2524412383132e-09,3.5314562915851e-09,8.0469718252201e-09,-9.1567248072201e-10,-0.0010770283359027,0.0010770358234003,-0.0012870468016136,0.0012870579601351,-0.0012870494063751,0.001287054591818,-0.0012870463833457,0.0012870577215529,-0.0012870489879285,0.001287054353049,-0.0011034908446865,0.0011035064316645,-0.0011035002499926,0.0011034982805352,-0.0011034969844516,0.0011035001314356,-0.001103497494408,0.0011035011577823,4.1932701521517e-09,4.1933025466621e-09,-0.0010770277105635,0.0010770364487468,-4.1411936721701e-10,8.667159286395e-09,-0.0012870492767655,0.0012870556579912,-0.0012870457677299,0.0012870582487116,-0.0012870488175054,0.0012870551989286,-0.0012870453784974,0.0012870578597042,-0.0011034937012647,0.001103504729769,-0.0011034931022983,0.0011035041307866,0.60459639632209,125301,3014,0.0044780463971937,0.0044780463971894,0.0044780463972044,15.705477033914,4.084381627131e-05,4.084381627131e-05,4.084381627131e-05,2838911.3385208,0.01352566416907
23919200,0.99975877536041,0.01572618697487,0.0052420623249548,0.0052420623249525,0.0052420623249622,-0.0010788605303682,0.0010788663066473,2.9095546401618e-09,2.909583905856e-09,2.6186120969038e-09,2.879490652096e-09,-0.0012899527169557,0.0012899594018071,-0.0012899524377551,0.0012899591228115,-0.0012899524152386,0.0012899592795139,-0.0012899521479866,0.0012899590124742,-0.0011053782582099,0.001105383671404,-0.0011053788211263,0.0011053842343209,2.6186154656972e-09,2.8795030137128e-09,7.2115830437482e-09,-1.3924285173958e-09,-0.0010788605303573,0.001078866306656,-0.0012899512748823,0.0012899608207878,-0.0012899538797978,0.0012899577038588,-0.0012899509792422,0.0012899607045615,-0.001289953583979,0.0012899575874456,-0.001105373999721,0.0011053878424849,-0.0011053830795941,0.0011053800632592,-0.0011053798899776,0.0011053817989959,-0.0011053804289042,0.0011053828305928,3.5043763166502e-09,3.5044087216308e-09,-0.0010788599378513,0.0010788668991692,-9.0912419532106e-10,7.8018748307411e-09,-0.0012899536445417,0.0012899586015922,-0.0012899503977312,0.0012899612037428,-0.0012899533221093,0.0012899582793574,-0.0012899501396295,0.0012899609458663,-0.0011053768047364,0.0011053862518965,-0.0011053761746972,0.0011053856218412,0.71228945632067,125301,3014,0.0044856492990801,0.0044856492990757,0.0044856492990906,17.003548657603,5.1228389260822e-05,5.1228389260822e-05,5.1228389260822e-05,2817346.8836632,0.013548797529082
24419200,0.99978252488796,0.015726559762503,0.0052421865874994,0.0052421865874971,0.0052421865875068,-0.0010766684516829,0.0010766749820592,3.1997137226774e-09,3.1997429929303e-09,2.9030339975541e-09,3.1687665251813e-09,-0.0012921988500351,0.0012922061717788,-0.0012921985139804,0.0012922058359289,-0.0012921984956148,0.0012922059955329,-0.0012921981731108,0.0012922056732412,-0.0011037700418966,0.0011037760742184,-0.001103770583373,0.0011037766156955,2.9030372489693e-09,3.1687791161588e-09,7.3931211960808e-09,-9.9364843496951e-10,-0.001076668451672,0.001076674982068,-0.0012921974377174,0.0012922075534603,-0.0012921999262676,0.0012922044542755,-0.001292197090175,0.0012922073840826,-0.0012921995785464,0.0012922042847109,-0.0011037658861169,0.0011037801333626,-0.0011037747391315,0.0011037725565705,-0.0011037716411181,0.0011037742328197,-0.0011037721590467,0.0011037752479501,3.7567886277156e-09,3.7568210730479e-09,-0.001076667896832,0.0010766755369151,-5.606324844742e-10,7.9435261372439e-09,-0.0012921997812926,0.0012922053699269,-0.0012921965456055,0.0012922078489579,-0.001292199402862,0.0012922049916938,-0.0012921962326672,0.0012922075362448,-0.0011037686391683,0.0011037785604396,-0.00110376803044,0.0011037779516949,0.6789410524186,125301,3014,0.0044765847446949,0.0044765847446907,0.0044765847447054,17.881144033143,5.8249152265148e-05,5.8249152265148e-05,5.8249152265148e-05,2749805.2996492,0.0135212895779
24919200,0.99980452166348,0.015726868982848,0.0052422896609476,0.0052422896609454,0.0052422896609551,-0.00107700586935,0.0010770131546188,3.4878125517501e-09,3.4878417979449e-09,3.179963600236e-09,3.4548163916425e-09,-0.0012915465334011,0.0012915545139602,-0.0012915461374157,0.0012915541181797,-0.0012915461241925,0.0012915542834892,-0.0012915457429819,0.001291553902491,-0.0011041768768894,0.001104183522724,-0.0011041774069755,0.0011041840528107,3.1799668203197e-09,3.4548288603204e-09,7.6323356427597e-09,-6.566654023016e-10,-0.0010770058693391,0.0010770131546275,-0.001291545132462,0.0012915558786288,-0.0012915475383243,0.001291552753539,-0.0012915447307433,0.001291555655638,-0.001291547136427,0.0012915525303613,-0.0011041727658254,0.0011041875289076,-0.0011041815180185,0.0011041800466462,-0.0011041784654265,0.0011041816827826,-0.0011041789746297,0.0011041827017865,4.0528812447012e-09,4.0529136678577e-09,-0.0010770053066887,0.0010770137172851,-2.2554917258348e-10,8.1886294604762e-09,-0.0012915474460151,0.0012915537369112,-0.0012915441782591,0.0012915561266978,-0.001291547006928,0.0012915532980215,-0.0012915438073214,0.0012915557559852,-0.0011041754702102,0.0011041859893919,-0.0011041748708579,0.0011041853900232,0.60789483588396,125301,3014,0.0044779781127414,0.0044779781127372,0.004477978112752,18.351610901653,6.2012887213225e-05,6.2012887213225e-05,6.2012887213225e-05,2759440.8108323,0.01352550560412
25419200,0.99982612552888,0.015727238525682,0.0052424128418924,0.0052424128418902,0.0052424128418999,-0.0010817566750961,0.0010817624371681,2.9153361676577e-09,2.9153653890297e-09,2.6277626353611e-09,2.8751764675531e-09,-0.0012942134057183,0.0012942200780044,-0.0012942130088345,0.0012942196813254,-0.0012942130061354,0.0012942198373158,-0.0012942126240538,0.0012942194554462,-0.0011084962038342,0.0011085015393743,-0.0011084967347163,0.0011085020702568,2.6277663563151e-09,2.8751894954529e-09,7.0562466746548e-09,-1.225528091996e-09,-0.0010817566750846,0.0010817624371773,-0.0012942120059646,0.0012942214414565,-0.0012942144085565,0.0012942183179026,-0.0012942116138853,0.0012942212082617,-0.0012942140162986,0.0012942180845208,-0.0011084920961504,0.0011085055418032,-0.0011085008423774,0.0011084980678481,-0.0011084977714591,0.0011084997195202,-0.0011084983045552,0.0011085007176076,3.4948180032678e-09,3.4948504026603e-09,-0.0010817560982279,0.0010817630140412,-7.5811323019062e-10,7.6194245037087e-09,-0.0012942143036045,0.0012942193165672,-0.0012942110475761,0.001294221692395,-0.0012942138634015,0.0012942188765616,-0.0012942106758563,0.0012942213209001,-0.0011084947850719,0.0011085040195285,-0.0011084941846212,0.001108503419062,0.7372586897946,125301,3014,0.004497672760868,0.0044976727608634,0.0044976727608785,19.918988124824,7.455190499859e-05,7.455190499859e-05,7.455190499859e-05,2808760.1648073,0.013585364144656
25919200,0.99984623293282,0.015727577976968,0.0052425259923208,0.0052425259923186,0.0052425259923283,-0.0010791347242152,0.0010791413755715,3.2455834765938e-09,3.2456127287002e-09,2.9477291927936e-09,3.2144783609808e-09,-0.0012962559674256,0.001296263393653,-0.0012962556212015,0.0012962630476339,-0.0012962556035579,0.0012962632078194,-0.0012962552714779,0.0012962628759516,-0.0011065111122892,0.0011065172415952,-0.0011065116541525,0.0011065177834593,2.9477323434582e-09,3.2144909885675e-09,7.3057370349984e-09,-8.145250083847e-10,-0.0010791347242043,0.0010791413755803,-0.0012962545969094,0.0012962647306326,-0.0012962569916869,0.001296261710682,-0.0012962542402165,0.0012962645519639,-0.0012962566348152,0.0012962615318262,-0.0011065070853988,0.0011065211675749,-0.0011065156810218,0.0011065138574992,-0.0011065126687389,0.0011065154431942,-0.0011065131867856,0.0011065164598527,3.7848281345691e-09,3.7848605789603e-09,-0.0010791341873957,0.0010791419123961,-4.0450045802396e-10,7.8371970097904e-09,-0.0012962568725244,0.0012962626175293,-0.001296253714055,0.0012962650004065,-0.0012962564846257,0.0012962622298283,-0.0012962533916012,0.0012962646781779,-0.0011065097716438,0.0011065196666934,-0.0011065091624335,0.0011065190574667,0.72914636768882,125301,3014,0.0044868225873065,0.0044868225873023,0.0044868225873171,20.73385236391,8.1070818911283e-05,8.1070818911283e-05,8.1070818911283e-05,2709504.1835247,0.013552433298494
26419200,0.99986368847374,0.015727899162661,0.0052426330542185,0.0052426330542162,0.0052426330542259,-0.0010770954444389,0.0010771042240421,4.059327267162e-09,4.0593565073863e-09,3.7353630314293e-09,4.0233724710563e-09,-0.0012941998895743,0.0012942091485741,-0.0012941993782312,0.0012942086374359,-0.0012941993736623,0.0012942088105061,-0.0012941988792998,0.0012942083163559,-0.0011046902679402,0.0011046981322074,-0.0011046907680939,0.0011046986323616,3.7353661822346e-09,4.0233850233916e-09,8.1723588877732e-09,-5.3659196947068e-11,-0.001077095444428,0.0010771042240509,-0.0012941984900679,0.0012942105014167,-0.0012942007777071,0.0012942072846212,-0.0012941979827488,0.0012942101719318,-0.0012942002702092,0.0012942069549494,-0.0011046861822825,0.0011047020989317,-0.0011046948537305,0.0011046946656567,-0.001104691854073,0.0011046962833627,-0.0011046923371644,0.0011046972921052,4.6122611234416e-09,4.6122935517451e-09,-0.001077094894032,0.001077104774454,3.4748268792182e-10,8.712969173052e-09,-0.0012942008116375,0.0012942083705089,-0.0012941974417683,0.0012942106307486,-0.0012942002567203,0.0012942078157892,-0.0012941969586447,0.0012942101478501,-0.0011046888521324,0.0011047005472338,-0.0011046882803793,0.0011046999754642,0.7920419595447,125301,3014,0.0044783662200799,0.0044783662200756,0.0044783662200905,20.399110735552,7.8392885884415e-05,7.8392885884415e-05,7.8392885884415e-05,2707563.9056101,0.013526712394292
26919200,0.99987993958675,0.015728180736019,0.0052427269120046,0.0052427269120024,0.0052427269120121,-0.0010760300706162,0.0010760366427199,3.2152897403996e-09,3.2153189815357e-09,2.9178697873603e-09,3.1844115599715e-09,-0.0012955365254178,0.0012955438898385,-0.0012955361854908,0.0012955435501163,-0.0012955361670533,0.0012955437096679,-0.0012955358410752,0.0012955433839021,-0.0011039397519033,0.0011039458151121,-0.0011039403037136,0.0011039463669232,2.917872944792e-09,3.184424042024e-09,7.2621944846742e-09,-8.3156986601246e-10,-0.0010760300706054,0.0010760366427287,-0.0012955351597975,0.001295545222611,-0.0012955375510807,0.0012955422173719,-0.00129553480851,0.0012955450495076,-0.0012955371996145,0.0012955420440816,-0.0011039357382228,0.0011039497282668,-0.0011039443173732,0.0011039424537877,-0.0011039413043895,0.0011039440214957,-0.0011039418315698,0.0011039450474822,3.7500986324139e-09,3.7501310603644e-09,-0.001076029538314,0.0010760371750272,-4.2532653919854e-10,7.789360159644e-09,-0.0012955374300068,0.001295543113089,-0.0012955342871562,0.0012955454935798,-0.0012955370487244,0.0012955427320041,-0.0012955339706909,0.0012955451773396,-0.0011039384304273,0.0011039482415396,-0.0011039378113231,0.0011039476224187,0.74688297492095,125301,3014,0.0044739561275383,0.0044739561275343,0.0044739561275492,21.286478307895,8.549182646316e-05,8.549182646316e-05,8.549182646316e-05,2666891.1766786,0.013513331238077
27419200,0.99989502523872,0.015728434989397,0.0052428116631305,0.0052428116631282,0.0052428116631379,-0.0010778521876608,0.0010778586007113,3.1535999871851e-09,3.1536292115276e-09,2.8561189002634e-09,3.1228556643737e-09,-0.0012958202139039,0.0012958274467591,-0.0012958198855745,0.0012958271186346,-0.0012958198665905,0.0012958272784433,-0.0012958195521961,0.0012958269642613,-0.0011057048808774,0.0011057108150678,-0.001105705433917,0.0011057113681081,2.8561221792133e-09,3.1228682355631e-09,7.1288501616694e-09,-8.2160487059176e-10,-0.0010778521876499,0.0010778586007202,-0.0012958188722281,0.0012958287556883,-0.0012958212272197,0.0012958258097335,-0.0012958185319847,0.0012958285944327,-0.0012958208867977,0.0012958256482911,-0.0011057009375133,0.0011057146582009,-0.0011057093772599,0.0011057075249946,-0.0011057064100577,0.0011057090449019,-0.0011057069374988,0.0011057100726106,3.6925831711776e-09,3.6926155734525e-09,-0.0010778516513763,0.001077859137001,-4.1117980510685e-10,7.6601606530561e-09,-0.001295821090627,0.0012958266976858,-0.0012958180072143,0.0012958290419891,-0.0012958207209699,0.0012958263282262,-0.0012958177023397,0.0012958287373394,-0.0011057035803474,0.0011057132227347,-0.0011057029597872,0.0011057126021583,0.72588280929977,125301,3014,0.0044815027832944,0.0044815027832903,0.0044815027833052,22.250371739567,9.3202973916532e-05,9.3202973916532e-05,9.3202973916532e-05,2680793.8229611,0.013536252685797
27919200,0.9999086984064,0.015728678061619,0.0052428926872045,0.0052428926872022,0.005242892687212,-0.0010791229499465,0.0010791299118978,3.3638554475251e-09,3.363884666809e-09,3.0595199000319e-09,3.3318639197855e-09,-0.0012964706825075,0.0012964783913791,-0.0012964703109922,0.0012964780200687,-0.0012964702954794,0.0012964781834435,-0.0012964699388417,0.001296477827018,-0.0011068841561175,0.0011068905383417,-0.0011068846985671,0.0011068910807919,3.0595231447203e-09,3.3318764364013e-09,7.3091254808528e-09,-5.8136937959577e-10,-0.0010791229499356,0.0010791299119066,-0.001296469347065,0.0012964796897244,-0.001296471646404,0.0012964767217515,-0.0012964689675783,0.0012964794893202,-0.0012964712667386,0.0012964765211604,-0.0011068802397852,0.0011068943485195,-0.0011068886148782,0.0011068872706334,-0.001106885678817,0.0011068887694661,-0.0011068861972688,0.0011068897955566,3.9024291355863e-09,3.9024615343318e-09,-0.0010791224141832,0.0010791304476662,-1.7883866155753e-10,7.8385219888279e-09,-0.001296471553134,0.0012964776522179,-0.0012964684431802,0.0012964799360118,-0.0012964711399517,0.0012964772392331,-0.0012964680964866,0.0012964795895433,-0.0011068828546206,0.0011068929252618,-0.0011068822435184,0.0011068923141433,0.76533978020323,125301,3014,0.0044867705828495,0.0044867705828453,0.0044867705828603,22.918132262441,9.8545058099529e-05,9.8545058099529e-05,9.8545058099529e-05,2683328.9999251,0.013552263356251
28419200,0.99992092736012,0.01572891270291,0.0052429709009683,0.005242970900966,0.0052429709009757,-0.0010784675935162,0.0010784748360268,3.4719434690985e-09,3.4719726989997e-09,3.1658419604365e-09,3.4396437211572e-09,-0.0012974796522812,0.0012974875977884,-0.001297479260179,0.0012974872058911,-0.0012974792459025,0.0012974873699773,-0.0012974788690857,0.0012974869933728,-0.0011064187923088,0.0011064254044004,-0.0011064193296418,0.0011064259417341,3.1658452094884e-09,3.4396562192551e-09,7.4059729102395e-09,-4.6204073892852e-10,-0.0010784675935053,0.0010784748360356,-0.0012974783188113,0.0012974888921588,-0.0012974805936183,0.0012974859115489,-0.0012974779201779,0.0012974886720831,-0.0012974801948061,0.0012974856912861,-0.0011064148859787,0.0011064292019297,-0.0011064232359506,0.001106422144224,-0.0011064203122512,0.0011064236376222,-0.001106420826052,0.0011064246601411,4.0007903438365e-09,4.0008227513759e-09,-0.00107846706747,0.0010784753620781,-7.2700154045491e-11,7.9250150816998e-09,-0.0012974805295982,0.0012974868525737,-0.0012974774052927,0.0012974891099382,-0.0012974800960252,0.0012974864191983,-0.0012974770385048,0.0012974887433753,-0.0011064174987721,0.0011064277731809,-0.0011064168927071,0.0011064271670994,0.82558911402084,125301,3014,0.0044840626893131,0.0044840626893089,0.0044840626893238,23.44111540467,0.00010272892323736,0.00010272892323736,0.00010272892323736,2654506.6516226,0.013544051351236
28919200,0.99993182695398,0.015729106105067,0.0052430353683539,0.0052430353683517,0.0052430353683614,-0.0010769144301314,0.0010769216489885,3.4627610046165e-09,3.4627902355176e-09,3.1582230205576e-09,3.4308581965783e-09,-0.0012982219280835,0.0012982298468048,-0.00129822153919,0.0012982294581162,-0.0012982215242335,0.0012982296211359,-0.0012982211505385,0.0012982292476533,-0.0011052224161551,0.0011052290094737,-0.0011052229541512,0.0011052295474706,3.1582262066294e-09,3.4308705884406e-09,7.3861431196597e-09,-4.6057590822684e-10,-0.0010769144301206,0.0010769216489972,-0.0012982205983012,0.0012982311377256,-0.0012982228689417,0.0012982281672236,-0.001298220202153,0.0012982309197486,-0.0012982224726148,0.0012982279490597,-0.0011052185204825,0.001105232796815,-0.0011052268498027,0.0011052257601484,-0.0011052239321128,0.001105227248849,-0.0011052244457309,0.0011052282691531,3.9821278580509e-09,3.9821602700902e-09,-0.0010769139135525,0.0010769221655726,-8.0454034110954e-11,7.8958554631385e-09,-0.0012982228102942,0.0012982290952403,-0.0012982196967639,0.0012982313491154,-0.0012982223803642,0.0012982286655078,-0.0012982193329609,0.0012982309855374,-0.001105221136355,0.0011052313661712,-0.0011052205300729,0.0011052307598727,0.76400561131051,125301,3014,0.0044776336403607,0.0044776336403564,0.0044776336403714,23.983378713769,0.00010706702971015,0.00010706702971015,0.00010706702971015,2616860.5966207,0.013524529505527
29419200,0.99994162384334,0.015729247861786,0.0052430826205937,0.0052430826205914,0.0052430826206011,-0.0010789800354021,0.0010789867856808,3.2829641580808e-09,3.2829933625122e-09,2.9811377928456e-09,3.2516184234509e-09,-0.0012982173158082,0.0012982248445111,-0.0012982169615359,0.0012982244904436,-0.0012982169443093,0.0012982246522791,-0.0012982166046852,0.0012982243128672,-0.0011071840822802,0.0011071902916886,-0.001107184633299,0.001107190842708,2.981141061814e-09,3.2516309415593e-09,7.1759581158658e-09,-6.0998456261539e-10,-0.0010789800353912,0.0010789867856895,-0.001298215998398,0.0012982261256628,-0.0012982182789154,0.0012982232093199,-0.0012982156343258,0.0012982259408477,-0.0012982179146645,0.0012982230243177,-0.0011071802175512,0.0011071940511475,-0.0011071884980065,0.0011071870832682,-0.0011071855871791,0.001107188543505,-0.0011071861126836,0.0011071895745759,3.8122599843096e-09,3.8122923767906e-09,-0.0010789795090543,0.0010789873120337,-2.1573496506255e-10,7.696307772654e-09,-0.0012982181767815,0.0012982241126024,-0.001298215119853,0.0012982263790503,-0.0012982177814388,0.0012982237174571,-0.0012982147899313,0.0012982260493537,-0.0011071828163163,0.001107192660793,-0.0011071821970649,0.0011071920415251,0.62417410960896,125301,3014,0.0044861865523591,0.0044861865523547,0.0044861865523698,24.778018335793,0.00011342414668635,0.00011342414668635,0.00011342414668635,2639808.8925151,0.013550504804433
29919200,0.99995031679489,0.015729386585929,0.0052431288619747,0.0052431288619724,0.0052431288619821,-0.0010842992330492,0.0010843061772121,3.3570871213223e-09,3.3571163079012e-09,3.0486209647222e-09,3.3245383295331e-09,-0.001298243813191,0.0012982515303422,-0.0012982434406473,0.0012982511580033,-0.0012982434256154,0.0012982513238031,-0.0012982430682354,0.0012982509666355,-0.0011119086092111,0.0011119149753074,-0.0011119091598656,0.0011119155259623,3.0486242081714e-09,3.3245510143754e-09,7.2356455696201e-09,-5.2142610701916e-10,-0.0010842992330382,0.0010843061772208,-0.001298242498859,0.0012982528063003,-0.0012982447549485,0.0012982498820731,-0.0012982421189678,0.001298252607436,-0.0012982443748788,0.001298249683022,-0.001111904757175,0.0011119187186176,-0.0011119130118807,0.0011119117826717,-0.0011119101126119,0.001111913221734,-0.0011119106393467,0.0011119142634007,3.9104471963165e-09,3.9104795480929e-09,-0.0010842986829264,0.0010843067273399,-1.0676492356664e-10,7.7791025307722e-09,-0.0012982446491221,0.0012982508278843,-0.0012982415812037,0.0012982530667242,-0.0012982442344803,0.00129825041344,-0.0012982412339508,0.0012982527196964,-0.0011119073235036,0.0011119173627706,-0.0011119067029119,0.0011119167421628,0.68688558505508,125301,3014,0.0045082190120502,0.0045082190120457,0.0045082190120607,25.464707322168,0.00011891765857734,0.00011891765857734,0.00011891765857734,2711436.370583,0.013617438092038
30419200,0.99995797202321,0.015729486160158,0.0052431620533842,0.0052431620533819,0.0052431620533917,-0.0010841420165874,0.0010841490003285,3.3745888603914e-09,3.3746180880868e-09,3.0702664009984e-09,3.3426746556132e-09,-0.001301171004788,0.0013011787389176,-0.0013011706323228,0.0013011783666573,-0.0013011706166018,0.0013011785301099,-0.001301170259342,0.0013011781730624,-0.0011118526394786,0.001111859042105,-0.001111853184973,0.0011118595876002,3.0702696960346e-09,3.3426872289975e-09,7.2401068503361e-09,-4.9088366242368e-10,-0.0010841420165765,0.0010841490003374,-0.0013011696944701,0.0013011800105278,-0.00130117194261,0.0013011770950753,-0.0013011693139891,0.0013011798094155,-0.0013011715619503,0.001301176893776,-0.001111848800303,0.0011118627726747,-0.0011118570241278,0.0011118558570504,-0.0011118541363093,0.0011118572996894,-0.0011118546575764,0.0011118583288967,3.9036833475357e-09,3.9037157348992e-09,-0.0010841414905336,0.0010841495263875,-1.0080629324576e-10,7.7593880094932e-09,-0.001301171858354,0.001301178016218,-0.0013011687998071,0.0013011802474668,-0.0013011714446026,0.001301177602664,-0.0013011684524168,0.0013011799003017,-0.0011118513768249,0.0011118613965431,-0.0011118507626087,0.0011118607823106,0.56251928746541,125301,3014,0.0045075861936068,0.0045075861936026,0.0045075861936178,26.130031883963,0.0001242402550717,0.0001242402550717,0.0001242402550717,2663208.982014,0.013615559010096
30919200,0.99996478002111,0.015729593114339,0.0052431977047779,0.0052431977047756,0.0052431977047853,-0.0010897533804083,0.0010897597460853,3.1356766892296e-09,3.1357059044841e-09,2.8348648148405e-09,3.1044086001835e-09,-0.0013021107937125,0.0013021180045725,-0.001302110467286,0.0013021176783508,-0.0013021104485671,0.0013021178404988,-0.0013021101366548,0.001302117528799,-0.001117071917425,0.0011170778123263,-0.001117072477932,0.0011170783728338,2.8348680052372e-09,3.1044213497756e-09,6.9566557840293e-09,-6.8525678385409e-10,-0.0010897533803972,0.0010897597460943,-0.0013021095011791,0.0013021192617792,-0.0013021117597882,0.0013021164211724,-0.0013021091633932,0.0013021191050553,-0.0013021114218239,0.0013021162642619,-0.0011170681233601,0.0011170815016915,-0.0011170762719754,0.0011170746834884,-0.0011170733978258,0.0011170760874881,-0.0011170739332229,0.0011170771292186,3.6844594428814e-09,3.6844917754525e-09,-0.0010897528348973,0.0010897602916015,-2.6980175377103e-10,7.4964755950075e-09,-0.0013021116113787,0.0013021173160979,-0.0013021086307626,0.0013021195609948,-0.0013021112434168,0.0013021169483334,-0.0013021083285142,0.0013021192589717,-0.0011170706656814,0.0011170801859475,-0.0011170700364428,0.001117079556693,0.67617106509292,125301,3014,0.0045308330479273,0.004530833047923,0.0045308330479383,27.118978089529,0.00013215182471624,0.00013215182471624,0.00013215182471624,2728373.1275805,0.01368619349916
31419200,0.99997087073766,0.015729691899508,0.0052432306331675,0.0052432306331652,0.005243230633175,-0.0010892962069025,0.0010893019415454,2.8943589834963e-09,2.8943882262794e-09,2.6058972268785e-09,2.8653898466012e-09,-0.0013066819709422,0.0013066886179637,-0.0013066816952608,0.0013066883424873,-0.0013066816719507,0.0013066884981437,-0.0013066814100981,0.0013066882365036,-0.0011169729051629,0.0011169782873677,-0.0011169734719086,0.0011169788541144,2.6059003863873e-09,2.8654024673351e-09,6.6397523196289e-09,-8.5098906609232e-10,-0.0010892962068916,0.0010893019415542,-0.0013066807060689,0.0013066898504266,-0.0013066829601034,0.0013066871100523,-0.0013066804140945,0.0013066897376138,-0.0013066826679502,0.0013066869970526,-0.0011169691870502,0.0011169819056912,-0.0011169771899998,0.0011169752358103,-0.0011169743549546,0.0011169766053334,-0.0011169748932511,0.001116977634675,3.4036746384291e-09,3.4037070383511e-09,-0.0010892957006002,0.0010893024478527,-4.6980327393541e-10,7.1414506995097e-09,-0.0013066827961973,0.0013066879139841,-0.0013066799204943,0.0013066901591201,-0.0013066824808113,0.0013066875987956,-0.0013066796675621,0.0013066899064131,-0.0011169717243442,0.001116980603396,-0.0011169710916263,0.0011169799706617,0.69952705654839,125301,3014,0.0045289664001611,0.0045289664001568,0.0045289664001716,28.435970347282,0.00014268776277825,0.00014268776277825,0.00014268776277825,2651469.7996582,0.013680584102292
31919200,0.99997611689338,0.015729779606271,0.0052432598687554,0.0052432598687531,0.0052432598687628,-0.0010894190171134,0.0010894256622692,3.244574378627e-09,3.2446036243512e-09,2.9454090209233e-09,3.2137095711727e-09,-0.001307975611291,0.0013079830439174,-0.0013079752660346,0.001307982698866,-0.0013079752482592,0.0013079828598937,-0.001307974918203,0.0013079825300498,-0.0011173930468923,0.0011173991745421,-0.00111739359505,0.0011173997227006,2.9454122280571e-09,3.2137221001263e-09,6.9745684605097e-09,-4.8537437826064e-10,-0.0010894190171026,0.001089425662278,-0.0013079743460671,0.0013079842703801,-0.0013079765312279,0.0013079814724314,-0.0013079739907381,0.0013079840940492,-0.00130797617572,0.0013079812959136,-0.0011173893406116,0.0011174027726124,-0.0011173973013095,0.0011173961246496,-0.0011173944967826,0.0011173974846364,-0.0011173950188156,0.0011173985086952,3.7513048081249e-09,3.751337196459e-09,-0.0010894185134143,0.0010894261659735,-1.1761364061637e-10,7.4716161880483e-09,-0.0013079764391371,0.0013079823431764,-0.0013079734991542,0.0013079845124785,-0.0013079760536943,0.0013079819579311,-0.0013079731787113,0.0013079841922606,-0.0011173918540502,0.0011174014645833,-0.0011173912383792,0.0011174008488958,0.71926751588325,125301,3014,0.004529484433348,0.0045294844333438,0.0045294844333588,29.268572449657,0.00014934857959725,0.00014934857959725,0.00014934857959725,2632450.7099438,0.013682168028158
32419200,0.99998042459702,0.015729858738492,0.0052432862461621,0.0052432862461599,0.0052432862461696,-0.0010879758559415,0.0010879836604354,3.6810428767257e-09,3.6810721248616e-09,3.36487980232e-09,3.6558377701362e-09,-0.0013072567168752,0.0013072651539533,-0.0013072563716717,0.0013072648089548,-0.0013072563458195,0.0013072649779111,-0.001307256015794,0.001307264648098,-0.0011161335723893,0.0011161406987703,-0.0011161341219131,0.0011161412482948,3.364883050356e-09,3.6558503300558e-09,7.410020116828e-09,-4.788902589928e-11,-0.0010879758559305,0.0010879836604442,-0.0013072554520135,0.0013072663801061,-0.0013072576365027,0.0013072635828301,-0.0013072550886494,0.0013072662117456,-0.0013072572729598,0.0013072634142828,-0.0011161298671249,0.0011161442958416,-0.0011161378271563,0.0011161376512429,-0.0011161350385567,0.0011161389927657,-0.001116135543025,0.0011161400368489,4.1860716504139e-09,4.1861040382774e-09,-0.0010879753539447,0.0010879841624373,3.0122513869055e-10,7.9110222626561e-09,-0.0013072575460041,0.0013072644517426,-0.0013072545988023,0.0013072666285265,-0.0013072571606927,0.0013072640666287,-0.0013072542783801,0.0013072663083293,-0.0011161323830204,0.0011161429881911,-0.0011161317660026,0.0011161423711569,0.78912843059546,125301,3014,0.0045235025386815,0.0045235025386773,0.0045235025386923,29.299081233777,0.00014959264987022,0.00014959264987022,0.00014959264987022,2609756.7539094,0.013663982805046
32919200,0.99998393413893,0.015729915077934,0.0052433050259761,0.0052433050259739,0.0052433050259836,-0.0010849804381839,0.0010849889330467,3.9530016393663e-09,3.953030884767e-09,3.6343499192665e-09,3.9186285184857e-09,-0.0013071879677811,0.0013071969808285,-0.0013071874827354,0.0013071964959877,-0.0013071874751164,0.0013071966660753,-0.0013071870074122,0.0013071961985833,-0.0011134866691717,0.0011134943078412,-0.0011134871818778,0.0011134948205481,3.634353165992e-09,3.9186410474687e-09,7.771087842949e-09,1.3496069143021e-10,-0.001084980438173,0.0010849889330555,-0.001307186664325,0.0013071982353948,-0.0013071887861608,0.0013071952414494,-0.0013071861804337,0.001307197929405,-0.0013071883020908,0.0013071949352727,-0.0011134828714111,0.001113497983709,-0.0011134909796172,0.0011134911446996,-0.001113488157452,0.001113492565256,-0.0011134886488257,0.0011134935775957,4.4593154755615e-09,4.4593478732776e-09,-0.001084979934858,0.0010849894363777,4.8458585498476e-10,8.2643603560375e-09,-0.0013071888347714,0.0013071962516325,-0.0013071856879028,0.0013071983460392,-0.001307188308438,0.0013071957254965,-0.0013071852309531,0.0013071978893145,-0.0011134854103102,0.0011134965920496,-0.0011134848273045,0.0011134960090274,0.69092321609739,125301,3014,0.0045110983696087,0.0045110983696044,0.0045110983696193,29.174701534283,0.00014859761227427,0.00014859761227427,0.00014859761227427,2578190.0481142,0.013626296092906
33419200,0.99998683426053,0.015729967517013,0.0052433225056692,0.005243322505667,0.0052433225056767,-0.0010869579120974,0.0010869659469251,3.7806361364553e-09,3.7806657191398e-09,3.4623349568672e-09,3.7463507941725e-09,-0.0013061020838693,0.0013061107213374,-0.0013061016186045,0.001306110256275,-0.0013061016102962,0.0013061104262673,-0.0013061011614898,0.0013061099776706,-0.0011151472258949,0.0011151544875186,-0.0011151477413651,0.001115155002996,3.4623383262994e-09,3.7463637597268e-09,7.7529034176518e-09,-1.9158567091603e-10,-0.0010869579120852,0.0010869659469315,-0.0013061007327707,0.0013061120276801,-0.0013061029696685,0.0013061089499557,-0.0013061002675338,0.0013061117409336,-0.0013061025042521,0.0013061086630203,-0.001115143279255,0.001115158318279,-0.0011151516879744,0.0011151511722517,-0.0011151487649613,0.0011151526921323,-0.0011151492590915,0.0011151537093031,4.3234286237527e-09,4.3234606501567e-09,-0.0010869573723506,0.0010869664866751,2.0301268633708e-10,8.2840339670369e-09,-0.0013061029664455,0.0013061099778689,-0.0013060997390991,0.0013061121901062,-0.0013061024587881,0.0013061094704061,-0.0013060993009489,0.0013061117521827,-0.0011151458833115,0.001115156860807,-0.0011151452969779,0.0011151562744642,0.77567308772676,125301,3014,0.0045192821537473,0.0045192821537353,0.004519282153754,29.316002331095,0.00014972801864876,0.00014972801864876,0.00014972801864876,2633092.4790863,0.013651138257087
33919200,0.99998929846716,0.01573001125787,0.0052433370859549,0.0052433370859526,0.0052433370859623,-0.0010857852616092,0.0010857921004604,3.3182827635629e-09,3.3183123534236e-09,3.0176339379428e-09,3.2873457817694e-09,-0.0013078516674179,0.0013078592675702,-0.0013078513091494,0.0013078589095068,-0.0013078512912679,0.0013078590701955,-0.0013078509474722,0.0013078587266123,-0.001114277679622,0.0011142839638917,-0.0011142782308892,0.0011142845151607,3.0176370292119e-09,3.2873583383692e-09,7.2576273945518e-09,-6.2101631129726e-10,-0.0010857852615983,0.0010857921004692,-0.0013078503349363,0.0013078605643411,-0.0013078526416004,0.001307857612764,-0.0013078499661254,0.0013078603742955,-0.0013078522726107,0.0013078574225315,-0.0011142737699054,0.0011142877692354,-0.0011142821405848,0.0011142807098367,-0.0011142791997019,0.0011142822025856,-0.001114279724624,0.001114283231335,3.839111483103e-09,3.8391435128892e-09,-0.001085784743734,0.0010857926183407,-2.3467472558351e-10,7.7698097687185e-09,-0.0013078525514597,0.0013078585113254,-0.0013078494601245,0.001307860804817,-0.0013078521524356,0.0013078581124986,-0.0013078491258214,0.0013078604707389,-0.0011142764071977,0.0011142863405926,-0.0011142757880708,0.00111428572145,0.76303060755973,125301,3014,0.0045144306693383,0.0045144306693341,0.0045144306693491,30.069208123596,0.00015575366498877,0.00015575366498877,0.00015575366498877,2571930.3472337,0.013636425573429
34419200,0.99999143903882,0.015730047532989,0.0052433491776612,0.0052433491776589,0.0052433491776687,-0.0010879961854082,0.0010880017576421,2.8327013612708e-09,2.8327309379849e-09,2.5458486501007e-09,2.804464306967e-09,-0.0013096970171766,0.0013097035291892,-0.0013096967566983,0.001309703268916,-0.0013096967313463,0.0013097034228544,-0.0013096964838103,0.0013097031755308,-0.0011165671671575,0.0011165724179284,-0.0011165677428111,0.0011165729935836,2.5458518607321e-09,2.804477011827e-09,6.6762667650577e-09,-1.0108183665118e-09,-0.0010879961853972,0.001088001757651,-0.0013096957226695,0.0013097047950319,-0.0013096980511746,0.0013097020031013,-0.001309695443413,0.0013097046952611,-0.0013096977717394,0.0013097019031436,-0.0011165633550134,0.0011165761353176,-0.001116571554934,0.0011165692762139,-0.0011165686494796,0.0011165707056237,-0.0011165691943367,0.0011165717411275,3.3473213120434e-09,3.3473533289476e-09,-0.0010879956738405,0.0010880022692148,-6.1878396604518e-10,7.1846018386985e-09,-0.0013096978685943,0.0013097027971628,-0.001309694944855,0.0013097051209382,-0.0013096975685101,0.0013097024972758,-0.0013096947059532,0.0013097048822612,-0.0011165659584128,0.0011165747805784,-0.0011165653169978,0.0011165741391479,0.72790058071019,125301,3014,0.0045235954218208,0.0045235954218165,0.0045235954218315,31.478311466048,0.00016702649172838,0.00016702649172838,0.00016702649172838,2569849.7474782,0.013664285878556
34919200,0.99999332315385,0.01573008081286,0.0052433602709516,0.0052433602709493,0.005243360270959,-0.0010926208219805,0.0010926250446665,2.3148988611935e-09,2.3149284215846e-09,2.0436855309275e-09,2.2895913274095e-09,-0.0013131177608661,0.0013131231040736,-0.0013131176056526,0.0013131229490652,-0.0013131175722211,0.0013131230954615,-0.0013131174285,0.0013131229519528,-0.0011210532554755,0.0011210574052436,-0.001121053855032,0.0011210580048013,2.0436887470223e-09,2.2896040154907e-09,5.996210797269e-09,-1.3663672620462e-09,-0.0010926208219695,0.0010926250446754,-0.0013131165261635,0.0013131243168212,-0.0013131188403243,0.0013131217363458,-0.0013131163433672,0.001313124314048,-0.0013131186573494,0.0013131217333858,-0.0011210496058239,0.0011210609692296,-0.0011210575046622,0.001121054440835,-0.0011210546770872,0.0011210557664823,-0.0011210552413553,0.0011210568057237,2.8160008757239e-09,2.8160328875989e-09,-0.0010926203240669,0.0010926255425853,-9.7649987852548e-10,6.4931991517819e-09,-0.0013131185639546,0.0013131224107623,-0.0013131158597788,0.0013131247285355,-0.0013131183706512,0.0013131222176559,-0.0013131157237511,0.0013131245927324,-0.0011210521391255,0.0011210597241405,-0.001121051476295,0.0011210590612944,0.75808686568768,125301,3014,0.0045427666869374,0.0045427666869331,0.0045427666869483,33.571147105813,0.0001837691768465,0.0001837691768465,0.0001837691768465,2577816.8125162,0.013722571296478
35419200,0.99999495214776,0.015730106337581,0.005243368779192,0.0052433687791898,0.0052433687791995,-0.0010962373477512,0.0010962410148847,2.1020004125656e-09,2.1020299724861e-09,1.837726033437e-09,2.0781181578285e-09,-0.0013178867101901,0.0013178915743,-0.0013178865968546,0.0013178914611696,-0.001317886560364,0.0013178916044452,-0.0013178864583812,0.0013178915026751,-0.0011247376989967,0.001124741395741,-0.0011247383062923,0.0011247420030381,1.8377291985454e-09,2.078130688692e-09,5.6271931292472e-09,-1.4231467471002e-09,-0.0010962373477403,0.0010962410148935,-0.0013178855280301,0.0013178927350886,-0.0013178877789841,0.0013178903004092,-0.0013178853839828,0.0013178927710029,-0.0013178876347582,0.0013178903361366,-0.0011247342026549,0.0011247448076105,-0.001124741802613,0.001124738591188,-0.0011247390664006,0.0011247398181877,-0.0011247396357444,0.0011247408555251,2.5795965067151e-09,2.5796285350602e-09,-0.001096236873404,0.0010962414892369,-1.0557205284772e-09,6.1010176531427e-09,-0.0013178874810396,0.001317890908411,-0.001317884924444,0.0013178931649133,-0.0013178873308908,0.0013178907584593,-0.0013178848297784,0.0013178930704725,-0.0011247366657002,0.0011247436473155,-0.0011247359965261,0.0011247429781256,0.67379056419234,125301,3014,0.0045577730059706,0.0045577730059664,0.0045577730059814,35.926882589457,0.00020261506071566,0.00020261506071566,0.00020261506071566,2551461.5754184,0.013768224568684
35919200,0.99999626982105,0.015730128505224,0.0052433761684064,0.0052433761684041,0.0052433761684138,-0.001101359406425,0.0011013645028781,2.6484802163944e-09,2.6485097637859e-09,2.3662210444684e-09,2.6211557614613e-09,-0.0013200566097171,0.0013200627039353,-0.0013200563856887,0.0013200624801119,-0.001320056358291,0.0013200626327681,-0.0013200561479915,0.001320062422681,-0.0011295886150558,0.0011295934776082,-0.0011295891948565,0.0011295940574103,2.3662242495599e-09,2.6211685561605e-09,6.1019582132549e-09,-8.0495204049892e-10,-0.0011013594064139,0.001101364502887,-0.0013200554421239,0.0013200638393288,-0.001320057553251,0.0013200613447465,-0.0013200551976646,0.0013200637751189,-0.0013200573086131,0.0013200612803498,-0.0011295851831016,0.0011295968101131,-0.0011295926267891,0.001129590724925,-0.0011295899671501,0.0011295919010016,-0.0011295905139033,0.0011295929345201,3.1292845270057e-09,3.1293165344397e-09,-0.001101358929044,0.0011013649802642,-4.5283233672413e-10,6.5751733387473e-09,-0.0013200573625072,0.0013200620663287,-0.0013200547345236,0.0013200641707269,-0.0013200571006122,0.0013200618046309,-0.0013200545327277,0.0013200639691559,-0.0011295875728726,0.0011295956814127,-0.0011295869282748,0.0011295950367995,0.72183945217264,125301,3014,0.0045790021465207,0.0045790021465163,0.0045790021465315,37.534570814273,0.00021547656651418,0.00021547656651418,0.00021547656651418,2587183.3360868,0.013832752587164
36419200,0.99999724168114,0.01573014443806,0.0052433814793516,0.0052433814793493,0.005243381479359,-0.001099729309884,0.0010997368426386,3.566874531108e-09,3.5669041002635e-09,3.2497885884982e-09,3.5513440685823e-09,-0.0013200276485915,0.0013200358540235,-0.0013200274240597,0.0013200356296969,-0.0013200273798147,0.0013200357987132,-0.0013200271690411,0.001320035588152,-0.0011282087418734,0.0011282157039703,-0.0011282093223533,0.0011282162844517,3.2497917303107e-09,3.5513567840615e-09,7.0148904901791e-09,1.1890415798635e-10,-0.001099729309873,0.0010997368426474,-0.0013200264825955,0.0013200369875861,-0.001320028590025,0.0013200344961624,-0.0013200262208002,0.0013200369392476,-0.0013200283280511,0.001320034447637,-0.0011282053152311,0.0011282190310634,-0.0011282127489744,0.001128212957378,-0.0011282101260959,0.0011282140956735,-0.0011282106347134,0.0011282151680945,4.0387843511457e-09,4.0388163858729e-09,-0.0010997288412974,0.0010997373112303,4.2596704857259e-10,7.4911840177498e-09,-0.001320028408074,0.0013200352093078,-0.0013200257662301,0.0013200373268276,-0.0013200281458096,0.0013200349472407,-0.0013200255639047,0.001320037124727,-0.0011282077108774,0.0011282178981382,-0.0011282070657211,0.0011282172529663,0.70447270805608,125301,3014,0.0045722522628335,0.0045722522628292,0.0045722522628443,37.48842378748,0.00021510739029984,0.00021510739029984,0.00021510739029984,2540585.360922,0.013812246675815
36919200,0.99999794183458,0.015730154983237,0.0052433849944107,0.0052433849944084,0.0052433849944181,-0.0010985459909001,0.0010985554979663,4.344517157836e-09,4.3445467229916e-09,4.0100147552724e-09,4.3075867302705e-09,-0.0013190263204611,0.0013190362410589,-0.0013190257541987,0.0013190356750016,-0.0013190257536716,0.0013190358537412,-0.0013190252070944,0.0013190353073765,-0.0011269634287192,0.0011269718972114,-0.0011269639287501,0.0011269723972438,4.0100179340584e-09,4.307599485844e-09,7.999121204929e-09,6.8995888391215e-10,-0.0010985459908891,0.0010985554979752,-0.0013190250622674,0.0013190374395928,-0.0013190270123616,0.0013190344764958,-0.001319024505423,0.0013190370622105,-0.0013190264553386,0.0013190340989266,-0.0011269597851363,0.0011269754040244,-0.0011269675723115,0.0011269688904505,-0.0011269648719048,0.001126970188336,-0.0011269653527455,0.0011269712094561,4.8433265021411e-09,4.8433585310156e-09,-0.0010985454954704,0.0010985559934011,1.013161125079e-09,8.4812992765407e-09,-0.0013190271481214,0.0013190355591633,-0.0013190240208749,0.0013190374707283,-0.0013190265401783,0.0013190349514175,-0.0013190234860357,0.0013190369361139,-0.0011269622172867,0.0011269741073876,-0.0011269616443052,0.0011269735343904,0.64727478642576,125301,3014,0.0045673531626925,0.0045673531626881,0.0045673531627033,36.86231248802,0.00021009849990416,0.00021009849990416,0.00021009849990416,2561547.8084364,0.013797346801623
37419200,0.99999848217409,0.015730163218447,0.0052433877394805,0.0052433877394783,0.005243387739488,-0.001101578389126,0.0011015851068204,3.2728175808459e-09,3.2728471324726e-09,2.9701278062225e-09,3.24167283812e-09,-0.0013201839273611,0.0013201914414892,-0.0013201835770358,0.0013201910913692,-0.0013201835593054,0.0013201912538824,-0.001320183224363,0.0013201909191524,-0.0011297892491158,0.0011297954356682,-0.0011297898080944,0.0011297959946481,2.9701310789765e-09,3.2416855862342e-09,6.9469757163062e-09,-4.0129466606216e-10,-0.001101578389115,0.0011015851068293,-0.0013201826796769,0.0013201926493382,-0.001320184824689,0.0013201898835484,-0.0013201823194153,0.0013201924695155,-0.0013201844642487,0.0013201897035388,-0.0011297855965304,0.0011297989774255,-0.0011297934606581,0.0011297924529105,-0.0011297906835281,0.0011297937588732,-0.0011297912156989,0.0011297947992898,3.7807321895209e-09,3.7807642034547e-09,-0.0011015778845865,0.001101585611365,-3.5474184788005e-11,7.4446446111291e-09,-0.0013201847368223,0.0013201907597363,-0.0013201818277915,0.0013201928881331,-0.001320184346403,0.0013201903695144,-0.0013201815025102,0.0013201925630765,-0.0011297880847516,0.0011297977193742,-0.0011297874574111,0.0011297970920183,0.65462458225499,125301,3014,0.0045799132237775,0.0045799132237733,0.0045799132237884,37.673127361255,0.00021658501889004,0.00021658501889004,0.00021658501889004,2585583.7847012,0.013835524670117
37919200,0.99999888071133,0.015730168877312,0.0052433896257688,0.0052433896257666,0.0052433896257763,-0.0011013508780997,0.0011013587596203,3.7102107464026e-09,3.7102403100583e-09,3.3914033040894e-09,3.6846403698542e-09,-0.0013204741780065,0.0013204826954303,-0.0013204738279192,0.0013204823455481,-0.0013204738021911,0.0013204825156404,-0.0013204734674824,0.0013204821811442,-0.0011296125013733,0.0011296196894483,-0.0011296130593292,0.0011296202474057,3.3914065440806e-09,3.6846530808096e-09,7.3848386505103e-09,3.5628615808927e-11,-0.0011013508780887,0.0011013587596292,-0.0013204729301804,0.0013204839034342,-0.0013204750757144,0.0013204811375724,-0.0013204725621569,0.0013204837314263,-0.0013204747075122,0.0013204809653777,-0.0011296088484214,0.001129623231793,-0.0011296167122594,0.0011296167050805,-0.0011296139516103,0.0011296179971954,-0.0011296144645801,0.0011296190541315,4.2140360300919e-09,4.2140680572017e-09,-0.0011013503775921,0.0011013592601331,3.8059597356897e-10,7.8841066465421e-09,-0.0013204749914397,0.0013204820094506,-0.0013204720744365,0.0013204841463808,-0.001320474601301,0.0013204816195091,-0.0013204717493523,0.0013204838215213,-0.0011296113397772,0.0011296219683384,-0.0011296107135736,0.0011296213421192,0.61069305856347,125301,3014,0.0045789743909527,0.0045789743909484,0.0045789743909635,37.676456444338,0.0002166116515547,0.0002166116515547,0.0002166116515547,2571414.3593779,0.013832678328487
38419200,0.99999916884289,0.015730173558246,0.0052433911860802,0.005243391186078,0.0052433911860877,-0.0011015488625324,0.0011015580697285,4.2319927638496e-09,4.2320223214172e-09,3.898473699128e-09,4.1952578005186e-09,-0.0013195336441787,0.0013195433265828,-0.0013195331000778,0.0013195427826871,-0.0013195330979417,0.0013195429609589,-0.0013195325725923,0.0013195424358221,-0.0011296449864247,0.0011296532107328,-0.0011296454953931,0.0011296537197025,3.8984769474075e-09,4.1952704845392e-09,8.0641745937006e-09,3.9985665917686e-10,-0.0011015488625214,0.0011015580697373,-0.0013195323308372,0.0013195445847718,-0.0013195344133885,0.0013195415245262,-0.0013195317940785,0.0013195442286164,-0.0013195338764512,0.001319541168184,-0.0011296411710388,0.0011296568950217,-0.0011296493107575,0.0011296500354332,-0.0011296464874776,0.0011296514425986,-0.0011296469774461,0.0011296524732699,4.7612932980522e-09,4.7613253205445e-09,-0.0011015483365904,0.0011015585956756,7.6127501436499e-10,8.5783260594538e-09,-0.001319534500414,0.0013195426167599,-0.0013195312791119,0.001319544664548,-0.0013195339135547,0.0013195420300979,-0.0013195307653616,0.0013195441510226,-0.0011296436955603,0.0011296555185639,-0.0011296431132146,0.0011296549362026,0.69725492786582,125301,3014,0.0045797927440103,0.004579792744006,0.0045797927440211,37.198496866259,0.00021278797493007,0.00021278797493007,0.00021278797493007,2596333.0422068,0.013835153369438
38880000,0.99999937004836,0.015730176951123,0.0052433923170393,0.0052433923170371,0.0052433923170468,-0.0010988801990788,0.0010988885778809,3.9170893156396e-09,3.9171127823345e-09,3.5959324856868e-09,3.87973074633e-09,-0.0013198213388063,0.0013198302734959,-0.0013198208284426,0.0013198297620187,-0.0013198208248336,0.0013198299335941,-0.0013198203334772,0.0013198294414515,-0.0011274168382395,0.0011274243437838,-0.0011274173782101,0.0011274248837946,3.5942443467917e-09,3.8776384653158e-09,7.7601882085564e-09,6.9191641243659e-11,-0.0010988802013613,0.0010988885759925,-0.0013198200259311,0.0013198315342721,-0.0013198221459007,0.0013198284975331,-0.0013198195206873,0.0013198312040139,-0.0013198216411622,0.0013198281673334,-0.0011274130128856,0.00112742804144,-0.0011274212075021,0.0011274211835325,-0.0011274183365214,0.0011274225839408,-0.001127418863352,0.0011274236299818,4.4272265790023e-09,4.4272615435812e-09,-0.0010988796922561,0.0010988890852642,4.2456483954147e-10,8.2574947598209e-09,-0.001319822215711,0.0013198295394658,-0.0013198190235883,0.001319831625722,-0.0013198216613076,0.0013198289858298,-0.0013198185419442,0.001319831144142,-0.0011274155919249,0.0011274266690644,-0.0011274149819042,0.0011274260586643,0.72416034322612,125301,3014,0.0045687367290385,0.0045687367298554,0.0045687367301956,37.193691631633,0.00021274953305306,0.00021274953305306,0.00021274953305306,2532623.3624131,0.013801566056088
