time,ASR_ext,ASR_strain,ASR_strain_xx,ASR_strain_yy,ASR_strain_zz,disp_x_101,disp_x_102,disp_x_103,disp_x_104,disp_x_105,disp_x_106,disp_x_p1_neg,disp_x_p1_pos,disp_x_p2_neg,disp_x_p2_pos,disp_x_p3_neg,disp_x_p3_pos,disp_x_p4_neg,disp_x_p4_pos,disp_x_p5_neg,disp_x_p5_pos,disp_x_p6_neg,disp_x_p6_pos,disp_y_101,disp_y_102,disp_y_103,disp_y_104,disp_y_105,disp_y_106,disp_y_p1_neg,disp_y_p1_pos,disp_y_p2_neg,disp_y_p2_pos,disp_y_p3_neg,disp_y_p3_pos,disp_y_p4_neg,disp_y_p4_pos,disp_y_p5_neg,disp_y_p5_pos,disp_y_p6_neg,disp_y_p6_pos,disp_y_p7_neg,disp_y_p7_pos,disp_y_p8_neg,disp_y_p8_pos,disp_z_101,disp_z_102,disp_z_103,disp_z_104,disp_z_105,disp_z_106,disp_z_p1_neg,disp_z_p1_pos,disp_z_p2_neg,disp_z_p2_pos,disp_z_p3_neg,disp_z_p3_pos,disp_z_p4_neg,disp_z_p4_pos,disp_z_p5_neg,disp_z_p5_pos,disp_z_p6_neg,disp_z_p6_pos,humidity,ndof,nelem,strain_xx,strain_yy,strain_zz,temp,thermal_strain_xx,thermal_strain_yy,thermal_strain_zz,vonmises,vstrain
2419200,0,0,0,0,0,0,0,0,0,0,0,0,0,0,0,0,0,0,0,0,0,0,0,0,0,0,0,0,0,0,0,0,0,0,0,0,0,0,0,0,0,0,0,0,0,0,0,0,0,0,0,0,0,0,0,0,0,0,0,0,0,0,0,0,0,0,0,0,0,0,0,0,0,0,0
3419200,0.15867829714005,0.0030041748869676,0.0010013916289892,0.0010013916289892,0.0010013916289892,-0.00027375922103233,0.00027375333794896,-2.1859219597317e-09,-2.1859223108092e-09,-2.1195807455867e-09,-2.1716402955561e-09,-0.00027911140186058,0.00027910660033206,-0.00027911189302929,0.00027910709150149,-0.00027911185230938,0.00027910705373284,-0.00027911233419508,0.00027910753562717,-0.00027449671745481,0.00027449210185804,-0.00027449716311367,0.00027449254749619,-2.1195821417761e-09,-2.1716484302603e-09,-2.4260167807353e-09,-1.9458375053837e-09,-0.00027375922103209,0.00027375333794315,-0.00027911151443983,0.00027910652848132,-0.00027911178045919,0.00027910716332145,-0.00027911196024252,0.00027910697726154,-0.00027911222625485,0.00027910761209354,-0.00027449697607897,0.00027449189904687,-0.00027449690450148,0.00027449275029599,-0.00027449661457188,0.00027449226688814,-0.00027449702985763,0.00027449262100117,-2.2401708841849e-09,-2.2401705232253e-09,-0.00027375927550804,0.00027375328346535,-1.9405595677593e-09,-2.4669007348833e-09,-0.00027911134048598,0.00027910661629277,-0.00027911202017728,0.00027910693065038,-0.00027911183750433,0.00027910711331422,-0.00027911249683058,0.00027910740729507,-0.00027449730463882,0.00027449241335614,-0.00027449687092104,0.00027449197964013,0.75746877217741,125301,3014,0.0011399991983106,0.001139999198298,0.0011399991982942,31.800099669237,0.0001696007973539,0.0001696007973539,0.0001696007973539,1073466.2092654,0.0034258547249787
4419200,0.34967069012994,0.0064332718581721,0.0021444239527517,0.0021444239527187,0.0021444239527018,-0.00054068487772874,0.00054066913535429,-6.4970249694352e-09,-6.4970245269193e-09,-6.2178326610244e-09,-6.4461080499268e-09,-0.00056334899927162,0.0005633349140752,-0.00056335089192909,0.00056333680672887,-0.0005633507893015,0.00056333664522708,-0.00056335264335491,0.00056333849928913,-0.00054528653807175,0.00054527313062873,-0.00054528841716873,0.00054527500969641,-6.2178390229872e-09,-6.4461246972583e-09,-7.1935570110876e-09,-5.8005180144038e-09,-0.00054068487772872,0.00054066913533892,-0.00056334933739427,0.00056333471937319,-0.00056335055382685,0.00056333700136657,-0.00056335110809215,0.00056333643124686,-0.00056335232454777,0.00056333871325,-0.00054528732350685,0.00054527256671487,-0.00054528763176464,0.00054527557357718,-0.0005452861763293,0.00054527373577076,-0.00054528797906929,0.00054527521240858,-6.6613033979008e-09,-6.6613022659353e-09,-0.00054068504268027,0.00054066897037984,-5.7118957955631e-09,-7.3093913126128e-09,-0.00056334881679788,0.00056333493871065,-0.0005633512908362,0.00056333629843297,-0.00056335073367345,0.00056333685557854,-0.00056335312374853,0.00056333813130855,-0.00054528883934433,0.00054527461433141,-0.00054528702058092,0.00054527279559033,0.73992840791513,125301,3014,0.0022502854986615,0.0022502854986295,0.0022502854986138,33.600034800948,0.00018400027840758,0.00018400027840758,0.00018400027840758,2060476.1841322,0.0067737179916686
5419200,0.54966259729057,0.0098539290854902,0.0032846430285168,0.0032846430284992,0.0032846430284742,-0.00080332055567367,0.00080331227403051,-3.2567468554426e-09,-3.2567415061649e-09,-2.9715295441357e-09,-3.2194970775007e-09,-0.00085585529368241,0.00085584762286623,-0.0008558563482203,0.00085584867738993,-0.0008558564034186,0.0008558485155095,-0.00085585742479146,0.0008558495368975,-0.00081463385942242,0.0008146269118221,-0.00081463414580284,0.00081462719817923,-2.9715373326151e-09,-3.2195148025658e-09,-3.4264238171343e-09,-3.0870910156228e-09,-0.0008033205556782,0.00080331227401766,-0.00085585538790912,0.0008558476016787,-0.00085585625400807,0.0008558486985317,-0.00085585648104336,0.00085584847777028,-0.00085585734715986,0.00085584957462214,-0.00081463414228381,0.00081462685157564,-0.00081463386299543,0.000814627258395,-0.00081463363439532,0.00081462737202114,-0.00081463389700681,0.00081462721558075,-3.2857738049834e-09,-3.2857677379922e-09,-0.00080332058405724,0.00080331224562803,-2.851491955481e-09,-3.4180304006351e-09,-0.00085585522850784,0.00085584761304882,-0.00085585651465357,0.0008558484758361,-0.00085585630297447,0.00085584868749877,-0.00085585751952297,0.00085584948066937,-0.00081463424927291,0.00081462711303096,-0.00081463403127886,0.00081462689505799,0.72499638738019,125301,3014,0.0033415775144028,0.0033415775143856,0.0033415775143636,36.268488986462,0.00020534791189169,0.00020534791189169,0.00020534791189169,2871476.9976695,0.010075236308889
6419200,0.7060928803638,0.012003493468133,0.004001164489396,0.0040011644893777,0.0040011644893589,-0.00095644098562394,0.00095643588136745,-1.9767098916638e-09,-1.9767091030997e-09,-1.8147752168628e-09,-1.9618447246374e-09,-0.0010454919160469,0.001045487405691,-0.001045492636662,0.0010454881262917,-0.0010454927279691,0.0010454880525781,-0.0010454934374684,0.0010454887620882,-0.00096847241241615,0.00096846819359805,-0.00096847285509287,0.00096846863624415,-1.814781699849e-09,-1.9618651436202e-09,-1.8197246141332e-09,-2.1337197437405e-09,-0.00095644098562905,0.00095643588135367,-0.0010454918588056,0.0010454874687488,-0.0010454926939228,0.0010454880631884,-0.0010454926651504,0.0010454881101096,-0.0010454935002816,0.001045488704545,-0.00096847232276527,0.00096846839721775,-0.00096847294478932,0.00096846843258855,-0.00096847235505074,0.0009684683592269,-0.00096847281241538,0.00096846856827045,-1.9011195067511e-09,-1.9011179552691e-09,-0.00095644090864077,0.00095643595833555,-1.8982573763784e-09,-1.7268238438199e-09,-0.0010454919041615,0.001045487421806,-0.0010454925836323,0.0010454881922527,-0.0010454926291185,0.0010454881467535,-0.0010454932892212,0.0010454888978104,-0.00096847273548796,0.00096846876265015,-0.00096847232233619,0.0009684683495259,0.59839168540088,125301,3014,0.003977304684676,0.003977304684658,0.0039773046846447,36.738724859124,0.00020910979887299,0.00020910979887299,0.00020910979887299,3201592.9406448,0.01200357901954
7419200,0.83167965179199,0.013499398876718,0.0044997996255884,0.0044997996255726,0.004499799625557,-0.0010602560376208,0.0010602510665469,-1.8395644310105e-09,-1.8395616255962e-09,-1.7150018066367e-09,-1.8292671527912e-09,-0.0011805896676347,0.0011805855224623,-0.0011805902823059,0.0011805861371218,-0.0011805903757642,0.0011805860889168,-0.001180590983704,0.0011805866968671,-0.0010725025304933,0.0010724985334139,-0.001072502944163,0.0010724989470518,-1.7150068978555e-09,-1.8292871230819e-09,-1.4389678665589e-09,-2.2401807764861e-09,-0.0010602560376251,0.001060251066535,-0.0011805895226595,0.0011805856611415,-0.0011805904273,0.0011805859984019,-0.0011805902274033,0.0011805862242551,-0.001180591132059,0.0011805865615174,-0.0010725021892632,0.0010724989644441,-0.0010725032854368,0.0010724985159929,-0.0010725025761834,0.0010724985599145,-0.0010725030087274,0.0010724988049824,-1.7186689518139e-09,-1.7186653351596e-09,-0.0010602559153903,0.0010602511887659,-1.9834885492275e-09,-1.3035317966455e-09,-0.0011805897046849,0.0011805855110048,-0.0011805900998457,0.0011805863423012,-0.0011805903179119,0.0011805861242208,-0.001180590706183,0.0011805869486063,-0.0010725026972727,0.0010724991981993,-0.0010725023042695,0.0010724988052197,0.52694121020036,125301,3014,0.0044081184716631,0.0044081184716473,0.0044081184716393,40.763644937543,0.00024130915950034,0.00024130915950034,0.00024130915950034,3355677.3145394,0.013312493866011
8419200,0.90753793237223,0.014304755768437,0.0047682519228271,0.0047682519228119,0.0047682519227982,-0.0011023139723852,0.0011023117092517,-7.9367658454867e-10,-7.9367349564304e-10,-7.1340112820288e-10,-7.9083872024348e-10,-0.0012451374389334,0.001245135674836,-0.0012451378336046,0.0012451360694953,-0.0012451379411255,0.001245136045751,-0.0012451383334914,0.0012451364381281,-0.0011161549743702,0.0011161531863177,-0.0011161553008108,0.0011161535127282,-7.1340556378636e-10,-7.9085700746239e-10,-3.4128488248295e-11,-1.5532416765378e-09,-0.0011023139723886,0.0011023117092411,-0.0012451371615747,0.0012451359290921,-0.0012451381109812,0.0012451358152011,-0.0012451376625939,0.0012451362988796,-0.0012451386120151,0.0012451361849903,-0.0011161542696064,0.0011161539537679,-0.0011161560056149,0.0011161527452542,-0.0011161551600054,0.0011161530328657,-0.0011161555169413,0.0011161532557812,-6.2048280926433e-10,-6.2047889761912e-10,-0.0011023137979809,0.0011023118836462,-1.2740295616832e-09,1.4822606720716e-10,-0.0012451375631609,0.0012451356025264,-0.0012451374814417,0.0012451364596089,-0.0012451379508412,0.001245135990196,-0.0012451378747233,0.0012451368528575,-0.0011161548799516,0.0011161539348677,-0.0011161545655082,0.0011161536204468,0.47156008474719,125301,3014,0.0045826406171511,0.0045826406171362,0.0045826406171309,41.433596056969,0.00024666876845575,0.00024666876845575,0.00024666876845575,3329177.7133346,0.013843272677304
9419200,0.94954419159058,0.014689472065115,0.0048964906883859,0.0048964906883709,0.004896490688358,-0.0011133811625548,0.001113380380881,-2.014935899209e-10,-2.014904334291e-10,-1.4630804144859e-10,-2.0276607669436e-10,-0.0012709041466012,0.0012709037315024,-0.0012709044132294,0.0012709039981189,-0.0012709045279302,0.0012709039870113,-0.0012709047937427,0.0012709042528348,-0.0011286695638835,0.001128669015881,-0.0011286698541016,0.0011286693060704,-1.4631320219144e-10,-2.0278345880306e-10,9.5956274156931e-10,-1.3625666972597e-09,-0.0011133811625583,0.0011133803808708,-0.0012709037314676,0.0012709041182969,-0.0012709048283811,0.0012709036112874,-0.0012709041123686,0.0012709043734232,-0.0012709052092957,0.0012709038664149,-0.0011286684620559,0.0011286701714867,-0.0011286709559703,0.0011286681504417,-0.0011286698949855,0.0011286686945346,-0.0011286702208637,0.0011286689175431,2.369631238804e-11,2.3700280972685e-11,-0.0011133809362316,0.0011133806071956,-1.0416628213864e-09,1.1922028143753e-09,-0.0012709043643424,0.0012709035810426,-0.0012709038785509,0.001270904578073,-0.0012709046199612,0.0012709038366502,-0.0012709041464282,0.0012709048459181,-0.001128669247669,0.0011286699130573,-0.0011286689642864,0.0011286696296973,0.40621133923259,125301,3014,0.0046285935852435,0.0046285935852297,0.0046285935852258,41.145280093353,0.00024436224074682,0.00024436224074682,0.00024436224074682,3245222.2531829,0.013983126526709
10419200,0.97055886222791,0.0148979411045,0.0049659803681807,0.0049659803681658,0.0049659803681533,-0.0011125334427347,0.0011125354426267,8.8719501991878e-10,8.8719819840992e-10,9.0297941136352e-10,8.7904863022657e-10,-0.0012775165700654,0.0012775186217571,-0.0012775166118905,0.0012775186635702,-0.0012775167434215,0.0012775186726209,-0.0012775167877943,0.0012775187170047,-0.0011293389188747,0.0011293406672811,-0.0011293391387812,0.0011293408871594,9.0297428097395e-10,8.7903231131518e-10,2.4672334989712e-09,-6.9285907423802e-10,-0.0011125334427378,0.001112535442617,-0.0012775160034174,0.0012775191455842,-0.0012775171785564,0.0012775181397071,-0.0012775161780274,0.0012775191977472,-0.0012775173531793,0.0012775181918711,-0.001129337398463,0.0011293422213805,-0.0011293406592324,0.0011293393330388,-0.0011293394072297,0.0011293401550771,-0.0011293396723636,0.0011293403618692,1.1694398963551e-09,1.1694438789393e-09,-0.0011125331594001,0.0011125357259531,-3.3938159562521e-10,2.75237642926e-09,-0.001277516889958,0.0012775183937212,-0.001277515885255,0.001277519450471,-0.0012775169159809,0.0012775184197329,-0.0012775159339102,0.001277519499094,-0.0011293383342535,0.0011293416900175,-0.0011293381139634,0.0011293414697493,0.43665130715676,125301,3014,0.0046251107875571,0.0046251107875435,0.0046251107875404,38.098437699764,0.00021998750159811,0.00021998750159811,0.00021998750159811,3201478.8552572,0.013972574989124
11419200,0.98269577551433,0.015009595877468,0.0050031986258367,0.0050031986258219,0.0050031986258095,-0.0011097347294862,0.0011097349049842,1.881063674796e-10,1.8810959179286e-10,2.2952300578855e-10,1.842012677483e-10,-0.0012829934568001,0.001282993901503,-0.0012829936432356,0.0012829940879264,-0.0012829937597837,0.0012829940812341,-0.0012829939441624,0.0012829942656238,-0.0011279721776509,0.0011279724471467,-0.0011279724423884,0.0011279727118566,2.295174482899e-10,1.8418537629627e-10,2.0668665902501e-09,-1.6906689897352e-09,-0.0011097347294893,0.0011097349049747,-0.0012829928082497,0.001282994528482,-0.0012829942918041,0.0012829934609115,-0.0012829931101847,0.0012829947072107,-0.0012829945937518,0.0012829936396406,-0.0011279703760726,0.0011279743103097,-0.0011279742440051,0.0011279708486733,-0.0011279727518084,0.0011279718683084,-0.0011279730562742,0.0011279720852067,4.8732427363678e-10,4.8732832651296e-10,-0.0011097344289385,0.0011097352055242,-1.2858589132752e-09,2.3753621136415e-09,-0.0012829938463976,0.0012829935889527,-0.0012829928015233,0.0012829949757449,-0.001282994017356,0.0012829937599001,-0.001282992988103,0.0012829951622922,-0.0011279715253064,0.0011279736302244,-0.0011279712638741,0.0011279733688133,0.40445605707229,125301,3014,0.0046135339604306,0.0046135339604172,0.0046135339604148,37.627841130231,0.00021622272904185,0.00021622272904185,0.00021622272904185,3110989.4842006,0.013937423075606
12419200,0.98965713490231,0.015081789316871,0.0050272631056376,0.0050272631056228,0.0050272631056105,-0.0011080708555759,0.0011080714824887,3.6251091604035e-10,3.6251414338294e-10,3.9645154803028e-10,3.5751209883902e-10,-0.0012845287024462,0.0012845295501558,-0.0012845288505831,0.0012845296982807,-0.0012845289693485,0.0012845296946722,-0.0012845291151216,0.0012845298404564,-0.0011271256418858,0.0011271262834032,-0.0011271258964431,0.0011271265379329,3.9644594724214e-10,3.5749657801722e-10,2.5103999561631e-09,-1.7853930873791e-09,-0.0011080708555789,0.0011080714824793,-0.0012845279654856,0.0012845302670015,-0.0012845295875619,0.0012845289813994,-0.0012845282311856,0.0012845304103621,-0.0012845298532746,0.0012845291247603,-0.0011271235776112,0.001127128411582,-0.0011271279607567,0.0011271244097342,-0.0011271263086807,0.0011271256051557,-0.0011271266038457,0.0011271258222139,6.9576980770997e-10,6.9577384299846e-10,-0.0011080705209535,0.0011080718171037,-1.3442771029337e-09,2.8535534746942e-09,-0.0012845291516052,0.0012845291833049,-0.0012845278881494,0.001284530708444,-0.0012845292824461,0.001284529314135,-0.0012845280363597,0.0012845308566221,-0.0011271248565589,0.0011271275789939,-0.0011271246036372,0.0011271273260936,0.45322610794666,125301,3014,0.0046066465540396,0.0046066465540264,0.0046066465540243,36.803685278894,0.00020962948223115,0.00020962948223115,0.00020962948223115,3081238.4654847,0.013916492398377
13419200,0.9935451254501,0.015118698632804,0.0050395662109487,0.005039566210934,0.0050395662109218,-0.0011002593477552,0.0011002611855354,8.2997716291445e-10,8.2998043137343e-10,8.5264536976923e-10,8.2237369143058e-10,-0.0012820649064273,0.0012820667745045,-0.0012820649645978,0.0012820668326631,-0.0012820650893487,0.0012820668334908,-0.0012820651458142,0.0012820668899674,-0.001120257778901,0.0011202594149409,-0.0011202579977966,0.0011202596338092,8.5263968515814e-10,8.2235810220645e-10,3.2429063516121e-09,-1.5829671515082e-09,-0.0011002593477584,0.001100261185526,-0.0012820640787816,0.0012820675793029,-0.0012820657922618,0.0012820660278288,-0.0012820642608303,0.0012820676374628,-0.0012820659743229,0.0012820660859889,-0.0011202554536331,0.0011202618002943,-0.0011202603231036,0.001120257248436,-0.0011202585372355,0.0011202586351697,-0.0011202588016659,0.0011202588301199,1.1756402271451e-09,1.1756443046382e-09,-0.0011002590004994,0.0011002615327841,-1.1337147514837e-09,3.5973170808884e-09,-0.0012820654372457,0.0012820663333442,-0.0012820639039264,0.0012820679451681,-0.0012820654764972,0.001282066372585,-0.0012820639634201,0.0012820680046297,-0.0011202568568482,0.0011202607753886,-0.0011202566376194,0.0011202605561808,0.4150894025916,125301,3014,0.0045742746266836,0.0045742746266706,0.0045742746266689,34.793192153197,0.00019354553722558,0.00019354553722558,0.00019354553722558,3016924.2154741,0.013818076497188
14419200,0.99579017803512,0.015138403041897,0.005046134347313,0.0050461343472982,0.0050461343472861,-0.001095154217037,0.0010951562445045,9.0164666384275e-10,9.0164991186117e-10,9.188067433788e-10,8.9342456505163e-10,-0.0012775064448165,0.0012775085021787,-0.0012775064834818,0.0012775085408322,-0.0012775066094721,0.0012775085440137,-0.0012775066458337,0.0012775085803865,-0.0011153897502398,0.0011153915389218,-0.0011153899732845,0.0011153917619394,9.1880103812912e-10,8.9340925182275e-10,3.5621244828864e-09,-1.7588459467855e-09,-0.00109515421704,0.0010951562444952,-0.0012775055369474,0.0012775093898276,-0.0012775073913691,0.0012775076531477,-0.0012775057004309,0.0012775094305371,-0.0012775075548649,0.0012775076938571,-0.0011153871839019,0.0011153941689477,-0.0011153925396614,0.0011153891318943,-0.0011153905934115,0.001115390668716,-0.001115390862172,0.0011153908763648,1.285891410753e-09,1.2858954557471e-09,-0.0010951538312004,0.0010951566303341,-1.2669312014009e-09,3.9561393274974e-09,-0.0012775070226013,0.001277508018241,-0.0012775053047663,0.0012775097722776,-0.0012775070407014,0.0012775080363303,-0.0012775053443108,0.00127750981179,-0.0011153887125729,0.0011153930235325,-0.0011153884877797,0.0011153927987603,0.38312450045663,125301,3014,0.0045531015252977,0.0045531015252848,0.0045531015252833,32.642404986857,0.00017633923989485,0.00017633923989485,0.00017633923989485,3015893.5732195,0.013753679426383
15419200,0.99695918220579,0.015152148876347,0.0050507162921297,0.0050507162921149,0.0050507162921028,-0.0010839603405479,0.0010839653936726,2.0708088776808e-09,2.0708121276404e-09,2.0502726696067e-09,2.0559159257091e-09,-0.0012667089625365,0.0012667136536106,-0.0012667087651283,0.0012667134561904,-0.0012667089101185,0.0012667134787123,-0.0012667087143037,0.0012667132829087,-0.0011044225468288,0.0011044268192979,-0.0011044226901361,0.0011044269625782,2.0502669113339e-09,2.0559007666134e-09,4.9828118738692e-09,-8.4120894030779e-10,-0.001083960340551,0.0010839653936633,-0.0012667079560426,0.0012667146222422,-0.0012667097716407,0.0012667124875232,-0.001266707904401,0.0012667144481671,-0.0012667097200113,0.001266712313448,-0.0011044197250782,0.0011044296821343,-0.0011044255119256,0.0011044240997225,-0.0011044234905261,0.0011044258183669,-0.0011044236886464,0.0011044259954318,2.4909570205611e-09,2.4909610589966e-09,-0.0010839599188134,0.0010839658154002,-3.4255934320897e-10,5.4072791604069e-09,-0.0012667096074118,0.0012667131259651,-0.0012667074705322,0.0012667148197092,-0.0012667093858432,0.0012667129043858,-0.0012667072802605,0.0012667146294057,-0.0011044213070962,0.001104428343481,-0.0011044211557293,0.0011044281921349,0.51103778709309,125301,3014,0.0045066787772217,0.0045066787772088,0.0045066787772075,27.065928254155,0.00013172742603324,0.00013172742603324,0.00013172742603324,3028125.8215735,0.013612508412244
16419200,0.99770975397389,0.015160162683126,0.0050533875610557,0.005053387561041,0.0050533875610288,-0.0010719529246378,0.0010719555701431,1.1392350719741e-09,1.1392383761967e-09,1.1556879909369e-09,1.1300535152143e-09,-0.00126156943471,0.0012615719720624,-0.0012615694352774,0.0012615719726178,-0.0012615695618257,0.0012615719738322,-0.0012615695590376,0.0012615719710553,-0.0010935532566522,0.0010935555550853,-0.0010935534604274,0.0010935557588341,1.1556824133255e-09,1.1300382910673e-09,4.2225836321951e-09,-1.9441282625062e-09,-0.0010719529246409,0.0010719555701339,-0.0012615683902805,0.0012615730014687,-0.0012615704797249,0.001261570943176,-0.0012615685156986,0.0012615730015873,-0.0012615706051549,0.001261570943294,-0.0010935502789173,0.0010935586031001,-0.0010935564382017,0.0010935527108001,-0.0010935542377871,0.001093554544843,-0.0010935544906931,0.0010935547320139,1.535075371707e-09,1.5350795026984e-09,-0.0010719525267199,0.0010719559680544,-1.4316827957939e-09,4.6295425642555e-09,-0.0012615701420193,0.0012615713598554,-0.001261568106725,0.0012615733526611,-0.0012615701207743,0.0012615713385997,-0.0012615681069423,0.0012615733528463,-0.0010935520482579,0.0010935571724743,-0.0010935518425301,0.0010935569667671,0.46538451425637,125301,3014,0.0044569011477396,0.0044569011477268,0.0044569011477258,24.416517458042,0.00011053213966434,0.00011053213966434,0.00011053213966434,2937204.1675493,0.013461223359415
17419200,0.99821382774065,0.015166266229931,0.0050554220766574,0.0050554220766426,0.0050554220766305,-0.0010662166586405,0.0010662191342678,1.0708865030642e-09,1.0708897640234e-09,1.0840994428738e-09,1.0618580273338e-09,-0.0012549498338956,0.0012549522639571,-0.0012549498397402,0.0012549522697899,-0.0012549499663148,0.0012549522727406,-0.0012549499681701,0.0012549522746072,-0.0010879110528291,0.0010879132087815,-0.0010879112696495,0.0010879134255751,1.0840937219337e-09,1.0618428177341e-09,4.2791248463061e-09,-2.1373665614548e-09,-0.0010662166586436,0.0010662191342585,-0.0012549487502076,0.0012549533353234,-0.0012549509234466,0.0012549511983882,-0.001254948880612,0.0012549533421386,-0.0012549510538629,0.0012549512052031,-0.00108790795442,0.0010879163818086,-0.0010879143680976,0.0010879102525291,-0.0010879120779025,0.001087912151763,-0.0010879123417793,0.0010879123577028,1.5011079350948e-09,1.5011120037058e-09,-0.0010662162265028,0.0010662195663987,-1.5863017158509e-09,4.7216948856388e-09,-0.0012549505504779,0.0012549516450619,-0.0012549484377524,0.0012549537235322,-0.0012549505333495,0.0012549516279229,-0.0012549484426877,0.0012549537284355,-0.0010879097827745,0.0010879149140029,-0.001087909562929,0.001087914694178,0.52521873377382,125301,3014,0.0044330991134058,0.0044330991133931,0.0044330991133919,21.978562573342,9.102850058674e-05,9.102850058674e-05,9.102850058674e-05,2952008.1719991,0.013388840554287
18419200,0.99852709887343,0.015169907808324,0.0050566359361218,0.005056635936107,0.0050566359360949,-0.0010530377857118,0.0010530421447179,1.7926453007107e-09,1.792648583581e-09,1.7874544536552e-09,1.779735452083e-09,-0.0012453211275658,0.0012453251496651,-0.0012453209920365,0.001245325014124,-0.0012453211286966,0.0012453250254103,-0.0012453209910455,0.0012453248877705,-0.0010753736491521,0.0010753773434239,-0.0010753738192352,0.0010753775134803,1.7874485866552e-09,1.779720444308e-09,5.2160584871853e-09,-1.6307824683273e-09,-0.0010530377857148,0.0010530421447087,-0.0012453199650238,0.001245326291522,-0.0012453221545969,0.0012453238722315,-0.0012453199650736,0.001245326166233,-0.0012453221546584,0.001245323746942,-0.0010753703355684,0.0010753807202149,-0.0010753771328576,0.0010753741366706,-0.001075374752737,0.0010753761927994,-0.0010753749766922,0.0010753763745653,2.2279574606642e-09,2.2279615733033e-09,-0.0010530373483071,0.001053042582116,-1.0883405872657e-09,5.6607599843594e-09,-0.0012453219199656,0.0012453244661424,-0.0012453195153037,0.0012453265504324,-0.001245321759779,0.001245324305945,-0.0012453193818277,0.0012453264169243,-0.00107537225415,0.0010753790789684,-0.0010753720781302,0.001075378902969,0.50516361584657,125301,3014,0.004378450221563,0.0043784502215502,0.0043784502215496,17.483028036675,5.5064224293402e-05,5.5064224293402e-05,5.5064224293402e-05,2910265.0841542,0.013222748463838
19419200,0.99878640954341,0.015173823034032,0.005057941011358,0.0050579410113433,0.0050579410113312,-0.0010519365519422,0.0010519378066223,6.262789501962e-10,6.2628219839109e-10,6.6440575250739e-10,5.98232059333e-10,-0.0012439593589185,0.001243960713158,-0.0012439592192175,0.0012439605734451,-0.0012439593777391,0.0012439605642838,-0.0012439592359137,0.0012439604224696,-0.0010744066297901,0.001074407654918,-0.0010744068005096,0.0010744078256108,6.6439992818152e-10,5.982170981963e-10,4.0680038453241e-09,-2.8154604353199e-09,-0.0010519365519452,0.0010519378066131,-0.0012439581902406,0.0012439618610957,-0.0012439603879137,0.0012439594254719,-0.0012439582079789,0.0012439617111861,-0.0012439604056637,0.0012439592755617,-0.0010744032982998,0.0010744110497438,-0.0010744101320386,0.0010744044307665,-0.0010744076974259,0.0010744065396661,-0.0010744079706276,0.0010744066744523,1.0722270837574e-09,1.0722311608388e-09,-0.0010519361040685,0.0010519382544894,-2.2170845971463e-09,4.5080612335297e-09,-0.0012439601477774,0.0012439600341858,-0.0012439577480427,0.0012439621047524,-0.0012439599831926,0.0012439598695903,-0.0012439576104659,0.0012439619671437,-0.0010744052192078,0.0010744094074009,-0.0010744050421298,0.0010744092303432,0.65325215552178,125301,3014,0.0043738735088428,0.0043738735088301,0.0043738735088293,17.551534130152,5.5612273041215e-05,5.5612273041215e-05,5.5612273041215e-05,2904074.0569058,0.013208830379175
20419200,0.99901206861726,0.015177471689647,0.0050591572298961,0.0050591572298813,0.0050591572298692,-0.0010465370633722,0.0010465366910412,-5.6183671539165e-11,-5.6182432959356e-11,-1.7184545670985e-11,-7.1785917357148e-11,-0.0012442234391503,0.0012442234518934,-0.0012442235745722,0.0012442235873056,-0.0012442236908015,0.0012442235711435,-0.0012442238142464,0.0012442236946186,-0.0010701403721685,0.0010701398641128,-0.0010701409723123,0.0010701404642497,-1.7198369357682e-11,-7.1801715459085e-11,4.5536670793934e-09,-4.6660564429239e-09,-0.0010465370633842,0.0010465366910415,-0.0012442219175953,0.0012442249969047,-0.0012442250962032,0.0012442220422668,-0.001244222163228,0.0012442251102145,-0.0012442253418042,0.0012442221555647,-0.0010701359058343,0.0010701444135831,-0.0010701454386964,0.0010701359147727,-0.00107014183861,0.0010701383346349,-0.0010701425350765,0.0010701389278155,4.7342807280323e-10,4.7343403535638e-10,-0.0010465365304498,0.0010465372239499,-3.9506471139866e-09,5.0985378206105e-09,-0.0012442245148836,0.0012442224661231,-0.0012442216182158,0.0012442255799269,-0.0012442246234456,0.0012442225746991,-0.0012442217424074,0.00124422570408,-0.0010701389320534,0.0010701425274383,-0.0010701383275243,0.001070141922946,0.70012779305904,125301,3014,0.0043514934899023,0.0043514934899281,0.0043514934898743,18.59614238305,6.3969139064403e-05,6.3969139064403e-05,6.3969139064403e-05,2782498.6595112,0.013140863107784
21419200,0.99916563198884,0.015179779511187,0.005059926503743,0.0050599265037282,0.0050599265037161,-0.0010352473628206,0.0010352500658639,1.1059473290683e-09,1.1059484242407e-09,1.1027879407472e-09,1.1095864727331e-09,-0.0012347754000482,0.0012347780733807,-0.0012347755840275,0.001234778257356,-0.0012347756726972,0.0012347782606322,-0.0012347758439789,0.00123477843193,-0.0010595528419545,0.0010595550868313,-0.0010595533722286,0.0010595556170824,1.1027761324545e-09,1.1095720190479e-09,5.6890769269359e-09,-3.4772004038699e-09,-0.0010352473628268,0.0010352500658569,-0.0012347738914983,0.0012347796095125,-0.0012347770926202,0.0012347767211876,-0.0012347741577732,0.0012347797904463,-0.0012347773588875,0.0012347769021191,-0.0010595484068917,0.0010595596192553,-0.0010595578073169,0.0010595510846322,-0.0010595543456412,0.0010595535365464,-0.0010595549044606,0.0010595540954468,1.6308032654032e-09,1.6308091042837e-09,-0.0010352468348664,0.0010352505938096,-2.8080710978261e-09,6.2476240156837e-09,-0.0012347764672269,0.0012347770911589,-0.0012347736186671,0.0012347802555026,-0.0012347766251165,0.0012347772490501,-0.0012347737902846,0.0012347804270862,-0.0010595513462164,0.001059557663334,-0.0010595508132962,0.0010595571304364,0.64990944923706,125301,3014,0.0043046709810177,0.004304670981016,0.0043046709810002,15.229377072935,3.703501658348e-05,3.703501658348e-05,3.703501658348e-05,2737554.7952529,0.012998573460404
22419200,0.99929272484172,0.015181741393574,0.0050605804645385,0.0050605804645237,0.0050605804645116,-0.001033616189931,0.0010336172116736,5.1056337108066e-10,5.1056465004158e-10,5.415963934843e-10,5.0482855740763e-10,-0.001233039678854,0.0012330408597436,-0.0012330398016841,0.001233040982561,-0.0012330399150578,0.0012330409721792,-0.0012330400269113,0.0012330410840433,-0.0010576845858023,0.0010576855494237,-0.001057684864027,0.0010576858276189,5.4158845476258e-10,5.0481602221888e-10,4.9099136859925e-09,-3.8888028638167e-09,-0.001033616189934,0.0010336172116649,-0.0012330382264701,0.0012330423324522,-0.0012330412540889,0.0012330395098164,-0.0012330384571639,0.0012330424394281,-0.0012330414847928,0.0012330396167912,-0.0010576803377392,0.0010576899150136,-0.001057689112126,0.0010576814620122,-0.0010576859944936,0.0010576841168855,-0.0010576863166358,0.0010576843630215,1.0416571463245e-09,1.0416631670229e-09,-0.0010336156564736,0.0010336177451246,-3.1812215161017e-09,5.4640553007142e-09,-0.0012330406835574,0.0012330399458554,-0.0012330379131023,0.001233042908802,-0.0012330407798016,0.001233040042091,-0.0012330380260823,0.0012330430217513,-0.0010576828882824,0.0010576878098912,-0.0010576826077169,0.0010576875293423,0.66642562144511,125301,3014,0.0042979018465882,0.0042979018465766,0.0042979018465753,14.859436843905,3.4075494751237e-05,3.4075494751237e-05,3.4075494751237e-05,2780916.0005023,0.012977991906234
23419200,0.99940557591529,0.015183382603773,0.0050611275346049,0.0050611275345902,0.0050611275345781,-0.0010331855895872,0.0010331855404139,1.030964853849e-10,1.0309777740426e-10,1.4764166653079e-10,1.0003170555594e-10,-0.0012337642008927,0.0012337644576955,-0.0012337644085034,0.0012337646652935,-0.0012337645153147,0.0012337646486309,-0.0012337647113477,0.0012337648446745,-0.0010574745082478,0.0010574746039625,-0.001057474807079,0.0010574749027643,1.4763428717005e-10,1.0001849356985e-10,4.2757619951979e-09,-4.0695851947718e-09,-0.0010331855895903,0.0010331855404052,-0.0012337628265833,0.0012337658551935,-0.0012337657828335,0.0012337632677596,-0.0012337631351952,0.0012337660403685,-0.0012337660914555,0.0012337634529332,-0.0010574704839585,0.0010574787504136,-0.0010574788314061,0.0010574707562964,-0.0010574758363797,0.0010574732648333,-0.0010574761744441,0.0010574735130818,6.009244681994e-10,6.0093048986838e-10,-0.0010331850896305,0.0010331860403644,-3.3900192112989e-09,4.7977271096419e-09,-0.001233765156426,0.0012337635840551,-0.0012337626259074,0.0012337664805069,-0.0012337653393911,0.0012337637670116,-0.0012337628222474,0.0012337666768163,-0.001057472940153,0.0010574767766894,-0.001057472641309,0.001057476477862,0.62875729639221,125301,3014,0.0042961188831435,0.004296118883132,0.0042961188831308,15.70477622732,4.0838209818563e-05,4.0838209818563e-05,4.0838209818563e-05,2753785.8526066,0.012972585943062
24419200,0.99951209941791,0.015185017831077,0.0050616726103729,0.0050616726103582,0.0050616726103461,-0.0010374276410895,0.0010374263823563,-3.6098544837764e-10,-3.6098417391657e-10,-3.0313186673543e-10,-3.6130400201369e-10,-0.0012370627442953,0.0012370619640801,-0.0012370630446713,0.0012370622644432,-0.001237063144448,0.0012370622416276,-0.0012370634322894,0.0012370625294793,-0.0010616645978406,0.0010616637063592,-0.0010616649237685,0.0010616640322579,-3.0313873155619e-10,-3.6131734249769e-10,3.5659209599655e-09,-4.2879076049491e-09,-0.0010374276410924,0.0010374263823478,-0.0012370614554183,0.0012370632803861,-0.0012370643335685,0.001237060948102,-0.0012370618492827,0.0012370635516944,-0.001237064727443,0.0012370612194088,-0.0010616608165463,0.0010616676155161,-0.0010616687051005,0.0010616601230845,-0.0010616658393355,0.0010616624654543,-0.0010616661999067,0.0010616627238723,1.1990445750113e-10,1.1991045146508e-10,-0.0010374271584238,0.0010374268650159,-3.6182127078501e-09,4.0723213691422e-09,-0.0012370636283929,0.0012370611532518,-0.0012370613589504,0.0012370639774224,-0.0012370639057553,0.0012370614306059,-0.0012370616462616,0.0012370642647031,-0.0010616631562997,0.0010616658077077,-0.0010616628324123,0.0010616654838368,0.66255127740754,125301,3014,0.0043137098386745,0.0043137098386631,0.004313709838662,17.879135026709,5.8233080213675e-05,5.8233080213675e-05,5.8233080213675e-05,2754574.9386279,0.013026032661145
25419200,0.99960922149563,0.015186775205827,0.0050622584019563,0.0050622584019415,0.0050622584019294,-0.0010392377215409,0.0010392365983998,-3.0706975222985e-10,-3.0706845950464e-10,-2.497370793213e-10,-3.075693800695e-10,-0.0012407307897562,0.0012407301213454,-0.0012407310800037,0.00124073041158,-0.0012407311809539,0.0012407303895249,-0.0012407314598874,0.0012407306684688,-0.0010637511512172,0.0010637503745265,-0.0010637514702105,0.0010637506934906,-2.497439144704e-10,-3.0758288331324e-10,3.4131755585681e-09,-4.0273310410495e-09,-0.0010392377215439,0.0010392365983911,-0.0012407295652429,0.0012407313678734,-0.0012407323045372,0.0012407291650166,-0.0012407299507627,0.0012407316304239,-0.001240732690067,0.0012407294275656,-0.0010637475694007,0.0010637540771464,-0.0010637550520649,0.0010637469908539,-0.0010637523251136,0.0010637492026561,-0.0010637526786779,0.0010637494537957,1.3664403047161e-10,1.3665004511139e-10,-0.0010392372761431,0.0010392370437914,-3.403509105736e-09,3.8806622221535e-09,-0.0012407316419568,0.0012407293415506,-0.0012407294977713,0.0012407320225501,-0.0012407319103621,0.0012407296099475,-0.0012407297763214,0.0012407323010696,-0.0010637498072832,0.001063752363874,-0.0010637494906283,0.0010637520472357,0.77991302017261,125301,3014,0.0043212295070504,0.0043212295070387,0.0043212295070378,19.924253599057,7.4594028792459e-05,7.4594028792459e-05,7.4594028792459e-05,2716955.8576142,0.013048905777233
26419200,0.99968886668938,0.015188308732646,0.0050627695775627,0.005062769577548,0.0050627695775358,-0.0010345116842573,0.0010345120556654,2.6691733747621e-10,2.6691867825878e-10,3.0927264691822e-10,2.6333601348614e-10,-0.0012407104447345,0.0012407110447392,-0.0012407106214297,0.0012407112214218,-0.0012407107313293,0.0012407112068624,-0.0012407108994619,0.0012407113750054,-0.0010597746598748,0.001059775107784,-0.0010597749423436,0.0010597753902238,3.0926594273663e-10,2.6332205234646e-10,3.9001489288117e-09,-3.3663300950008e-09,-0.0010345116842604,0.0010345120556568,-0.001240709238874,0.0012407122603494,-0.0012407118273106,0.0012407100057766,-0.0012407095211666,0.0012407124182191,-0.0012407121096132,0.0012407101636446,-0.0010597711566429,0.0010597787152972,-0.0010597784456138,0.0010597717826942,-0.001059775811966,0.0010597739475967,-0.0010597761335469,0.0010597741798135,6.758814236688e-10,6.758874708076e-10,-0.0010345112735685,0.0010345124663483,-2.7973464803823e-09,4.3287625044386e-09,-0.0012407113095071,0.0012407102599455,-0.0012407091017167,0.0012407127775952,-0.0012407114644353,0.0012407104148652,-0.0012407092705405,0.0012407129463884,-0.0010597733405366,0.0010597769980363,-0.0010597730584581,0.001059776715974,0.82922923068302,125301,3014,0.004301650739252,0.0043016507392408,0.0043016507392401,20.39357941867,7.8348635349357e-05,7.8348635349357e-05,7.8348635349357e-05,2641968.7537148,0.012989453300544
27419200,0.99975832199321,0.015189514444298,0.0050631714814466,0.0050631714814319,0.0050631714814198,-0.0010342251339218,0.0010342242490752,-2.1471188490518e-10,-2.147105481519e-10,-1.5888254061509e-10,-2.1568242187359e-10,-0.0012423552403576,0.001242354770214,-0.0012423555119864,0.0012423550418299,-0.00124235561472,0.0012423550207189,-0.0012423558765284,0.0012423552825379,-0.00105989794379,0.0010598973633054,-0.0010598982594354,0.001059897678922,-1.5888899362551e-10,-2.1569652840772e-10,3.2837311355914e-09,-3.7131710055442e-09,-0.0010342251339251,0.0010342242490665,-0.0012423540845675,0.0012423559416663,-0.0012423566677968,0.0012423538703424,-0.0012423544539993,0.0012423561872889,-0.0012423570372382,0.0012423541159633,-0.00105989457536,0.0010599008432798,-0.0010599016279042,0.0010598941989307,-0.0010598990457016,0.0010598962642066,-0.0010598993964752,0.0010598965128701,1.7726304229456e-10,1.7726907634552e-10,-0.0010342247403939,0.0010342246425973,-3.1510327230692e-09,3.6972475997561e-09,-0.0012423560703574,0.0012423540115617,-0.001242354052893,0.0012423565316648,-0.0012423563216752,0.0012423542628709,-0.0012423543145697,0.001242356793311,-0.0010598967207099,0.0010598992250177,-0.0010598964074198,0.0010598989117439,0.74718867332314,125301,3014,0.0043004678971262,0.0043004678971149,0.0043004678971144,22.25073308696,9.3205864695679e-05,9.3205864695679e-05,9.3205864695679e-05,2598972.6678763,0.012985872662546
28419200,0.99981540987682,0.015190644332108,0.0050635481107164,0.0050635481107017,0.0050635481106896,-0.0010372699029443,0.0010372696299535,1.7472522197029e-11,1.7473799746236e-11,6.3683053923475e-11,1.5186797700814e-11,-0.0012428327164421,0.0012428327885459,-0.001242832937365,0.001242833009456,-0.0012428330443463,0.001242832993575,-0.0012428332565273,0.0012428332057665,-0.00106272106621,0.0010627209829156,-0.0010627213738918,0.0010627212905684,6.3676668880195e-11,1.5172669479848e-11,3.4252346019047e-09,-3.3903055226741e-09,-0.0010372699029474,0.0010372696299449,-0.0012428315861786,0.0012428339291944,-0.0012428340676488,0.0012428318687726,-0.0012428319096912,0.0012428341298803,-0.0012428343911714,0.0012428320694569,-0.0010627177839873,0.001062724369727,-0.0010627246561529,0.0010627179037403,-0.0010627221434821,0.0010627199012609,-0.0010627224872352,0.0010627201552348,4.2092554860166e-10,4.2093153885984e-10,-0.0010372694983284,0.0010372700345636,-2.8260336452885e-09,3.8485043867739e-09,-0.0012428335100701,0.0012428320717122,-0.0012428314979225,0.0012428344837858,-0.0012428337100316,0.0012428322716651,-0.0012428317105075,0.0012428346963403,-0.0010627198533051,0.0010627228180492,-0.0010627195461797,0.00106272251094,0.8493285419621,125301,3014,0.0043130848577868,0.0043130848577756,0.004313084857775,23.440404900567,0.00010272323920454,0.00010272323920454,0.00010272323920454,2623487.1737961,0.013024183145447
29419200,0.99986179753645,0.015191298971052,0.0050637663236978,0.0050637663236831,0.005063766323671,-0.0010355066216728,0.0010355062507797,-1.7105779371359e-11,-1.7104464293886e-11,3.2868041374486e-11,-1.9036032712268e-11,-0.0012450066363323,0.0012450066108337,-0.0012450068677339,0.0012450068422227,-0.0012450069736808,0.001245006824384,-0.0012450071966809,0.0012450070473949,-0.0010614827295017,0.0010614825708914,-0.0010614830359696,0.0010614828773306,3.286164625629e-11,-1.9050205121222e-11,3.316057994795e-09,-3.3502854628543e-09,-0.001035506621676,0.0010355062507711,-0.0012450055300205,0.0012450077262989,-0.0012450079740659,0.0012450057267229,-0.001245005863148,0.0012450079356763,-0.0012450083072029,0.0012450059360985,-0.0010614795194886,0.0010614858836805,-0.0010614862460214,0.0010614795645248,-0.0010614837802033,0.0010614815197574,-0.001061484122744,0.0010614817665054,3.5571399062294e-10,3.5572003720292e-10,-0.001035506247622,0.0010355066248249,-2.8181909509362e-09,3.7082053174024e-09,-0.0012450074333529,0.0012450058876148,-0.0012450054818604,0.0012450082620988,-0.0012450076448472,0.0012450060991004,-0.0012450057050963,0.0012450084853041,-0.0010614815702536,0.0010614843500728,-0.0010614812652201,0.0010614840450551,0.60881578646039,125301,3014,0.0043057911836054,0.0043057911835944,0.004305791183594,24.779248232267,0.00011343398585814,0.00011343398585814,0.00011343398585814,2555959.0662226,0.013002062082149
30419200,0.99989869877201,0.015191740304422,0.0050639134348211,0.0050639134348064,0.0050639134347943,-0.0010448281961891,0.0010448277496833,-5.1301607418167e-11,-5.1300414542844e-11,-6.9707333282935e-12,-5.3229145812604e-11,-0.0012460248842693,0.0012460248336986,-0.0012460251139591,0.0012460250633757,-0.0012460252204306,0.0012460250491457,-0.0012460254415376,0.0012460252702633,-0.0010698682435989,0.0010698680137795,-0.0010698685652529,0.0010698683354042,-6.976973561774e-12,-5.3243091858988e-11,3.2098457249835e-09,-3.3124649834056e-09,-0.0010448281961922,0.0010448277496748,-0.0012460238016315,0.0012460259255115,-0.0012460261966166,0.0012460239715282,-0.0012460241334807,0.0012460261366946,-0.0012460265284758,0.0012460241827103,-0.0010698651043447,0.0010698712557237,-0.0010698717045457,0.0010698650934433,-0.0010698692746704,0.0010698669769628,-0.0010698696307994,0.0010698672492971,3.6720169950484e-10,3.6720762444149e-10,-0.0010448277771042,0.0010448281687623,-2.7357874587475e-09,3.6477743036607e-09,-0.0012460256155482,0.0012460241799672,-0.0012460237086804,0.0012460265040608,-0.0012460258241591,0.0012460243885701,-0.0012460239301773,0.0012460267255272,-0.0010698670788137,0.0010698698291812,-0.0010698667569711,0.0010698695073546,0.51512748248588,125301,3014,0.0043444162127718,0.0043444162127607,0.0043444162127597,26.129933509734,0.00012423946807787,0.00012423946807787,0.00012423946807787,2668620.2073628,0.013119356376507
31419200,0.99992857118036,0.015192201801049,0.0050640672670301,0.0050640672670154,0.0050640672670033,-0.0010535907320951,0.0010535893494197,-4.108741369595e-10,-4.1087295196629e-10,-3.5375891886374e-10,-4.1057267715419e-10,-0.0012522510228119,0.001252250150816,-0.0012522513273232,0.0012522504553144,-0.0012522514275743,0.0012522504348476,-0.0012522517224152,0.001252250729699,-0.0010780528096994,0.0010780518150272,-0.0010780531476882,0.0010780521529865,-3.5376509378798e-10,-4.1058680427592e-10,2.7360112940841e-09,-3.5577754533017e-09,-0.001053590732098,0.0010535893494111,-0.0012522499822126,0.0012522512053729,-0.0012522523679422,0.0012522494007228,-0.0012522503821192,0.0012522514845969,-0.0012522527678587,0.0012522496799453,-0.0010780497849435,0.0010780549489178,-0.0010780561724822,0.001078049019079,-0.0010780537968036,0.0010780508324719,-0.0010780541666113,0.0010780511043413,-2.4098328518488e-12,-2.4038868276134e-12,-0.0010535903230961,0.0010535897584128,-2.9832451976717e-09,3.1653893138675e-09,-0.0012522517197631,0.0012522495238375,-0.0012522499682854,0.00125225184453,-0.001252252004369,0.0012522498084349,-0.0012522502626895,0.0012522521389037,-0.001078051709813,0.0010780535989398,-0.0010780513738631,0.001078053263007,0.66479676253864,125301,3014,0.0043807540627006,0.004380754062689,0.0043807540626887,28.437600576271,0.00014270080461017,0.00014270080461017,0.00014270080461017,2701569.1724889,0.013229787294178
32419200,0.99995039664464,0.015192599050476,0.0050641996835057,0.005064199683491,0.0050641996834789,-0.0010500791675872,0.0010500792076641,1.442677979531e-10,1.442690687378e-10,1.8911453437196e-10,1.4149620179993e-10,-0.0012553644729101,0.0012553648096608,-0.0012553646732735,0.0012553650100114,-0.0012553647820466,0.0012553649955882,-0.0012553649753788,0.001255365188931,-0.001075342443208,0.0010753426249538,-0.0010753427400458,0.0010753429217625,1.8910838789251e-10,1.4148197679883e-10,3.2725880371947e-09,-2.9840682842758e-09,-0.0010500791675902,0.0010500792076556,-0.0012553634290796,0.0012553658560807,-0.0012553657171237,0.0012553639635568,-0.0012553637346801,0.0012553660385202,-0.0012553660227343,0.0012553641459947,-0.0010753394304928,0.0010753457317603,-0.0010753457527999,0.0010753398149395,-0.0010753434289917,0.0010753416354693,-0.0010753437629783,0.0010753418793866,5.0745932770117e-10,5.0746538381028e-10,-0.0010500788034222,0.0010500795718234,-2.4729816927098e-09,3.6529207706162e-09,-0.001255365214036,0.0012553641449351,-0.0012553633635968,0.0012553663567563,-0.0012553653947255,0.0012553643256162,-0.0012553635575082,0.001255366550637,-0.0010753413506775,0.0010753443174431,-0.0010753410546637,0.0010753440214456,0.7835582016357,125301,3014,0.0043662269115564,0.004366226911545,0.0043662269115445,29.295103646463,0.0001495608291717,0.0001495608291717,0.0001495608291717,2604171.2420027,0.013185705462365
33419200,0.9999655671415,0.015192885069599,0.0050642950232136,0.0050642950231988,0.0050642950231867,-0.0010445281799594,0.0010445290565693,4.6249150234913e-10,4.6249280730926e-10,4.9917041833342e-10,4.5795784351106e-10,-0.0012543235607739,0.0012543245984627,-0.0012543236978246,0.0012543247355007,-0.0012543238113789,0.0012543247246506,-0.0012543239425195,0.0012543248558018,-0.0010705462369455,0.0010705471003834,-0.0010705465151787,0.001070547378588,4.991642404363e-10,4.5794357106472e-10,3.6181528825936e-09,-2.6931857513957e-09,-0.0010445281799625,0.0010445290565607,-0.0012543225036696,0.0012543256532481,-0.0012543247549488,0.0012543236806806,-0.0012543227512993,0.0012543257765088,-0.0012543250025882,0.0012543238039394,-0.0010705431946724,0.0010705502297466,-0.0010705495574907,0.001070544249208,-0.0010705472353061,0.0010705460923381,-0.0010705475534836,0.0010705463271406,8.1331817015878e-10,8.1332425079654e-10,-0.0010445278280533,0.0010445294084697,-2.2025479714214e-09,3.9843338003521e-09,-0.0012543243270436,0.0012543239127738,-0.0012543223916505,0.0012543260825376,-0.0012543244442275,0.0012543240299492,-0.0012543225239424,0.001254326214799,-0.0010705451281152,0.0010705487714366,-0.0010705448495426,0.0010705484928798,0.80945760226261,125301,3014,0.0043432240958588,0.0043432240958475,0.0043432240958473,29.317284606047,0.00014973827684837,0.00014973827684837,0.00014973827684837,2536394.4472169,0.013115832650833
34419200,0.9999770473418,0.015193081474513,0.0050643604915183,0.0050643604915036,0.0050643604914915,-0.0010454583733648,0.0010454577378447,-1.0855704306862e-10,-1.0855576643115e-10,-5.0661304508393e-11,-1.2037821846923e-10,-0.0012558160378175,0.0012558157701913,-0.0012558161733291,0.0012558159056896,-0.0012558162974872,0.0012558158847461,-0.0012558164270914,0.0012558160143609,-0.0010717084059034,0.0010717079660272,-0.0010717086850463,0.001071708245141,-5.066714348529e-11,-1.2039214018364e-10,3.049673960621e-09,-3.2668032237342e-09,-0.0010454583733676,0.0010454577378362,-0.0012558149798594,0.0012558168258144,-0.0012558172313061,0.0012558148500316,-0.001255815236556,0.0012558169374443,-0.0012558174880114,0.0012558149616592,-0.0010717053610871,0.0010717110978719,-0.0010717117299005,0.0010717051132805,-0.0010717093847224,0.0010717069775344,-0.0010717097272801,0.0010717071898232,2.4401252190848e-10,2.4401858339978e-10,-0.0010454580198049,0.0010454580913989,-2.7521609891504e-09,3.4101289435928e-09,-0.0012558168035337,0.0012558150852725,-0.001255814875475,0.0012558172446524,-0.0012558169191934,0.0012558152009231,-0.0012558150062629,0.0012558173754096,-0.0010717072956881,0.0010717096403747,-0.0010717070160719,0.0010717093607745,0.73398852679868,125301,3014,0.0043470798089196,0.0043470798089081,0.0043470798089081,31.481611282012,0.00016705289025609,0.00016705289025609,0.00016705289025609,2499978.7768298,0.013127551926964
35419200,0.99998605098067,0.015193217728077,0.0050644059093728,0.0050644059093581,0.005064405909346,-0.0010559007035138,0.0010558972638367,-1.1956687812277e-09,-1.1956675560887e-09,-1.1112767246706e-09,-1.1909526107005e-09,-0.001264086189233,0.0012640835240407,-0.0012640866552546,0.0012640839900498,-0.0012640867432278,0.0012640839556402,-0.0012640871975969,0.00126408441002,-0.0010818328210411,0.0010818301518632,-0.0010818331943462,0.0010818305251394,-1.1112829324022e-09,-1.1909666183958e-09,1.7583271316706e-09,-4.1496805093973e-09,-0.0010559007035168,0.0010558972638282,-0.0012640852218711,0.0012640845153502,-0.0012640876226361,0.0012640829987054,-0.0012640857700194,0.0012640849411515,-0.0012640881707939,0.0012640834245049,-0.0010818299900441,0.0010818331049665,-0.0010818360253814,0.0010818275720193,-0.001081833731424,0.0010818292690341,-0.0010818341307035,0.001081829539175,-8.5219435384158e-10,-8.5218832346698e-10,-0.0010559003592935,0.0010558976080513,-3.6217902882781e-09,2.1258703226062e-09,-0.0012640868723585,0.0012640828934006,-0.0012640854218215,0.0012640852429892,-0.0012640873218826,0.0012640833429165,-0.0012640858742842,0.0012640856954214,-0.0010818318868933,0.0010818318424171,-0.0010818315202763,0.0010818314758156,0.64952121200817,125301,3014,0.0043903810333299,0.0043903810333186,0.0043903810333183,35.928256796227,0.00020262605436981,0.00020262605436981,0.00020262605436981,2524581.7820722,0.013259139992525
36419200,0.99999181558814,0.015193309309933,0.0050644364366581,0.0050644364366434,0.0050644364366313,-0.0010613430270251,0.0010613416893375,-4.0788088893059e-10,-4.0787968814374e-10,-3.5422121625558e-10,-3.9270609380428e-10,-0.001267611696593,0.0012676108452576,-0.0012676121635621,0.0012676113122137,-0.0012676122368298,0.0012676112923922,-0.0012676126921033,0.0012676117476762,-0.0010868347065101,0.0010868338460767,-0.0010868350796977,0.001086834219235,-3.5422687650546e-10,-3.9271950688349e-10,2.5277200415344e-09,-3.3434965106649e-09,-0.0010613430270273,0.0010613416893299,-0.0012676107353479,0.0012676118305329,-0.0012676131248257,0.0012676103269062,-0.001267611269716,0.0012676122718471,-0.0012676136592032,0.0012676107682186,-0.0010868318936052,0.001086836781204,-0.0010868378926387,0.0010868312840921,-0.0010868356408661,0.0010868329396455,-0.0010868360054432,0.0010868332435104,-5.7225837848759e-11,-5.721982856175e-11,-0.0010613426757491,0.001061342040608,-2.8391220486673e-09,2.9125941374543e-09,-0.0012676123665613,0.0012676102277917,-0.0012676109147407,0.0012676125804877,-0.0012676128169968,0.0012676106782185,-0.001267611368063,0.0012676130337793,-0.0010868337712281,0.0010868355373584,-0.0010868334048477,0.0010868351709941,0.6811981079479,125301,3014,0.0044129557694723,0.004412955769461,0.0044129557694607,37.480015571463,0.00021504012457171,0.00021504012457171,0.00021504012457171,2573205.4285803,0.013327745393243
37419200,0.9999952201636,0.015193361249627,0.0050644537498895,0.0050644537498747,0.0050644537498626,-0.0010602700802731,0.0010602703885039,2.3030406001611e-10,2.3030529130203e-10,2.7158039911111e-10,2.3971480006858e-10,-0.0012675394332859,0.0012675400320189,-0.0012675397601015,0.0012675403588217,-0.0012675398449602,0.0012675403442317,-0.0012675401623366,0.0012675406616186,-0.0010860706513456,0.0010860712115955,-0.001086070901763,0.0010860714619838,2.7157423261797e-10,2.39700849901e-10,3.1680882713928e-09,-2.7074957896951e-09,-0.0010602700802759,0.0010602703884956,-0.0012675384627567,0.0012675410165005,-0.0012675407306501,0.0012675393743062,-0.0012675388696909,0.0012675413240214,-0.0012675411375939,0.0012675396818253,-0.0010860678318716,0.0010860741433319,-0.0010860737212749,0.001086068530231,-0.0010860715890948,0.0010860702922018,-0.0010860718388555,0.0010860704846642,5.7311899225525e-10,5.7312503062961e-10,-0.0010602697367671,0.0010602707320043,-2.2242991515995e-09,3.539499298976e-09,-0.001267540119688,0.0012675394074488,-0.0012675385213868,0.0012675416243625,-0.0012675404289925,0.0012675397167449,-0.001267538837909,0.0012675419408542,-0.0010860695984828,0.0010860727727915,-0.0010860693516568,0.0010860725259815,0.65495763090949,125301,3014,0.0044085082834394,0.0044085082834282,0.004408508283428,37.680344480876,0.00021664275584701,0.00021664275584701,0.00021664275584701,2519878.4150506,0.013314238237339
38419200,0.99999717709162,0.015193394537269,0.0050644648457701,0.0050644648457553,0.0050644648457432,-0.0010594844769314,0.0010594858600047,6.5872094985068e-10,6.5872217334271e-10,6.8512917059766e-10,6.5312197892481e-10,-0.0012665824192887,0.0012665839352215,-0.0012665825131912,0.0012665840291112,-0.0012665826306599,0.0012665840242979,-0.001266582719959,0.0012665841136076,-0.0010852486590669,0.0010852499393538,-0.0010852489359595,0.0010852502162173,6.8512293058557e-10,6.5310785782495e-10,3.6965563264388e-09,-2.3791303530839e-09,-0.0010594844769345,0.0010594858599962,-0.0012665813961866,0.0012665849498252,-0.0012665835363133,0.0012665830144729,-0.0012665816052358,0.0012665850366278,-0.0012665837453721,0.0012665831012736,-0.0010852457290157,0.0010852529484768,-0.0010852518660493,0.0010852472070777,-0.0010852496249321,0.0010852489566886,-0.0010852499415415,0.0010852492048269,1.0163916901963e-09,1.0163977213061e-09,-0.0010594841186539,0.0010594862182767,-1.8925765830257e-09,4.067855901221e-09,-0.001266583144829,0.0012665832957525,-0.0012665812397872,0.0012665853478063,-0.0012665832183334,0.0012665833692485,-0.0012665813308018,0.0012665854387905,-0.0010852475806828,0.0010852515767671,-0.0010852473015201,0.0010852512976204,0.72891346290552,125301,3014,0.0044052523986648,0.0044052523986536,0.0044052523986534,37.196089095115,0.00021276871276092,0.00021276871276092,0.00021276871276092,2532866.5749266,0.013304338419073
38880000,0.99999786045597,0.015193406422344,0.005064468807462,0.0050644688074473,0.0050644688074352,-0.0010567087492094,0.0010567097300768,5.0484106721664e-10,5.0485407423105e-10,5.3744797492152e-10,4.9873706360152e-10,-0.001266111389792,0.0012661125396834,-0.0012661114995022,0.0012661126487112,-0.0012661116161898,0.0012661126403804,-0.0012661117211852,0.0012661127443681,-0.0010828941263312,0.0010828950558464,-0.0010828944178427,0.0010828953474962,5.3766122841281e-10,4.9878817339126e-10,3.5521776681426e-09,-2.5426359363653e-09,-0.0010567087484425,0.001056709729293,-0.001266110363465,0.0012661135565086,-0.0012661125232785,0.0012661116297106,-0.001266110588087,0.0012661136553377,-0.0012661127479707,0.0012661117280471,-0.0010828911867328,0.0010828980745731,-0.001082897356201,0.0010828923276905,-0.0010828950900877,0.0010828940765446,-0.0010828954249142,0.0010828943318565,8.5146612585315e-10,8.5146992223717e-10,-0.0010567084016619,0.0010567100769801,-2.0616937393626e-09,3.9122705332178e-09,-0.0012661121279092,0.0012661118847711,-0.0012661102339416,0.0012661139568202,-0.0012661122167896,0.0012661119739504,-0.0012661103400483,0.001266114062502,-0.0010828930703248,0.0010828967011376,-0.0010828927771621,0.0010828964078012,0.74537476942469,125301,3014,0.0043937466488339,0.0043937466456249,0.0043937466475038,37.193650664254,0.00021274920531403,0.00021274920531403,0.00021274920531403,2481024.0995611,0.013269388491311
