time,ASR_ext,ASR_strain,ASR_strain_xx,ASR_strain_yy,ASR_strain_zz,disp_x_101,disp_x_102,disp_x_103,disp_x_104,disp_x_105,disp_x_106,disp_x_p1_neg,disp_x_p1_pos,disp_x_p2_neg,disp_x_p2_pos,disp_x_p3_neg,disp_x_p3_pos,disp_x_p4_neg,disp_x_p4_pos,disp_x_p5_neg,disp_x_p5_pos,disp_x_p6_neg,disp_x_p6_pos,disp_y_101,disp_y_102,disp_y_103,disp_y_104,disp_y_105,disp_y_106,disp_y_p1_neg,disp_y_p1_pos,disp_y_p2_neg,disp_y_p2_pos,disp_y_p3_neg,disp_y_p3_pos,disp_y_p4_neg,disp_y_p4_pos,disp_y_p5_neg,disp_y_p5_pos,disp_y_p6_neg,disp_y_p6_pos,disp_y_p7_neg,disp_y_p7_pos,disp_y_p8_neg,disp_y_p8_pos,disp_z_101,disp_z_102,disp_z_103,disp_z_104,disp_z_105,disp_z_106,disp_z_p1_neg,disp_z_p1_pos,disp_z_p2_neg,disp_z_p2_pos,disp_z_p3_neg,disp_z_p3_pos,disp_z_p4_neg,disp_z_p4_pos,disp_z_p5_neg,disp_z_p5_pos,disp_z_p6_neg,disp_z_p6_pos,humidity,ndof,nelem,strain_xx,strain_yy,strain_zz,temp,thermal_strain_xx,thermal_strain_yy,thermal_strain_zz,vonmises,vstrain
2419200,0,0,0,0,0,0,0,0,0,0,0,0,0,0,0,0,0,0,0,0,0,0,0,0,0,0,0,0,0,0,0,0,0,0,0,0,0,0,0,0,0,0,0,0,0,0,0,0,0,0,0,0,0,0,0,0,0,0,0,0,0,0,0,0,0,0,0,0,0,0,0,0,0,0,0
3419200,0.1586782971401,0.0030041748869685,0.0010013916289895,0.0010013916289895,0.0010013916289895,-0.00027375922592268,0.0002737533427675,-2.1860437411878e-09,-2.186043832685e-09,-2.1197441120151e-09,-2.171804202865e-09,-0.00027911130863116,0.00027910650724605,-0.00027911179970435,0.00027910699831723,-0.00027911175901011,0.0002791069605679,-0.0002791122407866,0.00027910744235257,-0.00027449675741929,0.00027449214094139,-0.00027449720394468,0.00027449258744518,-2.1197444213416e-09,-2.1718123936098e-09,-2.4226708682294e-09,-1.9494261431646e-09,-0.00027375922592189,0.00027375334276189,-0.00027911142008289,0.00027910643656224,-0.00027911168826219,0.00027910706897299,-0.0002791118658082,0.00027910688525751,-0.00027911213398117,0.00027910751765924,-0.00027449701262091,0.00027449194147216,-0.0002744969487551,0.00027449278690182,-0.00027449665567083,0.00027449230464395,-0.00027449707199778,0.00027449265979454,-2.239551196263e-09,-2.2395510928249e-09,-0.00027375927965161,0.00027375328903093,-1.9433486640838e-09,-2.4628337802509e-09,-0.00027911124769924,0.00027910652281217,-0.00027911192498257,0.00027910683934921,-0.00027911174460356,0.00027910701971803,-0.00027911240152929,0.00027910731588748,-0.00027449734359119,0.00027449245522504,-0.00027449690899708,0.00027449202062899,0.75746877217741,125301,3014,0.0011399992185213,0.0011399992185079,0.0011399992185054,31.80009966924,0.00016960079735392,0.00016960079735392,0.00016960079735392,1073466.8684875,0.0034258547858208
4419200,0.34967068997767,0.0064332718428234,0.0021444239476355,0.0021444239476004,0.0021444239475874,-0.00054068488023814,0.00054066913788887,-6.4971926527243e-09,-6.4971919410108e-09,-6.2180631395864e-09,-6.4463363268649e-09,-0.00056334878946152,0.00056333470456511,-0.00056335068187487,0.00056333659696933,-0.00056335057931201,0.00056333643551329,-0.00056335243311707,0.00056333828932393,-0.0005452866192322,0.00054527321102335,-0.00054528849902526,0.00054527509078568,-6.21806531766e-09,-6.4463553611069e-09,-7.1934149599676e-09,-5.8009945799194e-09,-0.00054068488023693,0.0005406691378736,-0.00056334912741956,0.00056333450997275,-0.00056335034393534,0.00056333679150206,-0.00056335089793772,0.00056333622164426,-0.00056335211447414,0.00056333850317958,-0.00054528740431588,0.00054527264732053,-0.00054528771396839,0.00054527565446051,-0.00054528625757639,0.00054527381587576,-0.00054528806120784,0.00054527529339114,-6.6612550752005e-09,-6.6612540213798e-09,-0.0005406850449698,0.00054066897313605,-5.7121207986747e-09,-7.3090879533508e-09,-0.00056334860694587,0.00056333472933621,-0.00056335108049901,0.00056333608899939,-0.00056335052355545,0.00056333664592889,-0.00056335291317108,0.00056333792162743,-0.0005452889208793,0.00054527469576004,-0.00054528710141829,0.00054527287631289,0.73992840791513,125301,3014,0.0022502855091862,0.002250285509152,0.0022502855091422,33.600034800948,0.00018400027840758,0.00018400027840758,0.00018400027840758,2060476.9307253,0.0067737180234553
5419200,0.54966259723407,0.0098539290837305,0.0032846430279288,0.0032846430279096,0.0032846430278922,-0.00080332055884039,0.00080331227723339,-3.2568525088326e-09,-3.2568475206321e-09,-2.971627968423e-09,-3.219594311192e-09,-0.00085585517032009,0.00085584749962963,-0.00085585622473951,0.00085584855403472,-0.00085585627997387,0.00085584839217911,-0.00085585730124657,0.00085584941345511,-0.00081463390983245,0.00081462696187286,-0.00081463419649557,0.00081462724850733,-2.9716340526215e-09,-3.219616725908e-09,-3.422049395524e-09,-3.091681546983e-09,-0.00080332055884628,0.00080331227721863,-0.00085585526306219,0.00085584747992646,-0.00085585613201734,0.00085584857369606,-0.00085585635612447,0.00085584835593386,-0.00085585722509415,0.00085584944969723,-0.0008146341883343,0.00081462690605297,-0.00081463391803751,0.00081462730430293,-0.00081463368626148,0.00081462742064201,-0.0008146339491157,0.00081462726442559,-3.28606287827e-09,-3.2860575886081e-09,-0.00080332058742818,0.00080331224862961,-2.856191329889e-09,-3.4138358868482e-09,-0.00085585510687099,0.00085584748809702,-0.00085585638992162,0.00085584835376463,-0.00085585618123756,0.00085584856243771,-0.00085585739471282,0.0008558493585119,-0.00081463429865009,0.00081462716465597,-0.00081463408034697,0.00081462694636511,0.72499638738019,125301,3014,0.0033415775277101,0.0033415775276917,0.0033415775276769,36.268488986462,0.00020534791189169,0.00020534791189169,0.00020534791189169,2871477.7626232,0.01007523634921
6419200,0.706092880365,0.012003493488955,0.0040011644963348,0.0040011644963166,0.0040011644963036,-0.00095644099031068,0.00095643588632619,-1.9765937724759e-09,-1.9765940385266e-09,-1.814587515494e-09,-1.9616543982753e-09,-0.0010454917432986,0.0010454872329689,-0.0010454924639101,0.0010454879535671,-0.0010454925552516,0.0010454878798618,-0.0010454932647877,0.0010454885894009,-0.00096847251535045,0.00096846829695886,-0.00096847295774289,0.00096846873931232,-1.8145940981357e-09,-1.9616770709631e-09,-1.8284754496206e-09,-2.1247418498926e-09,-0.00095644099031645,0.00095643588631139,-0.0010454916888462,0.0010454872930592,-0.0010454925183844,0.0010454878934348,-0.0010454924952455,0.0010454879344441,-0.0010454933247924,0.001045488534816,-0.00096847243445809,0.00096846849195688,-0.00096847303866907,0.00096846854428764,-0.0009684724550575,0.00096846846593339,-0.00096847291174909,0.00096846867428641,-1.9016907522411e-09,-1.9016906308919e-09,-0.00095644091403279,0.00095643596259141,-1.8900943904432e-09,-1.7362544509272e-09,-0.0010454917291806,0.0010454872513168,-0.0010454924144872,0.0010454880159517,-0.0010454924541564,0.0010454879762723,-0.0010454931201236,0.0010454887215477,-0.00096847284167561,0.00096846886201497,-0.00096847242883113,0.00096846844918951,0.59839168540088,125301,3014,0.003977304704863,0.0039773047048442,0.0039773047048367,36.738724859124,0.00020910979887299,0.00020910979887299,0.00020910979887299,3201592.531587,0.012003579080845
7419200,0.83167965178741,0.013499398891808,0.0044997996306173,0.0044997996306002,0.0044997996305905,-0.0010602560562705,0.0010602510853251,-1.8395581164681e-09,-1.8395563466105e-09,-1.7149674275546e-09,-1.8292329162489e-09,-0.0011805899110252,0.0011805857659323,-0.0011805905256528,0.0011805863805469,-0.0011805906191644,0.0011805863323762,-0.0011805912271078,0.0011805869403224,-0.0010725024745115,0.001072498477334,-0.0010725028883901,0.0010724988911762,-1.7149726778083e-09,-1.8292510108376e-09,-1.4426324915479e-09,-2.2365044437374e-09,-0.0010602560562734,0.0010602510853139,-0.0011805897671396,0.0011805859033603,-0.0011805906695544,0.0011805862430848,-0.0011805904719195,0.0011805864664885,-0.001180591374344,0.0011805868062136,-0.0010725021368604,0.001072498904739,-0.0010725032260689,0.0010724984637553,-0.0010725025189904,0.0010724985052159,-0.0010725029515899,0.0010724987503365,-1.7198226891562e-09,-1.7198204305487e-09,-0.0010602559352181,0.0010602512063675,-1.981125487388e-09,-1.3083802176913e-09,-0.0011805899480363,0.0011805857544923,-0.0011805903455421,0.0011805865834318,-0.0011805905612643,0.0011805863677014,-0.0011805909519069,0.0011805871897555,-0.0010725026438165,0.0010724991399295,-0.0010725022506025,0.0010724987467306,0.52694121020036,125301,3014,0.0044081185502112,0.004408118550194,0.0044081185501905,40.763644937544,0.00024130915950035,0.00024130915950035,0.00024130915950035,3355687.2908346,0.013312494105364
8419200,0.90753793237555,0.014304755799249,0.0047682519330968,0.0047682519330802,0.0047682519330719,-0.0011023139838089,0.0011023117208544,-7.9362696871146e-10,-7.9362494206749e-10,-7.1331055611685e-10,-7.9074754885223e-10,-0.0012451373387885,0.0012451355747521,-0.0012451377334268,0.0012451359693778,-0.0012451378410092,0.0012451359456755,-0.0012451382333998,0.0012451363380691,-0.0011161550390727,0.0011161532510654,-0.0011161553656232,0.0011161535775803,-7.1331580587416e-10,-7.9076403976021e-10,-3.9940638612966e-11,-1.5473313582031e-09,-0.0011023139838111,0.0011023117208441,-0.0012451370632163,0.0012451358270188,-0.0012451380090139,0.0012451357170789,-0.001245137564295,0.0012451361968446,-0.0012451385101031,0.0012451360869049,-0.0011161543400314,0.0011161540127363,-0.0011161560646912,0.0011161528158985,-0.0011161552227786,0.0011161530997851,-0.0011161555796063,0.0011161533225897,-6.2178793333486e-10,-6.2178533476719e-10,-0.0011023138107762,0.0011023118938785,-1.2697003264972e-09,1.4103363763683e-10,-0.0012451374624288,0.0012451355029927,-0.0012451373845088,0.0012451363563152,-0.0012451378501348,0.0012451358906805,-0.0012451377778419,0.0012451367496083,-0.001116154947986,0.0011161539963959,-0.0011161546334394,0.0011161536818627,0.47156008474719,125301,3014,0.0045826406651693,0.0045826406651526,0.0045826406651515,41.433596056969,0.00024666876845576,0.00024666876845576,0.00024666876845576,3329176.4030805,0.013843272823408
9419200,0.94954419159364,0.014689472098374,0.0048964906994716,0.0048964906994551,0.0048964906994475,-0.001113381176907,0.0011133803953631,-2.0149053077906e-10,-2.0148842560808e-10,-1.462718316136e-10,-2.0272961577881e-10,-0.0012709041057534,0.0012709036907336,-0.0012709043723518,0.0012709039573198,-0.0012709044871031,0.0012709039462425,-0.0012709047529192,0.0012709042120617,-0.0011286696057389,0.0011286690576127,-0.0011286698962059,0.0011286693480451,-1.4627731638239e-10,-2.027444228908e-10,9.5896323499687e-10,-1.3619609963002e-09,-0.0011133811769086,0.0011133803953534,-0.00127090369074,0.0012709040773119,-0.0012709047873804,0.00127090357071,-0.0012709040716793,0.0012709043324566,-0.0012709051683292,0.001270903825854,-0.0011286685045291,0.0011286702126546,-0.00112867099744,0.0011286681929935,-0.0011286699366366,0.0011286687366437,-0.0011286702625863,0.0011286689597235,2.3201274334642e-11,2.3203920842028e-11,-0.0011133809510923,0.0011133806211697,-1.0416274204973e-09,1.1911068600619e-09,-0.00127090432381,0.0012709035399474,-0.0012709038383504,0.0012709045366416,-0.0012709045794325,0.0012709037955516,-0.0012709041062572,0.0012709048045083,-0.0011286692904143,0.001128669954307,-0.0011286690067829,0.0011286696706889,0.40621133923259,125301,3014,0.0046285936454376,0.0046285936454209,0.004628593645421,41.145280093353,0.00024436224074682,0.00024436224074682,0.00024436224074682,3245222.0411137,0.01398312670996
10419200,0.97055886223015,0.014897941139351,0.0049659803797971,0.0049659803797806,0.0049659803797733,-0.0011125334842123,0.0011125354834597,8.8647232852592e-10,8.864744612843e-10,9.0220368862014e-10,8.7826706357349e-10,-0.0012775171211684,0.0012775191731276,-0.0012775171629222,0.001277519214869,-0.0012775172943512,0.0012775192237944,-0.0012775173384011,0.0012775192678477,-0.0011293387983051,0.0011293405439806,-0.0011293390204901,0.0011293407661316,9.021978001277e-10,8.7825283228214e-10,2.5292841269301e-09,-7.5635570751093e-10,-0.0011125334842138,0.0011125354834502,-0.0012775165345422,0.0012775197180882,-0.0012775177495635,0.0012775186698775,-0.0012775167088538,0.0012775197699302,-0.001277517923884,0.0012775187217186,-0.0011293372170036,0.0011293421603699,-0.0011293406018155,0.0011293391497332,-0.0011293393072547,0.0011293400105572,-0.001129339574993,0.0011293402199545,1.177453480722e-09,1.1774561382291e-09,-0.0011125331921137,0.0011125357755508,-3.9222385985973e-10,2.823489066553e-09,-0.0012775174534061,0.001277518933077,-0.0012775164072247,0.001277520030581,-0.001277517479073,0.0012775189587251,-0.0012775164555478,0.0012775200788637,-0.0011293381866217,0.0011293415984887,-0.0011293379639387,0.0011293413758185,0.43665130715676,125301,3014,0.0046251109604164,0.0046251109603999,0.0046251109604011,38.098437699763,0.00021998750159811,0.00021998750159811,0.00021998750159811,3201487.4266177,0.013972575516319
11419200,0.98269577551611,0.015009595915249,0.0050031986384298,0.0050031986384133,0.0050031986384061,-0.0011097347492522,0.0011097349248809,1.8811292845563e-10,1.8811510844786e-10,2.2956292045154e-10,1.8424140269867e-10,-0.0012829934708354,0.0012829939156108,-0.001282993657513,0.0012829941022762,-0.00128299377396,0.0012829940954621,-0.0012829939583755,0.001282994279881,-0.0011279722085358,0.0011279724779351,-0.0011279724734248,0.0011279727427908,2.2955686207429e-10,1.842277085582e-10,2.1214777851293e-09,-1.7452674294731e-09,-0.0011097347492536,0.0011097349248717,-0.0012829928049051,0.001282994560941,-0.0012829943234588,0.0012829934569155,-0.0012829931068794,0.0012829947396888,-0.0012829946254417,0.0012829936356617,-0.0011279703541135,0.0011279743954966,-0.0011279743278703,0.0011279708252216,-0.0011279728006061,0.0011279718810527,-0.0011279731051096,0.0011279720979882,4.9416207968767e-10,4.9416479798698e-10,-0.0011097344418482,0.0011097352322778,-1.3319185200976e-09,2.4371654759147e-09,-0.0012829938718968,0.0012829935918584,-0.001282992791283,0.0012829950143858,-0.0012829940428593,0.0012829937628023,-0.0012829929778923,0.0012829952009546,-0.0011279715315338,0.0011279736859471,-0.0011279712698854,0.001127973424311,0.40445605707229,125301,3014,0.0046135340432978,0.0046135340432816,0.0046135340432831,37.627841130231,0.00021622272904185,0.00021622272904185,0.00021622272904185,3110989.6110214,0.013937423327957
12419200,0.98965713490343,0.015081789355278,0.0050272631184393,0.0050272631184229,0.0050272631184158,-0.0011080708745488,0.0011080715015862,3.6251133608634e-10,3.6251350404953e-10,3.9648521291361e-10,3.5754598053925e-10,-0.0012845286874539,0.0012845295352379,-0.0012845288357505,0.0012845296835221,-0.0012845289544589,0.0012845296798357,-0.001284529100258,0.0012845298256381,-0.0011271256813904,0.0011271263227805,-0.0011271259361432,0.0011271265775,3.9647907509954e-10,3.5753262523953e-10,2.5476597639879e-09,-1.8226524361174e-09,-0.00110807087455,0.0011080715015771,-0.001284527938619,0.0012845302646018,-0.0012845295846009,0.0012845289541276,-0.0012845282043557,0.0012845304079787,-0.0012845298503461,0.0012845290975029,-0.0011271235810757,0.001127128488098,-0.0011271280364807,0.0011271244121749,-0.0011271263604017,0.0011271256322765,-0.0011271266556321,0.0011271258493994,7.0031587024265e-10,7.0031858436561e-10,-0.0011080705353691,0.0011080718407588,-1.3758060290114e-09,2.895609459501e-09,-0.0012845291445644,0.0012845291606188,-0.0012845278567168,0.0012845307101384,-0.0012845292754059,0.0012845292914419,-0.0012845280049533,0.0012845308583345,-0.001127124879435,0.0011271276353471,-0.0011271246262692,0.0011271273821935,0.45322610794666,125301,3014,0.0046066466335158,0.0046066466334996,0.0046066466335013,36.803685278894,0.00020962948223115,0.00020962948223115,0.00020962948223115,3081238.1839338,0.013916492640341
13419200,0.99354512545083,0.015118698671516,0.005039566223852,0.0050395662238356,0.0050395662238286,-0.0011002593663908,0.0011002612042368,8.2992490262861e-10,8.2992710776713e-10,8.5262176235807e-10,8.2234977654352e-10,-0.0012820648895601,0.0012820667577196,-0.0012820649478702,0.0012820668160173,-0.0012820650725656,0.001282066816769,-0.0012820651290401,0.0012820668732469,-0.0011202578147134,0.0011202594504412,-0.0011202580339592,0.0011202596696542,8.5261551535613e-10,8.2233645792833e-10,3.2806009254267e-09,-1.6207663057429e-09,-0.0011002593663921,0.0011002612042278,-0.0012820640498703,0.0012820675751941,-0.0012820657875757,0.0012820659985123,-0.0012820642319385,0.0012820676333537,-0.0012820659696522,0.00128206605667,-0.0011202554529087,0.0011202618733903,-0.0011202603957871,0.0011202572466982,-0.0011202585854298,0.0011202586582287,-0.0011202588501036,0.0011202588534216,1.1798492290336e-09,1.1798519823906e-09,-0.0011002590148602,0.0011002615557605,-1.1660818326475e-09,3.6395182673476e-09,-0.001282065428772,0.0012820663083458,-0.0012820638707101,0.0012820679448676,-0.0012820654680075,0.0012820663475628,-0.0012820639302129,0.0012820680043299,-0.0011202568763085,0.001120260827907,-0.0011202566566813,0.0011202606082913,0.4150894025916,125301,3014,0.0045742747045929,0.004574274704577,0.0045742747045788,34.793192153197,0.00019354553722557,0.00019354553722557,0.00019354553722557,3016923.7827967,0.013818076734319
14419200,0.9957901780356,0.015138403080756,0.0050461343602653,0.0050461343602489,0.0050461343602419,-0.001095154236714,0.0010951562642964,9.0163832303873e-10,9.0164050156041e-10,9.188308058643e-10,8.9344873178394e-10,-0.0012775064345124,0.0012775084919509,-0.0012775064732685,0.0012775085306948,-0.0012775065992385,0.0012775085338351,-0.0012775066356166,0.0012775085702165,-0.0011153897878145,0.0011153915763371,-0.0011153900110969,0.0011153917995866,9.188245122939e-10,8.9343561770847e-10,3.5858008682587e-09,-1.7825394294106e-09,-0.0010951542367152,0.0010951562642874,-0.0012775055190686,0.00127750938755,-0.0012775073887278,0.0012775076350652,-0.0012775056825862,0.0012775094282731,-0.0012775075522537,0.0012775076757865,-0.0011153871985765,0.0011153942299827,-0.0011153926003577,0.001115389145934,-0.0011153906387485,0.0011153906984015,-0.0011153909076063,0.0011153909061469,1.2884945801986e-09,1.288497311321e-09,-0.0010951538482638,0.0010951566527398,-1.287261056676e-09,3.9825878771006e-09,-0.0012775070176408,0.0012775080027871,-0.0012775052842833,0.0012775097723291,-0.0012775070357387,0.0012775080208665,-0.0012775053238512,0.0012775098118567,-0.0011153887399522,0.0011153930715618,-0.0011153885148871,0.0011153928465085,0.38312450045663,125301,3014,0.0045531016076903,0.0045531016076742,0.0045531016076763,32.642404986856,0.00017633923989485,0.00017633923989485,0.00017633923989485,3015893.2984391,0.013753679677177
15419200,0.99695918220615,0.015152148915308,0.005050716305116,0.0050507163050996,0.0050507163050926,-0.001083960368224,0.0010839654212772,2.0706016476292e-09,2.0706038279744e-09,2.0500662819853e-09,2.0557082887876e-09,-0.0012667090691779,0.0012667137603909,-0.0012667088716925,0.0012667135628931,-0.0012667090166901,0.0012667135853854,-0.0012667088207205,0.0012667133894191,-0.0011044225814292,0.0011044268526889,-0.0011044227259012,0.0011044269971281,2.0500599455285e-09,2.0556952000551e-09,5.0080662677081e-09,-8.6687789691464e-10,-0.0010839603682252,0.0010839654212682,-0.0012667080545186,0.0012667147375726,-0.0012667098863675,0.0012667125856811,-0.0012667080027689,0.0012667145633529,-0.0012667098346263,0.0012667124114595,-0.0011044197350151,0.0011044297408316,-0.0011044255723378,0.0011044241089785,-0.0011044235334723,0.0011044258433057,-0.0011044237327489,0.0011044260215226,2.4936170260645e-09,2.4936197509812e-09,-0.0010839599436199,0.0010839658458746,-3.6457969288476e-10,5.4355397691382e-09,-0.0012667097197669,0.0012667132271861,-0.0012667075660031,0.0012667149374376,-0.0012667094980165,0.0012667130054172,-0.0012667073755847,0.001266714746979,-0.0011044213315931,0.0011044283892822,-0.0011044211790121,0.0011044282367131,0.51103778709309,125301,3014,0.0045066788929536,0.0045066788929374,0.00450667889294,27.065928254153,0.00013172742603323,0.00013172742603323,0.00013172742603323,3028127.1396827,0.013612508764739
16419200,0.99770975397416,0.015160162722193,0.0050533875740775,0.0050533875740611,0.0050533875740541,-0.0010719529556166,0.0010719556011777,1.1391752720362e-09,1.1391775396728e-09,1.155656454768e-09,1.1300213703287e-09,-0.0012615695009068,0.001261572038341,-0.0012615695015404,0.0012615720389623,-0.0012615696280757,0.0012615720401431,-0.0012615696252923,0.0012615720373633,-0.0010935532958397,0.0010935555939364,-0.0010935535000079,0.0010935557980724,1.1556500417688e-09,1.1300085809547e-09,4.2442558641954e-09,-1.9659200669017e-09,-0.0010719529556178,0.0010719556011689,-0.0012615684495077,0.0012615730750358,-0.0012615705529553,0.0012615710022371,-0.0012615685749484,0.0012615730751578,-0.0012615706784042,0.0012615710023571,-0.0010935502970749,0.0010935586636031,-0.001093556498795,0.0010935527283995,-0.0010935542841017,0.0010935545765959,-0.0010935545372782,0.0010935547640371,1.5371198288679e-09,1.5371225945775e-09,-0.0010719525555924,0.0010719560011954,-1.4507093695452e-09,4.6534591888543e-09,-0.0012615702134085,0.0012615714210441,-0.001261568163844,0.0012615734280828,-0.0012615701921512,0.0012615713997685,-0.0012615681640739,0.0012615734282725,-0.0010935520785514,0.0010935572209535,-0.0010935518723999,0.0010935570148135,0.46538451425637,125301,3014,0.0044569012775963,0.0044569012775806,0.004456901277583,24.416517458041,0.00011053213966433,0.00011053213966433,0.00011053213966433,2937205.3973534,0.013461223754974
17419200,0.99821382774086,0.01516626626908,0.0050554220897067,0.0050554220896903,0.0050554220896833,-0.0010662166794193,0.0010662191551387,1.0708592090156e-09,1.0708614347712e-09,1.0841014842968e-09,1.0618599056147e-09,-0.0012549498218065,0.0012549522519467,-0.0012549498277333,0.0012549522578612,-0.0012549499542879,0.0012549522607714,-0.0012549499561524,0.0012549522626394,-0.0010879110925247,0.0010879132482613,-0.0010879113096273,0.0010879134653314,1.0840949312433e-09,1.0618468215805e-09,4.3028864804762e-09,-2.1611832703635e-09,-0.0010662166794207,0.0010662191551296,-0.0012549487305068,0.0012549533312955,-0.001254950919049,0.0012549511784818,-0.0012549488609376,0.0012549533381172,-0.0012549510494878,0.0012549511853014,-0.0010879079711078,0.0010879164450056,-0.0010879144310669,0.0010879102685802,-0.0010879121253978,0.0010879121834658,-0.0010879123894293,0.0010879123895602,1.503555753845e-09,1.5035584694973e-09,-0.0010662162448039,0.0010662195897476,-1.6068911960182e-09,4.7480912662622e-09,-0.0012549505439035,0.001254951627653,-0.0012549484155763,0.0012549537216932,-0.0012549505267656,0.0012549516104968,-0.0012549484205273,0.001254953726604,-0.0010879098124217,0.0010879149640418,-0.0010879095922604,0.001087914743892,0.52521873377382,125301,3014,0.0044330992003407,0.0044330992003248,0.0044330992003273,21.978562573342,9.1028500586738e-05,9.1028500586738e-05,9.1028500586738e-05,2952007.7958455,0.0133888408188
18419200,0.99852709887361,0.015169907847501,0.0050566359491803,0.0050566359491639,0.005056635949157,-0.0010530378073796,0.0010530421666264,1.7927523701457e-09,1.7927546447233e-09,1.7876023298582e-09,1.7798842529784e-09,-0.0012453210702358,0.0012453250923948,-0.0012453209347761,0.0012453249569228,-0.0012453210714475,0.0012453249681993,-0.0012453209338452,0.0012453248306006,-0.0010753737028226,0.001075377397382,-0.0010753738727761,0.0010753775673034,1.7875959609284e-09,1.7798713553467e-09,5.2277214318968e-09,-1.6422314384112e-09,-0.0010530378073809,0.0010530421666174,-0.0012453199039623,0.0012453262381179,-0.0012453221010655,0.001245323811169,-0.0012453199040832,0.0012453261128796,-0.0012453221011943,0.0012453236859284,-0.0010753703781003,0.0010753807857512,-0.0010753771975218,0.0010753741789281,-0.0010753748101902,0.0010753762431264,-0.0010753750338146,0.001075376424561,2.2290132289406e-09,2.2290159578867e-09,-0.0010530373690324,0.0010530426049671,-1.0984710874623e-09,5.6734628237081e-09,-0.0012453218655804,0.0012453244059848,-0.0012453194533651,0.0012453264978865,-0.0012453217054291,0.0012453242458154,-0.0012453193199505,0.0012453263644318,-0.0010753723028967,0.0010753791374993,-0.0010753721269922,0.0010753789616062,0.50516361584657,125301,3014,0.0043784503123367,0.0043784503123209,0.0043784503123235,17.483028036674,5.5064224293396e-05,5.5064224293396e-05,5.5064224293396e-05,2910264.2234472,0.013222748739809
19419200,0.99878640954355,0.015173823073242,0.0050579410244271,0.0050579410244107,0.0050579410244037,-0.0010519365728648,0.0010519378277333,6.26341561607e-10,6.2634380345027e-10,6.6450590400665e-10,5.9833277738848e-10,-0.001243959331209,0.0012439606855087,-0.0012439591915627,0.0012439605458502,-0.0012439593500971,0.0012439605366801,-0.0012439592083058,0.0012439603948923,-0.0010744066722834,0.0010744076975167,-0.0010744068430294,0.0010744078682306,6.6449962622124e-10,5.9831998015443e-10,4.079527482181e-09,-2.8268588818337e-09,-0.001051936572866,0.0010519378277244,-0.0012439581588279,0.0012439618372829,-0.0012439603639594,0.0012439593940458,-0.001243958176624,0.0012439616874101,-0.0012439603817634,0.0012439592441707,-0.0010744033297405,0.0010744111038138,-0.001074410185595,0.0010744044619275,-0.001074407743672,0.0010744065786467,-0.0010744080167156,0.0010744067132738,1.0732456876692e-09,1.0732483814987e-09,-0.001051936124042,0.0010519382765497,-2.2271612141802e-09,4.5206267921899e-09,-0.0012439601229767,0.0012439600036861,-0.0012439577157335,0.0012439620817903,-0.0012439599584128,0.0012439598391039,-0.0012439575782037,0.0012439619442204,-0.0010744052569579,0.0010744094547099,-0.0010744050798377,0.0010744092776011,0.6532521555218,125301,3014,0.0043738735965315,0.0043738735965157,0.0043738735965183,17.551534130152,5.5612273041216e-05,5.5612273041216e-05,5.5612273041216e-05,2904073.5583798,0.013208830645895
20419200,0.99901206861742,0.015177471728882,0.005059157242974,0.0050591572429576,0.0050591572429506,-0.0010467740954675,0.0010467737436134,-1.0788642796721e-11,-1.0786308662145e-11,4.0689028625164e-11,-1.3344516731233e-11,-0.0012452999198714,0.001245299889001,-0.0012453001489153,0.0012453001180325,-0.0012453002563377,0.0012453001001288,-0.0012453004768063,0.0012453003206007,-0.001070265991083,0.0010702658457977,-0.0010702662753166,0.0010702661299997,4.0682605633969e-11,-1.3357186902991e-11,3.3304103371138e-09,-3.3520019664369e-09,-0.0010467740954688,0.0010467737436047,-0.0012452988107093,0.0012453010075868,-0.0012453012580931,0.0012452989994166,-0.0012452991428687,0.0012453012144556,-0.0012453015902597,0.0012452992062827,-0.001070262774024,0.0010702691671775,-0.0010702694923976,0.0010702628086141,-0.0010702670417197,0.0010702647942574,-0.0010702673639627,0.0010702650158225,3.8347191293158e-10,3.834746520832e-10,-0.0010467736990737,0.0010467741400012,-2.7987257520847e-09,3.7440033019897e-09,-0.0012453006973078,0.0012452991864859,-0.0012452987373553,0.0012453015639562,-0.0012453009060727,0.0012452993952324,-0.0012452989583724,0.0012453017849335,-0.0010702647839383,0.0010702676261937,-0.0010702645025909,0.0010702673448577,0.70012779305905,125301,3014,0.0043524869148786,0.0043524869148633,0.0043524869148661,18.596142386633,6.3969139093065e-05,6.3969139093065e-05,6.3969139093065e-05,2804270.6502019,0.013143891116799
21419200,0.99916563199139,0.015179779867845,0.0050599266226281,0.0050599266226117,0.0050599266226048,-0.0010353282820864,0.0010353310465173,1.1623688929576e-09,1.162371218563e-09,1.1676931680694e-09,1.1750624371786e-09,-0.0012352286090155,0.0012352312804357,-0.0012352288364714,0.0012352315078799,-0.001235228922568,0.0012352315117451,-0.0012352291415114,0.0012352317306923,-0.0010595772055436,0.0010595797474522,-0.0010595774895334,0.0010595800314106,1.1676868367883e-09,1.1750498288027e-09,4.4950218300243e-09,-2.1702983563518e-09,-0.0010353282820879,0.0010353310465084,-0.0012352275025944,0.0012352323960831,-0.0012352299429078,0.0012352303922012,-0.0012352278118719,0.0012352326231652,-0.0012352302521928,0.0012352306192807,-0.0010595739967779,0.0010595830604023,-0.0010595806983223,0.0010595767184548,-0.0010595782983589,0.0010595786541583,-0.0010595785690903,0.0010595789261766,1.5548103074065e-09,1.5548130221765e-09,-0.0010353278876421,0.0010353314409556,-1.6640724266267e-09,4.9217861223859e-09,-0.0012352293857005,0.0012352305787338,-0.0012352274086319,0.0012352329703293,-0.0012352295929706,0.0012352307859857,-0.0012352276281661,0.0012352331898238,-0.0010595760031073,0.0010595815226697,-0.001059575721872,0.0010595812414451,0.64990944923707,125301,3014,0.0043050108213119,0.0043050108212966,0.0043050108212996,15.229377069697,3.7035016557576e-05,3.7035016557576e-05,3.7035016557576e-05,2744800.066306,0.01299960937656
22419200,0.99929272484442,0.015181741834261,0.0050605806114336,0.0050605806114172,0.0050605806114102,-0.001033626008617,0.0010336270354238,5.1440835350143e-10,5.1441063687286e-10,5.4601030299533e-10,5.092926631352e-10,-0.0012330702338904,0.0012330714156337,-0.0012330703546707,0.0012330715364018,-0.0012330704704644,0.0012330715285906,-0.0012330705845407,0.0012330716426706,-0.0010576910920975,0.0010576920739952,-0.0010576913573542,0.0010576923392202,5.460039156684e-10,5.0928011593028e-10,3.8508972710401e-09,-2.8220949072214e-09,-0.0010336260086182,0.0010336270354151,-0.001233069118714,0.0012330725314322,-0.0012330714698626,0.0012330704205733,-0.0012330693519166,0.0012330726410657,-0.0012330717030728,0.0012330705302041,-0.0010576878751945,0.0010576953837323,-0.0010576945742795,0.0010576890294774,-0.0010576921520267,0.0010576909988498,-0.0010576924568743,0.001057691227776,9.2626827128719e-10,9.2627094491139e-10,-0.0010336255951203,0.0010336274489144,-2.2669934986694e-09,4.2795536616321e-09,-0.0012330710022903,0.0012330707331079,-0.0012330689293553,0.0012330730040237,-0.0012330711012863,0.0012330708320857,-0.0012330690450542,0.0012330731196824,-0.0010576898491709,0.0010576938513265,-0.0010576895832103,0.001057693585377,0.66642562144511,125301,3014,0.0042979428712774,0.0042979428712618,0.0042979428712648,14.85943684387,3.4075494750956e-05,3.4075494750956e-05,3.4075494750956e-05,2780831.5345653,0.012978116807438
23419200,0.99940557591758,0.015183383048061,0.0050611276827002,0.0050611276826838,0.0050611276826768,-0.001033195476349,0.0010331954310387,1.0591589366568e-10,1.0591817715475e-10,1.508719924789e-10,1.0330255082504e-10,-0.0012337947998707,0.0012337950576775,-0.0012337950058395,0.0012337952636342,-0.0012337951146537,0.0012337952491398,-0.0012337953126272,0.0012337954471171,-0.001057481163282,0.0010574812739933,-0.0010574814515801,0.0010574815622597,1.5086566267468e-10,1.0328999790154e-10,3.3723223018483e-09,-3.1605048172895e-09,-0.0010331954763502,0.00103319543103,-0.0012337937132678,0.0012337961509349,-0.001233796092458,0.0012337941703469,-0.0012337940240338,0.0012337963384282,-0.0012337964032314,0.0012337943578375,-0.0010574780181665,0.0010574845200516,-0.0010574845967181,0.0010574783161959,-0.0010574821940144,0.001057480239081,-0.0010574825183046,0.0010574804736425,5.0407348610689e-10,5.0407617199543e-10,-0.001033195076655,0.0010331958307267,-2.6087552579352e-09,3.7892779723061e-09,-0.0012337955518955,0.0012337943833301,-0.0012337936162784,0.0012337966897127,-0.0012337957372839,0.0012337945687003,-0.0012337938149941,0.0012337968883883,-0.0010574799814777,0.0010574830374104,-0.0010574796945559,0.0010574827504996,0.62875729639222,125301,3014,0.0042961601882497,0.0042961601882342,0.0042961601882374,15.704776227345,4.0838209818762e-05,4.0838209818762e-05,4.0838209818762e-05,2753701.4646842,0.012972711697097
24419200,0.99951209941981,0.015185018278894,0.0050616727596445,0.0050616727596281,0.0050616727596211,-0.0010374375310045,0.0010374362762679,-3.5804621261045e-10,-3.5804394797375e-10,-2.9977490074432e-10,-3.5790536408974e-10,-0.0012370934092044,0.0012370926299958,-0.0012370937084562,0.0012370929292355,-0.0012370938099766,0.0012370929083307,-0.0012370940998435,0.0012370931982013,-0.0010616712490447,0.0010616703730367,-0.0010616715639776,0.0010616706879381,-2.9978138994251e-10,-3.5791796242546e-10,2.782564488524e-09,-3.4986713472336e-09,-0.0010374375310057,0.0010374362762592,-0.0012370923698535,0.0012370936822731,-0.0012370947478228,0.0012370918769283,-0.0012370927659139,0.0012370939559441,-0.0012370951438905,0.0012370921505965,-0.0010616682305494,0.0010616735010897,-0.0010616745824955,0.0010616675598792,-0.0010616722325577,0.0010616693964489,-0.001061672578923,0.0010616696407508,3.4073022210207e-11,3.4075685422966e-11,-0.0010374371375721,0.0010374366696943,-2.9424522340158e-09,3.1956151085638e-09,-0.0012370941188591,0.0012370919898635,-0.0012370923657951,0.0012370943025803,-0.0012370943986913,0.0012370922696775,-0.0012370926555279,0.001237094592273,-0.0010616701429739,0.0010616721150275,-0.0010616698314114,0.0010616718034756,0.66255127740755,125301,3014,0.0043137511553353,0.0043137511553198,0.0043137511553231,17.879135026775,5.8233080214197e-05,5.8233080214197e-05,5.8233080214197e-05,2754490.7203432,0.013026158455545
25419200,0.99960922149729,0.015186775657416,0.0050622585524852,0.0050622585524688,0.0050622585524619,-0.0010388947097777,0.0010388935614368,-3.1684506536545e-10,-3.1684277817062e-10,-2.5925445930717e-10,-3.1645124711692e-10,-0.0012399360398377,0.001239935350168,-0.0012399363387069,0.0012399356490246,-0.0012399364396732,0.001239935628378,-0.0012399367292794,0.0012399359179872,-0.0010634454289274,0.001063444645643,-0.0010634457418604,0.0010634449585435,-2.59261183623e-10,-3.1646406907264e-10,2.8131965291893e-09,-3.4469015274461e-09,-0.0010388947097794,0.0010388935614278,-0.0012399350036378,0.0012399363988059,-0.0012399373749226,0.0012399346003553,-0.0012399353988232,0.0012399366724138,-0.0012399377701149,0.0012399348739598,-0.0010634424205831,0.0010634477631442,-0.0010634487502278,0.0010634418410364,-0.0010634464095644,0.0010634436722746,-0.0010634467531363,0.0010634439150115,6.445859742233e-11,6.4461276428724e-11,-0.0010388943271024,0.0010388939441063,-2.9034233125137e-09,3.2158074243494e-09,-0.0012399367564865,0.0012399347026847,-0.0012399350093413,0.0012399370090075,-0.0012399370360816,0.0012399349822611,-0.001239935298795,0.0012399372984202,-0.001063444334922,0.0010634463715766,-0.0010634440254118,0.0010634460620781,0.77991302017261,125301,3014,0.0043198008324957,0.0043198008324805,0.0043198008324836,19.924253625593,7.4594029004742e-05,7.4594029004742e-05,7.4594029004742e-05,2703465.5278335,0.013044559345958
26419200,0.99968886668996,0.015188308881751,0.0050627696272635,0.0050627696272471,0.0050627696272401,-0.0010345152726121,0.001034515647643,2.6954312381906e-10,2.695454367484e-10,3.1228548959854e-10,2.6639918274665e-10,-0.0012407280226946,0.0012407286236867,-0.0012407281996093,0.0012407288005895,-0.0012407283105015,0.0012407287872049,-0.0012407284807961,0.0012407289575033,-0.001059775717886,0.0010597761801522,-0.0010597759899074,0.0010597764521421,3.1227913580829e-10,2.6638708241411e-10,3.3797901050572e-09,-2.8407174849132e-09,-0.001034515272613,0.0010345156476346,-0.0012407269832101,0.0012407296638923,-0.001240729239109,0.0012407277603545,-0.0012407272676875,0.0012407298241292,-0.0012407295235939,0.0012407279205884,-0.0010597727226208,0.0010597792688093,-0.0010597789851941,0.0010597733634804,-0.0010597766982914,0.0010597751961975,-0.0010597770067429,0.0010597754153998,6.268496621437e-10,6.2685238523698e-10,-0.0010345149139114,0.0010345160063378,-2.3390642448841e-09,3.7539312258896e-09,-0.0012407287641615,0.0012407279598029,-0.0012407269009565,0.0012407301377816,-0.001240728921554,0.0012407281171774,-0.0012407270721954,0.0012407303089805,-0.0010597746112037,0.0010597778354189,-0.0010597743404755,0.001059777564701,0.82922923068302,125301,3014,0.0043016658257808,0.0043016658257653,0.0043016658257686,20.393579418879,7.834863535103e-05,7.834863535103e-05,7.834863535103e-05,2641912.1746735,0.012989499307824
27419200,0.99975832199366,0.015189514595272,0.0050631715317704,0.0050631715317541,0.0050631715317471,-0.0010342287963813,0.0010342279154435,-2.1183580579684e-10,-2.1183351107282e-10,-1.5560082608981e-10,-2.1234796938589e-10,-0.0012423726110829,0.0012423721419324,-0.0012423728832566,0.001242372414094,-0.0012423729868358,0.0012423723940129,-0.0012423732509078,0.0012423726580886,-0.0010598989362626,0.0010598983711604,-0.0010598992405422,0.0010598986754088,-1.5560726148245e-10,-2.123603407028e-10,2.8218486440887e-09,-3.2455344722698e-09,-0.0010342287963826,0.0010342279154349,-0.001242371603142,0.0012423731575216,-0.0012423738912134,0.0012423713984746,-0.0012423719748245,0.0012423734055802,-0.0012423742629032,0.0012423716465302,-0.00105989601937,0.001059901390252,-0.0010599021574573,0.0010598956563119,-0.0010598998856124,0.001059897428998,-0.0010599002222802,0.0010598976636717,1.3492624086066e-10,1.3492896560096e-10,-0.0010342284483452,0.0010342282634739,-2.7426016039477e-09,3.1877189014051e-09,-0.0012423733307571,0.0012423714914613,-0.0012423716198332,0.0012423737100795,-0.0012423735846099,0.0012423717452961,-0.0012423718839957,0.001242373974202,-0.0010598978993157,0.001059900022575,-0.001059897598264,0.0010598997215338,0.74718867332314,125301,3014,0.0043004832945918,0.0043004832945765,0.00430048329458,22.250733087003,9.3205864696021e-05,9.3205864696021e-05,9.3205864696021e-05,2598916.6598027,0.012985919615756
28419200,0.99981540987717,0.015190644484767,0.0050635481616022,0.0050635481615858,0.0050635481615788,-0.0010372735356465,0.0010372732664687,2.0256194598924e-11,2.025842856009e-11,6.6864859809725e-11,1.8422187053066e-11,-0.0012428500756881,0.0012428501488181,-0.0012428502972886,0.0012428503704066,-0.0012428504050275,0.0012428503554678,-0.0012428506194519,0.0012428505698961,-0.0010627220474371,0.0010627219791578,-0.00106272234409,0.0010627222757792,6.6858506252989e-11,1.8409671586141e-11,3.0175173792587e-09,-2.9770190539225e-09,-0.0010372735356476,0.0010372732664601,-0.0012428490758703,0.0012428511517369,-0.0012428512971219,0.0012428493674583,-0.0012428494016024,0.0012428513548271,-0.001242851622861,0.0012428495705455,-0.0010627191639796,0.0010627249588997,-0.0010627252275699,0.0010627192960323,-0.001062722990018,0.0010627210363879,-0.001062723320025,0.0010627212767351,3.8151972554015e-10,3.8152241804613e-10,-0.0010372731734232,0.0010372736286863,-2.4676544563502e-09,3.3964622844822e-09,-0.0012428507739758,0.0012428495253488,-0.0012428490326734,0.0012428516715658,-0.0012428509764388,0.0012428497277937,-0.0012428492477105,0.0012428518865629,-0.0010627210000792,0.0010627236252581,-0.0010627207048604,0.00106272333005,0.8493285419621,125301,3014,0.0043131001290904,0.0043131001290749,0.0043131001290787,23.440404900595,0.00010272323920476,0.00010272323920476,0.00010272323920476,2623429.8487429,0.013024229714382
29419200,0.99986179753672,0.015191299124731,0.0050637663749237,0.0050637663749073,0.0050637663749003,-0.0010355103846636,0.0010355100176388,-1.4287559024879e-11,-1.4285289594209e-11,3.6085271810893e-11,-1.5766041990592e-11,-0.0012450242100918,0.0012450241856353,-0.0012450244424259,0.0012450244179578,-0.0012450245489935,0.0012450244009242,-0.0012450247742645,0.0012450246261988,-0.0010614837890789,0.0010614836455825,-0.0010614840843606,0.0010614839408328,3.6078930921623e-11,-1.5778565221987e-11,2.9502718244787e-09,-2.9788609015429e-09,-0.0010355103846648,0.0010355100176302,-0.0012450232211098,0.0012450251775147,-0.0012450254314233,0.001245023426049,-0.0012450235564607,0.0012450253893003,-0.0012450257667813,0.0012450236378315,-0.0010614809373939,0.00106148659313,-0.0010614869360682,0.0010614809932806,-0.0010614847187784,0.0010614827193096,-0.0010614850475064,0.001061482952362,3.2363225446266e-10,3.2363499587891e-10,-0.001035510045704,0.0010355103565927,-2.4927002650709e-09,3.3057006666726e-09,-0.001245024918573,0.0012450235492319,-0.0012450232106973,0.001245025685094,-0.001245025132572,0.0012450237632128,-0.0012450234363892,0.0012450259107458,-0.0010614827742507,0.0010614852566314,-0.0010614824811906,0.0010614849635816,0.60881578646039,125301,3014,0.0043058070003253,0.0043058070003101,0.0043058070003136,24.779248232297,0.00011343398585837,0.00011343398585837,0.00011343398585837,2555906.0821545,0.013002110311923
30419200,0.99989869877221,0.015191740458776,0.0050639134862719,0.0050639134862556,0.0050639134862486,-0.0010450001271019,0.0010449996834654,-4.8880866781897e-11,-4.8877555412468e-11,-4.2019754560636e-12,-5.0369871676172e-11,-0.001246806019221,0.0012468059668908,-0.0012468062487156,0.0012468061963624,-0.0012468063555739,0.0012468061828458,-0.0012468065782518,0.0012468064055286,-0.0010699671519863,0.0010699669343445,-0.0010699674647449,0.0010699672470595,-4.1899921244784e-12,-5.0378226636007e-11,2.7818202121421e-09,-2.8795663044744e-09,-0.0010450001270905,0.0010449996834653,-0.0012468050731217,0.0012468069141124,-0.0012468071948181,0.0012468052491298,-0.0012468054060236,0.0012468071266874,-0.0012468075277481,0.0012468054617073,-0.0010699644307392,0.0010699697493414,-0.0010699701860011,0.0010699644320913,-0.0010699680423564,0.0010699660427535,-0.0010699683871675,0.0010699663039167,3.1882170077471e-10,3.1882334495978e-10,-0.001044999758859,0.0010450000517022,-2.3675907499042e-09,3.1666729498298e-09,-0.0012468066564285,0.0012468054044699,-0.0012468050326943,0.0012468074494184,-0.0012468068670387,0.0012468056150509,-0.0012468052558019,0.0012468076724832,-0.0010699661701296,0.0010699685477084,-0.0010699658586218,0.0010699682362029,0.51512748248588,125301,3014,0.0043451367260319,0.0043451367260081,0.0043451367260195,26.129933513435,0.00012423946810748,0.00012423946810748,0.00012423946810748,2686389.3488007,0.013121551877374
31419200,0.99992857118053,0.015192201999207,0.0050640673330822,0.0050640673330659,0.0050640673330589,-0.0010535976530162,0.0010535962742294,-4.0799078866146e-10,-4.0798755864249e-10,-3.5047066474412e-10,-4.0722338591391e-10,-0.0012522786769468,0.0012522778059171,-0.0012522789822071,0.001252278111166,-0.0012522790832063,0.0012522780916374,-0.0012522793803236,0.0012522783887592,-0.0010780558101263,0.0010780548308167,-0.0010780561368689,0.0010780551575292,-3.5047262845334e-10,-4.0724083762158e-10,2.3563879814155e-09,-3.1723833323124e-09,-0.0010535976530176,0.0010535962742205,-0.0012522777577802,0.0012522787320287,-0.001252279901387,0.0012522771850272,-0.0012522781599515,0.001252279013703,-0.0012522803035658,0.0012522774666988,-0.0010780531568609,0.0010780575853892,-0.0010780587901604,0.0010780524029477,-0.0010780566717884,0.0010780539779572,-0.0010780570275277,0.0010780542358726,-4.3260732120212e-11,-4.3259156080123e-11,-0.0010535972878676,0.0010535966393722,-2.6537551809244e-09,2.7400803208977e-09,-0.0012522792892613,0.0012522772616087,-0.001252277790206,0.0012522793349773,-0.0012522795764239,0.0012522775487523,-0.0012522780871141,0.0012522796318446,-0.0010780548678349,0.0010780564331384,-0.0010780545440814,0.0010780561093978,0.66479676253864,125301,3014,0.0043807830438726,0.004380783043857,0.0043807830438606,28.437600576373,0.00014270080461098,0.00014270080461098,0.00014270080461098,2701476.0938384,0.013229875596097
32419200,0.99995039664476,0.015192599249567,0.0050641997498689,0.0050641997498526,0.0050641997498456,-0.0010500863415424,0.0010500863852827,1.4693214594145e-10,1.4693547022225e-10,1.9216815543888e-10,1.446049874316e-10,-0.0012553924186676,0.0012553927564092,-0.0012553926200005,0.0012553929577306,-0.0012553927293501,0.0012553929440708,-0.0012553929249033,0.0012553931396282,-0.0010753457315824,0.0010753459278361,-0.0010753460177115,0.0010753462139357,1.9216500136327e-10,1.4458899107285e-10,2.9337174418632e-09,-2.6398667195781e-09,-0.0010500863415437,0.0010500863852738,-0.0012553914835607,0.0012553936882958,-0.0012553935551211,0.0012553920258157,-0.0012553917913362,0.0012553938730942,-0.0012553938629036,0.0012553922106112,-0.0010753430508899,0.0010753486962529,-0.0010753486984294,0.0010753434455111,-0.0010753466052592,0.001075345054155,-0.001075346925984,0.0010753452849215,4.7671062267065e-10,4.7671228291404e-10,-0.0010500860109465,0.0010500867158729,-2.1724205367791e-09,3.2789775927647e-09,-0.0012553930787616,0.0012553921710681,-0.0012553914541661,0.0012553941619545,-0.0012553932619129,0.0012553923542004,-0.0012553916504865,0.001255394358234,-0.0010753447735792,0.0010753474630854,-0.0010753444890403,0.0010753471785593,0.7835582016357,125301,3014,0.004366256950742,0.0043662569507264,0.0043662569507301,29.29510364649,0.00014956082917192,0.00014956082917192,0.00014956082917192,2604083.7673814,0.013185796985264
33419200,0.99996556714158,0.015192885269338,0.0050642950897926,0.0050642950897762,0.0050642950897692,-0.0010445355340656,0.0010445364143112,4.6511383679744e-10,4.65117178313e-10,5.0217713924487e-10,4.6101809783121e-10,-0.0012543515636468,0.0012543526023412,-0.0012543517018502,0.0012543527405333,-0.0012543518158682,0.0012543527303324,-0.0012543519492426,0.0012543528637117,-0.0010705496954421,0.001070550573186,-0.0010705499630993,0.0010705508408135,5.0217337072138e-10,4.6100301362107e-10,3.3158080327897e-09,-2.3855932888391e-09,-0.001044535534067,0.0010445364143026,-0.0012543506036914,0.0012543535549113,-0.0012543526618196,0.0012543517879353,-0.0012543508534809,0.0012543536805151,-0.0012543529116158,0.0012543519135358,-0.001070546949801,0.0010705534005793,-0.0010705527087661,0.0010705480134148,-0.0010705505936862,0.0010705496686998,-0.0010705508988209,0.0010705498905705,7.8810631592244e-10,7.8810801001774e-10,-0.0010445352101384,0.0010445367382328,-1.9318216670712e-09,3.6527309763995e-09,-0.0012543522555802,0.0012543519895438,-0.0012543505221437,0.0012543539622251,-0.0012543523752089,0.001254352109153,-0.0012543506568274,0.0012543540968684,-0.0010705487037057,0.0010705521047649,-0.0010705484364142,0.001070551837485,0.80945760226261,125301,3014,0.0043432548881845,0.0043432548881694,0.0043432548881729,29.317284606048,0.00014973827684838,0.00014973827684838,0.00014973827684838,2536308.636735,0.013115926459622
34419200,0.99997704734184,0.015193081674688,0.0050643605582426,0.0050643605582262,0.0050643605582192,-0.0010459785668747,0.0010459774148865,-3.1484789326004e-10,-3.1484457230267e-10,-2.5596416567632e-10,-3.1464753321914e-10,-0.0012567489920956,0.0012567482971364,-0.0012567492841515,0.0012567485891807,-0.0012567493862961,0.0012567485681407,-0.0012567496708033,0.0012567488526525,-0.0010722228418416,0.0010722220569545,-0.0010722231572268,0.0010722223723106,-2.5596864230154e-10,-3.1466206067607e-10,2.4856772343495e-09,-3.115385939666e-09,-0.0010459785668759,0.0010459774148778,-0.0012567480597519,0.0012567492346595,-0.0012567502165096,0.0012567476516293,-0.0012567484501598,0.001256749501917,-0.0012567506069248,0.0012567479188836,-0.0010722201518145,0.001072224845479,-0.0010722258472778,0.0010722195837802,-0.0010722237139688,0.0010722211956791,-0.0010722240600913,0.0010722214380561,4.0047626278389e-12,4.0064392825006e-12,-0.0010459782471663,0.0010459777345894,-2.6444009077939e-09,2.8227340369422e-09,-0.0012567496605702,0.0012567476948892,-0.0012567481245728,0.0012567497808383,-0.0012567499355521,0.0012567479698523,-0.0012567484089912,0.001256750065216,-0.0010722219211939,0.0010722236148116,-0.0010722216093704,0.0010722233030002,0.73398852679868,125301,3014,0.0043492401701122,0.0043492401700968,0.0043492401701009,31.481611250257,0.00016705289000205,0.00016705289000205,0.00016705289000205,2508330.4965224,0.013134120913913
35419200,0.99998605098069,0.015193217964826,0.0050644059882884,0.005064405988272,0.0050644059882651,-0.001055914748246,0.0010559113105791,-1.1938325160008e-09,-1.1938292463066e-09,-1.109139912537e-09,-1.1885704957078e-09,-0.0012641261941375,0.0012641235290444,-0.001264126662532,0.0012641239974278,-0.001264126750779,0.0012641239637234,-0.0012641272085758,0.0012641244215247,-0.0010818430220332,0.0010818403658654,-0.0010818433857784,0.001081840729581,-1.1091445374042e-09,-1.1885845150461e-09,1.4670549056695e-09,-3.8547328118643e-09,-0.0010559147482472,0.0010559113105707,-0.001264125320092,0.0012641244220887,-0.0012641275365923,0.0012641231043549,-0.0012641258714161,0.0012641248514965,-0.0012641280879237,0.0012641235337595,-0.0010818404761103,0.0010818430287506,-0.0010818459317251,0.0010818380666903,-0.0010818438363968,0.0010818395826127,-0.0010818442233274,0.0010818398409122,-8.7839801760234e-10,-8.7839637029973e-10,-0.0010559144321776,0.001055911626642,-3.3639321809163e-09,1.8052895830983e-09,-0.0012641268069591,0.0012641229672075,-0.0012641255516314,0.0012641251288931,-0.001264127260144,0.0012641234203736,-0.0012641260076698,0.001264125584891,-0.0010818422022373,0.0010818419216697,-0.0010818418459549,0.0010818415653993,0.64952121200817,125301,3014,0.0043904396174904,0.0043904396174753,0.004390439617479,35.928256796101,0.00020262605436881,0.00020262605436881,0.00020262605436881,2524498.1010169,0.013259318331171
36419200,0.99999181558815,0.015193309546881,0.0050644365156403,0.0050644365156239,0.005064436515617,-0.0010613054623378,0.0010613048212718,-1.2118435419528e-10,-1.2118110755917e-10,-7.0967239926005e-11,-1.219198437854e-10,-0.0012669820564551,0.0012669818169546,-0.0012669823055453,0.0012669820660334,-0.001266982411441,0.0012669820502046,-0.0012669826542117,0.0012669822929798,-0.0010868675448884,0.0010868671762199,-0.0010868678502541,0.0010868674815558,-7.0972311602698e-11,-1.2193338081855e-10,2.5352321913628e-09,-2.7776136712308e-09,-0.0010613054623388,0.0010613048212633,-0.0012669811668641,0.0012669827056972,-0.0012669831951511,0.0012669811772622,-0.0012669815186713,0.0012669829358153,-0.0012669835469657,0.0012669814073774,-0.0010868649932368,0.0010868698191509,-0.0010868704019289,0.0010868648386195,-0.0010868683746114,0.0010868663517029,-0.0010868687104784,0.0010868665958836,2.0425415599927e-10,2.0425578592006e-10,-0.0010613051364575,0.0010613051471465,-2.3105858816874e-09,2.8771525707727e-09,-0.0012669826750992,0.0012669812693596,-0.001266981187476,0.0012669832202172,-0.0012669829067225,0.001266981500964,-0.001266981430656,0.0012669834633564,-0.0010868666547117,0.0010868686826926,-0.0010868663514543,0.0010868683794478,0.6811981079479,125301,3014,0.0044127940360312,0.0044127940360158,0.0044127940360198,37.480015547094,0.00021504012437675,0.00021504012437675,0.00021504012437675,2554075.619754,0.013327247246344
37419200,0.9999952201636,0.015193361485184,0.0050644538284078,0.0050644538283914,0.0050644538283844,-0.0010603865878124,0.0010603873017769,4.0251075033758e-10,4.0251402767863e-10,4.3810571781811e-10,3.9870688224902e-10,-0.0012678437992385,0.001267844728534,-0.0012678439454002,0.0012678448746844,-0.0012678440592508,0.0012678448659618,-0.0012678442008921,0.0012678450076076,-0.0010861389677967,0.0010861397094587,-0.0010861392475103,0.0010861399891428,4.3810037302568e-10,3.986936222019e-10,3.1389904889544e-09,-2.3339817623252e-09,-0.0010603865878134,0.0010603873017685,-0.0012678428760351,0.0012678456427829,-0.0012678448686186,0.0012678439604068,-0.0012678431337681,0.0012678457779785,-0.0012678451263589,0.0012678440955993,-0.0010861363332017,0.0010861424238239,-0.0010861418821284,0.0010861372747726,-0.0010861398302845,0.0010861388401103,-0.0010861401458509,0.0010861390773167,7.2769957518926e-10,7.2770123302096e-10,-0.0010603862620793,0.0010603876275045,-1.8808033823654e-09,3.4777823142846e-09,-0.0012678444519727,0.0012678441554677,-0.0012678428015029,0.0012678460612443,-0.0012678445796322,0.0012678442831082,-0.001267842944483,0.0012678462041837,-0.0010861380240974,0.00108614121729,-0.0010861377442262,0.0010861409374312,0.65495763090949,125301,3014,0.0044089956429206,0.0044089956429052,0.0044089956429092,37.680344480829,0.00021664275584663,0.00021664275584663,0.00021664275584663,2526801.7347319,0.013315722666087
38419200,0.99999717709162,0.01519339477479,0.0050644649249432,0.0050644649249268,0.0050644649249198,-0.0010594979593625,0.0010594993470762,6.6129870480791e-10,6.6130197347276e-10,6.8794507225027e-10,6.5588205444463e-10,-0.001266617125008,0.0012666186442119,-0.0012666172182139,0.0012666187374063,-0.0012666173362159,0.0012666187330201,-0.0012666174255202,0.0012666188223289,-0.0010852588358364,0.0010852601269901,-0.0010852591054688,0.001085260396593,6.8793959007652e-10,6.5586909936981e-10,3.5057607517266e-09,-2.1831759608545e-09,-0.0010594979593635,0.0010594993470678,-0.0012666161633552,0.0012666195940294,-0.0012666181798816,0.00126661778756,-0.0012666163725932,0.0012666196809151,-0.0012666183891268,0.0012666178744426,-0.0010852560938555,0.0010852629446123,-0.0010852618474723,0.0010852575789659,-0.0010852597381468,0.0010852592099962,-0.0010852600460536,0.0010852594492898,1.0024681511096e-09,1.0024698000004e-09,-0.0010594976176411,0.0010594996887921,-1.719018486474e-09,3.8595625951591e-09,-0.0012666178023248,0.001266618052189,-0.0012666160238129,0.0012666199779171,-0.0012666178759389,0.0012666181257842,-0.0012666161149601,0.0012666200690235,-0.0010852578299068,0.001085261676537,-0.0010852575585048,0.0010852614051474,0.72891346290552,125301,3014,0.0044053086059495,0.0044053086059342,0.0044053086059381,37.196089095105,0.00021276871276084,0.00021276871276084,0.00021276871276084,2532802.0642099,0.013304509502635
38880000,0.99999786045597,0.015193406659884,0.0050644688866413,0.0050644688866249,0.0050644688866179,-0.0010567223201829,0.0010567233049041,5.074986481176e-10,5.0749732304044e-10,5.4023491220897e-10,5.0124116411768e-10,-0.0012661461521247,0.0012661473032977,-0.0012661462603362,0.0012661474117912,-0.0012661463785402,0.0012661474040499,-0.0012661464833209,0.0012661475088706,-0.0010829044292224,0.0010829053704307,-0.0010829047119286,0.0010829056535637,5.4113033365507e-10,5.0255837886481e-10,3.3635561125648e-09,-2.3470741866578e-09,-0.0010567223197449,0.0010567233061474,-0.0012661451873286,0.0012661482579748,-0.00126614722409,0.0012661464593177,-0.0012661454118144,0.001266148357299,-0.0012661474488316,0.0012661465585724,-0.0010829016766962,0.0010829082012136,-0.0010829074631178,0.0010829028255352,-0.0010829053293723,0.0010829044573939,-0.0010829056544619,0.0010829047035139,8.3838283886212e-10,8.3840931525916e-10,-0.0010567219894091,0.0010567236374291,-1.8883679841102e-09,3.7061564956101e-09,-0.0012661468426277,0.0012661466981766,-0.0012661450748262,0.001266148644609,-0.0012661469314144,0.0012661467868983,-0.0012661451803224,0.0012661487503391,-0.0010829034432822,0.0010829069275305,-0.0010829031606438,0.0010829066442803,0.74537476942469,125301,3014,0.0043938032248659,0.004393803226533,0.0043938032284941,37.193650664254,0.00021274920531403,0.00021274920531403,0.00021274920531403,2480960.9650382,0.013269560701914
