time,ASR_ext,ASR_strain,ASR_strain_xx,ASR_strain_yy,ASR_strain_zz,disp_x_101,disp_x_102,disp_x_103,disp_x_104,disp_x_105,disp_x_106,disp_x_p1_neg,disp_x_p1_pos,disp_x_p2_neg,disp_x_p2_pos,disp_x_p3_neg,disp_x_p3_pos,disp_x_p4_neg,disp_x_p4_pos,disp_x_p5_neg,disp_x_p5_pos,disp_x_p6_neg,disp_x_p6_pos,disp_y_101,disp_y_102,disp_y_103,disp_y_104,disp_y_105,disp_y_106,disp_y_p1_neg,disp_y_p1_pos,disp_y_p2_neg,disp_y_p2_pos,disp_y_p3_neg,disp_y_p3_pos,disp_y_p4_neg,disp_y_p4_pos,disp_y_p5_neg,disp_y_p5_pos,disp_y_p6_neg,disp_y_p6_pos,disp_y_p7_neg,disp_y_p7_pos,disp_y_p8_neg,disp_y_p8_pos,disp_z_101,disp_z_102,disp_z_103,disp_z_104,disp_z_105,disp_z_106,disp_z_p1_neg,disp_z_p1_pos,disp_z_p2_neg,disp_z_p2_pos,disp_z_p3_neg,disp_z_p3_pos,disp_z_p4_neg,disp_z_p4_pos,disp_z_p5_neg,disp_z_p5_pos,disp_z_p6_neg,disp_z_p6_pos,humidity,ndof,nelem,strain_xx,strain_yy,strain_zz,temp,thermal_strain_xx,thermal_strain_yy,thermal_strain_zz,vonmises,vstrain
2419200,0,0,0,0,0,0,0,0,0,0,0,0,0,0,0,0,0,0,0,0,0,0,0,0,0,0,0,0,0,0,0,0,0,0,0,0,0,0,0,0,0,0,0,0,0,0,0,0,0,0,0,0,0,0,0,0,0,0,0,0,0,0,0,0,0,0,0,0,0,0,0,0,0,0,0
3419200,0.15846859726286,0.0027326333855621,0.00091087779518737,0.00091087779518737,0.00091087779518737,-0.00024992125868453,0.00025263811983063,3.2351503340005e-07,3.0866190722834e-06,1.0572845212451e-06,1.7108965942423e-06,-0.00025557637654514,0.00025683349500834,-0.00025463511945836,0.00025726350904428,-0.00025552691112546,0.00025695017722809,-0.00025437520922402,0.00025817514632838,-0.00025156568436719,0.00025212706234048,-0.0002481440512817,0.00025543525625382,4.2708770507212e-07,-1.924164446949e-07,-7.4216759408509e-07,1.5460355387132e-06,-0.00025119384932685,0.00025149723965306,-0.00025645424720544,0.00025578037184753,-0.00025557645661233,0.00025682622711644,-0.00025657093617689,0.00025560508532945,-0.00025609988777077,0.00025651557543668,-0.00025217399530478,0.00025108166374233,-0.00025094224768835,0.00025386184218928,-0.00025132712501962,0.000253011000977,-0.00025249387792544,0.00025237447363012,1.1423787155447e-07,-2.66617273114e-06,-0.00025263428099096,0.00025004487030631,-3.6108885744525e-07,-2.6540456064691e-06,-0.00025653640993651,0.00025592786925615,-0.00025721743101726,0.00025505918923463,-0.0002573054944678,0.00025494202286129,-0.0002581249113701,0.00025374043291889,-0.0002547192140892,0.00024829780568706,-0.00025286494353538,0.0002528785314484,0.78396790075197,134640,3014,0.0010464496010308,0.0010467237003816,0.0010466988773389,31.785376151862,0.00016948300921489,0.00016948300921489,0.00016948300921489,1172596.7487653,0.0031448085634761
4419200,0.34926752897354,0.0058921814354954,0.0019637700869725,0.0019643278230833,0.0019640835254396,-0.00049423509705926,0.00049968900410847,7.524238729295e-07,6.095364238355e-06,2.2325294615995e-06,3.1862689946391e-06,-0.00051768652160373,0.00052052973639921,-0.00051583657315718,0.00052106021225146,-0.00051780392976466,0.00052065972489805,-0.00051545529758121,0.00052310407659671,-0.00050002138811584,0.00050095736666598,-0.00049309115899371,0.00050752959603348,7.8810225537252e-07,-1.1387162550185e-07,-8.0170663889734e-07,2.728327059269e-06,-0.00049665182016977,0.0004975422076728,-0.00051932522778923,0.00051845691402462,-0.00051785404490975,0.00052025834653919,-0.00051944913332047,0.00051836496341194,-0.00051896037809175,0.00051982745585432,-0.00050037591052285,0.00049947498263733,-0.00049890516782167,0.0005039629181125,-0.00049932805039363,0.00050236174991688,-0.00050161510215817,0.00050139243730949,3.9682065813791e-07,-4.9361749514665e-06,-0.00049938988344846,0.00049470429229647,-1.0061921878702e-06,-4.5308099611108e-06,-0.00051973193964743,0.00051859054291259,-0.00052073507307342,0.00051719137650514,-0.00052120234948952,0.00051668644924292,-0.00052253481091879,0.00051450194338832,-0.00050561680056787,0.00049363923478965,-0.0005016915766416,0.00050253524387024,0.77882048864894,134640,3014,0.0020685342156249,0.002069095374243,0.0020688878947457,33.598604738317,0.00018398883790653,0.00018398883790653,0.00018398883790653,2055770.9431548,0.0062258366481333
5419200,0.54927818682334,0.0090950078999564,0.0030316117057715,0.0030318250961031,0.0030315710980818,-0.00074134798425728,0.00074317992562538,-1.7180990411069e-06,4.5404693105983e-06,1.4178289301075e-06,5.374400189556e-07,-0.00079310749076055,0.00079265423820473,-0.00079091941900482,0.00079398437470852,-0.00079360504479769,0.00079222409786102,-0.0007911934610158,0.00079482414405842,-0.0007522053232037,0.00074795927807209,-0.00074519830423832,0.000754830005645,1.3856302517021e-07,1.0264790632246e-06,1.0384085838879e-06,7.6989229978914e-07,-0.00074175425003772,0.00074288700504321,-0.00079261840888618,0.00079289766527338,-0.00079241231121185,0.00079321869493844,-0.00079219493375787,0.00079323329921278,-0.00079262202204605,0.00079332017419173,-0.00074843913301331,0.00075115609396434,-0.00074964547208439,0.00075138287216433,-0.00075003131849779,0.0007504527777336,-0.00074986688031826,0.00075114380122795,2.7894008124646e-06,-3.4204038183465e-06,-0.00074257455165948,0.00074196507679541,-7.0952709428194e-07,-4.3908614173455e-07,-0.00079190343400922,0.000793724138189,-0.00079177036861185,0.00079367828427961,-0.00079383303329706,0.00079160742706217,-0.00079392574470612,0.00079111321171827,-0.00075317396866983,0.00074601330085877,-0.00074764876874356,0.0007538800647679,0.77319620033411,134640,3014,0.0030880079804026,0.0030882433501761,0.003088032396239,36.266592193275,0.0002053327375462,0.0002053327375462,0.0002053327375462,2855190.3003584,0.0093074010898494
6419200,0.70581764271474,0.011402087864655,0.0038005908397446,0.0038008349078784,0.0038006621170322,-0.00090526320399684,0.000908678709096,-1.4595373333758e-06,5.9491354302562e-06,5.7596671637817e-07,3.0313539777229e-06,-0.00099362494850605,0.00099327199811671,-0.00099110254381859,0.00099492761469291,-0.00099309836729056,0.00099394277842491,-0.00099024177421664,0.0009969219057822,-0.00091643354434827,0.00091374540828641,-0.00090804461553963,0.00092182939854232,1.4365181301006e-06,-1.019126946128e-06,9.8253864678187e-07,2.2591099995016e-07,-0.00090680430033445,0.00090726461903435,-0.00099292976142513,0.00099375378835187,-0.00099282663742133,0.00099392341908663,-0.00099358904968294,0.00099304413308732,-0.00099417113330385,0.00099290570294726,-0.0009139460655425,0.00091561175665174,-0.00091581700938679,0.00091537039644846,-0.00091386366721033,0.00091679104161812,-0.00091709159688719,0.00091396048864481,2.8720263949235e-06,-4.4898827234678e-06,-0.00090781147530644,0.00090619915126026,-1.4838590984757e-06,-7.3851698139548e-07,-0.00099283572343809,0.00099391293983409,-0.00099257571257913,0.0009940422951406,-0.00099517140314325,0.00099145441511565,-0.00099515469559828,0.00099111073387181,-0.00091918780707666,0.00091007605277402,-0.00091260022251476,0.00091934128049772,0.72914356963156,134640,3014,0.003771981493285,0.0037722450943949,0.0037721242233063,36.738372753816,0.00020910698203053,0.00020910698203053,0.00020910698203053,3241512.7191146,0.01138079471993
7419200,0.8314934229183,0.013176076647577,0.0043919261708227,0.0043921490083814,0.004392001468373,-0.0010250581819657,0.0010281649991713,-2.2806286602571e-06,6.432661900714e-06,5.3141509769371e-07,2.8097202472105e-06,-0.0011509818346632,0.001150033106209,-0.0011480928917243,0.0011521297603549,-0.0011506038787148,0.0011506133159669,-0.001147260720202,0.0011540651064721,-0.001036834200243,0.0010322386448477,-0.001026958278566,0.0010417489715229,1.3202486589972e-06,-9.5898823371799e-07,1.0474078850366e-06,2.1679073623683e-07,-0.0010264554346771,0.0010268806004578,-0.0011501164894404,0.0011508017445175,-0.0011500057557278,0.0011509749585485,-0.0011506445623627,0.0011501868139981,-0.0011512872076518,0.0011499550529832,-0.0010330996833534,0.0010350782140081,-0.0010351853033579,0.0010346717460546,-0.0010333548519246,0.0010361654555708,-0.0010365975334586,0.0010333189578116,3.8386130575839e-06,-4.8244136488271e-06,-0.0010271501293468,0.0010261465647646,-1.2017591455418e-06,-3.9769601336224e-07,-0.0011494071540298,0.0011514721242415,-0.0011491394548554,0.0011516171455177,-0.0011521441215301,0.001148558189736,-0.0011521280529413,0.0011482820034001,-0.001038984498506,0.0010291970613676,-0.0010309399153987,0.0010396779506893,0.71234622023286,134640,3014,0.0042685517348214,0.0042687859195769,0.0042687044586224,40.760780563353,0.00024128624450683,0.00024128624450683,0.00024128624450683,3437213.8733933,0.01288869308299
8419200,0.90742795419209,0.014219686981469,0.0047397986951033,0.004740021592356,0.0047398666940096,-0.0010789918440026,0.0010818843183605,-2.689185332669e-06,6.5645042350557e-06,8.2877385445043e-07,2.2924194797606e-06,-0.0012344352939782,0.0012334042823444,-0.0012314015833457,0.0012357276456281,-0.0012343081600886,0.0012337206439517,-0.001230838394965,0.0012373249210368,-0.0010921850064999,0.001086468925651,-0.0010818816219483,0.0010965616792816,9.9726621952584e-07,-4.6947477884281e-07,1.4676217926374e-06,-1.1303404662208e-07,-0.0010802089135822,0.0010807822396052,-0.001233460595416,0.0012342990791661,-0.0012335925293825,0.0012341838738092,-0.0012337366163723,0.0012339598567636,-0.0012345557264677,0.0012334673628313,-0.0010875364530796,0.0010905078269291,-0.0010901642037764,0.00108934706311,-0.0010886531546555,0.0010905005528878,-0.0010910107264757,0.0010884939618155,4.0421582899421e-06,-5.1577021818834e-06,-0.0010810272398692,0.0010799265195679,-1.6055838433621e-06,-6.8596953181491e-08,-0.0012329182619053,0.0012348048568152,-0.0012324082113575,0.0012352233136596,-0.0012358275323486,0.0012317363594857,-0.0012355786997063,0.0012317348192043,-0.0010941446066471,0.001083894803485,-0.0010853835421154,0.0010947620383431,0.6984878690118,134640,3014,0.0044919265624512,0.0044921651416932,0.0044920877213849,41.433084639284,0.00024666467711427,0.00024666467711427,0.00024666467711427,3396506.4309996,0.013567823451542
9419200,0.9494826235015,0.014783450359677,0.0049277196351257,0.0049279406702481,0.0049277900543035,-0.001097123889604,0.0010999563292892,-2.6794910285244e-06,6.4886551613298e-06,7.6253673599982e-07,2.2934034767487e-06,-0.0012731091923334,0.0012720156584743,-0.0012700901983877,0.0012743156241584,-0.0012729257291226,0.0012723537944591,-0.0012694981149866,0.0012759110157524,-0.001111469594011,0.0011058839108191,-0.0011013141212559,0.0011158116784528,1.0314584041155e-06,-5.0100500096371e-07,1.5399603519621e-06,-2.2841458485999e-07,-0.0010983130037152,0.0010988800043882,-0.0012720443416295,0.0012729952479482,-0.0012722476994342,0.0012728092153502,-0.0012723563010562,0.0012726173775253,-0.0012732297876779,0.0012720616527085,-0.0011068619478864,0.0011099475722354,-0.0011096176212731,0.0011085576324122,-0.0011079774551415,0.0011098011843882,-0.0011103609359795,0.0011077816232415,4.067000781982e-06,-5.0479381321439e-06,-0.0010990690511111,0.0010980953573341,-1.6211313565261e-06,9.8478197778906e-08,-0.001271548101617,0.0012734586028115,-0.0012709884080697,0.0012739418166167,-0.0012744383903564,0.0012704212235701,-0.0012741409797848,0.0012705002112548,-0.0011133293255168,0.0011034074166362,-0.0011046988538068,0.0011141168782394,0.67994985017147,134640,3014,0.0045670792117439,0.0045673132505534,0.0045672540181187,41.145479049181,0.00024436383239345,0.00024436383239345,0.00024436383239345,3280786.4485083,0.013796475853576
10419200,0.97052391325212,0.015073124585295,0.0050242770080681,0.0050244975048199,0.0050243500724073,-0.001096805765263,0.0010994710492099,-2.7210589982599e-06,6.3889047195784e-06,1.1118455328859e-06,1.7573069318709e-06,-0.001283959972099,0.0012829743132527,-0.0012809379444388,0.0012852710390838,-0.0012840367374371,0.0012830164389181,-0.0012806274868784,0.0012865525844195,-0.0011125287446978,0.0011066843195508,-0.0011025025858153,0.0011164962223137,6.7821208197695e-07,3.0945297808144e-08,1.1109388044158e-06,3.4424801700457e-07,-0.0010978282740456,0.0010985599977798,-0.001283141699094,0.0012836597092967,-0.001283032816301,0.0012837927753144,-0.0012831920715716,0.0012835715206707,-0.0012837284092154,0.0012833585431289,-0.001108099243769,0.0011105952891633,-0.0011098203798766,0.001110205767794,-0.0011090907641671,0.0011105203612653,-0.001110537200825,0.0011094333312481,3.9366807630749e-06,-5.1200779789535e-06,-0.0010987661677679,0.0010975980252863,-1.2232874929967e-06,-4.9268525237328e-07,-0.0012823912117452,0.0012844162434335,-0.0012821582191248,0.0012845799095623,-0.0012852866508664,0.0012814078676618,-0.0012853146551575,0.0012811581957971,-0.001114403272368,0.0011040534586166,-0.0011059529929315,0.0011147389331597,0.69329668186793,134640,3014,0.0045654558782375,0.0045656871543943,0.0045656372769829,38.100583821452,0.00022000467057161,0.00022000467057161,0.00022000467057161,3166982.2776032,0.013791595565478
11419200,0.98267525558443,0.015237651399906,0.0050791188337531,0.0050793388843091,0.005079193681844,-0.0010962529935101,0.0010989121103074,-2.7108543813215e-06,6.3618141048102e-06,1.0638194569702e-06,1.8022229202578e-06,-0.001292650829039,0.0012916503050767,-0.0012896495823394,0.001293933968067,-0.0012927011695522,0.001291719508559,-0.0012893031649197,0.0012952457182456,-0.0011131860498668,0.0011073658335128,-0.0011031711290742,0.0011171498633132,7.2165488991336e-07,-1.8534224940783e-08,1.1512147629396e-06,2.9387919723844e-07,-0.0010972760743481,0.0010979994444053,-0.0012918075215258,0.0012923726969644,-0.0012917234950789,0.0012924765900253,-0.0012918842143857,0.0012922557775684,-0.0012924479333267,0.001292006408006,-0.0011087433344083,0.0011112935637478,-0.0011105565456704,0.0011108051783572,-0.0011097245277683,0.0011112199682668,-0.001111271088423,0.0011100242691526,3.9254162926109e-06,-5.0941468331784e-06,-0.00109820728042,0.0010970483380139,-1.2633498418026e-06,-4.4298986352437e-07,-0.0012910938297579,0.0012930800921824,-0.0012908316539938,0.0012932773505044,-0.0012939751648955,0.0012900877863468,-0.0012939776016334,0.0012898723173994,-0.0011150588434765,0.0011047812842699,-0.001106604644578,0.0011154143805094,0.67906583907604,134640,3014,0.004563190700813,0.0045634198407773,0.0045633785998705,37.62819709918,0.00021622557679344,0.00021622557679344,0.00021622557679344,3066024.1505881,0.013784777070944
12419200,0.98964496782903,0.015334563938646,0.0051114227707446,0.0051116426013489,0.0051114985665522,-0.001093118362069,0.0010957989553063,-2.7146535532734e-06,6.38490995298e-06,1.0239161436832e-06,1.8582423276917e-06,-0.001294168740404,0.0012931634034645,-0.001291172578027,0.0012954599549297,-0.0012941931354808,0.0012932649389315,-0.0012907973120384,0.0012968035446928,-0.0011108937975782,0.0011050804007304,-0.0011008585679186,0.0011149229127158,7.6316336280315e-07,-7.3811129878384e-08,1.1696900137535e-06,2.7047748158682e-07,-0.0010941554034578,0.0010948729280462,-0.0012933130115621,0.0012939192918553,-0.0012932422285447,0.0012940098542254,-0.0012934225300066,0.0012937763683705,-0.001293990057888,0.00129351705614,-0.0011064798742118,0.0011090207377892,-0.0011083143620796,0.0011084914630706,-0.0011073996199469,0.0011089529836131,-0.0011090678219266,0.0011076773816836,3.9249584630219e-06,-5.1202492543348e-06,-0.0010950899770463,0.0010939171278145,-1.2909329036078e-06,-4.2980210520224e-07,-0.0012926226694069,0.0012946054779117,-0.0012923564664124,0.0012948167586791,-0.0012954908537272,0.001291589013904,-0.0012955068339881,0.001291399463496,-0.0011128181960079,0.0011024873941197,-0.0011043192880361,0.0011131469172439,0.69355173636809,134640,3014,0.004550253014338,0.0045504834200118,0.0045504394113398,36.804267200467,0.00020963413760374,0.00020963413760374,0.00020963413760374,3003513.5744618,0.013745451086711
13419200,0.99353771644563,0.015387362241889,0.0051290220611659,0.005129241828792,0.0051290983519311,-0.0010877570503662,0.0010904440872203,-2.7410219286302e-06,6.4192386594469e-06,9.5161855885558e-07,1.9415486633653e-06,-0.0012932824360648,0.0012922008848312,-0.0012902561519766,0.0012945226337122,-0.0012932517699555,0.0012923554503561,-0.0012898303057982,0.0012959082506378,-0.001106110836243,0.0011003237967267,-0.0010960208445116,0.0011101989407029,8.2453266636194e-07,-1.6782177168293e-07,1.1973234953591e-06,2.0783104458147e-07,-0.0010888122256207,0.0010894979139922,-0.0012923603804548,0.001293019235952,-0.001292320261748,0.0012930750606994,-0.0012925221969599,0.0012928188566807,-0.0012931176274725,0.0012925269724615,-0.0011017055474212,0.0011042413119125,-0.0011036115261316,0.0011036218895697,-0.0011025828019478,0.0011042182376014,-0.0011043809684943,0.0011027961207663,3.966635223348e-06,-5.1407699321289e-06,-0.0010897257668555,0.0010885690063556,-1.3237926913468e-06,-3.734360931366e-07,-0.0012916990368037,0.0012936766155328,-0.0012913984883067,0.0012939191408231,-0.0012946021158819,0.0012906503467873,-0.0012945741635309,0.0012904863158003,-0.001108029846146,0.0010977028057516,-0.0010994877192954,0.0011084210001334,0.67550368716364,134640,3014,0.004528050044548,0.0045282762866777,0.0045282444260314,34.794597943989,0.00019355678355191,0.00019355678355191,0.00019355678355191,2932475.839626,0.013677973183334
14419200,0.99578546950279,0.015417457622467,0.0051390537689742,0.0051392734859608,0.0051391303675319,-0.0010815345427734,0.0010842191877102,-2.789217634582e-06,6.4683272879055e-06,9.5672281499799e-07,1.9399127115935e-06,-0.0012884652025861,0.0012873417140002,-0.0012854017510478,0.001289696384549,-0.001288432229686,0.001287492252824,-0.0012849763559573,0.0012910772031897,-0.0011002192677019,0.0010943516634921,-0.0010900494530358,0.0011043121176413,8.2396788226903e-07,-1.6123610963757e-07,1.1735047455685e-06,2.3157675565565e-07,-0.0010825869365952,0.0010832763647104,-0.001287521136632,0.0012881687948226,-0.0012874665243094,0.0012882385559609,-0.001287681697134,0.0012879700470921,-0.0012882635007376,0.0012876906129688,-0.0010957929016121,0.0010982928033456,-0.0010976565320337,0.0010977130849136,-0.0010966527314637,0.0010983082474321,-0.0010984218852434,0.0010968804803842,4.0141396947842e-06,-5.1906447232513e-06,-0.0010835032426866,0.001082344830214,-1.2997712080649e-06,-3.9670251434352e-07,-0.001286832777919,0.0012888542825102,-0.00128654665359,0.0012890823889973,-0.0012897788378559,0.001285802032232,-0.0012897597378669,0.00128562149543,-0.0011021409147806,0.0010917098862099,-0.0010935202115127,0.0011025185098092,0.6654391606915,134640,3014,0.0045022392516132,0.0045024666737672,0.0045024351008584,32.643906339662,0.00017635125071729,0.00017635125071729,0.00017635125071729,2893080.586446,0.013599484772339
15419200,0.99695597311084,0.015434049988699,0.0051445845188012,0.0051448041990874,0.0051446612708108,-0.0010700086263021,0.0010727006141853,-2.8877343035019e-06,6.5659622404953e-06,9.5585909250943e-07,1.958543334904e-06,-0.0012775134276475,0.0012763189242061,-0.0012743823164156,0.0012787442550243,-0.0012774668138545,0.0012764782371589,-0.0012739477420521,0.0012801231216065,-0.0010888507813013,0.001082800787601,-0.0010785001298158,0.0010929460837527,8.3050908780838e-07,-1.7386003166939e-07,1.1859569848725e-06,2.0976817376953e-07,-0.0010710673843725,0.0010717525674324,-0.0012765270661058,0.0012771995171961,-0.0012764872323669,0.001277248650492,-0.0012766995131394,0.0012769853441158,-0.0012772880762142,0.0012767083335758,-0.0010843541127743,0.00108683762991,-0.0010862159275119,0.0010862470806272,-0.0010852029362885,0.0010868306749644,-0.0010869538769976,0.0010853939261626,4.1214879901878e-06,-5.2798139248726e-06,-0.0010719694487753,0.0010708330300739,-1.3015137490689e-06,-3.6496213734814e-07,-0.0012758125046742,0.0012779069889939,-0.0012755125417502,0.0012781510454545,-0.0012788244390422,0.0012747917297114,-0.0012787968353362,0.0012746190252608,-0.0010907717832364,0.0010801737545511,-0.0010819436574096,0.0010911661494264,0.70138893892216,134640,3014,0.0044544456131267,0.0044546754212278,0.0044546391818547,27.069722384384,0.00013175777907507,0.00013175777907507,0.00013175777907507,2837910.6274235,0.013454160861298
16419200,0.99770739992442,0.015444333813429,0.0051480124317951,0.0051482321002592,0.0051480892813745,-0.0010641411587622,0.0010668589015217,-2.94147753705e-06,6.6342532506724e-06,9.1166495963326e-07,2.0244605036507e-06,-0.0012747675828273,0.0012735474657928,-0.0012716085356913,0.0012760058008553,-0.0012746999061785,0.0012737376110981,-0.0012711464672703,0.0012774265221845,-0.0010832845919794,0.0010771401479708,-0.0010727957000724,0.0010874276517063,8.9325359051689e-07,-2.200196106377e-07,1.2470208789714e-06,1.7511881948387e-07,-0.0010652061319824,0.0010659090500228,-0.0012737473925602,0.0012744933551802,-0.001273734285977,0.0012745096562571,-0.0012739487873316,0.0012742386242875,-0.0012745528904332,0.001273943476491,-0.0010787075204072,0.0010812569212594,-0.0010806387446246,0.0010805963175692,-0.0010795381949033,0.001081242482348,-0.0010814197295276,0.0010797196382166,4.183122265313e-06,-5.3406902223141e-06,-0.0010661109633479,0.0010649783043723,-1.3472790541593e-06,-3.1484917076115e-07,-0.0012730487702109,0.001275166390026,-0.0012727230688634,0.0012754428541688,-0.0012760770480261,0.0012720015226304,-0.0012760508733772,0.0012718624049959,-0.0010852379414172,0.0010745237353684,-0.0010762434501984,0.0010856435770445,0.67697638701451,134640,3014,0.0044301768869508,0.0044304158617498,0.0044303620661908,24.418335340444,0.00011054668272355,0.00011054668272355,0.00011054668272355,2772423.5066758,0.01338042732719
17419200,0.99821203176585,0.015451436777259,0.0051503800665051,0.0051505997392767,0.0051504569714774,-0.0010576217867297,0.0010603438384075,-2.977578169752e-06,6.6803814396391e-06,9.2278905817639e-07,2.02602993559e-06,-0.0012680557414061,0.0012667908874949,-0.0012648640075452,0.0012692816084649,-0.0012679780652133,0.0012669814493879,-0.0012643844091884,0.0012706976684585,-0.0010769417684876,0.0010707353205527,-0.0010663746550687,0.0010810918733707,8.7358297624827e-07,-2.3063529236134e-07,1.2414046403034e-06,1.4505174962634e-07,-0.0010587013546031,0.0010593787842701,-0.0012670063601964,0.0012677461455799,-0.0012670036940235,0.001267754624626,-0.0012672111897541,0.0012675024712385,-0.0012678466905214,0.0012671883812686,-0.0010723343902151,0.0010748959056403,-0.0010743147109025,0.0010741857252194,-0.0010731844452473,0.0010748607227612,-0.0010750416539858,0.0010733180969167,4.2328100867495e-06,-5.374240491263e-06,-0.0010595873532055,0.0010584684683346,-1.3503650327415e-06,-2.9692525828385e-07,-0.0012662998463517,0.0012684393282213,-0.0012659564090466,0.0012687274679221,-0.0012693833321644,0.0012652580062053,-0.0012693136373612,0.0012651205028219,-0.001078862261074,0.0010681083493264,-0.0010698135589585,0.0010793063618996,0.69394003775065,134640,3014,0.0044031381348171,0.0044033758677934,0.0044033253872893,21.980202071733,9.1041616573867e-05,9.1041616573867e-05,9.1041616573867e-05,2750023.3769206,0.013298210371229
18419200,0.99852553412566,0.015455778589438,0.0051518273246864,0.0051520469992586,0.0051519042654935,-0.0010485513115351,0.0010512445122356,-3.1035290042532e-06,6.7812686175582e-06,8.7842034918975e-07,2.0326813398968e-06,-0.0012604226058583,0.0012590461553911,-0.0012571537364375,0.0012616105385819,-0.0012603362557901,0.0012592499164478,-0.0012566678989652,0.0012630454793946,-0.0010680033023998,0.0010615677730587,-0.001057211370208,0.0010721478627744,8.9641877527329e-07,-2.6017614010572e-07,1.2074673971013e-06,1.764351324374e-07,-0.0010496169322473,0.0010502866461222,-0.0012593251145431,0.0012600402330622,-0.001259297223815,0.0012600813127836,-0.0012595408651979,0.0012597857262381,-0.0012601505517027,0.0012594779543792,-0.0010632998676498,0.0010658017799565,-0.0010652357951677,0.0010651311663558,-0.0010640862549898,0.0010658538960997,-0.0010660184393501,0.0010642431762802,4.3288786723349e-06,-5.5032915449962e-06,-0.0010505229398064,0.0010493696310364,-1.3386960020299e-06,-3.4728887961759e-07,-0.0012585776838286,0.00126078427353,-0.001258263258514,0.0012610441231473,-0.0012617314935774,0.001257522516996,-0.0012616894224292,0.0012573729945463,-0.001069944035804,0.0010589272531747,-0.0010606861166602,0.001070337857069,0.68267067285736,134640,3014,0.0043654574915801,0.0043656811751167,0.0043656583505421,17.477991042124,5.502392833699e-05,5.502392833699e-05,5.502392833699e-05,2693423.5856735,0.013183691621149
19419200,0.998785120699,0.015459595424608,0.0051530995947093,0.0051533192611856,0.0051531765687126,-0.0010466200287286,0.0010492956038557,-3.1260997771435e-06,6.794289669118e-06,9.3481005346144e-07,1.9533845333935e-06,-0.001258950746184,0.0012575861658599,-0.0012556689180729,0.0012601640356015,-0.0012589058672582,0.0012577467433204,-0.0012552295583532,0.0012615523708189,-0.001066361263538,0.0010598476473773,-0.0010555425842678,0.0010704557423264,8.440972200613e-07,-1.7650923456444e-07,1.1654875378772e-06,2.4041538676337e-07,-0.0010476654511661,0.0010483591164979,-0.001257880931473,0.0012585391386455,-0.0012578200630566,0.0012586131227093,-0.0012580538307205,0.0012583295493198,-0.0012586267194651,0.0012580538149029,-0.0010616245176821,0.0010640984366584,-0.001063465524941,0.0010635296975965,-0.0010624471485771,0.0010641488120037,-0.001064249747378,0.0010626850067353,4.3392886286831e-06,-5.5284444871385e-06,-0.0010485914145977,0.0010474209906327,-1.2966389465165e-06,-4.1028998321872e-07,-0.0012570901420573,0.0012593257556765,-0.0012568115018946,0.0012595508928773,-0.0012602579840673,0.0012560543643107,-0.001260248847266,0.0012558725777017,-0.0010682944178468,0.0010571973911376,-0.001059018797207,0.0010686484906946,0.72158242891895,134640,3014,0.004357410202218,0.0043576363255144,0.0043576111065748,17.551568034682,5.5612544277458e-05,5.5612544277458e-05,5.5612544277458e-05,2680406.055058,0.013159230141585
20419200,0.99901103312575,0.015462953545665,0.0051542189620606,0.0051544386207422,0.0051542959628621,-0.001047281432878,0.0010499559867834,-3.1505576166547e-06,6.8152048740466e-06,9.0570439415167e-07,1.9810591447692e-06,-0.0012625117412616,0.0012611150349126,-0.0012592169054281,0.0012637065616438,-0.0012624505290818,0.0012612927812369,-0.0012587576362753,0.0012651155947713,-0.0010673048482565,0.001060754662287,-0.0010564335035039,0.0010714123798517,8.7079349877879e-07,-2.0642089625521e-07,1.1843305841179e-06,2.2090190333325e-07,-0.0010483273523016,0.0010490186261151,-0.0012614150502914,0.0012620980294183,-0.0012613641013545,0.00126216113211,-0.0012616044137279,0.0012618709871439,-0.0012621898308073,0.0012615806037781,-0.0010625384431241,0.0010650360192956,-0.0010644200241113,0.0010644254668483,-0.00106334848124,0.0010650939630617,-0.0010652169465565,0.0010635704508036,4.3595678310288e-06,-5.553508556543e-06,-0.0010492549200939,0.001048080019395,-1.3182549470999e-06,-3.9311317313605e-07,-0.0012606358675024,0.0012628702588868,-0.0012603450040507,0.0012631083421197,-0.0012638180895307,0.0012595839024307,-0.001263797472601,0.0012594152223253,-0.0010692455330163,0.0010581098707452,-0.001059915721488,0.0010696037067729,0.7291048052798,134640,3014,0.0043601689443053,0.004360394292426,0.0043603713904144,18.597312401887,6.3978499215098e-05,6.3978499215098e-05,6.3978499215098e-05,2648185.252997,0.013167665974711
21419200,0.99916472553497,0.015465176470362,0.0051549599326598,0.0051551795864025,0.0051550369513001,-0.0010396637180672,0.0010423497483639,-3.1865079812044e-06,6.8574651522888e-06,9.0334714533293e-07,1.9986944122332e-06,-0.0012556458321784,0.0012542279279245,-0.0012523277396595,0.0012568453936915,-0.0012555772953545,0.0012544090481975,-0.0012518536605083,0.0012582599606142,-0.0010598948247912,0.0010532758517655,-0.0010489401410489,0.0010640107524068,8.8560842769581e-07,-2.1132637087347e-07,1.1896386787979e-06,2.2500403816339e-07,-0.0010407101818027,0.0010414127894681,-0.0012545328664662,0.001255234661959,-0.0012544795254791,0.0012553002463465,-0.0012547284170343,0.001255004792924,-0.0012553189127279,0.0012547177430302,-0.0010551054127226,0.0010575980007385,-0.0010569750571492,0.0010569783883748,-0.0010558769230247,0.00105765463896,-0.0010577609425086,0.0010560977080876,4.4059140054779e-06,-5.5853276466331e-06,-0.001041633097603,0.0010404756005877,-1.3073465605221e-06,-3.8095883937861e-07,-0.0012537420771679,0.0012560214179381,-0.0012534520870138,0.0012562597477583,-0.0012569514277061,0.0012527051469441,-0.001256931577012,0.0012525366960338,-0.0010618248464508,0.0010506306436364,-0.0010524131956548,0.0010621955181295,0.70951084545049,134640,3014,0.0043285936778558,0.0043288210106018,0.0043287913813769,15.225615175098,3.7004921400783e-05,3.7004921400783e-05,3.7004921400783e-05,2605938.7066259,0.013071696994783
22419200,0.99929195327087,0.015467036736193,0.0051555800173451,0.0051557996684559,0.0051556570503921,-0.0010370556596637,0.0010397275654353,-3.1986179242671e-06,6.8596246374443e-06,9.1724822666654e-07,1.9698293905169e-06,-0.0012530220987478,0.0012515974825332,-0.0012496963776566,0.0012542210393415,-0.0012529667822371,0.0012517675449052,-0.0012492432210126,0.0012556205649121,-0.0010575201272758,0.0010508701747532,-0.0010465624530804,0.001061617316484,8.6032262272565e-07,-1.9425291242672e-07,1.1673388888293e-06,2.3579109902331e-07,-0.0010380995732034,0.0010387919885336,-0.0012519178496936,0.0012525874341482,-0.0012518576575857,0.0012526599633912,-0.0012521013901255,0.0012523678972392,-0.0012526760765303,0.0012520877591269,-0.0010527242620748,0.0010551916327614,-0.0010545677163494,0.0010546091846563,-0.0010535206273208,0.0010552558414581,-0.0010553555097018,0.0010537485772582,4.4049491626007e-06,-5.6006356550306e-06,-0.0010390283621697,0.0010378524657824,-1.3018204515055e-06,-4.0861656760832e-07,-0.0012511132366792,0.0012533866880259,-0.0012508328645256,0.0012536152642804,-0.0012543275269982,0.0012500702825007,-0.0012543179417455,0.0012498923080543,-0.0010594617020356,0.0010482237481844,-0.0010500406406354,0.0010598041990901,0.71604798166904,134640,3014,0.0043177427926271,0.0043179676879485,0.0043179454217994,14.858990590166,3.4071924721331e-05,3.4071924721331e-05,3.4071924721331e-05,2595988.9731676,0.013038707708255
23419200,0.99940493325177,0.015468660394549,0.0051561212336467,0.0051563408812345,0.0051561982796681,-0.0010369862952248,0.0010396540690081,-3.2088777926912e-06,6.8635585064452e-06,9.0744812687603e-07,1.9729387948016e-06,-0.001254156534854,0.0012527242214073,-0.0012508287966368,0.0012553523006551,-0.0012540995540697,0.0012528985889999,-0.0012503723820109,0.0012567572062405,-0.0010577015687859,0.0010510287894757,-0.0010467251854904,0.0010617958098938,8.6760435316137e-07,-1.9994274012442e-07,1.1716741079616e-06,2.3586909602016e-07,-0.0010380271330607,0.0010387214731404,-0.0012530483635426,0.0012537223532629,-0.0012529882700427,0.001253794407917,-0.0012532347777438,0.0012534992681804,-0.001253808731121,0.001253216670699,-0.0010528889260967,0.0010553632158534,-0.0010547393355315,0.0010547778483637,-0.0010536823940743,0.0010554307878286,-0.0010555423069041,0.0010539140427222,4.4095444985837e-06,-5.6102493948066e-06,-0.0010389596101587,0.0010377788066292,-1.3073349787978e-06,-4.0990860339226e-07,-0.0012522447649532,0.0012545184822153,-0.0012519642378933,0.0012547479364645,-0.001255459924316,0.0012511956346922,-0.0012554526410877,0.001251020676218,-0.0010596495553747,0.0010483905970315,-0.0010502059334832,0.0010599830284211,0.70404422381172,134640,3014,0.0043174530539386,0.0043176777548918,0.0043176566134687,15.705719495658,4.0845755965262e-05,4.0845755965262e-05,4.0845755965262e-05,2581894.8258957,0.013037842055743
24419200,0.9995115855997,0.015470220007749,0.0051566411017991,0.0051568607460549,0.0051567181598951,-0.0010389235777816,0.0010415903237118,-3.1900865403418e-06,6.8457291211266e-06,9.1479337180956e-07,1.9654864031162e-06,-0.0012566322700447,0.0012552131566759,-0.0012533162207064,0.001257830082248,-0.00125657875948,0.001255383764031,-0.0012528642559337,0.0012592293246233,-0.001059931154206,0.0010532922967904,-0.0010489929697418,0.0010640221016762,8.6074672303683e-07,-1.9195286808489e-07,1.1647070563058e-06,2.4208839502096e-07,-0.0010399639626647,0.0010406586078124,-0.0012555324488037,0.0012561993391914,-0.0012554693065016,0.0012562743172532,-0.0012557155554607,0.0012559806057887,-0.0012562843325001,0.001255701171294,-0.0010551408892769,0.0010576072861414,-0.0010569790490019,0.001057035305304,-0.0010559392840356,0.001057677461382,-0.0010577792019192,0.0010561761708086,4.3898196039354e-06,-5.5933046229473e-06,-0.0010408981314158,0.0010397140916256,-1.3029255206365e-06,-4.1878668396782e-07,-0.0012547311295518,0.0012569926250369,-0.0012544540139411,0.0012572186143982,-0.0012579357359828,0.0012536842155343,-0.0012579310120783,0.0012535048450911,-0.0010618816768139,0.0010506519277713,-0.0010524763987412,0.0010622098605556,0.71549404745136,134640,3014,0.0043254902088307,0.0043257157944719,0.0043256943252289,17.881578696138,5.8252629569106e-05,5.8252629569106e-05,5.8252629569106e-05,2585118.5571254,0.013062267457644
25419200,0.99960882129526,0.015471714372164,0.0051571392207164,0.0051573588617564,0.0051572162896914,-0.0010410406163028,0.0010437038112799,-3.1931990847292e-06,6.8443807161513e-06,9.0853385517371e-07,1.9669137644881e-06,-0.0012602749384391,0.0012588501936974,-0.0012569579256738,0.001261467653972,-0.0012602190086343,0.0012590221337732,-0.0012565033467668,0.0012628683849506,-0.0010623302922917,0.0010556893580243,-0.0010513895386811,0.0010664190854808,8.6546972443005e-07,-1.9499688158071e-07,1.1717532014522e-06,2.3704731913535e-07,-0.0010420780617796,0.0010427744680287,-0.0012591690702898,0.0012598429365346,-0.0012591088004924,0.0012599142029686,-0.0012593541301778,0.0012596219206168,-0.0012599268479063,0.0012593389196453,-0.0010575314702064,0.0010600094300578,-0.0010593801497323,0.0010594248559428,-0.0010583305965882,0.0010600743207235,-0.0010601813529988,0.0010585669991762,4.3918952604298e-06,-5.5929971018738e-06,-0.0010430124247435,0.0010418306558746,-1.3072977880692e-06,-4.1089539004065e-07,-0.0012583717255291,0.0012606320578701,-0.0012580914032402,0.0012608621696477,-0.001261577406343,0.0012573228903223,-0.0012615692765004,0.0012571478852145,-0.0010642757348259,0.0010530521316599,-0.0010548686440791,0.001064610241791,0.75065157214669,134640,3014,0.0043342744354713,0.0043344988489967,0.0043344792362058,19.926561128835,7.4612489030681e-05,7.4612489030681e-05,7.4612489030681e-05,2576714.4893865,0.013088985334168
26419200,0.99968854685481,0.015472966950715,0.0051575567448985,0.0051577763831428,0.0051576338226741,-0.0010405948260296,0.0010432578390015,-3.2188611714552e-06,6.8659112150789e-06,8.8987075628161e-07,1.9835373767426e-06,-0.0012619448874313,0.0012604989402578,-0.0012586143216014,0.0012631318234057,-0.0012618811750282,0.0012606814232789,-0.0012581519267358,0.0012645454002595,-0.0010621542321063,0.0010554691063455,-0.0010511632744624,0.0010662488526929,8.8236393521665e-07,-2.1323673441902e-07,1.1746888357923e-06,2.3702795233302e-07,-0.0010416319975409,0.001042328673245,-0.0012608282597933,0.0012615105834416,-0.0012607668024872,0.0012615821834356,-0.0012610226412141,0.0012612786151826,-0.0012615915501663,0.0012609958158979,-0.0010573354504305,0.0010598080682694,-0.0010591802792327,0.0010592190669069,-0.0010581111721715,0.0010598865599683,-0.0010600071322497,0.0010583470389923,4.4121132096649e-06,-5.6196926529541e-06,-0.001042569839438,0.0010413816039925,-1.3116382516994e-06,-4.1141690665585e-07,-0.0012600286148345,0.0012623001913139,-0.0012597511611861,0.0012625300242012,-0.0012632433548165,0.0012589708495671,-0.0012632433574041,0.0012587995776613,-0.0010641116383957,0.0010528327300591,-0.0010546489335242,0.0010644327532438,0.76692112542218,134640,3014,0.0043324378898508,0.0043326621065851,0.0043326429465907,20.393280605255,7.8346244842042e-05,7.8346244842042e-05,7.8346244842042e-05,2548953.9513029,0.013083439124125
27419200,0.99975806937445,0.01547401710669,0.0051579067950873,0.00515812643119,0.0051579838804123,-0.0010418092150244,0.0010444313005153,-3.2386069895266e-06,6.8483380334806e-06,1.0235064714482e-06,1.8074411538672e-06,-0.0012646778366704,0.0012632837011049,-0.001261343488975,0.0012659175761454,-0.0012647078580767,0.0012633634680374,-0.0012609750329054,0.0012672263610888,-0.0010638601483251,0.0010570430012185,-0.0010528737087038,0.0010678176000376,7.5126769915203e-07,-3.4677235444584e-08,1.0713832874168e-06,3.732780088595e-07,-0.0010428059433541,0.0010435422531373,-0.001263647519941,0.0012641940641948,-0.0012635113923333,0.0012643442260844,-0.001263745982003,0.0012640644101935,-0.001264242984223,0.0012638605867402,-0.0010590286012836,0.0010613985531991,-0.001060641859737,0.0010610439632953,-0.0010598433015176,0.0010614406416252,-0.0010614181753604,0.0010602048844348,4.3984279972206e-06,-5.6356308334635e-06,-0.0010437783344942,0.0010425611562799,-1.2091471831053e-06,-5.458209814992e-07,-0.00126275893075,0.0012650785968575,-0.0012625566171985,0.0012652324250574,-0.0012659826285582,0.0012617533087708,-0.0012660525265842,0.0012615018706966,-0.0010657945344242,0.0010544113551734,-0.0010563410687209,0.0010660154146704,0.73788855829592,134640,3014,0.00433740037687,0.0043376239243765,0.0043376058430415,22.249487793028,9.3195902344224e-05,9.3195902344224e-05,9.3195902344224e-05,2536434.6897179,0.013098534933864
28419200,0.99981521470421,0.015474926045591,0.0051582097733183,0.00515842940745,0.0051582868648225,-0.001042098880849,0.0010447179994901,-3.2320864979789e-06,6.838771899394e-06,1.0291581853202e-06,1.8034790913978e-06,-0.0012647225679113,0.0012633296837531,-0.0012613946892601,0.001265960670819,-0.0012647542192871,0.0012634090412894,-0.0012610262608305,0.0012672668068027,-0.0010644108203483,0.0010575979029765,-0.0010534407507009,0.0010683611245516,7.4691107636776e-07,-3.0011424877615e-08,1.064432512552e-06,3.7868772106678e-07,-0.0010430942583461,0.0010438291809031,-0.0012636950983157,0.0012642357204784,-0.0012635565895945,0.0012643890059985,-0.0012637918373015,0.001264108365436,-0.0012642873057209,0.0012639057658765,-0.0010595918965617,0.0010619513387657,-0.0010611976761384,0.0010616068183426,-0.0010604058492707,0.001061998434361,-0.0010619662808768,0.0010607628350425,4.3949751368128e-06,-5.6230066316586e-06,-0.0010440626296025,0.0010428546432416,-1.1991592291847e-06,-5.4873185466862e-07,-0.0012628016325339,0.001265127273533,-0.0012626006491853,0.0012652782787854,-0.001266022136435,0.0012618090214375,-0.0012660916720792,0.0012615542598449,-0.0010663438597665,0.0010549806816659,-0.0010569022730694,0.0010665649180812,0.77520834807164,134640,3014,0.0043385931495792,0.004338814370124,0.0043388015715348,23.439579026493,0.00010271663221195,0.00010271663221195,0.00010271663221195,2542285.5403517,0.013102141378547
