time,ASR_ext,ASR_strain,ASR_strain_xx,ASR_strain_yy,ASR_strain_zz,disp_x_101,disp_x_102,disp_x_103,disp_x_104,disp_x_105,disp_x_106,disp_x_p1_neg,disp_x_p1_pos,disp_x_p2_neg,disp_x_p2_pos,disp_x_p3_neg,disp_x_p3_pos,disp_x_p4_neg,disp_x_p4_pos,disp_x_p5_neg,disp_x_p5_pos,disp_x_p6_neg,disp_x_p6_pos,disp_y_101,disp_y_102,disp_y_103,disp_y_104,disp_y_105,disp_y_106,disp_y_p1_neg,disp_y_p1_pos,disp_y_p2_neg,disp_y_p2_pos,disp_y_p3_neg,disp_y_p3_pos,disp_y_p4_neg,disp_y_p4_pos,disp_y_p5_neg,disp_y_p5_pos,disp_y_p6_neg,disp_y_p6_pos,disp_y_p7_neg,disp_y_p7_pos,disp_y_p8_neg,disp_y_p8_pos,disp_z_101,disp_z_102,disp_z_103,disp_z_104,disp_z_105,disp_z_106,disp_z_p1_neg,disp_z_p1_pos,disp_z_p2_neg,disp_z_p2_pos,disp_z_p3_neg,disp_z_p3_pos,disp_z_p4_neg,disp_z_p4_pos,disp_z_p5_neg,disp_z_p5_pos,disp_z_p6_neg,disp_z_p6_pos,humidity,humidity_bc,ndof,nelem,strain_xx,strain_yy,strain_zz,temp,temp_bc,thermal_strain_xx,thermal_strain_yy,thermal_strain_zz,vonmises,vstrain
2419200,0,0,0,0,0,0,0,0,0,0,0,0,0,0,0,0,0,0,0,0,0,0,0,0,0,0,0,0,0,0,0,0,0,0,0,0,0,0,0,0,0,0,0,0,0,0,0,0,0,0,0,0,0,0,0,0,0,0,0,0,0,0,0,0,0,0,0,0,0,0,0,0,0,0,0,0,0
2505600,0.0094344996559514,0.0001674617271599,5.5820575719967e-05,5.5820575719967e-05,5.5820575719967e-05,-5.0433235702102e-05,5.0433235044683e-05,1.1818486704263e-11,-1.2585993320882e-11,-5.1327608539292e-13,-7.8444313138903e-14,-4.9550811946262e-05,4.9550818249482e-05,-4.9550819163485e-05,4.9550810864786e-05,-4.9550814814731e-05,4.9550821708818e-05,-4.9550822263123e-05,4.9550814147346e-05,-5.1076107703813e-05,5.1076134024329e-05,-5.107613458346e-05,5.1076107197144e-05,-6.6973275786294e-12,-7.1192170054544e-12,-3.6053246502479e-12,-3.5488940285764e-12,-5.0433239294594e-05,5.0433232032437e-05,-4.9550817991129e-05,4.9550815632776e-05,-4.95508183451e-05,4.955081540053e-05,-4.9550818523029e-05,4.9550814966247e-05,-4.9550818000619e-05,4.955081506077e-05,-5.1076124652357e-05,5.1076114028876e-05,-5.1076117562169e-05,5.1076107137936e-05,-5.1076127446679e-05,5.1076106498536e-05,-5.1076125704769e-05,5.1076104846855e-05,-1.2540343618022e-11,1.2325515443743e-11,-5.0433235386474e-05,5.043323536683e-05,-1.4156001367405e-13,3.5921305202313e-14,-4.9550821366408e-05,4.9550811278454e-05,-4.9550821964441e-05,4.9550812043528e-05,-4.9550811400206e-05,4.9550821260723e-05,-4.9550812029637e-05,4.9550822128659e-05,-5.1076098785251e-05,5.1076125438597e-05,-5.1076125545476e-05,5.1076098863388e-05,0.80608370594321,0.89000107803834,1368840,32768,0.00021011633376553,0.00021011633497412,0.00021011633377911,29.887420312111,31.134358786655,0.00015429936249689,0.00015429936249689,0.00015429936249689,279165.89621765,0.00063054799348105
2592000,0.020799358864812,0.00036892843064027,0.00012297614348981,0.00012297614366526,0.0001229761434852,-6.9997212733411e-05,6.9997212998593e-05,1.2893062058709e-11,-1.2596676985312e-11,-1.5607237915477e-13,4.9380030996008e-13,-6.9443793315999e-05,6.9443801531118e-05,-6.9443801484022e-05,6.9443793261438e-05,-6.9443793372564e-05,6.944380193072e-05,-6.944380167199e-05,6.9443793779645e-05,-7.0467337749818e-05,7.0467364029935e-05,-7.0467363746849e-05,7.0467338634493e-05,-1.7550523724062e-12,-2.3764230020924e-12,-8.8194758651839e-13,-1.0277699506791e-12,-6.9997213962239e-05,6.9997211903059e-05,-6.944379763096e-05,6.944379748476e-05,-6.9443797721387e-05,6.9443797310916e-05,-6.9443797823103e-05,6.9443797280366e-05,-6.944379798986e-05,6.9443797266832e-05,-7.0467352572251e-05,7.0467348884373e-05,-7.0467350063123e-05,7.0467346350665e-05,-7.0467352803655e-05,7.0467346443694e-05,-7.0467352785215e-05,7.0467345229663e-05,-1.2775884433441e-11,1.2715055883624e-11,-6.9997212859685e-05,6.9997212928608e-05,-4.1258996918907e-14,1.3571536317999e-13,-6.9443802024923e-05,6.9443793333952e-05,-6.9443801809577e-05,6.9443793231017e-05,-6.9443793422103e-05,6.9443802169809e-05,-6.9443793066867e-05,6.9443801929947e-05,-7.0467335176675e-05,7.0467360790285e-05,-7.0467360954805e-05,7.0467335242298e-05,0.80782119423635,0.89156329086413,1368840,32768,0.00029161248778018,0.0002916124880578,0.00029161248789742,31.683586749692,31.842440124136,0.00016866869399753,0.00016866869399753,0.00016866869399753,149480.9705941,0.0008752203820078
2678400,0.033285762701045,0.00059092764408894,0.00019697588130065,0.00019697588149461,0.00019697588129369,-8.9312681291049e-05,8.9312681482127e-05,1.3321415821141e-11,-1.3151312504813e-11,-2.1291642753458e-13,4.843733295655e-13,-8.8728155029231e-05,8.8728163491397e-05,-8.8728163519372e-05,8.8728154967135e-05,-8.872815492723e-05,8.8728163824057e-05,-8.8728163607717e-05,8.8728155355262e-05,-8.9866628144919e-05,8.9866655091458e-05,-8.9866654882757e-05,8.9866628678018e-05,-1.3241105511698e-12,-1.9895502169301e-12,-8.35565132147e-13,-9.9603993011973e-13,-8.9312682403316e-05,8.9312680451947e-05,-8.8728159527736e-05,8.8728159266198e-05,-8.8728159600137e-05,8.8728158986716e-05,-8.8728159789164e-05,8.8728158865579e-05,-8.8728159839236e-05,8.8728158901451e-05,-8.9866642854343e-05,8.9866639670459e-05,-8.9866641272228e-05,8.9866637828836e-05,-8.9866643076185e-05,8.9866638145236e-05,-8.9866643313187e-05,8.9866637162413e-05,-1.3243028600008e-11,1.3250976544704e-11,-8.9312681349104e-05,8.9312681419023e-05,-5.3427044311058e-14,1.3789505945941e-13,-8.8728163937361e-05,8.8728154999519e-05,-8.8728163740355e-05,8.8728154944503e-05,-8.8728155052659e-05,8.8728164020587e-05,-8.8728154735788e-05,8.8728163817558e-05,-8.9866626179515e-05,8.9866652778961e-05,-8.9866652841921e-05,8.9866626288385e-05,0.80925328530348,0.89127806232601,1368840,32768,0.0003720668932638,0.00037206689343475,0.00037206689325328,32.491621592125,32.550521461607,0.000175132972737,0.000175132972737,0.000175132972737,148335.65779504,0.0011168240403914
2764800,0.046404009154351,0.00082450108251829,0.00027483369410863,0.00027483369431259,0.00027483369409708,-0.00010865370466998,0.00010865370479378,1.3526193894355e-11,-1.3436199143633e-11,-2.5306440692373e-13,4.0903009264673e-13,-0.00010800654018698,0.00010800654878806,-0.00010800654886986,0.00010800654007053,-0.00010800654026541,0.00010800654933739,-0.00010800654906699,0.00010800654060514,-0.00010931599652369,0.00010931602395291,-0.00010931602377787,0.00010931599693539,-1.0101280309879e-12,-1.6393470183386e-12,-6.0293815050632e-13,-8.2854828584508e-13,-0.00010865370562407,0.00010865370394692,-0.00010800654488574,0.00010800654456602,-0.0001080065449951,0.00010800654431825,-0.00010800654511391,0.00010800654420712,-0.00010800654514667,0.00010800654416708,-0.00010931601134399,0.0001093160086397,-0.00010931600985609,0.00010931600672945,-0.00010931601139381,0.00010931600726664,-0.00010931601164946,0.00010931600640343,-1.3522090486623e-11,1.3488222352154e-11,-0.00010865370471583,0.00010865370474403,-1.0538232475996e-13,1.4905696111804e-13,-0.00010800654932853,0.00010800654014585,-0.00010800654911624,0.00010800654007643,-0.00010800654019916,0.00010800654931803,-0.0001080065399277,0.00010800654921169,-0.00010931599475855,0.00010931602178953,-0.00010931602183319,0.00010931599479443,0.81051085650667,0.89099283378791,1368840,32768,0.00045262125042332,0.00045262125064663,0.0004526212504152,32.830247488313,32.854492038584,0.0001778419799065,0.0001778419799065,0.0001778419799065,158052.93608986,0.0013587863090921
2851200,0.059662515944543,0.0010608494110686,0.00035361647029016,0.00035361647049673,0.00035361647028167,-0.00012738564124721,0.00012738564134086,1.3504233625888e-11,-1.3434380871974e-11,-2.2723419785712e-13,3.5459618019775e-13,-0.00012667993318577,0.0001266799418287,-0.00012667994192858,0.00012667993306359,-0.00012667993338069,0.00012667994243273,-0.00012667994223578,0.00012667993364606,-0.0001281549543628,0.00012815498174234,-0.00012815498155762,0.00012815495472415,-9.1814245689288e-13,-1.4662827924642e-12,-5.1583551731432e-13,-7.4493744855465e-13,-0.00012738564213969,0.00012738564055633,-0.00012667993798462,0.00012667993756843,-0.00012667993812286,0.00012667993735867,-0.00012667993822715,0.0001266799372603,-0.00012667993822718,0.00012667993719955,-0.00012815496904384,0.00012815496664715,-0.00012815496761312,0.00012815496475226,-0.00012815496909553,0.00012815496535815,-0.00012815496929674,0.00012815496441936,-1.352360399921e-11,1.3501263023623e-11,-0.00012738564127803,0.00012738564130837,-1.0414708308398e-13,1.5278547589094e-13,-0.00012667994240586,0.00012667993315083,-0.00012667994220483,0.00012667993310068,-0.00012667993320611,0.00012667994238082,-0.00012667993296506,0.00012667994230055,-0.00012815495272263,0.00012815497966876,-0.00012815497973283,0.00012815495281545,0.81162294215735,0.89070760524979,1368840,32768,0.00053063260346479,0.00053063260368957,0.00053063260346131,32.734782838501,32.729407863211,0.000177078262708,0.000177078262708,0.000177078262708,167220.22132557,0.0015931658756839
2937600,0.07302092674174,0.0012992318805188,0.00043307729343846,0.00043307729364651,0.00043307729343384,-0.00014622996315535,0.00014622996321644,1.3303194829986e-11,-1.3268954311672e-11,-2.0193257006918e-13,2.9699649313747e-13,-0.00014545385880919,0.00014545386743778,-0.00014545386754572,0.0001454538586812,-0.00014545385914768,0.00014545386804429,-0.00014545386790116,0.00014545385935612,-0.00014711513218497,0.00014711515919291,-0.00014711515903046,0.00014711513244763,-8.3047743463149e-13,-1.2951013877475e-12,-4.2538809292105e-13,-6.384134527896e-13,-0.00014622996396094,0.00014622996251978,-0.00014545386362701,0.00014545386317492,-0.00014545386377279,0.00014545386307587,-0.00014545386385941,0.00014545386299378,-0.00014545386384098,0.00014545386283495,-0.00014711514653979,0.0001471151443791,-0.00014711514513658,0.00014711514254198,-0.00014711514659999,0.00014711514310448,-0.00014711514671908,0.00014711514222502,-1.335985388034e-11,1.3334361085598e-11,-0.00014622996317682,0.00014622996319778,-1.007390695494e-13,1.3919152720615e-13,-0.00014545386802083,0.00014545385887017,-0.00014545386782414,0.00014545385881021,-0.00014545385893054,0.00014545386798772,-0.00014545385869861,0.00014545386790408,-0.00014711513048126,0.00014711515714206,-0.00014711515718004,0.00014711513059145,0.81262245312543,0.89042237671169,1368840,32768,0.00060910585208112,0.00060910585230793,0.00060910585208699,32.612475814239,32.604323687838,0.00017609980651391,0.00017609980651391,0.00017609980651391,180347.30953384,0.0018289885469085
3024000,0.086465709336864,0.0015391086836304,0.00051303622780924,0.0005130362280178,0.00051303622780334,-0.00016519116075057,0.0001651911607848,1.3060624999518e-11,-1.3053807766604e-11,-1.8115690328096e-13,2.4849852618766e-13,-0.00016434948550519,0.00016434949377767,-0.00016434949388383,0.00016434948537705,-0.00016434948588685,0.00016434949461157,-0.00016434949452035,0.00016434948604396,-0.00016618160892566,0.00016618163550942,-0.00016618163543019,0.00016618160915781,-8.278951973406e-13,-1.2238866809549e-12,-3.4331140177822e-13,-5.6012209269867e-13,-0.00016519116147505,0.00016519116017012,-0.0001643494902051,0.00016434948988226,-0.00016434949035367,0.00016434948954539,-0.0001643494904116,0.00016434948949491,-0.00016434949039264,0.00016434948956664,-0.00016618162297747,0.00016618162098971,-0.00016618162158089,0.00016618161919459,-0.0001661816230682,0.0001661816196232,-0.0001661816231839,0.00016618161885272,-1.3156203748771e-11,1.312402395243e-11,-0.00016519116077917,0.00016519116079704,-1.0300776494819e-13,1.4017157814862e-13,-0.00016434949458574,0.00016434948559574,-0.00016434949437287,0.00016434948551992,-0.00016434948565404,0.00016434949454888,-0.00016434948540556,0.0001643494944496,-0.00016618160723787,0.00016618163346456,-0.00016618163352655,0.00016618160731745,0.81259745931507,0.87677430802203,1368840,32768,0.00068805958739121,0.00068805958761981,0.00068805958747624,32.487665366574,32.479239512465,0.00017510132293259,0.00017510132293259,0.00017510132293259,191471.98554335,0.0020663111908269
3110400,0.099986127213051,0.0017799208800679,0.00059330695995326,0.00059330696016314,0.0005933069599515,-0.00018423105730067,0.00018423105731797,1.2977237668268e-11,-1.299593328463e-11,-1.7607331961036e-13,2.217409134673e-13,-0.00018333821407082,0.00018333822243004,-0.0001833382225256,0.0001833382139337,-0.00018333821434959,0.00018333822293369,-0.00018333822286805,0.00018333821447416,-0.00018530028630372,0.00018530031274991,-0.00018530031273196,0.0001853002864416,-8.4634811523427e-13,-1.2107719088081e-12,-3.509704472114e-13,-5.6165409920575e-13,-0.00018423105799209,0.00018423105673653,-0.00018333821857799,0.00018333821843303,-0.00018333821870731,0.00018333821823673,-0.00018333821874714,0.00018333821818999,-0.00018333821875588,0.00018333821813918,-0.00018530030033116,0.00018530029829872,-0.00018530029889886,0.00018530029649183,-0.00018530030036694,0.00018530029687039,-0.00018530030059107,0.00018530029613108,-1.3106915680958e-11,1.3063963022544e-11,-0.00018423105732824,0.00018423105733284,-1.0566694841785e-13,1.3119670526601e-13,-0.00018333822296856,0.00018333821413375,-0.00018333822273569,0.00018333821400868,-0.00018333821417908,0.00018333822294426,-0.00018333821392155,0.00018333822279884,-0.00018530028460029,0.00018530031072857,-0.00018530031078815,0.00018530028465067,0.81127983086046,0.84958561210054,1368840,32768,0.00076733475202543,0.00076733475225438,0.00076733475211379,32.362604727898,32.354155337091,0.00017410083782318,0.00017410083782318,0.00017410083782318,197421.53205691,0.0023046565568275
3196800,0.11357172479653,0.0020214335783529,0.00067381119271347,0.00067381119292687,0.0006738111927126,-0.00020333056925909,0.00020333056927697,1.2849466067926e-11,-1.2861637806382e-11,-1.56664390481e-13,2.0253783834336e-13,-0.00020240086828236,0.00020240087656374,-0.00020240087666775,0.00020240086817561,-0.00020240086854088,0.000202400877117,-0.00020240087707488,0.00020240086867977,-0.00020445280996801,0.00020445283623398,-0.0002044528361948,0.00020445281017302,-8.3245108389669e-13,-1.15805267008e-12,-3.2638499975053e-13,-5.3020646432117e-13,-0.00020333056992942,0.00020333056871894,-0.00020240087274825,0.00020240087261785,-0.00020240087289768,0.00020240087243403,-0.00020240087294449,0.00020240087239543,-0.0002024008729275,0.00020240087233463,-0.00020445282390691,0.00020445282200475,-0.00020445282254061,0.0002044528201454,-0.00020445282394151,0.00020445282053299,-0.000204452824131,0.00020445281973324,-1.2980282637746e-11,1.2943867536967e-11,-0.00020333056928342,0.00020333056929482,-1.0010386836612e-13,1.2974313202461e-13,-0.00020240087709799,0.00020240086837326,-0.00020240087688462,0.00020240086826452,-0.00020240086843157,0.00020240087705404,-0.00020240086815447,0.00020240087695036,-0.00020445280830101,0.00020445283422709,-0.00020445283434068,0.00020445280838978,0.80976522365539,0.82666567875123,1368840,32768,0.0008468518232339,0.00084685182346766,0.00084685182332169,32.237518807348,32.229071161718,0.00017310015045878,0.00017310015045878,0.00017310015045878,198452.85669606,0.0025437861663602
3283200,0.12721189147358,0.0022625159015475,0.0007541719671107,0.00075417196732605,0.00075417196711071,-0.00022239720332831,0.00022239720333953,1.2814246029903e-11,-1.2838039880223e-11,-1.5054011433814e-13,1.8452943260544e-13,-0.00022147028297884,0.00022147029127849,-0.00022147029135732,0.00022147028289077,-0.00022147028324375,0.00022147029173061,-0.00022147029163327,0.00022147028331817,-0.00022350393599078,0.00022350396209108,-0.00022350396201674,0.00022350393611161,-8.4700885975486e-13,-1.1482669727028e-12,-3.559865072095e-13,-5.4790840883303e-13,-0.00022239720400813,0.00022239720277515,-0.0002214702873905,0.00022147028731042,-0.00022147028754245,0.00022147028714775,-0.00022147028762676,0.00022147028714518,-0.00022147028755001,0.00022147028702583,-0.00022350394980843,0.00022350394788341,-0.00022350394842582,0.00022350394607316,-0.00022350394995045,0.0002235039464042,-0.00022350395005433,0.00022350394566903,-1.2968272570822e-11,1.2911206586207e-11,-0.00022239720335439,0.00022239720335083,-1.0165635035063e-13,1.1612068788681e-13,-0.00022147029173715,0.00022147028306683,-0.00022147029161024,0.00022147028302681,-0.00022147028318997,0.00022147029171889,-0.00022147028295401,0.00022147029156913,-0.00022350393421001,0.00022350396011856,-0.00022350396019401,0.00022350393430944,0.80501662642697,0.76479338888033,1368840,32768,0.00092622572412837,0.00092622572436865,0.00092622572420617,32.112428501689,32.103986986345,0.00017209942801351,0.00017209942801351,0.00017209942801351,186740.94698734,0.0027825420554686
3369600,0.14089646611417,0.0025034234793823,0.00083447449305684,0.00083447449327392,0.00083447449305153,-0.00024145212269981,0.00024145212268248,1.2769328784447e-11,-1.2814501841941e-11,-1.3989883280434e-13,1.5142143300269e-13,-0.00024055386747724,0.00024055387572215,-0.00024055387582849,0.00024055386737192,-0.00024055386769542,0.00024055387612544,-0.00024055387613984,0.00024055386777305,-0.0002425001846856,0.00024250021071483,-0.00024250021071323,0.00024250018478923,-8.1311958622538e-13,-1.069984797993e-12,-3.236758619246e-13,-5.1856161785735e-13,-0.00024145212332348,0.00024145212217654,-0.00024055387184457,0.00024055387181516,-0.0002405538719969,0.00024055387162506,-0.00024055387199736,0.00024055387159635,-0.00024055387201819,0.00024055387155491,-0.00024250019849158,0.00024250019656397,-0.00024250019706483,0.00024250019478773,-0.00024250019858303,0.00024250019509925,-0.00024250019865681,0.0002425001944749,-1.2936163919366e-11,1.289083583352e-11,-0.00024145212269669,0.00024145212270248,-9.3408374379457e-14,1.2837288711995e-13,-0.00024055387622892,0.00024055386757139,-0.00024055387601411,0.00024055386741508,-0.00024055386763177,0.00024055387618097,-0.00024055386735915,0.00024055387603766,-0.00024250018294621,0.00024250020883321,-0.00024250020888789,0.00024250018300389,0.80170275489253,0.73261215393987,1368840,32768,0.0010055445736519,0.0010055445738969,0.001005544573687,31.987339144515,31.978902810972,0.00017109871315612,0.00017109871315612,0.00017109871315612,168768.36932566,0.0030211891074472
3456000,0.15461468712952,0.0027439206458109,0.00091464021520088,0.00091464021541807,0.00091464021519191,-0.00026047011934909,0.00026047011933891,1.2695123580777e-11,-1.2739442509953e-11,-1.3112254576682e-13,1.4126653366907e-13,-0.000259629384605,0.00025962939279487,-0.00025962939291788,0.00025962938447913,-0.00025962938479072,0.00025962939319393,-0.00025962939315213,0.00025962938483792,-0.00026141303179455,0.00026141305776713,-0.00026141305779222,0.00026141303202852,-7.8372628564112e-13,-1.021334122473e-12,-3.0470392679831e-13,-5.1620881841023e-13,-0.00026047011996345,0.00026047011883512,-0.00025962938892553,0.00025962938888225,-0.00025962938907866,0.00025962938870204,-0.0002596293890994,0.00025962938869792,-0.00025962938906233,0.00025962938860074,-0.00026141304544426,0.00026141304367781,-0.00026141304424338,0.0002614130419554,-0.00026141304576118,0.00026141304228889,-0.00026141304574863,0.00026141304160632,-1.2878150125471e-11,1.2803132880432e-11,-0.00026047011935401,0.0002604701193443,-1.1415640230615e-13,1.2344392004945e-13,-0.00025962939327392,0.00025962938463321,-0.00025962939307835,0.00025962938452552,-0.00025962938469348,0.00025962939322574,-0.00025962938450916,0.00025962939309409,-0.00026141303017671,0.00026141305587207,-0.00026141305603743,0.00026141303019065,0.7982183717473,0.70043091899941,1368840,32768,0.0010847034645504,0.0010847034647805,0.0010847034645719,31.862250048807,31.853818635599,0.00017009800039046,0.00017009800039046,0.00017009800039046,145792.90306552,0.0032594114706271
3542400,0.16849481969882,0.0029861981006734,0.00099539936682055,0.00099539936703879,0.00099539936681404,-0.00027987586037941,0.00027987586036822,1.2627527465645e-11,-1.2667723627386e-11,-1.1458075331311e-13,1.3257904171305e-13,-0.00027911436853694,0.00027911437667068,-0.00027911437676543,0.0002791143684303,-0.00027911436876357,0.00027911437713499,-0.00027911437713263,0.00027911436881315,-0.00028067010851661,0.00028067013425696,-0.00028067013426362,0.00028067010863485,-7.077342578807e-13,-9.2094909357853e-13,-2.4445328212003e-13,-4.5452758508251e-13,-0.00027987586094936,0.0002798758599122,-0.00027911437286412,0.00027911437283651,-0.00027911437301878,0.00027911437259326,-0.00027911437303185,0.00027911437260323,-0.00027911437299723,0.00027911437257492,-0.00028067012203445,0.00028067012028674,-0.00028067012075157,0.00028067011854486,-0.00028067012221839,0.00028067011887017,-0.00028067012222828,0.00028067011826221,-1.2793556783269e-11,1.2741372612754e-11,-0.00027987586036973,0.00027987586037,-1.062127846841e-13,1.2982932056808e-13,-0.00027911437719621,0.00027911436856041,-0.0002791143770202,0.0002791143684941,-0.00027911436863383,0.00027911437714921,-0.00027911436842254,0.00027911437706396,-0.00028067010672812,0.00028067013236655,-0.00028067013244556,0.00028067010679626,0.79462189069667,0.66824968405895,1368840,32768,0.0011654698190241,0.0011654698192611,0.0011654698190076,31.866077953001,31.866037061444,0.00017012862362401,0.00017012862362401,0.00017012862362401,126681.23940905,0.003502529647665
3628800,0.18266756674724,0.0032326108362921,0.0010775369453607,0.0010775369455798,0.0010775369453516,-0.0002998652466107,0.00029986524657596,1.2481904752554e-11,-1.2551358608728e-11,-1.0187077394719e-13,9.8948036028949e-14,-0.00029920669109105,0.00029920669911297,-0.00029920669920118,0.00029920669099086,-0.00029920669126836,0.0002992066995229,-0.00029920669959816,0.00029920669129506,-0.00030047635687027,0.00030047638207904,-0.00030047638212188,0.00030047635711747,-6.8156442499819e-13,-8.4913964392557e-13,-1.9433260738989e-13,-4.3741444611245e-13,-0.00029986524714606,0.00029986524615037,-0.0002992066953255,0.00029920669540118,-0.00029920669548806,0.00029920669512827,-0.00029920669546854,0.00029920669517342,-0.00029920669545873,0.00029920669517284,-0.00030047636995672,0.00030047636840076,-0.0003004763690056,0.00030047636696105,-0.00030047637005807,0.00030047636728527,-0.00030047637003801,0.00030047636682456,-1.2642795888911e-11,1.2616562278565e-11,-0.00029986524658172,0.00029986524659889,-1.1025248480345e-13,1.5815997714479e-13,-0.00029920669962796,0.000299206691076,-0.00029920669946815,0.00029920669101838,-0.00029920669114714,0.0002992066995726,-0.00029920669093899,0.00029920669948971,-0.00030047635523286,0.00030047638037392,-0.00030047638058567,0.0003004763553604,0.79172621410088,0.64735214500615,1368840,32768,0.0012486584776949,0.0012486584779233,0.0012486584776824,32.003037749029,32.011945642157,0.00017122430199223,0.00017122430199223,0.00017122430199223,132451.42849132,0.0037530008808348
3715200,0.19713162955704,0.003483695143466,0.0011612317144221,0.0011612317146355,0.0011612317144084,-0.00032024457820601,0.0003202445781846,1.2608718455689e-11,-1.2660117006822e-11,-8.8393049653009e-14,1.078621240038e-13,-0.00031970486861946,0.00031970487682334,-0.00031970487691952,0.00031970486852438,-0.0003197048688532,0.00031970487715911,-0.00031970487719037,0.00031970486887094,-0.00032065957798103,0.00032065960352103,-0.00032065960353828,0.00032065957807642,-7.1613200868812e-13,-8.798047990379e-13,-2.0615168750157e-13,-4.5658477591321e-13,-0.0003202445787473,0.00032024457775532,-0.00031970487290199,0.00031970487297264,-0.00031970487299826,0.00031970487277126,-0.00031970487298964,0.00031970487282258,-0.0003197048730343,0.00031970487272843,-0.00032065959135859,0.00032065958965257,-0.00032065959019342,0.00032065958797068,-0.00032065959152228,0.00032065958823028,-0.00032065959144089,0.0003206595877799,-1.2751138446767e-11,1.2737464746842e-11,-0.00032024457817909,0.00032024457819909,-1.200180688245e-13,1.5442557652229e-13,-0.00031970487727447,0.00031970486867762,-0.00031970487710171,0.00031970486863752,-0.00031970486874417,0.00031970487721593,-0.00031970486854447,0.00031970487716625,-0.00032065957610939,0.00032065960175976,-0.00032065960179916,0.00032065957624879,0.79075896618963,0.65446358265355,1368840,32768,0.0013334628207712,0.0013334628210042,0.0013334628207453,32.148107371828,32.15785422287,0.00017238485897462,0.00017238485897462,0.00017238485897462,154274.16901858,0.004008401114711
3801600,0.21187717680258,0.0037393301934029,0.0012464433977355,0.0012464433979496,0.0012464433977177,-0.00034099719864747,0.00034099719861986,1.2835287717977e-11,-1.2884688999243e-11,-9.0223081982071e-14,9.3950284295069e-14,-0.00034058721749697,0.00034058722583788,-0.00034058722593221,0.00034058721739631,-0.00034058721776776,0.00034058722620862,-0.0003405872262525,0.00034058721777947,-0.00034120623824619,0.00034120626429423,-0.00034120626428654,0.00034120623838023,-7.427249573212e-13,-8.9495466710218e-13,-1.8767473725384e-13,-4.4813708177859e-13,-0.00034099719919314,0.00034099719818614,-0.00034058722186355,0.00034058722194832,-0.000340587221978,0.0003405872217304,-0.00034058722195694,0.00034058722178064,-0.00034058722199929,0.00034058722169731,-0.00034120625184013,0.00034120625012195,-0.0003412062506716,0.00034120624842555,-0.00034120625204287,0.00034120624864815,-0.00034120625199315,0.00034120624821449,-1.2973443243744e-11,1.2949735129775e-11,-0.00034099719861429,0.00034099719863339,-1.2352637341291e-13,1.5982908791931e-13,-0.00034058722629479,0.00034058721755389,-0.00034058722614461,0.00034058721754641,-0.00034058721762941,0.00034058722624443,-0.0003405872174384,0.00034058722621921,-0.00034120623629929,0.00034120626242574,-0.00034120626252465,0.00034120623646684,0.78997732818262,0.66157502030094,1368840,32768,0.0014198131298567,0.0014198131300896,0.0014198131298159,32.293928874923,32.303762803583,0.00017355143099939,0.00017355143099939,0.00017355143099939,174849.3996299,0.0042685240435114
3888000,0.2268923092802,0.0039993483941718,0.0013331161313286,0.0013331161315401,0.0013331161313031,-0.00036210420805805,0.00036210420803814,1.3167207669962e-11,-1.3207952329652e-11,-9.4947320012783e-14,1.0833780800139e-13,-0.00036183560026664,0.0003618356088506,-0.00036183560894376,0.00036183560016663,-0.00036183560050974,0.00036183560918723,-0.00036183560921449,0.00036183560053646,-0.00036209619946546,0.00036209622618406,-0.00036209622616587,0.00036209619962785,-7.7694730891068e-13,-9.4789244694817e-13,-2.0676347763533e-13,-4.5011983003052e-13,-0.00036210420863702,0.00036210420757028,-0.00036183560474695,0.0003618356048322,-0.00036183560483704,0.00036183560462097,-0.00036183560482811,0.00036183560466098,-0.00036183560487458,0.00036183560456783,-0.00036209621349621,0.0003620962116278,-0.00036209621224877,0.00036209620999817,-0.00036209621367994,0.00036209621011639,-0.00036209621367263,0.00036209620973363,-1.3301875107434e-11,1.3259178911774e-11,-0.00036210420803112,0.00036210420803952,-1.1973851854104e-13,1.4661481513568e-13,-0.00036183560926686,0.00036183560033605,-0.00036183560913458,0.00036183560033202,-0.00036183560040632,0.00036183560921972,-0.00036183560023962,0.00036183560919639,-0.00036209619752152,0.00036209622429162,-0.00036209622442313,0.00036209619766965,0.78934692858968,0.66868645794834,1368840,32768,0.0015076303718322,0.0015076303720634,0.0015076303717791,32.43982497268,32.449671384295,0.00017471859978144,0.00017471859978144,0.00017471859978144,194750.04678038,0.0045331351348591
3974400,0.24216385436944,0.0042635580199845,0.0014211860066032,0.0014211860068119,0.0014211860065694,-0.0003835498432776,0.00038354984326087,1.3510163126731e-11,-1.3548567894669e-11,-9.7958389791374e-14,1.1404693506207e-13,-0.00038343621146189,0.00038343622038471,-0.00038343622047183,0.00038343621136345,-0.0003834362117875,0.00038343622071673,-0.00038343622073767,0.00038343621181733,-0.00038331207508013,0.00038331210199027,-0.00038331210199673,0.00038331207525335,-8.122685019313e-13,-9.9253950948165e-13,-2.1204521334076e-13,-4.2941912418758e-13,-0.00038354984388776,0.00038354984276008,-0.0003834362161583,0.00038343621612758,-0.00038343621624892,0.0003834362160193,-0.00038343621624713,0.00038343621604424,-0.00038343621628207,0.00038343621587593,-0.00038331208896791,0.00038331208758772,-0.00038331208819191,0.00038331208655494,-0.00038331208967907,0.00038331208606107,-0.00038331208916193,0.00038331208625781,-1.3645219618495e-11,1.3598195628575e-11,-0.0003835498432621,0.00038354984326254,-1.1026683730616e-13,1.3017196451231e-13,-0.00038343622076044,0.00038343621161989,-0.00038343622065372,0.00038343621162605,-0.00038343621169464,0.00038343622070989,-0.00038343621155425,0.00038343622069684,-0.00038331207373507,0.00038331210056622,-0.00038331210072208,0.00038331207383517,0.78884273386765,0.67579789559573,1368840,32768,0.0015968485835561,0.0015968485837836,0.0015968485835274,32.585728543986,32.595579965008,0.00017588582835188,0.00017588582835188,0.00017588582835188,214394.42124823,0.0048020390648351
4060800,0.25767743988116,0.0045317467555184,0.0015105822517825,0.0015105822519894,0.0015105822517464,-0.00040531739208139,0.00040531739207129,1.3806934428219e-11,-1.3835510496416e-11,-1.0704160495245e-13,1.2396377916811e-13,-0.00040537468158722,0.00040537469071101,-0.00040537469079712,0.00040537468149195,-0.00040537468187992,0.00040537469101697,-0.00040537469102495,0.00040537468192349,-0.00040483677939226,0.00040483680687555,-0.0004048368068422,0.00040483677953712,-9.1608118346631e-13,-1.1163416024127e-12,-2.9519379085585e-13,-4.8705707662299e-13,-0.00040531739276386,0.00040531739149749,-0.0004053746863852,0.00040537468631868,-0.00040537468647098,0.00040537468623726,-0.00040537468648554,0.00040537468624431,-0.00040537468650662,0.00040537468607486,-0.00040483679363743,0.00040483679206676,-0.00040483679278335,0.00040483679104445,-0.0004048367943038,0.00040483679045668,-0.00040483679385686,0.00040483679070054,-1.3945388860296e-11,1.3890724500843e-11,-0.00040531739206908,0.00040531739205994,-1.0215452630817e-13,1.1293031476228e-13,-0.00040537469102724,0.00040537468176716,-0.0004053746909466,0.00040537468177433,-0.00040537468183966,0.00040537469097663,-0.0004053746817224,0.00040537469096719,-0.00040483677795109,0.00040483680538159,-0.00040483680552037,0.0004048367780586,0.78844693549991,0.68290933324313,1368840,32768,0.0016873978720847,0.0016873978723107,0.0016873978720355,32.73163281941,32.741488545721,0.00017705306255528,0.00017705306255528,0.00017705306255528,233708.11018925,0.0050750285024125
4147200,0.27341744435632,0.0048036785404709,0.0016012261801016,0.0016012261803076,0.0016012261800618,-0.00042738794023516,0.00042738794023736,1.3991669100878e-11,-1.4011700952154e-11,-1.1609500484788e-13,1.4906848282488e-13,-0.00042763271585394,0.00042763272511225,-0.0004276327251993,0.00042763271575717,-0.00042763271614848,0.00042763272543721,-0.00042763272541712,0.00042763271621984,-0.00042665289786924,0.00042665292566871,-0.00042665292562697,0.00042665289804922,-9.7599127237187e-13,-1.211004600229e-12,-3.5224585677793e-13,-5.4292943593724e-13,-0.00042738794099403,0.0004273879395869,-0.00042763272077347,0.00042763272061165,-0.00042763272085152,0.00042763272053565,-0.00042763272088074,0.000427632720532,-0.00042763272090676,0.00042763272035461,-0.00042665291228074,0.00042665291066697,-0.00042665291148416,0.00042665290969836,-0.00042665291306604,0.00042665290911633,-0.00042665291254767,0.00042665290931009,-1.4140945106775e-11,1.408672121916e-11,-0.000427387940233,0.00042738794022377,-1.0308411555691e-13,1.1085753984884e-13,-0.00042763272542092,0.00042763271604086,-0.00042763272535079,0.00042763271605912,-0.0004276327161121,0.00042763272537013,-0.00042763271600394,0.00042763272537037,-0.00042665289653587,0.00042665292422369,-0.00042665292437324,0.00042665289662805,0.78814701779907,0.69002077089052,1368840,32768,0.0017791992059361,0.0017791992061616,0.0017791992059034,32.877537116754,32.887397126434,0.00017822029693403,0.00017822029693403,0.00017822029693403,252272.85011619,0.0053518683754557
4233600,0.28936703995758,0.005079095754984,0.0016930319182723,0.0016930319184785,0.0016930319182332,-0.00044974075282188,0.00044974075282267,1.4063916217308e-11,-1.4083813131529e-11,-1.1788435459624e-13,1.4646840784362e-13,-0.00045018515610463,0.00045018516540005,-0.00045018516548695,0.00045018515600973,-0.00045018515636313,0.00045018516567767,-0.00045018516565943,0.00045018515643337,-0.00044874511870987,0.0004487451470795,-0.00044874514704611,0.00044874511888092,-1.0812092050951e-12,-1.3154925626052e-12,-4.3008994928257e-13,-6.2649797856386e-13,-0.00044974075366221,0.00044974075209074,-0.00045018516105849,0.00045018516082792,-0.00045018516113205,0.00045018516075172,-0.00045018516115651,0.00045018516075174,-0.00045018516119111,0.00045018516056949,-0.00044874513368452,0.00044874513152013,-0.00044874513248162,0.00044874512990912,-0.00044874513411217,0.00044874512992027,-0.00044874513403898,0.00044874512953017,-1.4222263754899e-11,1.4168625217049e-11,-0.00044974075281827,0.00044974075281084,-1.033063440621e-13,1.1638029760297e-13,-0.00045018516565942,0.00045018515629041,-0.00045018516559026,0.0004501851563143,-0.00045018515636472,0.00045018516560798,-0.00045018515625579,0.00045018516561276,-0.00044874511692482,0.00044874514525492,-0.0004487451453927,0.00044874511701384,0.78793429115354,0.69713220853792,1368840,32768,0.001872166006449,0.0018721660066744,0.0018721660064169,33.023441369924,33.033305707146,0.00017938753095939,0.00017938753095939,0.00017938753095939,269568.07826553,0.0056323006239387
4320000,0.30559596579809,0.0053592158749684,0.0017864052916017,0.001786405291808,0.0017864052915587,-0.0004726229613538,0.00047262296134238,1.3950623259212e-11,-1.3985430431171e-11,-1.0987811388728e-13,1.2854099227857e-13,-0.00047327495433352,0.00047327496362365,-0.00047327496371395,0.00047327495423263,-0.00047327495461568,0.00047327496379663,-0.00047327496379646,0.00047327495466542,-0.00047136407232967,0.00047136410060429,-0.00047136410059236,0.00047136407248152,-1.1992317466463e-12,-1.4070353322129e-12,-5.4019326217253e-13,-7.1777885911326e-13,-0.00047262296226678,0.00047262296053792,-0.00047327495931524,0.00047327495895108,-0.00047327495935366,0.00047327495896905,-0.0004732749593785,0.00047327495896812,-0.00047327495943335,0.00047327495870786,-0.00047136408738118,0.00047136408491226,-0.00047136408605954,0.00047136408327071,-0.00047136408777101,0.0004713640832485,-0.00047136408764926,0.00047136408282277,-1.4129391165622e-11,1.4067580671537e-11,-0.00047262296134339,0.00047262296132849,-9.9563061357995e-14,1.0141507830956e-13,-0.00047327496381849,0.00047327495457326,-0.00047327496375663,0.00047327495458961,-0.0004732749546438,0.00047327496377032,-0.00047327495454296,0.00047327496376751,-0.00047136407035783,0.00047136409862488,-0.00047136409877613,0.00047136407043095,0.78775072380015,0.70348514477375,1368840,32768,0.0019673256392571,0.0019673256394827,0.0019673256392066,33.24706149469,33.262008750992,0.00018117649195752,0.00018117649195752,0.00018117649195752,284924.07435817,0.005919428547644
4406400,0.3221696030791,0.0056451387357248,0.0018817129118538,0.0018817129120603,0.0018817129118107,-0.00049611509022403,0.00049611509019781,1.3714018671143e-11,-1.3764392492552e-11,-1.0191941584357e-13,1.0711085283697e-13,-0.0004969859607379,0.00049698596993675,-0.00049698597003095,0.00049698596063176,-0.00049698596105834,0.00049698597002969,-0.00049698597005509,0.00049698596108268,-0.00049458672570038,0.00049458675351971,-0.00049458675354985,0.00049458672583384,-1.2816088697876e-12,-1.4588009419855e-12,-6.1236566029648e-13,-7.9036905329736e-13,-0.00049611509119945,0.00049611508933105,-0.00049698596573062,0.00049698596520453,-0.00049698596574372,0.00049698596529774,-0.00049698596575942,0.0004969859653069,-0.00049698596583751,0.0004969859649733,-0.00049458674060799,0.00049458673801861,-0.00049458673923069,0.00049458673630521,-0.00049458674100229,0.00049458673631603,-0.00049458674083744,0.0004945867358945,-1.3915910040265e-11,1.3847090848527e-11,-0.00049611509020223,0.00049611509018568,-9.7789174372554e-14,1.0366134792286e-13,-0.00049698597008871,0.0004969859610296,-0.00049698597002606,0.00049698596104367,-0.00049698596110079,0.00049698597003849,-0.00049698596099919,0.00049698597003427,-0.00049458672367239,0.0004945867515001,-0.00049458675166076,0.00049458672372648,0.78747034691821,0.70739061052005,1368840,32768,0.0020650123034742,0.0020650123037001,0.0020650123034037,33.544666691485,33.564636033845,0.00018355733353187,0.00018355733353187,0.00018355733353187,298667.64367709,0.0062142666653342
4492800,0.33907318942433,0.0059366231184462,0.0019788743727623,0.0019788743729691,0.0019788743727148,-0.00052006327969282,0.00052006327966033,1.3294701231003e-11,-1.3348704544474e-11,-1.0223424446107e-13,1.0190325457258e-13,-0.00052116682222391,0.00052116683134905,-0.00052116683144907,0.00052116682211559,-0.00052116682279159,0.00052116683142829,-0.00052116683146654,0.00052116682280428,-0.00051825798401487,0.00051825801104115,-0.00051825801107563,0.00051825798412132,-1.3617509950301e-12,-1.5320691154578e-12,-6.7797727355379e-13,-8.9265131835026e-13,-0.00052006328074557,0.00052006327871633,-0.00052116682738452,0.00052116682647077,-0.00052116682738306,0.00052116682677565,-0.00052116682738106,0.00052116682680322,-0.00052116682750199,0.00052116682623301,-0.00051825799865341,0.00051825799590409,-0.0005182579972604,0.00051825799409572,-0.00051825799900275,0.00051825799414451,-0.00051825799885926,0.00051825799365111,-1.3506892608996e-11,1.3456632570877e-11,-0.00052006327966261,0.00052006327966082,-1.0847767137572e-13,1.2970169946682e-13,-0.00052116683153997,0.00052116682275462,-0.00052116683144241,0.00052116682276134,-0.00052116682282884,0.00052116683148903,-0.00052116682269214,0.00052116683147697,-0.00051825798199297,0.00051825800907766,-0.00051825800919486,0.00051825798207942,0.78723101730189,0.71129607626636,1368840,32768,0.0021645855620816,0.0021645855623077,0.0021645855620198,33.846805906861,33.867263316698,0.00018597444725489,0.00018597444725489,0.00018597444725489,310979.66285453,0.0065148878780334
4579200,0.3562850188732,0.0062333098387412,0.0020777699461942,0.0020777699464014,0.0020777699461457,-0.00054443376482654,0.0005444337646432,1.274866166949e-11,-1.2892830426998e-11,-1.6015915871823e-13,7.1691486344891e-15,-0.00054576883865797,0.00054576884752753,-0.00054576884806962,0.00054576883864753,-0.00054576883997738,0.00054576884817513,-0.00054576884860183,0.00054576883959011,-0.00054235516782758,0.00054235519385107,-0.00054235519408095,0.00054235516796785,-1.213196739143e-12,-1.3467866654154e-12,-5.04456912717e-13,-7.1619109879472e-13,-0.00054443376568144,0.00054443376376811,-0.00054576884386509,0.00054576884286421,-0.00054576884401888,0.00054576884325089,-0.00054576884397423,0.00054576884333779,-0.00054576884407545,0.00054576884265997,-0.00054235518218112,0.00054235517949978,-0.00054235517989725,0.00054235517802514,-0.00054235518237938,0.00054235517793252,-0.00054235518230746,0.00054235517715034,-1.3002518605511e-11,1.2991122777175e-11,-0.00054443376464062,0.00054443376468332,-6.886054341649e-14,1.6550425278221e-13,-0.00054576884793817,0.00054576883983267,-0.00054576884773064,0.00054576883925602,-0.00054576883939002,0.00054576884784057,-0.00054576883945439,0.00054576884786067,-0.00054235516616925,0.00054235519210929,-0.0005423551925194,0.000542355165969,0.78703244490192,0.71520154201244,1368840,32768,0.0022659044825544,0.0022659044825124,0.0022659044822513,34.149367319609,34.169890599543,0.00018839493855687,0.00018839493855687,0.00018839493855687,319516.14656041,0.0068208716299946
4665600,0.37378067290614,0.0065347972531898,0.0021782657510414,0.0021782657512038,0.0021782657509447,-0.00056919132254461,0.00056919132264417,1.247626374106e-11,-1.2414484628369e-11,1.2541876413108e-13,9.1897994049951e-14,-0.00057077727265745,0.00057077728228559,-0.00057077728189908,0.00057077727310126,-0.00057077727422083,0.00057077728219402,-0.00057077728272475,0.00057077727358559,-0.00056683019977254,0.00056683022426971,-0.00056683022584286,0.00056683019964625,-1.2398043380638e-12,-1.2079442451913e-12,-5.0297763437853e-13,-6.5837231364833e-13,-0.00056919132353282,0.0005691913217674,-0.00057077727792289,0.00057077727760178,-0.00057077727819128,0.00057077727777131,-0.00057077727868306,0.00057077727749801,-0.00057077727803435,0.00057077727702698,-0.00056683021337523,0.00056683021056508,-0.00056683021189532,0.00056683020942301,-0.00056683021393,0.00056683020951456,-0.00056683021358252,0.00056683020906606,-1.2818208794873e-11,1.2485884476565e-11,-0.00056919132272653,0.00056919132255237,-7.3257438506128e-14,3.2665002106608e-14,-0.0005707772821798,0.00057077727410124,-0.00057077728285315,0.00057077727354732,-0.00057077727358646,0.00057077728179519,-0.00057077727371836,0.00057077728224695,-0.00056683019811307,0.00056683022311899,-0.00056683022366217,0.00056683019702985,0.78687423016716,0.7191070077587,1368840,32768,0.0023688221178317,0.0023688221180633,0.002368822118019,34.451970800848,34.472517882397,0.00019081576640678,0.00019081576640678,0.00019081576640678,328248.16993567,0.0071317787799024
4752000,0.39153340987897,0.0068406454240316,0.0022802151413013,0.0022802151414777,0.0022802151412526,-0.00059430141470924,0.00059430141457983,1.1822098284189e-11,-1.1917953738224e-11,5.652622169214e-14,3.9573489586469e-14,-0.000596148552501,0.00059614856019182,-0.00059614856030681,0.00059614855179643,-0.00059614855337233,0.00059614856055018,-0.00059614856103361,0.00059614855319687,-0.00059165449013984,0.00059165451518989,-0.00059165451571734,0.00059165449059936,-1.1378607538409e-12,-1.0877053816413e-12,-4.1711684560198e-13,-5.6613419763593e-13,-0.00059430141552001,0.00059430141376078,-0.00059614855735452,0.00059614855614624,-0.00059614855703637,0.00059614855629912,-0.00059614855704316,0.0005961485562411,-0.00059614855720736,0.00059614855614141,-0.00059165450396409,0.00059165450132578,-0.00059165450220655,0.00059165450034557,-0.00059165450485886,0.00059165450041591,-0.00059165450360634,0.00059165449950104,-1.220665862437e-11,1.1954256011567e-11,-0.00059430141464582,0.00059430141446348,-1.5612546576831e-13,-1.8759426912385e-15,-0.00059614856103391,0.00059614855253626,-0.00059614856087996,0.0005961485521741,-0.00059614855268488,0.00059614856089652,-0.00059614855291796,0.00059614856092843,-0.0005916544891201,0.00059165451298248,-0.00059165451396709,0.00059165448865808,0.78675597052207,0.72301247350538,1368840,32768,0.0024731944194165,0.0024731944193992,0.0024731944190429,34.754578504532,34.775145165249,0.00019323662803625,0.00019323662803625,0.00019323662803625,335593.98508951,0.0074471784583674
4838400,0.4095142743539,0.007150376938089,0.002383458979352,0.0023834589794912,0.0023834589792458,-0.00061972587150006,0.00061972587138723,1.1254283461424e-11,-1.132402988219e-11,2.1859376328705e-14,-7.3311966252107e-14,-0.00062184223686268,0.00062184224443631,-0.00062184224398078,0.00062184223597861,-0.00062184223771272,0.00062184224525161,-0.00062184224490654,0.00062184223763716,-0.0006167918586287,0.00061679188030232,-0.00061679188176118,0.00061679185887185,-1.1226687252999e-12,-9.9222410735226e-13,-3.9409913701247e-13,-5.8174941913105e-13,-0.0006197258724243,0.00061972587066459,-0.00062184224151989,0.00062184224021645,-0.00062184224144832,0.00062184224062931,-0.00062184224127021,0.00062184224101962,-0.00062184224180348,0.00062184224020931,-0.0006167918710927,0.00061679186899241,-0.00061679186986819,0.00061679186804244,-0.0006167918717227,0.00061679186724025,-0.00061679187176348,0.00061679186709377,-1.1551808511944e-11,1.1489380683777e-11,-0.00061972587143996,0.00061972587147234,-6.5518410222247e-14,1.3231189913877e-13,-0.0006218422451431,0.00062184223716181,-0.00062184224495489,0.00062184223704689,-0.00062184223696909,0.0006218422453163,-0.00062184223675094,0.00062184224538927,-0.00061679185745097,0.00061679187970846,-0.00061679187996549,0.00061679185697274,0.78667731394418,0.72691793925164,1368840,32768,0.002578862301916,0.0025788623023349,0.002578862301968,35.057186590958,35.07777244813,0.00019565749272766,0.00019565749272766,0.00019565749272766,341592.67298965,0.0077665938629158
4924800,0.42769220910983,0.0074634788783872,0.0024878262927599,0.0024878262929429,0.0024878262926843,-0.00064542360483922,0.00064542360472503,1.0689960406989e-11,-1.0807680773948e-11,1.6143712703011e-14,-1.0510849488998e-13,-0.0006478157354895,0.000647815742795,-0.00064781574273797,0.00064781573563453,-0.00064781573672498,0.00064781574340569,-0.00064781574328089,0.0006478157364627,-0.00064220269741041,0.00064220271850121,-0.00064220271925408,0.00064220269726886,-8.3432706335151e-13,-6.8425440532114e-13,-1.409603996389e-13,-3.2389803160806e-13,-0.00064542360545117,0.00064542360420108,-0.00064781573966492,0.0006478157389775,-0.00064781573982201,0.00064781573924117,-0.00064781573974142,0.00064781573945272,-0.00064781574004645,0.00064781573922492,-0.00064220270908623,0.00064220270742238,-0.00064220270738536,0.00064220270569339,-0.00064220270918438,0.00064220270526585,-0.00064220270923357,0.0006422027057147,-1.1186101272285e-11,1.0787764852953e-11,-0.00064542360485026,0.00064542360461724,-1.780900006492e-13,2.2387316082861e-14,-0.0006478157435208,0.00064781573543638,-0.00064781574369935,0.00064781573559773,-0.00064781573576699,0.00064781574315374,-0.00064781573567733,0.0006478157435543,-0.00064220269595047,0.0006422027173763,-0.00064220271742912,0.00064220269552627,0.78663798124165,0.73082340499795,1368840,32768,0.0026856546128227,0.0026856546130055,0.0026856546126216,35.359794667739,35.380399730973,0.00019807835734191,0.00019807835734191,0.00019807835734191,346199.57505261,0.0080895111323316
5011200,0.44603419279451,0.0077792404931448,0.0025930801643585,0.0025930801645377,0.0025930801642486,-0.00067138255509766,0.00067138255494118,1.0309659833734e-11,-1.046264993205e-11,4.4651135938447e-15,-1.1690720797681e-13,-0.00067405684321608,0.00067405685023907,-0.00067405685029119,0.00067405684312511,-0.00067405684444052,0.00067405685093704,-0.0006740568510958,0.00067405684411458,-0.0006678703730129,0.00066787039382202,-0.00066787039438126,0.00066787037300324,-8.1844345299666e-13,-6.6868630738643e-13,-9.4945511244511e-14,-2.8268173926691e-13,-0.00067138255567887,0.0006713825544547,-0.00067405684750321,0.00067405684682636,-0.00067405684747033,0.00067405684690696,-0.00067405684742661,0.00067405684704457,-0.00067405684761375,0.00067405684678103,-0.00066787038404125,0.00066787038268792,-0.0006678703826849,0.00066787038102925,-0.0006678703844839,0.00066787038085334,-0.00066787038430939,0.00066787038076926,-1.0763434066831e-11,1.0526387014338e-11,-0.00067138255505178,0.00067138255493005,-1.3036860556388e-13,6.7588935204424e-14,-0.00067405685099915,0.00067405684324795,-0.000674056851048,0.0006740568432648,-0.00067405684336584,0.00067405685082366,-0.0006740568433363,0.00067405685103459,-0.00066787037120345,0.00066787039229208,-0.00066787039261392,0.00066787037101425,0.78623079116985,0.72885757449039,1368840,32768,0.0027935208777302,0.002793520877927,0.0027935208776117,35.662403085063,35.683027013778,0.0002004992246805,0.0002004992246805,0.0002004992246805,350695.69114129,0.0084157808895281
5097600,0.4643902814386,0.0080938056445376,0.0026979352148253,0.0026979352150056,0.0026979352147067,-0.0006969549425702,0.00069695494237329,9.6250402263339e-12,-9.8238380061393e-12,2.3326802088091e-14,-1.6400684264471e-13,-0.00069998064251592,0.0006999806490944,-0.00069998064916529,0.0006999806423849,-0.00069998064344941,0.00069998064940963,-0.00069998064969454,0.0006999806430627,-0.00069306757992712,0.00069306759998024,-0.0006930676005101,0.00069306757977368,-8.8624063183939e-13,-6.7037166766454e-13,-1.4978013020219e-13,-3.2389599490557e-13,-0.00069695494308414,0.00069695494195471,-0.00069998064627075,0.00069998064592339,-0.00069998064623682,0.00069998064602492,-0.00069998064616305,0.00069998064617513,-0.0006999806463189,0.00069998064586705,-0.00069306759079632,0.00069306758879765,-0.00069306758892432,0.00069306758714485,-0.00069306759079534,0.00069306758700881,-0.00069306759040485,0.00069306758685408,-1.0075244237616e-11,9.8938203094045e-12,-0.0006969549425037,0.00069695494241029,-1.1587660710802e-13,6.844896775455e-14,-0.00069998064965842,0.00069998064276363,-0.00069998064958007,0.0006999806426294,-0.00069998064282412,0.00069998064952096,-0.0006999806427062,0.00069998064956545,-0.00069306757747922,0.00069306759783036,-0.0006930675981147,0.00069306757738399,0.78257459383499,0.68033219149736,1368840,32768,0.0028997694455401,0.0028997694457382,0.0028997694454789,35.864783378542,35.878820791791,0.00020211826702834,0.00020211826702834,0.00020211826702834,367626.37065531,0.0087372609366616
5184000,0.48262657300267,0.0084061255109471,0.0028020418369577,0.0028020418371373,0.0028020418368521,-0.00072219482607021,0.0007221948258536,9.1065072583366e-12,-9.3275151978722e-12,1.9260838065207e-14,-1.8079453567457e-13,-0.00072558502598387,0.00072558503220055,-0.00072558503229,0.00072558502584026,-0.00072558502685209,0.00072558503249905,-0.00072558503280592,0.00072558502644169,-0.00071792378007926,0.0007179237986518,-0.0007179237991948,0.00071792377992566,-8.2030066096612e-13,-5.9106456103044e-13,-8.5151751613615e-14,-2.3973410275831e-13,-0.00072219482649489,0.00072219482552391,-0.00072558502944024,0.00072558502928387,-0.00072558502944267,0.00072558502937679,-0.00072558502936851,0.00072558502952481,-0.00072558502947413,0.00072558502923572,-0.00071792378988538,0.00071792378849841,-0.00071792378852592,0.00071792378687014,-0.00071792379036432,0.00071792378674825,-0.00071792378998963,0.00071792378661386,-9.5785073243526e-12,9.3899083800386e-12,-0.00072219482599795,0.0007221948258981,-1.1042227373416e-13,5.4607802357358e-14,-0.00072558503273218,0.00072558502621033,-0.00072558503265087,0.0007255850260649,-0.00072558502627264,0.00072558503259396,-0.000725585026152,0.00072558503262269,-0.00071792377801978,0.00071792379699694,-0.00071792379731665,0.00071792377791603,0.78233435372164,0.68861650922473,1368840,32768,0.0030046254331172,0.0030046254333145,0.0030046254330596,35.979158862298,35.987182183576,0.00020303327089838,0.00020303327089838,0.00020303327089838,386463.81364062,0.0090546279579982
5270400,0.50070864283899,0.0087185712752065,0.0029061904250419,0.0029061904252217,0.002906190424943,-0.00074748328920633,0.00074748328896483,8.6595203399507e-12,-8.9016600603955e-12,2.9532612504842e-14,-2.2405044953021e-13,-0.00075113770974249,0.00075113771565629,-0.00075113771576535,0.00075113770959044,-0.00075113771060628,0.00075113771593787,-0.00075113771628606,0.00075113771017216,-0.0007429963939751,0.00074299641171441,-0.00074299641228529,0.00074299639373014,-8.3399058098375e-13,-5.5074873382776e-13,-6.652817349232e-14,-2.3142398897952e-13,-0.00074748328959814,0.00074748328867042,-0.00075113771303255,0.00075113771291726,-0.00075113771305267,0.00075113771301614,-0.00075113771295975,0.00075113771317705,-0.00075113771305773,0.00075113771287994,-0.00074299640338282,0.00074299640193609,-0.0007429964019046,0.00074299640026931,-0.00074299640381814,0.00074299640009748,-0.00074299640345913,0.0007429964000203,-9.1316088003252e-12,8.9620571564821e-12,-0.00074748328911763,0.00074748328902854,-1.0921563412558e-13,6.6243976291996e-14,-0.00075113771620214,0.00075113770997957,-0.00075113771611044,0.00075113770982913,-0.00075113771004168,0.00075113771606139,-0.00075113770991255,0.00075113771608464,-0.00074299639190333,0.00074299641006885,-0.00074299641032099,0.0007429963918192,0.78946351811338,0.80400170950033,1368840,32768,0.0031096723173554,0.0031096723175576,0.0031096723173035,36.088083158239,36.095543575362,0.00020390466526591,0.00020390466526591,0.00020390466526591,374292.02496546,0.0093726725048841
5356800,0.51860955564994,0.0090267577062688,0.0030089192353916,0.0030089192355764,0.0030089192353007,-0.00077250288313579,0.00077250288291562,8.4174086186505e-12,-8.6034096129184e-12,3.6354168816862e-14,-2.2665773752641e-13,-0.00077640385039458,0.00077640385624839,-0.00077640385635274,0.00077640385037332,-0.00077640385135959,0.00077640385661771,-0.00077640385692348,0.00077640385087852,-0.00076778700800638,0.00076778702548115,-0.00076778702586453,0.00076778700797853,-8.0803763853421e-13,-5.1488982929268e-13,-2.523922895888e-15,-2.0618742170404e-13,-0.00077250288348798,0.00077250288264813,-0.00077640385377143,0.00077640385359025,-0.00077640385361854,0.00077640385365006,-0.00077640385354035,0.00077640385382639,-0.00077640385366128,0.000776403853587,-0.00076778701706183,0.00076778701599526,-0.00076778701593823,0.0007677870143712,-0.00076778701776596,0.00076778701425503,-0.00076778701742919,0.00076778701402162,-8.8246593833016e-12,8.7301488881794e-12,-0.00077250288302385,0.00077250288299851,-1.0676394431714e-13,1.0738795466582e-13,-0.00077640385667697,0.00077640385082913,-0.00077640385653211,0.00077640385060477,-0.00077640385077406,0.00077640385657969,-0.00077640385056747,0.00077640385665189,-0.00076778700592584,0.00076778702376063,-0.00076778702415272,0.00076778700609401,0.78637952861674,0.74770296004574,1368840,32768,0.0032135914366809,0.0032135914368568,0.0032135914366206,36.196500596691,36.203904967147,0.00020477200477353,0.00020477200477353,0.00020477200477353,359338.27575719,0.0096874013744598
5443200,0.53630239381249,0.0093294591003863,0.0031098197000983,0.0031098197002779,0.00310981970001,-0.00079696862484952,0.00079696862458315,8.135630873826e-12,-8.3975122852934e-12,2.6150289361904e-14,-2.4209494240098e-13,-0.00080123095889277,0.00080123096445648,-0.00080123096457722,0.00080123095874086,-0.00080123095977919,0.00080123096473474,-0.00080123096511631,0.00080123095928334,-0.0007918780768449,0.00079187809350345,-0.00079187809408122,0.00079187807661321,-7.9166512399741e-13,-4.9250889536779e-13,1.0331125567676e-14,-1.9103844331846e-13,-0.00079696862517317,0.00079696862435507,-0.00080123096196305,0.0008012309619505,-0.00080123096196744,0.0008012309620162,-0.00080123096186315,0.0008012309621977,-0.0008012309619752,0.00080123096191535,-0.0007918780855235,0.00079187808439153,-0.00079187808425697,0.00079187808271135,-0.00079187808613791,0.00079187808258676,-0.00079187808570442,0.0007918780824949,-8.6107393007662e-12,8.456928411348e-12,-0.00079696862474307,0.0007969686246698,-1.2320088335641e-13,8.8538648146251e-14,-0.0008012309649972,0.00080123095913918,-0.00080123096487655,0.00080123095899264,-0.00080123095918851,0.00080123096486551,-0.00080123095903356,0.00080123096489582,-0.00079187807472654,0.00079187809190709,-0.00079187809218507,0.00079187807468603,0.78129223280501,0.67633392771571,1368840,32768,0.0033151995922794,0.0033151995924779,0.0033151995922383,36.304866967835,36.312266358933,0.00020563893574268,0.00020563893574268,0.00020563893574268,375831.05808346,0.0099952264988047
5529600,0.55376054373884,0.0096257834462794,0.0032085944820604,0.003208594482241,0.0032085944819781,-0.00082089838120732,0.000820898380943,7.9078148481551e-12,-8.1848784869923e-12,2.9563435092645e-14,-2.2559566703076e-13,-0.00082559408213841,0.00082559408748218,-0.00082559408760421,0.00082559408194052,-0.00082559408297276,0.00082559408777593,-0.00082559408812523,0.00082559408249896,-0.00081532131019349,0.00081532132641007,-0.00081532132707346,0.000815321310019,-7.6843593657432e-13,-4.8135935362569e-13,2.3747568645726e-14,-1.5466253987145e-13,-0.00082089838151908,0.00082089838072822,-0.00082559408508219,0.00082559408510315,-0.00082559408511981,0.0008255940851341,-0.00082559408498548,0.00082559408535793,-0.00082559408512454,0.00082559408504857,-0.00081532131847585,0.00081532131758736,-0.00081532131740584,0.00081532131605903,-0.00081532131921789,0.00081532131567963,-0.00081532131875259,0.00081532131562534,-8.407646652166e-12,8.2210096773269e-12,-0.00082089838110565,0.00082089838102207,-1.2063599112387e-13,6.8313766002517e-14,-0.00082559408802272,0.00082559408233173,-0.00082559408792692,0.00082559408226396,-0.00082559408242484,0.00082559408788937,-0.00082559408223505,0.00082559408792939,-0.00081532130813689,0.00081532132483141,-0.00081532132511184,0.00081532130803862,0.77529938475846,0.60141412576628,1368840,32768,0.0034145716586209,0.0034145716588222,0.003414571658574,36.413227672056,36.420627750718,0.00020650582137645,0.00020650582137645,0.00020650582137645,407145.93185811,0.010296368527869
5616000,0.57095927308322,0.0099157050394942,0.0033052350131288,0.0033052350133122,0.0033052350130532,-0.00084428867798297,0.00084428867770492,7.7517040437036e-12,-8.0188557941657e-12,2.1438153902643e-14,-2.5217145809976e-13,-0.00084948985636629,0.0008494898616459,-0.00084948986174839,0.00084948985616336,-0.00084948985718955,0.00084948986189462,-0.00084948986228224,0.00084948985669927,-0.00083812780992615,0.00083812782582111,-0.00083812782621613,0.00083812780964995,-7.626646128843e-13,-4.5633113292654e-13,2.6054321705415e-14,-1.7444893541065e-13,-0.00084428867827678,0.00084428867750808,-0.0008494898591912,0.00084948985929294,-0.00084948985923013,0.00084948985931657,-0.00084948985914385,0.0008494898595041,-0.00084948985922253,0.00084948985922435,-0.00083812781819794,0.00083812781707075,-0.00083812781702517,0.00083812781539959,-0.00083812781882889,0.00083812781521009,-0.00083812781824136,0.00083812781517284,-8.2194908707842e-12,8.0881179135497e-12,-0.00084428867786087,0.00084428867779932,-1.2541122759661e-13,8.5869553214681e-14,-0.00084948986215739,0.00084948985657522,-0.00084948986206487,0.00084948985645038,-0.00084948985664294,0.00084948986207165,-0.00084948985643689,0.00084948986205443,-0.00083812780779197,0.00083812782430404,-0.00083812782443708,0.00083812780793649,0.77036212414455,0.54799038503428,1368840,32768,0.0035116938718336,0.0035116938720349,0.0035116938717761,36.521587349535,36.528989142504,0.00020737269879628,0.00020737269879628,0.00020737269879628,449158.90929437,0.010590779720537
5702400,0.58787548240567,0.010199115615829,0.0033997052052404,0.003399705205423,0.0033997052051654,-0.00086715496204912,0.00086715496174902,7.6026142159426e-12,-7.87769110665e-12,-6.6371501807944e-15,-2.5716977599281e-13,-0.00087291299957464,0.00087291300475348,-0.00087291300490035,0.00087291299936976,-0.00087291300045209,0.00087291300502472,-0.00087291300542935,0.00087291299991125,-0.00086033999179216,0.00086034000749905,-0.00086034000787946,0.00086033999158955,-7.101812015106e-13,-4.2619643587379e-13,6.483972507326e-14,-9.0581762201107e-14,-0.0008671549622825,0.00086715496161242,-0.00087291300234291,0.00087291300246691,-0.00087291300238435,0.00087291300255667,-0.00087291300227877,0.00087291300273593,-0.00087291300236791,0.00087291300247877,-0.000860339999908,0.0008603399988039,-0.00086033999846948,0.0008603399972043,-0.00086034000037853,0.00086033999713325,-0.00086033999996671,0.00086033999702855,-8.0891360883274e-12,7.9282166807755e-12,-0.00086715496192301,0.00086715496184561,-1.02900738806e-13,6.3649114386775e-14,-0.00087291300526774,0.00087291299977292,-0.00087291300516002,0.00087291299964334,-0.00087291299984829,0.00087291300515491,-0.00087291299970103,0.00087291300514678,-0.00086033998953557,0.00086034000568419,-0.00086034000606342,0.00086033998971812,0.76613511690209,0.50714110322116,1368840,32768,0.0036066310128469,0.0036066310130477,0.0036066310127856,36.629946749391,36.637350534289,0.00020823957399513,0.00020823957399513,0.00020823957399513,494928.49676155,0.010878650615855
5788800,0.60448779280861,0.010475686566053,0.0034918955219816,0.003491895522165,0.0034918955219066,-0.00088946700434517,0.00088946700403462,7.4343941784787e-12,-7.7441126285573e-12,3.2702677426241e-15,-2.6450050792634e-13,-0.00089583687842652,0.00089583688347352,-0.00089583688364413,0.00089583687821944,-0.00089583687926394,0.00089583688375638,-0.00089583688419366,0.00089583687873916,-0.00088192547320704,0.00088192548846635,-0.00088192548907758,0.00088192547290901,-6.7265427440306e-13,-3.7048547604067e-13,9.2213594702686e-14,-8.3112387444202e-14,-0.00088946700454357,0.00088946700393312,-0.00089583688110762,0.00089583688132024,-0.000895836881145,0.00089583688136942,-0.0008958368810472,0.00089583688155223,-0.00089583688111941,0.00089583688128118,-0.00088192548110375,0.00088192548008557,-0.00088192547975555,0.0008819254784725,-0.00088192548161686,0.000881925478372,-0.00088192548119753,0.00088192547828657,-7.942355013565e-12,7.7756364008218e-12,-0.00088946700421273,0.00088946700413697,-1.1197337340795e-13,7.457354535879e-14,-0.00089583688401827,0.00089583687861725,-0.00089583688390534,0.00089583687847721,-0.00089583687868131,0.0008958368838964,-0.00089583687852391,0.00089583688390252,-0.00088192547103752,0.00088192548687194,-0.00088192548711712,0.00088192547099581,0.76186094058566,0.46629182140805,1368840,32768,0.0036992581946654,0.0036992581948665,0.003699258194603,36.738306040096,36.745711926074,0.00020910644832077,0.00020910644832077,0.00020910644832077,544198.53925899,0.011159596809881
5875200,0.6207172863441,0.010745775714861,0.0035819252382506,0.0035819252384342,0.0035819252381762,-0.00091113000023376,0.00091112999991348,7.3289035923201e-12,-7.6487191015876e-12,-1.2399032982759e-15,-2.72736668082e-13,-0.00091811801678757,0.00091811802173485,-0.00091811802191447,0.00091811801655426,-0.00091811801760637,0.00091811802202239,-0.00091811802245649,0.00091811801707623,-0.00090287360184133,0.00090287361693779,-0.00090287361755901,0.00090287360150856,-6.9895329451546e-13,-3.9271501753167e-13,7.6177614002653e-14,-1.0189379897909e-13,-0.00091113000044804,0.00091112999979678,-0.00091811801943917,0.00091811801960005,-0.00091811801947378,0.00091811801965512,-0.00091811801937161,0.00091811801983323,-0.00091811801944871,0.0009181180195612,-0.00090287360970093,0.00090287360860325,-0.00090287360839959,0.00090287360697043,-0.00090287361026891,0.00090287360690957,-0.00090287360978478,0.00090287360682658,-7.8305026658716e-12,7.6842372812375e-12,-0.00091113000009194,0.00091113000002376,-1.1259608967851e-13,7.6985089334836e-14,-0.00091811802227434,0.00091811801695397,-0.00091811802216393,0.00091811801681614,-0.00091811801700042,0.00091811802213815,-0.0009181180168375,0.00091811802217233,-0.00090287359970136,0.00090287361541621,-0.00090287361563659,0.00090287359966654,0.76210078829744,0.49184196051335,1368840,32768,0.00378918262315,0.0037891826233525,0.0037891826230846,36.784584561936,36.787895818362,0.00020947667649548,0.00020947667649548,0.00020947667649548,586485.10093128,0.011432420280608
5961600,0.63650474110071,0.011006713040725,0.0036689043468723,0.0036689043470565,0.0036689043467965,-0.00093206452981584,0.00093206452948399,7.2335301088558e-12,-7.5659196310546e-12,2.2896359355468e-15,-2.8398616265296e-13,-0.00093966640391057,0.00093966640882139,-0.0009396664090029,0.00093966640369134,-0.00093966640475474,0.00093966640910444,-0.00093966640955826,0.00093966640419853,-0.00092307542512057,0.00092307543998965,-0.00092307544063183,0.00092307542480196,-6.6766535328176e-13,-3.4581934722103e-13,1.3061274516441e-13,-5.7433186632043e-14,-0.00093206452998058,0.00093206452941695,-0.00093966640650285,0.00093966640675412,-0.00093966640654989,0.00093966640679722,-0.0009396664064362,0.00093966640699338,-0.00093966640651063,0.00093966640672316,-0.00092307543279986,0.00092307543190076,-0.00092307543150643,0.00092307543025598,-0.00092307543338675,0.00092307543008707,-0.0009230754329006,0.00092307543005374,-7.7440586596178e-12,7.590666051539e-12,-0.00093206452966925,0.00093206452959858,-1.1877125397266e-13,8.090461665479e-14,-0.00093966640936683,0.00093966640409412,-0.00093966640925299,0.00093966640396332,-0.0009396664041542,0.00093966640924381,-0.00093966640399103,0.00093966640926492,-0.00092307542298895,0.00092307543845682,-0.00092307543870469,0.00092307542294943,0.75737031220252,0.44077103288462,1368840,32768,0.0038760753061611,0.0038760753063638,0.0038760753060947,36.780618397046,36.78047504981,0.00020944494717637,0.00020944494717637,0.00020944494717637,618541.34887796,0.01169611623637
6048000,0.65184054999524,0.011259327736868,0.0037531092455863,0.0037531092457708,0.0037531092455105,-0.00095217890390249,0.00095217890355797,7.1465515748138e-12,-7.4909992433504e-12,2.4112792782497e-15,-2.989249268722e-13,-0.00096048130707898,0.00096048131193019,-0.00096048131212041,0.00096048130685273,-0.00096048130792855,0.00096048131221064,-0.00096048131268136,0.00096048130735423,-0.00094237491408168,0.00094237492878083,-0.00094237492942077,0.00094237491373418,-6.1573523382891e-13,-2.7777385243477e-13,1.8966558819941e-13,3.3225455573374e-15,-0.00095217890400204,0.00095217890355624,-0.0009604813095876,0.00096048130994668,-0.00096048130963677,0.00096048130999262,-0.00096048130951805,0.00096048131019155,-0.00096048130959199,0.0009604813099204,-0.00094237492160287,0.00094237492082723,-0.00094237492030077,0.00094237491918693,-0.00094237492219938,0.00094237491900375,-0.00094237492169773,0.00094237491899908,-7.6628544050579e-12,7.5120219246514e-12,-0.00095217890374874,0.00095217890367835,-1.1768549302426e-13,8.0416102166808e-14,-0.00096048131247955,0.00096048130725884,-0.00096048131236502,0.00096048130712715,-0.00096048130731843,0.00096048131235501,-0.00096048130715747,0.00096048131237522,-0.00094237491191897,0.00094237492724825,-0.00094237492748487,0.0009423749118952,0.7551689343867,0.42834657677503,1368840,32768,0.0039595564997038,0.0039595564999068,0.0039595564996346,36.773524747184,36.773054281258,0.00020938819797747,0.00020938819797747,0.00020938819797747,665948.46431963,0.011949524639072
6134400,0.66671932531932,0.011504240549724,0.0038347468498719,0.0038347468500566,0.0038347468497959,-0.00097174738573766,0.00097174738538191,7.0858828399667e-12,-7.4397327800939e-12,4.7275467531624e-15,-3.1227356319817e-13,-0.00098071101772978,0.00098071102253822,-0.00098071102273652,0.00098071101749488,-0.00098071101858205,0.00098071102282144,-0.00098071102331084,0.00098071101799392,-0.00096118074841917,0.00096118076301373,-0.00096118076365652,0.00096118074806862,-6.7849553713296e-13,-3.2507389274513e-13,1.3561432766361e-13,-4.9387270664547e-14,-0.00097174738588591,0.00097174738533168,-0.00098071102027343,0.00098071102052496,-0.00098071102033389,0.00098071102056793,-0.00098071102020674,0.00098071102077373,-0.0009807110202745,0.00098071102050066,-0.00096118075594472,0.00096118075506268,-0.00096118075463908,0.00096118075342882,-0.00096118075654982,0.00096118075322933,-0.00096118075602265,0.00096118075323888,-7.6031024657328e-12,7.4554166244927e-12,-0.00097174738557634,0.00097174738550788,-1.1615342218092e-13,8.0720239934431e-14,-0.00098071102308838,0.00098071101791002,-0.00098071102297087,0.00098071101778057,-0.00098071101797121,0.00098071102296419,-0.00098071101780845,0.00098071102298504,-0.00096118074626028,0.0009611807614802,-0.00096118076172764,0.00096118074625018,0.75514731475344,0.44713313593456,1368840,32768,0.0040407653273416,0.0040407653275449,0.0040407653272682,36.766136908729,36.765633512706,0.00020932909526983,0.00020932909526983,0.00020932909526983,697124.59428302,0.012196096357327
6220800,0.68113825722159,0.011741524431386,0.0039138414770926,0.0039138414772777,0.0039138414770162,-0.00099078184821731,0.00099078184784852,7.041568914315e-12,-7.4097186381818e-12,7.1264293512986e-15,-3.2875591261489e-13,-0.0010003561354162,0.0010003561401989,-0.0010003561404029,0.0010003561351775,-0.0010003561362808,0.0010003561404772,-0.0010003561409843,0.0010003561356715,-0.00097951543045079,0.00097951544493053,-0.00097951544560212,0.00097951543007301,-6.572819646048e-13,-2.8416868648875e-13,1.6911959821825e-13,-1.5118185208643e-14,-0.00099078184832738,0.00099078184783664,-0.0010003561379213,0.0010003561382254,-0.0010003561379812,0.0010003561382725,-0.0010003561378493,0.0010003561384842,-0.0010003561379132,0.001000356138209,-0.00097951543787871,0.00097951543707657,-0.00097951543657848,0.00097951543543989,-0.00097951543849866,0.00097951543523157,-0.00097951543796431,0.00097951543525509,-7.5667126950623e-12,7.4166296917598e-12,-0.0009907818480504,0.00099078184798072,-1.1672855166993e-13,7.9516953164605e-14,-0.0010003561407533,0.001000356135597,-0.0010003561406351,0.0010003561354659,-0.0010003561356573,0.0010003561406292,-0.0010003561354942,0.0010003561406471,-0.00097951542828465,0.00097951544342009,-0.00097951544366145,0.00097951542826244,0.75528326518785,0.46591969509408,1368840,32768,0.0041197516322142,0.0041197516324179,0.0041197516321422,36.758719483953,36.758212744154,0.00020926975587162,0.00020926975587162,0.00020926975587162,713003.92420736,0.012435977666501
6307200,0.69509614712157,0.011971255314639,0.0039904184381768,0.0039904184383622,0.0039904184381001,-0.0010092211865075,0.0010092211861249,7.0039909446491e-12,-7.3855394062525e-12,1.085300668339e-14,-3.4701848705872e-13,-0.0010193830636296,0.0010193830683851,-0.0010193830685962,0.0010193830633855,-0.0010193830645019,0.001019383068658,-0.0010193830691867,0.0010193830638725,-0.00099729205230138,0.00099729206669697,-0.00099729206739024,0.00099729205189617,-6.3184849157995e-13,-2.3599199648885e-13,2.0794841202464e-13,2.3315287733964e-14,-0.0010092211865735,0.0010092211861571,-0.0010193830660889,0.0010193830664588,-0.0010193830661487,0.0010193830665058,-0.001019383066009,0.0010193830667249,-0.0010193830660731,0.0010193830664511,-0.00099729205964086,0.00099729205892485,-0.00099729205833999,0.00099729205728679,-0.00099729206027877,0.00099729205705607,-0.00099729205972157,0.00099729205711318,-7.5351785701729e-12,7.3873060875758e-12,-0.0010092211863334,0.0010092211862642,-1.1671143454579e-13,8.0012643903946e-14,-0.001019383068944,0.0010193830638088,-0.0010193830688242,0.0010193830636752,-0.0010193830638701,0.0010193830688204,-0.0010193830637057,0.0010193830688361,-0.00099729205011985,0.00099729206520116,-0.00099729206543755,0.00099729205009652,0.755546253093,0.4847062542536,1368840,32768,0.0041962624011539,0.0041962624013576,0.0041962624010817,36.751299037698,36.750791975602,0.00020921039230158,0.00020921039230158,0.00020921039230158,722623.65754064,0.0126683951272
6393600,0.70859320091633,0.012193133227323,0.0040643777424048,0.0040643777425905,0.0040643777423279,-0.0010270372721882,0.0010270372717901,6.9634497860948e-12,-7.3615951083226e-12,1.730103028893e-14,-3.6944272848412e-13,-0.0010377724737997,0.0010377724785313,-0.0010377724787471,0.00103777247355,-0.0010377724746824,0.0010377724787966,-0.0010377724793496,0.0010377724740285,-0.0010144656251932,0.0010144656395025,-0.0010144656402166,0.0010144656247654,-6.0363764751951e-13,-1.7815227815843e-13,2.4926132641405e-13,6.603461504078e-14,-0.0010270372722053,0.0010270372718713,-0.0010377724762118,0.0010377724766515,-0.0010377724762729,0.0010377724766994,-0.0010377724761239,0.0010377724769274,-0.0010377724761851,0.001037772476653,-0.001014465632444,0.0010144656318156,-0.0010144656311429,0.0010144656301841,-0.0010144656330957,0.0010144656299376,-0.0010144656325056,0.001014465630024,-7.5034790679827e-12,7.3539506359737e-12,-0.0010270372720052,0.0010270372719356,-1.1643026666469e-13,7.8993998552274e-14,-0.0010377724790932,0.0010377724739782,-0.0010377724789714,0.001037772473843,-0.0010377724740386,0.0010377724789693,-0.0010377724738728,0.0010377724789827,-0.0010144656229972,0.0010144656380133,-0.0010144656382516,0.0010144656229754,0.75471974190626,0.48538089711844,1368840,32768,0.0042701814744138,0.0042701814746178,0.0042701814743361,36.743878282644,36.74337120705,0.00020915102626115,0.00020915102626115,0.00020915102626115,728954.19425321,0.012892990697427
6480000,0.72163103823568,0.01240860738524,0.0041362024617105,0.0041362024618964,0.004136202461633,-0.0010443072051347,0.0010443072047378,6.9325827437677e-12,-7.3472753104885e-12,3.3787453110618e-14,-3.7660540672804e-13,-0.0010555753725233,0.001055575377214,-0.0010555753774562,0.0010555753722675,-0.0010555753734009,0.0010555753774829,-0.0010555753780304,0.0010555753727537,-0.0010311688051698,0.0010311688193043,-0.001031168820165,0.0010311688046424,-5.7818508684248e-13,-1.2823064146545e-13,2.8720610840348e-13,1.0570496196244e-13,-0.0010443072051176,0.0010443072048643,-0.0010555753748613,0.0010555753754001,-0.0010555753749456,0.0010555753754589,-0.0010555753747737,0.0010555753757002,-0.0010555753748677,0.0010555753753986,-0.0010311688122969,0.0010311688117683,-0.0010311688110239,0.001031168810177,-0.0010311688129816,0.0010311688098022,-0.0010311688124043,0.001031168809907,-7.4900195379856e-12,7.3219915534782e-12,-0.0010443072049579,0.0010443072048794,-1.2444958050368e-13,6.9426290839177e-14,-0.0010555753778095,0.0010555753727035,-0.0010555753776344,0.0010555753725838,-0.0010555753727698,0.001055575377652,-0.0010555753726069,0.0010555753777056,-0.0010311688030163,0.0010311688179305,-0.0010311688181066,0.001031168802871,0.75876646030373,0.56135094059271,1368840,32768,0.0043418294305411,0.0043418294307682,0.0043418294304683,36.736457507634,36.735950438499,0.00020909166006107,0.00020909166006107,0.00020909166006107,729128.08326414,0.013110732915806
6566400,0.7342130986147,0.012617449039773,0.0042058163465543,0.0042058163467419,0.0042058163464767,-0.0010612493978836,0.0010612493974681,6.9129347851758e-12,-7.3293086534752e-12,3.5513532733011e-14,-4.0333125203652e-13,-0.0010729104001168,0.0010729104047976,-0.0010729104050427,0.0010729103998704,-0.0010729104009938,0.0010729104050628,-0.001072910405616,0.0010729104003397,-0.0010477072800969,0.0010477072943145,-0.0010477072950403,0.0010477072796734,-5.5841576431112e-13,-7.9438955547378e-14,3.1445759941854e-13,1.3592739162914e-13,-0.0010612493978271,0.0010612493976302,-0.0010729104024489,0.0010729104030057,-0.0010729104025064,0.0010729104030555,-0.0010729104023633,0.0010729104032876,-0.0010729104024052,0.0010729104030245,-0.001047707287234,0.0010477072867511,-0.0010477072859796,0.001047707285189,-0.0010477072879554,0.0010477072848784,-0.0010477072872983,0.0010477072849261,-7.4639550401205e-12,7.3102122662685e-12,-0.0010612493976922,0.0010612493976186,-1.2163199010855e-13,6.94314083299e-14,-0.0010729104053575,0.0010729104002816,-0.0010729104052371,0.0010729104001593,-0.0010729104003403,0.00107291040527,-0.0010729104001571,0.0010729104052527,-0.0010477072779144,0.0010477072928588,-0.00104770729315,0.0010477072779131,0.76199620391264,0.61978136300686,1368840,32768,0.0044121128777723,0.0044121128779912,0.0044121128776874,36.729622412901,36.729153963061,0.00020903697930321,0.00020903697930321,0.00020903697930321,703201.39372518,0.013324373169585
6652800,0.74665268726863,0.012824961212069,0.004274987070653,0.0042749870708419,0.0042749870705742,-0.0010789052622118,0.001078905261763,6.8452348827731e-12,-7.3211808429507e-12,4.0299783575157e-14,-3.9859677902436e-13,-0.0010909239170818,0.0010909239216624,-0.0010909239219688,0.0010909239167524,-0.0010909239179123,0.0010909239218731,-0.0010909239225052,0.0010909239171177,-0.0010650173571247,0.0010650173709028,-0.001065017372125,0.0010650173565715,-5.2218840044399e-13,-4.2066141378844e-14,3.0856798522457e-13,1.1940758747429e-13,-0.0010789052621151,0.0010789052619624,-0.0010909239192765,0.0010909239199643,-0.0010909239193147,0.0010909239199454,-0.0010909239191801,0.0010909239202877,-0.0010909239192373,0.0010909239199222,-0.0010650173642204,0.001065017363668,-0.0010650173629519,0.0010650173620987,-0.0010650173647351,0.0010650173618639,-0.0010650173641623,0.001065017362023,-7.4414435513604e-12,7.2557365187005e-12,-0.0010789052619973,0.0010789052619372,-1.2306918149745e-13,7.8824121388963e-14,-0.0010909239222387,0.0010909239172008,-0.0010909239221317,0.0010909239170923,-0.0010909239172341,0.0010909239221862,-0.0010909239170169,0.001090923922178,-0.0010650173551611,0.0010650173698026,-0.0010650173700182,0.0010650173547766,0.76550576053774,0.67821178542102,1368840,32768,0.0044853518345849,0.0044853518347979,0.0044853518345013,37.16886915621,37.197859537707,0.00021255095324968,0.00021255095324968,0.00021255095324968,675955.31912269,0.013547044607816
6739200,0.75894285924877,0.013031161668997,0.0043437205562957,0.0043437205564854,0.0043437205562158,-0.0010965064553225,0.0010965064548517,6.839092143959e-12,-7.2740938990716e-12,7.5636836405391e-14,-4.7974228537896e-13,-0.0011088471755441,0.001108847180142,-0.0011088471804172,0.0011088471752704,-0.0011088471764969,0.0011088471803618,-0.0011088471810941,0.0011088471756581,-0.0010823365516292,0.001082336565757,-0.0010823365664851,0.00108233655123,-7.2954752164752e-13,-1.3520035501608e-13,2.0408441242011e-13,1.2665289554686e-14,-0.0010965064553463,0.0010965064549256,-0.0011088471779605,0.0011088471782843,-0.0011088471780595,0.0011088471783084,-0.0011088471778489,0.0011088471786429,-0.0011088471779216,0.0011088471783646,-0.0010823365586477,0.0010823365581077,-0.0010823365573827,0.0010823365563097,-0.0010823365594363,0.0010823365561449,-0.0010823365586849,0.0010823365560582,-7.4079198107818e-12,7.2339261849912e-12,-0.0010965064550972,0.0010965064550334,-1.0235763775031e-13,1.0166018846867e-13,-0.0011088471807619,0.0011088471757155,-0.001108847180604,0.0011088471755528,-0.0011088471757794,0.0011088471806247,-0.0011088471755832,0.0011088471806476,-0.0010823365492128,0.0010823365640274,-0.0010823365644284,0.0010823365493572,0.76954158034553,0.73664220783519,1368840,32768,0.0045583587893558,0.0045583587895583,0.0045583587892653,37.634759503745,37.666565112353,0.00021627807602996,0.00021627807602996,0.00021627807602996,645307.68626307,0.013769058936946
6825600,0.77105905964705,0.013237418282994,0.0044124727609609,0.0044124727611529,0.0044124727608807,-0.0011141141722659,0.0011141141717639,6.8138210924428e-12,-7.2389732072787e-12,6.9412703018981e-14,-6.0862018648284e-13,-0.0011266809528109,0.0011266809572719,-0.0011266809576807,0.0011266809521801,-0.0011266809533945,0.0011266809567895,-0.001126680958434,0.0011266809520335,-0.0010998151803008,0.0010998151929918,-0.0010998151950326,0.0010998151801704,-8.9483836918441e-13,-1.7585996583405e-13,1.2733263948703e-13,-1.7176581149589e-13,-0.0011141141723628,0.001114114171801,-0.001126680954728,0.0011266809554301,-0.001126680955274,0.0011266809560173,-0.0011266809551627,0.0011266809555385,-0.0011266809545461,0.0011266809557668,-0.0010998151865244,0.0010998151873432,-0.0010998151867793,0.0010998151847033,-0.0010998151889166,0.0010998151843001,-0.0010998151874526,0.0010998151850712,-7.4388352781002e-12,7.1426460911825e-12,-0.0011141141721345,0.0011141141719115,-2.4079917316232e-13,6.9312500197756e-14,-0.0011266809577911,0.0011266809527197,-0.0011266809577727,0.0011266809518131,-0.0011266809527924,0.0011266809581044,-0.0011266809530406,0.0011266809578719,-0.0010998151787204,0.0010998151915704,-0.0010998151921637,0.0010998151769121,0.78034425059156,0.88014327974572,1368840,32768,0.0046313877951368,0.0046313877954147,0.0046313877951705,38.103117361495,38.135270687,0.00022002493889196,0.00022002493889196,0.00022002493889196,604661.22864731,0.013991187706225
6912000,0.78297580339797,0.013437212253138,0.0044790707510047,0.0044790707512012,0.0044790707509318,-0.0011313648909117,0.0011313648903861,6.7496840517854e-12,-7.3045605565714e-12,7.9411500503758e-14,-7.5256334794159e-13,-0.0011441481593774,0.0011441481641875,-0.0011441481643399,0.0011441481595599,-0.0011441481603603,0.0011441481643649,-0.0011441481648608,0.0011441481596673,-0.0011168623518646,0.001116862364829,-0.0011168623666777,0.0011168623506833,-6.2924045360666e-13,2.4244009362156e-13,3.937007374186e-13,1.9271173043598e-13,-0.0011313648907001,0.0011313648906555,-0.0011441481620438,0.0011441481625354,-0.001144148161778,0.0011441481627617,-0.0011441481619266,0.001144148162788,-0.0011441481616703,0.0011441481626316,-0.0011168623582447,0.0011168623583698,-0.0011168623573943,0.0011168623568755,-0.0011168623587935,0.0011168623555927,-0.0011168623591312,0.0011168623563158,-7.3248569953526e-12,7.2587413092591e-12,-0.0011313648906706,0.0011313648905656,-1.4012548396853e-13,7.3465402741198e-14,-0.0011441481648496,0.0011441481598816,-0.0011441481647503,0.0011441481594812,-0.0011441481598325,0.0011441481647434,-0.0011441481598232,0.001144148164355,-0.0011168623495919,0.0011168623640866,-0.0011168623638601,0.0011168623488312,0.7681282573892,0.66927950108049,1368840,32768,0.004702930634706,0.0047029306348257,0.0047029306345782,38.571771875515,38.603976261646,0.00022377417500412,0.00022377417500412,0.00022377417500412,565362.25515782,0.01420884455986
6998400,0.7946681034557,0.013632298035198,0.0045440993450231,0.0045440993452218,0.0045440993449528,-0.0011475292447026,0.0011475292441561,6.7754622201624e-12,-7.353590882258e-12,4.5944155261124e-14,-6.2024344904721e-13,-0.0011609069500148,0.0011609069546493,-0.0011609069548638,0.0011609069498742,-0.0011609069508383,0.0011609069547845,-0.0011609069556081,0.0011609069501306,-0.0011324554596063,0.001132455473329,-0.0011324554741007,0.0011324554587199,-7.3778974044163e-13,-3.0664680862108e-14,2.4850217313507e-13,7.5147116071893e-14,-0.001147529244635,0.0011475292443273,-0.0011609069524041,0.0011609069527711,-0.0011609069525378,0.0011609069529371,-0.0011609069522531,0.0011609069531478,-0.0011609069522669,0.0011609069529743,-0.0011324554662867,0.001132455465962,-0.0011324554651567,0.0011324554646176,-0.0011324554675233,0.0011324554635988,-0.0011324554667397,0.0011324554643718,-7.3559425751213e-12,7.3032643608752e-12,-0.0011475292444452,0.0011475292443768,-1.2307047557557e-13,6.2201688016422e-14,-0.0011609069552602,0.0011609069502637,-0.0011609069551277,0.0011609069500715,-0.0011609069501959,0.0011609069550201,-0.0011609069501735,0.001160906955074,-0.0011324554572027,0.0011324554720385,-0.0011324554720623,0.0011324554572522,0.76400246333314,0.61390026052372,1368840,32768,0.0047699630150406,0.0047699630152553,0.0047699630149645,39.040433132082,39.072681836293,0.00022752346505665,0.00022752346505665,0.00022752346505665,590395.80160397,0.014412822939676
7084800,0.80611169755592,0.013822635281924,0.0046075450939313,0.0046075450941306,0.0046075450938617,-0.0011635960081912,0.0011635960076757,6.8089948134117e-12,-7.319299282784e-12,6.4882047309756e-14,-5.6558519234884e-13,-0.0011774388785275,0.0011774388831575,-0.0011774388834373,0.0011774388782569,-0.0011774388794485,0.0011774388833404,-0.0011774388840936,0.0011774388786251,-0.0011480658210287,0.0011480658349029,-0.0011480658357707,0.001148065820311,-7.056025472677e-13,-3.3543887021983e-14,3.0410741560955e-13,6.5529189304718e-14,-0.001163596008135,0.0011635960078388,-0.0011774388809234,0.0011774388813494,-0.0011774388810148,0.0011774388814187,-0.0011774388807896,0.0011774388816823,-0.0011774388808228,0.0011774388814188,-0.0011480658279411,0.0011480658275246,-0.0011480658266632,0.0011480658257792,-0.0011480658287944,0.0011480658252823,-0.00114806582803,0.0011480658257151,-7.382899104559e-12,7.2755408548681e-12,-0.0011635960079437,0.0011635960078911,-1.2865242269797e-13,1.2163834285565e-13,-0.0011774388837505,0.0011774388786935,-0.0011774388836164,0.0011774388785226,-0.00117743887876,0.0011774388836316,-0.0011774388785867,0.0011774388836259,-0.0011480658186176,0.0011480658335195,-0.0011480658336213,0.0011480658186487,0.76187602205896,0.59419810702723,1368840,32768,0.0048365863045409,0.0048365863047625,0.0048365863044746,39.509094294879,39.541387410939,0.00023127275435903,0.00023127275435903,0.00023127275435903,591675.30896103,0.014615596953547
7171200,0.81728417547961,0.014007242797505,0.0046690809324578,0.0046690809326586,0.0046690809323882,-0.0011792743618794,0.0011792743613835,6.847311407572e-12,-7.2377401273014e-12,1.796781874253e-14,-4.6659059891866e-13,-0.0011935570907019,0.0011935570953728,-0.0011935570956875,0.0011935570902403,-0.0011935570915668,0.0011935570954683,-0.0011935570960784,0.0011935570911998,-0.0011632862911612,0.0011632863055653,-0.0011632863061798,0.0011632862910846,-6.1976940470541e-13,-9.3308267143547e-14,2.9540874017165e-13,5.4446513166985e-14,-0.0011792743618586,0.0011792743615291,-0.0011935570929365,0.0011935570933601,-0.0011935570934242,0.0011935570931394,-0.0011935570928165,0.001193557093782,-0.0011935570929876,0.001193557093608,-0.0011632862988317,0.0011632862981305,-0.0011632862977129,0.0011632862968697,-0.0011632862993902,0.0011632862958483,-0.001163286299102,0.0011632862964795,-7.5209009475209e-12,7.094568795205e-12,-0.0011792743617216,0.0011792743614651,-2.4202266519724e-13,1.0672085739812e-14,-0.0011935570959414,0.0011935570908265,-0.001193557096073,0.0011935570903435,-0.0011935570908668,0.0011935570956396,-0.0011935570905242,0.0011935570959081,-0.0011632862892355,0.0011632863038487,-0.0011632863043379,0.0011632862890895,0.75690079578599,0.53332239675741,1368840,32768,0.0049015945827323,0.0049015945829908,0.0049015945825743,39.977756249522,40.010092985586,0.00023502204999617,0.00023502204999617,0.00023502204999617,589368.48810902,0.014813495132349
7257600,0.8281644178515,0.014185705154999,0.0047285683849566,0.0047285683851578,0.0047285683848844,-0.0011943410605522,0.001194341059969,6.7949666096108e-12,-7.3241131357241e-12,-4.546919918247e-14,-5.0580729793425e-13,-0.001209155679577,0.001209155684024,-0.0012091556844153,0.0012091556792176,-0.0012091556802688,0.0012091556839576,-0.0012091556848839,0.0012091556797035,-0.0011777900995407,0.0011777901134202,-0.0011777901138382,0.0011777900983917,-5.9985816003909e-13,-9.8497593907294e-14,3.722179231156e-13,8.6594560477971e-14,-0.0011943410604764,0.0011943410601562,-0.0012091556818769,0.001209155682274,-0.0012091556818217,0.0012091556821894,-0.0012091556812647,0.0012091556823331,-0.001209155681752,0.0012091556824163,-0.0011777901059,0.0011777901061009,-0.0011777901052627,0.0011777901046031,-0.0011777901074782,0.0011777901036895,-0.0011777901069571,0.0011777901049728,-7.2984024505797e-12,7.3501839275146e-12,-0.0011943410602343,0.0011943410602795,-9.6624165845118e-14,2.0128320387746e-13,-0.0012091556846317,0.0012091556794558,-0.001209155684311,0.0012091556794121,-0.0012091556795986,0.0012091556846998,-0.0012091556794017,0.0012091556844122,-0.0011777900970871,0.0011777901125916,-0.0011777901121041,0.0011777900977138,0.75136027500894,0.46898638272369,1368840,32768,0.0049640624963533,0.0049640624965842,0.004964062496338,40.446417747655,40.478798560232,0.00023877134198124,0.00023877134198124,0.00023877134198124,598901.74954808,0.015003697220237
7344000,0.83863412457634,0.014356459412006,0.0047854864706284,0.0047854864708247,0.0047854864705529,-0.0012084089091291,0.0012084089086721,6.8315468597563e-12,-7.275552972145e-12,6.5896957481418e-15,-4.4117540474716e-13,-0.0012238049777184,0.001223804982305,-0.0012238049826425,0.0012238049774364,-0.0012238049785515,0.0012238049825802,-0.0012238049832177,0.0012238049779391,-0.0011912428485647,0.0011912428625263,-0.0011912428631839,0.0011912428480281,-5.7772463032087e-13,-8.7752686862711e-14,3.6236663583037e-13,8.5745880522208e-14,-0.0012084089090755,0.0012084089088232,-0.0012238049800257,0.0012238049805344,-0.0012238049801277,0.0012238049805605,-0.0012238049799327,0.0012238049807803,-0.0012238049800143,0.0012238049805079,-0.0011912428555565,0.0011912428552902,-0.0011912428543285,0.0011912428534367,-0.0011912428562465,0.0011912428532699,-0.0011912428557711,0.0011912428535043,-7.3501732219593e-12,7.285898538448e-12,-0.0012084089088888,0.0012084089088723,-1.2861430621535e-13,1.5951724450474e-13,-0.0012238049828737,0.0012238049777986,-0.0012238049827074,0.001223804977687,-0.0012238049779004,0.0012238049827757,-0.0012238049776768,0.0012238049828151,-0.0011912428464172,0.0011912428612647,-0.0011912428613835,0.0011912428465933,0.74719297805595,0.42818194048028,1368840,32768,0.0050223853679125,0.0050223853681148,0.0050223853678295,40.737816754527,40.75839951913,0.00024110253403621,0.00024110253403621,0.00024110253403621,612367.30786723,0.0151813114963
7430400,0.84856026300329,0.014517643838689,0.0048392146128579,0.0048392146130516,0.0048392146127798,-0.0012212814881881,0.0012212814876977,6.8109475478747e-12,-7.2948780288366e-12,4.9986414125831e-15,-4.7428356978603e-13,-0.0012372304476988,0.0012372304523112,-0.0012372304526191,0.001237230447404,-0.0012372304485775,0.0012372304525367,-0.0012372304532364,0.0012372304478221,-0.0012035221809135,0.0012035221948528,-0.0012035221957143,0.0012035221803717,-5.7652719631343e-13,-5.4673065069509e-14,3.7221921719371e-13,8.2354440010741e-14,-0.0012212814881047,0.001221281487885,-0.0012372304499975,0.001237230450558,-0.0012372304501246,0.0012372304505789,-0.0012372304499019,0.0012372304508411,-0.0012372304499531,0.001237230450558,-0.0012035221879133,0.0012035221875627,-0.0012035221866688,0.0012035221858518,-0.0012035221886304,0.0012035221855114,-0.0012035221880061,0.0012035221857316,-7.3813210939426e-12,7.2536761110563e-12,-0.0012212814879487,0.0012212814878997,-1.5481185883927e-13,1.4655781687694e-13,-0.0012372304529085,0.0012372304478469,-0.001237230452742,0.0012372304476943,-0.0012372304479046,0.0012372304527966,-0.0012372304477212,0.0012372304528115,-0.0012035221787136,0.0012035221935257,-0.0012035221936924,0.0012035221786916,0.74405231165294,0.40318419993587,1368840,32768,0.0050757497362303,0.0050757497364455,0.0050757497361528,40.784549264742,40.788401559428,0.00024147639411794,0.00024147639411794,0.00024147639411794,621640.87536781,0.015343853151685
7516800,0.85795358509116,0.014669558829095,0.0048898529429932,0.0048898529431868,0.0048898529429146,-0.0012334179877769,0.0012334179872782,6.7977986701521e-12,-7.2931596107448e-12,9.3966541151375e-15,-4.8285786667068e-13,-0.0012498859587736,0.0012498859633721,-0.0012498859636785,0.0012498859584705,-0.0012498859596559,0.0012498859635951,-0.0012498859642992,0.0012498859588993,-0.0012150931900388,0.0012150932039418,-0.0012150932048056,0.0012150931894634,-5.6778300756004e-13,-3.2466493465028e-14,3.9131004574671e-13,9.4962598957787e-14,-0.0012334179876703,0.0012334179874867,-0.0012498859610512,0.0012498859616297,-0.0012498859611728,0.0012498859616596,-0.0012498859609465,0.0012498859619297,-0.0012498859610053,0.0012498859616446,-0.0012150931969288,0.0012150931966615,-0.0012150931957955,0.0012150931949373,-0.0012150931977192,0.0012150931945953,-0.0012150931970832,0.0012150931948866,-7.3669730616769e-12,7.2531223044453e-12,-0.0012334179875306,0.0012334179874887,-1.5468315688868e-13,1.5312696913503e-13,-0.0012498859639707,0.0012498859589204,-0.0012498859638144,0.0012498859587675,-0.0012498859589893,0.0012498859638635,-0.0012498859587877,0.0012498859638741,-0.0012150931877927,0.0012150932026177,-0.0012150932027497,0.0012150931877834,0.74114180603497,0.38129582520854,1368840,32768,0.0051260599310647,0.0051260599312758,0.0051260599309906,40.816147281607,40.818403599726,0.00024172917825286,0.00024172917825286,0.00024172917825286,627132.40874517,0.015497116338538
7603200,0.86683347746496,0.014812700736174,0.0049375669120195,0.004937566912213,0.004937566911941,-0.0012448498237063,0.0012448498231978,6.7959587704774e-12,-7.2959814657156e-12,1.802362586119e-14,-4.9596805439874e-13,-0.0012618230452787,0.0012618230498636,-0.0012618230501754,0.001261823044962,-0.0012618230461596,0.0012618230500772,-0.0012618230508024,0.0012618230453795,-0.001225973292187,0.0012259733061072,-0.0012259733069678,0.0012259732916206,-5.6248081659715e-13,-4.9099823563505e-15,4.132724924561e-13,1.0326794817625e-13,-0.0012448498235779,0.0012448498234288,-0.0012618230475216,0.0012618230481572,-0.0012618230476495,0.0012618230481679,-0.001261823047418,0.0012618230484481,-0.0012618230474849,0.001261823048166,-0.0012259732990941,0.001225973298835,-0.0012259732979225,0.001225973297114,-0.0012259732998903,0.0012259732967638,-0.0012259732991943,0.0012259732970611,-7.3662451427379e-12,7.2547010209225e-12,-0.0012448498234516,0.001244849823415,-1.5959141870935e-13,1.618059981143e-13,-0.0012618230504621,0.0012618230454184,-0.0012618230502993,0.0012618230452738,-0.0012618230454773,0.0012618230503553,-0.0012618230452782,0.0012618230503798,-0.0012259732899213,0.0012259733047679,-0.0012259733049142,0.001225973289946,0.73878159339945,0.36716775327241,1368840,32768,0.0051734466383714,0.005173446638584,0.0051734466382936,40.846311615012,40.848405640024,0.0002419704929201,0.0002419704929201,0.0002419704929201,631433.70624764,0.015641495034354
7689600,0.87522028902216,0.014947615657767,0.0049825385525506,0.004982538552744,0.004982538552472,-0.001255644456302,0.0012556444557859,6.7858104481488e-12,-7.2967401484207e-12,2.3184438790133e-14,-5.0777042913841e-13,-0.0012730940602722,0.0012730940648579,-0.0012730940651736,0.0012730940599591,-0.0012730940611664,0.0012730940650683,-0.0012730940658093,0.0012730940603734,-0.0012362480245753,0.0012362480384534,-0.001236248039339,0.0012362480239923,-5.482781181269e-13,2.6602657895297e-14,4.3787068217476e-13,1.2857545446107e-13,-0.0012556444561477,0.001255644456043,-0.0012730940625093,0.0012730940631691,-0.0012730940626379,0.001273094063185,-0.0012730940623969,0.0012730940634745,-0.0012730940624588,0.001273094063183,-0.0012362480314126,0.0012362480312362,-0.0012362480302809,0.0012362480295054,-0.0012362480322393,0.0012362480291689,-0.0012362480315275,0.0012362480294456,-7.3578895156436e-12,7.2537109335219e-12,-0.001255644456042,0.0012556444560099,-1.5797746801444e-13,1.6264820767949e-13,-0.0012730940654607,0.0012730940604166,-0.0012730940652939,0.0012730940602706,-0.0012730940604763,0.0012730940653575,-0.0012730940602741,0.0012730940653785,-0.0012362480223078,0.0012362480371347,-0.0012362480372744,0.0012362480223247,0.73730524463454,0.3653920339003,1368840,32768,0.0052181899350394,0.0052181899352522,0.0052181899349647,40.876330328504,40.878407680322,0.00024221064262803,0.00024221064262803,0.00024221064262803,632895.14154394,0.015777838781178
7776000,0.88313452991129,0.015074684674398,0.0050248948914278,0.0050248948916212,0.0050248948913493,-0.0012658553327785,0.0012658553322542,6.7779165275379e-12,-7.2972672499651e-12,2.870359371315e-14,-5.221008737061e-13,-0.0012837394728762,0.0012837394774579,-0.0012837394777741,0.0012837394725608,-0.0012837394737767,0.0012837394776622,-0.0012837394784158,0.0012837394729698,-0.0012459826869483,0.0012459827008109,-0.0012459827017053,0.0012459826863523,-5.3845052129442e-13,5.6671739305501e-14,4.5907215213146e-13,1.5016179501318e-13,-0.0012658553325994,0.0012658553325356,-0.001283739475094,0.001283739475786,-0.0012837394752225,0.001283739475803,-0.0012837394749752,0.0012837394760992,-0.001283739475036,0.0012837394758075,-0.001245982693747,0.0012459826936268,-0.0012459826926216,0.0012459826918865,-0.0012459826945888,0.0012459826915406,-0.0012459826938641,0.0012459826918335,-7.3543473297373e-12,7.2498914619688e-12,-0.001265855332514,0.0012658553324818,-1.5761471439043e-13,1.6260609131906e-13,-0.0012837394780599,0.0012837394730196,-0.0012837394778924,0.0012837394728726,-0.0012837394730778,0.0012837394779577,-0.001283739472877,0.0012837394779768,-0.0012459826846621,0.0012459826994873,-0.0012459826996272,0.0012459826846836,0.73590666258523,0.36361631452819,1368840,32768,0.0052605117206571,0.0052605117208692,0.0052605117205809,40.906333988614,40.908409720621,0.00024245067190891,0.00024245067190891,0.00024245067190891,630429.17368325,0.015906820564291
7862400,0.89059667207857,0.015194281840196,0.0050647606133605,0.0050647606135539,0.0050647606132819,-0.0012754680364657,0.0012754680359261,6.7605364702515e-12,-7.2994518302865e-12,3.755405863164e-14,-5.4447269026246e-13,-0.0012937675088916,0.0012937675134641,-0.0012937675137842,0.0012937675085708,-0.0012937675098009,0.0012937675136599,-0.0012937675144387,0.0012937675089713,-0.0012551417958096,0.0012551418096142,-0.0012551418105585,0.0012551417951768,-5.3137960495312e-13,9.531791163264e-14,4.7874631580515e-13,1.7415503262447e-13,-0.0012754680362575,0.0012754680362367,-0.0012937675110921,0.0012937675118126,-0.0012937675112168,0.0012937675118294,-0.0012937675109632,0.0012937675121352,-0.0012937675110192,0.0012937675118445,-0.0012551418025383,0.0012551418024846,-0.0012551418014366,0.0012551418007547,-0.0012551418034108,0.0012551418003901,-0.0012551418026558,0.0012551418007125,-7.348046228114e-12,7.2410043217002e-12,-0.0012754680361944,0.0012754680361607,-1.5837033836546e-13,1.5758318594184e-13,-0.0012937675140667,0.0012937675090327,-0.0012937675139034,0.0012937675088857,-0.0012937675090894,0.0012937675139677,-0.0012937675088891,0.0012937675139851,-0.0012551417935186,0.0012551418083221,-0.0012551418084533,0.0012551417935137,0.73456826489768,0.36184059515609,1368840,32768,0.0053003525358114,0.0053003525360237,0.0053003525357355,40.936336080546,40.938411760919,0.00024269068864436,0.00024269068864436,0.00024269068864436,627093.79329761,0.016028256383569
7948800,0.89762701927443,0.015306766724124,0.0051022555746697,0.0051022555748632,0.0051022555745911,-0.0012845111860228,0.0012845111854744,6.7493038575177e-12,-7.2926019218995e-12,4.3149475930776e-14,-5.5792742628834e-13,-0.0013032070955995,0.0013032071001643,-0.0013032071004882,0.001303207095277,-0.00130320709652,0.0013032071003536,-0.0013032071011515,0.0013032070956651,-0.0012637535177023,0.0012637535314965,-0.0012637535324218,0.0012637535170632,-5.1758698219063e-13,1.2850557424292e-13,5.0127450993722e-13,1.947925786322e-13,-0.0012845111857891,0.0012845111858111,-0.0013032070977808,0.0013032070985358,-0.0013032070979078,0.0013032070985515,-0.0013032070976459,0.0013032070988659,-0.0013032070977051,0.0013032070985775,-0.0012637535243984,0.0012637535243829,-0.0012637535232854,0.0012637535226487,-0.0012637535252761,0.0012637535222786,-0.00126375352449,0.0012637535226161,-7.3361138279347e-12,7.2348426275828e-12,-0.0012845111857455,0.0012845111857147,-1.5826287106028e-13,1.5954689065789e-13,-0.0013032071007678,0.0013032070957411,-0.0013032071006026,0.001303207095593,-0.001303207095798,0.0013032071006708,-0.0013032070955962,0.0013032071006888,-0.0012637535153804,0.0012637535301812,-0.0012637535303227,0.0012637535154146,0.73327776288855,0.36006487578398,1368840,32768,0.0053378312902892,0.0053378312905025,0.0053378312902126,40.966338005075,40.968413801217,0.0002429307040406,0.0002429307040406,0.0002429307040406,623038.15291235,0.016142506001121
8035200,0.90424561310782,0.015412489839674,0.0051374966131863,0.0051374966133799,0.0051374966131078,-0.0012930127383979,0.001293012737832,6.7345720575641e-12,-7.300899668409e-12,5.4206755785526e-14,-5.8460128789076e-13,-0.0013120864358823,0.0013120864404429,-0.0013120864407699,0.0013120864355571,-0.001312086436816,0.0013120864406224,-0.0013120864414458,0.0013120864359367,-0.0012718453483535,0.0012718453620828,-0.0012718453630632,0.0012718453476795,-5.1515460061586e-13,1.6905192381506e-13,5.2879490450218e-13,2.1437900969194e-13,-0.0012930127381335,0.0012930127381991,-0.0013120864380393,0.0013120864388333,-0.0013120864381773,0.0013120864388459,-0.0013120864378919,0.001312086439174,-0.0013120864379572,0.0013120864388797,-0.0012718453549952,0.0012718453550472,-0.0012718453538792,0.0012718453533153,-0.0012718453559021,0.0012718453529142,-0.0012718453550777,0.00127184535328,-7.3310710408119e-12,7.233471140069e-12,-0.0012930127381098,0.001293012738084,-1.5705102572838e-13,1.6865908287491e-13,-0.0013120864410518,0.0013120864360217,-0.0013120864408794,0.0013120864358814,-0.0013120864360801,0.001312086440951,-0.001312086435874,0.0013120864409766,-0.0012718453460268,0.0012718453608059,-0.0012718453609331,0.0012718453460402,0.73202632214388,0.35828915641187,1368840,32768,0.0053730641154736,0.0053730641156863,0.0053730641153988,40.996339908582,40.998415841515,0.00024317071926865,0.00024317071926865,0.00024317071926865,618391.92857611,0.016249921032386
8121600,0.91048290961572,0.01551196277796,0.0051706542592816,0.0051706542594752,0.0051706542592031,-0.0013010778818385,0.0013010778812556,6.7239404411762e-12,-7.3039113411104e-12,6.2064368682022e-14,-6.1786897746804e-13,-0.001320510734359,0.0013205107389148,-0.0013205107392433,0.0013205107340306,-0.0013205107353038,0.0013205107390811,-0.0013205107399341,0.0013205107343965,-0.0012795218820393,0.0012795218957354,-0.0012795218967342,0.0012795218813381,-5.105046397278e-13,2.1517792646205e-13,5.4772526736906e-13,2.4529702105027e-13,-0.0013010778815413,0.0013010778816557,-0.0013205107365023,0.0013205107373238,-0.0013205107366324,0.0013205107373403,-0.0013205107363416,0.0013205107376797,-0.0013205107363979,0.0013205107373874,-0.0012795218886324,0.0012795218887373,-0.0012795218875184,0.0012795218870203,-0.0012795218895534,0.0012795218865818,-0.0012795218887072,0.0012795218870082,-7.330488411552e-12,7.2254620318006e-12,-0.0013010778815459,0.0013010778815144,-1.5626310862224e-13,1.5753589326895e-13,-0.0013205107395246,0.0013205107344993,-0.001320510739358,0.0013205107343537,-0.0013205107345556,0.0013205107394251,-0.0013205107343555,0.0013205107394444,-0.0012795218797053,0.0012795218944708,-0.0012795218946069,0.0012795218797223,0.73080588733822,0.35651343703977,1368840,32768,0.0054064871721568,0.0054064871723698,0.0054064871720869,41.059593935136,41.063890215266,0.00024367675148108,0.00024367675148108,0.00024367675148108,613225.16190398,0.016351829173238
8208000,0.91636906694953,0.015605688835682,0.0052018962785221,0.0052018962787158,0.0052018962784438,-0.0013087641390976,0.0013087641385074,6.7126607710565e-12,-7.3023602708474e-12,6.9453672355632e-14,-6.3073887841904e-13,-0.001328539179683,0.0013285391842305,-0.0013285391845628,0.0013285391793507,-0.0013285391806332,0.001328539184397,-0.0013285391852592,0.0013285391797141,-0.0012868388953096,0.0012868389089805,-0.0012868389100034,0.0012868388946092,-4.9867410408372e-13,2.4764258174794e-13,5.6575571655121e-13,2.6547128709323e-13,-0.0013087641387782,0.0013087641389296,-0.0013285391818106,0.0013285391826563,-0.0013285391819365,0.0013285391826793,-0.0013285391816472,0.0013285391830182,-0.0013285391816982,0.0013285391827296,-0.0012868389018679,0.0012868389020078,-0.0012868389007676,0.0012868389003066,-0.001286838902806,0.0012868388998697,-0.0012868389019364,0.0012868389003204,-7.3248060557323e-12,7.2182724279086e-12,-0.0013087641388023,0.001308764138768,-1.5855180341006e-13,1.5319496705774e-13,-0.0013285391848379,0.0013285391798199,-0.0013285391846762,0.0013285391796694,-0.0013285391798719,0.0013285391847399,-0.0013285391796768,0.0013285391847558,-0.0012868388929933,0.0012868389077291,-0.0012868389078841,0.0012868388929913,0.7296097901992,0.35473771766766,1368840,32768,0.0054383390184806,0.0054383390186936,0.0054383390184089,41.165058414666,41.172251607191,0.00024452046731732,0.00024452046731732,0.00024452046731732,607658.70088416,0.016448956217472
8294400,0.92191950237309,0.015693984465099,0.0052313281549945,0.0052313281551883,0.0052313281549162,-0.0013160207832423,0.0013160207826512,6.7136751812434e-12,-7.3028527263915e-12,7.0559373871327e-14,-6.2667459081553e-13,-0.0013361215290888,0.0013361215336365,-0.0013361215339724,0.001336121528756,-0.0013361215300416,0.0013361215337975,-0.0013361215346707,0.0013361215291178,-0.0012937466304205,0.0012937466440861,-0.0012937466451209,0.0012937466297188,-4.8369313527144e-13,2.5996208774843e-13,5.6833963761419e-13,2.8984323372346e-13,-0.0013160207829085,0.0013160207830883,-0.0013361215312104,0.0013361215320749,-0.0013361215313274,0.0013361215321023,-0.0013361215310468,0.0013361215324418,-0.0013361215310895,0.0013361215321578,-0.001293746636971,0.0012937466371474,-0.0012937466358456,0.0012937466354284,-0.0012937466378991,0.001293746635005,-0.0012937466370057,0.0012937466354258,-7.3303938262063e-12,7.2139403249573e-12,-0.0013160207829509,0.0013160207829091,-1.5019747039391e-13,1.3992137255694e-13,-0.0013361215342495,0.0013361215292304,-0.0013361215340951,0.0013361215290741,-0.0013361215292844,0.0013361215341511,-0.0013361215290959,0.0013361215341611,-0.0012937466280987,0.001293746642817,-0.0012937466429861,0.0012937466280762,0.72884500900865,0.35907401629265,1368840,32768,0.0054684096027814,0.0054684096029955,0.0054684096027121,41.273141051481,41.280612999116,0.00024538512841185,0.00024538512841185,0.00024538512841185,601714.17704009,0.016540660185906
8380800,0.92714870500566,0.015777107592081,0.0052590358639883,0.0052590358641822,0.0052590358639101,-0.0013228919618628,0.0013228919612495,6.7041885004668e-12,-7.3144025500229e-12,7.9575745486187e-14,-6.6978277389013e-13,-0.0013432867517589,0.0013432867563039,-0.0013432867566396,0.0013432867514228,-0.0013432867527278,0.0013432867564512,-0.001343286757357,0.0013432867517689,-0.0013003029777409,0.0013003029913653,-0.0013003029924326,0.0013003029769716,-4.9051401513354e-13,3.0529214412279e-13,5.8187822401967e-13,3.3519568647245e-13,-0.0013228919614922,0.0013228919617228,-0.0013432867538612,0.0013432867547558,-0.0013432867539729,0.0013432867547911,-0.0013432867536802,0.0013432867551331,-0.0013432867537129,0.0013432867548608,-0.0013003029842608,0.0013003029844598,-0.001300302983093,0.0013003029827945,-0.0013003029852092,0.0013003029822714,-0.0013003029842929,0.0013003029827928,-7.3356616064557e-12,7.210903123624e-12,-0.0013228919615652,0.0013228919615129,-1.3987907973131e-13,1.1842191170365e-13,-0.001343286756916,0.0013432867518941,-0.0013432867567663,0.0013432867517265,-0.0013432867519493,0.0013432867568179,-0.0013432867517681,0.001343286756813,-0.0013003029754224,0.0013003029901431,-0.001300302990306,0.0013003029753816,0.72822748410318,0.3649459305384,1368840,32768,0.0054968820455297,0.0054968820457425,0.0054968820454589,41.381471976954,41.388974391042,0.00024625177581563,0.00024625177581563,0.00024625177581563,594053.12912006,0.016627498030537
8467200,0.93207093984816,0.015855299348274,0.0052850997827195,0.0052850997829134,0.0052850997826413,-0.0013293768688239,0.0013293768681902,6.6734603215445e-12,-7.3136652196067e-12,9.5875335780186e-14,-7.0003664377282e-13,-0.0013500443402339,0.0013500443447651,-0.0013500443451084,0.0013500443398964,-0.0013500443412151,0.0013500443448992,-0.0013500443458393,0.0013500443402266,-0.0013064972150975,0.001306497228621,-0.0013064972297009,0.0013064972142781,-4.9187391476601e-13,3.5076737253284e-13,6.0154515262027e-13,3.4399619703466e-13,-0.0013293768684245,0.0013293768686925,-0.0013500443423145,0.0013500443432398,-0.0013500443424308,0.0013500443432719,-0.0013500443421203,0.0013500443436326,-0.001350044342159,0.0013500443433553,-0.0013064972215382,0.0013064972217828,-0.0013064972203738,0.0013064972201024,-0.0013064972224908,0.0013064972195669,-0.0013064972215014,0.0013064972201246,-7.3132145274926e-12,7.202075863879e-12,-0.0013293768685131,0.0013293768684679,-1.4028177331165e-13,1.2877571304918e-13,-0.0013500443453876,0.0013500443403721,-0.0013500443452329,0.0013500443402065,-0.0013500443404281,0.0013500443452858,-0.0013500443402393,0.0013500443452861,-0.0013064972127327,0.0013064972274171,-0.0013064972275514,0.0013064972127261,0.72765586295371,0.37081784478414,1368840,32768,0.0055237531325175,0.0055237531327306,0.0055237531324491,41.489828134894,41.497335782967,0.00024711862507915,0.00024711862507915,0.00024711862507915,585814.51351236,0.016709458732854
8553600,0.9367002584262,0.015928794018401,0.0053095980060949,0.0053095980062889,0.0053095980060169,-0.0013354872088005,0.0013354872081593,6.6692768022893e-12,-7.3091639453528e-12,1.0288562162077e-13,-7.1463025677149e-13,-0.0013564101316256,0.0013564101361519,-0.0013564101364949,0.0013564101312829,-0.0013564101326187,0.0013564101362791,-0.0013564101372355,0.0013564101316065,-0.0013123369014825,0.0013123369150166,-0.0013123369161401,0.0013123369006751,-4.8083759015344e-13,3.8382177450825e-13,6.241871079829e-13,3.6643634973869e-13,-0.0013354872083776,0.0013354872086846,-0.0013564101336901,0.0013564101346378,-0.0013564101338068,0.001356410134671,-0.0013564101334876,0.0013564101350411,-0.0013564101335249,0.0013564101347643,-0.0013123369079017,0.0013123369082053,-0.0013123369067474,0.0013123369065386,-0.0013123369088927,0.0013123369059985,-0.0013123369079028,0.0013123369065678,-7.3128414800654e-12,7.1935878878867e-12,-0.0013354872084863,0.0013354872084397,-1.4204413123753e-13,1.2722746622942e-13,-0.0013564101367686,0.001356410131759,-0.0013564101366157,0.0013564101315963,-0.0013564101318139,0.0013564101366706,-0.0013564101316278,0.0013564101366716,-0.0013123368991366,0.0013123369138171,-0.0013123369139823,0.0013123368991005,0.72712544206502,0.37668975902989,1368840,32768,0.0055490714883082,0.0055490714885203,0.0055490714882382,41.598186891831,41.605697174892,0.00024798549513465,0.00024798549513465,0.00024798549513465,577430.81531468,0.01678668944748
8640000,0.94105045850512,0.015997819770004,0.0053326065899626,0.0053326065901565,0.0053326065898846,-0.0013412410462949,0.0013412410456486,6.6596808895555e-12,-7.3041219817343e-12,1.0536701640409e-13,-7.2374641945545e-13,-0.0013624029144357,0.0013624029189561,-0.0013624029192994,0.001362402914093,-0.0013624029154335,0.0013624029190789,-0.0013624029200455,0.0013624029144134,-0.0013178391018639,0.0013178391153687,-0.001317839116491,0.0013178391010279,-4.7097972953961e-13,4.0537470431634e-13,6.2624086877133e-13,3.959870205154e-13,-0.0013412410458547,0.0013412410461918,-0.0013624029164911,0.0013624029174543,-0.0013624029166,0.0013624029174966,-0.0013624029162857,0.0013624029178629,-0.0013624029163133,0.0013624029175946,-0.0013178391082569,0.0013178391085688,-0.0013178391070786,0.0013178391069342,-0.0013178391092249,0.0013178391063736,-0.0013178391082317,0.001317839106943,-7.3098918054701e-12,7.1823911122935e-12,-0.0013412410459833,0.001341241045927,-1.3328263418937e-13,1.0874773665482e-13,-0.0013624029195764,0.0013624029145699,-0.0013624029194329,0.0013624029143985,-0.0013624029146252,0.0013624029194768,-0.0013624029144486,0.0013624029194683,-0.0013178390995045,0.0013178391141678,-0.0013178391143332,0.0013178390994614,0.72663263229101,0.38256167327564,1368840,32768,0.0055729120805248,0.0055729120807381,0.0055729120804561,41.706545908972,41.714058566817,0.00024885236727177,0.00024885236727177,0.00024885236727177,568979.9764128,0.016859417791738
8726400,0.94513504403679,0.01606259871628,0.0053541995720548,0.0053541995722487,0.0053541995719768,-0.0013466559929264,0.0013466559922681,6.6465671431126e-12,-7.3014931796894e-12,1.1474990623384e-13,-7.4435758391617e-13,-0.0013680410502803,0.0013680410547919,-0.0013680410551404,0.0013680410499359,-0.001368041051288,0.0013680410549045,-0.0013680410558974,0.0013680410502462,-0.001323020442358,0.0013230204558479,-0.0013230204569842,0.0013230204415241,-4.685308925852e-13,4.3805435303433e-13,6.3658008232722e-13,4.1715028575688e-13,-0.0013466559924633,0.0013466559928337,-0.0013680410523211,0.0013680410533032,-0.0013680410524241,0.0013680410533507,-0.0013680410521058,0.0013680410537226,-0.0013680410521294,0.0013680410534591,-0.0013230204487327,0.0013230204490845,-0.0013230204475291,0.0013230204474358,-0.0013230204497102,0.0013230204468722,-0.0013230204486911,0.0013230204474736,-7.3046427305316e-12,7.1714639755218e-12,-0.0013466559926109,0.0013466559925501,-1.2748763475203e-13,1.0406670318659e-13,-0.0013680410554144,0.0013680410504128,-0.0013680410552756,0.0013680410502337,-0.0013680410504703,0.0013680410553133,-0.001368041050298,0.0013680410552999,-0.0013230204399982,0.0013230204546361,-0.0013230204548348,0.0013230204399545,0.72617462082892,0.38843358752138,1368840,32768,0.0055953479860607,0.005595347986273,0.0055953479859914,41.814904944218,41.822419958742,0.00024971923955374,0.00024971923955374,0.00024971923955374,560528.64518484,0.016927865743451
8812800,0.94896719049087,0.016122832553494,0.0053742775177927,0.0053742775179867,0.0053742775177148,-0.0013517033201411,0.0013517033194376,6.6321924057804e-12,-7.3599031011888e-12,1.0579232694056e-13,-7.7747904266658e-13,-0.0013733097730472,0.0013733097774937,-0.0013733097779336,0.0013733097727247,-0.0013733097740739,0.0013733097776102,-0.0013733097787232,0.0013733097728676,-0.0013278265970957,0.0013278266103184,-0.0013278266114857,0.0013278265958388,-4.648775924263e-13,4.668937661277e-13,6.703145811732e-13,4.6113941250749e-13,-0.001351703319623,0.0013517033200531,-0.001373309774981,0.0013733097761069,-0.001373309775115,0.0013733097761016,-0.0013733097748972,0.0013733097764875,-0.0013733097748021,0.0013733097763247,-0.0013278266031567,0.001327826603629,-0.0013278266022551,0.0013278266019605,-0.0013278266043597,0.0013278266014113,-0.0013278266033019,0.0013278266019202,-7.307637697861e-12,7.2130256470177e-12,-0.0013517033198108,0.0013517033197587,-1.1851014430232e-13,1.0270162724167e-13,-0.0013733097782714,0.0013733097731585,-0.001373309778108,0.0013733097729824,-0.0013733097732629,0.0013733097781621,-0.0013733097730913,0.0013733097780004,-0.0013278265944897,0.0013278266094462,-0.0013278266092161,0.001327826594553,0.71961928072709,0.303444394553,1368840,32768,0.0056162601640261,0.0056162601642277,0.005616260164007,41.923264086609,41.930781350667,0.00025058611269287,0.00025058611269287,0.00025058611269287,553254.24104486,0.016991669643954
8899200,0.95254036980429,0.016178784243852,0.0053929280812452,0.0053929280814391,0.0053929280811679,-0.0013557553098618,0.0013557553091792,6.6473758684066e-12,-7.3317930775778e-12,1.2160231454453e-13,-7.7532122623345e-13,-0.0013778098381563,0.0013778098426707,-0.0013778098430276,0.0013778098378036,-0.0013778098391783,0.0013778098427733,-0.0013778098437999,0.0013778098380997,-0.0013314319671805,0.0013314319806447,-0.0013314319818139,0.0013314319662839,-4.4929042154485e-13,4.9588476282559e-13,6.7152336777501e-13,4.6720858003976e-13,-0.0013557553093468,0.0013557553097969,-0.0013778098401689,0.001377809841213,-0.0013778098402692,0.0013778098412647,-0.0013778098399418,0.0013778098416435,-0.0013778098399581,0.0013778098413851,-0.001331431973483,0.0013314319739129,-0.0013314319722893,0.0013314319723047,-0.0013314319745043,0.0013314319716956,-0.001331431973428,0.001331431972328,-7.3207102396802e-12,7.1865419854872e-12,-0.0013557553095368,0.0013557553094718,-1.2466266222948e-13,9.1445676985574e-14,-0.0013778098433,0.0013778098382862,-0.0013778098431641,0.0013778098381034,-0.001377809838342,0.0013778098431983,-0.0013778098381743,0.0013778098431795,-0.0013314319647942,0.0013314319794624,-0.0013314319796422,0.0013314319647441,0.71680617261721,0.27958262364292,1368840,32768,0.0056330477224862,0.0056330477226989,0.005633047722419,41.9256647777,41.926091268594,0.0002506053182216,0.0002506053182216,0.0002506053182216,565498.61894222,0.017042893595258
8985600,0.95584995789459,0.01623067646229,0.0054102254873912,0.0054102254875851,0.005410225487314,-0.0013595268464285,0.0013595268457304,6.6282354384277e-12,-7.3303034172035e-12,1.2603206157174e-13,-7.9565063459574e-13,-0.0013818659952144,0.0013818659996964,-0.0013818660000715,0.0013818659948533,-0.0013818659962228,0.0013818659998188,-0.0013818660008382,0.0013818659951417,-0.0013349146043204,0.001334914617723,-0.0013349146189562,0.001334914603393,-9.9332136059663e-13,-3.2841937877812e-14,1.5000771148503e-13,-8.957745464672e-14,-0.0013595268464507,0.0013595268458129,-0.0013818659977548,0.0013818659977103,-0.0013818659978577,0.0013818659977489,-0.001381865997521,0.0013818659981399,-0.0013818659975522,0.0013818659978663,-0.0013349146111315,0.0013349146105378,-0.0013349146099832,0.0013349146088994,-0.0013349146122138,0.0013349146082312,-0.0013349146110797,0.0013349146089467,-7.2986898535644e-12,7.1840334150634e-12,-0.0013595268460823,0.0013595268460367,-1.3235830948568e-13,1.1901965814879e-13,-0.001381866000314,0.0013818659953269,-0.0013818660001882,0.0013818659951596,-0.0013818659953679,0.0013818660002178,-0.0013818659951953,0.0013818660002157,-0.001334914601945,0.0013349146165934,-0.0013349146167427,0.0013349146018805,0.7178413771529,0.31372910299747,1368840,32768,0.0056486732773279,0.0056486732775447,0.0056486732772452,41.804214265887,41.796109633982,0.0002496337141271,0.0002496337141271,0.0002496337141271,565121.01024065,0.017090573613327
9072000,0.958914622886,0.016278661942988,0.0054262206476238,0.0054262206478178,0.0054262206475465,-0.0013632732303332,0.0013632732296492,6.6397974381578e-12,-7.3268752278147e-12,1.2103924351067e-13,-7.7801196756256e-13,-0.0013857265181527,0.0013857265226496,-0.001385726523012,0.001385726517793,-0.0013857265191605,0.0013857265227512,-0.0013857265237714,0.0013857265180884,-0.0013385312338928,0.0013385312473708,-0.0013385312485396,0.0013385312329948,-8.069665241972e-13,1.3522633951639e-13,3.0978159520844e-13,1.0106323611692e-13,-0.0013632732301796,0.0013632732299062,-0.0013857265205125,0.0013857265208404,-0.0013857265206155,0.0013857265208886,-0.0013857265202898,0.001385726521267,-0.0013857265203066,0.0013857265210072,-0.0013385312405655,0.0013385312402749,-0.0013385312393686,0.0013385312386235,-0.001338531241573,0.001338531238039,-0.0013385312404987,0.0013385312386693,-7.3145900148842e-12,7.1782274159621e-12,-0.0013632732300061,0.0013632732299417,-1.2597003405487e-13,9.4502877707838e-14,-0.0013857265232774,0.0013857265182759,-0.0013857265231397,0.0013857265180962,-0.0013857265183303,0.001385726523177,-0.0013857265181595,0.0013857265231552,-0.0013385312314931,0.0013385312461769,-0.0013385312463525,0.0013385312314462,0.71683841250442,0.31420980998412,1368840,32768,0.0056641946071339,0.0056641946073479,0.0056641946070624,41.675045933571,41.666127999369,0.00024860036746857,0.00024860036746857,0.00024860036746857,552290.73277783,0.017137936998377
9158400,0.96175293022504,0.016323031154767,0.0054410103848834,0.0054410103850773,0.005441010384806,-0.0013665575092231,0.0013665575085301,6.6449039733331e-12,-7.3412174367289e-12,1.2230502837122e-13,-7.9145167463579e-13,-0.0013891980533569,0.0013891980578712,-0.0013891980582338,0.0013891980529994,-0.0013891980543785,0.0013891980579676,-0.0013891980590055,0.0013891980532881,-0.001341620153389,0.0013416201668316,-0.0013416201680406,0.0013416201524891,-8.0832962961409e-13,1.4846522919504e-13,3.2227274302421e-13,1.0513792046164e-13,-0.0013665575090594,0.0013665575087959,-0.0013891980557237,0.001389198056052,-0.0013891980558297,0.0013891980560985,-0.0013891980554931,0.0013891980564858,-0.0013891980555117,0.0013891980562215,-0.0013416201600459,0.0013416201597914,-0.001341620158852,0.0013416201581562,-0.0013416201610787,0.0013416201575513,-0.0013416201600115,0.0013416201582137,-7.3224112465392e-12,7.1896835953955e-12,-0.0013665575088891,0.0013665575088289,-1.2737804986448e-13,1.0163989497098e-13,-0.001389198058496,0.0013891980534792,-0.0013891980583541,0.0013891980533021,-0.0013891980535361,0.0013891980583954,-0.0013891980533618,0.0013891980583808,-0.0013416201510244,0.0013416201656816,-0.0013416201658631,0.0013416201509594,0.71554035855295,0.30977246867508,1368840,32768,0.0056778010953053,0.0056778010955165,0.0056778010952325,41.545144009444,41.536146364756,0.00024756115207555,0.00024756115207555,0.00024756115207555,546754.77952677,0.01717945955965
9244800,0.96438215259196,0.016364061157053,0.0054546870523122,0.0054546870525062,0.0054546870522349,-0.0013695488953777,0.0013695488946949,6.6641169452135e-12,-7.3472114300871e-12,1.1878675349916e-13,-7.7290797642716e-13,-0.0013923778424594,0.0013923778469792,-0.0013923778473447,0.0013923778420989,-0.0013923778434742,0.0013923778470863,-0.0013923778481076,0.0013923778423999,-0.0013444170721463,0.0013444170856451,-0.0013444170868343,0.0013444170712934,-7.9774321772758e-13,1.3700437343396e-13,3.2458431946596e-13,9.2091024917697e-14,-0.0013695488952239,0.0013695488949515,-0.0013923778448298,0.0013923778451631,-0.0013923778449412,0.0013923778452017,-0.0013923778446114,0.0013923778455892,-0.001392377844636,0.001392377845317,-0.0013444170788543,0.0013444170785724,-0.0013444170776648,0.001344417076931,-0.0013444170798635,0.0013444170763452,-0.001344417078799,0.0013444170769817,-7.3336189041529e-12,7.2035675830139e-12,-0.0013695488950462,0.0013695488949916,-1.3230089947481e-13,1.1194628600016e-13,-0.001392377847608,0.0013923778425834,-0.001392377847459,0.0013923778424137,-0.0013923778426405,0.0013923778475065,-0.00139237784246,0.0013923778474981,-0.0013444170697945,0.0013444170844735,-0.0013444170846727,0.0013444170697452,0.71424965926532,0.30533512736603,1368840,32768,0.0056901939585873,0.0056901939588003,0.0056901939585153,41.415167403887,41.406164730143,0.0002465213392311,0.0002465213392311,0.0002465213392311,542441.00587854,0.017217280148077
9331200,0.96681826218654,0.016402011695706,0.0054673372318632,0.0054673372320572,0.0054673372317859,-0.0013722932225777,0.0013722932218998,6.6821770405488e-12,-7.3566936698229e-12,1.1382402275424e-13,-7.641443912075e-13,-0.0013952999795153,0.0013952999840436,-0.0013952999844094,0.0013952999791547,-0.0013952999805248,0.0013952999841554,-0.001395299985169,0.0013952999794592,-0.0013469785241178,0.0013469785376559,-0.0013469785388231,0.0013469785232562,-7.9520447175512e-13,1.2576468738689e-13,3.2329324126046e-13,8.7306435789493e-14,-0.001372293222429,0.001372293222151,-0.001395299981888,0.0013952999822204,-0.0013952999820016,0.0013952999822613,-0.0013952999816736,0.0013952999826426,-0.0013952999817004,0.0013952999823729,-0.0013469785308398,0.0013469785305496,-0.0013469785296529,0.001346978528907,-0.0013469785318274,0.0013469785283306,-0.0013469785307795,0.0013469785289462,-7.3439028841021e-12,7.2207938802917e-12,-0.0013722932222478,0.0013722932221955,-1.3273888609462e-13,1.1484866792262e-13,-0.0013952999846727,0.0013952999796413,-0.0013952999845263,0.0013952999794706,-0.0013952999796971,0.0013952999845733,-0.0013952999795166,0.0013952999845643,-0.0013469785217492,0.0013469785364773,-0.0013469785366582,0.0013469785217142,0.71296597545484,0.30089778605699,1368840,32768,0.0057015631439245,0.0057015631441368,0.005701563143854,41.285183072774,41.276183095531,0.00024548146458219,0.00024548146458219,0.00024548146458219,538346.41254256,0.017251977976245
9417600,0.96907601097688,0.016437122822505,0.005479040940796,0.00547904094099,0.0054790409407187,-0.0013748097779246,0.001374809777247,6.6881254470644e-12,-7.3727725315659e-12,1.0873803106897e-13,-7.5735953965652e-13,-0.0013979844578261,0.0013979844623627,-0.0013979844627295,0.0013979844574666,-0.0013979844588311,0.0013979844624793,-0.0013979844634864,0.0013979844577744,-0.0013493230109194,0.0013493230244568,-0.0013493230256215,0.0013493230100193,-7.8993963259234e-13,1.1919997616961e-13,3.3161704579747e-13,7.6715053466599e-14,-0.0013748097777784,0.0013748097774959,-0.0013979844602035,0.0013979844605392,-0.0013979844603241,0.0013979844605737,-0.0013979844599918,0.0013979844609577,-0.001397984460025,0.0013979844606792,-0.001349323017632,0.0013493230173567,-0.0013493230164425,0.0013493230156781,-0.0013493230186038,0.0013493230151107,-0.0013493230175848,0.0013493230157268,-7.3481996940139e-12,7.2384955748112e-12,-0.0013748097775905,0.0013748097775474,-1.37112752476e-13,1.2937193012928e-13,-0.0013979844629943,0.0013979844579535,-0.0013979844628421,0.001397984457791,-0.0013979844580093,0.001397984462894,-0.0013979844578215,0.0013979844628936,-0.0013493230085134,0.001349323023296,-0.0013493230234167,0.0013493230084914,0.71168888947443,0.29646044474795,1368840,32768,0.0057119885895664,0.005711988589779,0.0057119885894967,41.155197942903,41.146201460918,0.00024444158354322,0.00024444158354322,0.00024444158354322,534470.26436255,0.017283796691613
9504000,0.97116901710617,0.016469615729453,0.0054898719097787,0.0054898719099726,0.0054898719097014,-0.0013771163180859,0.0013771163174221,6.701033802723e-12,-7.3609566572387e-12,1.0159210231336e-13,-7.3426253937167e-13,-0.0014004496944751,0.0014004496990108,-0.0014004496993772,0.0014004496941134,-0.0014004496954697,0.0014004496991361,-0.001400449700123,0.0014004496944311,-0.0013514675539808,0.0013514675675766,-0.0013514675686911,0.0013514675531477,-7.8307246002681e-13,9.5894482254098e-14,3.0988759197031e-13,8.2064698862134e-14,-0.0013771163179534,0.0013771163176573,-0.0014004496968541,0.0014004496971799,-0.0014004496969654,0.0014004496972252,-0.0014004496966543,0.0014004496975883,-0.0014004496966775,0.0014004496973218,-0.0013514675607324,0.0013514675604342,-0.001351467559553,0.001351467558761,-0.0013514675616968,0.0013514675582249,-0.0013514675606972,0.0013514675587999,-7.3567157867943e-12,7.2309453936994e-12,-0.0013771163177647,0.0013771163177092,-1.2874371402673e-13,1.1075273422705e-13,-0.00140044969964,0.0014004496945981,-0.0014004496994964,0.0014004496944242,-0.001400449694657,0.0014004496995394,-0.0014004496944811,0.0014004496995279,-0.0013514675516146,0.0013514675663657,-0.0013514675665529,0.0013514675515965,0.71041796168494,0.29202310343891,1368840,32768,0.0057215438872738,0.0057215438874865,0.0057215438872032,41.02521273397,41.016219826305,0.00024340170187176,0.00024340170187176,0.00024340170187176,530809.83517632,0.017312960628728
9590400,0.97310984757245,0.016499694165563,0.0054998980551489,0.0054998980553428,0.0054998980550716,-0.0013792291955527,0.0013792291948996,6.7070812062143e-12,-7.3591171251998e-12,8.6143544844425e-14,-7.1793065594656e-13,-0.0014027126601957,0.0014027126647362,-0.0014027126650963,0.001402712659835,-0.0014027126611771,0.0014027126648732,-0.0014027126658302,0.0014027126601635,-0.0013534278185746,0.0013534278321782,-0.0013534278332868,0.0013534278177564,-7.788553535624e-13,6.8131036290667e-14,3.1034840142231e-13,7.386002303876e-14,-0.0013792291954312,0.0013792291951233,-0.0014027126625715,0.0014027126629036,-0.0014027126626885,0.0014027126629454,-0.0014027126623836,0.0014027126633002,-0.001402712662409,0.0014027126630286,-0.0013534278253237,0.0013534278250019,-0.0013534278241632,0.0013534278233648,-0.0013534278262941,0.0013534278228161,-0.0013534278253569,0.0013534278233927,-7.3571487735669e-12,7.2348525096338e-12,-0.0013792291952349,0.0013792291951826,-1.3544786216079e-13,1.1264797044653e-13,-0.0014027126653591,0.001402712660319,-0.0014027126652118,0.0014027126601473,-0.0014027126603721,0.00140271266526,-0.0014027126601904,0.0014027126652509,-0.0013534278162256,0.0013534278309757,-0.0013534278311515,0.0013534278161966,0.70915275894261,0.28758576212987,1368840,32768,0.005730296806279,0.0057302968064907,0.0057302968062071,40.895227520632,40.886238191692,0.00024236182016506,0.00024236182016506,0.00024236182016506,527360.84958851,0.017339676399208
9676800,0.97490260242299,0.016527430712244,0.0055091435707091,0.005509143570903,0.0055091435706318,-0.0013809967704389,0.0013809967698574,6.8098898448927e-12,-7.3075303481992e-12,9.5065684043902e-14,-6.6379813318739e-13,-0.0014046169124911,0.0014046169171762,-0.0014046169172294,0.001404616912086,-0.0014046169138744,0.001404616917703,-0.0014046169183827,0.0014046169131123,-0.0013550550912811,0.0013550551054897,-0.0013550551066792,0.001355055091082,-7.6097907614099e-13,4.7513048508982e-14,3.0312391624302e-13,8.6480211030092e-14,-0.0013809967702905,0.0013809967700295,-0.0014046169153811,0.001404616915265,-0.0014046169152997,0.0014046169156751,-0.0014046169152848,0.0014046169160565,-0.001404616915196,0.0014046169156799,-0.0013550550987972,0.0013550550979658,-0.0013550550980869,0.0013550550963105,-0.0013550550991666,0.0013550550957844,-0.001355055098285,0.0013550550966756,-7.4159242721334e-12,7.218703473564e-12,-0.0013809967701353,0.0013809967700192,-2.0243758037676e-13,2.6364900452742e-14,-0.0014046169176776,0.0014046169130461,-0.0014046169178134,0.0014046169126053,-0.0014046169130915,0.0014046169181347,-0.0014046169121836,0.001404616917849,-0.0013550550892256,0.0013550551039289,-0.0013550551045173,0.0013550550887398,0.70789657835469,0.28314842082078,1368840,32768,0.005737619143665,0.0057376191437141,0.0057376191433715,40.68402382352,40.669624716925,0.00024067219058816,0.00024067219058816,0.00024067219058816,524060.31979517,0.017362026484673
9763200,0.97655210760443,0.016552970911233,0.0055176569703725,0.0055176569705659,0.0055176569702946,-0.0013824209647554,0.0013824209641337,6.762211389672e-12,-7.3758087917514e-12,3.4341303837917e-14,-6.569701947174e-13,-0.0014061821900407,0.0014061821946075,-0.0014061821949579,0.0014061821897187,-0.001406182191015,0.0014061821947728,-0.0014061821956469,0.0014061821900678,-0.0013563419377065,0.0013563419515031,-0.0013563419525565,0.0013563419369216,-7.4036305888734e-13,-7.5140939789986e-15,1.9838817467156e-13,9.9495636947176e-14,-0.0013824209646769,0.0013824209643172,-0.0014061821924815,0.0014061821927521,-0.001406182192548,0.0014061821928451,-0.0014061821923015,0.0014061821931101,-0.0014061821923003,0.0014061821928789,-0.0013563419448055,0.0013563419441333,-0.0013563419434161,0.0013563419426144,-0.0013563419453919,0.0013563419420742,-0.0013563419446171,0.0013563419426431,-7.4176851006942e-12,7.2452730736457e-12,-0.0013824209644849,0.0013824209643768,-9.0123011509744e-14,2.0733013679487e-14,-0.0014061821952624,0.001406182190204,-0.0014061821951556,0.0014061821899822,-0.0014061821902662,0.001406182195144,-0.0014061821901268,0.001406182195092,-0.0013563419354177,0.0013563419502223,-0.0013563419504664,0.001356341935265,0.70839618389513,0.30515093879817,1368840,32768,0.0057435189148862,0.0057435189151035,0.0057435189148294,40.385366629539,40.364967028842,0.00023828293303631,0.00023828293303631,0.00023828293303631,521142.22923926,0.01738003504423
9849600,0.97807073011241,0.016576501966654,0.0055255006555129,0.0055255006557063,0.0055255006554351,-0.0013838201255677,0.0013838201249366,6.7293641872492e-12,-7.377424801207e-12,5.5854028991872e-14,-6.6859707481831e-13,-0.0014076291360042,0.0014076291405435,-0.0014076291409069,0.0014076291356314,-0.001407629136964,0.0014076291407042,-0.0014076291416054,0.0014076291360045,-0.0013576890114041,0.0013576890250653,-0.0013576890262167,0.001357689010535,-7.5100220445698e-13,1.6646050298119e-14,1.8866582462386e-13,1.650864273112e-13,-0.001383820125475,0.001383820125134,-0.0014076291384335,0.0014076291386991,-0.0014076291384798,0.0014076291388011,-0.0014076291382563,0.0014076291390587,-0.0014076291382349,0.0014076291388443,-0.0013576890182764,0.0013576890177241,-0.0013576890169089,0.0013576890162564,-0.0013576890191151,0.0013576890157805,-0.0013576890181892,0.0013576890162071,-7.4172555255821e-12,7.216179138916e-12,-0.0013838201253005,0.0013838201251736,-6.3045074016265e-14,-2.6356959518861e-14,-0.0014076291411901,0.0014076291361419,-0.001407629141088,0.0014076291358843,-0.0014076291362067,0.0014076291410924,-0.0014076291360782,0.0014076291410035,-0.0013576890091205,0.0013576890238272,-0.0013576890240314,0.0013576890088437,0.70888742309409,0.32514777092601,1368840,32768,0.005749315076541,0.0057493150767581,0.0057493150764787,40.081264055066,40.060309340762,0.00023585011244052,0.00023585011244052,0.00023585011244052,512921.0274136,0.017397727161966
9936000,0.9794700859239,0.016598195363878,0.0055327317879207,0.0055327317881142,0.0055327317878429,-0.0013850615732899,0.001385061572649,6.7493427975046e-12,-7.4024083320949e-12,6.1538825913463e-14,-6.8301007568749e-13,-0.0014089143794308,0.001408914384014,-0.001408914384379,0.0014089143790858,-0.0014089143804143,0.0014089143841756,-0.0014089143850919,0.0014089143794343,-0.0013588833372629,0.0013588833509923,-0.0013588833520276,0.0013588833364536,-7.4846434081051e-13,3.9000308567344e-14,1.6268785352716e-13,1.8142878100469e-13,-0.0013850615731874,0.001385061572852,-0.0014089143818862,0.0014089143821152,-0.0014089143819277,0.0014089143822473,-0.0014089143817102,0.0014089143824889,-0.0014089143816646,0.0014089143822979,-0.0013588833442218,0.0013588833435981,-0.0013588833428632,0.0013588833422154,-0.0013588833449619,0.0013588833416516,-0.0013588833440326,0.001358883342093,-7.4389183932082e-12,7.2381802903253e-12,-0.0013850615730236,0.0013850615728808,-5.361389154418e-14,-5.9881758888664e-14,-0.0014089143846498,0.0014089143795753,-0.0014089143845882,0.0014089143793173,-0.0014089143796387,0.0014089143845413,-0.0014089143795332,0.0014089143844494,-0.0013588833349987,0.0013588833496941,-0.0013588833500085,0.001358883334821,0.70914385443159,0.33996392803986,1368840,32768,0.0057544578617891,0.0057544578619972,0.0057544578617178,39.77664556129,39.755651652682,0.00023341316449032,0.00023341316449032,0.00023341316449032,505274.26004768,0.017413425213213
10022400,0.9807607077732,0.016618214526416,0.0055394048421002,0.0055394048422936,0.0055394048420224,-0.0013861421856367,0.0013861421840475,6.2578935756469e-12,-7.9094347251396e-12,-3.8652657423142e-13,-1.106771835939e-12,-0.0014100426155997,0.0014100426193059,-0.001410042620796,0.0014100426144032,-0.0014100426163975,0.0014100426199913,-0.0014100426214555,0.0014100426147895,-0.0013599137019558,0.0013599137136001,-0.0013599137150934,0.0013599136997795,-9.5191486083089e-13,-1.8552609701097e-13,-5.5455717630599e-14,-4.0744446461599e-14,-0.0013861421852849,0.0013861421845451,-0.0014100426185246,0.0014100426180256,-0.0014100426180494,0.0014100426179963,-0.0014100426178544,0.0014100426184775,-0.0014100426184863,0.0014100426179913,-0.0013599137070222,0.0013599137060946,-0.0013599137066001,0.0013599137057099,-0.0013599137089665,0.0013599137050248,-0.0013599137081901,0.0013599137054357,-7.3250395780102e-12,7.3727414736912e-12,-0.0013861421848431,0.0013861421849005,4.1098685639836e-14,3.6614646153576e-14,-0.0014100426207027,0.0014100426148358,-0.0014100426205492,0.001410042615274,-0.0014100426151573,0.0014100426205196,-0.001410042615103,0.0014100426204861,-0.001359913698432,0.0013599137136133,-0.0013599137128514,0.0013599136994379,0.70947160339405,0.35478008515378,1368840,32768,0.0057589343304004,0.0057589343307025,0.0057589343305234,39.471974784241,39.450993964592,0.00023097579827393,0.00023097579827393,0.00023097579827393,498735.37890566,0.017427089651966
10108800,0.98195212073325,0.016636706761232,0.005545568920372,0.0055455689205657,0.0055455689202944,-0.0013871014816511,0.0013871014807438,6.5572068583021e-12,-7.5485228095744e-12,6.4644495743264e-15,-7.2145013666414e-13,-0.0014110438180271,0.001411043822075,-0.0014110438230117,0.0014110438171794,-0.0014110438184015,0.0014110438226377,-0.0014110438236131,0.0014110438179647,-0.0013608298604027,0.0013608298743153,-0.0013608298754445,0.0013608298587731,-6.4087833337154e-13,1.418886359878e-13,2.5039199775517e-13,2.7895018414571e-13,-0.0013871014814019,0.0013871014812406,-0.0014110438204766,0.0014110438207129,-0.0014110438209653,0.0014110438208351,-0.0014110438199284,0.001411043820813,-0.001411043820166,0.0014110438210741,-0.0013608298675254,0.0013608298666388,-0.0013608298658039,0.0013608298655202,-0.0013608298689339,0.0013608298651459,-0.0013608298664731,0.0013608298652622,-7.5466860421569e-12,7.0778111306695e-12,-0.0013871014815006,0.0013871014811284,-2.1278973471379e-13,-2.2688065718695e-13,-0.0014110438232749,0.0014110438179134,-0.0014110438236948,0.0014110438177766,-0.0014110438184844,0.0014110438227937,-0.0014110438180424,0.0014110438229913,-0.0013608298584249,0.0013608298734097,-0.0013608298728489,0.0013608298584031,0.70986525611899,0.36959624226749,1368840,32768,0.0057629082281793,0.0057629082286921,0.0057629082286643,39.167298644732,39.146336276518,0.00022853838915785,0.00022853838915785,0.00022853838915785,492405.31181517,0.01743922016316
10195200,0.98305294137698,0.016653805341748,0.00555126844721,0.0055512684474043,0.0055512684471333,-0.0013879497555713,0.0013879497550067,6.7351608484005e-12,-7.3336700790602e-12,1.233318499437e-13,-6.3744890872634e-13,-0.0014119275297827,0.0014119275348645,-0.0014119275351868,0.0014119275298774,-0.001411927530986,0.0014119275348869,-0.0014119275360837,0.0014119275310288,-0.0013616419390738,0.0013616419530484,-0.0013616419533697,0.0013616419378128,-5.3565284205571e-13,2.7139517965179e-13,3.2347764739168e-13,2.7036227003e-13,-0.0013879497554072,0.0013879497553462,-0.0014119275315961,0.001411927532903,-0.0014119275329584,0.0014119275328797,-0.0014119275324142,0.0014119275334422,-0.00141192753224,0.0014119275329195,-0.001361641947118,0.0013616419454873,-0.0013616419446934,0.001361641944091,-0.001361641946105,0.0013616419441447,-0.0013616419451833,0.0013616419438214,-7.3818580775381e-12,7.2145879522315e-12,-0.0013879497552688,0.0013879497552791,-2.234308214006e-14,4.5548314412613e-14,-0.0014119275350846,0.0014119275306013,-0.0014119275353536,0.0014119275300491,-0.0014119275302811,0.0014119275356301,-0.0014119275295727,0.0014119275350138,-0.0013616419370519,0.0013616419520776,-0.0013616419521768,0.0013616419372889,0.71032017760213,0.38441239938147,1368840,32768,0.0057664222010486,0.0057664222014117,0.0057664222009861,38.862621971887,38.841678588432,0.00022610097577509,0.00022610097577509,0.00022610097577509,486248.70632811,0.017449946862968
10281600,0.9840709693844,0.016669630687919,0.0055565435626004,0.0055565435627951,0.0055565435625236,-0.0013886964527364,0.0013886964521797,6.7382672535019e-12,-7.2740299010267e-12,6.6928631846827e-14,-7.0107022984454e-13,-0.0014127035930398,0.0014127035980846,-0.0014127035982421,0.0014127035930661,-0.001412703594162,0.0014127035975545,-0.0014127035986053,0.0014127035933847,-0.0013623587898241,0.0013623588042628,-0.0013623588038785,0.0013623587890334,-6.9904096830767e-13,1.139349899525e-13,2.8358886596657e-13,2.2092779492516e-13,-0.001388696452565,0.0013886964523262,-0.0014127035955093,0.0014127035962242,-0.0014127035957337,0.0014127035963143,-0.0014127035956409,0.0014127035964307,-0.0014127035954121,0.0014127035961679,-0.0013623587965871,0.0013623587962315,-0.001362358795925,0.0013623587951538,-0.0013623587970619,0.0013623587945806,-0.0013623587968786,0.0013623587946501,-7.5154432907192e-12,7.0389897284014e-12,-0.0013886964526657,0.0013886964523111,-2.5268522181639e-13,-1.7043844028147e-13,-0.0014127035985407,0.0014127035934518,-0.0014127035978835,0.0014127035932476,-0.0014127035934443,0.0014127035980687,-0.001412703593718,0.0014127035981689,-0.0013623587876294,0.001362358802505,-0.0013623588030273,0.0013623587883494,0.71083234662797,0.39922855649531,1368840,32768,0.0057695153806669,0.0057695153806151,0.0057695153807927,38.557945262745,38.537020900374,0.00022366356210196,0.00022366356210196,0.00022366356210196,480258.19986105,0.017459389162333
10368000,0.98501326990423,0.016684291712509,0.005561430570797,0.0055614305709913,0.0055614305707203,-0.0013893501320941,0.0013893501313534,6.702832086022e-12,-7.3642077932128e-12,3.0205518418617e-14,-8.2852436561994e-13,-0.0014133811123574,0.0014133811167128,-0.0014133811172521,0.0014133811119062,-0.0014133811137916,0.0014133811173306,-0.0014133811189623,0.0014133811126883,-0.0013629883442429,0.0013629883581593,-0.0013629883587983,0.001362988343051,-5.650145333115e-13,3.4399522647608e-13,3.9171085703161e-13,2.8686033955471e-13,-0.0013893501317745,0.0013893501317111,-0.0014133811152469,0.0014133811148613,-0.0014133811152044,0.0014133811147258,-0.0014133811153148,0.0014133811151872,-0.0014133811145857,0.0014133811153023,-0.0013629883504826,0.0013629883510442,-0.0013629883501446,0.0013629883490805,-0.0013629883513272,0.0013629883487741,-0.0013629883501672,0.0013629883492045,-7.655625008264e-12,6.9361409880069e-12,-0.001389350132143,0.0013893501315291,-3.2775510495358e-13,-2.1596693177024e-13,-0.0014133811176431,0.0014133811124514,-0.0014133811175296,0.0014133811118848,-0.001413381112718,0.0014133811176416,-0.0014133811130028,0.0014133811173193,-0.0013629883423543,0.0013629883567722,-0.0013629883569126,0.0013629883419739,0.71139824261253,0.41404471360916,1368840,32768,0.0057722232261768,0.005772223226256,0.0057722232266422,38.253268566863,38.232363212278,0.00022122614853491,0.00022122614853491,0.00022122614853491,474429.31711813,0.01746765526984
10454400,0.98589253291273,0.016697984311792,0.005565994770558,0.0055659947707523,0.0055659947704821,-0.0013901899237569,0.0013901899230833,6.6631621949687e-12,-7.3439848815971e-12,9.0758668561445e-14,-7.4173322291213e-13,-0.0014142365796472,0.0014142365841629,-0.0014142365845295,0.0014142365792734,-0.0014142365806498,0.001414236584279,-0.0014142365852794,0.0014142365796017,-0.0013638115549927,0.0013638115684898,-0.001363811569655,0.0013638115540971,-7.6377316725401e-13,1.1252285662162e-13,2.3850012574958e-13,1.4481406132395e-13,-0.0013901899236208,0.001390189923322,-0.0014142365820516,0.0014142365823106,-0.0014142365821226,0.0014142365823947,-0.0014142365818499,0.0014142365827128,-0.0014142365818299,0.0014142365824968,-0.0013638115617478,0.0013638115613679,-0.0013638115604611,0.001363811559751,-0.001363811562573,0.0013638115592683,-0.0013638115615829,0.0013638115598404,-7.3681613783158e-12,7.1650598182232e-12,-0.0013901899234611,0.0013901899233439,-8.6184425948476e-14,1.9220295186117e-14,-0.0014142365847673,0.001414236579743,-0.0014142365846877,0.0014142365795318,-0.0014142365798165,0.0014142365846708,-0.0014142365796906,0.0014142365846193,-0.0013638115526822,0.0013638115672888,-0.0013638115675233,0.0013638115525054,0.71201274229499,0.42886087072296,1368840,32768,0.0057757020915094,0.0057757020917217,0.0057757020914366,38.084911682279,38.073038917348,0.00021987929345823,0.00021987929345823,0.00021987929345823,468648.81391094,0.017478274815971
10540800,0.98671922256239,0.016710806553794,0.0055702688512254,0.0055702688514196,0.0055702688511494,-0.0013912206587243,0.0013912206580514,6.6644705226473e-12,-7.3502302202181e-12,9.4301383863336e-14,-7.3983786904918e-13,-0.0014152801301257,0.0014152801346311,-0.0014152801350053,0.0014152801297534,-0.0014152801311124,0.0014152801347842,-0.0014152801357559,0.0014152801300938,-0.0013648265110589,0.0013648265245213,-0.0013648265257408,0.0013648265101365,-7.8311742924127e-13,9.4312707046833e-14,2.3819319394966e-13,1.3968487978163e-13,-0.0013912206585935,0.0013912206582851,-0.0014152801325457,0.0014152801327904,-0.001415280132616,0.0014152801328859,-0.0014152801323407,0.0014152801332014,-0.0014152801323306,0.0014152801329777,-0.0013648265178859,0.001364826517431,-0.0013648265165598,0.0013648265158742,-0.0013648265187163,0.0013648265153275,-0.0013648265177299,0.0013648265159204,-7.3604204383256e-12,7.1803629389587e-12,-0.0013912206584228,0.001391220658318,-8.7069045982765e-14,2.3335875340321e-14,-0.0014152801352911,0.0014152801302437,-0.0014152801351792,0.001415280130013,-0.0014152801303026,0.0014152801351618,-0.0014152801301796,0.0014152801351127,-0.0013648265087801,0.0013648265234186,-0.0013648265236024,0.0013648265085899,0.70913079676604,0.38822628619046,1368840,32768,0.0057799719570409,0.005779971957254,0.0057799719569687,38.051782382968,38.049168904199,0.00021961425906374,0.00021961425906374,0.00021961425906374,463086.90003241,0.01749130896645
10627200,0.98749685814609,0.016722850567952,0.0055742835226112,0.0055742835228054,0.0055742835225352,-0.0013919322352064,0.0013919322345459,6.6779560077338e-12,-7.3377360724939e-12,8.816454192788e-14,-7.2147734171539e-13,-0.0014161428825658,0.0014161428870861,-0.001416142887456,0.0014161428822031,-0.0014161428835562,0.001416142887227,-0.0014161428881993,0.0014161428825408,-0.001365396922487,0.0013653969360468,-0.0013653969371557,0.0013653969216535,-7.6908506380275e-13,8.3904554420516e-14,2.4878487038122e-13,1.4269924357724e-13,-0.0013919322350786,0.0013919322347766,-0.001416142884968,0.0014161428852463,-0.0014161428850441,0.0014161428853299,-0.0014161428847774,0.0014161428856465,-0.0014161428847606,0.001416142885418,-0.0013653969292863,0.0013653969288378,-0.0013653969279934,0.0013653969273204,-0.0013653969301517,0.0013653969267567,-0.0013653969291757,0.0013653969273108,-7.3594876432925e-12,7.1819488905089e-12,-0.0013919322349129,0.0013919322348075,-9.562254938499e-14,2.2342435101003e-14,-0.0014161428877206,0.0014161428826881,-0.0014161428876194,0.0014161428824734,-0.0014161428827532,0.0014161428876182,-0.0014161428826122,0.0014161428875637,-0.0013653969201782,0.0013653969348045,-0.0013653969350625,0.0013653969200626,0.70805560719368,0.37898076647405,1368840,32768,0.0057829194620507,0.0057829194622637,0.0057829194619847,38.027034309115,38.02529889105,0.00021941627447292,0.00021941627447292,0.00021941627447292,466680.68558541,0.017500307423982
10713600,0.98822839382975,0.016734156313961,0.0055780521046142,0.0055780521048085,0.0055780521045382,-0.0013927366198332,0.0013927366191768,6.6839687211083e-12,-7.3398823598675e-12,8.3748088612203e-14,-7.1291098576463e-13,-0.001417021177358,0.0014170211818806,-0.0014170211822506,0.001417021176995,-0.0014170211783446,0.0014170211820264,-0.0014170211829899,0.0014170211773374,-0.0013661312899924,0.0013661313035686,-0.0013661313046705,0.0013661312891664,-7.6459461274765e-13,7.5454871376062e-14,2.4778860669874e-13,1.3888927173397e-13,-0.0013927366197099,0.0013927366194029,-0.0014170211797615,0.0014170211800394,-0.0014170211798394,0.0014170211801224,-0.0014170211795752,0.0014170211804357,-0.0014170211795592,0.0014170211802063,-0.0013661312968041,0.00136613129635,-0.0013661312955156,0.0013661312948279,-0.0013661312976589,0.0013661312942746,-0.0013661312966948,0.0013661312948162,-7.3631202382015e-12,7.1864242832005e-12,-0.0013927366195413,0.0013927366194368,-9.601659617066e-14,2.4746479306161e-14,-0.0014170211825156,0.0014170211774799,-0.0014170211824137,0.0014170211772664,-0.0014170211775456,0.0014170211824129,-0.0014170211774038,0.0014170211823593,-0.0013661312876874,0.0013661313023242,-0.0013661313025802,0.0013661312875717,0.70657683246164,0.36416572583627,1368840,32768,0.0057862515423443,0.0057862515425573,0.0057862515422783,38.003075507864,38.001428877901,0.00021922460406291,0.00021922460406291,0.00021922460406291,465495.97164398,0.017510479478814
10800000,0.98891657865582,0.01674476900825,0.0055815896693773,0.0055815896695716,0.0055815896693013,-0.0013934557837504,0.0013934557830965,6.6869817761204e-12,-7.3392749666582e-12,8.1689210333051e-14,-7.0709166354093e-13,-0.0014178272476086,0.0014178272521315,-0.0014178272525028,0.0014178272472445,-0.0014178272485925,0.0014178272522807,-0.0014178272532402,0.0014178272475901,-0.0013667687603329,0.0013667687739169,-0.001366768775009,0.0013667687595158,-7.6215595195295e-13,7.0008537757816e-14,2.4444329713095e-13,1.3886022850357e-13,-0.00139345578363,0.0013934557833196,-0.0014178272500132,0.0014178272502893,-0.0014178272500899,0.001417827250373,-0.0014178272498301,0.0014178272506827,-0.0014178272498132,0.0014178272504543,-0.0013667687671505,0.0013667687666877,-0.0013667687658595,0.0013667687651706,-0.0013667687680051,0.0013667687646235,-0.00136676876704,0.0013667687651561,-7.3648093042488e-12,7.1871496728051e-12,-0.0013934557834603,0.0013934557833547,-9.5137505379222e-14,2.2391198317203e-14,-0.0014178272527676,0.0014178272477302,-0.0014178272526662,0.0014178272475157,-0.0014178272477964,0.0014178272526647,-0.0014178272476554,0.0014178272526103,-0.0013667687580314,0.0013667687726648,-0.0013667687729265,0.0013667687579187,0.70503247753148,0.34935068519849,1368840,32768,0.0057892305631277,0.0057892305633406,0.005789230563062,37.979196275056,37.977558864752,0.00021903357020045,0.00021903357020045,0.00021903357020045,465400.93948492,0.017519573935052
10886400,0.98956399632211,0.016754730318587,0.0055849101061562,0.0055849101063504,0.0055849101060802,-0.0013941204591141,0.0013941204584651,6.6880608608022e-12,-7.3346834598668e-12,7.6572043129585e-14,-6.9784135789612e-13,-0.0014185781036599,0.0014185781081816,-0.0014185781085528,0.0014185781032957,-0.0014185781046388,0.0014185781083356,-0.0014185781092852,0.0014185781036459,-0.001367352661154,0.0013673526747399,-0.001367352675824,0.0013673526603412,-7.57629413765e-13,6.0119104579093e-14,2.4484922590657e-13,1.3317601979931e-13,-0.001394120458999,0.001394120458683,-0.0014185781060631,0.0014185781063395,-0.0014185781061414,0.0014185781064221,-0.001418578105885,0.0014185781067285,-0.0014185781058694,0.001418578106499,-0.0013673526679692,0.0013673526675057,-0.001367352666685,0.0013673526659803,-0.0013673526688185,0.001367352665451,-0.0013673526678762,0.0013673526659687,-7.361294705735e-12,7.1871077917316e-12,-0.0013941204588254,0.0013941204587221,-9.7228206215629e-14,2.6359900605484e-14,-0.0014185781088169,0.0014185781037822,-0.0014185781087146,0.0014185781035693,-0.0014185781038474,0.0014185781087151,-0.0014185781037052,0.0014185781086618,-0.0013673526588519,0.0013673526734863,-0.0013673526737392,0.0013673526587408,0.703428895002,0.33453564456071,1368840,32768,0.0057919838575463,0.0057919838577591,0.0057919838574806,37.955325197689,37.953688851603,0.00021884260158151,0.00021884260158151,0.00021884260158151,465490.94994342,0.017527979392799
10972800,0.99017307743398,0.016764079673498,0.0055880265577933,0.0055880265579875,0.0055880265577173,-0.001394733852931,0.0013947338522825,6.6880253765921e-12,-7.3358847172869e-12,7.3795951466691e-14,-6.9484144954126e-13,-0.0014192770125649,0.001419277017087,-0.0014192770174585,0.0014192770122008,-0.0014192770135419,0.0014192770172429,-0.0014192770181895,0.0014192770125529,-0.0013678861475587,0.0013678861611481,-0.0013678861622337,0.001367886146748,-7.5599522839412e-13,5.6075581047138e-14,2.4831453180856e-13,1.270378690803e-13,-0.0013947338528174,0.0013947338524988,-0.0014192770149668,0.0014192770152466,-0.0014192770150493,0.0014192770153251,-0.0014192770147903,0.0014192770156332,-0.0014192770147783,0.0014192770153991,-0.0013678861543836,0.0013678861539188,-0.001367886153101,0.0013678861523886,-0.0013678861552295,0.0013678861518591,-0.0013678861542908,0.0013678861523726,-7.3607983091349e-12,7.188766035191e-12,-0.0013947338526408,0.0013947338525409,-1.0018293947997e-13,3.2996168460291e-14,-0.0014192770177227,0.0014192770126868,-0.0014192770176161,0.0014192770124773,-0.0014192770127517,0.0014192770176197,-0.0014192770126052,0.0014192770175704,-0.0013678861452622,0.0013678861599059,-0.0013678861601504,0.0013678861451542,0.70177134502382,0.31972060392292,1368840,32768,0.0057945247123237,0.0057945247125364,0.0057945247122578,37.931454959469,37.929818838454,0.00021865163967575,0.00021865163967575,0.00021865163967575,465756.85690133,0.017535736396073
11059200,0.99074610849953,0.016772854227128,0.0055909514090031,0.0055909514091973,0.0055909514089271,-0.0013952989856686,0.0013952989850235,6.6928898456329e-12,-7.3374003180451e-12,7.0043124936495e-14,-6.8786960370284e-13,-0.0014199270622333,0.0014199270667569,-0.0014199270671294,0.0014199270618684,-0.0014199270632068,0.0014199270669164,-0.0014199270678563,0.0014199270622241,-0.0013683721820117,0.0013683721956112,-0.0013683721966864,0.0013683721812046,-7.5349227544585e-13,4.7800598548055e-14,2.4880434037466e-13,1.2159910876011e-13,-0.0013952989855594,0.0013952989852357,-0.0014199270646368,0.0014199270649169,-0.0014199270647201,0.0014199270649937,-0.0014199270644645,0.0014199270653001,-0.0014199270644533,0.0014199270650644,-0.0013683721888305,0.0013683721883693,-0.0013683721875632,0.001368372186832,-0.0013683721896822,0.0013683721863101,-0.0013683721887541,0.001368372186814,-7.3624870810735e-12,7.1932937792245e-12,-0.0013952989853792,0.0013952989852813,-1.0253898515145e-13,3.6517472651571e-14,-0.001419927067393,0.0014199270623554,-0.0014199270672846,0.0014199270621477,-0.0014199270624202,0.0014199270672908,-0.0014199270622723,0.0014199270672426,-0.001368372179707,0.0013683721943607,-0.0013683721945984,0.0013683721796063,0.70006422506089,0.30490556328514,1368840,32768,0.0057968656412417,0.005796865641455,0.0057968656411761,37.907584807213,37.905948825305,0.0002184606784577,0.0002184606784577,0.0002184606784577,466190.77630111,0.017542883131682
11145600,0.99128524023996,0.016781091974488,0.0055936973247901,0.0055936973249843,0.0055936973247141,-0.0013958189669375,0.0013958189662957,6.6962916240639e-12,-7.3370589755317e-12,6.5681199366798e-14,-6.8021363170517e-13,-0.0014205313397787,0.0014205313443033,-0.0014205313446758,0.0014205313394139,-0.0014205313407485,0.0014205313444664,-0.0014205313453993,0.0014205313397724,-0.0013688139711156,0.0013688139847295,-0.0013688139857951,0.00136881397032,-7.5028652043829e-13,3.9017572745818e-14,2.4863387499402e-13,1.1543373828441e-13,-0.0013958189668325,0.0013958189665037,-0.0014205313421817,0.0014205313424635,-0.0014205313422683,0.0014205313425379,-0.0014205313420128,0.0014205313428433,-0.0014205313420043,0.0014205313426047,-0.0013688139779513,0.0013688139774798,-0.0013688139766847,0.0013688139759378,-0.0013688139787882,0.0013688139754264,-0.0013688139778771,0.0013688139759159,-7.3627419556402e-12,7.1961716913062e-12,-0.0013958189666484,0.0013958189665531,-1.0439534020578e-13,4.0582407294138e-14,-0.0014205313449392,0.0014205313399007,-0.0014205313448282,0.0014205313396955,-0.0014205313399655,0.0014205313448371,-0.0014205313398148,0.001420531344792,-0.0013688139688153,0.0013688139834775,-0.0013688139837143,0.0013688139687218,0.69856588775403,0.29399228489918,1368840,32768,0.0057990195278251,0.0057990195280383,0.0057990195277596,37.883714664832,37.882078812156,0.00021826971731865,0.00021826971731865,0.00021826971731865,466780.51510883,0.017549458914486
11232000,0.99179159209887,0.016788846779631,0.0055962822598375,0.0055962822600318,0.0055962822597615,-0.001396254542022,0.0013962545413811,6.7028177041084e-12,-7.345400308945e-12,5.995540369769e-14,-6.7042337196736e-13,-0.0014210395133125,0.0014210395178371,-0.001421039518213,0.0014210395129457,-0.0014210395142799,0.0014210395180039,-0.0014210395189304,0.0014210395133045,-0.0013691833715121,0.0013691833851448,-0.0013691833862536,0.0013691833707264,-7.4825420017134e-13,2.5398871140745e-14,2.4761967068315e-13,1.1191496342763e-13,-0.00139625454192,0.0013962545415854,-0.0014210395157205,0.0014210395159938,-0.001421039515798,0.0014210395160778,-0.0014210395155533,0.0014210395163753,-0.0014210395155441,0.001421039516136,-0.0013691833783631,0.0013691833779128,-0.0013691833771183,0.001369183376351,-0.0013691833792433,0.0013691833758563,-0.0013691833783231,0.0013691833763304,-7.3733929831998e-12,7.2004905005461e-12,-0.0013962545417302,0.0013962545416402,-9.8550283474135e-14,4.9170497875042e-14,-0.0014210395184705,0.0014210395134367,-0.0014210395183509,0.0014210395132323,-0.0014210395134971,0.0014210395183776,-0.0014210395133432,0.0014210395183357,-0.0013691833692473,0.0013691833839274,-0.0013691833841626,0.0013691833691159,0.700179469415,0.33161180199135,1368840,32768,0.005800823777431,0.0058008237776431,0.0058008237773637,37.825991499567,37.822117327325,0.00021780793199654,0.00021780793199654,0.00021780793199654,466794.95788786,0.017554967318734
11318400,0.99226645085501,0.01679612247511,0.0055987074916639,0.0055987074918581,0.0055987074915879,-0.0013968537301939,0.001396853729568,6.7183280391018e-12,-7.3412934932289e-12,6.1957430772431e-14,-6.5133010231246e-13,-0.0014215769033584,0.001421576907892,-0.001421576908263,0.0014215769029887,-0.0014215769043171,0.0014215769080667,-0.0014215769089791,0.001421576903363,-0.0013698395843929,0.0013698395980704,-0.001369839599131,0.0013698395836517,-7.3930517944013e-13,1.7463113572691e-14,2.2349199600234e-13,1.3173551968795e-13,-0.0013968537301027,0.0013968537297627,-0.001421576905774,0.0014215769060422,-0.0014215769058479,0.0014215769061279,-0.0014215769056191,0.0014215769064122,-0.0014215769055979,0.0014215769061841,-0.0013698395912913,0.001369839590762,-0.0013698395899689,0.0013698395892553,-0.0013698395920912,0.0013698395887794,-0.0013698395911914,0.0013698395892163,-7.3898105992999e-12,7.1953287170585e-12,-0.0013968537299221,0.0013968537298081,-9.0802755449915e-14,1.2597615151504e-14,-0.0014215769085285,0.0014215769034771,-0.00142157690843,0.001421576903257,-0.0014215769035449,0.001421576908424,-0.0014215769034074,0.0014215769083662,-0.0013698395821304,0.0013698395967732,-0.0013698395970689,0.0013698395819868,0.70048022695778,0.34600422993901,1368840,32768,0.0058033059813468,0.0058033059815612,0.0058033059812814,37.737311735343,37.731315367918,0.00021709849388275,0.00021709849388275,0.00021709849388275,458531.61692147,0.017562544694613
11404800,0.99271183919425,0.016802948373881,0.0056009827912544,0.0056009827914486,0.0056009827911784,-0.0013972901623922,0.0013972901616586,6.6671328089633e-12,-7.4161452653822e-12,2.0894685211121e-14,-7.0959270478289e-13,-0.0014220107718796,0.0014220107762887,-0.0014220107767365,0.0014220107714347,-0.0014220107728502,0.0014220107764993,-0.0014220107774979,0.0014220107717839,-0.0013702784101817,0.0013702784233905,-0.0013702784246107,0.0013702784089693,-7.3262994218757e-13,4.1304914633799e-14,2.1900230962977e-13,1.2957821794498e-13,-0.0013972901622422,0.0013972901619032,-0.0014220107742053,0.0014220107745232,-0.0014220107742974,0.0014220107746395,-0.0014220107740855,0.0014220107749378,-0.0014220107740646,0.0014220107746596,-0.0013702784169936,0.0013702784161261,-0.0013702784157195,0.0013702784147822,-0.0013702784176284,0.0013702784140054,-0.0013702784166668,0.0013702784146683,-7.3492317213097e-12,7.2605130198405e-12,-0.0013972901619909,0.0013972901619482,-5.5949643717966e-14,4.684109844836e-14,-0.0014220107768503,0.0014220107719288,-0.0014220107767804,0.001422010771762,-0.0014220107719771,0.0014220107768891,-0.0014220107718902,0.0014220107767619,-0.0013702784077021,0.0013702784222925,-0.0013702784223227,0.0013702784073302,0.7005743695787,0.3561041030484,1368840,32768,0.0058051138781385,0.0058051138783342,0.0058051138779071,37.64670940765,37.640513408509,0.0002163736752612,0.0002163736752612,0.0002163736752612,454241.5368384,0.01756806392156
11491200,0.99312968756131,0.016809353870247,0.0056031179567098,0.005603117956904,0.0056031179566337,-0.0013976708569184,0.0013976708561761,6.6815666621366e-12,-7.4161946168157e-12,1.2029691324717e-14,-7.2261177764739e-13,-0.0014223966081634,0.001422396612607,-0.0014223966130278,0.0014223966075284,-0.00142239660899,0.0014223966126311,-0.0014223966136719,0.0014223966079428,-0.0013706544647501,0.0013706544781959,-0.0013706544795236,0.0013706544637794,-7.4616185232642e-13,2.9730944681225e-14,2.2879401050003e-13,1.3420306195328e-13,-0.0013976708567704,0.0013976708564331,-0.0014223966104785,0.001422396610639,-0.0014223966105089,0.0014223966107923,-0.0014223966101689,0.0014223966110279,-0.0014223966102623,0.0014223966108817,-0.0013706544715897,0.0013706544710054,-0.001370654470453,0.0013706544696564,-0.0013706544725347,0.001370654468929,-0.0013706544715176,0.0013706544696122,-7.3588227224289e-12,7.2667558291269e-12,-0.0013976708565893,0.0013976708565358,-6.6845252041082e-14,3.8309770839268e-14,-0.0014223966131974,0.001422396608141,-0.0014223966129961,0.0014223966080209,-0.0014223966082846,0.0014223966131284,-0.0014223966079543,0.0014223966132501,-0.0013706544624771,0.0013706544771321,-0.0013706544774132,0.0013706544622318,0.70071349746104,0.36620397615779,1368840,32768,0.0058066908662181,0.0058066908664437,0.0058066908662815,37.555926082438,37.549711449108,0.0002156474086595,0.0002156474086595,0.0002156474086595,450695.16400549,0.017572878304882
11577600,0.99352179816153,0.01681536667352,0.0056051222244671,0.0056051222246613,0.0056051222243911,-0.0013980204376548,0.0013980204369432,6.6820129720316e-12,-7.4289988727133e-12,1.3848282826818e-14,-7.2738410244438e-13,-0.0014227498010125,0.0014227498051789,-0.0014227498057889,0.0014227498003582,-0.0014227498013368,0.0014227498049456,-0.0014227498063326,0.0014227498007163,-0.0013710009866557,0.0013710009997272,-0.001371001000905,0.0013710009855349,-7.612666850018e-13,2.6851856164814e-14,2.0035117352682e-13,9.9896036479951e-14,-0.0013980204375879,0.0013980204371994,-0.0014227498031649,0.001422749803402,-0.0014227498030964,0.0014227498035705,-0.0014227498029084,0.0014227498037115,-0.0014227498029796,0.0014227498036042,-0.0013710009933023,0.0013710009926893,-0.001371000992115,0.0013710009911187,-0.0013710009939589,0.001371000990842,-0.0013710009934705,0.0013710009913663,-7.3722893110338e-12,7.2652745214387e-12,-0.0013980204373118,0.0013980204372825,-4.4272353392347e-14,6.7669579799611e-14,-0.0014227498057372,0.0014227498009127,-0.0014227498057561,0.0014227498007769,-0.001422749800868,0.0014227498058753,-0.0014227498006659,0.0014227498055993,-0.0013710009844085,0.0013710009988043,-0.0013710009989168,0.0013710009839001,0.70089482247855,0.37630384926719,1368840,32768,0.0058081389680629,0.0058081389684548,0.0058081389680554,37.465124529528,37.4589094897,0.00021492099623622,0.00021492099623622,0.00021492099623622,447212.06046272,0.017577299229078
11664000,0.99388985027223,0.016821012613266,0.0056070042043825,0.0056070042045768,0.0056070042043065,-0.0013983409195008,0.0013983409186907,6.6511250921057e-12,-7.460292210841e-12,-9.6142357034634e-15,-7.9224685622589e-13,-0.0014230720376048,0.0014230720420068,-0.0014230720425393,0.0014230720370514,-0.0014230720386771,0.0014230720419377,-0.0014230720431231,0.0014230720373913,-0.001371320170344,0.0013713201835251,-0.0013713201847298,0.0013713201686876,-7.5666041395551e-13,6.8090625760475e-14,2.4857593558756e-13,1.5974885507625e-13,-0.0013983409192774,0.0013983409189781,-0.0014230720399216,0.0014230720401223,-0.0014230720398374,0.0014230720402522,-0.001423072039737,0.0014230720405449,-0.0014230720397491,0.0014230720402477,-0.0013713201769238,0.0013713201761397,-0.0013713201753429,0.0013713201749729,-0.0013713201775894,0.0013713201743442,-0.0013713201769523,0.0013713201748354,-7.4696570423988e-12,7.1682380740708e-12,-0.0013983409192137,0.0013983409189888,-1.4425206378671e-13,-4.0954984147465e-14,-0.0014230720426299,0.0014230720375951,-0.0014230720426157,0.0014230720373748,-0.0014230720378198,0.0014230720424505,-0.0014230720377721,0.0014230720423961,-0.0013713201677094,0.0013713201827483,-0.001371320182541,0.0013713201676139,0.70111592724886,0.38640372237656,1368840,32768,0.0058094665299778,0.0058094665301104,0.0058094665300008,37.374321113379,37.368107530295,0.00021419456890703,0.00021419456890703,0.00021419456890703,443784.8725535,0.017581352169438
11750400,0.99423540856188,0.016826315710811,0.0056087719035642,0.0056087719037584,0.0056087719034882,-0.0013986341607189,0.0013986341602141,6.773591027326e-12,-7.3114987563789e-12,1.1541900344044e-13,-6.1381042498344e-13,-0.0014233652666485,0.0014233652713763,-0.0014233652715829,0.0014233652666592,-0.0014233652675794,0.0014233652716155,-0.0014233652724702,0.0014233652669139,-0.0013716137610684,0.0013716137750712,-0.0013716137760514,0.0013716137602394,-9.1454973760388e-13,-1.4629508960896e-13,4.4658223957207e-14,-2.6054733457542e-14,-0.0013986341608885,0.0013986341601624,-0.0014233652695598,0.001423365269389,-0.0014233652694652,0.0014233652694789,-0.0014233652693356,0.0014233652697068,-0.0014233652692548,0.0014233652692187,-0.0013716137680277,0.0013716137676191,-0.0013716137668786,0.0013716137660145,-0.0013716137694198,0.0013716137657972,-0.0013716137680686,0.0013716137660823,-7.4495574799561e-12,7.1589421815834e-12,-0.0013986341605622,0.0013986341604003,-9.8801805202083e-14,-1.267631862952e-14,-0.0014233652721124,0.0014233652671014,-0.0014233652720238,0.0014233652667525,-0.0014233652669651,0.0014233652719282,-0.0014233652669539,0.0014233652718922,-0.0013716137590894,0.0013716137741195,-0.0013716137742376,0.0013716137588693,0.70137469863125,0.39650359548599,1368840,32768,0.0058106812510101,0.0058106812512543,0.0058106812510714,37.283517508431,37.277305570885,0.00021346814006745,0.00021346814006745,0.00021346814006745,440411.8268663,0.017585060627269
11836800,0.99455993113708,0.01683130178518,0.0056104339283538,0.005610433928548,0.0056104339282779,-0.0013989022221806,0.0013989022215507,6.7240245121373e-12,-7.3463921609975e-12,5.5472364180881e-14,-6.5589925684558e-13,-0.0014236311845863,0.0014236311891139,-0.0014236311894779,0.0014236311842321,-0.0014236311855578,0.0014236311892871,-0.0014236311902409,0.0014236311845973,-0.0013718843437424,0.0013718843573635,-0.0013718843584322,0.0013718843429288,-7.3333247954907e-13,2.1442021431552e-14,2.2184557571112e-13,1.4531209022715e-13,-0.0013989022220867,0.0013989022217484,-0.0014236311870036,0.0014236311872806,-0.0014236311870918,0.0014236311873477,-0.00142363118686,0.0014236311876519,-0.0014236311868226,0.0014236311874135,-0.0013718843506397,0.0013718843501191,-0.0013718843492001,0.0013718843485793,-0.0013718843514204,0.0013718843481735,-0.0013718843504666,0.0013718843485642,-7.3988434409999e-12,7.197045664607e-12,-0.0013989022219085,0.0013989022217913,-8.3676031989954e-14,4.7987357548578e-15,-0.0014236311897486,0.0014236311847196,-0.0014236311896693,0.0014236311844876,-0.0014236311847752,0.0014236311896598,-0.0014236311846536,0.0014236311895968,-0.0013718843415007,0.0013718843561559,-0.0013718843563957,0.0013718843413558,0.70215792828916,0.41440432049797,1368840,32768,0.0058117916669339,0.0058117916671491,0.0058117916668688,37.192713904662,37.186503611479,0.0002127417112373,0.0002127417112373,0.0002127417112373,437082.54070671,0.017588450655264
11923200,0.99486477704386,0.016835999345799,0.0056119997818934,0.0056119997820877,0.0056119997818175,-0.0013991852717499,0.0013991852711236,6.7298277172063e-12,-7.3548536672102e-12,5.6163754824078e-14,-6.6590783344337e-13,-0.0014238919623144,0.0014238919668512,-0.0014238919672237,0.0014238919619437,-0.0014238919632402,0.0014238919669411,-0.0014238919680147,0.0014238919623366,-0.0013721884500973,0.001372188463818,-0.0013721884646817,0.0013721884491815,-7.259762336891e-13,3.9814989561752e-14,2.1888260740424e-13,1.365014770324e-13,-0.0013991852716582,0.0013991852713292,-0.0014238919647826,0.0014238919649074,-0.0014238919648618,0.0014238919650426,-0.0014238919645822,0.0014238919653113,-0.0014238919646144,0.0014238919651083,-0.0013721884568571,0.0013721884563557,-0.0013721884554703,0.0013721884549055,-0.0013721884575781,0.0013721884542654,-0.0013721884567558,0.0013721884549618,-7.3766027086743e-12,7.2330789755788e-12,-0.0013991852714624,0.0013991852713741,-7.6478957737985e-14,1.7658401724419e-14,-0.0014238919674864,0.0014238919623845,-0.001423891967377,0.0014238919622222,-0.0014238919624913,0.0014238919673566,-0.0014238919622984,0.001423891967306,-0.0013721884475719,0.0013721884624635,-0.001372188462555,0.0013721884477199,0.70419385546801,0.45157405799106,1368840,32768,0.0058129642040712,0.0058129642043071,0.0058129642039946,37.101910353739,37.095701652072,0.00021201528282991,0.00021201528282991,0.00021201528282991,432628.30743789,0.017592030214054
12009600,0.99515155267465,0.016840432280199,0.0056134774266936,0.0056134774268878,0.0056134774266177,-0.0013995807406369,0.0013995807399857,6.7098029171855e-12,-7.3758570843938e-12,5.3679330721529e-14,-6.7188900366391e-13,-0.0014242179915637,0.0014242179960926,-0.0014242179965105,0.0014242179911871,-0.0014242179925395,0.0014242179962849,-0.0014242179971806,0.0014242179915574,-0.0013726481134198,0.0013726481271159,-0.0013726481282552,0.0013726481125383,-7.6294475138508e-13,6.1312538708735e-15,1.970366277251e-13,1.1597078070167e-13,-0.0013995807405527,0.0013995807401794,-0.0014242179939986,0.001424217994219,-0.0014242179940346,0.0014242179943488,-0.0014242179938344,0.0014242179945837,-0.001424217993784,0.0014242179943837,-0.0013726481203811,0.0013726481196907,-0.001372648119075,0.0013726481183299,-0.0013726481211565,0.0013726481177367,-0.0013726481203283,0.001372648118079,-7.3927115106791e-12,7.2183048975049e-12,-0.0013995807403553,0.0013995807402408,-7.6336373858531e-14,1.7036479547244e-14,-0.0014242179967809,0.0014242179916805,-0.0014242179966434,0.0014242179914416,-0.0014242179917592,0.0014242179966209,-0.0014242179916083,0.0014242179965804,-0.0013726481110429,0.0013726481258279,-0.0013726481260359,0.0013726481108839,0.70635740323154,0.48874379548415,1368840,32768,0.0058146025082429,0.0058146025084696,0.0058146025081879,37.03343927965,37.028705240894,0.0002114675142372,0.0002114675142372,0.0002114675142372,425444.59096738,0.017597031418669
12096000,0.99542165014366,0.016844621325986,0.0056148737752891,0.0056148737754833,0.0056148737752132,-0.0013999892142432,0.0013999892135427,6.6943808000853e-12,-7.4005291542084e-12,3.8733699065023e-14,-7.133538839991e-13,-0.0014245564947001,0.001424556499185,-0.0014245564996207,0.0014245564942676,-0.0014245564956805,0.0014245564993601,-0.0014245565003604,0.0014245564946578,-0.0013731208699913,0.0013731208836764,-0.0013731208847814,0.001373120869196,-7.5803569547102e-13,3.6954547534528e-14,2.2029627010017e-13,1.4217740657782e-13,-0.0013999892141124,0.0013999892137713,-0.0014245564971233,0.0014245564973466,-0.0014245564971817,0.0014245564974186,-0.0014245564969112,0.0014245564977338,-0.0014245564969174,0.0014245564975194,-0.0013731208769223,0.0013731208764021,-0.0013731208756076,0.0013731208748919,-0.0013731208777235,0.0013731208743865,-0.001373120876815,0.0013731208748051,-7.3981185807909e-12,7.2225524736268e-12,-0.0013999892139296,0.0013999892138175,-8.3509566487126e-14,6.8773193143804e-15,-0.0014245564998375,0.0014245564947564,-0.0014245564997601,0.0014245564945624,-0.0014245564948538,0.0014245564997462,-0.0014245564947455,0.0014245564996797,-0.0013731208676719,0.0013731208823506,-0.0013731208827098,0.0013731208675876,0.70864325228962,0.52591353297724,1368840,32768,0.005816294681638,0.0058162946818406,0.0058162946815578,36.983789353942,36.980347930741,0.00021107031483153,0.00021107031483153,0.00021107031483153,418423.7003664,0.017602197091503
12182400,0.99567608916992,0.016848581332686,0.0056161937775224,0.0056161937777167,0.0056161937774465,-0.0014003777142554,0.0014003777136399,6.7452770981795e-12,-7.3586405515235e-12,6.6536261480531e-14,-6.6567804634556e-13,-0.0014248758790055,0.0014248758835808,-0.0014248758839133,0.0014248758786573,-0.0014248758799353,0.0014248758837344,-0.0014248758846065,0.0014248758789832,-0.0013735727232527,0.0013735727370372,-0.0013735727380359,0.001373572722552,-7.4032144251164e-13,3.5307097862984e-14,2.302095554914e-13,1.4062290994898e-13,-0.0014003777141576,0.001400377713835,-0.0014248758814378,0.0014248758816956,-0.0014248758814939,0.0014248758817954,-0.001424875881223,0.0014248758820622,-0.0014248758812012,0.0014248758818672,-0.0013735727302716,0.0013735727297816,-0.0013735727289686,0.0013735727281788,-0.0013735727310598,0.001373572727713,-0.0013735727301808,0.001373572728183,-7.4049365489773e-12,7.2248759908802e-12,-0.0014003777139888,0.0014003777138749,-8.9674554621558e-14,1.2243743609096e-14,-0.0014248758842334,0.001424875879135,-0.001424875884086,0.0014248758789542,-0.0014248758792026,0.0014248758841006,-0.0014248758790186,0.0014248758840085,-0.0013735727211104,0.0013735727357471,-0.0013735727361171,0.0013735727209701,0.7110527746102,0.56308327047033,1368840,32768,0.005817904110962,0.0058179041111633,0.0058179041108966,36.935309354634,36.931990620589,0.00021068247483707,0.00021068247483707,0.00021068247483707,411586.31843721,0.017607110186451
12268800,0.99591581024327,0.016852324232486,0.0056174414107892,0.0056174414109835,0.0056174414107133,-0.0014007451840993,0.0014007451834694,6.7367859752245e-12,-7.3636449868767e-12,6.6774313031749e-14,-6.6589968663343e-13,-0.0014251734663215,0.0014251734708809,-0.001425173471244,0.0014251734659698,-0.0014251734672943,0.0014251734710423,-0.0014251734719608,0.0014251734663387,-0.0013740036997279,0.0013740037134468,-0.0013740037145391,0.001374003698994,-7.4080060434416e-13,3.5091751500491e-14,2.282064402146e-13,1.3671188236937e-13,-0.0014007451840002,0.0014007451836718,-0.001425173468755,0.001425173469015,-0.0014251734688142,0.0014251734691082,-0.0014251734685877,0.0014251734693962,-0.001425173468563,0.0014251734691741,-0.001374003706683,0.0013740037061795,-0.0013740037053631,0.0013740037046621,-0.0013740037074692,0.0013740037041335,-0.0013740037065317,0.0013740037046199,-7.4059882227317e-12,7.2201994866854e-12,-0.0014007451838253,0.0014007451837135,-9.0852283348637e-14,1.2624790791896e-14,-0.0014251734715177,0.0014251734664561,-0.001425173471419,0.0014251734662304,-0.0014251734665226,0.0014251734714132,-0.0014251734663849,0.0014251734713419,-0.0013740036975134,0.0013740037121925,-0.001374003712507,0.0013740036973526,0.71326270363554,0.59448294252411,1368840,32768,0.005819426418716,0.00581942641893,0.0058194264186541,36.886939340378,36.883633310436,0.00021029551472302,0.00021029551472302,0.00021029551472302,404901.32928743,0.017611757332625
12355200,0.99614169447439,0.016855841331922,0.0056186137772678,0.0056186137774621,0.0056186137771919,-0.0014010674060794,0.0014010674054445,6.7365191598462e-12,-7.3793732710943e-12,6.4580880039621e-14,-6.731058194322e-13,-0.001425441029465,0.0014254410340393,-0.0014254410343747,0.0014254410290962,-0.001425441030425,0.0014254410341627,-0.001425441035095,0.0014254410295003,-0.0013743748602724,0.0013743748740032,-0.0013743748750412,0.0013743748594528,-7.5126796104419e-13,2.9531921349486e-14,2.2265119815873e-13,1.3181544371691e-13,-0.0014010674059863,0.0014010674056456,-0.0014254410319039,0.0014254410321562,-0.0014254410319456,0.0014254410322652,-0.001425441031711,0.0014254410325305,-0.0014254410317236,0.0014254410323073,-0.001374374867144,0.0013743748666766,-0.0013743748658871,0.0013743748651663,-0.0013743748680134,0.0013743748645747,-0.0013743748670521,0.0013743748652102,-7.4006670323492e-12,7.2409286769522e-12,-0.0014010674057905,0.0014010674057027,-8.085858864915e-14,2.1777864112965e-14,-0.0014254410346478,0.0014254410295912,-0.0014254410345602,0.0014254410293816,-0.0014254410296821,0.0014254410345982,-0.0014254410294902,0.0014254410345177,-0.0013743748579723,0.0013743748727596,-0.0013743748730007,0.0013743748578885,0.71122383951134,0.5528617812204,1368840,32768,0.0058207612630952,0.0058207612633188,0.0058207612630317,36.838580236748,36.835276000283,0.00020990864189399,0.00020990864189399,0.00020990864189399,399134.36504014,0.017615832287021
12441600,0.99635456862071,0.016859107554342,0.0056197025180744,0.0056197025182687,0.0056197025179986,-0.0014010686500229,0.0014010686493925,6.7397076065589e-12,-7.3667238928183e-12,6.8091949249455e-14,-6.7343642697942e-13,-0.0014255350810718,0.0014255350856291,-0.0014255350859872,0.001425535080706,-0.0014255350820361,0.0014255350857879,-0.001425535086705,0.0014255350810701,-0.0013742882233037,0.0013742882370151,-0.0013742882380291,0.00137428822252,-7.478689178238e-13,3.6906637233449e-14,2.413694498584e-13,1.2944345735594e-13,-0.0014010686499151,0.0014010686495881,-0.0014255350833991,0.0014255350836714,-0.0014255350834704,0.0014255350837581,-0.001425535083224,0.0014255350840468,-0.0014255350832118,0.0014255350838206,-0.0013742882302148,0.0013742882297209,-0.0013742882289606,0.0013742882281979,-0.0013742882311506,0.0013742882277737,-0.0013742882302318,0.0013742882282583,-7.4000685800433e-12,7.2320562421167e-12,-0.0014010686497352,0.0014010686496328,-1.0025987830601e-13,2.3538222099943e-14,-0.0014255350861573,0.0014255350810963,-0.0014255350860549,0.0014255350808835,-0.0014255350811593,0.0014255350860595,-0.0014255350810213,0.0014255350860025,-0.0013742882211237,0.001374288235855,-0.0013742882361126,0.0013742882210521,0.70080292353177,0.38766121643206,1368840,32768,0.0058207662220122,0.005820766222194,0.0058207662219139,36.790222089668,36.78691869013,0.00020952177671735,0.00020952177671735,0.00020952177671735,402385.77678158,0.017615848153763
12528000,0.99655520861007,0.016862198732024,0.0056207329106353,0.0056207329108296,0.0056207329105594,-0.0014004757263645,0.001400475725732,6.7391210509484e-12,-7.3644167868282e-12,5.6540743307338e-14,-6.7273362492013e-13,-0.001425319808847,0.0014253198134321,-0.0014253198137859,0.0014253198084719,-0.0014253198098083,0.0014253198136255,-0.0014253198145247,0.0014253198088366,-0.0013733496003931,0.0013733496140666,-0.0013733496151689,0.0013733495997088,-7.3803680642335e-13,3.4744967976843e-14,2.4335185988537e-13,1.38891683425e-13,-0.0014004757262645,0.0014004757259361,-0.0014253198112864,0.001425319811552,-0.0014253198113589,0.001425319811612,-0.001425319811148,0.0014253198119038,-0.0014253198110795,0.0014253198116953,-0.0013733496072204,0.0013733496068321,-0.0013733496060637,0.0013733496053053,-0.0013733496081503,0.0013733496048566,-0.0013733496072905,0.0013733496053365,-7.4125570808811e-12,7.2162959000549e-12,-0.0014004757260919,0.0014004757259706,-1.0583753144195e-13,1.0332801987051e-14,-0.0014253198140298,0.0014253198089378,-0.0014253198139515,0.0014253198087346,-0.0014253198090212,0.0014253198139244,-0.0014253198088945,0.0014253198138739,-0.0013733495982405,0.0013733496128118,-0.0013733496131536,0.0013733495980603,0.70372109796888,0.44416568327059,1368840,32768,0.0058183094682052,0.0058183094684208,0.005818309468135,36.741864330963,36.738561379977,0.0002091349146477,0.0002091349146477,0.0002091349146477,423246.82066197,0.017608350136202
12614400,0.99674434273403,0.016865082868919,0.0056216942896003,0.0056216942897945,0.0056216942895243,-0.0014008707852517,0.0014008707846064,6.7243845305507e-12,-7.3747345892735e-12,5.0696833599474e-14,-6.7190103270819e-13,-0.0014256079405522,0.0014256079450997,-0.0014256079454626,0.0014256079401807,-0.0014256079415043,0.0014256079452475,-0.0014256079461571,0.0014256079405523,-0.001373844534633,0.001373844548306,-0.0013738445494207,0.0013738445339109,-7.6443561760485e-13,1.2170510552198e-15,2.3471000624101e-13,1.065672738547e-13,-0.0014008707851601,0.0014008707848004,-0.001425607942995,0.0014256079432384,-0.0014256079430752,0.001425607943336,-0.0014256079427893,0.0014256079436083,-0.0014256079428243,0.0014256079433821,-0.0013738445415203,0.0013738445410294,-0.0013738445403898,0.001373844539443,-0.0013738445424067,0.0013738445389941,-0.0013738445415107,0.0013738445394933,-7.4009348476971e-12,7.2235862655745e-12,-0.0014008707849674,0.0014008707848581,-1.084989795483e-13,3.1545859825048e-14,-0.0014256079457313,0.0014256079406887,-0.001425607945638,0.0014256079404861,-0.0014256079407336,0.0014256079456125,-0.0014256079406153,0.001425607945568,-0.0013738445324051,0.0013738445470601,-0.0013738445473349,0.0013738445322026,0.69674658253727,0.34134742341345,1368840,32768,0.0058199461529082,0.0058199461531202,0.0058199461528409,36.693506434947,36.690204069824,0.00020874805147957,0.00020874805147957,0.00020874805147957,414132.79690713,0.017613346177359
12700800,0.99692265472249,0.016867805579508,0.0056226018597965,0.0056226018599908,0.0056226018597206,-0.0014004929271626,0.001400492926528,6.7339100924925e-12,-7.3691167020725e-12,5.9632501797415e-14,-6.6378713352342e-13,-0.0014254918385914,0.001425491843137,-0.0014254918435123,0.0014254918382239,-0.0014254918395496,0.0014254918433056,-0.0014254918442263,0.0014254918385918,-0.0013732286653856,0.0013732286790746,-0.0013732286801358,0.001373228664595,-7.4335832032534e-13,2.3525693070931e-14,2.4531185883228e-13,1.1281837700544e-13,-0.0014004929270666,0.0014004929267274,-0.00142549184101,0.0014254918412834,-0.0014254918410924,0.0014254918413592,-0.0014254918408479,0.0014254918416546,-0.0014254918408384,0.0014254918414182,-0.0013732286722733,0.0013732286717973,-0.0013732286710163,0.0013732286702409,-0.0013732286730978,0.0013732286697513,-0.001373228672191,0.0013732286702155,-7.3959431766598e-12,7.2324596415578e-12,-0.0014004929268771,0.001400492926782,-1.0401376362739e-13,4.0376825339231e-14,-0.001425491843771,0.0014254918387095,-0.0014254918436639,0.0014254918385061,-0.0014254918387745,0.0014254918436715,-0.0014254918386272,0.0014254918436226,-0.001373228663107,0.0013732286778376,-0.0013732286780673,0.001373228663002,0.69757501437499,0.36632788116199,1368840,32768,0.0058183805053403,0.0058183805055545,0.0058183805052753,36.645148651214,36.641846759671,0.00020836118920971,0.00020836118920971,0.00020836118920971,427930.98274089,0.017608567865712
12787200,0.99708988618296,0.01687035828372,0.0056234527612004,0.0056234527613947,0.0056234527611245,-0.00140052142192,0.0014005214212938,6.7522979719319e-12,-7.3633634660652e-12,5.6299721258632e-14,-6.5883534362073e-13,-0.0014254784267528,0.0014254784313129,-0.0014254784316799,0.0014254784263905,-0.0014254784277146,0.0014254784314789,-0.0014254784323952,0.0014254784267609,-0.0013732974246623,0.0013732974383804,-0.0013732974393738,0.0013732974238958,-7.2970941376065e-13,2.856759786773e-14,2.2511506406579e-13,1.1827797492435e-13,-0.0014005214218281,0.0014005214214892,-0.0014254784291763,0.0014254784294546,-0.0014254784292658,0.0014254784295323,-0.00142547842902,0.0014254784298308,-0.0014254784290062,0.0014254784295942,-0.0013732974316229,0.0013732974310207,-0.0013732974302806,0.0013732974294918,-0.0013732974322949,0.0013732974290326,-0.0013732974314513,0.0013732974294544,-7.4037952897243e-12,7.2372897292961e-12,-0.0014005214216409,0.0014005214215418,-8.9455443668189e-14,2.9593742990289e-14,-0.0014254784319542,0.0014254784268734,-0.0014254784318405,0.0014254784266714,-0.0014254784269484,0.0014254784318444,-0.0014254784268025,0.0014254784317946,-0.0013732974223484,0.0013732974370741,-0.00137329743733,0.0013732974222918,0.6974700486648,0.37449136351002,1368840,32768,0.0058184985988808,0.0058184985990951,0.0058184985988165,36.495977530681,36.486035919083,0.00020716782024545,0.00020716782024545,0.00020716782024545,423195.60141182,0.017608928244325
12873600,0.99724613943029,0.016872743479549,0.005624247826477,0.0056242478266712,0.0056242478264011,-0.0014003034745073,0.0014003034738414,6.7389465268682e-12,-7.3826921108825e-12,-1.4204036664665e-14,-6.9105418288672e-13,-0.0014252584296977,0.0014252584344089,-0.0014252584353392,0.0014252584296269,-0.001425258431249,0.0014252584339839,-0.0014252584359001,0.0014252584300952,-0.0013730832787706,0.0013730832927757,-0.0013730832940922,0.0013730832787995,-5.8364749349912e-13,1.2656792755434e-13,3.8888582568732e-13,2.4977217845493e-13,-0.0014003034743015,0.0014003034741972,-0.0014252584319614,0.0014252584329129,-0.0014252584321632,0.0014252584330162,-0.0014252584312734,0.0014252584331305,-0.0014252584320683,0.0014252584335141,-0.001373083284936,0.0013730832855588,-0.001373083284345,0.0013730832840018,-0.0013730832867094,0.0013730832833882,-0.0013730832859317,0.0013730832840736,-7.368740654737e-12,7.2835026704636e-12,-0.0014003034742507,0.0014003034742093,-9.9230086236039e-14,5.703308120793e-14,-0.00142525843484,0.0014252584299238,-0.0014252584352724,0.0014252584301832,-0.0014252584302189,0.0014252584347682,-0.0014252584300863,0.0014252584350255,-0.0013730832767503,0.001373083291379,-0.00137308329181,0.0013730832767338,0.69742426832951,0.382654845858,1368840,32768,0.0058175957499952,0.0058175957503057,0.0058175957502258,36.268522704066,36.253207635944,0.00020534818163253,0.00020534818163253,0.00020534818163253,420967.07368207,0.017606172063664
12960000,0.99739219246849,0.016874973063312,0.0056249910210646,0.0056249910212589,0.0056249910209887,-0.0014000644641977,0.0014000644635392,6.7516671382623e-12,-7.3853246186965e-12,-2.4825065140712e-14,-6.6816397040229e-13,-0.001425013860585,0.0014250138650158,-0.0014250138655897,0.0014250138599774,-0.0014250138611369,0.0014250138653438,-0.0014250138661211,0.0014250138602972,-0.0013728506796736,0.0013728506932264,-0.0013728506938797,0.0013728506792717,-3.9399146383123e-13,2.8859980112124e-13,6.5297811079047e-13,4.5146309046542e-13,-0.0014000644635986,0.0014000644639527,-0.0014250138624721,0.0014250138635122,-0.0014250138620324,0.0014250138634456,-0.0014250138621234,0.0014250138636914,-0.001425013862062,0.0014250138635024,-0.0013728506855146,0.0013728506872978,-0.0013728506850789,0.0013728506852626,-0.0013728506871127,0.0013728506848448,-0.0013728506865314,0.0013728506856899,-7.2787563448723e-12,7.3949904998811e-12,-0.0014000644637769,0.0014000644638868,8.9955487215731e-15,2.1426021920326e-13,-0.0014250138653513,0.0014250138606122,-0.0014250138654211,0.0014250138604424,-0.0014250138605832,0.0014250138654754,-0.0014250138605806,0.001425013865264,-0.0013728506782045,0.0013728506929316,-0.0013728506936675,0.0013728506786541,0.69743141816304,0.39081832820606,1368840,32768,0.005816605652871,0.0058166056524864,0.0058166056527195,36.036192288134,36.02037935279,0.00020348953830507,0.00020348953830507,0.00020348953830507,418683.83221933,0.017603149506215
13046400,0.99752879811554,0.016877058652385,0.0056256862174223,0.0056256862176164,0.0056256862173464,-0.0013998136182453,0.0013998136176581,6.7916161531414e-12,-7.3802638321236e-12,5.8611827095974e-14,-6.1634893566898e-13,-0.001424756078883,0.0014247560836312,-0.0014247560841399,0.0014247560787724,-0.0014247560803191,0.0014247560846227,-0.0014247560855991,0.0014247560796348,-0.0013726073524507,0.0013726073667391,-0.0013726073677026,0.0013726073524667,-6.5400849107776e-13,5.8308512832605e-14,3.2135030061596e-13,1.4165926064212e-13,-0.0013998136180461,0.0013998136178785,-0.0014247560815569,0.0014247560819572,-0.0014247560813932,0.0014247560822318,-0.0014247560812826,0.0014247560825777,-0.001424756081048,0.0014247560818123,-0.0013726073592921,0.0013726073583429,-0.0013726073579537,0.0013726073575023,-0.0013726073604636,0.0013726073563996,-0.0013726073588515,0.0013726073572545,-7.3337823109257e-12,7.366727480944e-12,-0.0013998136178506,0.0013998136179541,-1.1268891037232e-14,1.852915747637e-13,-0.001424756083946,0.0014247560790286,-0.0014247560839007,0.0014247560790598,-0.0014247560790415,0.0014247560843016,-0.0014247560789053,0.0014247560842086,-0.0013726073498817,0.001372607365484,-0.0013726073653254,0.0013726073500922,0.69748633317503,0.39898181055408,1368840,32768,0.005815566526858,0.0058155665269019,0.0058155665266539,35.803404044561,35.787551069656,0.00020162723235649,0.00020162723235649,0.00020162723235649,416398.98446463,0.017599977276175
13132800,0.99765665098529,0.016879010942462,0.0056263369807814,0.0056263369809755,0.0056263369807055,-0.0013995524591989,0.0013995524582888,6.5945935396941e-12,-7.5139257488438e-12,-1.361317530331e-13,-8.6016160500635e-13,-0.0014244869932096,0.0014244869975298,-0.0014244869977617,0.0014244869925097,-0.0014244869943125,0.0014244869977005,-0.0014244869989743,0.0014244869929759,-0.001372354532418,0.0013723545464814,-0.0013723545475874,0.0013723545313502,-4.5902618294755e-13,3.0088819042526e-13,5.4138534340232e-13,3.9329480864298e-13,-0.0013995524587017,0.0013995524588423,-0.0014244869952142,0.0014244869958861,-0.001424486995205,0.0014244869959827,-0.0014244869953846,0.0014244869962424,-0.0014244869949286,0.0014244869961555,-0.0013723545388684,0.0013723545381184,-0.0013723545379226,0.0013723545371259,-0.001372354539823,0.0013723545363262,-0.0013723545389426,0.0013723545372531,-7.2730808711953e-12,7.3654801072857e-12,-0.0013995524585744,0.0013995524587754,3.9760432404906e-14,2.0260422234479e-13,-0.0014244869977619,0.0014244869929723,-0.0014244869979884,0.001424486992925,-0.0014244869930076,0.0014244869980302,-0.0014244869925123,0.0014244869978485,-0.0013723545298801,0.0013723545450004,-0.0013723545448464,0.0013723545299789,0.69758471227273,0.40714529290216,1368840,32768,0.0058144846776071,0.0058144846777237,0.0058144846773216,35.570569873491,35.554722786517,0.00019976455898793,0.00019976455898793,0.00019976455898793,414121.66038671,0.017596674625519
13219200,0.99777638958392,0.016880839743737,0.0056269465812064,0.0056269465814006,0.0056269465811305,-0.0013992817533193,0.0013992817524672,6.6055921595761e-12,-7.523578512782e-12,-8.8125219599739e-14,-8.0437372105261e-13,-0.0014242075118169,0.0014242075166934,-0.0014242075169515,0.0014242075117277,-0.0014242075134052,0.0014242075169435,-0.0014242075181008,0.0014242075121415,-0.0013720928539033,0.0013720928664881,-0.0013720928687582,0.0013720928533601,-6.850274552344e-13,6.6941572627966e-14,2.5590312351171e-13,1.1002366826422e-13,-0.0013992817532286,0.0013992817528928,-0.0014242075146466,0.0014242075147362,-0.0014242075148748,0.0014242075147568,-0.0014242075147454,0.001424207515203,-0.0014242075140352,0.0014242075151774,-0.0013720928602198,0.0013720928583577,-0.0013720928590949,0.001372092857427,-0.0013720928608424,0.0013720928562867,-0.0013720928601874,0.0013720928584773,-7.3417368914481e-12,7.3073925288801e-12,-0.0013992817529575,0.0013992817529643,-5.5700651324513e-14,9.7330556030088e-14,-0.0014242075170155,0.0014242075123936,-0.0014242075175164,0.0014242075120341,-0.0014242075124607,0.0014242075172931,-0.001424207512333,0.0014242075172324,-0.0013720928519208,0.001372092865942,-0.0013720928655087,0.0013720928508791,0.69772293893293,0.41530877525012,1368840,32768,0.0058133632807803,0.0058133632814741,0.0058133632810605,35.337731026915,35.321894503364,0.00019790184821532,0.00019790184821532,0.00019790184821532,411855.08291951,0.017593251252095
13305600,0.9978886009623,0.016882551965853,0.0056275173219115,0.0056275173221057,0.0056275173218356,-0.00139900196689,0.0013990019670471,7.1647098730314e-12,-6.9983458523969e-12,3.8401576858187e-13,-2.8031176019755e-13,-0.0014239182567184,0.0014239182621093,-0.0014239182617614,0.0014239182571949,-0.001423918257837,0.0014239182625068,-0.0014239182624748,0.0014239182577319,-0.0013718225772125,0.0013718225907563,-0.0013718225919634,0.0013718225776712,-7.3056374060273e-13,-2.3209820367684e-14,2.1281343987196e-13,6.8760664114793e-14,-0.0013990019671454,0.0013990019667882,-0.0014239182596127,0.0014239182596544,-0.0014239182599193,0.0014239182598486,-0.0014239182593829,0.0014239182601904,-0.0014239182595288,0.0014239182599895,-0.001371822584748,0.0013718225840016,-0.0013718225823203,0.001371822582657,-0.0013718225859041,0.0013718225824759,-0.0013718225848808,0.0013718225823877,-7.0295453698613e-12,7.6530107940088e-12,-0.0013990019667202,0.0013990019672894,2.3710493307764e-13,3.9150427510725e-13,-0.0014239182619835,0.0014239182576369,-0.0014239182619942,0.0014239182573768,-0.0014239182572438,0.0014239182624908,-0.0014239182570533,0.0014239182622822,-0.0013718225763192,0.0013718225909278,-0.0013718225899874,0.0013718225762062,0.69704604370141,0.40983348306017,1368840,32768,0.0058122042685147,0.0058122042685075,0.0058122042686652,35.10489163294,35.089066220232,0.00019603913306352,0.00019603913306352,0.00019603913306352,409604.51762589,0.017589713054368
13392000,0.99799382518874,0.016884153684558,0.0056280512281467,0.0056280512283409,0.0056280512280708,-0.0013986498603955,0.0013986498597964,6.7854660321999e-12,-7.356997484071e-12,5.7662061992999e-14,-6.2056239518597e-13,-0.0014235870767339,0.0014235870813119,-0.0014235870817328,0.0014235870763746,-0.0014235870777117,0.0014235870815082,-0.0014235870824118,0.0014235870768108,-0.0013714519400534,0.001371451953799,-0.0013714519547556,0.0013714519393224,-7.0591246427054e-13,1.5868868158147e-14,2.5483203858556e-13,8.6992430676251e-14,-0.0013986498603214,0.0013986498599726,-0.0014235870792057,0.0014235870794559,-0.0014235870792807,0.0014235870795435,-0.0014235870790408,0.00142358707982,-0.001423587079048,0.0014235870795917,-0.0013714519468939,0.0013714519464289,-0.0013714519455975,0.0013714519447909,-0.0013714519475821,0.0013714519445074,-0.0013714519469162,0.0013714519449033,-7.3867762214099e-12,7.2808963971423e-12,-0.0013986498601083,0.0013986498600445,-9.5768191994531e-14,8.419731018291e-14,-0.0014235870819446,0.0014235870768412,-0.001423587081833,0.0014235870766364,-0.001423587076932,0.0014235870818611,-0.0014235870767816,0.0014235870818032,-0.0013714519376669,0.001371451952419,-0.0013714519526301,0.0013714519376461,0.69533865356856,0.38837101080074,1368840,32768,0.0058107456189955,0.005810745619207,0.0058107456189146,34.872052103129,34.856237937084,0.00019417641682503,0.00019417641682503,0.00019417641682503,409266.91794937,0.017585260301615
13478400,0.99809255942705,0.016885652729153,0.0056285509096782,0.0056285509098724,0.0056285509096023,-0.0013982134067992,0.0013982134061776,6.7465913227367e-12,-7.3679912070439e-12,5.2207375688745e-14,-6.5015769695217e-13,-0.0014232103980263,0.0014232104025862,-0.0014232104029635,0.001423210397671,-0.0014232103989641,0.0014232104027617,-0.0014232104036635,0.001423210398043,-0.0013709618313444,0.0013709618451159,-0.0013709618460828,0.0013709618305624,-7.4712555817999e-13,-1.8921774893942e-15,3.0694756413908e-13,5.6009186016637e-14,-0.0013982134067409,0.0013982134063936,-0.0014232104006537,0.0014232104009676,-0.0014232104007657,0.0014232104010127,-0.0014232104004996,0.0014232104013262,-0.0014232104005234,0.0014232104010663,-0.001370961837984,0.0013709618376812,-0.0013709618368247,0.001370961835957,-0.0013709618385972,0.0013709618351927,-0.0013709618377393,0.0013709618355911,-7.3774922697341e-12,7.2626982472009e-12,-0.0013982134065265,0.0013982134064764,-1.3382708814491e-13,1.2881947641813e-13,-0.0014232104034313,0.0014232103983749,-0.0014232104033074,0.0014232103982154,-0.0014232103984465,0.0014232104033442,-0.0014232103982641,0.0014232104033309,-0.0013709618284649,0.0013709618433486,-0.0013709618434816,0.0013709618285035,0.69354142784246,0.36690853854131,1368840,32768,0.0058089375076667,0.0058089375079933,0.0058089375077208,34.639212561719,34.623409653942,0.00019231370049375,0.00019231370049375,0.00019231370049375,411270.82489763,0.017579740932843
13564800,0.99818549495138,0.016887061280803,0.0056290204268947,0.005629020427089,0.0056290204268189,-0.0013978559980521,0.0013978559975793,6.7882106983522e-12,-7.343165965438e-12,1.0056672187333e-13,-5.7996198844171e-13,-0.0014229092686236,0.0014229092738978,-0.0014229092735531,0.0014229092688582,-0.0014229092693433,0.0014229092736687,-0.0014229092743036,0.0014229092686858,-0.0013705532266431,0.0013705532403828,-0.0013705532410457,0.0013705532260781,-9.0969841522021e-13,-1.8357780358882e-13,1.1394516611221e-13,-7.495062207465e-14,-0.0013978559986821,0.0013978559979849,-0.0014229092722336,0.001422909272147,-0.0014229092723992,0.0014229092724051,-0.0014229092724033,0.0014229092726797,-0.0014229092722474,0.0014229092723646,-0.0013705532354726,0.0013705532347389,-0.0013705532340359,0.0013705532330476,-0.0013705532329048,0.001370553228948,-0.0013705532320212,0.0013705532295108,-7.3913901981031e-12,7.2610691793208e-12,-0.0013978559982546,0.0013978559982118,-7.584644764897e-14,1.2451537261143e-13,-0.0014229092745895,0.0014229092697905,-0.0014229092747131,0.0014229092699161,-0.0014229092702245,0.0014229092749124,-0.0014229092700341,0.001422909275027,-0.0013705532225427,0.0013705532372824,-0.0013705532374836,0.0013705532227529,0.69236986870639,0.35653166287173,1368840,32768,0.0058074568432158,0.0058074568453608,0.0058074568449455,34.452656082042,34.439893091616,0.00019082124865633,0.00019082124865633,0.00019082124865633,413335.21381406,0.017575221173807
13651200,0.99827317342513,0.016888389571938,0.0056294631906063,0.005629463190801,0.0056294631905309,-0.0013976073937876,0.0013976073931868,6.7685810039082e-12,-7.3581318023596e-12,5.2083702996272e-14,-6.2281544400394e-13,-0.0014226961733434,0.0014226961783203,-0.0014226961780769,0.0014226961729845,-0.0014226961739678,0.00142269617782,-0.001422696178894,0.0014226961731817,-0.00137027354165,0.0013702735554942,-0.0013702735558682,0.0013702735406887,-7.0885128625625e-13,1.1617968608446e-14,3.2981868897133e-13,1.1792975026826e-13,-0.0013976073939933,0.0013976073937287,-0.001422696175817,0.0014226961763068,-0.0014226961757784,0.0014226961763888,-0.0014226961757887,0.0014226961766289,-0.0014226961756593,0.0014226961763139,-0.0013702735515383,0.0013702735510769,-0.0013702735500637,0.0013702735491454,-0.0013702735544375,0.0013702735508664,-0.001370273553336,0.0013702735517206,-7.4813445088842e-12,7.1746299376273e-12,-0.0013976073939975,0.0013976073937212,-2.1613533839024e-13,6.3754522931323e-15,-0.0014226961789809,0.0014226961735034,-0.0014226961788084,0.0014226961732879,-0.0014226961738204,0.0014226961782976,-0.0014226961736969,0.0014226961783899,-0.0013702735446424,0.0013702735589043,-0.001370273559362,0.0013702735446505,0.6920979636673,0.36076519790319,1368840,32768,0.0058064269449186,0.0058064269464657,0.0058064269464591,34.299178175378,34.28868913404,0.00018959342540302,0.00018959342540302,0.00018959342540302,413949.26274257,0.017572077358166
13737600,0.99835593520214,0.016889642926899,0.0056298809755933,0.0056298809757881,0.005629880975518,-0.0013974275355298,0.0013974275349456,6.8241129986204e-12,-7.3268359937191e-12,7.3500666369801e-14,-6.072296554332e-13,-0.001422518151642,0.0014225181564898,-0.0014225181571076,0.0014225181515853,-0.0014225181527706,0.0014225181566137,-0.0014225181576605,0.0014225181518266,-0.0013700938521494,0.0013700938660395,-0.0013700938663741,0.0013700938512216,-7.9108118595396e-13,-6.8669078677371e-14,2.4456646983869e-13,2.0885391377394e-14,-0.0013974275354102,0.0013974275349708,-0.0014225181540495,0.0014225181541769,-0.0014225181540876,0.0014225181541431,-0.0014225181540107,0.001422518154194,-0.001422518153106,0.0014225181542505,-0.0013700938594425,0.001370093858934,-0.0013700938586804,0.0013700938573412,-0.0013700938607481,0.0013700938577593,-0.0013700938601234,0.0013700938581101,-7.2909676188851e-12,7.3836304351585e-12,-0.0013974275350611,0.0013974275351723,-5.4406808497582e-14,1.7428755798768e-13,-0.0014225181567061,0.001422518151721,-0.0014225181562886,0.0014225181511199,-0.0014225181517153,0.0014225181564513,-0.00142251815127,0.0014225181564371,-0.0013700938509778,0.0013700938660024,-0.0013700938657877,0.0013700938512644,0.69185814987601,0.36499873293473,1368840,32768,0.0058056818780817,0.0058056818778861,0.0058056818775804,34.147756046621,34.137485176479,0.00018838204837296,0.00018838204837296,0.00018838204837296,412485.26186354,0.017569802892233
13824000,0.99843408800482,0.016890826145213,0.0056302753816978,0.0056302753818924,0.0056302753816223,-0.0013972428655272,0.0013972428649714,6.8222017187734e-12,-7.2829405111666e-12,9.169052244689e-14,-6.005794468278e-13,-0.001422332788409,0.0014223327930662,-0.001422332793495,0.0014223327882351,-0.001422332789632,0.001422332793408,-0.0014223327942389,0.0014223327886183,-0.0013699112598627,0.0013699112739289,-0.0013699112745506,0.001369911259555,-6.5935976877637e-13,7.1342379362811e-14,3.7644267640522e-13,1.2344125836606e-13,-0.0013972428654024,0.0013972428651396,-0.0014223327906144,0.0014223327911668,-0.0014223327906342,0.001422332791274,-0.0014223327905437,0.0014223327913067,-0.0014223327907592,0.0014223327912549,-0.0013699112673253,0.0013699112670369,-0.0013699112664197,0.0013699112653114,-0.0013699112680984,0.0013699112654232,-0.0013699112673268,0.0013699112657615,-7.2574341727207e-12,7.3671758790104e-12,-0.00139724286503,0.0013972428651917,-4.0615347464309e-14,2.2383075035951e-13,-0.0014223327932929,0.0014223327886025,-0.0014223327933436,0.0014223327881965,-0.0014223327884894,0.001422332793381,-0.0014223327882217,0.0014223327934916,-0.0013699112585107,0.0013699112732368,-0.001369911273515,0.0013699112587293,0.69164748518073,0.36923226796619,1368840,32768,0.0058049168767252,0.0058049168768148,0.0058049168761516,33.996526055096,33.986281218904,0.00018717220844077,0.00018717220844077,0.00018717220844077,410995.839824,0.017567467578612
13910400,0.99850791781665,0.016891943638403,0.0056306478794281,0.0056306478796227,0.0056306478793526,-0.0013970533533382,0.0013970533526881,6.7566936170597e-12,-7.356089511809e-12,3.6902372657846e-14,-6.5359550369424e-13,-0.0014221417385152,0.0014221417431316,-0.0014221417433328,0.0014221417384913,-0.001422141739897,0.0014221417437476,-0.0014221417443797,0.0014221417385188,-0.0013697244701401,0.0013697244842008,-0.0013697244851044,0.0013697244699287,-7.2449057319265e-13,9.8764629867176e-15,2.788178352477e-13,-2.1198322994019e-15,-0.0013970533532373,0.0013970533528566,-0.0014221417409545,0.0014221417412065,-0.0014221417412553,0.0014221417413131,-0.001422141740809,0.0014221417413584,-0.0014221417409086,0.0014221417412416,-0.0013697244773946,0.0013697244766329,-0.0013697244765538,0.0013697244752871,-0.0013697244785994,0.0013697244750846,-0.0013697244774468,0.0013697244753301,-7.339604133073e-12,7.2963786300531e-12,-0.001397053352946,0.0013970533529785,-8.7450269630762e-14,2.0518279063012e-13,-0.0014221417434147,0.0014221417387011,-0.0014221417431962,0.0014221417380831,-0.0014221417384392,0.0014221417433418,-0.0014221417383414,0.0014221417434326,-0.0013697244688567,0.0013697244833218,-0.0013697244837211,0.0013697244685746,0.69146350975213,0.37346580299768,1368840,32768,0.005804131815548,0.0058041318156881,0.0058041318153372,33.845315245449,33.835077261336,0.00018596252196359,0.00018596252196359,0.00018596252196359,409503.84252302,0.017565071032072
13996800,0.99857769121029,0.016892999510168,0.0056309998366831,0.0056309998368777,0.0056309998366076,-0.0013968592419723,0.0013968592411165,6.6358532204156e-12,-7.4876904326676e-12,-1.2444011020476e-13,-7.1909832615739e-13,-0.0014219455441643,0.0014219455483336,-0.0014219455489856,0.0014219455433037,-0.0014219455451037,0.0014219455484835,-0.0014219455497145,0.0014219455435515,-0.0013695335143417,0.0013695335280285,-0.0013695335294348,0.0013695335127842,-7.6437509004216e-13,-1.2787232888225e-13,2.6918724710261e-13,-3.6210217332128e-14,-0.0013968592418589,0.0013968592413475,-0.0014219455462719,0.0014219455465543,-0.0014219455464644,0.0014219455468493,-0.0014219455459895,0.0014219455468153,-0.00142194554616,0.0014219455465932,-0.0013695335213051,0.001369533520476,-0.0013695335207698,0.0013695335189474,-0.0013695335220956,0.0013695335186909,-0.0013695335213645,0.0013695335190293,-7.3351552689828e-12,7.3136601021159e-12,-0.0013968592414955,0.0013968592415181,-1.4009719071523e-13,1.7240549783627e-13,-0.001421945548966,0.0014219455438918,-0.0014219455485466,0.0014219455437498,-0.0014219455440703,0.0014219455489763,-0.0014219455437742,0.0014219455489034,-0.0013695335119137,0.0013695335273448,-0.0013695335269222,0.0013695335116483,0.69130414588351,0.37769933802919,1368840,32768,0.0058033277013701,0.0058033277016132,0.0058033277012143,33.694106383019,33.683873303771,0.00018475285106415,0.00018475285106415,0.00018475285106415,408013.9308851,0.017562616326206
14083200,0.99864365682638,0.016893996376194,0.0056313321253582,0.0056313321255528,0.0056313321252826,-0.0013966606818916,0.0013966606812012,6.6818015079034e-12,-7.4611597137511e-12,-2.4964560879213e-14,-6.541103409075e-13,-0.0014217444574449,0.0014217444617443,-0.0014217444619031,0.0014217444569531,-0.0014217444582394,0.0014217444619861,-0.0014217444630664,0.0014217444570885,-0.0013693384143934,0.0013693384274027,-0.0013693384282592,0.0013693384125112,-6.9035182199042e-13,-2.0928831226807e-14,3.5503762443252e-13,3.943785402416e-14,-0.0013966606817188,0.0013966606813919,-0.0014217444594506,0.0014217444598683,-0.0014217444599196,0.0014217444600517,-0.0014217444594628,0.0014217444603079,-0.0014217444593975,0.0014217444597982,-0.0013693384208983,0.0013693384205921,-0.001369338419852,0.0013693384182406,-0.0013693384215648,0.001369338418084,-0.0013693384208659,0.0013693384182703,-7.4183818441151e-12,7.2474325370873e-12,-0.0013966606815576,0.0013966606813946,-2.5366672124403e-13,6.9846925047914e-14,-0.0014217444622754,0.0014217444570187,-0.0014217444620787,0.001421744456881,-0.0014217444574451,0.0014217444620672,-0.001421744457204,0.0014217444622261,-0.0013693384112818,0.0013693384269165,-0.001369338426155,0.0013693384113343,0.69033353904409,0.36864124454673,1368840,32768,0.0058025051582003,0.0058025051582372,0.0058025051579091,33.542897680593,33.532669346198,0.00018354318144474,0.00018354318144474,0.00018354318144474,406529.73270384,0.017560105367162
14169600,0.99870604667575,0.016894934801631,0.0056316449338374,0.0056316449340319,0.0056316449337618,-0.0013963942538543,0.0013963942531728,6.722932574907e-12,-7.4389208048992e-12,-9.4075361356404e-15,-6.3501730653953e-13,-0.0014215062449219,0.0014215062496132,-0.0014215062499869,0.0014215062446356,-0.0014215062460753,0.0014215062497864,-0.0014215062506994,0.001421506244871,-0.0013690471407321,0.0013690471544405,-0.0013690471553949,0.0013690471398258,-7.1640773188261e-13,-4.8462931255422e-14,3.3043996410945e-13,1.5154095876303e-14,-0.0013963942537538,0.0013963942533887,-0.0014215062464271,0.0014215062467191,-0.0014215062466498,0.0014215062469292,-0.0014215062462019,0.0014215062471441,-0.0014215062463167,0.0014215062468305,-0.0013690471477718,0.0013690471476728,-0.0013690471468389,0.0013690471456754,-0.0013690471496825,0.001369047146187,-0.0013690471486697,0.0013690471465033,-7.3688562394412e-12,7.3194647483174e-12,-0.0013963942534832,0.0013963942534999,-1.2812761520107e-13,1.9796048185493e-13,-0.0014215062491174,0.0014215062440915,-0.0014215062491286,0.0014215062439861,-0.0014215062441377,0.0014215062490596,-0.0014215062439398,0.0014215062490874,-0.001369047139347,0.0013690471545069,-0.001369047154378,0.0013690471395022,0.68709731321627,0.32446844578257,1368840,32768,0.0058014014224843,0.0058014014227227,0.0058014014223926,33.391688898514,33.38146538863,0.00018233351118811,0.00018233351118811,0.00018233351118811,406948.77433766,0.017556736178224
14256000,0.99876507733592,0.01689581827783,0.0056319394259037,0.0056319394260982,0.005631939425828,-0.0013959502728329,0.0013959502722202,6.7749134428095e-12,-7.3959177656714e-12,2.8940262953656e-14,-6.1736266940599e-13,-0.0014211787120682,0.0014211787166574,-0.001421178717011,0.0014211787117011,-0.0014211787129912,0.0014211787168489,-0.0014211787177094,0.0014211787120859,-0.0013684984245122,0.0013684984382436,-0.0013684984392241,0.0013684984237769,-7.1718814921787e-13,-2.7842943534834e-14,3.1357353819071e-13,6.1788906508967e-14,-0.001395950272745,0.001395950272402,-0.0014211787144165,0.0014211787147446,-0.0014211787145125,0.0014211787147895,-0.001421178714263,0.0014211787150776,-0.0014211787142786,0.0014211787148047,-0.0013684984313134,0.0013684984309116,-0.0013684984301768,0.0013684984293274,-0.0013684984323294,0.0013684984289332,-0.0013684984315422,0.0013684984293526,-7.4070319555523e-12,7.2891124990872e-12,-0.0013959502725303,0.0013959502724852,-1.4114339404855e-13,1.2187451211143e-13,-0.0014211787172048,0.0014211787121339,-0.0014211787170715,0.001421178711982,-0.0014211787121765,0.0014211787171138,-0.0014211787119875,0.0014211787171215,-0.0013684984222746,0.0013684984370654,-0.0013684984372084,0.0013684984222714,0.68368226078828,0.28029564701839,1368840,32768,0.0057995620452897,0.0057995620454839,0.0057995620452118,33.240480116611,33.230261431062,0.00018112384093289,0.00018112384093289,0.00018112384093289,412644.14989829,0.017551121743783
14342400,0.99882057897718,0.016896651842899,0.0056322172809267,0.0056322172811212,0.005632217280851,-0.0013952557952023,0.0013952557945065,6.7233782965846e-12,-7.4621148610426e-12,1.8240619232192e-15,-6.5075032590659e-13,-0.0014206076737814,0.0014206076783357,-0.0014206076787671,0.0014206076733478,-0.0014206076748633,0.0014206076785035,-0.0014206076795348,0.0014206076737257,-0.0013676937897355,0.0013676938034979,-0.0013676938045091,0.0013676937892406,-6.9835357754228e-13,-5.8090284205222e-15,2.8670135911734e-13,5.577747250709e-14,-0.0013952557950948,0.0013952557947265,-0.0014206076762617,0.0014206076764871,-0.0014206076763524,0.0014206076765156,-0.0014206076759921,0.0014206076768527,-0.0014206076760559,0.0014206076766085,-0.0013676937967449,0.0013676937964202,-0.0013676937952707,0.0013676937945172,-0.0013676937975901,0.0013676937941337,-0.0013676937967583,0.0013676937946454,-7.4356080825712e-12,7.2745555908496e-12,-0.0013952557948678,0.0013952557947782,-1.4500133501463e-13,9.8148236932851e-14,-0.0014206076789671,0.0014206076737268,-0.0014206076787207,0.0014206076737865,-0.0014206076740578,0.0014206076789305,-0.0014206076738072,0.0014206076788959,-0.0013676937875782,0.0013676938022972,-0.0013676938025007,0.0013676937874811,0.6860989520171,0.33016534651402,1368840,32768,0.0057966849554864,0.0057966849557194,0.0057966849553564,32.967806903009,32.949677023916,0.00017894245522407,0.00017894245522407,0.00017894245522407,418808.8941017,0.017542339610051
14428800,0.99887256787755,0.016897432762869,0.0056324775875834,0.0056324775877778,0.0056324775875077,-0.0013948781247686,0.0013948781242523,6.8189364214671e-12,-7.3305265868564e-12,8.1922203215278e-14,-6.5145798075881e-13,-0.0014201247153376,0.0014201247200895,-0.0014201247193211,0.0014201247149424,-0.0014201247155018,0.0014201247195371,-0.0014201247204968,0.0014201247153989,-0.0013674167663966,0.0013674167816912,-0.0013674167819899,0.0013674167668609,-6.6758104703373e-13,1.0999631615863e-13,4.1190535775053e-13,1.7802562026303e-13,-0.0013948781246619,0.0013948781244599,-0.0014201247170055,0.0014201247182051,-0.0014201247167332,0.0014201247180523,-0.0014201247167038,0.0014201247188253,-0.0014201247163892,0.0014201247186599,-0.0013674167737394,0.0013674167727652,-0.0013674167725827,0.0013674167712285,-0.0013674167748346,0.0013674167711178,-0.0013674167731758,0.0013674167714614,-7.2119840317795e-12,7.4719760892006e-12,-0.0013948781243338,0.0013948781246725,-4.3639843303331e-14,2.1018810830933e-13,-0.0014201247198574,0.0014201247146649,-0.0014201247198074,0.001420124715447,-0.001420124714507,0.0014201247192342,-0.001420124714798,0.0014201247198351,-0.0013674167640725,0.0013674167783353,-0.0013674167789997,0.0013674167639712,0.68623946337926,0.34057045049582,1368840,32768,0.0057951205900574,0.0057951205902664,0.0057951205900273,32.615295500112,32.591717354746,0.00017612236400089,0.00017612236400089,0.00017612236400089,410738.21103463,0.017537563668125
14515200,0.99892129382057,0.016898164961251,0.0056327216537106,0.005632721653905,0.0056327216536349,-0.0013942892625871,0.0013942892623941,6.8748416400717e-12,-7.2021254505995e-12,1.7863383697655e-13,-5.2956555742985e-13,-0.0014195131380085,0.0014195131432183,-0.0014195131432555,0.0014195131386866,-0.0014195131388192,0.0014195131431323,-0.0014195131436675,0.0014195131386351,-0.0013668493663461,0.0013668493805711,-0.001366849380694,0.0013668493658681,-9.7282098686897e-13,-2.3075089189512e-13,1.7646072689298e-13,-9.1251035872903e-14,-0.0013942892628623,0.0013942892621865,-0.0014195131410523,0.0014195131406319,-0.0014195131406172,0.0014195131408714,-0.0014195131407745,0.0014195131417163,-0.0014195131403116,0.0014195131411725,-0.0013668493737271,0.0013668493723575,-0.0013668493716072,0.0013668493707999,-0.0013668493745842,0.0013668493702555,-0.0013668493743667,0.0013668493704555,-7.2109894151055e-12,7.3894418458592e-12,-0.0013942892622928,0.001394289262539,-1.4974013142412e-14,2.5648322343711e-13,-0.0014195131437694,0.0014195131386467,-0.0014195131436837,0.0014195131385954,-0.0014195131380726,0.0014195131441405,-0.0014195131379215,0.001419513143526,-0.0013668493638707,0.0013668493786339,-0.0013668493788622,0.0013668493641143,0.68643188950496,0.35097555447747,1368840,32768,0.0057926811995613,0.0057926811997011,0.0057926811992519,32.257822629098,32.233757685591,0.00017326258103279,0.00017326258103279,0.00017326258103279,408396.24102319,0.017530117088982
14601600,0.99896699856363,0.016898852019632,0.0056329506731712,0.0056329506733657,0.0056329506730955,-0.0013936962160019,0.0013936962157977,6.8780411158593e-12,-7.1905199816092e-12,2.9460200011112e-13,-3.9842682833389e-13,-0.0014189008599459,0.0014189008644819,-0.0014189008643687,0.0014189008594556,-0.001418900860084,0.0014189008647758,-0.0014189008653749,0.0014189008599239,-0.0013662751326231,0.0013662751475313,-0.0013662751486755,0.0013662751328949,-1.2633018481722e-12,-5.4331834317404e-13,-3.9531145291823e-14,-3.3298956269155e-13,-0.0013936962164091,0.0013936962154427,-0.0014189008624892,0.0014189008623196,-0.0014189008621727,0.001418900862086,-0.0014189008623331,0.0014189008623651,-0.0014189008624865,0.0014189008622875,-0.0013662751414475,0.0013662751382988,-0.0013662751395332,0.0013662751373808,-0.0013662751428596,0.001366275136795,-0.0013662751407783,0.0013662751377502,-7.3572565938024e-12,7.2337143091109e-12,-0.0013936962157591,0.0013936962157925,-1.2651142928032e-13,1.7476695510713e-13,-0.0014189008647445,0.0014189008598072,-0.0014189008649127,0.0014189008595673,-0.0014189008595679,0.0014189008648081,-0.0014189008594809,0.0014189008647792,-0.0013662751313125,0.0013662751455242,-0.0013662751457007,0.0013662751306205,0.68667201202268,0.36138065845919,1368840,32768,0.0057902244700705,0.0057902244701783,0.0057902244695567,31.899887735623,31.875798016428,0.00017039910188498,0.00017039910188498,0.00017039910188498,406101.38657408,0.017522617639061
14688000,0.9990099045164,0.016899497289614,0.0056331657631651,0.0056331657633595,0.0056331657630893,-0.0013930999292512,0.0013930999284512,6.5892908634519e-12,-7.5108171967491e-12,-3.6311184835875e-14,-7.2288835743336e-13,-0.0014182854685546,0.0014182854730495,-0.0014182854738487,0.0014182854682427,-0.0014182854693143,0.0014182854732595,-0.0014182854743378,0.0014182854685346,-0.0013656975204407,0.0013656975336899,-0.0013656975360396,0.0013656975195372,-8.6844038150717e-13,-1.5137087572365e-13,3.2090531420999e-13,1.039729119342e-13,-0.0013930999290307,0.0013930999286424,-0.0014182854708298,0.0014182854710844,-0.0014182854711124,0.0014182854710176,-0.0014182854709001,0.0014182854714437,-0.0014182854707046,0.001418285471392,-0.0013656975269346,0.001365697527303,-0.0013656975264753,0.0013656975261515,-0.0013656975286613,0.0013656975249738,-0.0013656975284637,0.0013656975260288,-7.3252761001963e-12,7.3054761756587e-12,-0.0013930999289346,0.0013930999290055,-4.1124096628253e-14,2.0066216402628e-13,-0.0014182854735439,0.0014182854687207,-0.0014182854735335,0.001418285468486,-0.0014182854682516,0.0014182854736951,-0.0014182854683857,0.0014182854738911,-0.0013656975190753,0.0013656975337687,-0.001365697533688,0.0013656975184997,0.68695616241588,0.3717857624408,1368840,32768,0.00578775431022,0.0057877543101594,0.0057877543107124,31.541906949121,31.517838347268,0.00016753525559297,0.00016753525559297,0.00016753525559297,403814.82982628,0.017515077250379
14774400,0.99905021551476,0.016900103836973,0.0056333679456181,0.0056333679458125,0.0056333679455424,-0.0013925006487277,0.001392500647912,6.6458505473571e-12,-7.4515313020101e-12,-4.582789410694e-14,-7.8373861614679e-13,-0.00141766681838,0.0014176668226498,-0.0014176668230957,0.0014176668178242,-0.0014176668190148,0.0014176668227982,-0.0014176668234007,0.0014176668181806,-0.001365117026902,0.0013651170402785,-0.0013651170407278,0.0013651170253769,-1.1485155606968e-12,-3.7317380567875e-13,-8.4415656453758e-14,-2.6956094156886e-13,-0.0013925006488994,0.0013925006478428,-0.0014176668210629,0.001417666820326,-0.0014176668206263,0.0014176668208939,-0.0014176668208632,0.0014176668211499,-0.0014176668206438,0.0014176668208051,-0.0013651170341823,0.0013651170335971,-0.0013651170330973,0.0013651170315578,-0.0013651170345802,0.0013651170320569,-0.001365117034217,0.0013651170310851,-7.6074393038336e-12,7.0389539647881e-12,-0.0013925006486093,0.0013925006480207,-3.8970185958157e-13,-1.8451459849979e-13,-0.0014176668236696,0.0014176668181884,-0.0014176668232749,0.001417666818018,-0.0014176668188659,0.0014176668225126,-0.0014176668183894,0.0014176668229528,-0.0013651170253549,0.0013651170399626,-0.0013651170406973,0.0013651170252319,0.68728112425242,0.3821908664225,1368840,32768,0.0057852717428172,0.0057852717430294,0.0057852717427973,31.18392154114,31.159878678109,0.00016467137232912,0.00016467137232912,0.00016467137232912,401533.16898564,0.017507499043316
14860800,0.99908811845428,0.016900674467737,0.0056335581558727,0.0056335581560671,0.0056335581557969,-0.0013918985479172,0.0013918985472483,6.7579599754322e-12,-7.3546578496629e-12,-2.9544832719758e-14,-6.2551656736883e-13,-0.0014170450680666,0.0014170450726871,-0.0014170450728989,0.0014170450677953,-0.0014170450694862,0.0014170450740815,-0.0014170450743202,0.0014170450687772,-0.0013645338234594,0.0013645338363307,-0.0013645338364344,0.0013645338204648,-1.3846846694221e-12,-7.4452490233412e-13,-3.7305301525116e-13,-5.3780971734113e-13,-0.0013918985483253,0.0013918985466675,-0.0014170450719731,0.0014170450699567,-0.0014170450720418,0.0014170450701011,-0.001417045071425,0.0014170450703663,-0.0014170450709341,0.0014170450702407,-0.0013645338282127,0.0013645338297121,-0.0013645338281536,0.001364533827349,-0.0013645338314322,0.0013645338267904,-0.0013645338300946,0.0013645338257726,-7.3879213040754e-12,7.2573182939077e-12,-0.0013918985476928,0.0013918985476136,1.8942009569904e-14,2.0597106066666e-13,-0.0014170450735669,0.0014170450688313,-0.001417045073672,0.001417045067935,-0.0014170450693927,0.0014170450733664,-0.0014170450685519,0.0014170450728779,-0.0013645338219692,0.0013645338372829,-0.0013645338347476,0.0013645338216948,0.68764405743201,0.39259597040414,1368840,32768,0.0057827774856029,0.0057827774852452,0.0057827774858949,30.825935671842,30.801919008951,0.00016180748537473,0.00016180748537473,0.00016180748537473,399257.55462144,0.017499885210531
14947200,0.99912365179634,0.016901209762054,0.0056337365873118,0.0056337365875061,0.005633736587236,-0.0013911653281431,0.0013911653283408,6.9820118660948e-12,-6.9913862414788e-12,3.6004429501158e-13,-2.0422393756948e-13,-0.0014162937577793,0.0014162937630964,-0.0014162937639014,0.0014162937585457,-0.0014162937591485,0.0014162937639684,-0.0014162937630213,0.0014162937583722,-0.0013638183938844,0.0013638184076672,-0.0013638184072109,0.001363818393673,-1.131599459825e-12,-5.1218267670022e-13,-5.8710559373888e-15,-1.2394941931268e-13,-0.0013911653285386,0.001391165327741,-0.0014162937623757,0.0014162937610319,-0.0014162937608926,0.0014162937625171,-0.0014162937605485,0.0014162937620588,-0.0014162937603524,0.0014162937608951,-0.0013638183997156,0.0013638183997885,-0.0013638184002564,0.0013638183981334,-0.0013638184022384,0.0013638183980905,-0.0013638184009181,0.0013638183976706,-7.1063025543937e-12,7.4090651287343e-12,-0.0013911653280905,0.0013911653282614,7.6987824545395e-14,2.0942736684358e-13,-0.0014162937634438,0.0014162937586006,-0.0014162937641455,0.0014162937589968,-0.0014162937583801,0.0014162937640361,-0.001416293758267,0.0014162937634057,-0.0013638183918039,0.0013638184057806,-0.0013638184066305,0.0013638183921144,0.68804315789857,0.40300107438591,1368840,32768,0.0057797400385694,0.005779740038146,0.005779740038296,30.401571436382,30.373290336519,0.00015841257149105,0.00015841257149105,0.00015841257149105,397034.35085643,0.017490613384229
15033600,0.99915666520703,0.016901705710615,0.0056339019034989,0.0056339019036932,0.0056339019034232,-0.0013900909456926,0.001390090945084,6.6930580463769e-12,-7.3200807294996e-12,-2.4987030781008e-14,-6.4689559072493e-13,-0.0014152025631078,0.0014152025677798,-0.0014152025681288,0.0014152025627363,-0.0014152025640625,0.0014152025678993,-0.0014152025686822,0.0014152025632381,-0.0013627607194967,0.0013627607332173,-0.0013627607341737,0.0013627607184245,-8.0957967966121e-13,-1.4289451702353e-13,1.6368964645249e-13,6.3205966159944e-14,-0.0013900909456767,0.0013900909451997,-0.0014152025656,0.0014152025657715,-0.0014152025656009,0.0014152025659562,-0.0014152025655016,0.00141520256629,-0.0014152025654032,0.0014152025659422,-0.0013627607258516,0.0013627607254143,-0.0013627607251334,0.001362760724572,-0.0013627607270905,0.0013627607235612,-0.0013627607265387,0.0013627607238798,-7.3103711437678e-12,7.2297515478176e-12,-0.0013900909454051,0.0013900909453511,-1.2849695685911e-13,-1.446555808713e-14,-0.0014152025682877,0.0014152025633376,-0.0014152025682848,0.0014152025631359,-0.0014152025632981,0.0014152025683817,-0.001415202563178,0.0014152025681828,-0.0013627607167693,0.0013627607317985,-0.0013627607316626,0.0013627607167587,0.68606453801347,0.37427876945462,1368840,32768,0.0057752892471359,0.0057752892473426,0.0057752892470936,29.802449728296,29.762787601846,0.00015361959782636,0.00015361959782636,0.00015361959782636,394868.31207825,0.017477027528525
15120000,0.99918735496779,0.016902164090052,0.0056340546966445,0.0056340546968389,0.0056340546965688,-0.0013888141192464,0.0013888141184968,6.5891527500241e-12,-7.4290715175529e-12,-1.4311436324856e-13,-5.9022596900179e-13,-0.0014139948099542,0.0014139948144717,-0.0014139948152735,0.0014139948098773,-0.0014139948111679,0.0014139948147695,-0.0014139948155485,0.0014139948102867,-0.0013614214107586,0.0013614214241885,-0.0013614214241396,0.0013614214091465,-6.5764558584937e-13,-1.7054696637783e-13,2.0615693734119e-13,1.7791230019547e-13,-0.0013888141191321,0.0013888141187632,-0.0014139948126897,0.001413994812709,-0.0014139948127225,0.0014139948130612,-0.001413994812159,0.0014139948134096,-0.0014139948124186,0.0014139948132475,-0.0013614214175984,0.0013614214165799,-0.0013614214159382,0.0013614214149041,-0.0013614214181573,0.0013614214143074,-0.0013614214175867,0.0013614214146796,-7.3455835974633e-12,7.206248207005e-12,-0.0013888141188986,0.0013888141187433,-7.582386010371e-14,-3.7380916862179e-14,-0.0014139948152977,0.0014139948102445,-0.0014139948152608,0.0014139948099577,-0.0014139948102288,0.0014139948153383,-0.0014139948101186,0.0014139948151308,-0.0013614214079692,0.0013614214234925,-0.0013614214227751,0.0013614214086077,0.68207978279645,0.31554913324883,1368840,32768,0.0057699996570644,0.0057699996573794,0.0057699996568547,29.19292821304,29.152284867166,0.00014874342570432,0.00014874342570432,0.00014874342570432,398001.4562802,0.017460881913204
15206400,0.99921591569765,0.016902587940082,0.005634195979988,0.0056341959801823,0.0056341959799122,-0.0013873815623507,0.0013873815618178,6.7526851659858e-12,-7.2588201892023e-12,-1.0227919897009e-13,-4.6720299197518e-13,-0.0014127094510696,0.0014127094556059,-0.0014127094560404,0.0014127094507343,-0.0014127094519532,0.0014127094559379,-0.0014127094565576,0.0014127094512716,-0.0013598560182132,0.0013598560322456,-0.0013598560328008,0.0013598560176175,-6.5183532217246e-13,-2.4276643659318e-13,2.2157052529019e-13,-6.2984546453575e-14,-0.0013873815623742,0.0013873815618824,-0.0014127094534736,0.0014127094537923,-0.0014127094536039,0.0014127094538061,-0.0014127094533783,0.0014127094539642,-0.0014127094534397,0.0014127094536375,-0.0013598560252919,0.0013598560240825,-0.0013598560240948,0.0013598560228829,-0.0013598560259937,0.0013598560223944,-0.0013598560253677,0.0013598560225843,-7.2778688425732e-12,7.2589968896866e-12,-0.0013873815620674,0.0013873815620923,-1.0676332668895e-13,1.9005078231435e-13,-0.0014127094563377,0.0014127094512698,-0.0014127094560442,0.0014127094510813,-0.0014127094513242,0.001412709456279,-0.001412709451089,0.0014127094562326,-0.0013598560153867,0.0013598560304549,-0.0013598560304727,0.0013598560157061,0.67774697663365,0.25467942007145,1368840,32768,0.0057640647983627,0.0057640647985452,0.0057640647983445,28.582452610643,28.541782132486,0.00014385962088514,0.00014385962088514,0.00014385962088514,405762.09313828,0.017442767312911
15292800,0.99924252433259,0.016902989672792,0.0056343298908913,0.0056343298910856,0.0056343298908156,-0.0013859169930929,0.0013859169926835,6.7095047057074e-12,-7.240109113754e-12,-5.9040019897331e-14,-4.7002899387805e-13,-0.0014114041970412,0.0014114042015679,-0.0014114042012562,0.0014114041970127,-0.001411404197338,0.0014114042014628,-0.0014114042020249,0.001411404197007,-0.0013582476826985,0.0013582476958003,-0.0013582476965909,0.0013582476816106,-8.4856534161717e-13,-3.9457374016073e-13,8.9425268119443e-14,-1.6126016184804e-13,-0.0013859169933406,0.0013859169925747,-0.0014114041987885,0.0014114041992838,-0.0014114041994908,0.0014114041998106,-0.0014114041994599,0.0014114041996018,-0.0014114041993506,0.0014114041997532,-0.0013582476903944,0.0013582476882039,-0.0013582476890816,0.0013582476855272,-0.0013582476908934,0.0013582476866702,-0.0013582476908631,0.0013582476868675,-7.1229973973189e-12,7.3619148632602e-12,-0.0013859169926901,0.0013859169930637,1.6057862384503e-13,4.2449632604627e-13,-0.0014114042015116,0.001411404197486,-0.0014114042017348,0.001411404197062,-0.0014114041968591,0.0014114042020112,-0.0014114041966413,0.0014114042019918,-0.0013582476804037,0.0013582476955991,-0.001358247694992,0.0013582476807048,0.68959763154736,0.4659806019354,1368840,32768,0.0057579972773779,0.0057579972776654,0.005757997277331,27.971885493036,27.931279397803,0.00013897508394428,0.00013897508394428,0.00013897508394428,414480.36756303,0.017424248125648
15379200,0.99926734071912,0.016903367836203,0.0056344559453613,0.0056344559455557,0.0056344559452856,-0.0013857523456114,0.0013857523448796,6.5802620069243e-12,-7.5154334674899e-12,-5.1934413439319e-14,-5.4903393327256e-13,-0.0014107608285919,0.0014107608328568,-0.0014107608336091,0.0014107608281047,-0.0014107608290358,0.0014107608333479,-0.0014107608337213,0.0014107608283887,-0.001358525884904,0.0013585258984877,-0.0013585259006054,0.0013585258840024,-5.3879554016609e-13,-5.7765588242108e-15,2.2227968009659e-13,2.0467704137453e-13,-0.0013857523454564,0.0013857523451866,-0.0014107608307439,0.0014107608309723,-0.001410760830613,0.0014107608313944,-0.0014107608309744,0.001410760831074,-0.0014107608304658,0.0014107608314853,-0.0013585258921585,0.0013585258916028,-0.0013585258907211,0.0013585258895383,-0.0013585258927091,0.0013585258888147,-0.0013585258912885,0.0013585258901352,-7.4314780322708e-12,7.1902758714195e-12,-0.0013857523453344,0.0013857523451434,-7.3944623395454e-14,-4.1802370025114e-14,-0.001410760833623,0.0014107608284246,-0.0014107608338603,0.0014107608281203,-0.0014107608282808,0.0014107608334778,-0.0014107608286265,0.0014107608332947,-0.0013585258831725,0.0013585258976163,-0.001358525898179,0.0013585258818829,0.69611494041872,0.58118402251385,1368840,32768,0.0057573158977493,0.0057573158980641,0.0057573158977219,27.361308966333,27.320776663126,0.00013409047173066,0.00013409047173066,0.00013409047173066,384338.44708637,0.017422165916901
15465600,0.99929050937499,0.016903722799367,0.0056345742664163,0.0056345742666106,0.0056345742663405,-0.0013850682239193,0.0013850682231534,6.5828037675106e-12,-7.3252477481213e-12,-1.863703653368e-13,-7.3626633109839e-13,-0.0014098410876066,0.0014098410924024,-0.0014098410925718,0.0014098410876721,-0.0014098410883798,0.001409841092833,-0.0014098410933449,0.0014098410877747,-0.001358057302936,0.0013580573169438,-0.0013580573169117,0.001358057303911,-8.5433590062467e-13,-2.6216304992231e-13,-2.8530716641485e-14,2.6608540068542e-14,-0.0013850682239352,0.0013850682232647,-0.0014098410901137,0.0014098410900776,-0.0014098410902596,0.0014098410905483,-0.0014098410903268,0.0014098410903663,-0.0014098410898233,0.0014098410901732,-0.0013580573094964,0.0013580573103046,-0.0013580573099796,0.001358057308798,-0.0013580573101398,0.0013580573081224,-0.0013580573115148,0.0013580573081696,-7.3739819652068e-12,7.0578931509149e-12,-0.0013850682236415,0.0013850682234371,-2.3345992678302e-14,-6.0895551447409e-14,-0.0014098410927896,0.0014098410882018,-0.0014098410929639,0.0014098410879932,-0.0014098410874554,0.0014098410924006,-0.0014098410881587,0.0014098410928523,-0.0013580573021548,0.0013580573150021,-0.0013580573169008,0.0013580573024625,0.69958334119785,0.63479025455408,1368840,32768,0.0057544820959618,0.0057544820962252,0.005754482095974,26.750731001341,26.710273928445,0.00012920584801073,0.00012920584801073,0.00012920584801073,369691.98176094,0.017413515204052
15552000,0.99931216113917,0.016904055416461,0.0056346851387809,0.0056346851389753,0.0056346851387052,-0.0013841220625713,0.001384122061985,6.7380775534148e-12,-7.3173019908587e-12,-3.8936192878976e-14,-6.1460604773654e-13,-0.0014087874039253,0.0014087874085932,-0.0014087874088031,0.0014087874035974,-0.0014087874049253,0.001408787408754,-0.0014087874094834,0.0014087874039192,-0.0013572072420721,0.0013572072560857,-0.0013572072571074,0.0013572072420974,-7.2464645078364e-13,-1.0659142017587e-13,1.2625673117882e-13,2.1833012428222e-13,-0.0013841220625197,0.0013841220621522,-0.0014087874064581,0.0014087874066059,-0.0014087874064594,0.0014087874069085,-0.0014087874062156,0.0014087874069574,-0.0014087874061758,0.0014087874068191,-0.0013572072490457,0.0013572072487531,-0.0013572072480507,0.0013572072470481,-0.0013572072499559,0.0013572072465282,-0.0013572072497225,0.0013572072467699,-7.4105252605989e-12,7.1707421152212e-12,-0.0013841220623521,0.0013841220621644,-4.1000394524915e-14,-1.1971204876144e-13,-0.0014087874090739,0.0014087874040201,-0.0014087874091851,0.0014087874036601,-0.0014087874041693,0.0014087874090762,-0.0014087874041331,0.0014087874088804,-0.0013572072403083,0.0013572072543823,-0.0013572072555362,0.0013572072399652,0.70132927722383,0.65271059529583,1368840,32768,0.0057505625064635,0.005750562506703,0.0057505625063813,26.14015233866,26.099771193764,0.00012432121870928,0.00012432121870928,0.00012432121870928,362638.01888485,0.017401551248215
15638400,0.99933287670873,0.016904374466655,0.0056347914888456,0.0056347914890399,0.0056347914887698,-0.0013837837520343,0.0013837837514629,6.7554772865707e-12,-7.3018186991568e-12,3.0081081043623e-14,-5.9325072953861e-13,-0.0014084018069752,0.0014084018115526,-0.001408401811885,0.0014084018066441,-0.0014084018079209,0.001408401811755,-0.0014084018125359,0.0014084018070528,-0.0013569070484482,0.0013569070622832,-0.001356907063002,0.0013569070478831,-7.0686246466044e-13,-4.0357178880593e-14,9.8904037373078e-14,2.4347741487328e-13,-0.0013837837519909,0.0013837837516288,-0.001408401809464,0.0014084018096552,-0.0014084018094423,0.0014084018098639,-0.0014084018093013,0.0014084018099826,-0.0014084018092319,0.0014084018099093,-0.0013569070555581,0.0013569070547025,-0.0013569070538946,0.0013569070533637,-0.0013569070561157,0.0013569070528538,-0.0013569070553414,0.0013569070532425,-7.4248254119744e-12,7.1588530666587e-12,-0.0013837837518343,0.0013837837516371,-1.8788543669947e-14,-1.5048757917834e-13,-0.0014084018121413,0.0014084018071431,-0.0014084018121638,0.0014084018068163,-0.0014084018071838,0.0014084018120425,-0.0014084018071553,0.0014084018118715,-0.0013569070462926,0.0013569070607063,-0.0013569070612366,0.0013569070462281,0.703137323416,0.67063093603758,1368840,32768,0.0057491610089362,0.0057491610091899,0.0057491610088827,25.914177330541,25.898385522375,0.00012251341864433,0.00012251341864433,0.00012251341864433,359254.62476932,0.017397273391669
15724800,0.99935276203122,0.016904684329406,0.0056348947764292,0.0056348947766235,0.0056348947763534,-0.0013835390167414,0.0013835390161756,6.7284508916203e-12,-7.3214756280629e-12,8.465547265695e-14,-6.0158903363268e-13,-0.0014081192407628,0.0014081192453748,-0.0014081192457192,0.0014081192404222,-0.0014081192416835,0.0014081192456069,-0.0014081192463073,0.0014081192408447,-0.0013566936734963,0.0013566936871804,-0.0013566936883412,0.0013566936727459,-7.9236967600324e-13,-6.3437414971694e-14,1.1380175872851e-13,2.0061960650285e-13,-0.0013835390167354,0.001383539016302,-0.0014081192433447,0.0014081192434477,-0.0014081192432695,0.0014081192437271,-0.0014081192432458,0.0014081192437767,-0.0014081192431476,0.0014081192437262,-0.0013566936807312,0.0013566936796513,-0.0013566936787453,0.0013566936782737,-0.0013566936815062,0.0013566936776114,-0.0013566936804514,0.0013566936780543,-7.4039592847144e-12,7.1724572392959e-12,-0.0013835390165179,0.0013835390163708,1.9624047557641e-14,-5.3812708999855e-14,-0.0014081192459799,0.0014081192410109,-0.001408119246059,0.00140811924064,-0.0014081192411284,0.0014081192459508,-0.0014081192410375,0.0014081192458292,-0.0013566936713503,0.0013566936858976,-0.0013566936862385,0.001356693670868,0.71137696309031,0.79804980302727,1368840,32768,0.00574814715143,0.005748147151679,0.0057481471513714,25.737768396933,25.725959239622,0.00012110214717546,0.00012110214717546,0.00012110214717546,356115.81032412,0.017394178804404
15811200,0.99937186021216,0.016904984536304,0.0056349948453952,0.0056349948455895,0.0056349948453195,-0.001383667415373,0.0013836674147488,6.6482935756654e-12,-7.3604503785875e-12,1.1247041704714e-13,-5.8410956761836e-13,-0.0014080319673585,0.0014080319718342,-0.001408031972216,0.0014080319670557,-0.001408031968155,0.0014080319716308,-0.0014080319727434,0.0014080319671135,-0.0013570158930922,0.0013570159066227,-0.0013570159070967,0.0013570158922062,-7.6945093497858e-13,-2.82439606958e-14,7.8785240223815e-14,2.0547373762424e-13,-0.0013836674153072,0.0013836674149147,-0.0014080319696898,0.0014080319698928,-0.0014080319699062,0.0014080319700227,-0.001408031969528,0.0014080319704135,-0.0014080319694468,0.0014080319701655,-0.0013570158998363,0.0013570158993648,-0.0013570158982242,0.0013570158977516,-0.0013570159006951,0.0013570158972618,-0.0013570158995017,0.0013570158973969,-7.2999951078074e-12,7.2341759420672e-12,-0.0013836674150572,0.0013836674150279,1.1824585825843e-13,3.2866054788116e-15,-0.0014080319722946,0.0014080319674412,-0.0014080319722361,0.001408031967112,-0.0014080319673644,0.0014080319722453,-0.0014080319673989,0.001408031972203,-0.0013570158905283,0.0013570159051962,-0.0013570159052716,0.0013570158909485,0.71758703447945,0.84262532356392,1368840,32768,0.005748679398458,0.0057486793986653,0.005748679398382,25.564961173143,25.55353295687,0.00011971968938514,0.00011971968938514,0.00011971968938514,342519.36672258,0.017395802175788
15897600,0.99939020817167,0.016905274178158,0.0056350913926799,0.0056350913928742,0.0056350913926041,-0.0013835202220669,0.0013835202214622,6.7152174576574e-12,-7.3130597675146e-12,6.0657323430994e-14,-6.4157510620325e-13,-0.0014077955969339,0.0014077956014743,-0.0014077956018276,0.0014077955965842,-0.0014077955978657,0.0014077956016447,-0.0014077956025284,0.0014077955969636,-0.0013569348300434,0.0013569348437135,-0.0013569348447182,0.0013569348292301,-7.393711186022e-13,5.8274984445109e-15,1.4045565035276e-13,1.9416761243037e-13,-0.0013835202219912,0.0013835202216414,-0.0014077955993772,0.001407795599577,-0.0014077955993867,0.0014077955997382,-0.0014077955992098,0.0014077955999572,-0.0014077955991404,0.0014077955997885,-0.0013569348369733,0.0013569348362634,-0.00135693483547,0.0013569348347417,-0.0013569348376661,0.001356934834428,-0.0013569348367947,0.0013569348348399,-7.3842280051385e-12,7.1712668638963e-12,-0.0013835202218202,0.0013835202216735,-1.9049476875087e-14,-6.0170573594985e-14,-0.0014077956020532,0.0014077955970072,-0.0014077956020376,0.0014077955967529,-0.0014077955971073,0.0014077956019628,-0.0014077955970086,0.0014077956018614,-0.0013569348277512,0.0013569348423573,-0.0013569348426397,0.0013569348275288,0.72050768321349,0.82628061128145,1368840,32768,0.0057480696214774,0.0057480696216917,0.0057480696214041,25.392491608293,25.381106674116,0.00011833993286634,0.00011833993286634,0.00011833993286634,336216.66365588,0.017393940946675
15984000,0.99940784054277,0.016905553338521,0.0056351844461343,0.0056351844463286,0.0056351844460585,-0.0013831820294001,0.0013831820288664,6.7716859972881e-12,-7.253387943389e-12,8.7064810818029e-14,-5.7523866214785e-13,-0.0014074635929906,0.0014074635973887,-0.0014074635978167,0.0014074635926044,-0.0014074635938813,0.0014074635974966,-0.0014074635984055,0.0014074635931427,-0.0013565766528914,0.0013565766669236,-0.0013565766675927,0.0013565766529327,-7.1856381307463e-13,-1.4783048388019e-14,1.546242763345e-13,8.3476243975694e-14,-0.0013831820293787,0.0013831820289622,-0.0014074635939183,0.0014074635943738,-0.0014074635942992,0.001407463594513,-0.0014074635937939,0.0014074635947593,-0.0014074635939601,0.0014074635945959,-0.0013565766597709,0.0013565766592286,-0.0013565766587395,0.0013565766578007,-0.0013565766605822,0.0013565766573435,-0.0013565766593049,0.0013565766576373,-7.4052978320579e-12,7.1471176016397e-12,-0.0013831820291632,0.0013831820290391,-9.0876164972011e-14,-6.649443922876e-15,-0.0014074635965184,0.0014074635916697,-0.0014074635968379,0.0014074635913922,-0.0014074635915176,0.0014074635967564,-0.0014074635915104,0.0014074635964808,-0.0013565766504198,0.0013565766648512,-0.0013565766657442,0.0013565766507267,0.72255837747841,0.80993589899896,1368840,32768,0.0057466684146009,0.0057466684147544,0.0057466684144675,25.220055315186,25.208680391364,0.00011696044252149,0.00011696044252149,0.00011696044252149,335349.48490764,0.017389664722133
16070400,0.99942479012025,0.016905822196299,0.0056352740653934,0.0056352740655877,0.0056352740653176,-0.0013828374266497,0.0013828374260327,6.7126945641418e-12,-7.303052014421e-12,4.6638369347477e-14,-5.8191489936985e-13,-0.0014071295752755,0.0014071295795715,-0.001407129580055,0.0014071295749681,-0.0014071295761524,0.001407129579812,-0.0014071295807871,0.0014071295750931,-0.001356211968541,0.0013562119816263,-0.001356211982948,0.0013562119680168,-6.4422320177634e-13,2.8064319124903e-14,2.5764459972257e-13,1.3800847511229e-13,-0.0013828374266857,0.0013828374263937,-0.0014071295773439,0.0014071295776696,-0.0014071295774931,0.0014071295777888,-0.0014071295772579,0.0014071295780593,-0.0014071295770658,0.0014071295777309,-0.0013562119751878,0.0013562119746701,-0.0013562119736209,0.001356211972919,-0.0013562119751941,0.001356211972288,-0.0013562119744107,0.0013562119727543,-7.3484270400098e-12,7.1957758210469e-12,-0.0013828374264881,0.0013828374264453,-5.126025756373e-14,8.0463071320168e-14,-0.0014071295799236,0.0014071295749936,-0.0014071295797607,0.0014071295747968,-0.001407129574956,0.0014071295800016,-0.0014071295749186,0.0014071295798296,-0.0013562119658449,0.0013562119797531,-0.001356211980541,0.0013562119656009,0.72392200748016,0.79359118671651,1368840,32768,0.0057452406751124,0.0057452406759346,0.0057452406756323,25.0476223241,25.036254108611,0.0001155809785928,0.0001155809785928,0.0001155809785928,334858.79195495,0.017385307448443
16156800,0.99944108799632,0.016906081008694,0.0056353603361918,0.0056353603363861,0.005635360336116,-0.001382487408081,0.0013824874073497,6.6286477640668e-12,-7.3630550049003e-12,-1.2923340494936e-14,-6.4956739145619e-13,-0.0014067936679976,0.0014067936721314,-0.001406793672757,0.0014067936674681,-0.0014067936686715,0.0014067936723035,-0.0014067936735732,0.0014067936678336,-0.0013558413890325,0.0013558414023164,-0.0013558414036751,0.0013558413887331,-6.9152166860535e-13,-1.1629556489738e-14,2.1410169463431e-13,1.0530443008077e-13,-0.001382487408274,0.0013824874078596,-0.0014067936715629,0.0014067936717138,-0.0014067936716597,0.0014067936717542,-0.0014067936715336,0.0014067936718044,-0.0014067936713496,0.0014067936718162,-0.0013558413961025,0.0013558413953046,-0.0013558413949367,0.0013558413937694,-0.0013558413948878,0.0013558413918651,-0.0013558413938406,0.0013558413924522,-7.328096661089e-12,7.1923950419744e-12,-0.0013824874080555,0.0013824874080175,-6.5983690125913e-14,5.5942232179678e-14,-0.0014067936740852,0.0014067936691957,-0.0014067936740082,0.001406793669088,-0.0014067936692824,0.0014067936742076,-0.0014067936691897,0.0014067936743215,-0.0013558413857946,0.0013558413991414,-0.0013558414001848,0.0013558413856482,0.72473971095637,0.77724647443404,1368840,32768,0.0057437905160005,0.005743790517457,0.0057437905173314,24.875189655926,24.863827825858,0.0001142015172474,0.0001142015172474,0.0001142015172474,334663.0933393,0.017380881700062
16243200,0.99945676366072,0.016906330070794,0.0056354433568919,0.0056354433570863,0.0056354433568162,-0.0013821327379121,0.0013821327374274,6.7520479501581e-12,-7.2413638989506e-12,9.6238942319314e-14,-5.1440110892863e-13,-0.0014064561375644,0.0014064561418612,-0.0014064561424814,0.0014064561373058,-0.0014064561379552,0.0014064561414088,-0.0014064561428463,0.0014064561372073,-0.0013554654072437,0.0013554654205037,-0.0013554654220336,0.0013554654067577,-5.8944881627269e-13,6.4455266229978e-14,2.73179889836e-13,1.7052443765431e-13,-0.0013821327379731,0.0013821327377688,-0.0014064561402449,0.0014064561418249,-0.0014064561408554,0.0014064561413738,-0.0014064561402924,0.0014064561419041,-0.0014064561406294,0.00140645614197,-0.0013554654141097,0.0013554654134223,-0.0013554654126074,0.0013554654117926,-0.0013554654130054,0.0013554654100224,-0.0013554654120713,0.0013554654100741,-7.3713019882547e-12,7.1483815042048e-12,-0.0013821327378338,0.0013821327377532,-8.9657731606078e-14,2.481347725942e-14,-0.0014064561438724,0.0014064561383982,-0.0014064561432925,0.0014064561386118,-0.0014064561387821,0.001406456144012,-0.0014064561391959,0.0014064561436659,-0.0013554654032986,0.0013554654170914,-0.0013554654176378,0.0013554654028866,0.72512200053903,0.76090176215158,1368840,32768,0.0057423210993816,0.0057423211002156,0.005742321099895,24.702757017647,24.691401543106,0.00011282205614118,0.00011282205614118,0.00011282205614118,334705.90709501,0.017376397142094
16329600,0.99947184509223,0.016906569701448,0.0056355232337762,0.0056355232339707,0.0056355232337006,-0.001381774040804,0.0013817740401583,6.7035486817775e-12,-7.288229173131e-12,-3.4372067603987e-14,-6.2637851162526e-13,-0.0014061171600429,0.0014061171645769,-0.0014061171648296,0.0014061171596217,-0.0014061171608499,0.0014061171643343,-0.0014061171656442,0.0014061171600337,-0.0013550844059634,0.001355084420336,-0.0013550844203619,0.0013550844057528,-6.6800453409649e-13,-3.2258867454919e-14,2.3326816793524e-13,1.114320664151e-13,-0.0013817740407757,0.0013817740404473,-0.0014061171629326,0.0014061171634305,-0.0014061171629137,0.0014061171632631,-0.0014061171629047,0.0014061171633774,-0.0014061171630486,0.0014061171634354,-0.0013550844125829,0.0013550844121773,-0.0013550844111475,0.0013550844097909,-0.0013550844124912,0.0013550844094629,-0.0013550844124117,0.0013550844099223,-7.3877556032551e-12,7.1331890271481e-12,-0.0013817740406177,0.0013817740404767,-1.3338968974242e-13,1.4751902280688e-15,-0.0014061171657492,0.00140611716049,-0.0014061171656288,0.001406117160171,-0.0014061171607722,0.0014061171654603,-0.0014061171606236,0.0014061171654799,-0.001355084402601,0.0013550844172138,-0.001355084417722,0.0013550844029747,0.72515656960038,0.74455704986911,1368840,32768,0.0057408350083555,0.0057408350088958,0.0057408350086294,24.53032438606,24.518975260353,0.00011144259508848,0.00011144259508848,0.00011144259508848,334941.90463947,0.017371861674018
16416000,0.99948640817201,0.016906796753884,0.0056355989179217,0.0056355989181161,0.005635598917846,-0.0013815220515414,0.0013815220509608,6.7076342481427e-12,-7.2860112408873e-12,6.9709605713514e-14,-6.2042772282953e-13,-0.0014058863239588,0.0014058863285185,-0.0014058863288702,0.001405886323575,-0.0014058863249437,0.0014058863287411,-0.0014058863294818,0.0014058863240003,-0.0013548095651743,0.0013548095785997,-0.00135480957958,0.0013548095644306,-7.0833894896663e-13,2.4585190115789e-14,2.52653869833e-13,1.6094467148606e-13,-0.0013815220514578,0.0013815220511537,-0.0014058863264366,0.0014058863267229,-0.0014058863263934,0.0014058863268066,-0.0014058863262438,0.0014058863270419,-0.0014058863262874,0.0014058863268565,-0.0013548095717796,0.0013548095715058,-0.0013548095707001,0.0013548095698021,-0.0013548095724999,0.0013548095693713,-0.0013548095716988,0.0013548095697414,-7.3390560909918e-12,7.1821988240501e-12,-0.0013815220512903,0.0013815220511904,-8.1173931956805e-14,2.2414668188449e-14,-0.001405886329196,0.0014058863240564,-0.0014058863291054,0.00140588632388,-0.0014058863241825,0.0014058863290618,-0.0014058863240675,0.0014058863290234,-0.0013548095626381,0.0013548095769954,-0.0013548095773401,0.0013548095625235,0.71157456118707,0.52307539463863,1368840,32768,0.0057397909987228,0.0057397909989493,0.0057397909986785,24.415091171115,24.407384604394,0.00011052072936892,0.00011052072936892,0.00011052072936892,335315.68938174,0.017368675461043
16502400,0.99950047833984,0.016907019484117,0.0056356731613326,0.005635673161527,0.005635673161257,-0.0013805435465364,0.001380543545899,6.6315847478733e-12,-7.2628411840108e-12,3.8080454315319e-14,-6.96927679926e-13,-0.0014052944724604,0.0014052944769768,-0.0014052944773533,0.0014052944721915,-0.0014052944734173,0.0014052944770863,-0.0014052944780523,0.0014052944724906,-0.0013534799463199,0.001353479959666,-0.0013534799605689,0.0013534799450373,-7.4264216573278e-13,3.5286304380564e-14,2.3836001238289e-13,1.5980755916523e-13,-0.0013805435464248,0.0013805435461171,-0.0014052944748717,0.0014052944751764,-0.0014052944749371,0.0014052944752901,-0.001405294474702,0.0014052944755792,-0.0014052944746897,0.0014052944753617,-0.0013534799528537,0.0013534799523875,-0.0013534799512677,0.0013534799508193,-0.0013534799533142,0.0013534799502515,-0.001353479952859,0.0013534799507761,-7.2516777603398e-12,7.1695616218727e-12,-0.0013805435462395,0.0013805435461726,-5.6006877263638e-14,3.4342892024693e-14,-0.0014052944776318,0.0014052944726629,-0.0014052944775286,0.0014052944724375,-0.0014052944727078,0.0014052944775268,-0.0014052944725568,0.0014052944774537,-0.001353479943556,0.0013534799583963,-0.0013534799582259,0.0013534799436201,0.72247547006987,0.73248561102732,1368840,32768,0.0057357366180723,0.0057357366182929,0.0057357366180242,24.305830831961,24.298625293851,0.00010964664665569,0.00010964664665569,0.00010964664665569,357292.25102166,0.017356303275158
16588800,0.99951407504777,0.016907237824477,0.0056357459414526,0.0056357459416471,0.005635745941377,-0.0013810796733957,0.001381079672756,6.6071422739859e-12,-7.2523864445724e-12,8.4291777885222e-14,-6.9456045812536e-13,-0.0014054766886133,0.0014054766930944,-0.0014054766934515,0.001405476688266,-0.0014054766895856,0.0014054766932394,-0.0014054766941851,0.0014054766886115,-0.0013543418730856,0.001354341886464,-0.0013543418876039,0.0013543418722803,-7.5054345376562e-13,7.1321527058658e-14,2.1684619902688e-13,1.4546873250066e-13,-0.0013810796732889,0.0013810796729696,-0.0014054766910101,0.001405476691262,-0.0014054766910639,0.0014054766913647,-0.0014054766908226,0.0014054766916597,-0.0014054766907936,0.001405476691442,-0.0013543418798817,0.001354341879336,-0.0013543418785671,0.0013543418778496,-0.0013543418806159,0.0013543418773531,-0.0013543418796981,0.0013543418778227,-7.286348995275e-12,7.1005703177449e-12,-0.0013810796731166,0.0013810796730071,-7.7624099225287e-14,5.7862938209309e-15,-0.0014054766937152,0.0014054766887434,-0.0014054766936371,0.0014054766885171,-0.0014054766888014,0.001405476693624,-0.0014054766886711,0.0014054766935537,-0.001354341870835,0.0013543418852395,-0.0013543418855066,0.001354341870633,0.73311497494415,0.90536956812686,1368840,32768,0.0057379583196294,0.0057379583198507,0.0057379583195716,24.197025127798,24.189865983308,0.00010877620102238,0.00010877620102238,0.00010877620102238,335758.90112751,0.017363081898437
16675200,0.99952721655835,0.016907450560634,0.0056358168535049,0.0056358168536994,0.0056358168534293,-0.0013814176393889,0.0013814176387604,6.6039149166971e-12,-7.2332097951117e-12,9.3855809240041e-14,-6.8904333255211e-13,-0.0014055546451827,0.0014055546496455,-0.001405554649994,0.0014055546448294,-0.0014055546461455,0.0014055546497799,-0.0014055546507229,0.001405554645177,-0.0013549139379507,0.0013549139513406,-0.0013549139525268,0.0013549139371816,-7.5830286377979e-13,6.7383941466842e-14,2.3390561904978e-13,1.560041312397e-13,-0.0013814176392849,0.0013814176389695,-0.0014055546475488,0.0014055546478268,-0.0014055546476071,0.0014055546479254,-0.0014055546473829,0.0014055546482176,-0.0014055546473381,0.0014055546480025,-0.001354913944729,0.0013549139442443,-0.0013549139434004,0.0013549139427807,-0.0013549139455655,0.0013549139422479,-0.0013549139445113,0.0013549139427252,-7.2831197998071e-12,7.0813057297943e-12,-0.0013814176391196,0.0013814176390034,-8.7831669743956e-14,2.2262261079676e-15,-0.0014055546502676,0.0014055546453254,-0.0014055546501921,0.001405554645098,-0.0014055546453913,0.0014055546501902,-0.001405554645264,0.0014055546501162,-0.0013549139357651,0.0013549139501443,-0.0013549139504339,0.001354913935497,0.73881636400111,0.93026865924923,1368840,32768,0.0057393588787823,0.0057393588790001,0.0057393588787283,24.088260073655,24.081106672765,0.00010790608058923,0.00010790608058923,0.00010790608058923,319855.9642883,0.017367355007878
16761600,0.99953992032108,0.016907657220183,0.0056358857400212,0.0056358857402157,0.0056358857399456,-0.0013813173587252,0.0013813173580746,6.583860396996e-12,-7.2600686804736e-12,6.2567441548785e-14,-7.016462710704e-13,-0.0014054013861634,0.0014054013906632,-0.0014054013909825,0.0014054013858013,-0.0014054013871214,0.0014054013907915,-0.0014054013917575,0.0014054013861552,-0.0013548499407032,0.0013548499542316,-0.0013548499551546,0.0013548499394864,-7.2849368619441e-13,7.82789909835e-14,2.1911607086032e-13,1.7207237565998e-13,-0.0013813173585982,0.0013813173583025,-0.0014054013883579,0.0014054013886216,-0.0014054013883374,0.0014054013887426,-0.0014054013881184,0.0014054013889947,-0.0014054013881026,0.0014054013888408,-0.0013548499473772,0.0013548499468955,-0.0013548499459761,0.0013548499456519,-0.0013548499480859,0.0013548499453045,-0.001354849947435,0.0013548499457215,-7.2695023334584e-12,7.101738164421e-12,-0.0013813173584393,0.0013813173583292,-8.0902234374626e-14,-2.139981683852e-14,-0.0014054013910916,0.0014054013860828,-0.0014054013909895,0.001405401385868,-0.0014054013861761,0.0014054013909746,-0.0014054013860389,0.0014054013908497,-0.0013548499384305,0.0013548499533869,-0.0013548499532283,0.0013548499384665,0.74227977283292,0.91509256745446,1368840,32768,0.0057389433921288,0.0057389433923376,0.0057389433920639,23.979498356496,23.972347362223,0.00010703598685197,0.00010703598685197,0.00010703598685197,315690.63165412,0.017366087027516
16848000,0.9995522030396,0.016907857761276,0.0056359525870525,0.0056359525872469,0.0056359525869768,-0.0013811035299053,0.0013811035292635,6.5491842357407e-12,-7.1977424080278e-12,8.821306985715e-14,-6.9442172706938e-13,-0.0014051891676478,0.0014051891721039,-0.0014051891724637,0.0014051891672554,-0.0014051891685898,0.0014051891722613,-0.0014051891731914,0.0014051891676353,-0.0013546236198479,0.0013546236332673,-0.0013546236342955,0.0013546236189268,-7.8814477565928e-13,3.7200687073957e-14,2.5091639349994e-13,1.3006396781153e-13,-0.0013811035297812,0.0013811035294609,-0.0014051891694627,0.0014051891697485,-0.0014051891695594,0.0014051891698257,-0.0014051891692792,0.0014051891701361,-0.0014051891692693,0.0014051891698889,-0.0013546236264924,0.0013546236260336,-0.0013546236250185,0.0013546236244045,-0.0013546236275547,0.0013546236241714,-0.0013546236265563,0.0013546236247658,-7.2117329806254e-12,7.0624577173528e-12,-0.0013811035295987,0.0013811035295106,-8.7831257991829e-14,4.4823101273259e-14,-0.0014051891721544,0.0014051891671832,-0.0014051891721094,0.0014051891669963,-0.0014051891672687,0.0014051891720744,-0.0014051891671355,0.0014051891720067,-0.0013546236176495,0.0013546236321934,-0.0013546236323369,0.0013546236175936,0.74495605682867,0.89991647565968,1368840,32768,0.0057380573993284,0.00573805739948,0.0057380573992051,23.870736896533,23.86358805168,0.00010616589517226,0.00010616589517226,0.00010616589517226,314711.31391384,0.017363383364262
16934400,0.9995640807088,0.016908052216396,0.0056360174054257,0.0056360174056201,0.0056360174053501,-0.0013808839573755,0.0013808839567408,6.5613224090455e-12,-7.197487768748e-12,8.568861756567e-14,-6.8805739208368e-13,-0.0014049758969039,0.0014049759013641,-0.0014049759016871,0.0014049758965855,-0.0014049758979634,0.0014049759015171,-0.0014049759024704,0.0014049758968154,-0.0013543897408468,0.0013543897543355,-0.0013543897553518,0.0013543897399899,-8.2616929050704e-13,-9.9108148784673e-15,2.0728737339538e-13,9.4247488450981e-14,-0.0013808839573264,0.0013808839569302,-0.0014049758992407,0.001404975899572,-0.0014049758993084,0.0014049758996037,-0.0014049758990526,0.001404975899902,-0.0014049758991189,0.0014049758996075,-0.0013543897475979,0.0013543897471264,-0.0013543897464033,0.0013543897453528,-0.0013543897483865,0.0013543897450837,-0.0013543897476964,0.0013543897454159,-7.1926222703268e-12,7.0936331179069e-12,-0.0013808839570784,0.001380883957025,-5.782858631756e-14,6.7078891962366e-14,-0.0014049759019277,0.0014049758970006,-0.0014049759018371,0.0014049758967623,-0.0014049758970135,0.0014049759017775,-0.0014049758968909,0.0014049759016796,-0.0013543897385451,0.0013543897530528,-0.001354389753189,0.0013543897384368,0.74697645967945,0.88474038386493,1368840,32768,0.0057371476329351,0.0057371476332256,0.0057371476329084,23.761975325498,23.754828741136,0.00010529580260398,0.00010529580260398,0.00010529580260398,314060.17967333,0.017360607074965
17020800,0.99957556864673,0.016908239743102,0.0056360799143277,0.0056360799145222,0.0056360799142521,-0.0013806590850207,0.001380659084392,6.5668843714843e-12,-7.1907106816658e-12,8.2875379978735e-14,-6.7827160279753e-13,-0.0014047609791517,0.0014047609836066,-0.0014047609839468,0.0014047609788178,-0.001404760980075,0.0014047609836927,-0.0014047609845944,0.0014047609791044,-0.001354149076201,0.0013541490896209,-0.0013541490907995,0.001354149075567,-7.646179943863e-13,3.8755727803824e-14,2.5159584333145e-13,1.5703992312638e-13,-0.0013806590849292,0.0013806590846306,-0.0014047609819112,0.001404760982341,-0.0014047609820031,0.0014047609824119,-0.0014047609817197,0.0014047609827011,-0.0014047609817075,0.0014047609824573,-0.0013541490828668,0.0013541490822515,-0.0013541490812601,0.0013541490806503,-0.0013541490828716,0.0013541490793359,-0.0013541490818019,0.0013541490798125,-7.2216970291717e-12,7.0631415199926e-12,-0.0013806590847638,0.001380659084655,-8.1226224476951e-14,2.5447516713479e-14,-0.001404760984751,0.0014047609797746,-0.0014047609845992,0.0014047609795272,-0.0014047609798549,0.0014047609846114,-0.0014047609797344,0.0014047609845552,-0.0013541490729403,0.0013541490872384,-0.001354149087581,0.0013541490726785,0.74480068227947,0.8168373588107,1368840,32768,0.0057362159266355,0.0057362159269405,0.0057362159266486,23.653212045215,23.646069430594,0.00010442569636171,0.00010442569636171,0.00010442569636171,313682.54512738,0.017357763771643
17107200,0.99958668152853,0.016908420881078,0.0056361402936531,0.0056361402938476,0.0056361402935775,-0.0013802727534048,0.0013802727527585,6.5827550189998e-12,-7.2649318260254e-12,6.131000937424e-14,-6.900981826801e-13,-0.0014044643943602,0.001404464398821,-0.001404464399078,0.0014044643939442,-0.001404464395125,0.0014044643988272,-0.0014044643999027,0.0014044643942535,-0.0013536762501867,0.0013536762637575,-0.0013536762648404,0.0013536762492303,-7.1708144659521e-13,7.6550396732044e-14,2.7795927324088e-13,2.0205000398166e-13,-0.0013802727532556,0.0013802727530185,-0.0014044643966791,0.001404464397178,-0.0014044643968023,0.0014044643972921,-0.0014044643965369,0.0014044643976199,-0.0014044643964877,0.0014044643972822,-0.0013536762571531,0.001353676256804,-0.0013536762557259,0.0013536762548244,-0.0013536762576375,0.0013536762541462,-0.0013536762567442,0.0013536762547519,-7.3264646521222e-12,7.0481635657941e-12,-0.0013802727531398,0.0013802727530114,-6.7410822998571e-14,2.1047239374226e-14,-0.0014044643996545,0.0014044643945543,-0.0014044643994803,0.0014044643943988,-0.0014044643945462,0.0014044643994525,-0.0014044643946514,0.001404464399399,-0.0013536762477251,0.0013536762623906,-0.0013536762623858,0.0013536762474882,0.74370788525585,0.78518100685759,1368840,32768,0.0057346152155682,0.0057346152157975,0.0057346152155432,23.544449520295,23.537310120051,0.00010355559616235,0.00010355559616235,0.00010355559616235,318022.34897341,0.01735287900758
17193600,0.99959724097349,0.016908592357279,0.0056361974523866,0.0056361974525811,0.005636197452311,-0.0013793980850681,0.0013793980841538,6.4883093013105e-12,-7.4529780813414e-12,-1.253567292615e-13,-8.4088425273975e-13,-0.0014036448017396,0.0014036448057061,-0.0014036448062151,0.0014036448010717,-0.0014036448025934,0.0014036448066632,-0.0014036448072661,0.0014036448013342,-0.0013527503075025,0.0013527503202608,-0.0013527503221911,0.001352750306737,-8.6145988887408e-13,-1.0087077140835e-13,1.5608005539086e-13,-2.2743437556536e-14,-0.0013793980850021,0.001379398084398,-0.0014036448043222,0.0014036448040783,-0.001403644804362,0.0014036448041491,-0.0014036448037998,0.0014036448044684,-0.0014036448043219,0.0014036448041525,-0.0013527503138296,0.0013527503141858,-0.0013527503140814,0.0013527503123613,-0.00135275031631,0.0013527503114217,-0.0013527503149451,0.0013527503131744,-7.1669679364021e-12,7.3037155235631e-12,-0.0013793980845807,0.0013793980846711,-7.66551876484e-14,1.1178917315279e-13,-0.0014036448068284,0.0014036448020831,-0.0014036448065534,0.0014036448011417,-0.0014036448017355,0.0014036448068496,-0.0014036448014977,0.0014036448065838,-0.001352750306364,0.0013527503204655,-0.0013527503205452,0.001352750305912,0.74096817307813,0.73653500939555,1368840,32768,0.0057309914900879,0.005730991490457,0.0057309914901499,23.134001152925,23.10775799277,0.0001002720092234,0.0001002720092234,0.0001002720092234,320087.74034784,0.017341819655502
17280000,0.99960726545616,0.016908754310524,0.0056362514368018,0.0056362514369963,0.0056362514367262,-0.001378416443776,0.0013784164430666,6.6659924026255e-12,-7.4110953608298e-12,-3.0391395093153e-14,-7.4271436940936e-13,-0.0014027408140731,0.0014027408187624,-0.0014027408192745,0.0014027408139937,-0.0014027408153289,0.0014027408193617,-0.0014027408202408,0.001402740814218,-0.0013516960363658,0.0013516960494006,-0.0013516960500753,0.0013516960353792,-7.4887841639608e-13,5.8893789070464e-15,2.7230074022283e-13,1.8644271606771e-13,-0.0013784164435903,0.0013784164433436,-0.0014027408166428,0.0014027408170119,-0.0014027408167568,0.0014027408172777,-0.0014027408163845,0.0014027408175096,-0.0014027408165864,0.0014027408173698,-0.0013516960432716,0.0013516960421664,-0.0013516960415582,0.0013516960403933,-0.0013516960441437,0.0013516960397137,-0.0013516960434642,0.0013516960414449,-7.1605317212593e-12,7.4454643697037e-12,-0.001378416443276,0.0013784164435546,8.7863668766408e-14,1.8365468359313e-13,-0.0014027408198753,0.001402740814607,-0.0014027408193642,0.0014027408142969,-0.0014027408140448,0.0014027408193569,-0.001402740813732,0.0014027408197341,-0.0013516960339082,0.0013516960487049,-0.0013516960485812,0.0013516960347782,0.73718362868865,0.67931440928827,1368840,32768,0.0057269245626822,0.0057269245628711,0.0057269245626573,22.699088336605,22.670708850427,9.6792706692839e-05,9.6792706692839e-05,9.6792706692839e-05,323777.14000426,0.017329407801839
17366400,0.99961678647155,0.016908907254779,0.0056363024182201,0.0056363024184146,0.0056363024181445,-0.0013773932425985,0.0013773932419266,6.6042893317296e-12,-7.4180976175039e-12,-4.8571486762656e-14,-6.3852822869503e-13,-0.0014018145658035,0.0014018145703937,-0.0014018145706176,0.0014018145656875,-0.0014018145666179,0.0014018145706958,-0.0014018145712669,0.0014018145651283,-0.0013505832606119,0.0013505832741277,-0.0013505832746272,0.0013505832606257,-6.6657354840036e-13,-3.1753677005788e-14,3.2651455461625e-13,4.1424322750669e-13,-0.001377393242429,0.0013773932422699,-0.0014018145682657,0.0014018145679249,-0.0014018145680534,0.0014018145687129,-0.0014018145673971,0.0014018145687611,-0.0014018145675139,0.0014018145687955,-0.001350583267954,0.0013505832670413,-0.0013505832664636,0.0013505832650915,-0.0013505832672369,0.001350583265388,-0.0013505832673539,0.0013505832648498,-7.3348751598928e-12,7.2147580646818e-12,-0.0013773932422299,0.0013773932421764,1.8387320632917e-14,-5.5697769059623e-14,-0.0014018145708353,0.0014018145656231,-0.0014018145710336,0.0014018145657931,-0.0014018145650766,0.0014018145707873,-0.0014018145652573,0.001401814570805,-0.0013505832580316,0.001350583271872,-0.0013505832731235,0.0013505832582712,0.73302927618768,0.62191897194069,1368840,32768,0.0057226854292809,0.0057226854296406,0.0057226854290349,22.262205419193,22.233659708084,9.329764335354e-05,9.329764335354e-05,9.329764335354e-05,328622.98386977,0.017316470576122
17452800,0.99962583433476,0.016909051735031,0.0056363505783041,0.0056363505784986,0.0056363505782285,-0.0013763575233867,0.0013763575224812,6.5898188032061e-12,-7.6052987221681e-12,-6.7723784026062e-14,-9.2296333351547e-13,-0.0014008820068706,0.0014008820113168,-0.0014008820112341,0.0014008820066576,-0.0014008820080022,0.0014008820106631,-0.001400882011383,0.0014008820057034,-0.0013494527730412,0.0013494527856859,-0.0013494527861456,0.0013494527699696,-8.9649002460983e-13,8.132398619628e-16,1.9009260456612e-13,3.6739986442163e-13,-0.0013763575232296,0.0013763575229924,-0.0014008820088343,0.0014008820095924,-0.0014008820082593,0.0014008820091274,-0.0014008820081359,0.0014008820099841,-0.0014008820084522,0.0014008820099243,-0.0013494527783148,0.0013494527780978,-0.0013494527773248,0.0013494527762608,-0.0013494527812625,0.0013494527767088,-0.0013494527796174,0.001349452776274,-7.587981662957e-12,7.1330639133232e-12,-0.0013763575230692,0.0013763575228593,-5.9365304077769e-14,-2.2367699035089e-13,-0.0014008820114242,0.001400882005605,-0.0014008820109498,0.0014008820065511,-0.0014008820065661,0.0014008820107119,-0.0014008820072283,0.001400882010707,-0.0013494527690224,0.0013494527836831,-0.001349452782456,0.0013494527689652,0.7287269491127,0.56601547915426,1368840,32768,0.0057183944193016,0.0057183944200349,0.0057183944194271,21.825135830376,21.796610565742,8.9801086643003e-05,8.9801086643003e-05,8.9801086643003e-05,333879.49584286,0.01730337518105
17539200,0.99963443729884,0.016909188316456,0.0056363961054457,0.0056363961056402,0.0056363961053701,-0.0013753156117916,0.0013753156110274,6.585130578781e-12,-7.2365309289475e-12,2.0957300945312e-14,-7.9923014289128e-13,-0.0013999467009778,0.0013999467057167,-0.0013999467061121,0.0013999467001222,-0.0013999467021906,0.0013999467055868,-0.0013999467061584,0.0013999467008775,-0.0013483133480749,0.0013483133599424,-0.0013483133620187,0.0013483133472451,-9.5887920689843e-13,-8.7677968557069e-14,7.7055175429048e-14,1.167969319339e-13,-0.001375315611735,0.0013753156111161,-0.0013999467029725,0.0013999467031145,-0.0013999467035087,0.001399946703496,-0.0013999467033219,0.0013999467038222,-0.0013999467026413,0.0013999467032109,-0.0013483133537842,0.0013483133540671,-0.0013483133537642,0.0013483133526105,-0.0013483133557285,0.0013483133529638,-0.0013483133542024,0.0013483133538823,-7.289233024817e-12,7.0585963647263e-12,-0.0013753156113714,0.0013753156112875,-4.1000629811844e-14,-6.5077541337548e-14,-0.0013999467054408,0.0013999467005295,-0.0013999467066062,0.0013999467002195,-0.0013999467010242,0.0013999467056678,-0.0013999467010003,0.0013999467058234,-0.0013483133470198,0.00134831335977,-0.0013483133603916,0.0013483133456998,0.72456884225305,0.51484623117263,1368840,32768,0.0057140777415296,0.0057140777415958,0.0057140777411979,21.388048513355,21.359561423399,8.6304388106838e-05,8.6304388106838e-05,8.6304388106838e-05,339364.4434824,0.01729020160153
17625600,0.99964262163391,0.016909317662077,0.0056364392206527,0.0056364392208472,0.0056364392205771,-0.0013742803941072,0.001374280393321,6.4812409437145e-12,-7.3054832930883e-12,1.7684459751894e-15,-7.7788811840489e-13,-0.0013990143199882,0.0013990143245096,-0.0013990143251709,0.0013990143194391,-0.0013990143212676,0.0013990143246456,-0.0013990143257963,0.0013990143203397,-0.0013471843053903,0.0013471843178744,-0.001347184319259,0.001347184304471,-7.1242276538531e-13,1.0860188816922e-13,7.14472291009e-14,2.0312975040791e-13,-0.001374280393929,0.0013742803935657,-0.0013990143225864,0.001399014322348,-0.0013990143226975,0.0013990143228451,-0.0013990143217982,0.0013990143227225,-0.0013990143219735,0.0013990143232422,-0.001347184311578,0.0013471843103684,-0.0013471843112783,0.0013471843102314,-0.0013471843120834,0.0013471843091675,-0.0013471843112836,0.0013471843101676,-7.2498484632824e-12,7.0646154161425e-12,-0.0013742803937287,0.0013742803936078,-8.0132787292471e-14,-1.9690633758772e-13,-0.0013990143246009,0.0013990143200291,-0.0013990143249906,0.0013990143197981,-0.0013990143198709,0.0013990143246414,-0.0013990143194804,0.0013990143245318,-0.0013471843032909,0.0013471843164828,-0.00134718431727,0.0013471843033817,0.72133971966488,0.47920502092113,1368840,32768,0.0057097887882313,0.005709788788369,0.0057097887880412,20.950959749406,20.922512281056,8.2807677995245e-05,8.2807677995245e-05,8.2807677995245e-05,344682.17065666,0.01727711276231
17712000,0.99965041208917,0.016909440218789,0.00563648007289,0.0056364800730844,0.0056364800728143,-0.0013732976253146,0.0013732976248469,6.6695245594264e-12,-7.0351957854803e-12,1.8276009327519e-13,-6.3520918303078e-13,-0.001398110093623,0.0013981100981145,-0.001398110098212,0.0013981100933126,-0.00139811009403,0.0013981100982036,-0.001398110098575,0.0013981100937278,-0.0013461302597567,0.0013461302740392,-0.0013461302743916,0.0013461302594027,-9.765892835148e-13,-1.1947414426455e-13,6.6774665962144e-14,1.6453888521471e-13,-0.001373297625384,0.0013732976248855,-0.0013981100959054,0.0013981100959508,-0.0013981100956715,0.0013981100964228,-0.0013981100956118,0.0013981100964073,-0.001398110095867,0.0013981100962778,-0.0013461302671157,0.0013461302658651,-0.0013461302658913,0.0013461302650607,-0.0013461302680835,0.0013461302645446,-0.0013461302673514,0.0013461302647679,-7.2293354428823e-12,7.0012992915831e-12,-0.001373297625083,0.0013732976249659,-5.2590981616906e-14,-1.3909139791209e-13,-0.001398110098367,0.0013981100935911,-0.001398110098216,0.001398110093184,-0.0013981100933346,0.0013981100986555,-0.0013981100937034,0.001398110098139,-0.0013461302578948,0.001346130272377,-0.0013461302730925,0.0013461302578966,0.7180925031096,0.44356381066962,1368840,32768,0.0057057171520235,0.0057057171522471,0.0057057171517903,20.514522603598,20.486155652506,7.9316180828779e-05,7.9316180828779e-05,7.9316180828779e-05,348530.10967401,0.017264687156198
17798400,0.99965783866018,0.01690955651326,0.0056365188377136,0.0056365188379081,0.005636518837638,-0.0013723409387544,0.0013723409381657,6.5642173059025e-12,-7.1094161651574e-12,6.0557238253234e-14,-6.3321218521416e-13,-0.0013972330724485,0.0013972330771195,-0.0013972330774192,0.0013972330719101,-0.0013972330736163,0.0013972330772542,-0.0013972330782556,0.0013972330725127,-0.0013451013161952,0.0013451013300537,-0.0013451013312582,0.0013451013167605,-6.0552670745709e-13,1.3003714510154e-13,2.2134200285963e-13,4.367006002729e-13,-0.0013723409385928,0.0013723409384677,-0.00139723307491,0.0013972330749847,-0.0013972330748066,0.0013972330750407,-0.0013972330746325,0.0013972330752799,-0.0013972330744674,0.001397233075115,-0.001345101324254,0.0013451013231719,-0.0013451013225418,0.0013451013232174,-0.0013451013251158,0.0013451013221119,-0.0013451013236321,0.0013451013225898,-7.1718677278933e-12,7.0314169597443e-12,-0.0013723409384914,0.0013723409384094,8.8372006178225e-14,-1.1484155049299e-13,-0.0013972330775206,0.0013972330724599,-0.0013972330773545,0.0013972330721534,-0.0013972330725199,0.0013972330772418,-0.0013972330724046,0.0013972330773746,-0.0013451013155999,0.0013451013293882,-0.0013451013310622,0.0013451013156436,0.71483190040488,0.40792260041812,1368840,32768,0.0057017535544124,0.0057017535547028,0.0057017535543724,20.094038258835,20.066711756922,7.5952306070676e-05,7.5952306070676e-05,7.5952306070676e-05,352501.96966415,0.017252591412239
17884800,0.99966491852924,0.016909666860886,0.0056365556202556,0.0056365556204501,0.00563655562018,-0.001371365250612,0.001371365250236,6.5441983439386e-12,-6.9774624903693e-12,1.0865676884559e-13,-5.0478546150359e-13,-0.0013963362714737,0.0013963362764099,-0.001396336276097,0.0013963362711654,-0.0013963362722443,0.0013963362763203,-0.0013963362771764,0.0013963362718674,-0.0013440535953894,0.0013440536099587,-0.0013440536098222,0.0013440535949852,-5.6250099245138e-13,9.5043155320375e-14,2.4588613540617e-13,5.1618680437686e-13,-0.0013713652505149,0.0013713652504369,-0.0013963362740122,0.0013963362740728,-0.0013963362735629,0.0013963362744136,-0.0013963362736743,0.0013963362744068,-0.0013963362734781,0.0013963362744972,-0.0013440536026355,0.0013440536023314,-0.0013440536001509,0.0013440536016763,-0.0013440536025903,0.0013440535999956,-0.0013440536018941,0.0013440536005628,-7.1426584437463e-12,6.9074582760088e-12,-0.0013713652505175,0.0013713652503345,1.1323195260628e-13,-1.4360020134771e-13,-0.0013963362766146,0.0013963362720119,-0.001396336276316,0.0013963362713184,-0.0013963362717911,0.0013963362764645,-0.0013963362720284,0.0013963362761957,-0.0013440535925433,0.0013440536078323,-0.0013440536078505,0.0013440535927536,0.71156151106845,0.37228139016661,1368840,32768,0.0056977112229347,0.00569771122315,0.0056977112229431,19.666235509796,19.647267861338,7.2529884078365e-05,7.2529884078365e-05,7.2529884078365e-05,356553.44982523,0.017240255509371
17971200,0.9996716743496,0.016909772135876,0.005636590711919,0.0056365907121134,0.0056365907118433,-0.0013703992427408,0.001370399242228,6.4690465956553e-12,-7.0404068027578e-12,3.7969222419259e-14,-5.4827342709374e-13,-0.001395454796853,0.0013954548021045,-0.0013954548018112,0.0013954547964631,-0.0013954547979706,0.0013954548014664,-0.001395454802191,0.0013954547970351,-0.0013430113384899,0.0013430113524702,-0.0013430113540246,0.0013430113380406,-7.8947044104347e-13,-1.6215792853953e-13,2.2884947939373e-14,3.3384441892922e-13,-0.0013703992426694,0.0013703992423574,-0.0013954547993631,0.0013954547992455,-0.0013954547991328,0.0013954547993613,-0.0013954547989428,0.0013954547999119,-0.0013954547989123,0.001395454799746,-0.0013430113460072,0.001343011344588,-0.0013430113436455,0.0013430113443086,-0.001343011345937,0.0013430113429238,-0.0013430113459648,0.0013430113435825,-7.1656991516332e-12,6.8689815102711e-12,-0.0013703992425128,0.0013703992423188,1.6691490086435e-14,-2.799917993839e-13,-0.0013954548016859,0.001395454797314,-0.0013954548017607,0.001395454796747,-0.0013954547970634,0.0013954548016243,-0.0013954547970025,0.0013954548014866,-0.0013430113362127,0.001343011350588,-0.0013430113515679,0.0013430113358253,0.71145773538288,0.3844551578311,1368840,32768,0.005693708969652,0.0056937089697719,0.0056937089693677,19.246266987579,19.227823965754,6.9170135900628e-05,6.9170135900628e-05,6.9170135900628e-05,360841.27697799,0.017228042107937
18057600,0.99967812406524,0.016909872967339,0.0056366243224068,0.0056366243226012,0.0056366243223311,-0.0013696354079002,0.0013696354073838,6.5249651226768e-12,-7.0204119429989e-12,3.2012051465566e-14,-5.3489039475972e-13,-0.0013946768236881,0.0013946768278899,-0.0013946768285939,0.0013946768234604,-0.001394676824508,0.0013946768281069,-0.0013946768291934,0.0013946768239546,-0.0013422620737464,0.001342262086866,-0.0013422620865717,0.0013422620742534,-6.8161120665728e-13,-7.4765010097909e-14,-3.271694169636e-14,3.0181069165525e-13,-0.001369635407795,0.0013696354074953,-0.0013946768256466,0.0013946768261596,-0.0013946768255087,0.0013946768265843,-0.0013946768259963,0.0013946768267791,-0.0013946768261432,0.0013946768263458,-0.0013422620798284,0.0013422620790586,-0.0013422620793572,0.0013422620781474,-0.00134226208145,0.0013422620780286,-0.0013422620800992,0.0013422620782689,-7.2957405318994e-12,6.7784609814935e-12,-0.0013696354078788,0.0013696354073547,-1.4402071791299e-13,-4.6301038476233e-13,-0.0013946768289182,0.0013946768235792,-0.0013946768289576,0.0013946768229282,-0.0013946768240594,0.0013946768285707,-0.0013946768240191,0.0013946768282146,-0.0013422620711512,0.0013422620845411,-0.0013422620857213,0.0013422620717036,0.71381113543089,0.43343334366343,1368840,32768,0.0056905444460445,0.0056905444460575,0.0056905444459401,18.826787846152,18.808380070171,6.5814302769215e-05,6.5814302769215e-05,6.5814302769215e-05,359160.30947375,0.017218384841027
18144000,0.9996842842642,0.01690996948279,0.0056366564942238,0.0056366564944183,0.0056366564941482,-0.0013690239083862,0.0013690239073879,6.2889518915425e-12,-7.2914246049245e-12,-2.6491999511129e-13,-8.4273313743407e-13,-0.0013939759388612,0.001393975943363,-0.0013939759434507,0.0013939759379772,-0.00139397594058,0.0013939759429654,-0.0013939759449047,0.001393975938771,-0.0013417343892411,0.0013417344018581,-0.0013417344019878,0.0013417343873012,-9.4250764821478e-13,-3.2883874831961e-13,-2.3670382768407e-13,1.1331158252658e-13,-0.0013690239083347,0.0013690239074047,-0.0013939759417232,0.0013939759411824,-0.0013939759411981,0.0013939759408896,-0.0013939759415562,0.0013939759410691,-0.0013939759413173,0.0013939759403297,-0.0013417343953522,0.0013417343933786,-0.001341734393843,0.0013417343938774,-0.0013417343956972,0.0013417343918681,-0.0013417343958524,0.0013417343923828,-7.0843826357969e-12,7.0281237074097e-12,-0.0013690239077989,0.0013690239077341,1.4870457482437e-13,-1.8948785833482e-13,-0.0013939759436779,0.0013939759386246,-0.0013939759435677,0.0013939759386872,-0.001393975938424,0.0013939759433889,-0.0013939759382348,0.0013939759439697,-0.0013417343857569,0.0013417344001018,-0.0013417343996539,0.0013417343860926,0.71534987491261,0.46764876411549,1368840,32768,0.0056880111452945,0.0056880111452227,0.0056880111447952,18.40734158876,18.388936174587,6.2458732710079e-05,6.2458732710079e-05,6.2458732710079e-05,352971.52096336,0.017210653567337
18230400,0.99969017045694,0.016910061744838,0.0056366872482398,0.0056366872484343,0.0056366872481642,-0.0013683490368638,0.0013683490363124,6.5627989080571e-12,-7.0934900046319e-12,4.979200830009e-15,-4.8198480510682e-13,-0.0013932349309715,0.0013932349353578,-0.0013932349357463,0.0013932349305824,-0.0013932349317749,0.0013932349356943,-0.0013932349364069,0.0013932349310464,-0.0013411204937849,0.0013411205075957,-0.0013411205083532,0.0013411204934814,-6.895777279914e-13,-1.5969835661894e-13,-5.099838321087e-14,3.2583713413451e-13,-0.0013683490368492,0.0013683490364156,-0.0013932349334256,0.0013932349335059,-0.0013932349333234,0.0013932349337024,-0.0013932349333877,0.0013932349337507,-0.0013932349331706,0.0013932349336743,-0.0013411205009867,0.0013411204999256,-0.0013411204989545,0.0013411204986319,-0.0013411205015493,0.0013411204984592,-0.0013411205008388,0.0013411204986988,-7.2975717112523e-12,6.8835385361522e-12,-0.0013683490367291,0.001368349036424,6.7584053000631e-14,-2.9576261171406e-13,-0.0013932349360879,0.0013932349309958,-0.0013932349361975,0.0013932349306087,-0.0013932349311273,0.0013932349359486,-0.0013932349311228,0.0013932349356985,-0.0013411204918732,0.0013411205058127,-0.0013411205067674,0.0013411204914866,0.71559316903909,0.47962916559167,1368840,32768,0.0056852152345714,0.0056852152347546,0.0056852152345233,17.987897600313,17.969492279003,5.9103180802503e-05,5.9103180802503e-05,5.9103180802503e-05,348545.30849212,0.017202121126863
18316800,0.99969580807431,0.016910150151808,0.0056367167172296,0.0056367167174241,0.0056367167171539,-0.0013676462496765,0.0013676462493,6.6243503071158e-12,-6.9557385069632e-12,9.7800365207152e-14,-3.1806793030188e-13,-0.0013925128729004,0.0013925128775869,-0.001392512877802,0.0013925128728414,-0.0013925128743091,0.0013925128782221,-0.0013925128787669,0.0013925128737438,-0.0013404364560093,0.0013404364698973,-0.0013404364707909,0.0013404364558367,-6.1564419249251e-13,-1.587240922644e-13,2.7575628171723e-15,4.8640927288354e-13,-0.0013676462497201,0.0013676462493723,-0.0013925128757578,0.0013925128755727,-0.0013925128756906,0.0013925128759197,-0.0013925128758143,0.0013925128760332,-0.0013925128754052,0.0013925128755808,-0.0013404364648724,0.0013404364626678,-0.0013404364618711,0.0013404364624164,-0.0013404364646781,0.0013404364611866,-0.001340436463604,0.0013404364609593,-7.0694851497284e-12,7.0377108851163e-12,-0.0013676462495011,0.0013676462494714,2.2589180504277e-13,-2.4505845480889e-13,-0.0013925128782109,0.0013925128734765,-0.0013925128780035,0.0013925128729488,-0.0013925128735421,0.0013925128783089,-0.0013925128734048,0.0013925128781705,-0.0013404364551316,0.0013404364693683,-0.0013404364695307,0.001340436454766,0.71588544966721,0.49160956706785,1368840,32768,0.0056823035959883,0.0056823035962282,0.0056823035959799,17.599329585078,17.582248155016,5.5994636680622e-05,5.5994636680622e-05,5.5994636680622e-05,346730.05399891,0.017193235837733
18403200,0.99970130366713,0.016910236370026,0.0056367454566357,0.0056367454568302,0.0056367454565601,-0.0013674738886477,0.0013674738881398,6.5493149817465e-12,-7.0511241224099e-12,-1.62264454697e-14,-4.500800738921e-13,-0.0013923160144322,0.0013923160188542,-0.0013923160191779,0.0013923160140767,-0.0013923160153155,0.0013923160191313,-0.0013923160198334,0.0013923160145759,-0.0013402864079686,0.0013402864214524,-0.0013402864223292,0.0013402864074403,-6.5152171410591e-13,-1.7507121051822e-13,-6.2789140658382e-14,3.6924744033239e-13,-0.0013674738886626,0.0013674738882271,-0.001392316016887,0.001392316016939,-0.0013923160167434,0.0013923160172357,-0.0013923160168172,0.0013923160172293,-0.0013923160166307,0.001392316017174,-0.0013402864150555,0.001340286413993,-0.0013402864133602,0.0013402864130762,-0.0013402864154876,0.0013402864124796,-0.0013402864147591,0.0013402864126977,-7.2417954151798e-12,6.886454917647e-12,-0.0013674738885226,0.001367473888232,6.8809309687528e-14,-3.493193285343e-13,-0.0013923160194633,0.0013923160145657,-0.0013923160195567,0.001392316014144,-0.0013923160146212,0.0013923160193691,-0.0013923160146809,0.0013923160191409,-0.0013402864060852,0.001340286419981,-0.0013402864206287,0.0013402864055378,0.71621773188811,0.50358996854403,1368840,32768,0.0056815895465704,0.0056815895467822,0.0056815895465023,17.485298278236,17.480018791454,5.5082386225886e-05,5.5082386225886e-05,5.5082386225886e-05,344795.45772093,0.01719105665985
18489600,0.99970666521607,0.016910320530696,0.0056367735101925,0.005636773510387,0.0056367735101169,-0.001367322650024,0.0013673226494955,6.5336939148417e-12,-7.069200746652e-12,-4.0650111108185e-14,-4.861439427539e-13,-0.0013921449255017,0.0013921449299116,-0.0013921449302682,0.0013921449251641,-0.0013921449263692,0.0013921449301943,-0.0013921449308737,0.00139214492563,-0.0013401543588641,0.0013401543722594,-0.0013401543730999,0.0013401543582475,-6.5285717330855e-13,-1.6469152761041e-13,-7.1039418029837e-14,3.3264639670445e-13,-0.0013673226500326,0.0013673226495929,-0.0013921449279683,0.0013921449280263,-0.0013921449278476,0.0013921449283316,-0.0013921449278887,0.0013921449283172,-0.0013921449276835,0.0013921449282774,-0.0013401543658615,0.0013401543647666,-0.0013401543641444,0.00134015436373,-0.0013401543661521,0.0013401543631768,-0.0013401543655991,0.0013401543634568,-7.2332919102502e-12,6.8972131772248e-12,-0.001367322649882,0.0013673226496089,7.4558898747411e-14,-3.1482208828366e-13,-0.0013921449305405,0.0013921449256528,-0.0013921449306353,0.0013921449252469,-0.0013921449257082,0.001392144930419,-0.0013921449257516,0.0013921449302056,-0.0013401543567904,0.0013401543706796,-0.0013401543712408,0.0013401543563109,0.716586817384,0.51557037002021,1368840,32768,0.0056809629963214,0.0056809629965411,0.0056809629962622,17.382328590142,17.377789427893,5.4258628721131e-05,5.4258628721131e-05,5.4258628721131e-05,342970.42188005,0.017189144556477
18576000,0.99971189680958,0.016910402100574,0.0056368007001516,0.0056368007003461,0.005636800700076,-0.0013671726005229,0.0013671725999886,6.5230211673574e-12,-7.0887412085279e-12,-3.3672883081242e-14,-5.0360505638769e-13,-0.0013919755770079,0.0013919755814119,-0.001391975581788,0.0013919755766234,-0.0013919755778933,0.0013919755817215,-0.0013919755823863,0.001391975577231,-0.0013400231151731,0.0013400231285502,-0.001340023129813,0.0013400231145604,-6.7001600205929e-13,-1.5768577104323e-13,-5.0514339174554e-14,3.4282564455894e-13,-0.0013671726005349,0.0013671726000877,-0.0013919755793455,0.001391975579394,-0.0013919755794053,0.0013919755797551,-0.0013919755793331,0.0013919755798303,-0.0013919755791687,0.0013919755797711,-0.0013400231222851,0.0013400231212172,-0.0013400231206563,0.0013400231200112,-0.0013400231227103,0.0013400231195754,-0.0013400231220153,0.0013400231199358,-7.2754652689419e-12,6.8635636757822e-12,-0.0013671726004078,0.0013671726000845,5.3820355825073e-14,-3.2499942443185e-13,-0.0013919755821229,0.0013919755770943,-0.0013919755820954,0.0013919755767127,-0.0013919755771509,0.0013919755818552,-0.0013919755771531,0.0013919755816247,-0.0013400231133188,0.0013400231271429,-0.0013400231277671,0.0013400231125066,0.7117708325947,0.44491818485885,1368840,32768,0.0056803413704518,0.0056803413706816,0.0056803413704119,17.280049564034,17.275560064332,5.3440396512271e-05,5.3440396512271e-05,5.3440396512271e-05,341158.23408461,0.01718724749251
18662400,0.99971700218249,0.016910482328987,0.0056368274429561,0.0056368274431506,0.0056368274428805,-0.0013667061483769,0.0013667061478435,6.5450811404992e-12,-7.0843565189477e-12,-2.7162023160014e-14,-4.8113350758396e-13,-0.0013916465515557,0.0013916465559688,-0.00139164655632,0.0013916465512088,-0.0013916465524256,0.0013916465562228,-0.0013916465569459,0.0013916465516619,-0.0013394317974224,0.0013394318108102,-0.0013394318116701,0.0013394317968078,-6.635604051557e-13,-1.6660985135988e-13,-6.094025596407e-14,3.1766314855004e-13,-0.0013667061483844,0.0013667061479426,-0.0013916465539966,0.001391646554084,-0.0013916465539011,0.0013916465543406,-0.0013916465539139,0.0013916465543705,-0.0013916465537328,0.0013916465543058,-0.00133943180446,0.0013394318033225,-0.0013394318027395,0.0013394318022684,-0.0013394318047972,0.0013394318017745,-0.0013394318041804,0.0013394318020092,-7.2491522492571e-12,6.9075468615379e-12,-0.0013667061482322,0.001366706147959,5.8579151623599e-14,-3.0588165552539e-13,-0.0013916465565878,0.0013916465516762,-0.0013916465566563,0.0013916465513021,-0.0013916465517453,0.0013916465564795,-0.0013916465517713,0.0013916465562621,-0.0013394317953928,0.0013394318092963,-0.0013394318098519,0.001339431794937,0.71734314512566,0.54534554436908,1368840,32768,0.0056784086352589,0.0056784086354797,0.0056784086351986,17.177816839851,17.17333070077,5.2622534718805e-05,5.2622534718805e-05,5.2622534718805e-05,348627.07789084,0.017181350322461
18748800,0.99972198493382,0.016910561218119,0.0056368537393334,0.0056368537395279,0.0056368537392578,-0.0013668887961901,0.0013668887956453,6.5182788857602e-12,-7.066743468779e-12,-1.4053482440464e-14,-5.0289434280538e-13,-0.0013916445507461,0.0013916445551457,-0.0013916445554977,0.0013916445504007,-0.0013916445516296,0.0013916445553839,-0.0013916445561347,0.0013916445508368,-0.0013397856226038,0.0013397856359512,-0.0013397856368178,0.0013397856220032,-6.7811390173284e-13,-1.4638661622465e-13,-4.2056068157163e-14,3.149325113809e-13,-0.0013668887961843,0.0013668887957578,-0.0013916445531719,0.0013916445532748,-0.0013916445530855,0.0013916445535234,-0.001391644553076,0.0013916445535752,-0.0013916445529077,0.001391644553504,-0.0013397856296163,0.0013397856285082,-0.0013397856278798,0.001339785627448,-0.0013397856300371,0.0013397856269503,-0.0013397856293478,0.0013397856271639,-7.2197343832469e-12,6.8925063798378e-12,-0.0013668887960325,0.0013668887957737,5.7851644436679e-14,-2.8510070213396e-13,-0.0013916445557634,0.001391644550867,-0.0013916445558219,0.0013916445505028,-0.0013916445509363,0.0013916445556569,-0.0013916445509497,0.0013916445554492,-0.0013397856205542,0.0013397856344235,-0.0013397856349967,0.0013397856201375,0.72279306049523,0.64489692877595,1368840,32768,0.0056791656495657,0.0056791656497868,0.0056791656495053,17.075587325398,17.071101337209,5.1804698603184e-05,5.1804698603184e-05,5.1804698603184e-05,337115.37415219,0.017183659367594
18835200,0.99972684854517,0.016910638407696,0.0056368794691924,0.0056368794693868,0.0056368794691167,-0.0013670402700456,0.0013670402694928,6.52274742572e-12,-7.0806805136001e-12,-2.8847912833712e-14,-5.0242862173872e-13,-0.0013916273886112,0.0013916273930275,-0.0013916273933886,0.0013916273882775,-0.0013916273895225,0.0013916273932508,-0.0013916273940099,0.0013916273886898,-0.0013400941696677,0.0013400941829983,-0.0013400941838315,0.0013400941691083,-6.7103588266734e-13,-1.5461839416125e-13,-4.6974153207158e-14,3.2056064826871e-13,-0.0013670402700303,0.0013670402696129,-0.0013916273910328,0.0013916273911465,-0.0013916273909374,0.0013916273914084,-0.0013916273909229,0.0013916273914614,-0.0013916273907533,0.0013916273913776,-0.001340094176673,0.00134009417558,-0.0013400941749425,0.0013400941744571,-0.0013400941771018,0.0013400941739875,-0.0013400941764115,0.0013400941742095,-7.239759124446e-12,6.8910496596337e-12,-0.001367040269886,0.0013670402696218,6.7705166947742e-14,-2.8569880150949e-13,-0.0013916273936409,0.0013916273887206,-0.001391627393687,0.0013916273883471,-0.0013916273888065,0.0013916273935313,-0.0013916273888134,0.0013916273933227,-0.0013400941676086,0.0013400941814156,-0.0013400941820612,0.0013400941672068,0.72442397391266,0.67141121253251,1368840,32768,0.0056797934921151,0.0056797934923321,0.0056797934920519,16.973357994793,16.968871973648,5.0986863958341e-05,5.0986863958341e-05,5.0986863958341e-05,326650.70227288,0.017185574291893
18921600,0.99973159638567,0.016910713951996,0.0056369046506258,0.0056369046508203,0.0056369046505502,-0.0013669377309815,0.0013669377304494,6.5226580313921e-12,-7.0652275150904e-12,-1.1937694135168e-14,-4.8534667299229e-13,-0.0013914804084873,0.0013914804128815,-0.0013914804132378,0.0013914804081707,-0.0013914804093607,0.0013914804131423,-0.0013914804138744,0.001391480408595,-0.0013400328102851,0.0013400328236689,-0.0013400328243765,0.0013400328096166,-6.6982933129136e-13,-1.5366324686976e-13,-3.6051957460976e-14,3.0024156312046e-13,-0.0013669377309864,0.0013669377305526,-0.0013914804109158,0.0013914804110235,-0.0013914804108199,0.0013914804112661,-0.0013914804108281,0.0013914804112991,-0.0013914804106555,0.0013914804112251,-0.0013400328173803,0.001340032816222,-0.0013400328156019,0.0013400328150195,-0.0013400328177335,0.0013400328146315,-0.0013400328169918,0.0013400328148143,-7.2181761367326e-12,6.8970168302819e-12,-0.0013669377308255,0.0013669377305738,5.7717530886697e-14,-2.6459756378488e-13,-0.0013914804134989,0.0013914804086273,-0.001391480413563,0.0013914804082425,-0.0013914804086886,0.0013914804133995,-0.0013914804087006,0.0013914804131937,-0.0013400328081631,0.0013400328221331,-0.0013400328226163,0.0013400328078648,0.72615961125006,0.69792549628906,1368840,32768,0.005679368730232,0.0056793687304559,0.0056793687301667,16.871128690023,16.866642610087,5.0169029520185e-05,5.0169029520185e-05,5.0169029520185e-05,323439.9274564,0.017184277880247
19008000,0.99973623171615,0.016910788178348,0.0056369293927432,0.0056369293929377,0.0056369293926676,-0.0013668338741217,0.001366833873568,6.5288656946934e-12,-7.0772540300415e-12,-1.4644493797237e-14,-5.2112387414101e-13,-0.0013913334161976,0.0013913334208186,-0.0013913334211536,0.0013913334159277,-0.0013913334171936,0.0013913334210186,-0.0013913334217341,0.0013913334164575,-0.0013399687436314,0.0013399687570342,-0.0013399687580998,0.0013399687431791,-6.8883016259372e-13,-1.3895301978651e-13,-4.4136298725194e-15,3.1981808271828e-13,-0.0013668338740995,0.0013668338736949,-0.0013913334187981,0.0013913334188536,-0.0013913334186573,0.0013913334191049,-0.0013913334187247,0.001391333419216,-0.0013913334184839,0.001391333419195,-0.0013399687507258,0.0013399687496304,-0.0013399687489667,0.0013399687484404,-0.0013399687512938,0.0013399687479507,-0.0013399687505405,0.0013399687480532,-7.2550304814459e-12,6.8779452952572e-12,-0.0013668338739687,0.0013668338736885,3.2685060317373e-14,-2.7706271239491e-13,-0.001391333421356,0.0013913334165974,-0.0013913334213617,0.001391333416104,-0.0013913334165043,0.0013913334212715,-0.0013913334166352,0.0013913334210788,-0.0013399687415844,0.0013399687554398,-0.001339968756147,0.0013399687410946,0.73076841693894,0.77244247275957,1368840,32768,0.0056789385057035,0.0056789385059203,0.0056789385056364,16.768899558195,16.764413246525,4.9351196465555e-05,4.9351196465555e-05,4.9351196465555e-05,320272.4409461,0.017182964811903
19094400,0.99974076878514,0.016910860942676,0.0056369536475191,0.0056369536477136,0.0056369536474435,-0.0013669502093099,0.0013669502087833,6.5460304350283e-12,-7.0857435353988e-12,2.4732185625177e-15,-5.0885045496789e-13,-0.001391335087578,0.0013913350920309,-0.0013913350923523,0.0013913350873273,-0.0013913350885595,0.0013913350922703,-0.0013913350929488,0.0013913350877494,-0.0013401903989518,0.0013401904121972,-0.0013401904133338,0.0013401903982122,-6.9482644999949e-13,-1.4090766595576e-13,1.6384675929985e-14,2.9337665519162e-13,-0.001366950209311,0.0013669502088951,-0.0013913350900801,0.001391335090178,-0.0013913350899566,0.0013913350904612,-0.0013913350899161,0.001391335090533,-0.0013913350898031,0.001391335090508,-0.0013401904058808,0.0013401904047214,-0.0013401904041369,0.0013401904036699,-0.0013401904063892,0.0013401904032045,-0.0013401904056328,0.0013401904031975,-7.2078740985116e-12,6.9515405763836e-12,-0.0013669502091309,0.0013669502089338,4.6437228433371e-14,-2.1692960824349e-13,-0.0013913350926656,0.0013913350878151,-0.0013913350927735,0.0013913350874491,-0.0013913350877894,0.0013913350926358,-0.0013913350878631,0.001391335092406,-0.0013401903968236,0.0013401904108572,-0.001340190411265,0.0013401903963251,0.73185975032155,0.7723372377101,1368840,32768,0.0056794206724843,0.005679420672718,0.0056794206724252,16.705415376297,16.702590596921,4.8843323010377e-05,4.8843323010377e-05,4.8843323010377e-05,312976.69746019,0.017184435522804
19180800,0.99974528845179,0.016910934285315,0.0056369780950653,0.0056369780952598,0.0056369780949897,-0.0013673766695711,0.0013673766690486,6.6228014279624e-12,-7.1119140300258e-12,9.9427256683205e-15,-5.1631505045903e-13,-0.0013917485457962,0.0013917485501844,-0.0013917485504283,0.0013917485452052,-0.001391748547334,0.0013917485507,-0.0013917485514652,0.0013917485464872,-0.0013406243189555,0.0013406243325632,-0.0013406243336307,0.0013406243180429,-7.4774350989022e-13,-1.7799015075837e-13,-7.6001089983576e-14,3.0109362532584e-13,-0.0013673766694945,0.0013673766690351,-0.0013917485369504,0.0013917485369108,-0.0013917485371501,0.0013917485373049,-0.0013917485373759,0.0013917485373563,-0.0013917485369957,0.0013917485372234,-0.0013406243326621,0.0013406243324599,-0.001340624331759,0.001340624331145,-0.0013406243449231,0.001340624341399,-0.0013406243437166,0.0013406243419439,-7.2879421230767e-12,6.9743046456628e-12,-0.0013673766692809,0.0013673766690829,1.1696172101736e-13,-2.4653146863286e-13,-0.0013917485394902,0.0013917485347327,-0.0013917485394845,0.0013917485347617,-0.0013917485349611,0.0013917485394471,-0.0013917485348864,0.0013917485388432,-0.0013406243350035,0.001340624349572,-0.0013406243495602,0.0013406243344369,0.74043868448089,0.91425068683464,1368840,32768,0.0056811875078329,0.0056811875076397,0.0056811875072964,16.919378470325,16.928491014325,5.0555027762601e-05,5.0555027762601e-05,5.0555027762601e-05,311799.38436403,0.01718982716115
19267200,0.99974979278191,0.016911007507912,0.0056370025025977,0.0056370025027921,0.005637002502522,-0.0013682232406565,0.0013682232401121,6.5747045884644e-12,-7.1196252650411e-12,1.5983335249491e-15,-5.0893221717599e-13,-0.0013923953316579,0.0013923953361012,-0.0013923953364585,0.0013923953313049,-0.0013923953325601,0.0013923953363522,-0.0013923953370879,0.0013923953317695,-0.0013416533046716,0.0013416533180771,-0.0013416533190746,0.0013416533040861,-6.8872807747705e-13,-1.3554182987837e-13,-3.3990902777723e-14,3.2014616093101e-13,-0.0013682232406257,0.001368223240214,-0.0013923953334506,0.0013923953335834,-0.0013923953333702,0.0013923953338288,-0.0013923953333519,0.0013923953338757,-0.0013923953331959,0.0013923953337943,-0.0013416533124978,0.0013416533114379,-0.001341653310753,0.001341653310356,-0.0013416533139327,0.0013416533108772,-0.0013416533130906,0.0013416533110359,-7.2662259041393e-12,6.9553289312402e-12,-0.0013682232404745,0.001368223240233,6.5233654215465e-14,-2.7513459482699e-13,-0.0013923953360598,0.0013923953311296,-0.0013923953361022,0.0013923953307716,-0.0013923953311905,0.0013923953359682,-0.0013923953311953,0.0013923953357541,-0.0013416533045879,0.0013416533185164,-0.0013416533190953,0.0013416533040582,0.74173695554662,0.87574310507145,1368840,32768,0.0056846952284906,0.0056846952286374,0.0056846952283636,17.144530089317,17.154391431729,5.2356240714534e-05,5.2356240714534e-05,5.2356240714534e-05,299715.34160502,0.017200530084412
19353600,0.99975428077154,0.016911080490048,0.0056370268299766,0.005637026830171,0.0056370268299009,-0.0013685798890183,0.0013685798884374,6.5525933521827e-12,-7.1465394428315e-12,1.9778484016184e-14,-5.6431058422842e-13,-0.0013927867496662,0.0013927867540867,-0.0013927867544402,0.001392786749307,-0.0013927867506,0.0013927867542982,-0.0013927867551147,0.0013927867497091,-0.0013419686486291,0.0013419686619854,-0.0013419686634579,0.0013419686484089,-7.0031845869298e-13,-7.3511430746839e-14,2.6390252619427e-14,2.9647889865551e-13,-0.0013685798889664,0.0013685798885918,-0.0013927867519992,0.0013927867521464,-0.0013927867519578,0.0013927867523875,-0.0013927867518676,0.001392786752476,-0.0013927867517283,0.0013927867523983,-0.0013419686560504,0.0013419686550949,-0.0013419686542774,0.0013419686538989,-0.0013419686565184,0.0013419686534884,-0.0013419686556156,0.0013419686538408,-7.2846012839605e-12,6.9419091647343e-12,-0.0013685798888242,0.0013685798885953,4.0046776598464e-14,-2.1649379802778e-13,-0.0013927867546313,0.0013927867497025,-0.001392786754677,0.0013927867493741,-0.0013927867497815,0.0013927867545349,-0.0013927867497536,0.001392786754342,-0.0013419686473275,0.0013419686608785,-0.0013419686618546,0.0013419686464399,0.74186865023848,0.83723552330826,1368840,32768,0.0056861726667222,0.0056861726669344,0.0056861726666474,17.370380602583,17.380291849132,5.4163044820662e-05,5.4163044820662e-05,5.4163044820662e-05,300857.70159137,0.017205039245859
19440000,0.9997587512259,0.01691115310593,0.0056370510352703,0.0056370510354647,0.0056370510351946,-0.001368927992593,0.0013689279917148,6.3994548686936e-12,-7.2678109145419e-12,-1.7491968573544e-13,-7.3109531259887e-13,-0.0013931748879126,0.0013931748920318,-0.0013931748927442,0.0013931748874473,-0.0013931748888084,0.0013931748921353,-0.0013931748931743,0.0013931748878373,-0.0013422736464858,0.0013422736598961,-0.0013422736619993,0.0013422736461795,-9.1019466476601e-13,-3.04436876133e-13,-1.6826362436766e-13,-1.974704380019e-15,-0.0013689279926226,0.001368927991738,-0.0013931748908727,0.0013931748899542,-0.0013931748910992,0.0013931748901274,-0.0013931748902858,0.0013931748904913,-0.0013931748898002,0.0013931748899024,-0.001342273653864,0.0013422736532287,-0.0013422736528227,0.0013422736523141,-0.0013422736548433,0.0013422736519448,-0.00134227365401,0.0013422736518926,-7.2255349707488e-12,6.9669238711404e-12,-0.0013689279922193,0.0013689279921007,5.5220018948679e-14,-9.829740884634e-14,-0.0013931748925496,0.0013931748880268,-0.0013931748924232,0.0013931748877262,-0.0013931748882522,0.0013931748930052,-0.0013931748884292,0.001393174893049,-0.001342273645463,0.0013422736596934,-0.0013422736605558,0.0013422736451034,0.74105947934819,0.79872794154509,1368840,32768,0.0056876147276788,0.0056876147277883,0.0056876147277043,17.596277998033,17.606192266536,5.5970223984265e-05,5.5970223984265e-05,5.5970223984265e-05,302460.05641764,0.017209440372968
19526400,0.99976320293774,0.016911225266657,0.005637075088846,0.0056370750890404,0.0056370750887703,-0.0013692681299645,0.001369268129807,6.7419780813151e-12,-6.8875897653311e-12,1.8827618946812e-13,-4.2380958231994e-13,-0.0013935616443094,0.0013935616493484,-0.001393561649185,0.0013935616443748,-0.0013935616452411,0.0013935616495072,-0.0013935616497636,0.0013935616450634,-0.0013425674964353,0.0013425675100003,-0.0013425675104677,0.0013425674960656,-6.9646557639589e-13,-4.318909236758e-14,8.0416543329801e-14,2.4407367606968e-13,-0.0013692681301511,0.0013692681296812,-0.0013935616470252,0.0013935616473637,-0.0013935616469926,0.0013935616471553,-0.0013935616469955,0.0013935616478778,-0.0013935616471101,0.0013935616472318,-0.0013425675034667,0.0013425675025506,-0.0013425675013214,0.0013425675018992,-0.0013425675042432,0.0013425675015992,-0.0013425675029664,0.0013425675027191,-7.2071457678204e-12,6.9504319043704e-12,-0.0013692681298535,0.0013692681298044,3.4658235332348e-14,-1.1905765698795e-13,-0.0013935616494735,0.0013935616447653,-0.0013935616500959,0.0013935616448675,-0.0013935616447395,0.00139356164977,-0.0013935616445276,0.0013935616495898,-0.0013425674942165,0.0013425675093221,-0.0013425675090387,0.0013425674944915,0.7395386185596,0.76022035978189,1368840,32768,0.0056890238051894,0.0056890238053152,0.0056890238049541,17.822178574668,17.83209268394,5.7777428597346e-05,5.7777428597346e-05,5.7777428597346e-05,304484.40531219,0.017213740797385
19612800,0.99976763470011,0.016911296904924,0.0056370989682684,0.0056370989684628,0.0056370989681927,-0.00136960111989,0.0013696011193767,6.5484682723187e-12,-7.0183671231138e-12,-1.2144628989921e-15,-6.0266685364719e-13,-0.0013939476678314,0.0013939476722378,-0.0013939476725503,0.0013939476675985,-0.0013939476688401,0.0013939476725549,-0.0013939476734474,0.001393947668227,-0.0013428502061075,0.0013428502197867,-0.0013428502206062,0.0013428502055986,-6.4653907220456e-13,-2.0950830554743e-15,1.3480746995962e-13,2.9211914948991e-13,-0.0013696011199092,0.0013696011195004,-0.0013939476704574,0.0013939476704514,-0.0013939476702418,0.0013939476703012,-0.0013939476706924,0.0013939476706198,-0.0013939476702986,0.0013939476705629,-0.0013428502129671,0.0013428502129504,-0.0013428502118231,0.0013428502116824,-0.0013428502133066,0.0013428502109643,-0.0013428502128846,0.0013428502117044,-7.193377423728e-12,6.9003814921997e-12,-0.00136960111976,0.0013696011195586,-1.9527403451229e-14,-1.6241586183632e-13,-0.0013939476728776,0.0013939476680599,-0.0013939476729543,0.0013939476679198,-0.0013939476678267,0.0013939476729749,-0.0013939476679377,0.0013939476727802,-0.0013428502046595,0.001342850218717,-0.0013428502191837,0.0013428502044869,0.73751706799647,0.7217127780187,1368840,32768,0.0056904032821899,0.0056904032824857,0.0056904032822974,18.048079310512,18.057993101344,5.9584634484092e-05,5.9584634484092e-05,5.9584634484092e-05,306867.55205973,0.017217950861725
19699200,0.99977204530825,0.016911367969572,0.0056371226564843,0.0056371226566787,0.0056371226564086,-0.001369927784262,0.0013699277837737,6.5862753526325e-12,-6.9740032431057e-12,-7.7435869681453e-15,-6.2510266824845e-13,-0.001394330677586,0.0013943306822317,-0.0013943306822568,0.0013943306772835,-0.0013943306785606,0.0013943306825794,-0.0013943306831595,0.0013943306782452,-0.001343124294326,0.0013431243078907,-0.0013431243081332,0.0013431242939697,-6.5193234862014e-13,7.9999320781546e-15,9.9355200060956e-14,2.4960087486461e-13,-0.0013699277842376,0.0013699277838829,-0.0013943306800298,0.0013943306803893,-0.0013943306798279,0.0013943306803704,-0.001394330679752,0.0013943306804911,-0.0013943306800817,0.0013943306802862,-0.0013431243010384,0.0013431243009648,-0.0013431242997466,0.0013431242996604,-0.0013431243016371,0.0013431242986284,-0.0013431243007679,0.0013431242991382,-7.1805774029952e-12,6.9059519690843e-12,-0.0013699277840946,0.0013699277838977,1.3838400775767e-15,-1.35876966699e-13,-0.0013943306827106,0.001394330677936,-0.0013943306828068,0.0013943306775969,-0.0013943306776788,0.0013943306826279,-0.0013943306777337,0.0013943306825189,-0.0013431242923442,0.0013431243061004,-0.0013431243068756,0.0013431242924583,0.73515217481692,0.68320519625551,1368840,32768,0.0056917565608287,0.0056917565610042,0.0056917565607388,18.273979993468,18.283893518748,6.1391839947743e-05,6.1391839947743e-05,6.1391839947743e-05,309514.24621716,0.017222080957858
19785600,0.99977643356073,0.016911438419817,0.0056371461398996,0.0056371461400939,0.0056371461398238,-0.001370248754085,0.0013702487534517,6.5288889880995e-12,-7.0631673427331e-12,-4.822117393506e-14,-6.7376574044853e-13,-0.0013947115695307,0.0013947115738826,-0.0013947115743573,0.0013947115690938,-0.0013947115703853,0.0013947115740805,-0.0013947115748049,0.0013947115694268,-0.0013433900162924,0.0013433900304947,-0.0013433900309884,0.0013433900160732,-7.9876248070745e-13,-1.3104187911349e-13,-2.9681563836834e-14,7.9084731074575e-14,-0.0013702487541008,0.001370248753542,-0.0013947115718306,0.0013947115719323,-0.0013947115719314,0.0013947115720602,-0.0013947115716603,0.00139471157212,-0.0013947115718575,0.0013947115721029,-0.0013433900235894,0.0013433900228729,-0.0013433900219773,0.0013433900212356,-0.0013433900236645,0.0013433900208756,-0.0013433900234666,0.0013433900215146,-7.2370757946551e-12,6.8815542438298e-12,-0.0013702487538621,0.0013702487536223,-3.3742616245059e-14,-1.2858377773621e-13,-0.0013947115744983,0.001394711569685,-0.001394711574553,0.0013947115691749,-0.0013947115697508,0.0013947115744871,-0.0013947115692967,0.0013947115741825,-0.0013433900140404,0.0013433900279562,-0.0013433900292839,0.0013433900138252,0.73254359701501,0.64469761449232,1368840,32768,0.0056930862508291,0.0056930862510487,0.0056930862507208,18.499880622253,18.509793936152,6.3199044978025e-05,6.3199044978025e-05,6.3199044978025e-05,312391.8379839,0.017226139065163
19872000,0.99978078917049,0.016911507953633,0.0056371693178382,0.0056371693180325,0.0056371693177624,-0.0013704995748581,0.0013704995742331,6.4793574130198e-12,-7.1094990449785e-12,-4.8274407602926e-15,-5.9911555037236e-13,-0.0013950261189612,0.0013950261233198,-0.0013950261236967,0.0013950261186263,-0.0013950261200921,0.0013950261234888,-0.0013950261243876,0.0013950261189268,-0.001343582648413,0.0013435826613226,-0.0013435826625614,0.0013435826476912,-7.0030492969452e-13,-6.34901780657e-14,1.5365836466596e-13,2.1872683275128e-13,-0.0013704995747958,0.0013704995744326,-0.0013950261214015,0.0013950261215688,-0.0013950261214457,0.0013950261216398,-0.00139502612121,0.0013950261219138,-0.0013950261211025,0.0013950261217442,-0.0013435826548703,0.001343582654365,-0.0013435826535856,0.0013435826526983,-0.0013435826553458,0.0013435826522581,-0.001343582654639,0.0013435826526723,-7.0653516877675e-12,7.0513766441073e-12,-0.0013704995745443,0.0013704995745652,1.389492846065e-14,-3.9577496816992e-14,-0.001395026123815,0.0013950261193427,-0.0013950261237355,0.001395026119052,-0.0013950261191687,0.0013950261241263,-0.0013950261189841,0.0013950261239566,-0.0013435826460116,0.0013435826599176,-0.001343582660177,0.0013435826458704,0.7284702940777,0.58613753799082,1368840,32768,0.0056941253135834,0.0056941253138675,0.0056941253136212,18.692240257467,18.700715052263,6.4737922059736e-05,6.4737922059736e-05,6.4737922059736e-05,315487.80203681,0.017229310279362
19958400,0.99978505805052,0.016911576704001,0.0056371922346276,0.0056371922348219,0.0056371922345518,-0.0013702923265922,0.0013702923259986,6.4999666069525e-12,-7.0897934116779e-12,1.6581405214159e-14,-5.9382777073393e-13,-0.0013949233208354,0.0013949233251813,-0.0013949233255493,0.0013949233204827,-0.0013949233217765,0.001394923325439,-0.001394923326275,0.0013949233208932,-0.001343281318498,0.0013432813317357,-0.0013432813329069,0.0013432813178443,-7.0224798798248e-13,-4.8986091743817e-14,1.2419897051259e-13,1.9091022664715e-13,-0.0013702923265376,0.0013702923261602,-0.0013949233231917,0.0013949233233727,-0.0013949233232051,0.0013949233235094,-0.0013949233230603,0.0013949233237331,-0.0013949233230027,0.0013949233235634,-0.0013432813254639,0.0013432813245327,-0.001343281323942,0.0013432813232415,-0.0013432813258744,0.0013432813228559,-0.001343281325199,0.0013432813232232,-7.1804996406649e-12,6.9366515606446e-12,-0.0013702923263648,0.0013702923261969,-4.7132266023979e-14,-1.0118243835773e-13,-0.0013949233258011,0.001394923320922,-0.00139492332575,0.001394923320673,-0.0013949233210075,0.0013949233257323,-0.001394923320942,0.001394923325592,-0.0013432813164728,0.0013432813304998,-0.0013432813309119,0.001343281316092,0.73489968262028,0.70684412759495,1368840,32768,0.0056932665372759,0.0056932665374973,0.0056932665372157,18.685119221638,18.685007471449,6.4680953773102e-05,6.4680953773102e-05,6.4680953773102e-05,320820.81687862,0.017226690097088
20044800,0.99978923986844,0.016911644250263,0.0056372147500482,0.0056372147502425,0.0056372147499724,-0.0013706493767224,0.0013706493761365,6.4996941152769e-12,-7.0872001379595e-12,2.6703595988179e-14,-5.8647917169917e-13,-0.0013950957309051,0.0013950957353017,-0.0013950957356547,0.0013950957305597,-0.0013950957318372,0.0013950957355035,-0.0013950957363308,0.001395095730962,-0.0013438093641831,0.0013438093774477,-0.0013438093784297,0.0013438093634909,-7.0728801048384e-13,-5.1266433845637e-14,1.3018331710667e-13,1.92187158226e-13,-0.0013706493766713,0.0013706493762924,-0.0013950957332629,0.001395095733456,-0.001395095733273,0.0013950957336067,-0.0013950957331263,0.0013950957337989,-0.0013950957330589,0.0013950957336249,-0.0013438093710017,0.0013438093702496,-0.0013438093695447,0.0013438093689342,-0.0013438093716408,0.0013438093684329,-0.0013438093708559,0.0013438093688019,-7.1672498689657e-12,6.947042537325e-12,-0.0013706493764889,0.00137064937634,-3.5225688585276e-14,-8.4511182947254e-14,-0.0013950957358875,0.0013950957310124,-0.0013950957358557,0.0013950957307445,-0.0013950957310668,0.0013950957358027,-0.0013950957309846,0.0013950957356923,-0.0013438093620531,0.0013438093761395,-0.0013438093764949,0.0013438093618069,0.73711176748889,0.74287786107422,1368840,32768,0.0056947461241695,0.0056947461243866,0.0056947461241074,18.66995044362,18.669299890635,6.455960354896e-05,6.455960354896e-05,6.455960354896e-05,309475.66558302,0.017231204187922
20131200,0.99979333634727,0.016911710645712,0.0056372368818644,0.0056372368820588,0.0056372368817887,-0.0013707333335742,0.0013707333329968,6.5030494098338e-12,-7.0723055929776e-12,1.4128156629807e-14,-5.7719292597584e-13,-0.0013951258907181,0.0013951258951116,-0.0013951258954575,0.0013951258903761,-0.0013951258916384,0.001395125895312,-0.0013951258961419,0.0013951258907821,-0.0013439422096638,0.0013439422229534,-0.0013439422238762,0.0013439422089905,-6.9530878820556e-13,-6.1191160063828e-14,1.25008592838e-13,1.9887963024617e-13,-0.0013707333335265,0.0013707333331489,-0.0013951258930777,0.001395125893268,-0.0013951258930818,0.0013951258934277,-0.0013951258929407,0.001395125893608,-0.001395125892866,0.0013951258934447,-0.0013439422164915,0.0013439422157094,-0.0013439422150137,0.0013439422143877,-0.0013439422170985,0.0013439422139446,-0.0013439422163646,0.0013439422142792,-7.1631035250454e-12,6.9396295284932e-12,-0.0013707333333479,0.0013707333331935,-3.0104492093137e-14,-9.119209649699e-14,-0.0013951258957029,0.0013951258908295,-0.0013951258956682,0.0013951258905486,-0.0013951258908819,0.0013951258956106,-0.001395125890811,0.001395125895494,-0.0013439422075023,0.0013439422215789,-0.0013439422219453,0.001343942207294,0.73952441027873,0.77624390056034,1368840,32768,0.0056950940444738,0.0056950940446899,0.0056950940444126,18.654279026375,18.65359230982,6.4434232210997e-05,6.4434232210997e-05,6.4434232210997e-05,305791.61754159,0.017232265625926
20217600,0.9997973492966,0.016911775934681,0.005637258644854,0.0056372586450484,0.0056372586447783,-0.0013708086237608,0.0013708086231888,6.5019294293426e-12,-7.0753529116488e-12,1.8927362958524e-14,-5.673647262206e-13,-0.001395151854464,0.0013951518588889,-0.0013951518592204,0.0013951518541449,-0.0013951518554141,0.0013951518590929,-0.0013951518599424,0.0013951518545545,-0.0013440617339528,0.0013440617472983,-0.001344061748251,0.0013440617332517,-6.8657652555843e-13,-5.7447392080429e-14,1.2390092079427e-13,1.9221178982647e-13,-0.0013708086237191,0.0013708086233402,-0.0013951518568576,0.0013951518570398,-0.0013951518568491,0.0013951518571901,-0.0013951518566801,0.0013951518573562,-0.001395151856635,0.0013951518572175,-0.0013440617408899,0.0013440617401029,-0.0013440617394034,0.0013440617387648,-0.0013440617415048,0.0013440617382839,-0.0013440617407181,0.0013440617386865,-7.1701386042462e-12,6.934382159385e-12,-0.001370808623542,0.0013708086233765,-3.5780024591868e-14,-9.1245330164856e-14,-0.0013951518594992,0.0013951518545906,-0.0013951518594447,0.0013951518543262,-0.0013951518547007,0.0013951518593873,-0.0013951518545802,0.0013951518592651,-0.0013440617318734,0.0013440617460358,-0.0013440617463784,0.0013440617316422,0.74229529981952,0.80868178139082,1368840,32768,0.0056954060434761,0.0056954060437032,0.0056954060434116,18.63857394281,18.637884729006,6.4308591542478e-05,6.4308591542478e-05,6.4308591542478e-05,302317.27115964,0.01723321749922
20304000,0.99980128049412,0.016911840172394,0.0056372800574253,0.0056372800576196,0.0056372800573495,-0.0013708808546658,0.001370880854078,6.4932775760037e-12,-7.0865569223151e-12,1.1655849804142e-14,-5.7619789754975e-13,-0.001395174952101,0.0013951749564955,-0.0013951749568482,0.0013951749517652,-0.0013951749530126,0.0013951749566852,-0.0013951749575207,0.0013951749521235,-0.0013441770008069,0.0013441770140487,-0.0013441770150543,0.0013441770001257,-7.0311884373137e-13,-7.226196891704e-14,1.2046255524574e-13,1.7780224473406e-13,-0.0013708808546141,0.0013708808542296,-0.0013951749544414,0.0013951749546687,-0.0013951749544731,0.0013951749547706,-0.0013951749542951,0.001395174954982,-0.0013951749542377,0.0013951749548101,-0.0013441770076259,0.0013441770068814,-0.0013441770062253,0.0013441770055399,-0.0013441770082629,0.0013441770050284,-0.0013441770075481,0.0013441770054714,-7.1633021072142e-12,6.9440128063518e-12,-0.0013708808544292,0.0013708808542798,-3.4748820800318e-14,-7.9434632150043e-14,-0.001395174957073,0.0013951749522374,-0.0013951749570524,0.0013951749518995,-0.0013951749522817,0.0013951749570189,-0.0013951749521972,0.0013951749568926,-0.0013441769986871,0.0013441770127937,-0.0013441770131182,0.0013441769984839,0.74549162518567,0.84111966222131,1368840,32768,0.005695705355114,0.005695705355321,0.0056957053550421,18.62286657392,18.622177148192,6.4182932591356e-05,6.4182932591356e-05,6.4182932591356e-05,298865.51539425,0.017234130696072
20390400,0.99980513167871,0.016911903133953,0.0056373010446116,0.0056373010448059,0.0056373010445358,-0.00137095263417,0.0013709526335854,6.4954583770288e-12,-7.0780347708963e-12,1.5318120277234e-14,-5.7783399462693e-13,-0.0013951979840894,0.0013951979885278,-0.0013951979888845,0.0013951979838209,-0.0013951979850211,0.0013951979886625,-0.001395197989594,0.0013951979842775,-0.0013442906910969,0.0013442907042943,-0.0013442907052652,0.0013442906902872,-6.657220744123e-13,-2.9943349957095e-14,1.4907532820399e-13,2.1394084660693e-13,-0.0013709526340898,0.001370952633765,-0.0013951979864788,0.0013951979867202,-0.0013951979865016,0.0013951979869312,-0.001395197986374,0.0013951979870577,-0.0013951979862742,0.0013951979868977,-0.0013442906978519,0.0013442906970048,-0.0013442906962536,0.0013442906958148,-0.0013442906984241,0.0013442906952754,-0.0013442906976345,0.0013442906957056,-7.1550177720596e-12,6.9458388093922e-12,-0.0013709526339328,0.0013709526337963,-2.2370198958719e-14,-7.4578780492978e-14,-0.0013951979891476,0.0013951979842265,-0.0013951979891517,0.0013951979839875,-0.0013951979843494,0.0013951979890667,-0.0013951979842825,0.0013951979889613,-0.0013442906888476,0.001344290703022,-0.0013442907032383,0.0013442906886899,0.74582830635898,0.82126598431431,1368840,32768,0.0056960027871806,0.0056960027873865,0.0056960027871262,18.607158997988,18.606469567377,6.4057271983901e-05,6.4057271983901e-05,6.4057271983901e-05,295381.38249974,0.017235038192366
20476800,0.9998089045508,0.016911964274955,0.0056373214249455,0.0056373214251398,0.0056373214248697,-0.0013708801130813,0.0013708801124994,6.4900902763147e-12,-7.0950313104872e-12,2.5214729707316e-14,-5.8348146915928e-13,-0.0013951443179503,0.001395144322384,-0.0013951443227391,0.0013951443176332,-0.0013951443189177,0.001395144322605,-0.0013951443234268,0.0013951443180633,-0.001344197226335,0.0013441972395426,-0.0013441972404093,0.0013441972256158,-6.935344012354e-13,-4.2045333190991e-14,1.4425124028245e-13,2.1381046823696e-13,-0.001370880113016,0.0013708801126681,-0.0013951443203227,0.0013951443205422,-0.0013951443203414,0.0013951443206822,-0.0013951443201932,0.0013951443208806,-0.0013951443201213,0.0013951443207325,-0.0013441972330713,0.0013441972323714,-0.0013441972316034,0.0013441972310013,-0.0013441972336589,0.0013441972304683,-0.0013441972328195,0.0013441972309227,-7.1695459752918e-12,6.9430310716372e-12,-0.0013708801128561,0.0013708801126987,-3.3728028455412e-14,-9.0713993455651e-14,-0.0013951443229685,0.001395144318104,-0.0013951443229277,0.0013951443178721,-0.0013951443181571,0.0013951443228646,-0.0013951443180938,0.0013951443227555,-0.0013441972241886,0.0013441972382395,-0.0013441972385216,0.001344197224065,0.73927061701721,0.7051435878032,1368840,32768,0.0056957022537453,0.0056957022539593,0.0056957022536918,18.591451335201,18.590761986563,6.3931610681604e-05,6.3931610681604e-05,6.3931610681604e-05,295887.11191088,0.017234121322281
20563200,0.99981260077325,0.016912023406455,0.0056373411354456,0.00563734113564,0.0056373411353699,-0.0013705195543663,0.0013705195537894,6.5221177831904e-12,-7.1086563060177e-12,2.3094323896022e-14,-5.5942714517884e-13,-0.0013949475533805,0.0013949475577868,-0.001394947558144,0.0013949475530333,-0.0013949475543011,0.0013949475579932,-0.0013949475588217,0.0013949475534441,-0.0013436856264953,0.0013436856398143,-0.0013436856407733,0.0013436856257804,-6.9981065067675e-13,-7.4416461922287e-14,1.4064717391362e-13,1.8977199671341e-13,-0.0013705195543201,0.0013705195539395,-0.0013949475557306,0.0013949475559388,-0.0013949475557453,0.0013949475560884,-0.0013949475556074,0.0013949475562756,-0.0013949475555384,0.0013949475561003,-0.0013436856332496,0.0013436856325807,-0.0013436856318829,0.0013436856311663,-0.0013436856340032,0.0013436856307898,-0.001343685633208,0.0013436856311082,-7.1934231282141e-12,6.9647842894443e-12,-0.0013705195541385,0.0013705195539861,-4.0151479282222e-14,-7.6574837161876e-14,-0.0013949475583811,0.0013949475534854,-0.001394947558348,0.0013949475532243,-0.0013949475535464,0.0013949475582886,-0.001394947553465,0.0013949475581778,-0.0013436856242993,0.0013436856384618,-0.0013436856387818,0.0013436856240691,0.72982046270577,0.5627439105104,1368840,32768,0.0056942081741887,0.0056942081744038,0.0056942081741241,18.575743713058,18.575054405748,6.3805949704461e-05,6.3805949704461e-05,6.3805949704461e-05,304764.38345159,0.017229562854304
20649600,0.99981620837551,0.016912080297443,0.0056373600991081,0.0056373600993025,0.0056373600990324,-0.0013699146299676,0.0013699146293887,6.5183462660548e-12,-7.0873797207086e-12,1.4513086046948e-14,-5.7756082650144e-13,-0.0013945739310214,0.0013945739354206,-0.0013945739357653,0.0013945739306721,-0.0013945739319336,0.0013945739356234,-0.0013945739364419,0.0013945739310752,-0.0013428702938464,0.001342870307214,-0.0013428703081229,0.0013428702932074,-7.0144836535158e-13,-6.6463528408359e-14,1.3937327165399e-13,1.6924177095654e-13,-0.0013699146299235,0.0013699146295374,-0.0013945739333667,0.0013945739335803,-0.0013945739333887,0.0013945739337142,-0.0013945739332358,0.0013945739339167,-0.0013945739331726,0.001394573933728,-0.0013428703007274,0.0013428702999902,-0.001342870299335,0.0013428702986327,-0.0013428703012979,0.0013428702980674,-0.0013428703006332,0.001342870298463,-7.1771889770975e-12,6.9560479092759e-12,-0.0013699146297349,0.00136991462959,-5.0254641225795e-14,-6.7556759716775e-14,-0.0013945739360064,0.0013945739311221,-0.0013945739359609,0.001394573930865,-0.0013945739311779,0.0013945739359138,-0.0013945739310834,0.0013945739358122,-0.0013428702917134,0.0013428703058694,-0.0013428703062474,0.0013428702915506,0.71951860435777,0.4203442332176,1368840,32768,0.0056917016249208,0.0056917016251373,0.0056917016248557,18.499601495098,18.496320583305,6.3196811960785e-05,6.3196811960785e-05,6.3196811960785e-05,317659.11144815,0.017221914885667
20736000,0.99981966340476,0.016912135317746,0.0056373784392092,0.0056373784394036,0.0056373784391335,-0.0013686563071104,0.0013686563066287,6.4390733495527e-12,-6.9513895809964e-12,7.5329286977285e-14,-4.1799790692146e-13,-0.0013935851306301,0.0013935851350121,-0.001393585135364,0.0013935851301702,-0.0013935851312926,0.0013935851351911,-0.0013935851360369,0.001393585130643,-0.0013413683013522,0.0013413683139461,-0.0013413683152372,0.0013413683006015,-6.9768448033568e-13,-1.6235839300372e-13,1.3269865202962e-13,3.8977382797122e-14,-0.0013686563071389,0.0013686563066866,-0.0013935851327769,0.0013935851332261,-0.0013935851327737,0.0013935851334234,-0.0013935851325042,0.0013935851335021,-0.0013935851326983,0.0013935851333425,-0.0013413683085447,0.0013413683080367,-0.0013413683075735,0.001341368305767,-0.0013413683085457,0.0013413683059273,-0.0013413683080386,0.00134136830515,-7.0415408857594e-12,6.8755174282504e-12,-0.001368656306892,0.0013686563068014,-6.1819170290311e-14,4.5417436057916e-14,-0.0013935851353356,0.0013935851308772,-0.001393585135451,0.0013935851305564,-0.00139358513087,0.0013935851354441,-0.0013935851305648,0.0013935851352075,-0.0013413682998,0.0013413683134759,-0.0013413683135849,0.0013413682994153,0.72668645001479,0.55131483595069,1368840,32768,0.0056864879996958,0.0056864879998747,0.0056864879996011,18.118301300501,18.101876137917,6.0146410404004e-05,6.0146410404004e-05,6.0146410404004e-05,332829.51894045,0.017206006045677
20822400,0.99982297103919,0.016912188527797,0.0056373961758929,0.0056373961760872,0.0056373961758171,-0.001368361058087,0.0013683610576307,6.4843550985792e-12,-6.8783201073363e-12,-3.8585997694845e-14,-4.065136107e-13,-0.0013930665145322,0.001393066518829,-0.0013930665191627,0.0013930665141433,-0.0013930665153593,0.0013930665191727,-0.0013930665198282,0.0013930665145942,-0.0013412796486377,0.0013412796621177,-0.0013412796626629,0.0013412796484291,-5.9351242742627e-13,-1.8232034200341e-13,1.6196222863568e-13,7.234352524908e-14,-0.0013683610581443,0.0013683610576783,-0.0013930665166464,0.0013930665170248,-0.0013930665170462,0.0013930665170326,-0.0013930665167278,0.0013930665171944,-0.001393066516689,0.0013930665169954,-0.0013412796558061,0.0013412796548707,-0.0013412796541268,0.0013412796534142,-0.0013412796557424,0.001341279652945,-0.0013412796551244,0.0013412796535432,-7.0104364830364e-12,6.8791559641544e-12,-0.0013683610578576,0.0013683610578338,-2.605443934888e-14,7.5633042403648e-14,-0.0013930665193457,0.001393066514764,-0.0013930665192251,0.001393066514336,-0.0013930665146241,0.0013930665193303,-0.0013930665144971,0.0013930665192439,-0.0013412796464596,0.0013412796604639,-0.0013412796609476,0.0013412796467516,0.73424409985571,0.69238088739836,1368840,32768,0.0056852651423641,0.0056852651425812,0.0056852651423097,17.72468233194,17.70743169253,5.6997458655519e-05,5.6997458655519e-05,5.6997458655519e-05,318997.8541038,0.017202273065045
20908800,0.99982613864079,0.016912239243688,0.0056374130811897,0.005637413081384,0.0056374130811139,-0.0013680518627245,0.0013680518623022,6.4260668939498e-12,-6.8553605734402e-12,-2.948936382606e-14,-2.8595117615256e-13,-0.0013925413996602,0.0013925414037363,-0.0013925414041311,0.0013925413989629,-0.0013925414000926,0.0013925414040291,-0.0013925414047264,0.0013925413991914,-0.0013411716476488,0.0013411716603141,-0.0013411716621081,0.0013411716466389,-6.2685911459022e-13,-3.2772651759161e-13,1.520434140016e-13,-7.5950032719811e-15,-0.0013680518628355,0.0013680518622703,-0.0013925414020117,0.0013925414015153,-0.001392541401451,0.0013925414019035,-0.0013925414010476,0.0013925414024791,-0.0013925414013225,0.0013925414017752,-0.0013411716532972,0.0013411716530895,-0.001341171653396,0.0013411716518474,-0.0013411716551285,0.0013411716517143,-0.0013411716544324,0.0013411716514163,-7.0537131609636e-12,6.7544511855645e-12,-0.0013680518625513,0.0013680518624072,-9.0089541943981e-14,8.1627094583586e-14,-0.0013925414041633,0.0013925413997034,-0.0013925414039758,0.0013925413989828,-0.0013925413995035,0.0013925414040602,-0.0013925413995609,0.001392541403733,-0.0013411716451395,0.0013411716586377,-0.0013411716584118,0.0013411716440054,0.73062466292,0.63314123000179,1368840,32768,0.0056839845090995,0.0056839845092632,0.0056839845089585,17.330292942082,17.312987247142,5.384234353665e-05,5.384234353665e-05,5.384234353665e-05,305767.95828819,0.017198363762745
20995200,0.99982917327506,0.016912287664465,0.005637429221449,0.0056374292216433,0.0056374292213732,-0.0013671089226755,0.0013671089217771,6.2222114157123e-12,-7.0375604779464e-12,-2.5740698933434e-13,-5.7360630025068e-13,-0.0013916827296021,0.0013916827336135,-0.0013916827343987,0.0013916827288813,-0.001391682730582,0.0013916827338764,-0.0013916827350605,0.0013916827295346,-0.001340149917453,0.0013401499293271,-0.0013401499311182,0.001340149916923,-3.8603167758547e-13,-2.6615039869978e-14,4.4279082598539e-13,3.2342710481807e-13,-0.0013671089223048,0.0013671089222478,-0.0013916827323344,0.0013916827324763,-0.0013916827315969,0.0013916827322156,-0.0013916827316326,0.0013916827328491,-0.0013916827313571,0.0013916827327756,-0.00134014992254,0.0013401499232117,-0.0013401499212649,0.0013401499207701,-0.0013401499239855,0.0013401499202113,-0.0013401499234196,0.0013401499207091,-7.2716879137492e-12,6.5156895972142e-12,-0.0013671089225057,0.0013671089218911,-4.0311662624025e-13,-2.686939680543e-13,-0.0013916827350442,0.0013916827290527,-0.001391682734219,0.0013916827289616,-0.0013916827297303,0.0013916827341559,-0.0013916827296518,0.001391682733965,-0.0013401499143582,0.0013401499271459,-0.0013401499279493,0.0013401499138854,0.72798884905127,0.59471585585635,1368840,32768,0.0056800777016733,0.0056800777018802,0.0056800777015579,16.935852160589,16.918542801755,5.0686817284712e-05,5.0686817284712e-05,5.0686817284712e-05,310432.42246161,0.01718644234994
21081600,0.99983208159299,0.016912334077482,0.0056374446924545,0.0056374446926489,0.0056374446923788,-0.0013662238643013,0.0013662238638104,6.4241878484121e-12,-6.8993023486962e-12,1.0544677867329e-15,-4.0545105492506e-13,-0.0013908633302415,0.0013908633345171,-0.0013908633349096,0.001390863329905,-0.0013908633311071,0.0013908633348228,-0.0013908633355209,0.0013908633303934,-0.0013392054123444,0.0013392054251018,-0.0013392054257896,0.0013392054115559,-6.6478213253865e-13,-2.1747179756233e-13,1.5609123152002e-13,2.610117321531e-14,-0.0013662238643439,0.0013662238638691,-0.0013908633325224,0.0013908633327584,-0.0013908633325704,0.001390863332882,-0.0013908633325386,0.0013908633330385,-0.001390863332359,0.0013908633328217,-0.0013392054188079,0.0013392054179145,-0.0013392054176798,0.0013392054162749,-0.0013392054195791,0.0013392054161824,-0.0013392054190587,0.0013392054159752,-7.046107746245e-12,6.8071179295728e-12,-0.001366223864119,0.0013662238639793,-1.4571413676844e-13,-2.0184089272281e-15,-0.0013908633351723,0.0013908633304116,-0.0013908633350464,0.001390863330116,-0.0013908633304749,0.0013908633351448,-0.0013908633303127,0.0013908633350289,-0.0013392054097615,0.0013392054235762,-0.0013392054236433,0.0013392054097729,0.72816123848776,0.60389552379455,1368840,32768,0.0056764107505938,0.0056764107508037,0.0056764107505661,16.54140804252,16.524098356367,4.7531264340159e-05,4.7531264340159e-05,4.7531264340159e-05,313622.63225342,0.017175252818639
21168000,0.99983486985077,0.016912378586052,0.0056374595286446,0.005637459528839,0.0056374595285689,-0.0013654923122269,0.0013654923117125,6.4050502859927e-12,-6.9177484910615e-12,-3.0478951241902e-14,-4.462874544599e-13,-0.0013901195768557,0.0013901195811616,-0.0013901195815179,0.0013901195765091,-0.0013901195777169,0.0013901195814286,-0.0013901195821316,0.0013901195769741,-0.0013384857632832,0.001338485776384,-0.0013384857771816,0.0013384857626969,-6.5104549336001e-13,-1.9241473950885e-13,1.8593420219069e-13,5.4532466423525e-14,-0.0013654923122484,0.0013654923117955,-0.0013901195791338,0.0013901195793939,-0.0013901195792011,0.0013901195794811,-0.001390119579067,0.0013901195796711,-0.0013901195790476,0.0013901195794359,-0.0013384857699766,0.0013384857692717,-0.0013384857687474,0.001338485767727,-0.0013384857706512,0.0013384857674501,-0.0013384857700694,0.0013384857675643,-7.0056750402599e-12,6.844493787766e-12,-0.0013654923119997,0.0013654923119094,-1.0423752149762e-13,3.9180273657769e-14,-0.0013901195817582,0.0013901195769685,-0.0013901195816545,0.0013901195767568,-0.001390119577024,0.0013901195816718,-0.0013901195768775,0.0013901195816188,-0.0013384857610912,0.0013384857750365,-0.0013384857752356,0.0013384857610263,0.72838415090798,0.61307519173276,1368840,32768,0.0056733798967485,0.0056733798969651,0.0056733798966858,16.14696370008,16.12965391098,4.4375709600635e-05,4.4375709600635e-05,4.4375709600635e-05,312378.33263262,0.017166004025063
21254400,0.99983754795822,0.016912421352703,0.0056374737841947,0.005637473784389,0.0056374737841189,-0.0013648065663228,0.0013648065658019,6.3995773796568e-12,-6.9213596160383e-12,-3.3650766109841e-14,-4.5958237183872e-13,-0.0013894207410347,0.0013894207453444,-0.0013894207456962,0.0013894207406898,-0.0013894207419,0.0013894207456065,-0.001389420746314,0.001389420741153,-0.0013378125678983,0.0013378125810284,-0.0013378125818569,0.0013378125673316,-6.5057709590453e-13,-1.8178697594443e-13,1.9282187412999e-13,6.0862258346844e-14,-0.0013648065663372,0.0013648065658922,-0.0013894207433158,0.0013894207435767,-0.0013894207433864,0.0013894207436615,-0.0013894207432393,0.0013894207438562,-0.0013894207432293,0.0013894207436203,-0.0013378125746111,0.0013378125739332,-0.0013378125733693,0.0013378125723924,-0.001337812575282,0.0013378125721028,-0.0013378125746804,0.0013378125722736,-7.0027665408773e-12,6.8455098155506e-12,-0.0013648065660902,0.0013648065660037,-9.9416609949632e-14,4.4500758179443e-14,-0.0013894207459332,0.0013894207411422,-0.0013894207458312,0.0013894207409369,-0.0013894207411986,0.001389420745843,-0.0013894207410525,0.0013894207457941,-0.0013378125657516,0.0013378125797078,-0.0013378125799336,0.0013378125656667,0.72865281528282,0.62225485967096,1368840,32768,0.0056705388130882,0.0056705388133051,0.0056705388130245,15.776135180632,15.75983803545,4.1409081445056e-05,4.1409081445056e-05,4.1409081445056e-05,311106.72565109,0.017157334393567
21340800,0.99984013437318,0.016912462673074,0.0056374875576517,0.0056374875578461,0.005637487557576,-0.0013642766926795,0.0013642766921033,6.3788755414955e-12,-7.0177510831098e-12,-3.8998014519779e-14,-5.1482962524952e-13,-0.001388876443586,0.0013888764479087,-0.0013888764482521,0.0013888764432359,-0.0013888764444767,0.0013888764481985,-0.0013888764489391,0.0013888764437235,-0.0013372961706292,0.0013372961836062,-0.0013372961845918,0.0013372961700396,-6.2448471653822e-13,-1.0701255436933e-13,2.1576611437567e-13,1.0279159508145e-13,-0.0013642766926499,0.0013642766922557,-0.0013888764458941,0.0013888764461516,-0.0013888764459616,0.0013888764462939,-0.001388876445813,0.0013888764464454,-0.0013888764457806,0.0013888764462334,-0.0013372961775283,0.0013372961764911,-0.0013372961761372,0.0013372961752118,-0.0013372961777732,0.0013372961748305,-0.0013372961774711,0.0013372961751063,-7.038868673276e-12,6.885104135383e-12,-0.0013642766924289,0.0013642766923426,-9.5224973295372e-14,3.1119519908263e-14,-0.0013888764485338,0.0013888764437332,-0.0013888764484558,0.0013888764435129,-0.001388876443794,0.0013888764484431,-0.0013888764436513,0.0013888764483967,-0.001337296168711,0.0013372961825134,-0.0013372961827519,0.0013372961684447,0.72896328902109,0.63143452760917,1368840,32768,0.0056683435193084,0.0056683435195625,0.0056683435192852,15.485953668302,15.473137698729,3.9087629346413e-05,3.9087629346413e-05,3.9087629346413e-05,309798.91933955,0.017150635422719
21427200,0.99984263340437,0.016912502617278,0.0056375008723865,0.0056375008725809,0.0056375008723108,-0.0013637532412396,0.0013637532406994,6.4277653420633e-12,-6.9965356724025e-12,6.044962389372e-15,-5.0693545464631e-13,-0.0013883397180789,0.0013883397224122,-0.001388339722752,0.0013883397177595,-0.0013883397189443,0.0013883397226566,-0.0013883397233753,0.0013883397181682,-0.0013367854318721,0.0013367854449227,-0.0013367854458891,0.001336785430975,-6.6188383872659e-13,-1.0445319137964e-13,1.4861234234789e-13,1.2613520547958e-13,-0.0013637532412366,0.0013637532408165,-0.0013883397204235,0.0013883397206213,-0.0013883397204395,0.0013883397207351,-0.0013883397202491,0.0013883397209308,-0.0013883397202592,0.0013883397207231,-0.001336785438605,0.0013367854378677,-0.0013367854370136,0.0013367854364629,-0.0013367854390349,0.0013367854360559,-0.0013367854383658,0.0013367854362834,-7.081622602467e-12,6.8694432020491e-12,-0.0013637532410168,0.0013637532408977,-3.7549499947375e-14,-2.0728190297427e-15,-0.0013883397229754,0.0013883397182188,-0.0013883397229298,0.0013883397179197,-0.0013883397182397,0.0013883397229065,-0.0013883397180833,0.0013883397228277,-0.0013367854296108,0.0013367854436805,-0.0013367854437126,0.0013367854293207,0.72931336240111,0.64061419554737,1368840,32768,0.0056661748245222,0.0056661748247585,0.0056661748244717,15.199034833296,15.186437362008,3.6792278666369e-05,3.6792278666369e-05,3.6792278666369e-05,308514.68977361,0.017144017681317
21513600,0.99984504864378,0.016912541598847,0.0056375138662428,0.0056375138664372,0.0056375138661671,-0.0013632302672262,0.0013632302666495,6.3747349473996e-12,-6.9853547198553e-12,1.3427530974616e-14,-5.5372473114838e-13,-0.0013878034216348,0.0013878034259801,-0.0013878034262544,0.0013878034213188,-0.0013878034224844,0.001387803426211,-0.0013878034268911,0.0013878034215963,-0.0013362752098756,0.0013362752226709,-0.0013362752235926,0.0013362752090078,-6.9655963234607e-13,-8.6033224685218e-14,1.5484709305701e-13,1.7475466136505e-13,-0.0013632302671806,0.001363230266799,-0.0013878034238742,0.0013878034241209,-0.0013878034238385,0.0013878034242742,-0.001387803423782,0.0013878034244524,-0.0013878034237154,0.0013878034242568,-0.0013362752162055,0.0013362752153731,-0.0013362752149,0.0013362752140962,-0.0013362752168705,0.001336275213722,-0.0013362752161713,0.0013362752142387,-7.0637165612489e-12,6.8236395424959e-12,-0.0013632302669949,0.0013632302668461,-8.3012816956601e-14,-9.0709934756112e-14,-0.0013878034265309,0.0013878034217422,-0.0013878034264771,0.0013878034214246,-0.0013878034217773,0.0013878034263701,-0.0013878034216812,0.0013878034262348,-0.0013362752074389,0.0013362752212413,-0.0013362752213664,0.0013362752072858,0.73640785480257,0.77112383032438,1368840,32768,0.0056640081017549,0.00566400810197,0.0056640081016832,14.912320682289,14.899737025288,3.4498565458309e-05,3.4498565458309e-05,3.4498565458309e-05,307226.20204722,0.017137406004871
21600000,0.99984738347894,0.016912579001102,0.0056375263336612,0.0056375263338555,0.0056375263335854,-0.0013630669574896,0.0013630669571029,6.5334307169999e-12,-6.8964560238847e-12,1.6624445075791e-13,-3.6986917133894e-13,-0.0013874530967773,0.0013874531010942,-0.0013874531014123,0.0013874530965676,-0.0013874530980074,0.0013874531016507,-0.0013874531020532,0.0013874530966726,-0.0013362865102422,0.0013362865228526,-0.0013362865235482,0.0013362865090193,-6.4357719209973e-13,-6.1822964292054e-14,1.4034583017828e-13,-7.0400069914424e-14,-0.0013630669576367,0.0013630669570873,-0.0013874530993087,0.0013874530994867,-0.0013874530990706,0.0013874530997369,-0.001387453099652,0.0013874530994016,-0.0013874530990968,0.0013874530995625,-0.0013362865184484,0.0013362865165671,-0.0013362865161843,0.0013362865139653,-0.0013362865176795,0.0013362865163549,-0.001336286518609,0.0013362865152908,-6.9834023677336e-12,6.9741136514975e-12,-0.0013630669572778,0.001363066957336,-5.4441748606656e-14,1.6791404681172e-13,-0.0013874531018218,0.0013874530974038,-0.0013874531017739,0.0013874530970939,-0.0013874530973054,0.0013874531022079,-0.0013874530974028,0.0013874531019045,-0.0013362865081354,0.0013362865230545,-0.0013362865221624,0.0013362865083508,0.73089914240265,0.66996005977475,1368840,32768,0.0056633318167103,0.0056633318169826,0.0056633318167545,14.625618729527,14.613036688566,3.2204949836216e-05,3.2204949836216e-05,3.2204949836216e-05,295827.60073902,0.017135341226439
21686400,0.9998496411332,0.016912615114361,0.0056375383714141,0.0056375383716085,0.0056375383713384,-0.0013622216879441,0.0013622216873506,6.3856456287917e-12,-6.9668538732788e-12,3.0115550578837e-15,-5.9707181868931e-13,-0.0013867485173965,0.0013867485216546,-0.0013867485220256,0.0013867485170516,-0.0013867485183597,0.0013867485218823,-0.0013867485227014,0.0013867485174872,-0.0013353102105949,0.0013353102235698,-0.0013353102245221,0.001335310209559,-6.7010814630317e-13,-2.7568746029027e-14,2.6075532822136e-13,-1.6555023667156e-14,-0.001362221687906,0.0013622216875074,-0.0013867485196821,0.0013867485199642,-0.0013867485197997,0.0013867485199997,-0.00138674851952,0.0013867485202919,-0.0013867485195471,0.0013867485200017,-0.0013353102171126,0.0013353102166896,-0.0013353102161147,0.0013353102146586,-0.001335310217794,0.0013353102147052,-0.0013353102175604,0.0013353102150712,-6.9956271119231e-12,6.8829122023451e-12,-0.0013622216876553,0.0013622216876132,-1.5058245863278e-13,1.3759744355137e-13,-0.0013867485222859,0.0013867485174665,-0.0013867485221333,0.0013867485173513,-0.0013867485175793,0.0013867485222128,-0.0013867485173605,0.0013867485221709,-0.0013353102081692,0.0013353102225442,-0.0013353102223556,0.0013353102082962,0.72971739389593,0.65084678893061,1368840,32768,0.0056598294868986,0.0056598294871445,0.0056598294868445,14.338918262076,14.326336351846,2.991134609661e-05,2.991134609661e-05,2.991134609661e-05,303556.3909807,0.017124655153807
21772800,0.99985182467617,0.016912649977334,0.005637549992405,0.0056375499925994,0.0056375499923293,-0.0013616116813496,0.0013616116806594,6.276058035441e-12,-6.9944173841736e-12,-3.9542144955791e-14,-6.9251999104846e-13,-0.0013861674571211,0.0013861674614899,-0.0013861674617505,0.0013861674567349,-0.0013861674581409,0.0013861674616098,-0.0013861674623166,0.0013861674571239,-0.0013346736587361,0.0013346736718249,-0.0013346736725619,0.001334673657343,-6.3601698188249e-13,5.955044548065e-14,3.6810928392582e-13,5.0480443151231e-14,-0.001361611681184,0.0013616116809359,-0.0013861674593831,0.0013861674598193,-0.0013861674595725,0.0013861674598461,-0.0013861674590917,0.0013861674603031,-0.0013861674590931,0.0013861674597947,-0.0013346736649021,0.0013346736648277,-0.0013346736636754,0.0013346736627179,-0.0013346736659814,0.0013346736627742,-0.0013346736647945,0.0013346736632954,-6.9988184261954e-12,6.7992212884568e-12,-0.0013616116810553,0.001361611680923,-2.0683356372955e-13,1.2273577991794e-13,-0.0013861674620077,0.0013861674569821,-0.0013861674618099,0.0013861674570692,-0.0013861674572383,0.0013861674617222,-0.0013861674570178,0.0013861674617813,-0.0013346736559458,0.0013346736706684,-0.001334673670366,0.0013346736560767,0.72844761672005,0.63173351808648,1368840,32768,0.0056573020870357,0.0056573020872653,0.005657302086972,14.052217890634,14.039636015125,2.761774312507e-05,2.761774312507e-05,2.761774312507e-05,304737.13948725,0.017116943308362
21859200,0.99985395375015,0.016912683906774,0.0056375613022183,0.0056375613024127,0.0056375613021426,-0.0013612356515641,0.0013612356509764,6.3322470983154e-12,-6.9302906961411e-12,3.0836087390462e-14,-6.1711291233001e-13,-0.0013858194611477,0.0013858194654905,-0.0013858194657826,0.0013858194608048,-0.0013858194620759,0.001385819465666,-0.0013858194665062,0.001385819461247,-0.0013342715776878,0.0013342715905731,-0.0013342715914814,0.0013342715767379,-7.0134483910247e-13,-1.0931548401641e-14,3.2762175608612e-13,5.123096434097e-14,-0.0013612356514896,0.0013612356511479,-0.0013858194634188,0.0013858194637095,-0.0013858194635005,0.0013858194637867,-0.0013858194632392,0.0013858194640918,-0.0013858194633015,0.0013858194637993,-0.0013342715838858,0.0013342715834283,-0.0013342715829099,0.0013342715818709,-0.0013342715847647,0.0013342715817244,-0.0013342715838502,0.0013342715821249,-6.9600009649833e-12,6.829856705507e-12,-0.0013612356512652,0.0013612356512417,-1.3876164327999e-13,1.487205743356e-13,-0.001385819466065,0.0013858194613238,-0.0013858194659246,0.0013858194610838,-0.0013858194612869,0.0013858194659879,-0.0013858194611242,0.001385819465969,-0.0013342715751251,0.0013342715893707,-0.0013342715892605,0.0013342715752306,0.72710392134253,0.61262024724234,1368840,32768,0.0056557440937504,0.0056557440939511,0.0056557440936808,13.887494279296,13.880143341192,2.6299954234363e-05,2.6299954234363e-05,2.6299954234363e-05,305934.28574245,0.017112189471219
21945600,0.99985607097694,0.016912717580046,0.0056375725266425,0.0056375725268369,0.0056375725265668,-0.0013614421792267,0.0013614421786121,6.3389333940537e-12,-6.9305079836207e-12,-1.4877045516471e-14,-6.3310510025024e-13,-0.0013860515939219,0.001386051598238,-0.0013860515985508,0.001386051593563,-0.0013860515948094,0.0013860515984381,-0.0013860515992612,0.0013860515939194,-0.001334453575567,0.0013344535886915,-0.0013344535895164,0.0013344535747726,-6.8898798130188e-13,-2.7917853011107e-14,3.1629957255929e-13,3.9592952227193e-14,-0.0013614421791586,0.001361442178787,-0.0013860515961949,0.0013860515964926,-0.0013860515963212,0.0013860515965377,-0.0013860515960439,0.0013860515968464,-0.0013860515960745,0.0013860515965488,-0.0013344535819042,0.0013344535818674,-0.0013344535810796,0.0013344535798515,-0.0013344535826573,0.0013344535798355,-0.0013344535820102,0.0013344535803236,-6.9460645083796e-12,6.8508727693631e-12,-0.0013614421789276,0.0013614421788924,-1.5418411331059e-13,1.3403261127808e-13,-0.0013860515988288,0.0013860515940353,-0.0013860515987093,0.0013860515938762,-0.0013860515941016,0.0013860515987774,-0.0013860515938864,0.0013860515987504,-0.0013344535733022,0.0013344535875881,-0.0013344535876563,0.0013344535734805,0.72569444109256,0.59350697639821,1368840,32768,0.0056565997405598,0.005656599740781,0.005656599740521,14.025212571521,14.030949381117,2.7401700572166e-05,2.7401700572166e-05,2.7401700572166e-05,307113.00615592,0.017114800432388
22032000,0.99985817779486,0.016912751019181,0.0056375836730208,0.0056375836732151,0.005637583672945,-0.0013616707543806,0.0013616707537503,6.313547801919e-12,-6.9738896583404e-12,-1.7432967434811e-14,-6.0468752721112e-13,-0.0013863117205159,0.0013863117248316,-0.0013863117252118,0.0013863117202042,-0.0013863117215376,0.0013863117250781,-0.0013863117259447,0.0013863117205948,-0.0013346534952814,0.001334653508168,-0.0013346535093069,0.0013346534945886,-6.8231321462318e-13,-5.1715714238076e-14,2.893530428161e-13,1.8781485062053e-15,-0.0013616707543206,0.0013616707539154,-0.0013863117228836,0.0013863117230718,-0.0013863117229332,0.0013863117231125,-0.0013863117227164,0.0013863117234411,-0.00138631172272,0.0013863117231467,-0.0013346535018167,0.0013346535013893,-0.0013346535006642,0.0013346534998077,-0.001334653502661,0.001334653499535,-0.0013346535019088,0.0013346534999069,-6.9584797173388e-12,6.8565532428873e-12,-0.0013616707540717,0.0013616707540377,-1.5851303988838e-13,1.3981055241301e-13,-0.0013863117254391,0.0013863117206783,-0.0013863117253095,0.0013863117205317,-0.0013863117207055,0.0013863117253756,-0.0013863117205357,0.0013863117253323,-0.0013346534932637,0.0013346535072402,-0.0013346535073999,0.0013346534931101,0.72422732754512,0.57439370555408,1368840,32768,0.0056575467219691,0.0056575467221868,0.0056575467219247,14.17519656306,14.181755421043,2.8601572504477e-05,2.8601572504477e-05,2.8601572504477e-05,308468.8016837,0.017117690152241
22118400,0.9998602740348,0.016912784219866,0.0056375947399159,0.0056375947401102,0.0056375947398401,-0.0013618993412873,0.0013618993407057,6.3374644830455e-12,-6.9218023083967e-12,2.6550512429482e-14,-5.930452358163e-13,-0.0013865731077509,0.001386573112036,-0.001386573112417,0.0013865731074277,-0.0013865731086682,0.0013865731123877,-0.0013865731131692,0.0013865731079059,-0.0013348524938773,0.0013348525068328,-0.0013348525075969,0.0013348524931685,-6.8105960586124e-13,-1.8380232614157e-14,3.2816891584136e-13,1.7124476858987e-16,-0.0013618993412242,0.0013618993408716,-0.001386573110027,0.0013865731103351,-0.001386573110104,0.0013865731103661,-0.0013865731099587,0.0013865731106652,-0.0013865731099513,0.001386573110339,-0.0013348525002629,0.0013348525000788,-0.0013348524992611,0.0013348524984578,-0.0013348525012291,0.0013348524978612,-0.0013348525004252,0.0013348524985727,-6.9462197389315e-12,6.8407400789098e-12,-0.0013618993409973,0.0013618993409573,-1.9316686359079e-13,1.4594301212939e-13,-0.0013865731126337,0.0013865731079081,-0.0013865731125491,0.001386573107709,-0.0013865731079243,0.0013865731125675,-0.0013865731077278,0.0013865731126037,-0.0013348524916396,0.0013348525056529,-0.0013348525057543,0.0013348524918383,0.72270927709659,0.55528043470995,1368840,32768,0.0056584937513624,0.0056584937515755,0.0056584937512831,14.325947483392,14.332561460968,2.9807579867135e-05,2.9807579867135e-05,2.9807579867135e-05,309888.58160823,0.017120580027856
22204800,0.99986235943016,0.016912817204016,0.0056376057346325,0.0056376057348268,0.0056376057345567,-0.0013621265905009,0.001362126589906,6.3374763944464e-12,-6.9373474217394e-12,2.8990849643561e-14,-6.0235948068428e-13,-0.0013868341101853,0.001386834114491,-0.0013868341148525,0.001386834109842,-0.0013868341111109,0.001386834114664,-0.0013868341155346,0.0013868341102326,-0.0013350494082503,0.0013350494210691,-0.001335049421968,0.0013350494075092,-7.3076014636738e-13,-5.6656386833332e-14,3.1277056272106e-13,-9.1539262361899e-15,-0.0013621265904511,0.0013621265900617,-0.0013868341124398,0.0013868341127768,-0.0013868341125678,0.0013868341128045,-0.0013868341123014,0.0013868341131123,-0.0013868341123494,0.0013868341128157,-0.0013350494146167,0.0013350494142863,-0.0013350494135953,0.0013350494124875,-0.001335049415588,0.00133504941215,-0.0013350494147267,0.0013350494125114,-6.9435326445498e-12,6.85876876344e-12,-0.0013621265901976,0.0013621265901776,-1.6916071460923e-13,1.6389758127669e-13,-0.0013868341150466,0.0013868341102988,-0.0013868341149007,0.0013868341101369,-0.0013868341103521,0.0013868341149872,-0.001386834110144,0.0013868341149933,-0.0013350494058782,0.0013350494198401,-0.0013350494198918,0.0013350494059947,0.72174636297414,0.54581434588776,1368840,32768,0.0056594352381528,0.0056594352383719,0.0056594352380871,14.476749791547,14.483367500893,3.1013998332374e-05,3.1013998332374e-05,3.1013998332374e-05,311363.98506578,0.017123452997099
22291200,0.99986443370992,0.016912850247747,0.0056376167492095,0.0056376167494039,0.0056376167491338,-0.0013623850503886,0.0013623850498056,6.3809912856845e-12,-6.9596574460659e-12,2.2802538692213e-14,-5.8736205649236e-13,-0.0013871108759291,0.0013871108802359,-0.001387110880595,0.0013871108755684,-0.0013871108768402,0.0013871108804481,-0.0013871108812641,0.0013871108759748,-0.0013352917823189,0.0013352917953171,-0.0013352917962967,0.0013352917816451,-7.1583883749724e-13,-6.275496523183e-14,2.880393182436e-13,1.143138607312e-14,-0.0013623850503456,0.0013623850499541,-0.0013871108781782,0.0013871108784912,-0.0013871108783029,0.0013871108785312,-0.0013871108780669,0.0013871108788273,-0.0013871108780775,0.001387110878553,-0.0013352917888167,0.0013352917884061,-0.0013352917877425,0.0013352917866909,-0.0013352917897174,0.0013352917863805,-0.0013352917889283,0.0013352917868062,-6.9877565288346e-12,6.8802246373895e-12,-0.0013623850501002,0.0013623850500618,-1.4964342849598e-13,1.3832406841231e-13,-0.001387110880821,0.0013871108760163,-0.0013871108806749,0.0013871108758559,-0.0013871108760651,0.0013871108807268,-0.0013871108758835,0.0013871108807219,-0.0013352917800996,0.0013352917941238,-0.001335291794271,0.0013352917800761,0.72692667624933,0.6415819639154,1368840,32768,0.0056605060593203,0.0056605060595388,0.0056605060592539,14.627555497933,14.634173540819,3.2220443983466e-05,3.2220443983466e-05,3.2220443983466e-05,311942.21198068,0.017126720535081
22377600,0.99986649660495,0.016912883189388,0.0056376277297566,0.0056376277299509,0.0056376277296808,-0.0013629832930126,0.0013629832924299,6.3896701234932e-12,-6.951761216702e-12,2.1000211399133e-14,-5.7456853556093e-13,-0.0013875598938931,0.0013875598981702,-0.0013875598985364,0.001387559893514,-0.0013875598948196,0.0013875598984154,-0.0013875598992495,0.0013875598939448,-0.0013360287847516,0.0013360287978971,-0.0013360287987814,0.0013360287840956,-6.7457736271285e-13,-3.618815918246e-14,3.3147210904872e-13,5.8783424794958e-14,-0.0013629832929495,0.0013629832925964,-0.0013875598961279,0.0013875598964279,-0.0013875598962327,0.0013875598964994,-0.0013875598960038,0.0013875598967527,-0.001387559896072,0.0013875598964625,-0.0013360287913227,0.0013360287909859,-0.0013360287902786,0.0013360287893717,-0.0013360287922416,0.0013360287892833,-0.0013360287915578,0.0013360287895804,-6.9902798046915e-12,6.8786706848617e-12,-0.001362983292732,0.0013629832926825,-1.4958048924226e-13,1.3440207057959e-13,-0.0013875598987853,0.0013875598940167,-0.0013875598986339,0.0013875598938141,-0.0013875598940275,0.0013875598986899,-0.001387559893894,0.0013875598987108,-0.0013360287827957,0.0013360287969398,-0.0013360287971449,0.0013360287828389,0.72868186254345,0.67319470915953,1368840,32768,0.0056629849137558,0.0056629849139699,0.0056629849136981,14.77836146625,14.784979580744,3.3426891729995e-05,3.3426891729995e-05,3.3426891729995e-05,302756.65839223,0.017134283610091
22464000,0.99986854784857,0.016912916010141,0.0056376386700074,0.0056376386702018,0.0056376386699317,-0.0013633734309636,0.0013633734303789,6.3809466988113e-12,-6.9523338462674e-12,1.3081070970496e-14,-5.8791298083847e-13,-0.0013879023040517,0.0013879023083731,-0.001387902308684,0.0013879023037171,-0.0013879023049968,0.0013879023085551,-0.0013879023093789,0.0013879023041061,-0.00133646325292,0.0013364632660263,-0.0013364632668327,0.0013364632522674,-6.9744739934305e-13,-5.3697300760792e-14,2.8513270115641e-13,4.8095677768882e-14,-0.0013633734309019,0.0013633734305343,-0.0013879023063078,0.001387902306608,-0.0013879023063914,0.0013879023066875,-0.0013879023061416,0.0013879023069359,-0.0013879023061846,0.0013879023066766,-0.0013364632594133,0.0013364632589443,-0.001336463258353,0.0013364632572902,-0.0013364632601825,0.0013364632568488,-0.0013364632594465,0.0013364632572529,-6.9952050659928e-12,6.8655394389534e-12,-0.0013633734306813,0.0013633734306267,-1.3510681375605e-13,1.1354935467457e-13,-0.0013879023089373,0.0013879023041471,-0.0013879023088168,0.0013879023039549,-0.0013879023042191,0.0013879023088502,-0.0013879023040046,0.0013879023088565,-0.0013364632506185,0.0013364632646958,-0.0013364632648901,0.0013364632507196,0.73003245049108,0.69548811134312,1368840,32768,0.0056646013849787,0.0056646013851728,0.0056646013849071,14.929167451386,14.93578562067,3.4633339611086e-05,3.4633339611086e-05,3.4633339611086e-05,299516.72275376,0.017139215852491
22550400,0.99987058717674,0.016912948683084,0.0056376495609885,0.0056376495611829,0.0056376495609128,-0.0013637346741055,0.0013637346735076,6.3703637427016e-12,-6.9600075530174e-12,4.1728548750891e-14,-6.2883628948301e-13,-0.0013882300047715,0.0013882300090893,-0.0013882300094444,0.0013882300044306,-0.0013882300057027,0.001388230009284,-0.0013882300101428,0.0013882300048216,-0.0013368554907815,0.0013368555037275,-0.0013368555046215,0.001336855489965,-7.2135399254245e-13,-7.8840532652316e-15,2.9543579816857e-13,1.104126563809e-14,-0.0013637346740399,0.0013637346736786,-0.0013882300070399,0.0013882300073566,-0.0013882300071584,0.0013882300073938,-0.0013882300068955,0.0013882300077131,-0.0013882300069349,0.0013882300074285,-0.001336855497246,0.0013368554967079,-0.001336855496136,0.0013368554951102,-0.001336855498018,0.00133685549476,-0.0013368554972652,0.0013368554951938,-6.9727509284219e-12,6.8850169615755e-12,-0.0013637346738068,0.0013637346737755,-1.4882021835037e-13,1.4694415801566e-13,-0.0013882300096914,0.0013882300048949,-0.0013882300095408,0.0013882300047373,-0.0013882300049506,0.0013882300096021,-0.0013882300047552,0.0013882300096027,-0.001336855488376,0.0013368555025134,-0.0013368555025318,0.0013368554884924,0.7309554695698,0.70836833440602,1368840,32768,0.0056660981122942,0.0056660981125123,0.0056660981122301,15.079973449957,15.086591660595,3.5839787599656e-05,3.5839787599656e-05,3.5839787599656e-05,297092.19325184,0.017143782822292
22636800,0.99987261034011,0.016912981142471,0.005637660380784,0.0056376603809783,0.0056376603807082,-0.0013640084934075,0.0013640084928105,6.3829581226578e-12,-6.9542272001914e-12,3.5880992095615e-14,-6.2985414074129e-13,-0.0013884843716134,0.001388484375921,-0.0013884843762881,0.0013884843713009,-0.0013884843725533,0.0013884843761086,-0.0013884843769632,0.0013884843716591,-0.0013371471454179,0.0013371471585352,-0.0013371471593477,0.0013371471446104,-7.2517540521268e-13,-1.6752194114322e-14,3.3319170357511e-13,1.1041177405492e-14,-0.0013640084933335,0.0013640084929878,-0.0013884843738662,0.0013884843741937,-0.0013884843740091,0.0013884843742511,-0.0013884843737194,0.001388484374564,-0.0013884843737222,0.0013884843742787,-0.0013371471518918,0.001337147151577,-0.0013371471506622,0.0013371471496399,-0.0013371471526824,0.0013371471493104,-0.0013371471519712,0.0013371471497774,-6.9670284561807e-12,6.8973895247787e-12,-0.0013640084931026,0.0013640084930804,-1.4355696737436e-13,1.899323153452e-13,-0.0013884843765218,0.0013884843717233,-0.001388484376365,0.001388484371575,-0.001388484371792,0.0013884843764058,-0.0013884843715857,0.0013884843764247,-0.0013371471428545,0.0013371471571579,-0.001337147157194,0.0013371471430909,0.73195076698806,0.72124855746891,1368840,32768,0.005667232603153,0.0056672326033668,0.0056672326030806,15.199972274656,15.205269359804,3.679977819725e-05,3.679977819725e-05,3.679977819725e-05,295462.54079738,0.017147244565477
22723200,0.99987460837492,0.016913013246904,0.0056376710822619,0.0056376710824563,0.0056376710821862,-0.0013641488843434,0.0013641488837365,6.3642759139747e-12,-6.979410666148e-12,2.776368125036e-14,-6.1901635418117e-13,-0.0013886059103752,0.0013886059146775,-0.0013886059150384,0.0013886059100182,-0.0013886059113051,0.0013886059148752,-0.0013886059157256,0.0013886059104203,-0.0013373047801103,0.0013373047930948,-0.0013373047940836,0.0013373047793639,-7.2236149117582e-13,-3.2787851294826e-14,3.2046185716906e-13,1.4666228427377e-14,-0.0013641488842741,0.0013641488839079,-0.0013886059126169,0.0013886059129507,-0.0013886059127465,0.0013886059129778,-0.0013886059124697,0.0013886059132876,-0.001388605912518,0.0013886059129988,-0.0013373047866088,0.001337304786243,-0.0013373047855062,0.0013373047845587,-0.0013373047874936,0.0013373047841472,-0.0013373047867201,0.0013373047845446,-6.9869806701836e-12,6.8840794608038e-12,-0.0013641488840397,0.0013641488840092,-1.578802356907e-13,1.5916596111856e-13,-0.0013886059152793,0.0013886059104757,-0.0013886059151225,0.0013886059103264,-0.0013886059105312,0.0013886059151839,-0.0013886059103318,0.001388605915188,-0.001337304777848,0.0013373047919519,-0.0013373047920356,0.0013373047778595,0.73302834027416,0.73412878053179,1368840,32768,0.0056678142802085,0.0056678142804201,0.0056678142801444,15.25092255342,15.253228751199,3.7207380427361e-05,3.7207380427361e-05,3.7207380427361e-05,293844.74929884,0.017149019450723
22809600,0.9998765811347,0.016913044996671,0.0056376816655176,0.0056376816657119,0.0056376816654418,-0.0013642838363986,0.0013642838358104,6.3796960605469e-12,-6.9672876247338e-12,4.1843692292158e-14,-6.0591219568069e-13,-0.0013887207583575,0.0013887207626853,-0.001388720763023,0.0013887207580128,-0.0013887207592891,0.0013887207628655,-0.0013887207637084,0.0013887207584118,-0.0013374576134543,0.0013374576264722,-0.0013374576274573,0.0013374576127657,-7.2154657489448e-13,-3.092084950692e-14,3.1363300696222e-13,1.8616137172141e-14,-0.001364283836341,0.0013642838359731,-0.0013887207606059,0.0013887207609351,-0.0013887207607304,0.0013887207609635,-0.0013887207604656,0.0013887207612879,-0.0013887207605127,0.0013887207609942,-0.0013374576199891,0.0013374576196964,-0.0013374576189157,0.0013374576179392,-0.0013374576209109,0.0013374576175499,-0.0013374576200884,0.001337457617938,-6.9871831345867e-12,6.8870770162893e-12,-0.0013642838361006,0.001364283836076,-1.4451911445202e-13,1.6178841041629e-13,-0.0013887207632681,0.0013887207584635,-0.0013887207631052,0.0013887207583203,-0.0013887207585148,0.0013887207631745,-0.0013887207583216,0.0013887207631866,-0.0013374576112581,0.0013374576253439,-0.0013374576254646,0.0013374576112699,0.73419959510311,0.74700900359468,1368840,32768,0.0056683734240271,0.0056683734242446,0.0056683734239599,15.299069824238,15.301188142595,3.75925585939e-05,3.75925585939e-05,3.75925585939e-05,292193.06538059,0.017150725571799
22896000,0.99987852881935,0.016913075612267,0.0056376918707163,0.0056376918709106,0.0056376918706405,-0.0013644183689988,0.0013644183683919,6.3322653477579e-12,-6.9863549245939e-12,8.6731232773315e-14,-6.4857048073466e-13,-0.0013888350487875,0.0013888350531153,-0.0013888350534089,0.0013888350484471,-0.0013888350497506,0.0013888350532611,-0.001388835054141,0.0013888350488427,-0.0013376098597574,0.0013376098725958,-0.0013376098735302,0.0013376098589945,-7.5783396633958e-13,2.0083151179399e-14,2.9442171150117e-13,3.6136146065543e-14,-0.0013644183689233,0.0013644183685708,-0.0013888350510737,0.0013888350514345,-0.0013888350511576,0.0013888350514243,-0.0013888350508942,0.0013888350517482,-0.0013888350509115,0.0013888350514854,-0.001337609865787,0.0013376098655648,-0.0013376098653348,0.0013376098639069,-0.001337609866911,0.0013376098634056,-0.0013376098659105,0.0013376098638592,-6.9977225773199e-12,6.8483085535804e-12,-0.0013644183687226,0.0013644183686451,-1.5039734664077e-13,1.1949511421217e-13,-0.0013888350537513,0.0013888350489268,-0.0013888350536116,0.0013888350487049,-0.0013888350490169,0.0013888350536948,-0.0013888350488515,0.001388835053589,-0.0013376098571493,0.0013376098710844,-0.0013376098711873,0.0013376098571911,0.71710087448108,0.47808803407847,1368840,32768,0.005668930827665,0.0056689308278791,0.0056689308276175,15.347041972561,15.34914753399,3.7976335780484e-05,3.7976335780484e-05,3.7976335780484e-05,290531.73558925,0.017152426392027
22982400,0.99988045164946,0.016913106043075,0.0056377020143187,0.005637702014513,0.0056377020142429,-0.0013636642277682,0.0013636642271332,6.3438698314842e-12,-6.9792507886792e-12,6.4469324624033e-14,-6.7639489542377e-13,-0.0013885014621632,0.0013885014664638,-0.0013885014668244,0.001388501461809,-0.0013885014631311,0.0013885014666228,-0.0013885014675457,0.0013885014621682,-0.001336471920645,0.0013364719335692,-0.0013364719345981,0.0013364719198568,-7.5204576081235e-13,3.1743324380877e-14,3.0527043890352e-13,5.5454158854689e-14,-0.001363664227672,0.0013636642273345,-0.0013885014644206,0.0013885014647231,-0.0013885014645303,0.0013885014647695,-0.0013885014642423,0.0013885014651057,-0.0013885014642692,0.0013885014648316,-0.0013364719270916,0.0013364719267313,-0.0013364719259676,0.0013364719250757,-0.0013364719280281,0.0013364719246251,-0.0013364719271131,0.001336471925118,-6.9813873116451e-12,6.8690109799591e-12,-0.0013636642274574,0.0013636642274133,-1.3630277722019e-13,1.249377126504e-13,-0.0013885014670546,0.0013885014622669,-0.0013885014669153,0.0013885014621007,-0.0013885014623203,0.0013885014669683,-0.0013885014621377,0.0013885014669563,-0.0013364719183421,0.0013364719323937,-0.0013364719325356,0.0013364719183537,0.72195932598935,0.56798774821511,1368840,32768,0.005665805689355,0.0056658056895728,0.0056658056892915,15.395002225909,15.397106925386,3.8360017807267e-05,3.8360017807267e-05,3.8360017807267e-05,314674.49287139,0.017142892481865
23068800,0.99988234984642,0.01691313607324,0.0056377120243738,0.0056377120245682,0.0056377120242981,-0.0013640557868635,0.0013640557862387,6.3480528066384e-12,-6.9685015288264e-12,5.9305923538863e-14,-6.6499856710319e-13,-0.0013887472829907,0.0013887472872894,-0.0013887472876445,0.0013887472826404,-0.0013887472839498,0.0013887472874547,-0.0013887472883581,0.0013887472830004,-0.0013369982222161,0.0013369982351637,-0.0013369982361984,0.001336998221444,-7.526138022826e-13,1.4635876413434e-14,3.0247934769885e-13,4.9272818278636e-14,-0.0013640557867762,0.001364055786431,-0.0013887472852417,0.0013887472855552,-0.0013887472853547,0.0013887472855908,-0.0013887472850702,0.0013887472859295,-0.0013887472851,0.0013887472856521,-0.0013369982287093,0.0013369982283263,-0.0013369982275621,0.00133699822667,-0.0013369982296181,0.0013369982262252,-0.0013369982287415,0.0013369982266931,-6.9829822629205e-12,6.8605564147108e-12,-0.001364055786558,0.0013640557865132,-1.3932621426803e-13,1.2553922368642e-13,-0.0013887472878766,0.0013887472830939,-0.0013887472877307,0.0013887472829303,-0.0013887472831474,0.0013887472877888,-0.0013887472829563,0.0013887472877808,-0.0013369982199524,0.0013369982340189,-0.0013369982341542,0.0013369982199503,0.72195154330708,0.57343655006176,1368840,32768,0.0056674282068411,0.0056674282070586,0.0056674282067771,15.44296167829,15.445066316781,3.8743693426315e-05,3.8743693426315e-05,3.8743693426315e-05,305656.15246918,0.017147842645103
23155200,0.99988422363114,0.016913165730223,0.0056377219100347,0.0056377219102291,0.005637721909959,-0.0013641653229308,0.0013641653223022,6.3338585490867e-12,-6.9804598693896e-12,5.6246281714703e-14,-6.6313606517781e-13,-0.001388850236249,0.0013888502405607,-0.0013888502409099,0.0013888502359102,-0.0013888502372217,0.0013888502407462,-0.0013888502416269,0.0013888502362837,-0.0013371143563563,0.0013371143693156,-0.0013371143703235,0.0013371143556137,-7.4716788041648e-13,1.4945719889105e-14,3.1105032115561e-13,6.7141713572621e-14,-0.001364165322838,0.0013641653225016,-0.0013888502385179,0.0013888502388376,-0.0013888502386354,0.0013888502388773,-0.0013888502383515,0.0013888502392038,-0.0013888502383853,0.0013888502389283,-0.0013371143627592,0.0013371143625312,-0.0013371143617225,0.0013371143608739,-0.0013371143638401,0.0013371143603782,-0.0013371143629348,0.0013371143608097,-6.9763222899075e-12,6.8654229719232e-12,-0.001364165322626,0.0013641653225758,-1.3770026393969e-13,1.1759540754102e-13,-0.0013888502411601,0.0013888502363621,-0.0013888502410324,0.0013888502361803,-0.0013888502364099,0.0013888502410761,-0.0013888502362379,0.0013888502410516,-0.0013371143541428,0.0013371143681913,-0.0013371143683415,0.001337114354171,0.72217441844978,0.58224788857419,1368840,32768,0.0056678820471302,0.0056678820473511,0.0056678820470659,15.490921074173,15.493025708177,3.9127368593382e-05,3.9127368593382e-05,3.9127368593382e-05,304808.40562393,0.01714922744633
23241600,0.99988607322388,0.016913195142468,0.0056377317141165,0.0056377317143109,0.0056377317140408,-0.001364285930449,0.0013642859298058,6.3203240949079e-12,-6.9841340512635e-12,5.4669888695957e-14,-6.6497724422518e-13,-0.0013889589148498,0.0013889589191059,-0.0013889589194482,0.0013889589144699,-0.0013889589157583,0.0013889589192642,-0.0013889589201836,0.0013889589148361,-0.0013372465315695,0.0013372465445013,-0.0013372465456572,0.0013372465307917,-7.2625766626799e-13,3.6181424094095e-14,2.9904592317585e-13,7.1452670111152e-14,-0.001364285930343,0.0013642859300275,-0.0013889589170585,0.0013889589173915,-0.0013889589171546,0.0013889589174528,-0.001388958916916,0.0013889589177073,-0.0013889589168573,0.0013889589174513,-0.0013372465381822,0.0013372465377649,-0.0013372465370356,0.001337246536132,-0.0013372465390377,0.0013372465355361,-0.0013372465380822,0.001337246536058,-6.9867283837732e-12,6.8453029983393e-12,-0.0013642859301497,0.001364285930079,-1.4532308989112e-13,9.4529288665707e-14,-0.0013889589197282,0.0013889589149433,-0.0013889589195121,0.0013889589147072,-0.0013889589149185,0.001388958919608,-0.0013889589147599,0.0013889589195682,-0.0013372465294504,0.0013372465434331,-0.0013372465436541,0.0013372465292931,0.72556658484858,0.64533473333083,1368840,32768,0.0056683817651309,0.0056683817653704,0.0056683817650768,15.538880442562,15.540985099573,3.9511043540496e-05,3.9511043540496e-05,3.9511043540496e-05,303641.08748795,0.017150752216783
23328000,0.99988789884423,0.016913224277086,0.0056377414256557,0.00563774142585,0.00563774142558,-0.0013645751083165,0.0013645751077104,6.342745439363e-12,-6.951833979185e-12,7.3322583574814e-14,-6.4860562671979e-13,-0.0013891541568656,0.0013891541611271,-0.001389154161488,0.0013891541565306,-0.0013891541577805,0.0013891541612002,-0.0013891541621891,0.0013891541568266,-0.0013376232960802,0.0013376233089088,-0.0013376233099532,0.0013376232950913,-7.3404128142507e-13,3.1153107117491e-14,2.9968425661638e-13,7.9474527990076e-14,-0.0013645751082252,0.0013645751078962,-0.0013891541590983,0.0013891541593968,-0.0013891541591364,0.0013891541594456,-0.0013891541589678,0.001389154159723,-0.0013891541588415,0.0013891541594548,-0.0013376233024472,0.0013376233021297,-0.0013376233013828,0.0013376233004436,-0.0013376233033345,0.0013376233000618,-0.0013376233023847,0.0013376233006078,-6.9772640846657e-12,6.8448160720381e-12,-0.0013645751080245,0.0013645751079571,-1.2970239062217e-13,1.0231910951556e-13,-0.0013891541617348,0.0013891541569011,-0.0013891541616199,0.0013891541567207,-0.001389154156998,0.0013891541616286,-0.0013891541568203,0.0013891541615786,-0.0013376232937795,0.0013376233078705,-0.0013376233078234,0.0013376232937388,0.72813801139875,0.69102081424216,1368840,32768,0.0056695800226929,0.0056695800228886,0.0056695800225989,15.586839802138,15.588944490968,3.9894718417103e-05,3.9894718417103e-05,3.9894718417103e-05,297658.14827513,0.017154408085432
23414400,0.99988970726395,0.016913252939209,0.0056377509796969,0.0056377509798913,0.0056377509796212,-0.0013649160779214,0.0013649160773142,6.3334526056056e-12,-6.962241778881e-12,8.9414062579412e-14,-6.4063863481181e-13,-0.0013894268282404,0.0013894268325304,-0.0013894268329362,0.0013894268279538,-0.0013894268291498,0.0013894268326181,-0.001389426833649,0.0013894268282366,-0.00133802726851,0.0013380272813726,-0.0013380272821638,0.0013380272676511,-7.6002834047943e-13,1.2908252720564e-14,2.7699094988132e-13,6.7062010125153e-14,-0.0013649160778562,0.0013649160774919,-0.00138942683042,0.0013894268307477,-0.0013894268304803,0.0013894268308211,-0.00138942683031,0.0013894268312115,-0.001389426830301,0.0013894268309151,-0.0013380272749272,0.0013380272744539,-0.001338027273465,0.0013380272733862,-0.0013380272759409,0.0013380272725138,-0.0013380272750262,0.001338027273403,-6.993980456345e-12,6.8288191489684e-12,-0.001364916077649,0.0013649160775727,-1.1150006433781e-13,1.1056838691756e-13,-0.0013894268331593,0.001389426828413,-0.001389426833081,0.0013894268281894,-0.0013894268284268,0.001389426833027,-0.00138942682825,0.0013894268329454,-0.0013380272661851,0.0013380272804454,-0.001338027280405,0.0013380272665088,0.72309576072878,0.60514741048134,1368840,32768,0.0056709928082869,0.0056709928085197,0.0056709928082581,15.691792024434,15.696340695734,4.0734336195474e-05,4.0734336195474e-05,4.0734336195474e-05,293295.28484499,0.017158718756538
23500800,0.99989151169345,0.016913281319183,0.0056377604396882,0.0056377604398825,0.0056377604396124,-0.0013650860268368,0.0013650860263256,6.3735544099348e-12,-6.9581554919495e-12,1.1287961042891e-13,-5.7577699864321e-13,-0.001389717783902,0.0013897177882803,-0.0013897177886937,0.0013897177834752,-0.001389717785022,0.0013897177885186,-0.0013897177891387,0.0013897177841981,-0.0013380844664032,0.0013380844791414,-0.0013380844804126,0.0013380844655796,-7.8943076578493e-13,-5.7919877646319e-14,2.4008143038298e-13,4.0113774551723e-14,-0.001365086026818,0.001365086026446,-0.0013897177859967,0.001389717786702,-0.0013897177863501,0.0013897177866731,-0.0013897177862072,0.0013897177870305,-0.0013897177860531,0.0013897177867107,-0.0013380844727823,0.0013380844725627,-0.0013380844714019,0.0013380844715063,-0.0013380844739032,0.0013380844703684,-0.0013380844729489,0.001338084470958,-6.9850727872917e-12,6.8743561107866e-12,-0.0013650860265915,0.0013650860265341,-1.0269145108195e-13,1.0925354473214e-13,-0.0013897177890408,0.0013897177841991,-0.0013897177887482,0.0013897177839158,-0.0013897177842089,0.0013897177888979,-0.0013897177839321,0.0013897177887055,-0.0013380844646003,0.0013380844783207,-0.0013380844784645,0.0013380844638829,0.71753904467493,0.51927400672048,1368840,32768,0.0056716967173997,0.0056716967176101,0.0056716967173235,15.912666458604,15.922241114251,4.2501331668834e-05,4.2501331668834e-05,4.2501331668834e-05,300133.84964245,0.017160867431996
23587200,0.99989331221773,0.016913309871359,0.0056377699570803,0.0056377699572746,0.0056377699570045,-0.0013652431501472,0.0013652431495359,6.3528799679954e-12,-6.9592436351781e-12,6.1267304796482e-14,-6.2965414685097e-13,-0.0013900169789642,0.0013900169832609,-0.001390016983629,0.001390016978621,-0.0013900169799325,0.001390016983417,-0.0013900169843318,0.0013900169789772,-0.0013381123014363,0.0013381123144157,-0.001338112315392,0.0013381123007052,-7.3561955673925e-13,-2.0344672601864e-15,2.8523716855324e-13,7.129110151755e-14,-0.0013652431500673,0.0013652431497208,-0.0013900169812286,0.0013900169815231,-0.0013900169813137,0.0013900169815719,-0.0013900169810726,0.0013900169819091,-0.0013900169810909,0.0013900169816296,-0.0013381123077984,0.0013381123074824,-0.0013381123066967,0.0013381123058496,-0.0013381123088001,0.0013381123054774,-0.0013381123079124,0.001338112305889,-6.9782291140083e-12,6.8611161623168e-12,-0.0013652431498514,0.0013652431497991,-1.2304971150401e-13,1.0245581122177e-13,-0.0013900169838568,0.0013900169790764,-0.0013900169837227,0.0013900169788969,-0.0013900169791287,0.0013900169837586,-0.0013900169789586,0.0013900169837377,-0.0013381122990291,0.0013381123130653,-0.0013381123132588,0.0013381122990615,0.72351651434017,0.62948455144777,1368840,32768,0.0056723474901051,0.0056723474903224,0.0056723474900376,16.138250960557,16.148141532768,4.4306007684457e-05,4.4306007684457e-05,4.4306007684457e-05,307893.70180904,0.017162853987228
23673600,0.99989510840118,0.016913338580647,0.0056377795268429,0.0056377795270373,0.0056377795267672,-0.0013660299676334,0.0013660299670481,6.3557192636098e-12,-6.9237260143347e-12,2.6637274484843e-14,-5.9253039860305e-13,-0.0013906354313626,0.001390635435781,-0.0013906354359365,0.001390635431078,-0.0013906354320539,0.0013906354356964,-0.001390635436597,0.0013906354313427,-0.0013390559745372,0.0013390559875005,-0.0013390559885438,0.0013390559737222,-6.7826880876524e-13,-1.5658992216772e-14,2.2103960033311e-13,1.104192738258e-13,-0.0013660299675776,0.0013660299672407,-0.0013906354334595,0.001390635434046,-0.0013906354338025,0.001390635434095,-0.0013906354332805,0.0013906354342866,-0.0013906354333754,0.0013906354341592,-0.0013390559808874,0.0013390559809486,-0.0013390559806742,0.0013390559789987,-0.0013390559822266,0.0013390559786607,-0.00133905598108,0.0013390559788771,-7.0040856770492e-12,6.802718652203e-12,-0.0013660299673756,0.0013660299672702,-1.1292955007976e-13,9.2157184661268e-15,-0.0013906354362395,0.0013906354314041,-0.0013906354360205,0.0013906354313201,-0.0013906354314811,0.0013906354360079,-0.0013906354315064,0.0013906354360631,-0.0013390559726402,0.0013390559866157,-0.0013390559868484,0.0013390559723469,0.72932090523569,0.73528205559995,1368840,32768,0.0056756076325644,0.0056756076328476,0.0056756076324906,16.364129804264,16.374041951286,4.6113038434113e-05,4.6113038434113e-05,4.6113038434113e-05,297494.0485684,0.01717280132733
23760000,0.99989689977398,0.016913367365506,0.0056377891217958,0.0056377891219902,0.0056377891217201,-0.0013667775542106,0.0013667775536035,6.3655878003681e-12,-6.9656916734891e-12,2.7397427733271e-14,-5.9128826007894e-13,-0.0013912284807107,0.0013912284850405,-0.0013912284853767,0.00139122848037,-0.0013912284816738,0.0013912284851801,-0.0013912284860927,0.0013912284807632,-0.0013399466579,0.0013399466708728,-0.0013399466718363,0.0013399466570592,-6.777307957894e-13,-1.6561817577253e-14,2.2558252037355e-13,1.3222651939413e-13,-0.0013667775541268,0.0013667775537947,-0.0013912284830053,0.0013912284832506,-0.0013912284830679,0.0013912284833411,-0.0013912284828467,0.0013912284836516,-0.0013912284828489,0.0013912284834073,-0.0013399466643672,0.0013399466639797,-0.001339946663209,0.0013399466624188,-0.0013399466650124,0.0013399466623927,-0.0013399466643653,0.0013399466623847,-7.0310099133558e-12,6.8277911803721e-12,-0.0013667775539461,0.001366777553833,-8.7259628395897e-14,1.8400202592324e-14,-0.001391228485645,0.0013912284808619,-0.0013912284855416,0.0013912284806434,-0.0013912284809349,0.0013912284854839,-0.0013912284807695,0.0013912284854754,-0.0013399466556209,0.0013399466697033,-0.0013399466698331,0.0013399466555367,0.73308708451228,0.7891656146954,1368840,32768,0.0056787051973456,0.005678705197568,0.0056787051972732,16.590028297169,16.599942369804,4.7920226377354e-05,4.7920226377354e-05,4.7920226377354e-05,288244.12916628,0.017182252734466
23846400,0.99989868586248,0.016913396231296,0.0056377987437258,0.0056377987439202,0.0056377987436501,-0.0013673690285801,0.0013673690280896,6.3702256586847e-12,-6.8216213100339e-12,1.0432225420321e-13,-5.0317233431293e-13,-0.0013917443367224,0.0013917443409365,-0.0013917443410793,0.0013917443362589,-0.0013917443375809,0.001391744340771,-0.0013917443420911,0.0013917443369423,-0.0013406065718352,0.0013406065846948,-0.0013406065859908,0.0013406065703798,-7.6712682950782e-13,-1.1761281877383e-13,1.7067008026385e-13,1.4857007893313e-13,-0.0013673690285792,0.0013673690281982,-0.0013917443385438,0.0013917443387591,-0.0013917443387517,0.0013917443393027,-0.001391744338206,0.0013917443393842,-0.0013917443385878,0.001391744339197,-0.0013406065780919,0.0013406065776948,-0.0013406065768273,0.0013406065763476,-0.0013406065794028,0.001340606575658,-0.0013406065780663,0.0013406065757016,-6.9577295049631e-12,6.7621353037611e-12,-0.0013673690283843,0.0013673690282179,-7.5733215814007e-14,-4.1193094520415e-14,-0.0013917443415508,0.0013917443368315,-0.0013917443415741,0.0013917443362844,-0.0013917443365389,0.0013917443410895,-0.0013917443365135,0.0013917443411148,-0.0013406065687738,0.0013406065832856,-0.0013406065830251,0.0013406065686699,0.73721899032141,0.8367773695916,1368840,32768,0.0056811558238446,0.0056811558240676,0.0056811558237048,16.815927961471,16.825842788322,4.9727423691769e-05,4.9727423691769e-05,4.9727423691769e-05,283368.94747702,0.017189730578318
23932800,0.99990046619154,0.01691342519079,0.0056378083968906,0.0056378083970849,0.0056378083968148,-0.0013679414493776,0.001367941448779,6.3183158915513e-12,-6.9288696807286e-12,6.3385475381943e-14,-6.0792936935154e-13,-0.0013922477111798,0.0013922477154768,-0.001392247715813,0.0013922477108067,-0.0013922477120863,0.0013922477156173,-0.0013922477165042,0.0013922477111672,-0.0013412391189196,0.0013412391316708,-0.0013412391327974,0.0013412391181775,-7.781172878745e-13,-6.4064513461325e-14,1.8201773360083e-13,1.9328211007009e-13,-0.0013679414493052,0.0013679414489525,-0.0013922477133815,0.0013922477136516,-0.0013922477134368,0.0013922477137755,-0.0013922477132346,0.0013922477140352,-0.001392247713206,0.0013922477138201,-0.0013412391257115,0.001341239125081,-0.001341239124221,0.0013412391236882,-0.0013412391263192,0.0013412391230897,-0.0013412391255608,0.0013412391233316,-6.9979502174244e-12,6.7764379256494e-12,-0.0013679414491286,0.0013679414489986,-4.8297995117638e-14,-4.7071561996092e-14,-0.0013922477160375,0.001392247711247,-0.0013922477159499,0.0013922477110258,-0.0013922477113249,0.0013922477159575,-0.001392247711218,0.001392247715884,-0.0013412391169942,0.0013412391306437,-0.001341239130959,0.0013412391166838,0.741946034521,0.88438912448778,1368840,32768,0.0056835274710152,0.0056835274712246,0.0056835274709543,17.041827558284,17.051743206839,5.1534620466273e-05,5.1534620466273e-05,5.1534620466273e-05,278914.9586709,0.017196967571799
24019200,0.99990224028524,0.016913454051356,0.005637818017079,0.0056378180172734,0.0056378180170033,-0.0013685116392559,0.0013685116386951,6.3288378054082e-12,-6.9023500202978e-12,2.9582331574194e-15,-5.4405261486019e-13,-0.0013927501171366,0.0013927501214377,-0.0013927501217772,0.0013927501167887,-0.0013927501180198,0.0013927501216387,-0.0013927501224371,0.0013927501172053,-0.0013418670751055,0.0013418670880119,-0.0013418670888394,0.0013418670743247,-6.7661982972865e-13,-8.687443428096e-14,1.439065449303e-13,1.3774152738501e-13,-0.0013685116392252,0.0013685116388278,-0.0013927501193877,0.0013927501196515,-0.0013927501194508,0.0013927501197742,-0.0013927501192776,0.001392750119965,-0.0013927501192459,0.0013927501197617,-0.0013418670816872,0.0013418670810065,-0.0013418670803977,0.0013418670795361,-0.0013418670821033,0.0013418670792885,-0.0013418670814683,0.0013418670793362,-6.9550127056065e-12,6.8035323332279e-12,-0.0013685116390146,0.0013685116389042,-4.4818454356396e-14,-2.6289373348278e-14,-0.0013927501220411,0.0013927501172548,-0.0013927501219479,0.001392750116998,-0.0013927501172964,0.0013927501219317,-0.0013927501171795,0.0013927501218397,-0.0013418670728409,0.0013418670867346,-0.0013418670868825,0.0013418670727764,0.7419675262887,0.84208196311467,1368840,32768,0.0056858898567455,0.0056858898569568,0.005685889856679,17.267728296942,17.277643625356,5.3341826375535e-05,5.3341826375535e-05,5.3341826375535e-05,274468.55495898,0.017204176402218
24105600,0.99990400766714,0.016913482416797,0.0056378274722262,0.0056378274724206,0.0056378274721505,-0.0013688554527523,0.0013688554522761,6.4450797101801e-12,-6.8575185075168e-12,6.8388998998319e-14,-5.2876958174636e-13,-0.0013931356256176,0.0013931356298681,-0.0013931356301774,0.0013931356253053,-0.0013931356266039,0.0013931356302448,-0.0013931356310646,0.0013931356258627,-0.001342166947914,0.0013421669617062,-0.0013421669621235,0.0013421669479795,-6.9021467912122e-13,-5.1115556101907e-14,1.1014157642691e-13,2.7226694713754e-13,-0.001368855452721,0.0013688554523941,-0.0013931356279282,0.0013931356282265,-0.001393135627764,0.0013931356283202,-0.0013931356278967,0.0013931356284977,-0.0013931356279164,0.0013931356283272,-0.0013421669546281,0.0013421669540659,-0.0013421669538133,0.0013421669530547,-0.0013421669554278,0.0013421669524711,-0.0013421669544557,0.001342166952644,-7.0377685304141e-12,6.7918806303559e-12,-0.0013688554525885,0.0013688554523981,-6.5304122650938e-14,-2.1498043249536e-13,-0.0013931356303922,0.0013931356258407,-0.0013931356304949,0.0013931356253933,-0.0013931356257024,0.0013931356305608,-0.0013931356259198,0.0013931356302455,-0.001342166945804,0.001342166959592,-0.0013421669608617,0.001342166945817,0.73198308585734,0.66681476060189,1368840,32768,0.0056873141466075,0.0056873141467871,0.005687314146521,17.493630277901,17.503544043874,5.514904222321e-05,5.514904222321e-05,5.514904222321e-05,276283.34900654,0.01720852329396
24192000,0.99990576240326,0.016913510619895,0.0056378368732589,0.0056378368734533,0.0056378368731832,-0.0013687206825439,0.0013687206819591,6.3526598423672e-12,-6.9179337795188e-12,1.4029894925752e-14,-5.7950512004578e-13,-0.0013932346166191,0.0013932346209139,-0.0013932346212604,0.001393234616268,-0.0013932346174969,0.0013932346210057,-0.0013932346219055,0.0013932346166385,-0.0013418169432523,0.0013418169563688,-0.0013418169574198,0.0013418169427866,-7.4367772233253e-13,-1.0725366465064e-13,3.8187421635776e-14,1.7670660173461e-13,-0.0013687206825275,0.0013687206820766,-0.0013932346188444,0.0013932346190188,-0.0013932346188904,0.0013932346192199,-0.0013932346187565,0.0013932346194092,-0.0013932346186873,0.0013932346192857,-0.0013418169501999,0.0013418169489697,-0.0013418169486668,0.0013418169478469,-0.0013418169506915,0.0013418169473833,-0.0013418169497002,0.00134181694768,-7.0273144968364e-12,6.7708710368905e-12,-0.0013687206823284,0.0013687206821394,-1.9519521339081e-14,-1.4497592402621e-13,-0.001393234621442,0.0013932346167437,-0.0013932346214421,0.0013932346163692,-0.0013932346167316,0.0013932346213507,-0.0013932346166728,0.0013932346212336,-0.0013418169411442,0.0013418169547741,-0.0013418169554077,0.0013418169407297,0.73305378652635,0.68906096147582,1368840,32768,0.0056867553823852,0.0056867553825947,0.0056867553823124,17.669981332224,17.677770166148,5.6559850657787e-05,5.6559850657787e-05,5.6559850657787e-05,289336.88465993,0.017206819602206
24278400,0.99990749422121,0.016913538495753,0.0056378461652115,0.0056378461654059,0.0056378461651358,-0.0013689477267591,0.0013689477261138,6.3068825055393e-12,-6.9647719957022e-12,-1.581128168208e-14,-6.2727424896698e-13,-0.001393434921252,0.0013934349255303,-0.0013934349259344,0.0013934349208602,-0.0013934349221118,0.0013934349257544,-0.0013934349265475,0.001393434921303,-0.0013420692326558,0.0013420692455884,-0.0013420692464077,0.001342069231784,-7.0820254136908e-13,-5.385776644691e-14,8.615160342177e-14,2.2632370361327e-13,-0.0013689477266826,0.0013689477263011,-0.001393434923577,0.0013934349237533,-0.0013934349235364,0.0013934349238735,-0.0013934349233743,0.001393434924082,-0.0013934349232613,0.0013934349239144,-0.0013420692393142,0.0013420692384257,-0.0013420692376673,0.0013420692371811,-0.0013420692398281,0.0013420692367009,-0.0013420692390072,0.0013420692370023,-6.9963919120884e-12,6.8026835944504e-12,-0.0013689477265064,0.0013689477263574,-4.487333503277e-15,-1.3153398172715e-13,-0.0013934349261183,0.0013934349213192,-0.0013934349260899,0.0013934349210255,-0.0013934349213879,0.0013934349260628,-0.0013934349212791,0.0013934349259134,-0.0013420692303276,0.0013420692442609,-0.0013420692444905,0.0013420692302329,0.73426696964664,0.71130716234974,1368840,32768,0.0056876960897151,0.0056876960899445,0.0056876960896963,17.754573325631,17.758379286882,5.7236586605049e-05,5.7236586605049e-05,5.7236586605049e-05,287245.61119257,0.017209690103237
24364800,0.99990920284525,0.016913566050805,0.0056378553502287,0.005637855350423,0.0056378553501529,-0.001369167787274,0.001369167786681,6.3358430178743e-12,-6.9307595053487e-12,2.826413655003e-14,-5.9361365962782e-13,-0.0013936247625142,0.0013936247668022,-0.0013936247671389,0.0013936247621505,-0.001393624763436,0.0013936247669794,-0.001393624767821,0.0013936247625454,-0.0013423168253121,0.0013423168384149,-0.0013423168393738,0.0013423168247134,-7.0233654410068e-13,-3.7090072806088e-14,9.3235210551846e-14,2.3826363297427e-13,-0.0013691677872125,0.0013691677868434,-0.0013936247648038,0.0013936247649943,-0.0013936247647819,0.0013936247651616,-0.001393624764671,0.001393624765339,-0.0013936247645657,0.0013936247651792,-0.0013423168320348,0.0013423168313095,-0.0013423168305734,0.0013423168300226,-0.0013423168327351,0.0013423168295695,-0.0013423168318341,0.0013423168298707,-7.0395766516478e-12,6.7545863579057e-12,-0.0013691677870632,0.0013691677868604,-3.0316309151683e-14,-1.6218051608479e-13,-0.0013936247673704,0.0013936247626028,-0.0013936247673643,0.0013936247622917,-0.0013936247626561,0.0013936247672865,-0.0013936247626204,0.0013936247671517,-0.0013423168232301,0.0013423168369881,-0.0013423168375123,0.0013423168229421,0.73564461382737,0.73347617344896,1368840,32768,0.0056886078613564,0.0056886078615652,0.0056886078612915,17.83543271529,17.838988407616,5.7883461722316e-05,5.7883461722316e-05,5.7883461722316e-05,285074.43073846,0.017212472304645
24451200,0.99991088839553,0.016913593168442,0.005637864389441,0.0056378643896354,0.0056378643893653,-0.0013693873203498,0.0013693873196803,6.3043440683809e-12,-6.9767525120586e-12,-2.1625692291121e-14,-6.4727096161054e-13,-0.0013938148201464,0.0013938148245317,-0.0013938148248826,0.0013938148198852,-0.0013938148211774,0.0013938148245713,-0.0013938148256167,0.0013938148202924,-0.0013425631456369,0.0013425631585614,-0.0013425631598603,0.0013425631450073,-7.0260103602063e-13,-3.4042607080545e-14,8.9802785998296e-14,2.0470914333501e-13,-0.0013693873202535,0.0013693873198844,-0.0013938148226249,0.0013938148226722,-0.0013938148225229,0.0013938148227983,-0.0013938148224209,0.0013938148230248,-0.0013938148223481,0.001393814822843,-0.0013425631524927,0.0013425631516984,-0.0013425631509102,0.0013425631503924,-0.0013425631530075,0.0013425631498602,-0.0013425631522861,0.001342563150371,-7.0564550771999e-12,6.7519000282065e-12,-0.0013693873201152,0.0013693873198805,-5.61467553434e-14,-1.582833998449e-13,-0.0013938148251111,0.0013938148202395,-0.0013938148250632,0.0013938148199566,-0.0013938148204538,0.0013938148250687,-0.0013938148204483,0.0013938148248851,-0.0013425631437093,0.0013425631573979,-0.0013425631579323,0.0013425631433374,0.73385833738826,0.70088906137732,1368840,32768,0.0056895174431749,0.0056895174433982,0.0056895174431037,17.916058701288,17.91959752835,5.8528469610304e-05,5.8528469610304e-05,5.8528469610304e-05,282896.5697226,0.017215247846855
24537600,0.99991255101818,0.016913620055859,0.0056378733519136,0.0056378733521079,0.0056378733518378,-0.0013694542745231,0.0013694542739196,6.3325203840844e-12,-6.9421555689715e-12,1.4912426788539e-14,-6.1816340964981e-13,-0.001393924725512,0.0013939247298396,-0.0013939247300625,0.0013939247251209,-0.0013939247263395,0.0013939247299908,-0.0013939247307902,0.0013939247255211,-0.0013425897903862,0.0013425898032463,-0.0013425898042595,0.0013425897898725,-7.162955882497e-13,-4.0282357636919e-14,1.0790140956836e-13,2.23904512812e-13,-0.0013694542744594,0.0013694542740887,-0.0013939247277698,0.0013939247279854,-0.0013939247277633,0.0013939247281647,-0.0013939247276509,0.0013939247283281,-0.0013939247275345,0.0013939247281074,-0.0013425897970466,0.0013425897964498,-0.0013425897957654,0.0013425897950365,-0.0013425897978633,0.0013425897945266,-0.0013425897967666,0.0013425897950447,-7.0131145188713e-12,6.7887147270721e-12,-0.0013694542742749,0.001369454274129,-1.8711134270045e-14,-1.2169222356257e-13,-0.0013939247303278,0.0013939247255952,-0.0013939247303155,0.001393924725266,-0.0013939247256501,0.0013939247302661,-0.001393924725547,0.0013939247301648,-0.0013425897883331,0.0013425898019188,-0.0013425898025075,0.0013425897881849,0.73763294456282,0.76497482251868,1368840,32768,0.0056897947584805,0.0056897947586987,0.0056897947584001,17.996668800717,18.000206649084,5.9173350405732e-05,5.9173350405732e-05,5.9173350405732e-05,285011.73756637,0.017216094385968
24624000,0.99991419086273,0.016913646735695,0.0056378822451921,0.0056378822453864,0.0056378822451163,-0.0013697885263473,0.00136978852574,6.3263160589164e-12,-6.9587564735899e-12,3.8169833937774e-14,-6.0581575745034e-13,-0.001394174271813,0.0013941742760655,-0.0013941742764403,0.0013941742714694,-0.0013941742727152,0.0013941742761908,-0.0013941742770253,0.0013941742718635,-0.0013430020285225,0.0013430020411756,-0.0013430020427123,0.0013430020279266,-7.5630007202253e-13,-6.9439408085513e-14,9.7564490060035e-14,1.5916618170005e-13,-0.0013697885262907,0.0013697885258913,-0.0013941742739502,0.0013941742743399,-0.0013941742740166,0.0013941742744449,-0.0013941742738106,0.0013941742745567,-0.0013941742738164,0.0013941742744634,-0.0013430020350292,0.0013430020344056,-0.0013430020338114,0.0013430020332903,-0.0013430020356473,0.0013430020324273,-0.001343002034912,0.0013430020328582,-7.0320099416291e-12,6.7804728612084e-12,-0.0013697885260945,0.0013697885259428,-4.358072746222e-14,-9.1959896570636e-14,-0.0013941742767435,0.0013941742719062,-0.0013941742765527,0.0013941742716149,-0.0013941742718872,0.0013941742765778,-0.0013941742717913,0.0013941742764773,-0.0013430020266116,0.0013430020400634,-0.0013430020405436,0.001343002025771,0.74212144658163,0.82906058366004,1368840,32768,0.0056911797182308,0.0056911797184267,0.0056911797181272,18.077277693335,18.080815769818,5.9818221546681e-05,5.9818221546681e-05,5.9818221546681e-05,279609.21120253,0.017220320289185
24710400,0.9999158080806,0.016913673043214,0.005637891014365,0.0056378910145594,0.0056378910142893,-0.001370118341073,0.0013701183405106,6.3503855294929e-12,-6.9303776346616e-12,6.9744163481327e-14,-5.7385326329436e-13,-0.0013944214540524,0.0013944214583989,-0.0013944214586629,0.0013944214536914,-0.0013944214550018,0.001394421458636,-0.0013944214594252,0.0013944214541314,-0.0013434066420653,0.0013434066546177,-0.0013434066557352,0.001343406641041,-7.0310657940016e-13,-1.6753429370703e-14,1.2389468569063e-13,1.8724388276909e-13,-0.0013701183410172,0.0013701183406521,-0.0013944214563929,0.0013944214565718,-0.00139442145651,0.0013944214566348,-0.0013944214562691,0.0013944214569235,-0.0013944214561144,0.0013944214567264,-0.0013434066486597,0.001343406648082,-0.0013434066471818,0.0013434066465433,-0.0013434066492288,0.0013434066461756,-0.0013434066482513,0.0013434066466062,-7.0381632242388e-12,6.7698541856016e-12,-0.0013701183408462,0.0013701183406985,-3.4202837479734e-14,-8.501010888188e-14,-0.0013944214589321,0.0013944214541269,-0.0013944214588837,0.0013944214537755,-0.0013944214541561,0.0013944214587993,-0.0013944214540507,0.0013944214587159,-0.0013434066398715,0.0013434066538907,-0.001343406653895,0.0013434066395234,0.74194857783229,0.80338046085545,1368840,32768,0.0056925462748144,0.0056925462749917,0.0056925462747338,18.157886881997,18.161424890552,6.0463095055972e-05,6.0463095055972e-05,6.0463095055972e-05,274266.36276975,0.017224490115013
24796800,0.99991740282489,0.016913698142269,0.0056378993807169,0.0056378993809113,0.0056378993806412,-0.0013702162468749,0.0013702162462479,6.3524731715992e-12,-6.982505512779e-12,4.080842980107e-14,-6.3349094140423e-13,-0.0013945426084811,0.0013945426128421,-0.0013945426132115,0.0013945426082232,-0.0013945426095073,0.001394542612965,-0.0013945426139336,0.0013945426085823,-0.0013434796213998,0.0013434796344861,-0.0013434796351354,0.0013434796200862,-7.3757032067417e-13,-2.1277026472035e-14,2.1965828959003e-13,2.3223890526086e-13,-0.0013702162467716,0.0013702162464548,-0.0013945426108332,0.0013945426110585,-0.0013945426108262,0.0013945426112111,-0.001394542610664,0.0013945426114299,-0.0013945426105793,0.0013945426111711,-0.0013434796280359,0.0013434796270303,-0.0013434796260765,0.0013434796259829,-0.0013434796286133,0.0013434796253089,-0.0013434796278893,0.0013434796253504,-7.0098887938856e-12,6.852490896401e-12,-0.001370216246619,0.0013702162464619,-3.3174868883469e-14,-3.2890818737476e-14,-0.0013945426134676,0.0013945426086398,-0.0013945426133614,0.0013945426082875,-0.0013945426087124,0.001394542613264,-0.0013945426085702,0.0013945426131016,-0.0013434796187943,0.0013434796332859,-0.0013434796331026,0.001343479618998,0.71782212611677,0.4392761968503,1368840,32768,0.0056929518151832,0.0056929518153979,0.0056929518150964,18.238496543839,18.242034011285,6.1107972350714e-05,6.1107972350714e-05,6.1107972350714e-05,275275.40160736,0.017225727976377
24883200,0.9999189752503,0.016913722970776,0.0056379076568857,0.00563790765708,0.0056379076568099,-0.0013692663521461,0.0013692663515361,6.3517512524769e-12,-6.9638800817731e-12,3.9416942898275e-14,-6.2613269560536e-13,-0.0013941429929061,0.0013941429972101,-0.0013941429975666,0.0013941429925559,-0.0013941429938536,0.001394142997392,-0.0013941429982671,0.0013941429929388,-0.0013420297180416,0.0013420297309955,-0.0013420297319729,0.0013420297172694,-7.2736377953582e-13,-1.8922304289534e-14,1.5165424941972e-13,1.954904102551e-13,-0.0013692663520736,0.0013692663517134,-0.0013941429952099,0.0013941429954157,-0.0013941429952274,0.0013941429955578,-0.0013941429950544,0.0013941429957765,-0.0013941429949902,0.0013941429955991,-0.0013420297246534,0.0013420297239626,-0.0013420297232257,0.0013420297226215,-0.0013420297253714,0.0013420297221191,-0.0013420297245599,0.0013420297225058,-7.0244704660726e-12,6.8184859940509e-12,-0.0013692663518984,0.0013692663517526,-4.4380879488714e-14,-7.5517281234189e-14,-0.0013941429978016,0.0013941429930073,-0.0013941429977565,0.0013941429927462,-0.0013941429930667,0.0013941429977044,-0.0013941429929782,0.0013941429975998,-0.001342029715857,0.0013420297297259,-0.0013420297300344,0.0013420297156752,0.7201711904008,0.49107144933571,1368840,32768,0.0056890155671593,0.0056890155673763,0.0056890155670948,18.319105727354,18.32264313202,6.175284581883e-05,6.175284581883e-05,6.175284581883e-05,307091.26967849,0.017213718777241
24969600,0.99992053248696,0.016913747618879,0.0056379158729201,0.0056379158731145,0.0056379158728444,-0.0013697289219151,0.0013697289213027,6.3638018402221e-12,-6.9315453636942e-12,1.3064365598481e-14,-6.0767843584091e-13,-0.0013945259757533,0.0013945259800026,-0.0013945259803949,0.0013945259753405,-0.0013945259767753,0.0013945259801724,-0.0013945259811417,0.0013945259758461,-0.0013425659457796,0.0013425659587766,-0.0013425659599575,0.0013425659447797,-7.3583869710349e-13,-7.2109855916929e-14,1.3057606981423e-13,1.6033733709853e-13,-0.0013697289218652,0.0013697289214729,-0.0013945259781437,0.0013945259782294,-0.001394525977992,0.0013945259784413,-0.0013945259780001,0.0013945259786126,-0.0013945259778463,0.0013945259784915,-0.0013425659524596,0.0013425659516958,-0.0013425659506803,0.0013425659504053,-0.0013425659532747,0.0013425659498584,-0.0013425659523655,0.0013425659504471,-6.9348547331835e-12,6.8879632245104e-12,-0.0013697289216121,0.0013697289215734,-6.3653349551512e-15,-2.3437048720132e-14,-0.0013945259805219,0.0013945259759339,-0.0013945259804899,0.0013945259756052,-0.0013945259758311,0.0013945259805576,-0.0013945259758265,0.0013945259803977,-0.0013425659435368,0.0013425659576035,-0.0013425659576573,0.0013425659433816,0.72224657754559,0.53635853196327,1368840,32768,0.0056909321586641,0.0056909321589133,0.0056909321585974,18.471768275398,18.478395501747,6.2974146203186e-05,6.2974146203186e-05,6.2974146203186e-05,301923.54617045,0.017219567007595
25056000,0.99992208609882,0.01691377228569,0.0056379240951903,0.0056379240953847,0.0056379240951146,-0.0013704017233605,0.0013704017228083,6.3088193581345e-12,-6.9064343661121e-12,4.5156355798445e-14,-5.4509399481145e-13,-0.0013951299314118,0.0013951299355111,-0.0013951299365024,0.0013951299309574,-0.001395129932136,0.0013951299354724,-0.0013951299362709,0.0013951299308306,-0.0013433023846705,0.0013433023982088,-0.0013433023988349,0.0013433023845762,-6.6579913088181e-13,-3.3931463417084e-14,7.4155381662816e-14,1.8799081583315e-13,-0.0013704017233494,0.0013704017230677,-0.0013951299335229,0.001395129934069,-0.0013951299335206,0.0013951299344824,-0.001395129933493,0.00139512993469,-0.0013951299336045,0.001395129934782,-0.0013433023914948,0.0013433023898113,-0.0013433023890656,0.0013433023893805,-0.0013433023916581,0.0013433023890323,-0.0013433023908318,0.0013433023887806,-6.8149289262463e-12,6.927380314463e-12,-0.001370401723064,0.001370401723123,1.0666209448741e-13,3.0473774929447e-15,-0.0013951299357684,0.0013951299311737,-0.0013951299355947,0.0013951299319629,-0.0013951299313818,0.0013951299359025,-0.0013951299315971,0.0013951299357085,-0.0013433023827022,0.0013433023966908,-0.0013433023970918,0.0013433023821498,0.72443199071607,0.5816456145908,1368840,32768,0.0056937197179224,0.005693719718437,0.0056937197179604,18.746247390011,18.758167973674,6.5169979120089e-05,6.5169979120089e-05,6.5169979120089e-05,297467.01888797,0.017228073255633
25142400,0.99992363598957,0.016913796973136,0.005637932324339,0.0056379323245333,0.0056379323242632,-0.0013710809374912,0.0013710809368424,6.2874775395241e-12,-6.9055028063353e-12,-3.8810167317205e-14,-6.0980940015318e-13,-0.001395742085772,0.0013957420898062,-0.0013957420905737,0.0013957420851806,-0.0013957420863477,0.0013957420899287,-0.0013957420907186,0.0013957420859653,-0.0013440439183675,0.0013440439304286,-0.0013440439299621,0.0013440439147065,-7.0123828353414e-13,-8.9434679596635e-14,4.3709841164944e-15,1.5644054437817e-13,-0.0013710809374702,0.001371080937036,-0.0013957420878052,0.0013957420884413,-0.0013957420883228,0.0013957420886974,-0.0013957420879402,0.0013957420886236,-0.0013957420880149,0.0013957420887134,-0.0013440439232652,0.001344043922314,-0.0013440439224191,0.0013440439214807,-0.0013440439236069,0.0013440439212724,-0.0013440439245993,0.0013440439201366,-6.7964441380027e-12,6.9214029676551e-12,-0.0013710809371658,0.001371080937274,1.0370665536228e-13,-3.5556443186832e-14,-0.0013957420906617,0.0013957420860877,-0.001395742090384,0.0013957420858787,-0.0013957420857574,0.0013957420908561,-0.0013957420860034,0.0013957420906934,-0.0013440439145708,0.0013440439293098,-0.0013440439259724,0.0013440439142262,0.72672661392243,0.62693269721833,1368840,32768,0.005696533825296,0.0056965338256536,0.0056965338255161,19.025687060936,19.037940445599,6.7405496487484e-05,6.7405496487484e-05,6.7405496487484e-05,293134.89350923,0.017236660634686
25228800,0.99992518159771,0.016913821676456,0.0056379405587792,0.0056379405589736,0.0056379405587034,-0.0013717574486656,0.0013717574480663,6.2365242431712e-12,-6.8500561472515e-12,-4.0364502186283e-14,-5.6763427680954e-13,-0.0013963519496668,0.0013963519540228,-0.0013963519544803,0.0013963519493701,-0.0013963519502733,0.0013963519540625,-0.0013963519553826,0.0013963519499341,-0.0013447822502663,0.0013447822627751,-0.0013447822636142,0.0013447822487694,-7.9283198540942e-13,-2.2314265373334e-13,-9.6614460259264e-14,4.8395227441374e-14,-0.00137175744871,0.0013717574480548,-0.0013963519520111,0.0013963519522297,-0.0013963519521815,0.0013963519523926,-0.001396351952069,0.001396351952142,-0.0013963519520675,0.0013963519523493,-0.0013447822565348,0.0013447822558385,-0.0013447822557275,0.0013447822545767,-0.0013447822572543,0.0013447822536911,-0.0013447822567391,0.0013447822539611,-7.0169516369441e-12,6.5955248641839e-12,-0.0013717574485114,0.0013717574481745,-2.1554635638324e-14,-1.5195212267284e-13,-0.0013963519545328,0.0013963519498787,-0.0013963519547524,0.0013963519495174,-0.0013963519497609,0.0013963519545747,-0.0013963519498425,0.0013963519541718,-0.0013447822477783,0.001344782261656,-0.0013447822612762,0.0013447822474715,0.72915724910293,0.67221977984587,1368840,32768,0.0056993367203198,0.0056993367203881,0.0056993367202246,19.30543706978,19.317712917525,6.9643496558237e-05,6.9643496558237e-05,6.9643496558237e-05,288892.44744468,0.017245213887365
25315200,0.99992672232976,0.016913846392987,0.0056379487976229,0.0056379487978173,0.0056379487975472,-0.0013724307274299,0.0013724307267973,6.2743444260258e-12,-6.8449576559481e-12,-5.0841887991692e-14,-5.895674891179e-13,-0.0013969602734862,0.0013969602777409,-0.0013969602780855,0.0013969602730902,-0.0013969602744113,0.0013969602780895,-0.0013969602789839,0.0013969602734594,-0.0013455157510697,0.0013455157640034,-0.0013455157647112,0.0013455157506142,-6.7319293441795e-13,-9.249949773325e-14,1.2204691860924e-13,2.0924913699426e-13,-0.0013724307273765,0.0013724307269727,-0.0013969602759153,0.0013969602760638,-0.0013969602759534,0.0013969602762618,-0.0013969602757791,0.0013969602761922,-0.0013969602758913,0.0013969602760966,-0.0013455157576779,0.001345515756825,-0.0013455157564224,0.0013455157560327,-0.0013455157584551,0.00134551575547,-0.00134551575794,0.0013455157554861,-6.8913930609077e-12,6.7547114129088e-12,-0.0013724307271737,0.001372430727058,-1.8750780117715e-14,-9.2475880807672e-14,-0.0013969602785339,0.001396960273442,-0.0013969602783794,0.0013969602733431,-0.0013969602737055,0.0013969602781796,-0.0013969602735201,0.0013969602781792,-0.0013455157492867,0.0013455157627395,-0.0013455157633299,0.0013455157494092,0.73180545630765,0.71750686247341,1368840,32768,0.0057021262100325,0.0057021262102851,0.0057021262100419,19.585207760089,19.597485389451,7.188166208071e-05,7.188166208071e-05,7.188166208071e-05,284748.66817078,0.017253726322323
25401600,0.99992825758747,0.016913871313597,0.0056379571044927,0.0056379571046871,0.005637957104417,-0.0013731010800306,0.0013731010794354,6.1930526006118e-12,-6.8839324064727e-12,-5.1543719492398e-15,-5.9463745188108e-13,-0.00139756734631,0.0013975673507705,-0.001397567351133,0.0013975673461362,-0.0013975673473842,0.0013975673510643,-0.0013975673519304,0.0013975673467781,-0.001346244518666,0.0013462445315589,-0.0013462445332382,0.0013462445181645,-7.634991462134e-13,-1.3213687507387e-13,1.0885590982079e-13,1.9661208187115e-13,-0.0013731010799726,0.0013731010795865,-0.0013975673488633,0.0013975673488551,-0.0013975673490367,0.0013975673491079,-0.0013975673485038,0.0013975673493621,-0.0013975673482302,0.0013975673490975,-0.0013462445253493,0.0013462445246189,-0.0013462445238484,0.0013462445236824,-0.0013462445258438,0.0013462445228352,-0.0013462445258747,0.001346244523194,-7.0241467700789e-12,6.579941104963e-12,-0.0013731010798529,0.0013731010795288,-1.0235946122402e-13,-1.7593827226537e-13,-0.0013975673514038,0.0013975673465522,-0.0013975673513195,0.0013975673463058,-0.0013975673468661,0.0013975673513388,-0.0013975673466487,0.001397567351268,-0.0013462445170998,0.0013462445303774,-0.0013462445310975,0.0013462445159678,0.74041592423509,0.86167391963177,1368840,32768,0.0057049035624915,0.0057049035626843,0.005704903562317,19.864978113808,19.877257861376,7.4119824910459e-05,7.4119824910459e-05,7.4119824910459e-05,280683.0291918,0.01726220181159
25488000,0.99992978626654,0.016913896368485,0.0056379654561223,0.0056379654563167,0.0056379654560465,-0.0013740131642398,0.0013740131635923,6.2249969188524e-12,-6.8925285556309e-12,7.3838391346653e-14,-5.8808279918004e-13,-0.0013982900620004,0.0013982900662335,-0.0013982900666267,0.0013982900615914,-0.0013982900628187,0.0013982900660321,-0.0013982900672593,0.0013982900617488,-0.0013473303022726,0.0013473303138635,-0.0013473303158305,0.0013473303012953,-7.2633807557625e-13,-2.1101737709339e-14,1.5539748800753e-13,2.9470926154024e-13,-0.001374013164132,0.0013740131638145,-0.00139829006422,0.0013982900644363,-0.0013982900640578,0.0013982900646655,-0.0013982900639222,0.0013982900648467,-0.0013982900638935,0.0013982900647367,-0.0013473303085331,0.0013473303084299,-0.0013473303065576,0.0013473303064607,-0.0013473303093667,0.0013473303063694,-0.0013473303085614,0.001347330306505,-6.9561488473688e-12,6.6891469452701e-12,-0.0013740131639951,0.0013740131638204,1.9747808482712e-14,-1.0577312164492e-13,-0.0013982900668187,0.0013982900619162,-0.0013982900669212,0.0013982900617998,-0.001398290062116,0.0013982900666526,-0.0013982900621263,0.0013982900665433,-0.0013473303008948,0.0013473303134703,-0.0013473303138591,0.001347330299628,0.74755615250163,0.95250232212385,1368840,32768,0.0057086826018805,0.0057086826021176,0.0057086826018462,20.139386741661,20.157030333304,7.6315093933287e-05,7.6315093933287e-05,7.6315093933287e-05,269465.1889984,0.017273733565903
25574400,0.99993130823783,0.016913921346387,0.0056379737820893,0.0056379737822837,0.0056379737820136,-0.0013747825540129,0.0013747825533856,6.2040787784755e-12,-6.8541054353132e-12,2.2811185486883e-14,-6.2142119247972e-13,-0.0013989444561345,0.0013989444602631,-0.0013989444603917,0.0013989444557078,-0.0013989444569602,0.001398944460322,-0.0013989444613428,0.0013989444561519,-0.0013482016500127,0.0013482016625394,-0.00134820166439,0.0013482016492833,-6.7170521516087e-13,1.5308826443508e-14,1.4943114086357e-13,1.9150895835631e-13,-0.0013747825539217,0.0013747825535757,-0.0013989444582722,0.0013989444585771,-0.0013989444582124,0.0013989444585968,-0.0013989444583282,0.0013989444586035,-0.0013989444580247,0.0013989444585943,-0.0013482016563782,0.0013482016557489,-0.0013482016550315,0.0013482016543436,-0.0013482016572374,0.001348201654397,-0.0013482016568721,0.0013482016547089,-6.9090374042381e-12,6.6761045789995e-12,-0.0013747825537566,0.0013747825536155,-4.7484255270949e-14,-7.6337903223575e-14,-0.0013989444606337,0.0013989444560453,-0.0013989444607667,0.0013989444558584,-0.0013989444561244,0.0013989444605236,-0.0013989444560294,0.0013989444604905,-0.0013482016480422,0.0013482016615148,-0.001348201661888,0.0013482016471558,0.74842915811668,0.89921598704721,1368840,32768,0.0057118702890595,0.0057118702892641,0.0057118702890047,20.418664533454,20.43680280523,7.8549316267627e-05,7.8549316267627e-05,7.8549316267627e-05,262404.76153834,0.01728346131648
25660800,0.9999328229414,0.016913946225578,0.0056379820751532,0.0056379820753475,0.0056379820750774,-0.0013752174407664,0.0013752174401984,6.2661157362302e-12,-6.8230700304823e-12,6.7032687491528e-14,-6.0854314471877e-13,-0.0013994241502299,0.0013994241545431,-0.00139942415485,0.0013994241499284,-0.0013994241511679,0.0013994241546626,-0.0013994241555947,0.0013994241502965,-0.0013485869324839,0.0013485869459882,-0.0013485869464134,0.0013485869318452,-7.3743606006985e-13,-1.9336115177307e-14,1.2344281714196e-13,2.2108596656372e-13,-0.0013752174407238,0.001375217440347,-0.0013994241525946,0.0013994241527621,-0.0013994241526587,0.0013994241528725,-0.0013994241524166,0.0013994241530824,-0.0013994241522966,0.0013994241529285,-0.0013485869391674,0.0013485869382931,-0.0013485869375608,0.0013485869368844,-0.001348586940093,0.001348586936384,-0.0013485869391636,0.0013485869369982,-6.9154093272273e-12,6.7011438140681e-12,-0.0013752174405275,0.0013752174404074,3.7134453803221e-14,-4.7142265718495e-14,-0.0013994241550501,0.0013994241504372,-0.0013994241551018,0.0013994241500785,-0.0013994241503835,0.0013994241550434,-0.0013994241503087,0.0013994241548433,-0.0013485869297433,0.0013485869438601,-0.0013485869444078,0.0013485869300641,0.74897587372634,0.86523706048209,1368840,32768,0.0057136718062695,0.0057136718064891,0.0057136718062076,20.698375618613,20.716575277156,8.0787004948901e-05,8.0787004948901e-05,8.0787004948901e-05,264363.87462848,0.017288959951115
25747200,0.99993431810283,0.016913970741735,0.0056379902472054,0.0056379902473998,0.0056379902471297,-0.0013754425542067,0.001375442553598,6.2232464135056e-12,-6.830050405472e-12,6.0715586356984e-14,-6.492899587551e-13,-0.0013996833575119,0.001399683361736,-0.0013996833620791,0.0013996833571699,-0.001399683358469,0.0013996833619042,-0.001399683362797,0.0013996833575445,-0.0013487766441511,0.0013487766569445,-0.0013487766578959,0.0013487766434182,-7.4089216037072e-13,1.1869696212458e-14,1.157604635973e-13,2.2563937157797e-13,-0.0013754425541291,0.0013754425537806,-0.0013996833597797,0.0013996833599836,-0.0013996833597845,0.00139968336013,-0.0013996833596241,0.0013996833603391,-0.00139968335953,0.0013996833601794,-0.0013487766507042,0.0013487766499793,-0.0013487766492626,0.0013487766486449,-0.0013487766514802,0.0013487766480731,-0.0013487766505227,0.0013487766486565,-6.9040579681211e-12,6.6766645618924e-12,-0.0013754425539673,0.0013754425538076,-1.421833034565e-14,-1.1121072023589e-13,-0.0013996833623169,0.0013996833576078,-0.0013996833622851,0.0013996833573377,-0.0013996833576762,0.0013996833622295,-0.0013996833576,0.0013996833621075,-0.0013487766419312,0.0013487766555695,-0.0013487766559526,0.0013487766417541,0.74771686872436,0.81827565817244,1368840,32768,0.0057146043081056,0.005714604308323,0.005714604308044,20.850697376978,20.860888483298,8.2005579015819e-05,8.2005579015819e-05,8.2005579015819e-05,265655.93621745,0.017291806282064
25833600,0.99993577579954,0.016913994633862,0.0056379982112478,0.0056379982114422,0.0056379982111721,-0.0013752429605336,0.0013752429599197,6.2162317307406e-12,-6.8364705622818e-12,5.8109930663859e-14,-6.4181768702787e-13,-0.0013995401520854,0.0013995401562623,-0.0013995401565898,0.00139954015171,-0.0013995401530249,0.0013995401564845,-0.0013995401573381,0.0013995401520941,-0.0013485233706764,0.0013485233833583,-0.0013485233844188,0.0013485233699542,-7.3442565203575e-13,8.4772998478381e-15,1.2448654996253e-13,2.2944979928966e-13,-0.0013752429604512,0.0013752429601093,-0.0013995401542832,0.0013995401545029,-0.0013995401543055,0.0013995401546846,-0.0013995401542142,0.0013995401548372,-0.0013995401540846,0.0013995401547133,-0.0013485233773165,0.001348523376555,-0.0013485233757666,0.0013485233751937,-0.0013485233779453,0.0013485233746289,-0.0013485233770582,0.0013485233751517,-6.901238171911e-12,6.6788557302479e-12,-0.001375242960292,0.0013752429601378,-4.7335612753052e-15,-9.6684869873004e-14,-0.0013995401568831,0.001399540152146,-0.0013995401568117,0.0013995401518562,-0.0013995401522276,0.0013995401567496,-0.0013995401521182,0.0013995401566227,-0.0013485233685447,0.0013485233820953,-0.0013485233824833,0.0013485233683267,0.74742157011477,0.79960567941862,1368840,32768,0.0057137772681143,0.0057137772683366,0.005713777268066,20.803716507635,20.801103767876,8.1629732061074e-05,8.1629732061074e-05,8.1629732061074e-05,268266.72559486,0.01728928276785
25920000,0.99993719604831,0.01691401789173,0.0056380059638706,0.0056380059640649,0.0056380059637948,-0.001375086181974,0.0013750861813542,6.2058140195827e-12,-6.8335643569467e-12,5.5347662108091e-14,-6.4398247383629e-13,-0.0013994060474693,0.0013994060516225,-0.0013994060519509,0.0013994060471134,-0.0013994060483958,0.0013994060518042,-0.0013994060526894,0.0013994060474086,-0.0013483441977272,0.0013483442106788,-0.0013483442112667,0.0013483441968551,-7.411876219328e-13,7.6597659994066e-16,1.1719747852101e-13,2.3027978863994e-13,-0.0013750861818963,0.0013750861815457,-0.001399406049671,0.0013994060498996,-0.0013994060496054,0.0013994060500737,-0.0013994060495201,0.0013994060502236,-0.0013994060494378,0.0013994060500173,-0.0013483442044646,0.0013483442034384,-0.0013483442026788,0.0013483442022421,-0.00134834420497,0.001348344201512,-0.0013483442041172,0.0013483442019869,-6.8907951379974e-12,6.6759473485087e-12,-0.0013750861817238,0.0013750861815764,1.792415831162e-15,-9.8337701733067e-14,-0.0013994060522304,0.0013994060474917,-0.0013994060520618,0.0013994060472934,-0.0013994060475167,0.001399406052062,-0.0013994060475841,0.0013994060519762,-0.0013483441953685,0.0013483442091525,-0.0013483442093931,0.0013483441954965,0.74679298417512,0.7809357006648,1368840,32768,0.0057131276934126,0.0057131276936481,0.0057131276933545,20.745086232113,20.741319052455,8.11606898569e-05,8.11606898569e-05,8.11606898569e-05,269070.2315157,0.017287300542608
26006400,0.9999385798325,0.016914040392302,0.0056380134640611,0.0056380134642555,0.0056380134639854,-0.0013749249563027,0.0013749249556855,6.2107088112267e-12,-6.8294402476413e-12,4.6861156659125e-14,-6.3675201825116e-13,-0.0013992683480571,0.0013992683523673,-0.0013992683527529,0.0013992683477896,-0.0013992683490068,0.0013992683525215,-0.0013992683532892,0.0013992683479551,-0.0013481600510071,0.0013481600638626,-0.0013481600648553,0.0013481600503998,-7.7150925445127e-13,-4.5392613286823e-14,1.3024396231282e-13,2.3367952301568e-13,-0.0013749249562239,0.0013749249558545,-0.0013992683504447,0.0013992683505717,-0.0013992683502849,0.0013992683508062,-0.0013992683502712,0.001399268351018,-0.0013992683500265,0.001399268350809,-0.0013481600577262,0.0013481600569107,-0.0013481600563502,0.0013481600557823,-0.0013481600582456,0.0013481600549911,-0.0013481600576367,0.0013481600553384,-6.9350615503947e-12,6.6325029110006e-12,-0.0013749249560885,0.0013749249558745,-5.2934853464798e-14,-1.4317068505738e-13,-0.0013992683528492,0.0013992683481661,-0.0013992683528461,0.0013992683479488,-0.0013992683483537,0.0013992683527407,-0.0013992683482716,0.0013992683526573,-0.0013481600489913,0.0013481600626202,-0.0013481600630161,0.001348160048767,0.74152877982045,0.69652168285282,1368840,32768,0.0057124597014364,0.005712459701623,0.0057124597013841,20.685411289211,20.681534337034,8.0683290313687e-05,8.0683290313687e-05,8.0683290313687e-05,269975.93544818,0.017285262086313
26092800,0.99993992818861,0.016914061991604,0.0056380206638286,0.005638020664023,0.0056380206637529,-0.0013745826064051,0.0013745826057904,6.2178899447891e-12,-6.8201320614118e-12,4.1455086516739e-14,-6.3693115983733e-13,-0.0013990393952924,0.0013990393995136,-0.0013990393998667,0.0013990393949527,-0.0013990393962421,0.0013990393996653,-0.0013990394005376,0.0013990393953186,-0.0013477133757018,0.0013477133885094,-0.0013477133892922,0.0013477133751803,-7.127685489395e-13,8.5708264024308e-15,1.3007755563173e-13,2.1090985096647e-13,-0.0013745826063232,0.001374582605976,-0.0013990393975839,0.0013990393977607,-0.0013990393976007,0.0013990393979106,-0.0013990393974073,0.0013990393981244,-0.0013990393973324,0.001399039397951,-0.0013477133823334,0.0013477133816212,-0.0013477133808831,0.0013477133803963,-0.0013477133829331,0.0013477133797789,-0.0013477133822498,0.001347713380302,-6.8914988223827e-12,6.6739417038974e-12,-0.001374582606159,0.0013745826060055,-1.9483287151893e-14,-8.7412388435065e-14,-0.0013990394000975,0.0013990393953897,-0.0013990394000202,0.0013990393951299,-0.0013990393954724,0.0013990394000054,-0.0013990393954108,0.0013990393998751,-0.0013477133736698,0.0013477133871187,-0.001347713387692,0.001347713373659,0.73054861399819,0.53839686589601,1368840,32768,0.0057110411918765,0.0057110411920913,0.0057110411918123,20.62563614992,20.621749621612,8.0205089199358e-05,8.0205089199358e-05,8.0205089199358e-05,276113.24061279,0.017280933637836
26179200,0.99994124212864,0.016914083403888,0.0056380278012564,0.0056380278014508,0.0056380278011807,-0.0013739943604669,0.001373994359835,6.2321032017604e-12,-6.8636090861597e-12,6.6662904670492e-14,-6.7419705080171e-13,-0.0013986891347366,0.0013986891389654,-0.0013986891393238,0.0013986891343854,-0.0013986891357015,0.0013986891391201,-0.0013986891400431,0.0013986891347421,-0.0013469083902386,0.0013469084029162,-0.0013469084039693,0.0013469083894382,-7.5561138717903e-13,2.8107758974316e-14,1.3827248175295e-13,2.2099577814244e-13,-0.0013739943603722,0.0013739943600348,-0.0013986891370067,0.0013986891372032,-0.001398689137006,0.0013986891373613,-0.0013986891368295,0.0013986891375872,-0.0013986891367456,0.0013986891374244,-0.001346908396743,0.001346908396067,-0.0013469083952933,0.0013469083947355,-0.0013469083974936,0.0013469083941555,-0.001346908396579,0.0013469083946407,-6.9304311036164e-12,6.692738247323e-12,-0.0013739943602172,0.0013739943600539,-2.8785591208183e-14,-9.8623281244103e-14,-0.0013986891395552,0.0013986891348354,-0.0013986891395265,0.0013986891345587,-0.0013986891348942,0.0013986891394617,-0.0013986891348222,0.0013986891393374,-0.0013469083880923,0.0013469084016809,-0.0013469084020358,0.0013469083878468,0.74324493860335,0.78002189925125,1368840,32768,0.0057086037912708,0.0057086037914885,0.0057086037912071,20.565852548046,20.561964906191,7.9726820384363e-05,7.9726820384363e-05,7.9726820384363e-05,289578.58768239,0.01727349628044
26265600,0.99994252263367,0.016914104511695,0.0056380348371922,0.0056380348373866,0.0056380348371165,-0.0013745558147733,0.0013745558141496,6.2252413525616e-12,-6.8459515079395e-12,6.1994900216e-14,-6.768538519912e-13,-0.0013989224252974,0.0013989224295418,-0.0013989224298899,0.0013989224249161,-0.0013989224262653,0.0013989224296916,-0.0013989224305942,0.0013989224252991,-0.0013477754983259,0.00134777551092,-0.0013477755117898,0.0013477754973461,-7.6596345328346e-13,1.5606346766231e-14,1.0821022366371e-13,1.873782757223e-13,-0.0013745558146988,0.0013745558143309,-0.0013989224276273,0.0013989224277439,-0.0013989224275626,0.0013989224279106,-0.0013989224274074,0.0013989224281561,-0.0013989224273111,0.0013989224279455,-0.001347775504601,0.0013477755039869,-0.0013477755032799,0.001347775502685,-0.0013477755052943,0.0013477755020579,-0.0013477755045254,0.0013477755026074,-6.9148503443038e-12,6.6836954059285e-12,-0.0013745558145285,0.0013745558143639,-5.4185109387985e-14,-1.2058408094498e-13,-0.00139892243009,0.0013989224254228,-0.0013989224300956,0.0013989224251208,-0.0013989224254462,0.0013989224300052,-0.0013989224253802,0.0013989224299184,-0.001347775495953,0.0013477755096266,-0.0013477755097957,0.0013477754958467,0.75194074908598,0.92560067273982,1368840,32768,0.0057109304480821,0.005710930448303,0.0057109304480189,20.506069057578,20.50218019077,7.9248552460625e-05,7.9248552460625e-05,7.9248552460625e-05,270180.28228202,0.017280594785644
26352000,0.99994377065404,0.016914125111018,0.0056380417036333,0.0056380417038276,0.0056380417035575,-0.0013748011585751,0.0013748011579359,6.2228291027248e-12,-6.8981747949069e-12,6.6465910688523e-14,-6.5761735141779e-13,-0.0013989916327217,0.0013989916369731,-0.0013989916373318,0.0013989916323542,-0.0013989916337048,0.001398991637167,-0.0013989916380197,0.0013989916327804,-0.0013481831197662,0.0013481831323055,-0.0013481831335785,0.0013481831188257,-7.2248969314169e-13,4.449828766668e-14,1.5096021179856e-13,2.1221181119248e-13,-0.0013748011584769,0.0013748011581405,-0.0013989916350101,0.0013989916351752,-0.0013989916350241,0.0013989916353297,-0.0013989916348436,0.0013989916355748,-0.0013989916347899,0.0013989916353921,-0.0013481831263144,0.0013481831254967,-0.0013481831247198,0.0013481831242019,-0.0013481831268997,0.001348183123631,-0.0013481831258462,0.0013481831240198,-6.9338812923332e-12,6.7145446399762e-12,-0.0013748011583183,0.0013748011581637,-3.3901081992275e-14,-8.2389130127452e-14,-0.0013989916375745,0.0013989916328227,-0.0013989916375401,0.0013989916325671,-0.0013989916328374,0.0013989916374763,-0.0013989916327956,0.0013989916373269,-0.0013481831175248,0.0013481831311658,-0.0013481831313542,0.0013481831170913,0.7527244487336,0.8874016471762,1368840,32768,0.0057119471929181,0.0057119471931386,0.005711947192858,20.446283578213,20.442395475348,7.87702686257e-05,7.87702686257e-05,7.87702686257e-05,259724.47692363,0.0172836966581
26438400,0.99994498711076,0.016914145315704,0.0056380484385284,0.0056380484387228,0.0056380484384527,-0.0013746111964688,0.0013746111958441,6.2252898951963e-12,-6.8556536233112e-12,5.6845998687878e-14,-6.6631111524104e-13,-0.0013988331077211,0.001398833111974,-0.0013988331123159,0.0013988331073893,-0.0013988331086997,0.0013988331121435,-0.0013988331130327,0.0013988331077442,-0.0013479580246852,0.0013479580373164,-0.001347958038406,0.0013479580238614,-7.327015870577e-13,3.3228896644723e-14,1.499010676841e-13,2.2683389390966e-13,-0.0013746111963748,0.0013746111960457,-0.0013988331100224,0.001398833110212,-0.0013988331100128,0.0013988331103695,-0.0013988331098378,0.0013988331105905,-0.0013988331097577,0.001398833110421,-0.0013479580311741,0.0013479580304818,-0.0013479580296809,0.0013479580291655,-0.0013479580318417,0.0013479580286245,-0.0013479580310064,0.0013479580290501,-6.9245969289053e-12,6.6837705212809e-12,-0.0013746111962227,0.001374611196061,-3.8567645314321e-14,-1.0276033133065e-13,-0.0013988331125545,0.0013988331078336,-0.0013988331125165,0.0013988331075592,-0.0013988331078861,0.001398833112472,-0.0013988331078152,0.0013988331123435,-0.0013479580225196,0.0013479580360855,-0.0013479580363994,0.0013479580222234,0.75734697553109,0.93136439565299,1368840,32768,0.0057111600561,0.0057111600563229,0.0057111600560397,20.386499021251,20.382610759927,7.8291992170006e-05,7.8291992170006e-05,7.8291992170006e-05,260998.74548126,0.017281294910208
26524800,0.99994618010369,0.016914165178132,0.0056380550593379,0.0056380550595322,0.0056380550592621,-0.0013747998010845,0.0013747998004641,6.2285283403817e-12,-6.854112082169e-12,6.4777991665055e-14,-6.5790590142632e-13,-0.0013989618696304,0.0013989618738591,-0.0013989618742156,0.0013989618692913,-0.0013989618705916,0.0013989618740249,-0.0013989618749267,0.0013989618696551,-0.001348197288297,0.0013481973009749,-0.0013481973021009,0.0013481972875433,-7.4408170999099e-13,2.1362406216683e-14,1.4711350578338e-13,2.1692781418065e-13,-0.001374799800995,0.0013747998006581,-0.0013989618719015,0.0013989618721123,-0.0013989618719112,0.0013989618722646,-0.0013989618717299,0.001398961872491,-0.0013989618716582,0.001398961872316,-0.0013481972948207,0.0013481972941823,-0.0013481972933554,0.0013481972928264,-0.0013481972955446,0.001348197292312,-0.0013481972946861,0.0013481972927405,-6.9192727386145e-12,6.6908057769469e-12,-0.0013747998008348,0.0013747998006834,-2.7280696005228e-14,-8.4330541406906e-14,-0.0013989618744505,0.0013989618697389,-0.0013989618744123,0.0013989618694713,-0.0013989618697956,0.0013989618743561,-0.0013989618697141,0.0013989618742435,-0.0013481972862215,0.0013481972997868,-0.0013481973001487,0.0013481972859063,0.75917778058827,0.91692149253239,1368840,32768,0.0057119414919254,0.0057119414921419,0.0057119414918625,20.425543942393,20.427870439668,7.860435153914e-05,7.860435153914e-05,7.860435153914e-05,257170.8999667,0.017283679506324
26611200,0.99994736022727,0.016914184819729,0.0056380616065368,0.0056380616067311,0.005638061606461,-0.001375127965704,0.0013751279650975,6.2416421309409e-12,-6.8729829762644e-12,8.3022228433792e-14,-6.4771050700626e-13,-0.0013992935677298,0.0013992935719834,-0.001399293572341,0.0013992935673942,-0.0013992935687185,0.0013992935722054,-0.0013992935730957,0.0013992935678178,-0.0013485164011832,0.0013485164133814,-0.0013485164147013,0.0013485164001189,-7.2104673722301e-13,5.2400546258105e-14,1.6708583681885e-13,2.1206240399206e-13,-0.0013751279656249,0.0013751279652923,-0.0013992935700759,0.0013992935702247,-0.0013992935700342,0.0013992935703551,-0.0013992935698875,0.0013992935706065,-0.0013992935698377,0.0013992935703781,-0.001348516407341,0.0013485164066339,-0.0013485164058782,0.0013485164057373,-0.0013485164078117,0.0013485164050604,-0.0013485164071748,0.0013485164051822,-6.9323683385529e-12,6.7097007291308e-12,-0.0013751279654527,0.0013751279653157,-4.0288416275361e-14,-7.2612134690305e-14,-0.0013992935725124,0.0013992935678295,-0.0013992935725255,0.001399293567631,-0.001399293567866,0.0013992935724824,-0.0013992935677891,0.0013992935723713,-0.0013485163988909,0.0013485164123238,-0.0013485164123464,0.0013485163984985,0.75888695106453,0.87726751581883,1368840,32768,0.0057133009887331,0.0057133009889727,0.0057133009886648,20.606403499565,20.617856155914,8.0051227996522e-05,8.0051227996522e-05,8.0051227996522e-05,256964.11725579,0.017287828713673
26697600,0.99994852790555,0.016914204223301,0.0056380680743942,0.0056380680745885,0.0056380680743184,-0.0013754087838914,0.0013754087832992,6.2439850299551e-12,-6.8767129799624e-12,9.08348132941e-14,-6.6110186261542e-13,-0.0013996128776602,0.0013996128820874,-0.0013996128821888,0.001399612877429,-0.0013996128785605,0.0013996128822388,-0.0013996128830502,0.0013996128779373,-0.0013487578136827,0.0013487578259855,-0.0013487578275703,0.0013487578123538,-7.3969366757208e-13,5.5101816677324e-14,2.3714781412059e-13,1.9774628251622e-13,-0.0013754087838058,0.0013754087834985,-0.0013996128800405,0.0013996128801928,-0.0013996128799204,0.001399612880425,-0.0013996128797306,0.001399612880595,-0.0013996128796876,0.0013996128803394,-0.0013487578199004,0.0013487578192693,-0.0013487578188921,0.0013487578180793,-0.0013487578207245,0.001348757817295,-0.0013487578198015,0.001348757817915,-6.8801121114153e-12,6.7678997747193e-12,-0.0013754087835921,0.0013754087835603,-4.7620780511961e-14,4.1321090610222e-15,-0.0013996128825335,0.0013996128779433,-0.0013996128823383,0.0013996128775337,-0.0013996128778213,0.0013996128825734,-0.0013996128777846,0.0013996128824025,-0.001348757811436,0.0013487578254181,-0.0013487578251672,0.0013487578108239,0.75768466285439,0.83761353910526,1368840,32768,0.0057144642852612,0.0057144642854968,0.005714464285182,20.795560496769,20.807841872159,8.1564483974153e-05,8.1564483974153e-05,8.1564483974153e-05,258693.46897259,0.017291379335796
26784000,0.99994968300015,0.01691422336778,0.005638074455887,0.0056380744560814,0.0056380744558113,-0.0013756837084518,0.0013756837078438,6.2348979693233e-12,-6.9039984405279e-12,7.8690537234573e-14,-6.5863999664727e-13,-0.0013999325601295,0.0013999325645677,-0.001399932564772,0.0013999325597904,-0.001399932561264,0.001399932564673,-0.0013999325653928,0.0013999325601369,-0.0013489890926054,0.0013489891052302,-0.0013489891059478,0.0013489890913817,-7.5437930717117e-13,2.5613864572843e-14,1.2886794552566e-13,1.2846548723225e-13,-0.0013756837083665,0.0013756837080165,-0.0013999325625837,0.0013999325626827,-0.001399932562588,0.00139993256281,-0.0013999325622782,0.0013999325630496,-0.0013999325622517,0.0013999325629379,-0.0013489890985145,0.0013489890980435,-0.0013489890974156,0.0013489890966657,-0.0013489890989593,0.0013489890958605,-0.0013489890986212,0.0013489890965604,-6.9355711818847e-12,6.7310354303115e-12,-0.0013756837082194,0.0013756837080848,-3.9468264859836e-14,-2.6075085776969e-14,-0.001399932565009,0.0013999325603167,-0.0013999325649858,0.0013999325599775,-0.0013999325604872,0.0013999325649782,-0.0013999325604146,0.0013999325647255,-0.0013489890898397,0.0013489891037243,-0.0013489891037753,0.0013489890897349,0.75573598345428,0.79795956239171,1368840,32768,0.0057156031803291,0.0057156031805102,0.0057156031803471,20.985461254587,20.997827588404,8.3083690036697e-05,8.3083690036697e-05,8.3083690036697e-05,260785.42553055,0.017294855446409
26870400,0.99995082532866,0.016914242236849,0.0056380807455767,0.0056380807457711,0.005638080745501,-0.0013759522539791,0.0013759522534112,6.2749230701134e-12,-6.8527600646487e-12,4.2477849389683e-14,-6.0126983750154e-13,-0.0014002505827782,0.001400250587105,-0.0014002505873127,0.0014002505825604,-0.0014002505837493,0.0014002505872551,-0.001400250587991,0.0014002505829778,-0.0013492106615488,0.0013492106740445,-0.0013492106750292,0.0013492106606452,-7.4109683058877e-13,-5.4013761681363e-14,1.1540029812952e-13,1.2441914025714e-13,-0.0013759522539786,0.0013759522535252,-0.0014002505849519,0.0014002505852772,-0.0014002505852718,0.0014002505853267,-0.001400250584904,0.0014002505854794,-0.0014002505849009,0.0014002505854195,-0.0013492106676685,0.0013492106671404,-0.0013492106663975,0.0013492106659541,-0.0013492106681377,0.0013492106653745,-0.001349210667618,0.0013492106656651,-6.8923322675097e-12,6.762833811834e-12,-0.0013759522537344,0.0013759522536473,-4.5968772156153e-14,-4.2240650753585e-14,-0.0014002505874377,0.0014002505829957,-0.0014002505875243,0.0014002505825138,-0.001400250582969,0.001400250587622,-0.0014002505827538,0.001400250587572,-0.0013492106590771,0.0013492106726616,-0.0013492106727002,0.0013492106589965,0.75321654448058,0.75830558567814,1368840,32768,0.0057167156594937,0.0057167156597288,0.0057167156594759,21.175433436317,21.18781330465,8.4603467490536e-05,8.4603467490536e-05,8.4603467490536e-05,263176.25738668,0.017298250906361
26956800,0.9999519547101,0.016914260819041,0.0056380869396407,0.0056380869398351,0.005638086939565,-0.0013762151426996,0.0013762151422226,6.3641956664262e-12,-6.8054618625174e-12,9.5567609886883e-14,-5.699765876065e-13,-0.0014005667758461,0.0014005667801852,-0.0014005667805632,0.0014005667755774,-0.0014005667766852,0.0014005667803003,-0.0014005667812325,0.0014005667761141,-0.0013494238622993,0.0013494238747333,-0.0013494238761666,0.0013494238616578,-7.1183163638507e-13,-3.3961903663626e-15,2.0991299906667e-13,1.6419413104083e-13,-0.0013762151427011,0.0013762151423629,-0.0014005667781446,0.0014005667784386,-0.001400566778291,0.0014005667786173,-0.0014005667780946,0.0014005667787769,-0.0014005667781478,0.0014005667785887,-0.001349423869285,0.0013494238684953,-0.0013494238675971,0.0013494238669591,-0.001349423868833,0.0013494238663658,-0.0013494238685567,0.0013494238666179,-6.9160334846303e-12,6.7806183861745e-12,-0.0013762151424905,0.0013762151424415,-2.8448836789917e-14,2.9840323692712e-14,-0.0014005667807647,0.0014005667759725,-0.0014005667806121,0.001400566775878,-0.0014005667759936,0.0014005667807741,-0.001400566775854,0.0014005667806276,-0.0013494238602988,0.0013494238738357,-0.0013494238740631,0.0013494238601042,0.75029979029728,0.71865160896458,1368840,32768,0.0057178047109059,0.0057178047111995,0.0057178047109264,21.365412385672,21.377799020895,8.6123299085374e-05,8.6123299085374e-05,8.6123299085374e-05,265814.72247591,0.017301574847764
27043200,0.99995307096932,0.016914279106619,0.0056380930355003,0.0056380930356946,0.0056380930354245,-0.0013764731234103,0.0013764731227977,6.2786779995205e-12,-6.8581091365323e-12,-1.6390058118504e-14,-6.1936869635854e-13,-0.0014008815635996,0.0014008815679985,-0.0014008815681972,0.0014008815635294,-0.0014008815647812,0.0014008815682887,-0.0014008815694098,0.0014008815639226,-0.0013496296070869,0.0013496296206453,-0.0013496296216216,0.001349629605762,-8.3488014204357e-13,-1.887761153722e-13,1.5700308601643e-13,1.0535719317477e-13,-0.0013764731234173,0.0013764731229152,-0.0014008815662735,0.0014008815662571,-0.0014008815663163,0.0014008815663361,-0.0014008815659519,0.0014008815665488,-0.0014008815657254,0.0014008815663555,-0.0013496296152169,0.0013496296117865,-0.0013496296133345,0.0013496296101526,-0.0013496296145353,0.0013496296105506,-0.0013496296141263,0.0013496296106532,-6.8221357060841e-12,6.8420929199344e-12,-0.0013764731231138,0.0013764731231081,7.6663540334408e-15,7.0871187875035e-14,-0.001400881568591,0.0014008815639102,-0.0014008815684974,0.001400881563655,-0.0014008815638953,0.0014008815687204,-0.0014008815639413,0.0014008815686396,-0.001349629603526,0.0013496296192729,-0.0013496296188204,0.0013496296037182,0.74711825110174,0.67899763225101,1368840,32768,0.0057188734328557,0.0057188734331134,0.0057188734328844,21.555391750067,21.56778473714,8.7643134000533e-05,8.7643134000533e-05,8.7643134000533e-05,268660.29304566,0.017304836738333
27129600,0.99995417393766,0.016914297094246,0.0056380990313759,0.0056380990315703,0.0056380990313002,-0.001376726696677,0.0013767266960588,6.2829551776792e-12,-6.9232832043328e-12,2.7667978291667e-15,-5.6430705492447e-13,-0.0014011941959737,0.0014011942000458,-0.0014011942007352,0.0014011941954774,-0.0014011941967458,0.0014011942002861,-0.0014011942012195,0.0014011941958616,-0.0013498293426796,0.0013498293553786,-0.0013498293558899,0.0013498293412429,-7.773978686758e-13,-1.6588799105927e-13,1.8845071354829e-13,1.0692529232925e-13,-0.0013767266966487,0.0013767266961587,-0.0014011941979217,0.0014011941981774,-0.0014011941980751,0.0014011941983809,-0.0014011941980985,0.0014011941984434,-0.0014011941977777,0.0014011941986498,-0.0013498293488726,0.0013498293482276,-0.001349829347392,0.0013498293464082,-0.0013498293501992,0.0013498293467451,-0.0013498293493749,0.0013498293467564,-6.7603772986434e-12,6.9741431800072e-12,-0.0013767266962839,0.001376726696403,4.9304729068489e-14,1.4317256735282e-13,-0.0014011942005213,0.0014011941960542,-0.0014011942006668,0.0014011941954664,-0.0014011941959547,0.0014011942005224,-0.0014011941956147,0.0014011942005386,-0.0013498293398992,0.0013498293544837,-0.0013498293537925,0.0013498293406221,0.74375512119327,0.63934365553745,1368840,32768,0.0057199238967048,0.0057199238968529,0.0057199238966035,21.745370936222,21.757770453386,8.9162967489776e-05,8.9162967489776e-05,8.9162967489776e-05,271671.15624604,0.01730804290706
27216000,0.99995526345306,0.016914314778118,0.0056381049259996,0.005638104926194,0.0056381049259239,-0.001376976085941,0.0013769760853331,6.3055730161315e-12,-6.9327546796916e-12,-1.9866275451863e-14,-4.7954796778582e-13,-0.0014015049720925,0.0014015049762991,-0.0014015049766187,0.0014015049716294,-0.0014015049730627,0.0014015049762968,-0.001401504977261,0.0014015049722349,-0.0013500231614428,0.0013500231754614,-0.0013500231754292,0.0013500231611348,-7.3222498397053e-13,-2.2908726624715e-13,3.7636026715806e-14,8.5349186758578e-14,-0.0013769760859429,0.0013769760854072,-0.001401504974468,0.00140150497452,-0.0014015049742893,0.0014015049745605,-0.001401504974505,0.0014015049748557,-0.0014015049742779,0.001401504974657,-0.0013500231685308,0.0013500231673509,-0.0013500231665248,0.0013500231659435,-0.0013500231694608,0.0013500231658109,-0.0013500231684502,0.001350023165604,-7.0093194583372e-12,6.75653065145e-12,-0.0013769760857307,0.0013769760855056,-7.6386489974577e-14,-1.1043221460694e-13,-0.0014015049771497,0.0014015049721996,-0.0014015049769605,0.0014015049719562,-0.0014015049722473,0.00140150497678,-0.0014015049725006,0.0014015049765826,-0.0013500231588634,0.0013500231732489,-0.0013500231739138,0.001350023159526,0.74026144460773,0.59968967882389,1368840,32768,0.0057209570265465,0.0057209570267038,0.0057209570264681,21.935349919125,21.947756169631,9.0682799352997e-05,9.0682799352997e-05,9.0682799352997e-05,274834.92580178,0.017311196180192
27302400,0.99995633733083,0.01691433219345,0.0056381107311104,0.0056381107313047,0.0056381107310346,-0.0013771610051386,0.0013771610046502,6.4030315682514e-12,-6.8703967023321e-12,1.4455440749149e-16,-4.7486872838043e-13,-0.0014017539023334,0.0014017539065419,-0.0014017539069781,0.0014017539019941,-0.0014017539030692,0.0014017539067976,-0.0014017539075475,0.0014017539023395,-0.0013501505989526,0.0013501506120607,-0.0013501506129381,0.0013501505983762,-6.512148705386e-13,-1.3416131322868e-13,7.168028080486e-14,1.6388443461949e-13,-0.0013771610051729,0.0013771610047483,-0.0014017539046651,0.0014017539048175,-0.0014017539046013,0.0014017539049356,-0.0014017539045484,0.0014017539050006,-0.0014017539045003,0.0014017539049291,-0.0013501506056936,0.0013501506047386,-0.0013501506039679,0.0013501506033585,-0.0013501506063714,0.0013501506029363,-0.0013501506056102,0.0013501506033234,-7.0335919521233e-12,6.7672955578836e-12,-0.0013771610049721,0.0013771610047877,-4.2419821750622e-14,-1.2202956619816e-13,-0.001401753907327,0.0014017539024792,-0.001401753907272,0.0014017539022682,-0.0014017539025135,0.0014017539070421,-0.001401753902492,0.0014017539069853,-0.0013501505966436,0.0013501506103872,-0.0013501506109092,0.0013501505963706,0.73966770825267,0.60576459798308,1368840,32768,0.0057217230606841,0.005721723060958,0.005721723060624,22.094095554638,22.104535272851,9.1952764437104e-05,9.1952764437104e-05,9.1952764437104e-05,278158.39072941,0.01731353431162
27388800,0.99995739290414,0.016914349416599,0.00563811647216,0.0056381164723544,0.0056381164720843,-0.0013773989123331,0.0013773989117706,6.3833766392842e-12,-6.9315324817348e-12,-2.527022801188e-14,-5.1014044497134e-13,-0.0014019921304795,0.0014019921347555,-0.0014019921352122,0.0014019921301329,-0.0014019921314088,0.0014019921350992,-0.001401992135925,0.0014019921306349,-0.0013503901143044,0.0013503901273032,-0.0013503901281747,0.0013503901136028,-6.2318466801852e-13,-9.5598814815947e-14,1.2307529895763e-13,2.1031904548576e-13,-0.0013773989122811,0.0013773989118969,-0.0014019921317981,0.0014019921319739,-0.0014019921317967,0.0014019921321387,-0.0014019921316941,0.0014019921322884,-0.001401992131607,0.001401992132092,-0.001350390121798,0.0013503901208573,-0.0013503901202138,0.0013503901195651,-0.0013503901232325,0.0013503901203478,-0.0013503901225169,0.0013503901206073,-7.0332464332669e-12,6.8093306266823e-12,-0.0013773989121006,0.0013773989119405,-4.2360529444315e-14,-1.1682872508029e-13,-0.0014019921343511,0.0014019921295221,-0.0014019921343017,0.0014019921292562,-0.0014019921295589,0.0014019921342481,-0.0014019921295116,0.0014019921341636,-0.0013503901139568,0.0013503901277922,-0.0013503901280358,0.0013503901137525,0.74421447281927,0.6936596777507,1368840,32768,0.0057227087174578,0.0057227087176109,0.0057227087173274,22.211649502084,22.219426609391,9.2893196016671e-05,9.2893196016671e-05,9.2893196016671e-05,277696.52085674,0.017316542378002
27475200,0.99995843014395,0.016914366363705,0.0056381221211953,0.0056381221213897,0.0056381221211196,-0.0013778639319666,0.0013778639314219,6.3738530037542e-12,-6.9216934881917e-12,-7.4019209352198e-15,-5.22555330411e-13,-0.0014023399971738,0.0014023400014741,-0.0014023400018239,0.0014023399968337,-0.0014023399980344,0.0014023400016839,-0.0014023400024659,0.0014023399972621,-0.0013509649889014,0.0013509650019324,-0.0013509650027901,0.0013509649881895,-6.8716794866733e-13,-1.2914714287873e-13,7.8943000110241e-14,1.7435949696646e-13,-0.0013778639319585,0.0013778639315249,-0.0014023399993158,0.0014023399994875,-0.0014023399993375,0.0014023399996595,-0.001402339999209,0.0014023399997878,-0.0014023399991047,0.0014023399996494,-0.0013509649957395,0.0013509649948106,-0.001350964994414,0.0013509649935722,-0.0013509649964905,0.0013509649933758,-0.0013509649958347,0.0013509649936309,-7.0123916586013e-12,6.8103260668605e-12,-0.0013778639317571,0.0013778639315911,-3.44908286818e-14,-1.1704354204719e-13,-0.0014023400018875,0.0014023399970861,-0.0014023400018715,0.0014023399968216,-0.0014023399971688,0.0014023400018199,-0.0014023399970845,0.0014023400016627,-0.0013509649870947,0.0013509650009502,-0.0013509650012189,0.0013509649868828,0.74522278453779,0.71481564294861,1368840,32768,0.0057246354512621,0.0057246354514584,0.0057246354511787,22.326779545827,22.33431794593,9.3814236366612e-05,9.3814236366612e-05,9.3814236366612e-05,270550.96857935,0.017322421947968
27561600,0.99995944917233,0.016914383041664,0.0056381276805151,0.0056381276807094,0.0056381276804393,-0.0013781426551001,0.0013781426545399,6.3463624906293e-12,-6.9122385417397e-12,5.7990875477384e-15,-5.3867192629535e-13,-0.0014025917063968,0.0014025917107097,-0.0014025917110576,0.0014025917060835,-0.0014025917073057,0.0014025917109198,-0.0014025917117226,0.0014025917065073,-0.0013512693638216,0.0013512693768527,-0.0013512693778973,0.0013512693633077,-6.7675350211564e-13,-8.9389298630051e-14,1.0960559280085e-13,2.0877781315759e-13,-0.0013781426550663,0.001378142654679,-0.0014025917087158,0.0014025917089009,-0.0014025917086933,0.0014025917090625,-0.0014025917086152,0.0014025917092089,-0.0014025917084871,0.0014025917090657,-0.0013512693705296,0.001351269369711,-0.0013512693691138,0.0013512693682893,-0.0013512693712095,0.0013512693681285,-0.0013512693703294,0.0013512693682431,-7.0181901873425e-12,6.7678106597947e-12,-0.001378142654893,0.0013781426547164,-3.1579447034276e-14,-1.1776334358716e-13,-0.0014025917112818,0.0014025917065219,-0.0014025917112841,0.0014025917062362,-0.0014025917065715,0.0014025917112057,-0.0014025917065232,0.0014025917110609,-0.0013512693617452,0.0013512693753728,-0.0013512693758833,0.0013512693613373,0.74641617880293,0.73597160814651,1368840,32768,0.0057257902179643,0.0057257902181824,0.0057257902179011,22.441691239569,22.449209282469,9.473352991655e-05,9.473352991655e-05,9.473352991655e-05,268637.07260961,0.01732594608605
27648000,0.99996045012737,0.016914399455143,0.0056381331516749,0.0056381331518692,0.0056381331515991,-0.0013784215478225,0.0013784215472693,6.3335399558783e-12,-6.9033028735417e-12,2.9936438403532e-15,-5.1506267695348e-13,-0.0014028433131281,0.0014028433174115,-0.001402843317765,0.0014028433127836,-0.0014028433140172,0.0014028433176364,-0.0014028433184098,0.0014028433132176,-0.0013515738905798,0.0013515739035372,-0.0013515739044505,0.001351573889903,-6.821389552408e-13,-1.2127044233005e-13,1.0710884554535e-13,1.7912767483132e-13,-0.0013784215478032,0.0013784215473928,-0.0014028433154164,0.0014028433156217,-0.001402843315423,0.0014028433157679,-0.0014028433153061,0.0014028433159311,-0.001402843315237,0.0014028433157607,-0.0013515738973414,0.0013515738964953,-0.00135157389585,0.0013515738951281,-0.001351573897924,0.0013515738947466,-0.0013515738971834,0.0013515738949632,-6.9905915598734e-12,6.7737198910364e-12,-0.0013784215476055,0.0013784215474547,-2.9127757225834e-14,-8.8333066191344e-14,-0.0014028433179959,0.0014028433132216,-0.001402843317956,0.001402843312958,-0.0014028433132846,0.0014028433179003,-0.0014028433132058,0.0014028433177865,-0.0013515738885095,0.0013515739022765,-0.00135157390259,0.0013515738882727,0.74782126152486,0.75712757334442,1368840,32768,0.0057269456819138,0.0057269456821295,0.0057269456818485,22.556581759165,22.564100619009,9.565265407332e-05,9.565265407332e-05,9.565265407332e-05,266698.69009637,0.017329472378503
27734400,0.99996143315133,0.016914415610544,0.0056381385368084,0.0056381385370028,0.0056381385367327,-0.0013787006195738,0.0013787006190229,6.3305126218907e-12,-6.8841635758812e-12,1.6320854350279e-14,-5.3882921560792e-13,-0.001403094687596,0.0014030946918738,-0.0014030946922264,0.0014030946872541,-0.0014030946884877,0.0014030946921053,-0.0014030946928698,0.0014030946876578,-0.0013518785781142,0.0013518785910689,-0.0013518785920223,0.001351878577541,-7.0958461679468e-13,-1.1170323460168e-13,1.0470544837925e-13,1.7304518417664e-13,-0.0013787006195531,0.0013787006191485,-0.0014030946898881,0.0014030946901017,-0.0014030946899011,0.0014030946902438,-0.0014030946897792,0.0014030946904046,-0.0014030946896994,0.0014030946902418,-0.0013518785848549,0.0013518785840397,-0.0013518785834006,0.0013518785826055,-0.0013518785854487,0.0013518785822596,-0.001351878584725,0.0013518785825998,-6.9920931022376e-12,6.7500007921092e-12,-0.0013787006193612,0.0013787006192045,-3.2697648168117e-14,-8.8299596625581e-14,-0.0014030946924753,0.0014030946877052,-0.001403094692426,0.0014030946874361,-0.0014030946877585,0.0014030946923781,-0.001403094687681,0.0014030946922467,-0.0013518785760856,0.0013518785897557,-0.0013518785901757,0.0013518785758151,0.74946705269921,0.77828353854233,1368840,32768,0.0057281018817535,0.0057281018819707,0.0057281018816894,22.671470086266,22.678991955548,9.6571760690129e-05,9.6571760690129e-05,9.6571760690129e-05,264731.07021811,0.017333000944257
27820800,0.99996239838942,0.016914431514538,0.0056381438381398,0.0056381438383342,0.0056381438380641,-0.0013789798652154,0.0013789798646968,6.3460223980777e-12,-6.8836930608433e-12,3.8418679276896e-14,-5.302909470344e-13,-0.0014033462579876,0.0014033462623144,-0.0014033462626801,0.0014033462577236,-0.0014033462589121,0.0014033462626456,-0.0014033462631979,0.0014033462582204,-0.0013521829980867,0.0013521830109364,-0.0013521830117772,0.0013521829974525,-7.4824255346831e-13,-1.3648303641928e-13,9.781759997476e-14,1.6292625800877e-13,-0.0013789798652217,0.0013789798647872,-0.0014033462603513,0.0014033462605329,-0.0014033462603648,0.0014033462607021,-0.0014033462601846,0.0014033462608573,-0.0014033462600906,0.0014033462607006,-0.0013521830048218,0.0013521830039574,-0.0013521830033827,0.0013521830024802,-0.0013521830054789,0.0013521830019681,-0.0013521830048235,0.0013521830021945,-6.9538650936065e-12,6.803455806154e-12,-0.0013789798649707,0.001378979864884,9.3055980733077e-15,-4.2967393257983e-14,-0.0014033462628617,0.0014033462580859,-0.0014033462629022,0.0014033462578793,-0.0014033462581604,0.0014033462628852,-0.0014033462580206,0.0014033462627373,-0.0013521829959236,0.0013521830095855,-0.0013521830098689,0.0013521829957424,0.7513767353291,0.79943950374023,1368840,32768,0.0057292587961927,0.0057292587963928,0.0057292587960736,22.786358072721,22.793883292087,9.749086458177e-05,9.749086458177e-05,9.749086458177e-05,262736.49171027,0.017336531720054
27907200,0.99996334598966,0.016914447173754,0.0056381490578784,0.0056381490580727,0.0056381490578026,-0.0013792592574761,0.0013792592567777,6.2731898583559e-12,-6.9720620671132e-12,-7.3565340864628e-14,-6.59118452619e-13,-0.001403597832041,0.00140359783607,-0.00140359783651,0.0014035978314646,-0.0014035978328987,0.0014035978363933,-0.0014035978372327,0.0014035978320127,-0.0013524871977204,0.0013524872105968,-0.0013524872115687,0.001352487196999,-7.0431910118198e-13,-7.6115939416181e-14,1.519565931245e-13,1.9627920968723e-13,-0.0013792592573749,0.0013792592570148,-0.0014035978341905,0.0014035978345928,-0.0014035978342286,0.0014035978346863,-0.0014035978340664,0.0014035978350152,-0.001403597833993,0.001403597834653,-0.001352487204008,0.0013524872037966,-0.0013524872030444,0.0013524872021725,-0.0013524872049108,0.0013524872016855,-0.0013524872040601,0.0013524872019853,-7.0196703774179e-12,6.7535632126915e-12,-0.0013792592571846,0.001379259257009,-4.1444851535293e-14,-7.2825069361767e-14,-0.0014035978368318,0.0014035978321615,-0.001403597836841,0.0014035978316239,-0.0014035978320504,0.001403597836477,-0.0014035978318315,0.0014035978365729,-0.0013524871955817,0.0013524872091934,-0.0013524872098518,0.001352487195404,0.75355989698204,0.82059546893814,1368840,32768,0.0057304163114194,0.0057304163117006,0.0057304163112948,22.901245896382,22.908774628627,9.8409967171051e-05,9.8409967171051e-05,9.8409967171051e-05,260710.84935487,0.01734006435927
27993600,0.99996427610275,0.016914462594421,0.0056381541981009,0.0056381541982953,0.0056381541980252,-0.0013795387264282,0.0013795387258078,6.3054521521768e-12,-6.9233482023472e-12,1.461908280882e-14,-5.8353273229911e-13,-0.0014038484718932,0.0014038484759287,-0.0014038484762567,0.0014038484713049,-0.001403848472725,0.0014038484760587,-0.0014038484771942,0.001403848471879,-0.0013527917861718,0.0013527917988535,-0.0013527917995913,0.0013527917855888,-6.695857504973e-13,-2.87645036171e-14,1.5681291535543e-13,2.2540999623228e-13,-0.0013795387262905,0.0013795387259918,-0.0014038484740376,0.0014038484743034,-0.0014038484738443,0.001403848474498,-0.0014038484738769,0.0014038484745586,-0.0014038484736948,0.0014038484742272,-0.0013527917924582,0.0013527917919536,-0.0013527917911112,0.0013527917905328,-0.0013527917932458,0.001352791790241,-0.0013527917923226,0.0013527917906386,-7.0168021121002e-12,6.7390571852524e-12,-0.0013795387261427,0.001379538725958,-2.719858086673e-14,-8.278647093014e-14,-0.0014038484765542,0.0014038484719725,-0.0014038484766174,0.0014038484716498,-0.0014038484720192,0.0014038484763947,-0.0014038484718473,0.001403848476471,-0.001352791783808,0.0013527917973149,-0.0013527917978962,0.0013527917837059,0.75600938318818,0.84175143413605,1368840,32768,0.0057315741382144,0.0057315741383104,0.0057315741379343,23.016133575844,23.023665965166,9.9329068606752e-05,9.9329068606752e-05,9.9329068606752e-05,258644.14231877,0.017343597977153
28080000,0.99996518810316,0.01691447776914,0.0056381592563403,0.0056381592565347,0.0056381592562646,-0.0013797906341495,0.0013797906336846,6.405896098389e-12,-6.8301816367571e-12,6.932352927259e-14,-5.225660359663e-13,-0.0014040715935152,0.0014040715977129,-0.0014040715980388,0.0014040715930445,-0.0014040715943786,0.001404071597875,-0.0014040715988229,0.0014040715936191,-0.0013530683712124,0.0013530683843637,-0.0013530683850821,0.0013530683705846,-6.7400117443266e-13,-4.0513556456307e-14,1.4563731558586e-13,2.1568935201482e-13,-0.0013797906341191,0.001379790633784,-0.0014040715957638,0.0014040715959549,-0.0014040715955643,0.0014040715962318,-0.0014040715956776,0.0014040715963249,-0.0014040715954635,0.0014040715962036,-0.0013530683778034,0.001353068377176,-0.0013530683765504,0.0013530683759882,-0.0013530683782588,0.0013530683755472,-0.001353068377602,0.0013530683757933,-7.016158425882e-12,6.7473336971165e-12,-0.0013797906339874,0.0013797906337822,-6.6872780611867e-14,-1.2394033135501e-13,-0.0014040715984438,0.0014040715935724,-0.0014040715981908,0.001404071593344,-0.0014040715937769,0.0014040715981905,-0.0014040715936701,0.0014040715981217,-0.0013530683691514,0.0013530683826903,-0.0013530683832026,0.001353068368875,0.75870349022563,0.86290739933396,1368840,32768,0.0057326177763022,0.0057326177764449,0.0057326177761686,23.116780284616,23.123413281259,0.00010013424227692,0.00010013424227692,0.00010013424227692,256558.46105135,0.017346783119319
28166400,0.99996608127292,0.016914492687972,0.0056381642292844,0.0056381642294788,0.0056381642292087,-0.0013800089317117,0.0013800089311754,6.3628435900842e-12,-6.8651274515394e-12,1.6735724029236e-14,-5.5831712026581e-13,-0.0014042610705586,0.0014042610748669,-0.0014042610751654,0.0014042610702413,-0.0014042610715362,0.0014042610749747,-0.0014042610758768,0.0014042610707025,-0.0013533109911803,0.0013533110043507,-0.0013533110048045,0.0013533109908509,-6.833090077318e-13,-6.5835577003608e-14,1.2933640180288e-13,2.0244541837261e-13,-0.0013800089316896,0.0013800089313113,-0.0014042610729,0.0014042610730372,-0.0014042610728485,0.0014042610732853,-0.0014042610726352,0.0014042610734159,-0.0014042610726714,0.0014042610731839,-0.0013533109976429,0.0013533109973134,-0.0013533109961942,0.0013533109958571,-0.0013533109983853,0.001353310995686,-0.0013533109978434,0.0013533109958015,-6.9918762853318e-12,6.7636473752154e-12,-0.0013800089315194,0.0013800089313391,-5.8427979771207e-14,-1.1848420391831e-13,-0.0014042610754459,0.0014042610706903,-0.0014042610754609,0.0014042610703476,-0.0014042610708409,0.0014042610753579,-0.001404261070574,0.0014042610752728,-0.0013533109889125,0.0013533110026376,-0.0013533110031927,0.0013533109890082,0.76161266498298,0.88406336453187,1368840,32768,0.005733522166934,0.0057335221671695,0.0057335221668748,23.200144854768,23.205654890634,0.00010080115883814,0.00010080115883814,0.00010080115883814,254457.48457195,0.017349543296117
28252800,0.99996695582938,0.016914507355681,0.0056381691185207,0.0056381691187151,0.005638169118445,-0.0013802248234136,0.0013802248229002,6.3561381919883e-12,-6.8585872395736e-12,3.8467207206166e-14,-5.4837601219513e-13,-0.0014044477786672,0.0014044477829419,-0.0014044477834014,0.0014044477784962,-0.0014044477798255,0.0014044477830202,-0.001404447784139,0.0014044477790106,-0.0013535511064568,0.0013535511195148,-0.0013535511200816,0.0013535511061043,-6.4763692101897e-13,-1.8543198223905e-14,1.5392306246198e-13,2.0860859773877e-13,-0.0013802248233398,0.0013802248230106,-0.0014044477811159,0.0014044477809938,-0.0014044477809834,0.0014044477813356,-0.0014044477810441,0.001404447781645,-0.0014044477811471,0.0014044477814931,-0.0013535511127993,0.0013535511123942,-0.0013535511113638,0.0013535511112012,-0.001353551113834,0.001353551110516,-0.0013535511130809,0.0013535511110334,-6.9735413748625e-12,6.7685029327638e-12,-0.0013802248232206,0.0013802248230658,-2.0702779309009e-14,-6.2282391433341e-14,-0.0014044477836694,0.0014044477788544,-0.0014044477837589,0.001404447778567,-0.0014044477790019,0.0014044477836805,-0.001404447778616,0.0014044477834479,-0.0013535511042942,0.0013535511177257,-0.0013535511183263,0.00135355110399,0.76470634457299,0.90521932972977,1368840,32768,0.005734416587572,0.0057344165876478,0.0057344165875151,23.282486498416,23.287896500009,0.00010145989198732,0.00010145989198732,0.00010145989198732,252340.24629054,0.01735227305724
28339200,0.99996781204129,0.016914521777159,0.0056381739256802,0.0056381739258746,0.0056381739256045,-0.0013804399386419,0.0013804399380464,6.3131354468691e-12,-6.8894601199577e-12,2.1433756978143e-15,-5.8693674595589e-13,-0.0014046329396048,0.0014046329439108,-0.0014046329442592,0.0014046329392537,-0.0014046329406436,0.0014046329440272,-0.0014046329449177,0.0014046329396612,-0.0013537907527741,0.0013537907657267,-0.0013537907665977,0.0013537907519514,-6.7212496704362e-13,-4.0133832762488e-14,1.3097070481722e-13,1.8417343245159e-13,-0.0013804399385907,0.0013804399382195,-0.0014046329419554,0.0014046329421673,-0.0014046329419319,0.001404632942287,-0.0014046329418172,0.0014046329424645,-0.00140463294179,0.0014046329422861,-0.0013537907594615,0.0013537907586086,-0.0013537907578733,0.0013537907573636,-0.0013537907600081,0.0013537907567537,-0.0013537907592992,0.0013537907571957,-6.9394018295669e-12,6.7908221332805e-12,-0.0013804399383948,0.001380439938286,-2.288512440457e-14,-6.3276419889983e-14,-0.0014046329444738,0.0014046329397448,-0.0014046329445033,0.0014046329394429,-0.0014046329398415,0.0014046329445221,-0.0014046329397228,0.0014046329443959,-0.0013537907506049,0.0013537907643821,-0.0013537907646247,0.0013537907504385,0.76795500289562,0.92637529492768,1368840,32768,0.0057353077873252,0.0057353077875777,0.0057353077873098,23.36473563483,23.370138109383,0.00010211788507864,0.00010211788507864,0.00010211788507864,250213.75169381,0.01735499300278
28425600,0.99996865018064,0.016914535956716,0.0056381786521991,0.0056381786523935,0.0056381786521233,-0.0013806542727647,0.0013806542722077,6.3214915298318e-12,-6.8665403495528e-12,2.8117758668832e-14,-5.6399674087494e-13,-0.001404818492765,0.0014048184969906,-0.001404818497317,0.0014048184923811,-0.0014048184936582,0.0014048184971918,-0.0014048184980274,0.0014048184928389,-0.0013540284280746,0.0013540284405185,-0.0013540284418249,0.0013540284273791,-6.8989754175072e-13,-5.5385337427724e-14,1.3976961248722e-13,1.9079534780368e-13,-0.0013806542727368,0.0013806542723599,-0.001404818495037,0.0014048184952107,-0.0014048184950593,0.0014048184953778,-0.001404818494901,0.00140481849552,-0.0014048184947965,0.001404818495416,-0.0013540284345913,0.0013540284338408,-0.0013540284332249,0.0013540284323481,-0.0013540284350691,0.001354028431908,-0.0013540284343783,0.0013540284322614,-6.9427427275048e-12,6.7727164511026e-12,-0.0013806542725265,0.0013806542724061,-2.8886529301064e-14,-6.7253945438132e-14,-0.0014048184975593,0.0014048184928696,-0.0014048184975718,0.0014048184925477,-0.0014048184928439,0.0014048184974858,-0.0014048184927822,0.0014048184973856,-0.0013540284258057,0.0013540284393442,-0.00135402843959,0.0013540284254537,0.77133100346089,0.94753126012557,1368840,32768,0.0057361957492503,0.0057361957495078,0.0057361957491681,23.446975761599,23.452379718759,0.00010277580609279,0.00010277580609279,0.00010277580609279,248109.40678464,0.017357703080767
28512000,0.99996947051847,0.016914549898086,0.0056381832993224,0.0056381832995167,0.0056381832992466,-0.0013808677247127,0.0013808677242109,6.3367320495385e-12,-6.8331561929452e-12,4.0749725712087e-14,-5.2819154058159e-13,-0.0014050036553676,0.0014050036596972,-0.0014050036599691,0.0014050036550656,-0.0014050036562496,0.0014050036598636,-0.0014050036606156,0.0014050036554759,-0.0013542646028548,0.0013542646157844,-0.0013542646165325,0.001354264602343,-6.4466577649128e-13,-3.2988315759009e-14,1.7502488840392e-13,2.1931534418443e-13,-0.0013808677246692,0.0013808677243511,-0.0014050036575959,0.0014050036579117,-0.001405003657636,0.0014050036580498,-0.0014050036575521,0.0014050036581947,-0.0014050036574801,0.0014050036580091,-0.0013542646092817,0.0013542646087684,-0.001354264608022,0.0013542646074234,-0.0013542646099864,0.0013542646069441,-0.0013542646093223,0.0013542646072675,-6.948847952759e-12,6.7485958350297e-12,-0.0013808677245159,0.0013808677243718,-4.4164239048107e-14,-7.5651394784171e-14,-0.0014050036601716,0.0014050036554917,-0.0014050036601708,0.0014050036551945,-0.001405003655543,0.0014050036601283,-0.0014050036554481,0.0014050036600569,-0.0013542646006691,0.0013542646143264,-0.001354264614698,0.0013542646005247,0.77480855585704,0.96868722532349,1368840,32768,0.0057370800544705,0.0057370800546706,0.0057370800543962,23.529214963256,23.534621328134,0.00010343371970605,0.00010343371970605,0.00010343371970605,246024.97880971,0.017360402010044
28598400,0.99997027332438,0.016914563574426,0.0056381878581026,0.005638187858297,0.0056381878580269,-0.001381080200424,0.0013810801998781,6.3089040614292e-12,-6.8652032727525e-12,2.4040765571114e-14,-5.4795961315113e-13,-0.0014051883912726,0.0014051883954894,-0.00140518839584,0.0014051883908691,-0.0014051883921015,0.0014051883956752,-0.0014051883964575,0.001405188391389,-0.0013544991626007,0.0013544991752668,-0.001354499176244,0.0013544991615754,-6.5202908095915e-13,-3.728089050615e-14,1.5118267559068e-13,1.7913807157253e-13,-0.0013810802003831,0.0013810802000344,-0.0014051883934824,0.0014051883937547,-0.001405188393498,0.0014051883938028,-0.0014051883933368,0.0014051883939865,-0.0014051883933123,0.0014051883938389,-0.0013544991688939,0.0013544991682419,-0.0013544991679596,0.001354499166813,-0.0013544991695175,0.0013544991663319,-0.0013544991691005,0.0013544991665859,-6.9349110844031e-12,6.7669002170198e-12,-0.0013810802001868,0.0013810802000808,-2.9737797413055e-14,-4.5588019082016e-14,-0.0014051883960519,0.0014051883913533,-0.0014051883959422,0.001405188391054,-0.0014051883914228,0.0014051883959345,-0.0014051883912626,0.0014051883958517,-0.0013544991602433,0.0013544991740044,-0.0013544991739748,0.0013544991599763,0.77665751201351,0.9587823118705,1368840,32768,0.0057379603135508,0.0057379603137896,0.0057379603134792,23.611454818468,23.616862937509,0.00010409163854774,0.00010409163854774,0.00010409163854774,243966.15146692,0.01736308860028
28684800,0.99997105886651,0.016914576943896,0.0056381923145923,0.0056381923147867,0.0056381923145166,-0.001381225116608,0.00138122511604,6.3160615927715e-12,-6.8824398050118e-12,1.1638673858267e-14,-5.4919981055807e-13,-0.0014053376663209,0.0014053376705131,-0.0014053376708826,0.0014053376659686,-0.0014053376671644,0.0014053376708016,-0.0014053376716209,0.0014053376663421,-0.0013546359481993,0.0013546359609981,-0.0013546359619786,0.0013546359475289,-6.6718547088301e-13,-6.3797903959003e-14,1.4519221153643e-13,2.022596446361e-13,-0.0013812251165519,0.0013812251161956,-0.0014053376685794,0.0014053376687924,-0.0014053376686132,0.0014053376690033,-0.0014053376683957,0.0014053376691147,-0.0014053376683359,0.001405337669016,-0.0013546359548175,0.0013546359541401,-0.0013546359533078,0.0013546359526782,-0.0013546359554954,0.0013546359521128,-0.0013546359546018,0.0013546359524824,-6.9804566341943e-12,6.7455858093368e-12,-0.0013812251163833,0.0013812251162299,-3.2316248054922e-14,-7.6795242193359e-14,-0.0014053376711278,0.0014053376664432,-0.0014053376710904,0.001405337666055,-0.0014053376664358,0.0014053376709984,-0.0014053376663702,0.0014053376709489,-0.001354635946113,0.0013546359597134,-0.0013546359600815,0.0013546359458762,0.77589798324216,0.91361234623909,1368840,32768,0.0057385606230025,0.0057385606232085,0.0057385606229305,23.693695717903,23.699104546883,0.00010474956574322,0.00010474956574322,0.00010474956574322,243737.56765597,0.017364920982582
28771200,0.99997182741134,0.016914589994963,0.0056381966649481,0.0056381966651425,0.0056381966648723,-0.0013812889825095,0.0013812889819051,6.2932677155794e-12,-6.9031397608776e-12,-9.5561198318046e-15,-5.8690321756839e-13,-0.0014054465683227,0.0014054465725952,-0.0014054465729785,0.0014054465680077,-0.0014054465693021,0.0014054465728937,-0.0014054465736538,0.0014054465684363,-0.0013546546237881,0.0013546546366952,-0.001354654637542,0.0013546546232131,-6.912284422691e-13,-7.128085183067e-14,1.4116751095885e-13,2.0242819831044e-13,-0.0013812889824425,0.0013812889820881,-0.0014054465706971,0.0014054465708744,-0.0014054465706527,0.0014054465710282,-0.0014054465705156,0.0014054465712488,-0.0014054465704595,0.0014054465709844,-0.0013546546305111,0.0013546546295231,-0.00135465462907,0.0013546546281701,-0.0013546546310266,0.001354654627603,-0.001354654630359,0.0013546546282326,-7.0038655073046e-12,6.7198916530992e-12,-0.0013812889822939,0.0013812889821031,-4.795688789117e-14,-9.6109181577534e-14,-0.0014054465732925,0.0014054465685413,-0.0014054465732759,0.0014054465683452,-0.0014054465686004,0.0014054465731125,-0.0014054465684365,0.001405446572986,-0.0013546546214555,0.0013546546351296,-0.0013546546355442,0.001354654621206,0.77417287568101,0.86844238060767,1368840,32768,0.005738825098192,0.0057388250984323,0.0057388250981556,23.775936912154,23.781346156258,0.00010540749529723,0.00010540749529723,0.00010540749529723,245817.3382689,0.017365728575042
28857600,0.99997258035911,0.016914602824091,0.0056382009413242,0.0056382009415186,0.0056382009412485,-0.0013813940142573,0.001381394013737,6.3280524323419e-12,-6.8397042282014e-12,8.5720616588122e-15,-5.273376549025e-13,-0.0014056022580469,0.0014056022623532,-0.0014056022626745,0.0014056022577848,-0.0014056022589722,0.0014056022626102,-0.0014056022633769,0.0014056022581641,-0.0013547103756987,0.0013547103884554,-0.0013547103895106,0.0013547103750159,-6.7558930238702e-13,-9.700838940147e-14,1.1689866412017e-13,1.7183466233372e-13,-0.001381394014249,0.0013813940138375,-0.0014056022604305,0.0014056022605956,-0.001405602260428,0.0014056022607217,-0.0014056022603484,0.0014056022609346,-0.0014056022602359,0.0014056022607075,-0.0013547103823451,0.0013547103814556,-0.0013547103809019,0.0013547103802549,-0.0013547103828974,0.0013547103796071,-0.0013547103823174,0.001354710380219,-6.9559657941374e-12,6.7393695286517e-12,-0.0013813940140489,0.0013813940139154,-4.0224535873923e-14,-8.2484068403624e-14,-0.0014056022629595,0.0014056022582274,-0.0014056022629401,0.001405602257935,-0.0014056022582151,0.0014056022628057,-0.001405602258215,0.0014056022628142,-0.0013547103737185,0.0013547103872932,-0.0013547103876166,0.0013547103732994,0.77679404007381,0.9002125475851,1368840,32768,0.0057392601345814,0.0057392601347723,0.0057392601345194,23.883510358208,23.890533426894,0.00010626808286566,0.00010626808286566,0.00010626808286566,248243.69906923,0.017367056675585
28944000,0.99997331913667,0.016914615268199,0.0056382050893602,0.0056382050895546,0.0056382050892845,-0.0013817274333586,0.0013817274328229,6.3133224852729e-12,-6.8332351317102e-12,1.0208217557726e-15,-5.1495820955665e-13,-0.0014059030316048,0.0014059030358695,-0.0014059030362052,0.0014059030312445,-0.0014059030325786,0.0014059030361443,-0.0014059030368459,0.0014059030317607,-0.0013550721436781,0.0013550721566247,-0.0013550721575704,0.0013550721431786,-6.721529367774e-13,-1.133765658355e-13,1.3378297184557e-13,1.9102798775551e-13,-0.0013817274333456,0.0013817274329431,-0.0014059030339006,0.001405903034129,-0.0014059030338787,0.00140590303428,-0.0014059030338828,0.0014059030344061,-0.0014059030337413,0.0014059030341913,-0.0013550721503594,0.0013550721495412,-0.0013550721488715,0.0013550721483,-0.0013550721510829,0.0013550721478579,-0.0013550721502594,0.0013550721482152,-6.9642467764532e-12,6.7097533745813e-12,-0.0013817274331573,0.0013817274329925,-4.5210324737966e-14,-8.9624673792442e-14,-0.0014059030364888,0.001405903031733,-0.0014059030363903,0.0014059030314687,-0.0014059030317527,0.0014059030363818,-0.0014059030316853,0.0014059030363075,-0.0013550721416218,0.0013550721552339,-0.0013550721556735,0.0013550721413067,0.76796940179245,0.76205462782228,1368840,32768,0.00574064149313,0.005740641493352,0.0057406414930645,24.019404233033,24.028279575084,0.00010735523386426,0.00010735523386426,0.00010735523386426,245906.28195765,0.017371272506217
29030400,0.99997404391489,0.016914627333149,0.0056382091110102,0.0056382091112046,0.0056382091109345,-0.001381660561843,0.0013816605614584,6.3666527384232e-12,-6.7280949907282e-12,1.0132555163277e-13,-3.6807754960116e-13,-0.0014059988642576,0.0014059988684833,-0.0014059988686486,0.0014059988639631,-0.0014059988648983,0.0014059988686218,-0.0014059988692516,0.0014059988644438,-0.0013548544714806,0.0013548544847382,-0.0013548544854669,0.0013548544710624,-7.3740770799481e-13,-2.2481763197566e-13,-6.4491559238899e-15,4.6238352155963e-14,-0.0013816605620064,0.0013816605613929,-0.001405998866379,0.0014059988666982,-0.0014059988665525,0.0014059988668718,-0.0014059988666171,0.0014059988666382,-0.0014059988661181,0.0014059988666968,-0.0013548544785138,0.0013548544769332,-0.0013548544767185,0.0013548544756979,-0.0013548544797209,0.0013548544759029,-0.0013548544781746,0.0013548544759126,-6.9361377528116e-12,6.686250857273e-12,-0.0013816605617634,0.0013816605614965,-1.3863635298987e-13,-1.7845731295747e-13,-0.0014059988691225,0.001405998864374,-0.0014059988690672,0.0014059988640041,-0.0014059988643332,0.0014059988688812,-0.001405998864414,0.0014059988690056,-0.0013548544692654,0.0013548544828779,-0.001354854483518,0.0013548544689834,0.75893556271296,0.64315694384157,1368840,32768,0.0057403641985876,0.0057403641987902,0.0057403641985016,24.156980893349,24.166025723274,0.00010845584714679,0.00010845584714679,0.00010845584714679,254906.44316471,0.017370427086722
29116800,0.99997475479694,0.016914639073005,0.0056382130242954,0.0056382130244897,0.0056382130242196,-0.0013816038111092,0.0013816038105063,6.2500606531726e-12,-6.8590547547031e-12,-6.4184245097723e-14,-5.3300265831113e-13,-0.0014061077560166,0.0014061077600481,-0.001406107760416,0.0014061077556566,-0.0014061077568695,0.0014061077603127,-0.0014061077612118,0.001406107755993,-0.0013546464591866,0.0013546464712814,-0.0013546464725425,0.0013546464572682,-6.0312110447602e-13,-9.1652994181588e-14,1.9927873570083e-13,1.3429447092551e-13,-0.0013816038110218,0.0013816038107065,-0.0014061077581907,0.0014061077586429,-0.0014061077582326,0.0014061077586579,-0.0014061077580279,0.0014061077588499,-0.0014061077581334,0.0014061077585809,-0.0013546464653311,0.0013546464647255,-0.0013546464640936,0.0013546464628974,-0.0013546464654902,0.0013546464625339,-0.0013546464651489,0.0013546464626354,-6.9564026043226e-12,6.6804409759374e-12,-0.0013816038108921,0.0013816038106959,-1.071209040005e-13,-3.0290721698068e-14,-0.0014061077609676,0.0014061077560666,-0.0014061077607429,0.001406107755777,-0.0014061077562479,0.0014061077606287,-0.0014061077560731,0.0014061077607025,-0.0013546464566012,0.0013546464705503,-0.0013546464696924,0.0013546464562267,0.75302572872455,0.57925683324608,1368840,32768,0.0057401288829629,0.0057401288831966,0.005740128882906,24.29470828422,24.303771871463,0.00010955766627376,0.00010955766627376,0.00010955766627376,263979.26741175,0.017369709626067
29203200,0.99997545188328,0.016914650588008,0.0056382168626296,0.005638216862824,0.0056382168625539,-0.0013816757921065,0.0013816757915785,6.1908453298071e-12,-6.8184997583363e-12,-2.6330960313119e-14,-4.4369676889769e-13,-0.0014062826094152,0.0014062826136437,-0.0014062826140203,0.0014062826091512,-0.0014062826102304,0.0014062826138256,-0.0014062826144525,0.0014062826094007,-0.0013546258766191,0.0013546258893,-0.001354625890638,0.0013546258758521,-6.3613439006045e-13,-1.7543796402004e-13,1.1789098674657e-13,2.2662425325521e-14,-0.0013816757921485,0.0013816757916505,-0.0014062826115173,0.0014062826117,-0.0014062826117297,0.0014062826120254,-0.0014062826116398,0.00140628261203,-0.001406282611559,0.0014062826119739,-0.001354625883672,0.0013546258823836,-0.0013546258825011,0.001354625880598,-0.0013546258841482,0.0013546258809813,-0.0013546258837662,0.0013546258807849,-6.847706042575e-12,6.6892112962454e-12,-0.0013816757918824,0.0013816757918199,-6.7242063448177e-14,4.0388354398791e-14,-0.0014062826142962,0.0014062826094438,-0.0014062826140877,0.0014062826092516,-0.0014062826095176,0.0014062826141433,-0.0014062826095331,0.0014062826140858,-0.0013546258745566,0.0013546258884356,-0.001354625888581,0.0013546258742551,0.75331741245792,0.60854115325235,1368840,32768,0.0057404269922289,0.0057404269924651,0.0057404269922649,24.432449145328,24.441518019654,0.00011065959316262,0.00011065959316262,0.00011065959316262,269491.07091868,0.017370619835842
29289600,0.99997613527729,0.01691466175595,0.0056382205852772,0.0056382205854715,0.0056382205852014,-0.0013820129171585,0.0013820129166568,6.2228821011057e-12,-6.7896612863907e-12,-2.9231165831478e-15,-4.1933795421923e-13,-0.0014065908528984,0.0014065908571649,-0.0014065908575052,0.0014065908525436,-0.0014065908538183,0.0014065908574587,-0.0014065908583464,0.001406590853007,-0.0013549925490909,0.0013549925620104,-0.0013549925632548,0.0013549925483283,-7.343736242134e-13,-2.7564913793158e-13,1.0092368155669e-13,1.889001115842e-15,-0.0013820129172406,0.0013820129166868,-0.0014065908549896,0.0014065908552821,-0.0014065908553196,0.0014065908554123,-0.0014065908550949,0.0014065908558148,-0.0014065908552112,0.0014065908555886,-0.001354992555892,0.0013549925550021,-0.0013549925547272,0.0013549925540887,-0.0013549925570394,0.0013549925532722,-0.0013549925557722,0.0013549925536014,-6.7962682610227e-12,6.7442674966692e-12,-0.001382012916898,0.0013820129168872,-7.8218316366479e-14,3.230754243852e-14,-0.0014065908579037,0.0014065908530414,-0.0014065908576074,0.0014065908529125,-0.0014065908531445,0.0014065908578798,-0.0014065908529828,0.0014065908577212,-0.0013549925472164,0.0013549925610884,-0.0013549925610828,0.0013549925467028,0.74531810350697,0.51172604602815,1368840,32768,0.0057418237368116,0.0057418237370437,0.0057418237367492,24.570192168664,24.579264167844,0.00011176153734931,0.00011176153734931,0.00011176153734931,267376.48292744,0.017374882530626
29376000,0.99997680508562,0.016914672627041,0.0056382242089742,0.0056382242091686,0.0056382242088985,-0.0013819830038385,0.0013819830032789,6.2212670622088e-12,-6.78533871256e-12,-1.2157863879722e-14,-4.4349653972043e-13,-0.0014067099147405,0.0014067099189929,-0.0014067099193688,0.001406709914492,-0.0014067099157566,0.0014067099192456,-0.0014067099200112,0.001406709914749,-0.0013548279193626,0.0013548279319588,-0.0013548279330871,0.0013548279181946,-5.235430355314e-13,-5.0196231245474e-14,2.2473772265213e-13,1.5381853624342e-13,-0.001381983003754,0.0013819830034444,-0.0014067099168839,0.0014067099173351,-0.0014067099171061,0.0014067099173335,-0.0014067099168731,0.0014067099176448,-0.0014067099171416,0.0014067099173328,-0.0013548279251455,0.001354827924872,-0.001354827924298,0.0013548279233239,-0.0013548279261911,0.0013548279232785,-0.0013548279254647,0.0013548279235338,-6.9138613745162e-12,6.6210469668542e-12,-0.0013819830036492,0.0013819830034328,-1.3643406732701e-13,-5.300002794435e-14,-0.0014067099196854,0.0014067099150532,-0.001406709919468,0.0014067099146031,-0.0014067099151993,0.0014067099196141,-0.0014067099147766,0.0014067099193409,-0.0013548279169036,0.0013548279309216,-0.0013548279306909,0.0013548279163743,0.74020403246221,0.4603940011284,1368840,32768,0.0057416996336599,0.0057416996338277,0.0057416996335866,24.707934752867,24.717010316034,0.00011286347802294,0.00011286347802294,0.00011286347802294,275786.47820807,0.017374504375578
29462400,0.9999774614182,0.01691468312236,0.0056382277074138,0.0056382277076082,0.0056382277073381,-0.0013820757782056,0.0013820757776652,6.2558882692605e-12,-6.7857003485711e-12,-4.3953304315547e-14,-5.2846400284629e-13,-0.0014068945108305,0.0014068945152118,-0.0014068945155236,0.0014068945106341,-0.0014068945117265,0.0014068945153006,-0.0014068945161177,0.0014068945109101,-0.0013548395168869,0.0013548395294333,-0.0013548395303132,0.0013548395154272,-6.1708600138742e-13,-8.9429503284179e-14,1.7917629099318e-13,9.3773841155875e-14,-0.0013820757781538,0.0013820757778082,-0.0014068945130764,0.001406894513532,-0.001406894513125,0.0014068945137588,-0.0014068945130811,0.0014068945138636,-0.0014068945128702,0.0014068945136111,-0.0013548395228962,0.0013548395219338,-0.0013548395213403,0.001354839520726,-0.0013548395233619,0.0013548395202221,-0.0013548395227665,0.0013548395201581,-6.8617512017403e-12,6.7066402932133e-12,-0.0013820757779546,0.0013820757778665,-4.5931537999513e-14,5.1942295551467e-14,-0.0014068945158347,0.0014068945112515,-0.001406894515568,0.0014068945108139,-0.0014068945113158,0.0014068945157292,-0.0014068945110501,0.0014068945155155,-0.0013548395139057,0.0013548395278458,-0.0013548395275906,0.0013548395134088,0.72939130229818,0.3286719813789,1368840,32768,0.0057420838999567,0.0057420839001455,0.005742083899854,24.845676707236,24.854756464224,0.00011396541365788,0.00011396541365788,0.00011396541365788,280749.60533872,0.017375677494832
29548800,0.9999781043882,0.016914693360787,0.0056382311202227,0.005638231120417,0.0056382311201469,-0.0013818797067974,0.0013818797062079,6.1918229617058e-12,-6.7856735846828e-12,-1.6511819104672e-14,-5.2057447915994e-13,-0.0014069333989234,0.0014069334029685,-0.0014069334034513,0.0014069333985255,-0.0014069333997795,0.0014069334031833,-0.0014069334039262,0.0014069333988967,-0.0013544302943833,0.0013544303069582,-0.0013544303076638,0.0013544302935961,-7.7532946127599e-13,-2.2649472780036e-13,2.9956731901227e-15,2.8698505633294e-14,-0.0013818797068656,0.0013818797062482,-0.0014069334013485,0.0014069334013088,-0.0014069334013301,0.0014069334015259,-0.0014069334012164,0.001406933401716,-0.0014069334008732,0.0014069334014408,-0.0013544303008751,0.0013544302995406,-0.0013544302993368,0.0013544302982867,-0.0013544303009241,0.0013544302977809,-0.0013544303005825,0.0013544302977283,-6.9184034710523e-12,6.5865225509631e-12,-0.0013818797065832,0.0013818797064069,-4.5817717947226e-14,-5.8386628093296e-14,-0.0014069334036431,0.0014069333989767,-0.0014069334036379,0.0014069333986687,-0.0014069333991312,0.0014069334036079,-0.0014069333989266,0.0014069334033403,-0.0013544302919012,0.0013544303054353,-0.0013544303055805,0.0013544302920549,0.72638015434334,0.31012996753392,1368840,32768,0.0057412713426613,0.0057412713428861,0.00574127134263,24.983419116746,24.992502612414,0.00011506735293396,0.00011506735293396,0.00011506735293396,294270.42080483,0.017373198411461
29635200,0.99997873359213,0.016914703435349,0.0056382344784101,0.0056382344786045,0.0056382344783344,-0.0013820359334234,0.0013820359328701,6.1975983146845e-12,-6.7483126083879e-12,-1.2329917447133e-15,-5.2390881847463e-13,-0.0014071400449043,0.0014071400490723,-0.0014071400494353,0.0014071400445498,-0.0014071400457905,0.0014071400492905,-0.0014071400500695,0.0014071400449939,-0.0013545445941403,0.0013545446068928,-0.0013545446078293,0.0013545445935962,-6.9311226707248e-13,-1.2756380889555e-13,1.4589536652611e-13,1.3261853683003e-13,-0.0013820359334114,0.0013820359329852,-0.0014071400471301,0.0014071400473464,-0.0014071400471539,0.0014071400474857,-0.0014071400470268,0.0014071400476524,-0.001407140046983,0.0014071400474572,-0.001354544600714,0.0013545446000368,-0.0013545445993247,0.0013545445985348,-0.0013545446014162,0.0013545445981488,-0.0013545446007254,0.001354544598398,-6.847142765665e-12,6.6259771103593e-12,-0.0013820359331973,0.0013820359330621,-5.6422217516455e-14,-3.0382130670293e-14,-0.0014071400496554,0.0014071400449812,-0.001407140049594,0.0014071400447399,-0.0014071400450574,0.0014071400495426,-0.0014071400449503,0.0014071400494492,-0.0013545445920944,0.0013545446055609,-0.0013545446059538,0.0013545445918652,0.73052675523323,0.39400691979345,1368840,32768,0.0057419185499625,0.005741918550176,0.005741918549892,25.107154439683,25.115347682611,0.00011605723551746,0.00011605723551746,0.00011605723551746,296692.55362298,0.017375173821144
29721600,0.99997934866467,0.016914713342399,0.00563823778076,0.0056382377809544,0.0056382377806843,-0.001382532009295,0.0013825320087421,6.1932610501261e-12,-6.7499347941254e-12,-1.1799227776985e-14,-5.1701914659644e-13,-0.0014074956890962,0.0014074956932767,-0.0014074956936317,0.0014074956887503,-0.0014074956899863,0.0014074956935089,-0.0014074956942764,0.0014074956891852,-0.0013551744336263,0.0013551744463091,-0.001355174447215,0.0013551744329826,-6.8354711810475e-13,-1.3541303969518e-13,1.4172219989584e-13,1.3296264396485e-13,-0.0013825320092834,0.0013825320088583,-0.0014074956913311,0.0014074956915487,-0.0014074956913643,0.0014074956916793,-0.0014074956912283,0.0014074956918508,-0.0014074956911747,0.001407495691659,-0.0013551744401713,0.00135517443943,-0.0013551744388105,0.0013551744379767,-0.0013551744407998,0.0013551744375933,-0.0013551744401518,0.0013551744378358,-6.8380971596491e-12,6.632435971869e-12,-0.0013825320090687,0.0013825320089377,-5.6122226680969e-14,-3.4807407245837e-14,-0.0014074956938659,0.0014074956891978,-0.0014074956938048,0.0014074956889506,-0.001407495689262,0.0014074956937716,-0.0014074956891562,0.0014074956936809,-0.0013551744315068,0.0013551744450078,-0.001355174445299,0.0013551744313105,0.73490041839749,0.47788387205299,1368840,32768,0.005743973920727,0.0057439739209437,0.0057439739206635,25.216462870103,25.223709074396,0.00011693170296082,0.00011693170296082,0.00011693170296082,288113.32364691,0.017381446312251
29808000,0.99997994977409,0.016914723085482,0.0056382410284543,0.0056382410286487,0.0056382410283786,-0.0013830104499502,0.001383010449392,6.1980807411232e-12,-6.7553766278811e-12,6.0510798495466e-15,-5.2503031362549e-13,-0.0014078426497895,0.0014078426539831,-0.0014078426543475,0.0014078426495204,-0.0014078426507681,0.0014078426541725,-0.0014078426549861,0.0014078426497969,-0.0013557782487569,0.0013557782610636,-0.001355778261848,0.0013557782477824,-7.2610558267875e-13,-1.5106000286766e-13,1.3530186662085e-13,8.9528441438157e-14,-0.0013830104499592,0.0013830104494952,-0.0014078426521007,0.0014078426522579,-0.0014078426521429,0.0014078426523937,-0.0014078426519983,0.0014078426525244,-0.0014078426519554,0.0014078426524047,-0.0013557782548815,0.0013557782543767,-0.0013557782537076,0.0013557782528718,-0.0013557782554858,0.0013557782522846,-0.0013557782548191,0.0013557782529731,-6.8227382759113e-12,6.6586844641133e-12,-0.0013830104497296,0.0013830104495935,-8.8330419213384e-14,-3.0346367056964e-14,-0.001407842654664,0.0014078426499196,-0.0014078426544898,0.0014078426497464,-0.0014078426500376,0.0014078426544206,-0.0014078426498693,0.0014078426544631,-0.0013557782464329,0.0013557782599224,-0.0013557782597874,0.0013557782463796,0.73942731378451,0.56176082431256,1368840,32768,0.0057459562149568,0.005745956215189,0.0057459562149175,25.32490885205,25.332070466182,0.0001177992708164,0.0001177992708164,0.0001177992708164,280061.74672998,0.017387495846746
29894400,0.99998053711912,0.016914732666586,0.0056382442221557,0.0056382442223501,0.00563824422208,-0.0013834730733788,0.0013834730728766,6.2206650217771e-12,-6.7841628661283e-12,3.7734758993721e-14,-4.8921343721824e-13,-0.0014081795602577,0.0014081795644744,-0.0014081795648029,0.0014081795599821,-0.0014081795610632,0.0014081795647115,-0.0014081795654341,0.0014081795603246,-0.0013563603008427,0.0013563603137245,-0.0013563603145242,0.0013563603003575,-7.8685022697156e-13,-2.166432052282e-13,5.498843778803e-14,7.7909355216795e-14,-0.0013834730734566,0.0013834730729194,-0.0014081795625963,0.0014081795626467,-0.0014081795626371,0.0014081795628974,-0.0014081795624214,0.0014081795629667,-0.0014081795623862,0.0014081795627901,-0.0013563603078334,0.0013563603066061,-0.0013563603061666,0.0013563603051691,-0.0013563603086782,0.0013563603048128,-0.0013563603077486,0.0013563603051551,-6.8637013186361e-12,6.6679938267775e-12,-0.0013834730731561,0.0013834730730549,-1.3648994797284e-14,-2.3688041052488e-14,-0.0014081795650029,0.0014081795602879,-0.0014081795647927,0.0014081795601804,-0.0014081795604011,0.0014081795649162,-0.0014081795601197,0.0014081795648046,-0.0013563602986902,0.0013563603122794,-0.0013563603125574,0.0013563602986612,0.74408184271782,0.64563777657207,1368840,32768,0.0057478729643015,0.0057478729645513,0.0057478729642097,25.433276095564,25.440431857966,0.00011866620876451,0.00011866620876451,0.00011866620876451,272487.60708476,0.017393345399929
29980800,0.99998111090125,0.016914742123363,0.0056382473744149,0.0056382473746093,0.0056382473743392,-0.0013839208998148,0.001383920899283,6.2109692150362e-12,-6.7532001649588e-12,1.6577375925486e-14,-5.4128187597495e-13,-0.0014085088292296,0.0014085088335551,-0.001408508833751,0.0014085088290452,-0.0014085088301922,0.0014085088337759,-0.0014085088344844,0.0014085088295195,-0.0013569206184072,0.0013569206308973,-0.0013569206312955,0.001356920617092,-6.6250993724677e-13,-6.1845404782983e-14,1.3200037924373e-13,1.5867097624e-13,-0.0013839208997863,0.0013839208994133,-0.0014085088314883,0.0014085088318853,-0.0014085088316913,0.0014085088319577,-0.0014085088313934,0.0014085088321249,-0.0014085088313383,0.0014085088318289,-0.0013569206240902,0.0013569206235142,-0.0013569206227022,0.001356920622245,-0.0013569206253212,0.0013569206223614,-0.0013569206239274,0.0013569206221357,-6.8014490439298e-12,6.6898515708031e-12,-0.0013839208995787,0.0013839208994911,-3.4601648825733e-14,-4.8317700398008e-14,-0.0014085088340253,0.0014085088295415,-0.0014085088340786,0.0014085088292998,-0.001408508829489,0.0014085088340633,-0.0014085088293311,0.0014085088338881,-0.001356920615742,0.0013569206295617,-0.0013569206292154,0.0013569206160485,0.75169596628472,0.77423136867587,1368840,32768,0.0057497283978567,0.0057497283980673,0.0057497283977986,25.541634486183,25.548793249753,0.00011953307588946,0.00011953307588946,0.00011953307588946,265384.2243216,0.017399007874487
30067200,0.99998167132234,0.016914751312703,0.0056382504375281,0.0056382504377225,0.0056382504374524,-0.0013844686729204,0.0013844686723146,6.1760391497728e-12,-6.7700784140457e-12,-1.0919901698616e-14,-5.6665195387766e-13,-0.0014088894677634,0.0014088894718538,-0.0014088894722979,0.0014088894674194,-0.0014088894685175,0.0014088894720893,-0.0014088894729734,0.0014088894677685,-0.0013576254984658,0.0013576255112247,-0.0013576255122689,0.0013576254979869,-7.5033716594993e-13,-1.5159310422884e-13,9.0299182598426e-14,7.6175246427922e-14,-0.0013844686729429,0.0013844686724176,-0.00140888947004,0.0014088894701498,-0.0014088894699851,0.0014088894703271,-0.0014088894700111,0.0014088894705123,-0.0014088894698302,0.0014088894702721,-0.0013576255053129,0.001357625504186,-0.0013576255035848,0.0013576255027425,-0.001357625506121,0.0013576255025846,-0.0013576255051958,0.0013576255024706,-6.8018912068926e-12,6.6716624794085e-12,-0.0013844686726549,0.0013844686725688,-7.0603196062001e-14,-4.3905011673207e-14,-0.001408889472418,0.00140888946772,-0.0014088894724501,0.001408889467701,-0.0014088894678291,0.0014088894724473,-0.0014088894677039,0.0014088894725212,-0.0013576254964135,0.0013576255100051,-0.001357625510339,0.0013576254962604,0.74778157731173,0.70027482735307,1368840,32768,0.0057519979630485,0.0057519979633084,0.0057519979630251,25.649994377342,25.657154641538,0.00012039995501874,0.00012039995501874,0.00012039995501874,255506.8670356,0.017405934117599
30153600,0.9999822185842,0.016914760156846,0.0056382533855758,0.0056382533857702,0.0056382533855001,-0.0013844958494392,0.001384495848886,6.2072428582856e-12,-6.7374209999426e-12,8.9570498976858e-15,-5.3552393422905e-13,-0.0014090022505401,0.0014090022546872,-0.0014090022550036,0.0014090022501535,-0.0014090022514526,0.0014090022549788,-0.0014090022557649,0.001409002250614,-0.0013575723936986,0.0013575724064581,-0.0013575724072392,0.0013575723930874,-6.8196666638646e-13,-9.4804868482227e-14,1.8138751755938e-13,1.529360337915e-13,-0.0013844958494036,0.0013844958490273,-0.0014090022527249,0.0014090022529883,-0.0014090022527829,0.0014090022531048,-0.0014090022526601,0.001409002253331,-0.0014090022525649,0.0014090022530975,-0.0013575724002352,0.0013575723994676,-0.0013575723989893,0.0013575723980437,-0.0013575724009007,0.0013575723977742,-0.0013575724000595,0.0013575723978552,-6.8225293411177e-12,6.6495092738208e-12,-0.0013844958492008,0.0013844958490939,-5.8640973264402e-14,-1.785592510198e-14,-0.0014090022552753,0.0014090022506476,-0.0014090022552175,0.00140900225038,-0.0014090022507228,0.001409002255172,-0.0014090022505526,0.0014090022550979,-0.0013575723914661,0.0013575724050378,-0.0013575724053548,0.0013575723914476,0.73690064173629,0.53603222639823,1368840,32768,0.0057521103793837,0.0057521103796026,0.0057521103793206,25.758354274787,25.765516033324,0.00012126683419829,0.00012126683419829,0.00012126683419829,260192.33502223,0.017406277828133
30240000,0.99998275288845,0.016914768747535,0.0056382562491388,0.0056382562493332,0.0056382562490631,-0.0013842452178265,0.0013842452172979,6.206463073284e-12,-6.735671112224e-12,2.2089060488482e-14,-5.1227602678961e-13,-0.0014089770722984,0.0014089770765992,-0.0014089770768478,0.0014089770719645,-0.0014089770731637,0.0014089770767668,-0.001408977077429,0.0014089770724237,-0.0013571143466103,0.0013571143592504,-0.001357114360267,0.0013571143459784,-6.4434840383385e-13,-6.7043863620693e-14,1.8806943107856e-13,1.4307709968105e-13,-0.0013842452177942,0.0013842452174349,-0.0014089770745435,0.0014089770748275,-0.001408977074592,0.0014089770748903,-0.0014089770744437,0.0014089770751285,-0.0014089770744228,0.0014089770749004,-0.0013571143530344,0.0013571143523091,-0.0013571143518519,0.0013571143508728,-0.0013571143538768,0.001357114350601,-0.0013571143530008,0.0013571143509174,-6.8432491787291e-12,6.6264308612034e-12,-0.0013842452176213,0.001384245217494,-6.9743457620538e-14,-1.2132511713036e-14,-0.0014089770770826,0.0014089770724077,-0.0014089770770684,0.0014089770721766,-0.0014089770724288,0.0014089770769646,-0.001408977072362,0.0014089770769654,-0.0013571143444449,0.0013571143578976,-0.0013571143582425,0.0013571143441395,0.73319467417508,0.49251518427337,1368840,32768,0.0057510717245342,0.005751071724751,0.0057510717245155,25.866713442175,25.873877425109,0.0001221337075374,0.0001221337075374,0.0001221337075374,273085.0900541,0.017403108842733
30326400,0.99998327443654,0.016914777087748,0.0056382590292098,0.0056382590294041,0.005638259029134,-0.0013843175740943,0.0013843175735527,6.1952820472096e-12,-6.7260355830534e-12,8.1618094858521e-16,-5.2495296304732e-13,-0.0014091215459082,0.0014091215501198,-0.0014091215504713,0.0014091215456332,-0.0014091215465802,0.0014091215501201,-0.0014091215507288,0.0014091215457254,-0.0013571224287117,0.0013571224415171,-0.0013571224422066,0.0013571224279023,-6.7778558823318e-13,-1.0896802404284e-13,1.667964338952e-13,1.2525158541475e-13,-0.0013843175740688,0.0013843175736836,-0.0014091215478768,0.0014091215483114,-0.0014091215480096,0.0014091215483874,-0.0014091215478028,0.0014091215484673,-0.0014091215475723,0.0014091215485114,-0.0013571224350395,0.0013571224345785,-0.0013571224336537,0.0013571224328421,-0.0013571224357813,0.0013571224326666,-0.0013571224351567,0.0013571224328531,-6.826761858876e-12,6.6223056342851e-12,-0.0013843175738852,0.0013843175737669,-6.291978372615e-14,-9.4488289918191e-15,-0.0014091215505749,0.0014091215458134,-0.0014091215504535,0.0014091215456396,-0.0014091215458575,0.0014091215504029,-0.0014091215456205,0.0014091215502281,-0.0013571224264457,0.0013571224400681,-0.0013571224402387,0.0013571224263435,0.72936701987004,0.4489981421485,1368840,32768,0.0057513713993204,0.0057513713995387,0.005751371399331,25.97507252147,25.982238816895,0.00012300058017176,0.00012300058017176,0.00012300058017176,276898.43559632,0.01740402380614
30412800,0.99998378436337,0.016914785178046,0.0056382617259757,0.0056382617261701,0.0056382617259,-0.0013844444678425,0.0013844444672985,6.1938038423677e-12,-6.7303732740693e-12,-2.5797653075877e-14,-5.5931011934213e-13,-0.0014093218514983,0.0014093218556199,-0.0014093218559489,0.0014093218513292,-0.0014093218523178,0.0014093218559242,-0.0014093218568492,0.0014093218515787,-0.0013571836819614,0.0013571836944708,-0.0013571836955502,0.0013571836812019,-6.7181303539645e-13,-9.6174679576615e-14,2.1801328102039e-13,1.6847250033958e-13,-0.0013844444677985,0.0013844444674535,-0.0014093218537505,0.0014093218541948,-0.0014093218537256,0.0014093218541448,-0.0014093218536309,0.0014093218544177,-0.0014093218535307,0.0014093218542204,-0.0013571836884986,0.0013571836877756,-0.0013571836869196,0.0013571836862357,-0.0013571836886953,0.0013571836858912,-0.0013571836886935,0.0013571836862965,-6.8538430903865e-12,6.5978493814068e-12,-0.0013844444676139,0.0013844444674803,-6.7636227877313e-14,-5.8991139037666e-15,-0.0014093218563559,0.0014093218516192,-0.001409321856228,0.001409321851494,-0.0014093218517972,0.0014093218562675,-0.0014093218515245,0.0014093218562009,-0.0013571836798039,0.0013571836933998,-0.001357183693484,0.0013571836797238,0.72368414350453,0.37972806822775,1368840,32768,0.0057518970115163,0.0057518970117462,0.0057518970114194,26.114782993302,26.123956640151,0.00012411826394641,0.00012411826394641,0.00012411826394641,280886.62758915,0.01740562836738
30499200,0.99998428366229,0.016914793175601,0.0056382643918274,0.0056382643920217,0.0056382643917516,-0.0013845349963153,0.0013845349957491,6.1759243003402e-12,-6.7594397978717e-12,-5.548242269713e-15,-5.3430850077148e-13,-0.0014095345853555,0.0014095345895315,-0.0014095345898869,0.0014095345850156,-0.001409534586254,0.0014095345897489,-0.0014095345905289,0.0014095345854269,-0.0013571641233346,0.0013571641360078,-0.001357164136964,0.001357164122619,-6.8520353809049e-13,-1.1357500094992e-13,1.6177129329215e-13,1.2629570057657e-13,-0.0013845349962913,0.001384534995879,-0.0014095345875825,0.0014095345878175,-0.0014095345876283,0.0014095345879306,-0.0014095345874586,0.0014095345881312,-0.0014095345874365,0.0014095345879288,-0.0013571641298075,0.0013571641290919,-0.0013571641284424,0.0013571641276878,-0.0013571641305346,0.0013571641272809,-0.0013571641298303,0.0013571641274864,-6.8177710747147e-12,6.6451258783188e-12,-0.0013845349960734,0.0013845349959623,-6.7586052939534e-14,-1.9780454544221e-14,-0.0014095345901303,0.0014095345854784,-0.0014095345900424,0.001409534585251,-0.0014095345855253,0.001409534590026,-0.0014095345854053,0.0014095345899651,-0.0013571641211542,0.0013571641347471,-0.001357164134951,0.0013571641209627,0.7306510450816,0.50541939280744,1368840,32768,0.0057522719120387,0.0057522719122581,0.0057522719119794,26.284256966599,26.295405041993,0.00012547405573279,0.00012547405573279,0.00012547405573279,287701.11742692,0.01740677313346
30585600,0.99998477244586,0.016914801022423,0.0056382670074347,0.0056382670076291,0.005638267007359,-0.0013852662309397,0.00138526623035,6.1561155378372e-12,-6.7604184150344e-12,-4.4113652358201e-15,-5.5186187629261e-13,-0.0014100703032491,0.0014100703072332,-0.0014100703077309,0.0014100703028512,-0.0014100703041867,0.0014100703075919,-0.0014100703082923,0.0014100703032526,-0.0013580793196651,0.001358079332432,-0.001358079333559,0.001358079318896,-7.4084130898301e-13,-1.5005400418847e-13,1.1879160629209e-13,9.4481848938488e-14,-0.0013852662309096,0.0013852662304479,-0.0014100703054615,0.0014100703055665,-0.0014100703055744,0.0014100703057237,-0.0014100703051834,0.0014100703059851,-0.0014100703052458,0.0014100703058259,-0.0013580793264915,0.0013580793253628,-0.0013580793250116,0.001358079324025,-0.0013580793270767,0.001358079323862,-0.0013580793268057,0.0013580793241464,-6.8430268325804e-12,6.6008933472393e-12,-0.0013852662306985,0.0013852662305266,-8.5127752346776e-14,-4.8025003457345e-14,-0.001410070307936,0.0014100703033012,-0.0014100703078272,0.0014100703029759,-0.0014100703032945,0.0014100703078032,-0.0014100703031855,0.001410070307685,-0.0013580793176935,0.0013580793314665,-0.0013580793315333,0.001358079317418,0.73237077145819,0.54258644128895,1368840,32768,0.0057553015497165,0.005755301549857,0.0057553015495828,26.455518529328,26.466853443834,0.00012684414823462,0.00012684414823462,0.00012684414823462,275850.30696727,0.017416019234069
30672000,0.99998525078046,0.016914808720009,0.0056382695732967,0.005638269573491,0.0056382695732209,-0.0013857079327931,0.0013857079322581,6.2154453135886e-12,-6.7201430571837e-12,3.0690533013519e-15,-5.0702456957096e-13,-0.0014104546732173,0.0014104546773288,-0.0014104546777747,0.0014104546728676,-0.0014104546739732,0.0014104546775505,-0.0014104546782042,0.0014104546732735,-0.0013585755313159,0.0013585755440064,-0.0013585755448004,0.0013585755308471,-6.7853018313337e-13,-1.2567448426018e-13,1.6990675064187e-13,1.1992713042613e-13,-0.0013857079327878,0.0013857079324056,-0.001410454675328,0.0014104546756937,-0.0014104546752963,0.0014104546758726,-0.0014104546752878,0.0014104546759664,-0.001410454675202,0.0014104546757565,-0.0013585755379081,0.0013585755368084,-0.0013585755363877,0.0013585755356706,-0.0013585755384315,0.0013585755352827,-0.0013585755378345,0.0013585755356125,-6.8249836779041e-12,6.6374043495003e-12,-0.0013857079325925,0.0013857079324395,-9.6113769672665e-14,-3.4361950266006e-14,-0.0014104546779198,0.0014104546732102,-0.0014104546778218,0.0014104546730678,-0.0014104546733194,0.0014104546777991,-0.0014104546732817,0.001410454677608,-0.0013585755290079,0.0013585755423343,-0.0013585755428565,0.0013585755289433,0.73400701902463,0.5766538423242,1368840,32768,0.0057571314982772,0.0057571314985717,0.0057571314982375,26.62694312784,26.638301845676,0.00012821554502272,0.00012821554502272,0.00012821554502272,272369.50608717,0.017421604389985
30758400,0.99998571873225,0.016914816282105,0.0056382720939955,0.0056382720941898,0.0056382720939197,-0.0013861384074816,0.001386138407039,6.2586196711122e-12,-6.6879162181621e-12,1.2990250215596e-14,-4.7465485256125e-13,-0.0014108356294641,0.0014108356336878,-0.0014108356340618,0.0014108356293431,-0.0014108356304465,0.0014108356339774,-0.0014108356348021,0.001410835629657,-0.0013590534699542,0.0013590534827156,-0.0013590534838674,0.0013590534697977,-6.0010534366427e-13,-6.9705341137911e-14,2.0350448895991e-13,1.777639811971e-13,-0.0013861384074844,0.0013861384071496,-0.0014108356317307,0.0014108356320039,-0.0014108356317337,0.0014108356320602,-0.0014108356317621,0.001410835632224,-0.0014108356315425,0.0014108356322518,-0.001359053476621,0.0013590534757866,-0.0013590534751812,0.0013590534745346,-0.0013590534769459,0.0013590534743121,-0.0013590534765759,0.0013590534744477,-6.823673600279e-12,6.6500391988084e-12,-0.0013861384073049,0.0013861384071859,-5.6403041631677e-14,-1.8993655050994e-14,-0.001410835634314,0.0014108356297535,-0.0014108356342624,0.0014108356294689,-0.0014108356298407,0.0014108356342042,-0.001410835629705,0.0014108356340852,-0.0013590534679385,0.0013590534812718,-0.0013590534818772,0.0013590534676543,0.73704530756558,0.6323730657908,1368840,32768,0.0057589149231355,0.0057589149233703,0.0057589149230739,26.798383416947,26.809750247518,0.00012958706733558,0.00012958706733558,0.00012958706733558,269244.4779308,0.017427047612531
30844800,0.99998617637113,0.016914823743005,0.0056382745809621,0.0056382745811564,0.0056382745808863,-0.0013866270067874,0.0013866270062137,6.1876529420382e-12,-6.7552976891162e-12,-4.949960546809e-14,-5.2268800282854e-13,-0.0014112463923556,0.0014112463965435,-0.0014112463970066,0.0014112463921342,-0.0014112463931931,0.0014112463968042,-0.0014112463975331,0.0014112463924447,-0.0013596157465942,0.001359615759519,-0.0013596157605823,0.0013596157460876,-6.914009369995e-13,-1.7495192004482e-13,1.060888767047e-13,7.3294672662768e-14,-0.00138662700681,0.0013866270063039,-0.0014112463945916,0.0014112463949084,-0.0014112463946443,0.0014112463949372,-0.0014112463945864,0.0014112463951684,-0.0014112463945069,0.001411246394947,-0.0013596157534078,0.0013596157522873,-0.0013596157521251,0.0013596157511016,-0.0013596157540393,0.0013596157508935,-0.0013596157534467,0.0013596157510666,-6.8239804732572e-12,6.6460256155383e-12,-0.0013866270065489,0.0013866270064056,-1.0614522792438e-13,-6.1409300458612e-14,-0.0014112463971301,0.0014112463925272,-0.0014112463970409,0.0014112463922217,-0.0014112463924802,0.0014112463970479,-0.0014112463925146,0.0014112463969724,-0.0013596157445562,0.0013596157581315,-0.0013596157586381,0.001359615744372,0.74352740688033,0.74307751585792,1368840,32768,0.0057609391828121,0.0057609391830455,0.0057609391827154,26.969824015696,26.981198649359,0.00013095859212557,0.00013095859212557,0.00013095859212557,264467.35632442,0.017433225810753
30931200,0.99998662377109,0.016914831062653,0.0056382770208447,0.005638277021039,0.0056382770207689,-0.0013872515855427,0.0013872515850676,6.2945187361851e-12,-6.7148225138403e-12,-1.045868049449e-14,-5.0632326746585e-13,-0.0014117256537136,0.0014117256580948,-0.0014117256582605,0.0014117256535183,-0.001411725654834,0.0014117256583083,-0.0014117256590827,0.0014117256540156,-0.0013603762832118,0.0013603762960398,-0.0013603762969717,0.0013603762830111,-6.2132169551928e-13,-8.2622564172673e-14,1.7592068456737e-13,7.9239873393907e-14,-0.00138725158558,0.0013872515851422,-0.0014117256563426,0.0014117256562586,-0.0014117256562127,0.0014117256564838,-0.0014117256562171,0.0014117256565934,-0.0014117256560797,0.0014117256562738,-0.0013603762899709,0.0013603762893987,-0.0013603762885651,0.0013603762880576,-0.0013603762908867,0.0013603762877128,-0.0013603762904205,0.0013603762880756,-6.8175150237134e-12,6.7194547252706e-12,-0.0013872515853336,0.0013872515852617,-1.1495495879315e-13,-6.9192003878836e-15,-0.0014117256587727,0.0014117256540035,-0.0014117256584735,0.0014117256537538,-0.0014117256539338,0.0014117256587437,-0.0014117256540083,0.0014117256586379,-0.0013603762814213,0.0013603762952423,-0.0013603762955098,0.0013603762812079,0.74609164959192,0.77014088914354,1368840,32768,0.0057635268708741,0.0057635268711057,0.0057635268708429,27.141265257156,27.152647051201,0.00013233012205725,0.00013233012205725,0.00013233012205725,255848.96848846,0.017441123428345
31017600,0.99998706101013,0.016914838238707,0.0056382794128629,0.0056382794130573,0.0056382794127872,-0.001387657592317,0.0013876575918675,6.2758730116815e-12,-6.6788856705097e-12,-4.4575961764378e-14,-4.1107535369482e-13,-0.0014120913391447,0.0014120913433273,-0.0014120913436212,0.0014120913388113,-0.0014120913399822,0.0014120913435505,-0.0014120913443625,0.0014120913394051,-0.0013608177322165,0.0013608177455795,-0.0013608177460953,0.0013608177320013,-5.879482150562e-13,-1.7952095693446e-13,1.7500500665835e-13,1.1029130714686e-13,-0.001387657592361,0.001387657591936,-0.0014120913412294,0.0014120913414449,-0.0014120913414686,0.0014120913416307,-0.0014120913412193,0.0014120913418253,-0.0014120913415116,0.0014120913416259,-0.001360817738984,0.0013608177383338,-0.0013608177376001,0.0013608177368841,-0.0013608177396399,0.0013608177367353,-0.0013608177389495,0.0013608177365358,-6.8071476933694e-12,6.6756168880158e-12,-0.0013876575921,0.0013876575920364,-6.1988929810157e-14,1.4424500517881e-14,-0.0014120913438279,0.0014120913392276,-0.0014120913436703,0.0014120913390129,-0.0014120913393187,0.0014120913439322,-0.001412091339109,0.0014120913436965,-0.001360817729886,0.0013608177434987,-0.0013608177441366,0.0013608177300294,0.74836008829254,0.78770223647543,1368840,32768,0.0057652088735482,0.0057652088737811,0.0057652088734486,27.312706579044,27.324095453043,0.00013370165263235,0.00013370165263235,0.00013370165263235,253269.19480459,0.017446257337407
31104000,0.99998748950454,0.016914845330308,0.0056382817767299,0.0056382817769243,0.0056382817766542,-0.0013881440380676,0.0013881440375618,6.1747837028317e-12,-6.7223680480353e-12,-3.758529297157e-14,-4.0840399412655e-13,-0.0014125487485433,0.0014125487522929,-0.0014125487531572,0.0014125487482118,-0.0014125487491372,0.0014125487531147,-0.0014125487539956,0.0014125487486012,-0.0013613281802711,0.0013613281932279,-0.001361328193776,0.0013613281795094,-6.8460729159953e-13,-2.6931886072897e-13,7.0177267897343e-14,2.7074937585124e-14,-0.0013881440381734,0.0013881440376263,-0.0014125487504944,0.0014125487506949,-0.0014125487501147,0.0014125487506732,-0.0014125487503252,0.0014125487510079,-0.0014125487505952,0.0014125487507846,-0.0013613281877832,0.0013613281861229,-0.0013613281852207,0.0013613281847746,-0.0013613281875194,0.0013613281843531,-0.0013613281865575,0.0013613281844678,-6.8030829940138e-12,6.6212873712747e-12,-0.0013881440378834,0.0013881440377647,-5.0283875626822e-14,5.2356635834832e-15,-0.001412548753261,0.0014125487481454,-0.0014125487531411,0.001412548748446,-0.0014125487484751,0.0014125487530795,-0.0014125487482453,0.0014125487530652,-0.0013613281779104,0.0013613281918993,-0.0013613281916225,0.0013613281781724,0.75461542575605,0.86308056669198,1368840,32768,0.0057672240888379,0.0057672240891906,0.0057672240888767,27.538149928605,27.553020126671,0.00013550519942884,0.00013550519942884,0.00013550519942884,251316.51626081,0.017452408422962
31190400,0.99998790968878,0.016914852345248,0.005638284115043,0.0056382841152374,0.0056382841149673,-0.0013888028068731,0.0013888028063537,6.1845116262386e-12,-6.7411070638065e-12,-1.9757455246834e-14,-4.8336108659177e-13,-0.001413112110481,0.001413112114784,-0.001413112115071,0.0014131121102313,-0.0014131121113067,0.0014131121148282,-0.0014131121156856,0.0014131121106072,-0.0013620712922033,0.0013620713042972,-0.0013620713052545,0.0013620712910068,-7.1784968783185e-13,-2.1148550985108e-13,1.6505095780653e-13,1.2998208795997e-13,-0.0013888028068908,0.0013888028064319,-0.0014131121127954,0.0014131121128522,-0.0014131121127369,0.0014131121131405,-0.0014131121124784,0.0014131121131955,-0.00141311211258,0.0014131121129952,-0.0013620712981501,0.0013620712978187,-0.0013620712967473,0.0013620712963481,-0.0013620712990059,0.0013620712960376,-0.001362071298274,0.0013620712962148,-6.794114973863e-12,6.65885887055e-12,-0.0013888028066522,0.0013888028065363,-6.9560345567426e-14,-2.2378375179529e-14,-0.001413112115197,0.0014131121106837,-0.0014131121151793,0.0014131121103554,-0.0014131121106391,0.0014131121152831,-0.0014131121106352,0.0014131121150343,-0.0013620712901456,0.001362071303542,-0.0013620713032931,0.0013620712897872,0.76119667364885,0.92744920702684,1368840,32768,0.0057699532840977,0.0057699532842964,0.0057699532840188,27.782445165887,27.798660744504,0.0001374595613271,0.0001374595613271,0.0001374595613271,245521.60908629,0.017460738519986
31276800,0.99998832154017,0.016914859216197,0.0056382864053596,0.0056382864055539,0.0056382864052838,-0.0013894334407089,0.0013894334401944,6.1739579339407e-12,-6.7133747345395e-12,2.3411637731714e-14,-4.9460533132311e-13,-0.0014136618216482,0.0014136618257568,-0.0014136618261364,0.0014136618213634,-0.0014136618224285,0.0014136618258013,-0.001413661826605,0.0014136618215838,-0.0013627712311161,0.0013627712437303,-0.0013627712445998,0.0013627712304314,-7.3450620839834e-13,-1.7396547959166e-13,1.2004103871102e-13,4.6865391823861e-14,-0.0013894334407127,0.0013894334402905,-0.0014136618236396,0.0014136618239416,-0.0014136618236277,0.0014136618243401,-0.0014136618234917,0.0014136618242512,-0.001413661823529,0.0014136618242931,-0.0013627712373448,0.0013627712365458,-0.0013627712359578,0.0013627712346347,-0.0013627712379836,0.0013627712347084,-0.0013627712379458,0.0013627712354465,-6.8179529515115e-12,6.5969795256274e-12,-0.0013894334404934,0.0013894334403868,-6.838602850083e-14,1.7443761222716e-14,-0.0014136618261888,0.0014136618217587,-0.0014136618262542,0.0014136618215279,-0.0014136618218596,0.0014136618262255,-0.0014136618214799,0.0014136618262184,-0.0013627712288178,0.0013627712423146,-0.0013627712425567,0.0013627712286337,0.76059934307689,0.86462826064949,1368840,32768,0.0057725658750051,0.0057725658752119,0.0057725658749575,28.027951661239,28.044301362336,0.00013942361328991,0.00013942361328991,0.00013942361328991,240498.47075328,0.017468712912836
31363200,0.9999887250148,0.016914865923757,0.0056382886412126,0.005638288641407,0.0056382886411369,-0.0013897822341126,0.0013897822335645,6.1828031196087e-12,-6.7085061185665e-12,4.5657428726305e-16,-5.387639234849e-13,-0.0014140673104818,0.0014140673146291,-0.0014140673149871,0.0014140673101354,-0.0014140673113705,0.0014140673148672,-0.0014140673156141,0.0014140673105729,-0.0013630616620932,0.0013630616747192,-0.0013630616757733,0.0013630616615652,-6.8823147500086e-13,-1.0624901887129e-13,1.8135140101565e-13,6.4198332902644e-14,-0.0013897822340994,0.001389782233683,-0.0014140673126794,0.0014140673129439,-0.0014140673127269,0.0014140673130454,-0.0014140673125793,0.00141406731325,-0.0014140673125533,0.0014140673130186,-0.0013630616686017,0.0013630616679588,-0.0013630616674256,0.0013630616663726,-0.0013630616692307,0.00136306166609,-0.0013630616686178,0.0013630616665194,-6.806868348962e-12,6.6119231279341e-12,-0.0013897822338757,0.0013897822337719,-1.0411452525507e-13,2.514840820398e-14,-0.0014140673152314,0.0014140673105966,-0.0014140673151339,0.0014140673103824,-0.001414067310651,0.0014140673151371,-0.0014140673105112,0.001414067315082,-0.0013630616600837,0.0013630616734903,-0.0013630616738416,0.0013630616598236,0.75787865795169,0.79905950129702,1368840,32768,0.0057740106400799,0.0057740106402979,0.0057740106400187,28.273571480907,28.289941980168,0.00014138857184726,0.00014138857184726,0.00014138857184726,243268.18799532,0.017473123545258
31449600,0.99998912007333,0.016914872456124,0.0056382908186684,0.0056382908188628,0.0056382908185927,-0.0013901096164329,0.0013901096158713,6.1980919613687e-12,-6.6756373579787e-12,1.2258919616068e-14,-5.9338551953852e-13,-0.0014144644087543,0.0014144644129082,-0.0014144644132434,0.0014144644084381,-0.0014144644096553,0.0014144644132659,-0.0014144644138557,0.00141446440844,-0.0013633219386051,0.0013633219518309,-0.0013633219525249,0.0013633219386875,-6.1521732318014e-13,3.2618268240178e-14,2.6858814775763e-13,1.3880890654201e-13,-0.0013901096163388,0.0013901096160629,-0.0014144644106891,0.0014144644113165,-0.0014144644107934,0.0014144644112113,-0.0014144644109192,0.0014144644114751,-0.0014144644103785,0.0014144644110794,-0.0013633219452679,0.0013633219449058,-0.0013633219443525,0.001363321943309,-0.0013633219457345,0.001363321942629,-0.0013633219451295,0.0013633219431504,-6.7659442462241e-12,6.6348684857927e-12,-0.0013901096161453,0.0013901096161034,-4.9025796413219e-14,9.2320591434009e-14,-0.0014144644134489,0.0014144644089595,-0.0014144644133853,0.0014144644087081,-0.0014144644087762,0.0014144644132987,-0.0014144644085062,0.0014144644132461,-0.0013633219366063,0.0013633219502129,-0.001363321951303,0.001363321936761,0.75384300271574,0.73349074194455,1368840,32768,0.0057753667319558,0.005775366732158,0.0057753667318411,28.519202033644,28.535582598,0.00014335361626915,0.00014335361626915,0.00014335361626915,246923.39223106,0.017477263429869
31536000,0.99998950668339,0.016914878807967,0.0056382929359494,0.0056382929361438,0.0056382929358737,-0.0013904234682469,0.0013904234676939,6.1754850490531e-12,-6.6569055772806e-12,6.1779583264374e-15,-6.0108916655033e-13,-0.0014148579779092,0.0014148579821469,-0.0014148579822057,0.0014148579775916,-0.0014148579788026,0.0014148579822511,-0.0014148579829178,0.0014148579780199,-0.0013635618057076,0.0013635618185893,-0.0013635618196429,0.0013635618053755,-6.8661934777965e-13,-3.6697614207194e-14,2.8950897922882e-13,1.3802469520501e-13,-0.0013904234681828,0.0013904234678722,-0.0014148579799473,0.0014148579802688,-0.0014148579800754,0.0014148579804456,-0.0014148579798465,0.0014148579808663,-0.0014148579798184,0.0014148579805989,-0.0013635618125787,0.0013635618120994,-0.0013635618110193,0.0013635618102168,-0.0013635618133552,0.0013635618101787,-0.0013635618126577,0.0013635618105008,-6.7531235790631e-12,6.606806107785e-12,-0.0013904234680158,0.0013904234678888,-1.3618419260757e-13,2.7709388791311e-14,-0.0014148579825274,0.0014148579780614,-0.0014148579825127,0.001414857977655,-0.0014148579778746,0.0014148579824302,-0.0014148579777102,0.0014148579824137,-0.001363561803805,0.0013635618176156,-0.0013635618182244,0.0013635618036773,0.74907249258569,0.66792198259208,1368840,32768,0.0057766667904924,0.0057766667907289,0.0057766667904175,28.764832632682,28.781223215831,0.00014531866106145,0.00014531866106145,0.00014531866106145,251177.17806391,0.017481232225164
31622400,0.9999898848199,0.016914884976959,0.00563829499228,0.0056382949924743,0.0056382949922042,-0.0013907255996371,0.0013907255989839,6.1628143037828e-12,-6.766718810797e-12,4.1521760950469e-14,-6.0962914095409e-13,-0.0014152477931662,0.0014152477972715,-0.0014152477975129,0.0014152477925496,-0.0014152477940341,0.0014152477975535,-0.0014152477986591,0.0014152477933434,-0.0013637838325587,0.001363783845449,-0.0013637838459666,0.0013637838315993,-7.9557546042167e-13,-1.0161683685186e-13,1.7976127312238e-13,4.0393442478648e-14,-0.0013907255995907,0.0013907255991327,-0.0014152477956531,0.0014152477955671,-0.0014152477955971,0.0014152477953848,-0.0014152477954643,0.0014152477958038,-0.0014152477951482,0.0014152477958306,-0.0013637838393094,0.0013637838388695,-0.0013637838374842,0.0013637838372762,-0.0013637838405471,0.0013637838366005,-0.0013637838389696,0.0013637838368164,-6.7582177763801e-12,6.698378545604e-12,-0.0013907255992781,0.0013907255992647,-7.5778979121852e-14,7.5362933008245e-14,-0.0014152477979008,0.0014152477932238,-0.0014152477977473,0.0014152477927327,-0.00141524779285,0.0014152477974592,-0.0014152477930685,0.0014152477976301,-0.0013637838305935,0.0013637838446782,-0.0013637838447742,0.0013637838313001,0.74386089667516,0.60235322323961,1368840,32768,0.0057779183029336,0.0057779183031457,0.0057779183027716,29.010462475199,29.026863833664,0.00014728369980159,0.00014728369980159,0.00014728369980159,255898.20642666,0.017485052820666
31708800,0.99999025436643,0.016914890960725,0.0056382969868688,0.0056382969870632,0.0056382969867931,-0.0013910075254507,0.0013910075249497,6.3111285228852e-12,-6.6358329269179e-12,1.0905131561599e-13,-5.6980776923437e-13,-0.0014156234304207,0.0014156234346179,-0.0014156234349256,0.001415623430106,-0.0014156234314269,0.0014156234352712,-0.0014156234359073,0.0014156234304126,-0.0013639807752136,0.0013639807889466,-0.0013639807891583,0.00136398077637,-5.613128228668e-13,1.5968903337435e-13,2.6842844675403e-13,1.4535935348918e-13,-0.0013910075253574,0.0013910075251621,-0.0014156234324024,0.0014156234328152,-0.0014156234328952,0.0014156234331695,-0.0014156234325915,0.0014156234331974,-0.00141562343258,0.0014156234333068,-0.0013639807821268,0.0013639807830903,-0.0013639807818268,0.0013639807818596,-0.001363980783228,0.001363980781277,-0.001363980782721,0.0013639807822329,-6.8092062187182e-12,6.6651687366114e-12,-0.0013910075251743,0.0013910075251904,-1.587951489172e-14,1.1901389361901e-13,-0.0014156234354914,0.0014156234308137,-0.0014156234352232,0.0014156234303716,-0.001415623430579,0.0014156234353273,-0.0014156234303891,0.0014156234350855,-0.0013639807750399,0.0013639807875785,-0.0013639807895371,0.0013639807753963,0.73835139474847,0.53678446388714,1368840,32768,0.005779086112208,0.0057790861124547,0.0057790861121342,29.251401980421,29.267511833545,0.00014921121584336,0.00014921121584336,0.00014921121584336,261020.82518687,0.017488617918478
31795200,0.9999906107827,0.016914896676772,0.0056382988922178,0.0056382988924122,0.0056382988921421,-0.0013908479693262,0.0013908479687116,6.1925844678541e-12,-6.7636916091582e-12,4.6368171719476e-14,-6.2233360578259e-13,-0.0014155695667247,0.0014155695709195,-0.0014155695712848,0.0014155695663705,-0.00141556956776,0.0014155695710279,-0.0014155695719801,0.0014155695667585,-0.001363727151914,0.0013637271645461,-0.0013637271655533,0.0013637271514216,-7.2143943110883e-13,-9.994106451614e-15,2.1205940408371e-13,8.0804781469393e-14,-0.0013908479692673,0.0013908479688723,-0.0014155695689744,0.0014155695691233,-0.0014155695689496,0.0014155695692732,-0.0014155695688798,0.0014155695695432,-0.0014155695688116,0.0014155695692831,-0.00136372715833,0.0013637271580225,-0.0013637271572158,0.0013637271564943,-0.0013637271590709,0.0013637271559936,-0.0013637271584016,0.0013637271564163,-6.8264285749399e-12,6.657209979746e-12,-0.0013908479690367,0.0013908479689583,-8.7950019069642e-14,5.5082081986087e-14,-0.0014155695715197,0.0014155695668314,-0.0014155695713518,0.0014155695666076,-0.0014155695668871,0.0014155695714256,-0.0014155695667177,0.0014155695713595,-0.0013637271499819,0.0013637271633105,-0.0013637271638234,0.0013637271499169,0.73133574680198,0.45226358797314,1368840,32768,0.0057784249983326,0.0057784249985435,0.0057784249982441,29.269665808296,29.271394090334,0.00014935732646636,0.00014935732646636,0.00014935732646636,266675.50178341,0.017486600368111
31881600,0.99999095426599,0.016914902309746,0.0056383007698759,0.0056383007700703,0.0056383007698002,-0.001390592092931,0.0013905920923092,6.1765901623515e-12,-6.7890420111915e-12,5.5813089066088e-14,-6.6201748170271e-13,-0.0014154524914404,0.0014154524956214,-0.0014154524959804,0.001415452491091,-0.0014154524923986,0.0014154524957868,-0.0014154524966907,0.0014154524914569,-0.0013633463827633,0.0013633463953717,-0.0013633463963327,0.0013633463819882,-7.4544002143668e-13,1.5218652727665e-14,2.1659597137705e-13,1.2728784673777e-13,-0.0013905920928469,0.0013905920924989,-0.0014154524936604,0.0014154524939123,-0.0014154524937226,0.0014154524940215,-0.001415452493496,0.0014154524942897,-0.001415452493467,0.0014154524940746,-0.0013633463891723,0.0013633463885685,-0.0013633463878413,0.0013633463870806,-0.0013633463898767,0.0013633463865555,-0.0013633463890556,0.0013633463870702,-6.8276788896849e-12,6.6652913799236e-12,-0.0013905920926547,0.0013905920925551,-8.3038227945018e-14,1.8445612969774e-14,-0.0014154524962234,0.0014154524915485,-0.0014154524961248,0.001415452491329,-0.0014154524916045,0.0014154524961226,-0.0014154524914758,0.0014154524960591,-0.0013633463805186,0.0013633463941296,-0.0013633463943749,0.0013633463804686,0.74789616122321,0.76226457269967,1368840,32768,0.005777364833831,0.0057773648340498,0.0057773648337681,29.274871930025,29.275276347123,0.0001493989754402,0.0001493989754402,0.0001493989754402,274387.26420892,0.017483364822967
31968000,0.99999128525936,0.016914907754163,0.0056383025846816,0.0056383025848759,0.0056383025846058,-0.0013914447144332,0.0013914447138108,6.1707359294296e-12,-6.7936566937455e-12,5.6628622975616e-14,-6.5857467511339e-13,-0.0014158934767311,0.0014158934809201,-0.0014158934812772,0.0014158934763929,-0.0014158934776876,0.0014158934810857,-0.0014158934820021,0.0014158934767641,-0.0013645865604676,0.0013645865730423,-0.0013645865740858,0.0013645865596851,-7.3976631241166e-13,1.8200061647669e-14,2.2592592164759e-13,1.3778020267409e-13,-0.0013914447143435,0.0013914447140076,-0.0014158934789634,0.0014158934792311,-0.0014158934790109,0.0014158934793143,-0.0014158934788033,0.0014158934795931,-0.0014158934787647,0.0014158934793688,-0.0013645865668552,0.0013645865663138,-0.0013645865655383,0.0013645865647814,-0.0013645865676549,0.0013645865643206,-0.0013645865667526,0.0013645865647432,-6.8252650222504e-12,6.6664740496762e-12,-0.0013914447141545,0.0013914447140597,-8.0968350001898e-14,1.9279411027227e-14,-0.0014158934815082,0.001415893476843,-0.0014158934814245,0.0014158934766256,-0.0014158934768943,0.0014158934814229,-0.0014158934767607,0.0014158934813583,-0.001364586558207,0.0013645865718155,-0.0013645865720286,0.0013645865580891,0.75022057319989,0.78347041116359,1368840,32768,0.0057808976503903,0.005780897650612,0.0057808976503288,29.278884573985,29.279158603911,0.00014943107659188,0.00014943107659188,0.00014943107659188,250276.12081192,0.017494146178191
32054400,0.99999160421204,0.016914913020552,0.0056383043401445,0.0056383043403388,0.0056383043400687,-0.0013915109984779,0.0013915109978578,6.1737019123503e-12,-6.7895249376149e-12,5.6093668729866e-14,-6.5431645225799e-13,-0.0014159241714068,0.0014159241755998,-0.0014159241759431,0.0014159241710546,-0.0014159241723681,0.0014159241757641,-0.0014159241766628,0.0014159241714223,-0.0013646831548057,0.0013646831673848,-0.0013646831684115,0.0013646831540347,-7.3777910841349e-13,1.5457233674474e-14,2.2019786134178e-13,1.304382504951e-13,-0.0013915109983923,0.0013915109980486,-0.0014159241736276,0.001415924173885,-0.0014159241736987,0.0014159241739773,-0.0014159241734456,0.0014159241742631,-0.0014159241734355,0.0014159241740364,-0.0013646831611607,0.0013646831606143,-0.0013646831598885,0.0013646831591365,-0.001364683161977,0.0013646831586661,-0.0013646831611363,0.0013646831591293,-6.8299188800782e-12,6.6606858147381e-12,-0.0013915109982018,0.0013915109981044,-8.4837702384074e-14,1.7047243924282e-14,-0.0014159241761732,0.0014159241715096,-0.0014159241760948,0.0014159241713026,-0.0014159241715724,0.0014159241760981,-0.0014159241714179,0.0014159241760228,-0.0013646831525776,0.0013646831661738,-0.0013646831664171,0.0013646831524787,0.75282616860194,0.80523991285448,1368840,32768,0.0057811722575523,0.0057811722577703,0.0057811722574913,29.282779857373,29.2830408607,0.00014946223885898,0.00014946223885898,0.00014946223885898,248110.75649457,0.0174949843363
32140800,0.99999191155926,0.016914918117656,0.005638306039179,0.0056383060393734,0.0056383060391033,-0.0013915779512973,0.0013915779506824,6.1716882385725e-12,-6.7877352275834e-12,5.8357364281403e-14,-6.4889535316297e-13,-0.0014159590092948,0.0014159590134836,-0.0014159590138344,0.0014159590089514,-0.0014159590102519,0.0014159590136498,-0.0014159590145464,0.0014159590093206,-0.0013647772955239,0.0013647773081093,-0.0013647773091407,0.0013647772947545,-7.3861958273758e-13,1.1432974259896e-14,2.2216721294415e-13,1.3420812062227e-13,-0.0013915779512139,0.0013915779508707,-0.0014159590115165,0.0014159590117709,-0.0014159590115727,0.0014159590118726,-0.001415959011349,0.0014159590121429,-0.0014159590113236,0.001415959011925,-0.0013647773018882,0.0013647773013617,-0.0013647773005987,0.001364777299864,-0.0013647773027123,0.0013647772993884,-0.0013647773018469,0.0013647772998373,-6.8290494360509e-12,6.6577948442317e-12,-0.0013915779510247,0.0013915779509242,-8.3775499539524e-14,1.6323148397845e-14,-0.0014159590140698,0.0014159590094003,-0.0014159590139816,0.00141595900918,-0.0014159590094546,0.001415959013979,-0.0014159590093235,0.0014159590139147,-0.0013647772933018,0.0013647773068872,-0.0013647773071278,0.0013647772931722,0.75611982385092,0.83311157431456,1368840,32768,0.0057814496352675,0.0057814496354847,0.0057814496352036,29.286663379951,29.286923117489,0.0001494933070396,0.0001494933070396,0.0001494933070396,245959.41013741,0.017495830964838
32227200,0.99999220772078,0.016914923053133,0.0056383076843381,0.0056383076845325,0.0056383076842624,-0.0013916585873937,0.0013916585867814,6.1731276210709e-12,-6.7853420653987e-12,5.8082078573545e-14,-6.4630781456344e-13,-0.001416001144047,0.0014160011482372,-0.001416001148586,0.0014160011437056,-0.0014160011450027,0.0014160011484038,-0.001416001149297,0.001416001144075,-0.0013648904033753,0.0013648904159763,-0.0013648904170051,0.0013648904026363,-7.3607892505881e-13,1.110510192323e-14,2.2530229364017e-13,1.2791131298543e-13,-0.0013916585873122,0.0013916585869679,-0.0014160011462676,0.0014160011465242,-0.0014160011463262,0.0014160011466227,-0.0014160011461011,0.0014160011468951,-0.0014160011460771,0.0014160011466736,-0.0013648904097553,0.0013648904092305,-0.0013648904084809,0.0013648904077285,-0.0013648904105745,0.0013648904072683,-0.0013648904097073,0.0013648904077147,-6.828887382178e-12,6.6570260441886e-12,-0.0013916585871211,0.0013916585870231,-8.7001400990449e-14,2.249301873607e-14,-0.001416001148822,0.0014160011441531,-0.0014160011487309,0.0014160011439367,-0.0014160011442071,0.0014160011487313,-0.0014160011440735,0.0014160011486706,-0.0013648904011681,0.0013648904147454,-0.0013648904150072,0.0013648904010438,0.75977565122092,0.86098323577464,1368840,32768,0.0057817837053532,0.0057817837055707,0.0057817837052894,29.290545711374,29.290805374277,0.00014952436569099,0.00014952436569099,0.00014952436569099,243403.49305708,0.017496850621426
32313600,0.99999249310128,0.016914927833885,0.0056383092779221,0.0056383092781164,0.0056383092778463,-0.0013917384412178,0.0013917384406042,6.169815986945e-12,-6.7860742195025e-12,5.7177782669753e-14,-6.4717628803217e-13,-0.0014160426408293,0.0014160426450204,-0.0014160426453688,0.0014160426404866,-0.0014160426417851,0.0014160426451878,-0.0014160426460796,0.0014160426408593,-0.0013650019827099,0.0013650019953036,-0.0013650019963247,0.0013650019819487,-7.3678337412661e-13,1.03494779482e-14,2.2696765452925e-13,1.2597950435379e-13,-0.0013917384411356,0.0013917384407912,-0.0014160426430537,0.0014160426433095,-0.0014160426431124,0.0014160426434077,-0.0014160426428846,0.0014160426436798,-0.0014160426428637,0.0014160426434593,-0.0013650019890654,0.0013650019885527,-0.0013650019877991,0.0013650019870464,-0.001365001989885,0.0013650019865806,-0.0013650019890362,0.0013650019870125,-6.8249164446639e-12,6.6584408833192e-12,-0.0013917384409437,0.0013917384408473,-8.8887166911007e-14,2.4185496443803e-14,-0.001416042645605,0.001416042640937,-0.0014160426455133,0.001416042640721,-0.00141604264099,0.0014160426455153,-0.001416042640855,0.0014160426454556,-0.0013650019804804,0.0013650019940739,-0.0013650019943117,0.0013650019803651,0.76373522563589,0.88885489723472,1368840,32768,0.0057821145292861,0.0057821145295032,0.0057821145292222,29.294427915041,29.294687631066,0.00014955542332032,0.00014955542332032,0.00014955542332032,240837.68307418,0.017497860388489
32400000,0.99999276809092,0.016914932466055,0.005638310821979,0.0056383108221733,0.0056383108219032,-0.0013918172297153,0.0013918172291053,6.1741966766473e-12,-6.7840312230911e-12,5.8179957936339e-14,-6.419022138574e-13,-0.0014160834631433,0.0014160834673333,-0.0014160834676828,0.0014160834628021,-0.0014160834640974,0.0014160834675033,-0.0014160834683928,0.001416083463173,-0.0013651117308933,0.0013651117434953,-0.0013651117445023,0.001365111730142,-7.3289264004469e-13,9.9710777433605e-15,2.3095229750702e-13,1.2800050143725e-13,-0.0013918172296345,0.0013918172292911,-0.0014160834653641,0.0014160834656233,-0.0014160834654253,0.0014160834657207,-0.0014160834651989,0.0014160834659942,-0.0014160834651824,0.0014160834657713,-0.0013651117372461,0.0013651117367474,-0.0013651117359887,0.0013651117352386,-0.0013651117380871,0.0013651117347757,-0.0013651117371961,0.0013651117352024,-6.825677774347e-12,6.660030893569e-12,-0.0013918172294422,0.0013918172293474,-8.8068015464933e-14,2.6960764602442e-14,-0.0014160834679193,0.0014160834632516,-0.0014160834678285,0.0014160834630367,-0.0014160834633071,0.0014160834678288,-0.0014160834631694,0.0014160834677735,-0.0013651117286621,0.0013651117422572,-0.0013651117424984,0.0013651117285609,0.76793670649615,0.9167265586948,1368840,32768,0.0057824409357928,0.0057824409360102,0.0057824409357285,29.298310098942,29.298569887855,0.00014958648079154,0.00014958648079154,0.00014958648079154,238279.41060913,0.017498856686412
32486400,0.99999303304821,0.016914936902009,0.00563831230063,0.0056383123008244,0.0056383123005543,-0.0013918924243465,0.001391892423732,6.1721082698585e-12,-6.7822089846416e-12,5.637583658042e-14,-6.496841525951e-13,-0.0014161216837637,0.0014161216879384,-0.0014161216883107,0.0014161216834129,-0.0014161216847154,0.0014161216881168,-0.0014161216890222,0.001416121683792,-0.0013652167551334,0.0013652167677723,-0.0013652167687525,0.0013652167543915,-7.3730632873894e-13,1.161061589189e-14,2.26762366683e-13,1.2261719530532e-13,-0.0013918924242683,0.0013918924239165,-0.001416121685986,0.0014161216862441,-0.001416121686059,0.0014161216863467,-0.0014161216858409,0.001416121686589,-0.0014161216857934,0.0014161216863833,-0.0013652167615411,0.0013652167609974,-0.0013652167602669,0.001365216759412,-0.0013652167624041,0.0013652167590233,-0.0013652167614708,0.0013652167595125,-6.8236694827577e-12,6.658152480365e-12,-0.0013918924240711,0.0013918924239793,-8.7326096953563e-14,2.890276409922e-14,-0.0014161216885358,0.0014161216838725,-0.0014161216884473,0.0014161216836481,-0.0014161216839263,0.0014161216884614,-0.0014161216838078,0.0014161216883908,-0.0013652167529068,0.0013652167665236,-0.0013652167667915,0.0013652167528316,0.76322619987328,0.81481010692511,1368840,32768,0.0057827524514806,0.0057827524517009,0.0057827524514223,29.301025309243,29.301209584371,0.00014960820247394,0.00014960820247394,0.00014960820247394,235750.23984665,0.017499807541622
32572800,0.99999328795318,0.016914941130878,0.0056383137102532,0.0056383137104476,0.0056383137101775,-0.0013916246386279,0.0013916246379994,6.1631372792102e-12,-6.8021415521859e-12,5.6656004492071e-14,-6.5022604780528e-13,-0.0014159605136477,0.0014159605178684,-0.0014159605181694,0.0014159605132735,-0.0014159605146609,0.0014159605180582,-0.0014159605188446,0.0014159605136529,-0.0013648480276055,0.0013648480401737,-0.0013648480412705,0.0013648480267864,-7.5572685423982e-13,-5.975405690752e-15,1.9342256166175e-13,1.0677776742427e-13,-0.0013916246385617,0.0013916246381797,-0.0014159605159394,0.001415960516178,-0.0014159605160022,0.0014159605161781,-0.0014159605157151,0.0014159605165032,-0.001415960515691,0.0014159605162706,-0.0013648480340902,0.0013648480333674,-0.001364848032626,0.0013648480320635,-0.0013648480347504,0.0013648480314591,-0.0013648480339214,0.0013648480319056,-6.8221171184167e-12,6.6707876237818e-12,-0.0013916246383442,0.0013916246382653,-7.1641458461444e-14,2.7060820369337e-14,-0.0014159605184963,0.0014159605137813,-0.0014159605183559,0.0014159605136229,-0.0014159605138246,0.0014159605184482,-0.0014159605136578,0.0014159605182945,-0.0013648480253127,0.0013648480389571,-0.0013648480391264,0.0013648480252203,0.75626102455992,0.71055228244282,1368840,32768,0.0057816428973354,0.0057816428975717,0.0057816428972985,29.27723691944,29.275707084755,0.00014941789535552,0.00014941789535552,0.00014941789535552,241477.42355018,0.017496421390344
32659200,0.99999353317799,0.016914945155994,0.0056383150519584,0.0056383150521528,0.0056383150518827,-0.0013913211095352,0.0013913211089714,6.2045037801979e-12,-6.7546474736857e-12,6.8311060202825e-14,-6.3085675717087e-13,-0.0014157842497997,0.0014157842540485,-0.001415784254373,0.0014157842495287,-0.0014157842507748,0.0014157842541339,-0.0014157842549569,0.00141578424979,-0.0013644275292479,0.0013644275419076,-0.0013644275428193,0.0013644275284825,-7.3116919269482e-13,1.0562942015254e-14,2.271370611187e-13,1.2580512732795e-13,-0.0013913211094734,0.0013913211091419,-0.0014157842519752,0.0014157842522999,-0.0014157842520738,0.0014157842524321,-0.0014157842517943,0.0014157842526474,-0.0014157842517614,0.0014157842524948,-0.0013644275356122,0.0013644275352107,-0.0013644275344098,0.0013644275337117,-0.0013644275364016,0.0013644275330794,-0.0013644275355756,0.0013644275335956,-6.8149139267045e-12,6.671796710602e-12,-0.0013913211092904,0.001391321109196,-8.356156489861e-14,2.9896086695073e-14,-0.001415784254571,0.0014157842499259,-0.0014157842545173,0.0014157842497126,-0.0014157842499939,0.0014157842544972,-0.0014157842498088,0.0014157842544391,-0.0013644275270295,0.0013644275406448,-0.0013644275408387,0.0013644275269315,0.74829752844706,0.60629445796052,1368840,32768,0.0057803852959368,0.0057803852961617,0.0057803852958947,29.251891807595,29.250204585139,0.00014921513446076,0.00014921513446076,0.00014921513446076,248463.68230263,0.017492583252145
32745600,0.99999376910115,0.016914948983833,0.0056383163279047,0.0056383163280991,0.005638316327829,-0.0013909913959471,0.0013909913953353,6.1810486585004e-12,-6.7920839182633e-12,5.0929561783906e-14,-6.397973075726e-13,-0.0014155993423144,0.0014155993465039,-0.0014155993468588,0.0014155993419667,-0.0014155993432643,0.0014155993466767,-0.0014155993475632,0.0014155993423425,-0.0013639663381151,0.0013639663507317,-0.0013639663517126,0.0013639663373507,-7.347439658409e-13,-1.1625527201065e-15,2.328165346735e-13,1.1214680928607e-13,-0.0013909913958703,0.001390991395517,-0.0014155993445299,0.0014155993447944,-0.0014155993445996,0.0014155993448847,-0.0014155993443676,0.0014155993451591,-0.0014155993443546,0.0014155993449295,-0.0013639663444855,0.0013639663439473,-0.0013639663432234,0.0013639663424461,-0.0013639663453091,0.0013639663419691,-0.0013639663444581,0.0013639663424127,-6.8271110835015e-12,6.6735164815936e-12,-0.0013909913956693,0.0013909913955822,-9.471004784952e-14,3.7962722617824e-14,-0.0014155993470909,0.0014155993424174,-0.0014155993469892,0.0014155993422085,-0.0014155993424713,0.0014155993470002,-0.001415599342327,0.0014155993469481,-0.0013639663358679,0.0013639663495046,-0.0013639663497151,0.0013639663358029,0.73975111794196,0.50203663347825,1368840,32768,0.0057790192282862,0.0057790192285035,0.0057790192282223,29.226404534419,29.224702085523,0.00014901123627535,0.00014901123627535,0.00014901123627535,256419.87645731,0.017488414015869
32832000,0.99999399608772,0.01691495262446,0.0056383175414472,0.0056383175416416,0.0056383175413715,-0.0013906343927879,0.0013906343921603,6.1843436607816e-12,-6.7914610549384e-12,4.9311081815593e-14,-6.3910991680721e-13,-0.0014153981816298,0.0014153981857707,-0.0014153981861185,0.0014153981811501,-0.0014153981825626,0.0014153981859725,-0.0014153981868768,0.0014153981816178,-0.0013634680028838,0.0013634680153646,-0.0013634680166712,0.0013634680023029,-7.5538868809998e-13,-2.3907122594992e-14,2.1543612445663e-13,8.809342645335e-14,-0.0013906343927279,0.0013906343923391,-0.0014153981837112,0.0014153981840078,-0.0014153981838563,0.0014153981841343,-0.0014153981837283,0.0014153981844046,-0.0014153981836589,0.0014153981841739,-0.0013634680091523,0.0013634680088046,-0.0013634680081401,0.0013634680072341,-0.001363468010198,0.0013634680068425,-0.0013634680091173,0.0013634680071921,-6.856376542403e-12,6.6468471786754e-12,-0.0013906343925083,0.0013906343924057,-1.0681267812247e-13,3.2457243747601e-14,-0.0014153981863381,0.0014153981817033,-0.0014153981862438,0.0014153981814967,-0.0014153981817228,0.0014153981862755,-0.001415398181593,0.0014153981862202,-0.0013634680009032,0.0013634680141945,-0.0013634680146154,0.0013634680005105,0.7313529681278,0.40460927212686,1368840,32768,0.0057775401031131,0.0057775401033591,0.0057775401030424,29.200903413033,29.199199585907,0.00014880722730426,0.00014880722730426,0.00014880722730426,265262.75529094,0.017483899691323
32918400,0.99999421448809,0.016914956175901,0.0056383187252609,0.0056383187254553,0.0056383187251852,-0.001390269745338,0.001390269744705,6.159951567708e-12,-6.8033289864989e-12,2.832792871887e-14,-6.2697858152883e-13,-0.0014151973723087,0.0014151973764427,-0.0014151973768579,0.0014151973719097,-0.0014151973732219,0.001415197376648,-0.0014151973775009,0.0014151973723161,-0.0013629556128183,0.0013629556253639,-0.0013629556264686,0.0013629556121133,-7.3450191441187e-13,-3.6154689616697e-14,2.4947608455922e-13,7.8024307587432e-14,-0.0013902697452602,0.0013902697448875,-0.0014151973744468,0.0014151973747663,-0.0014151973745526,0.0014151973748754,-0.0014151973743438,0.0014151973751251,-0.0014151973743373,0.0014151973748895,-0.0013629556191426,0.0013629556187248,-0.0013629556178813,0.0013629556170913,-0.0013629556201035,0.001362955616653,-0.0013629556191829,0.0013629556172829,-6.8343068636754e-12,6.6564620614179e-12,-0.0013902697450462,0.0013902697449679,-9.6857982231599e-14,8.6535591691192e-14,-0.0014151973770528,0.0014151973723542,-0.001415197376933,0.0014151973721894,-0.0014151973724339,0.0014151973769674,-0.001415197372271,0.00141519737692,-0.0013629556106304,0.0013629556241553,-0.0013629556244348,0.0013629556104633,0.74157911980041,0.59136693301626,1368840,32768,0.0057760293175957,0.0057760293178124,0.0057760293175359,29.175400851092,29.173697086291,0.00014860320680873,0.00014860320680873,0.00014860320680873,274498.7890441,0.017479288718401
33004800,0.99999442463851,0.016914959599004,0.005638319866295,0.0056383198664893,0.0056383198662192,-0.0013907646501907,0.0013907646495819,6.1729539057896e-12,-6.7750959078236e-12,2.7823032378401e-14,-6.2384867714526e-13,-0.0014154272200804,0.0014154272242559,-0.0014154272246315,0.0014154272197355,-0.0014154272210453,0.0014154272244439,-0.0014154272253279,0.0014154272201078,-0.0013636992133974,0.0013636992260437,-0.0013636992270231,0.0013636992126449,-7.1993715347297e-13,-2.5472545360636e-14,2.539715942833e-13,8.1624932884918e-14,-0.0013907646501243,0.0013907646497553,-0.0014154272223032,0.0014154272226076,-0.0014154272223796,0.0014154272226571,-0.0014154272221746,0.0014154272229304,-0.0014154272221553,0.0014154272226873,-0.0013636992196737,0.0013636992192751,-0.0013636992184493,0.001363699217693,-0.0013636992205426,0.0013636992172907,-0.0013636992198127,0.0013636992177893,-6.8086934696764e-12,6.6668648024448e-12,-0.0013907646499051,0.0013907646498401,-1.0782270609034e-13,7.6332491624189e-14,-0.0014154272248862,0.0014154272201811,-0.0014154272247337,0.0014154272199959,-0.0014154272202336,0.0014154272247785,-0.0014154272200753,0.001415427224733,-0.0013636992111119,0.0013636992248059,-0.001363699224973,0.0013636992111052,0.74293816212911,0.62503185655508,1368840,32768,0.005778079977036,0.0057780799772574,0.0057780799769791,29.149898230987,29.148194586675,0.0001483991858479,0.0001483991858479,0.0001483991858479,258678.21915114,0.017485546737543
33091200,0.99999462686164,0.016914962938473,0.0056383209794513,0.0056383209796457,0.0056383209793756,-0.0013908042159928,0.0013908042153824,6.1656144535342e-12,-6.8065702992437e-12,3.9010631781389e-14,-6.0808368816661e-13,-0.0014154198266843,0.0014154198308701,-0.0014154198312194,0.0014154198263319,-0.0014154198276235,0.0014154198310624,-0.0014154198319246,0.0014154198267342,-0.0013637833954505,0.0013637834079847,-0.0013637834091316,0.0013637833945591,-7.3653796985883e-13,-4.6523608147471e-14,2.5707938169547e-13,6.0320848415957e-14,-0.0013908042159306,0.0013908042155494,-0.0014154198288964,0.0014154198291578,-0.0014154198290018,0.0014154198292255,-0.0014154198287448,0.001415419829523,-0.0014154198287474,0.0014154198292515,-0.0013637834018324,0.0013637834013755,-0.0013637834007211,0.0013637833997953,-0.0013637834026558,0.0013637833992348,-0.0013637834017612,0.0013637833996414,-6.8190393889098e-12,6.6805877949815e-12,-0.0013908042157042,0.0013908042156396,-1.2536628779302e-13,8.305652150381e-14,-0.0014154198314616,0.0014154198267855,-0.0014154198313342,0.0014154198266044,-0.0014154198268428,0.0014154198313652,-0.0014154198266715,0.0014154198313373,-0.0013637833932681,0.0013637834069749,-0.0013637834070036,0.0013637833930741,0.75302747846124,0.79978099776202,1368840,32768,0.0057782439620375,0.0057782439622546,0.0057782439619726,29.124396145018,29.122692087059,0.00014819516916014,0.00014819516916014,0.00014819516916014,255887.75074401,0.017486047009682
33177600,0.99999482146708,0.016914966164689,0.0056383220548567,0.0056383220550511,0.005638322054781,-0.0013911912730284,0.0013911912724399,6.1855357714222e-12,-6.7756895955692e-12,3.3526416967446e-14,-5.9611225976789e-13,-0.0014155909738862,0.001415590978074,-0.0014155909784259,0.0014155909735424,-0.0014155909748174,0.0014155909782673,-0.0014155909791112,0.0014155909739391,-0.0013643721421163,0.0013643721547747,-0.0013643721557458,0.0013643721414061,-7.1432061917188e-13,-4.1879250029423e-14,2.624425707949e-13,6.3576337198304e-14,-0.0013911912729723,0.001391191272601,-0.0014155909760892,0.001415590976382,-0.0014155909761828,0.0014155909764453,-0.0014155909759492,0.0014155909767265,-0.0014155909759591,0.0014155909764702,-0.0013643721484974,0.001364372148022,-0.0013643721473179,0.0013643721464272,-0.0013643721493388,0.0013643721460271,-0.0013643721485331,0.0013643721464035,-6.8102468928086e-12,6.6783829799842e-12,-0.0013911912727502,0.0013911912726873,-1.2113065248289e-13,8.9417915402887e-14,-0.0014155909786616,0.001415590973992,-0.0014155909785345,0.0014155909738086,-0.0014155909740475,0.0014155909785716,-0.0014155909738781,0.0014155909785437,-0.001364372139889,0.0013643721535637,-0.0013643721537348,0.0013643721398421,0.75593956099265,0.82129808892253,1368840,32768,0.0057798477590509,0.0057798477592681,0.005779847758987,29.098893775465,29.097189587443,0.00014799115020372,0.00014799115020372,0.00014799115020372,243311.04833846,0.017490941291331
33264000,0.9999950088524,0.01691496928456,0.0056383230948138,0.0056383230950082,0.0056383230947381,-0.001391219209605,0.0013912192090179,6.18842950655e-12,-6.7759737045369e-12,3.0844175378673e-14,-5.9527722645405e-13,-0.0014155866781418,0.0014155866823329,-0.0014155866826822,0.0014155866778009,-0.0014155866790718,0.0014155866825267,-0.0014155866833676,0.0014155866781947,-0.0013644271418791,0.0013644271545335,-0.0013644271555088,0.0013644271411747,-7.1385442753136e-13,-4.4945038724624e-14,2.5622164319291e-13,7.1769278086054e-14,-0.0013912192095496,0.0013912192091782,-0.001415586680348,0.0014155866806371,-0.0014155866804367,0.0014155866807054,-0.0014155866802071,0.001415586680981,-0.0014155866802128,0.0014155866807294,-0.0013644271482718,0.0013644271477709,-0.0013644271470681,0.0013644271462005,-0.0013644271490908,0.0013644271457767,-0.0013644271482998,0.0013644271461604,-6.8166847549599e-12,6.6751422554567e-12,-0.0013912192093306,0.0013912192092611,-1.1699971985652e-13,7.9201345159154e-14,-0.0014155866829173,0.0014155866782474,-0.0014155866827958,0.0014155866780582,-0.0014155866783029,0.0014155866828272,-0.0014155866781372,0.0014155866827951,-0.0013644271396589,0.0013644271533123,-0.0013644271534989,0.0013644271395938,0.75905499279358,0.84281518008304,1368840,32768,0.0057799635001031,0.0057799635003202,0.0057799635000384,29.082801532607,29.081704623438,0.00014786241226085,0.00014786241226085,0.00014786241226085,241140.03987122,0.017491294547498
33350400,0.99999519071886,0.016914972325854,0.0056383241085784,0.0056383241087728,0.0056383241085027,-0.0013915132716896,0.0013915132710845,6.1798603859778e-12,-6.7906372565754e-12,1.4986159830163e-14,-6.0620577494734e-13,-0.00141584567575,0.0014158456799415,-0.0014158456802861,0.0014158456754012,-0.0014158456766669,0.0014158456801111,-0.0014158456809681,0.0014158456757975,-0.0013647495324325,0.0013647495451183,-0.0013647495459607,0.0013647495316491,-7.2607093667834e-13,-6.206889795542e-14,2.1096755508601e-13,7.8254815251463e-14,-0.0013915132716287,0.0013915132712489,-0.0014158456779199,0.0014158456782115,-0.0014158456780042,0.0014158456783032,-0.0014158456777733,0.001415845678552,-0.0014158456777731,0.0014158456783174,-0.0013647495389472,0.0013647495383233,-0.0013647495377321,0.0013647495367825,-0.00136474953963,0.0013647495362976,-0.0013647495388773,0.0013647495367535,-6.807201632898e-12,6.6907545432179e-12,-0.0013915132714105,0.001391513271333,-1.0498920441658e-13,3.9678552553338e-14,-0.0014158456804964,0.0014158456758338,-0.0014158456803951,0.0014158456756114,-0.0014158456758765,0.0014158456804189,-0.0014158456757297,0.0014158456803466,-0.0013647495302184,0.0013647495439768,-0.0013647495441278,0.0013647495302831,0.76237038149601,0.86433227124355,1368840,32768,0.0057811817121577,0.0057811817123719,0.0057811817120943,29.205061617484,29.21292082576,0.00014884049293987,0.00014884049293987,0.00014884049293987,238910.13080286,0.017495013038975
33436800,0.99999536726308,0.016914975291749,0.0056383250972101,0.0056383250974044,0.0056383250971343,-0.0013918219909632,0.0013918219902714,6.1011670694164e-12,-6.8791773164433e-12,-5.4821854641737e-17,-6.3903115450747e-13,-0.0014161241164671,0.0014161241205918,-0.0014161241206701,0.0014161241156091,-0.0014161241173314,0.0014161241205883,-0.0014161241214617,0.0014161241167272,-0.0013650826733186,0.0013650826857091,-0.0013650826868544,0.0013650826720755,-7.583558915716e-13,-7.609429301864e-14,1.7591862580674e-13,4.7233409992924e-14,-0.0013918219909426,0.001391821990462,-0.0014161241186465,0.0014161241187148,-0.0014161241186679,0.0014161241189594,-0.0014161241184671,0.0014161241188677,-0.0014161241181981,0.0014161241189454,-0.0013650826785825,0.0013650826784332,-0.0013650826787575,0.0013650826768466,-0.0013650826796908,0.0013650826766427,-0.001365082678639,0.0013650826777016,-6.7815227703109e-12,6.7265789782178e-12,-0.0013918219906629,0.0013918219906339,-1.1480419869289e-13,2.5289698005321e-14,-0.0014161241211256,0.001416124116497,-0.0014161241209667,0.0014161241164398,-0.0014161241167719,0.0014161241213808,-0.0014161241165473,0.0014161241211382,-0.0013650826703002,0.0013650826841906,-0.0013650826836413,0.0013650826700086,0.76586133067886,0.88584936240405,1368840,32768,0.0057824606330178,0.0057824606333699,0.0057824606331468,29.335447933613,29.344137028082,0.0001498835834689,0.0001498835834689,0.0001498835834689,236788.89088542,0.017498916906023
33523200,0.99999553859835,0.016914978183893,0.005638326061258,0.0056383260614523,0.0056383260611822,-0.0013921310493677,0.0013921310487819,6.2085878613143e-12,-6.7842462165232e-12,6.7472821104572e-14,-6.1600032867162e-13,-0.0014164029998286,0.0014164030037864,-0.0014164030042773,0.0014164029995556,-0.0014164030006478,0.0014164030041286,-0.0014164030049798,0.0014164029997534,-0.0013654158974236,0.0013654159104008,-0.0013654159110473,0.0013654158968082,-7.5376514946268e-13,-2.6873590794954e-14,1.5266027750978e-13,3.043854071171e-14,-0.001392131049268,0.0013921310488694,-0.0014164030024552,0.0014164030020939,-0.0014164030018873,0.0014164030022458,-0.0014164030021419,0.0014164030023552,-0.0014164030016649,0.0014164030025094,-0.0013654159036271,0.0013654159028479,-0.0013654159024865,0.0013654159018847,-0.001365415904426,0.0013654159008567,-0.0013654159041286,0.0013654159017912,-6.8764606347301e-12,6.6441572020288e-12,-0.0013921310491449,0.0013921310489648,-1.7412932752739e-13,-3.992078044756e-14,-0.0014164030044646,0.0014164029998951,-0.0014164030046506,0.0014164029997494,-0.0014164029998488,0.001416403004457,-0.0014164030000252,0.001416403004316,-0.001365415895025,0.0013654159088522,-0.001365415909479,0.001365415895508,0.76950074914319,0.90736645356454,1368840,32768,0.0057837409547429,0.0057837409547173,0.0057837409546601,29.466577196096,29.475353230406,0.00015093261756876,0.00015093261756876,0.00015093261756876,234688.84973078,0.017502825071179
33609600,0.99999570483028,0.016914980986072,0.0056383269953178,0.0056383269955121,0.005638326995242,-0.0013924390783881,0.0013924390777924,6.2041936426135e-12,-6.7946636041615e-12,3.1410040444825e-14,-6.2077909444831e-13,-0.0014166803834145,0.0014166803876193,-0.0014166803879712,0.0014166803830787,-0.0014166803843488,0.0014166803878074,-0.0014166803886612,0.001416680383472,-0.0013657482826732,0.0013657482953102,-0.0013657482962042,0.0013657482818338,-7.1969163156173e-13,-2.473527376613e-14,2.3576715041657e-13,7.5450003877702e-14,-0.0013924390783276,0.0013924390779589,-0.0014166803856344,0.0014166803859087,-0.001416680385708,0.001416680385986,-0.0014166803854816,0.001416680386257,-0.0014166803854807,0.0014166803860186,-0.001365748289034,0.0013657482883969,-0.0013657482877396,0.0013657482869047,-0.0013657482898023,0.0013657482864207,-0.0013657482890886,0.001365748286928,-6.826724036502e-12,6.6996563889197e-12,-0.0013924390781133,0.0013924390780378,-1.1062844390639e-13,6.1543766938989e-14,-0.0014166803881999,0.001416680383522,-0.001416680388092,0.0014166803833235,-0.00141668038358,0.0014166803881108,-0.0014166803834162,0.0014166803880653,-0.0013657482803264,0.0013657482940884,-0.0013657482941675,0.00136574828035,0.7684334184774,0.85812931190057,1368840,32768,0.0057850170084106,0.0057850170086298,0.0057850170083497,29.59778297526,29.606569432728,0.00015198226380208,0.00015198226380208,0.00015198226380208,232604.18613636,0.017506720226005
33696000,0.9999958660632,0.016914983726909,0.0056383279089301,0.0056383279091244,0.0056383279088543,-0.0013925918678822,0.0013925918672207,6.1755540910616e-12,-6.8476548676677e-12,2.8085671413782e-14,-6.7559909620548e-13,-0.0014168803799956,0.0014168803841049,-0.0014168803844497,0.001416880379532,-0.001416880381099,0.0014168803843563,-0.0014168803853763,0.0014168803800857,-0.0013658542785819,0.0013658542908882,-0.0013658542922335,0.0013658542777652,-6.6469907625243e-13,8.1828441373756e-14,2.9984460465903e-13,1.3616751664642e-13,-0.0013925918677378,0.0013925918674744,-0.0014168803821487,0.0014168803825186,-0.0014168803822471,0.0014168803825173,-0.0014168803819967,0.0014168803828293,-0.0014168803821022,0.0014168803826408,-0.0013658542854383,0.001365854284243,-0.0013658542833465,0.0013658542828458,-0.0013658542856138,0.0013658542822618,-0.0013658542848166,0.0013658542826274,-6.841874691307e-12,6.7089026358649e-12,-0.0013925918675571,0.0013925918675052,-8.9975427783031e-14,8.5591679350595e-14,-0.0014168803847303,0.0014168803800661,-0.0014168803846355,0.0014168803799023,-0.0014168803800597,0.0014168803845325,-0.0014168803799581,0.0014168803846609,-0.0013658542762579,0.0013658542897313,-0.0013658542899075,0.001365854275973,0.77489380906008,0.94143566578773,1368840,32768,0.0057856498415332,0.0057856498417594,0.0057856498414492,29.728990330861,29.73778563505,0.00015303192264689,0.00015303192264689,0.00015303192264689,234904.0187418,0.017508652377782
33782400,0.99999602240096,0.016914986387138,0.0056383287956731,0.0056383287958675,0.0056383287955974,-0.0013930264609948,0.0013930264603846,6.1957794878955e-12,-6.8112626853063e-12,4.728726128898e-14,-6.3857472727453e-13,-0.0014172255332745,0.0014172255374833,-0.0014172255378303,0.0014172255329384,-0.0014172255342299,0.0014172255376542,-0.0014172255385374,0.0014172255333143,-0.0013663691061098,0.0013663691187636,-0.0013663691197787,0.0013663691053631,-7.2630969409034e-13,2.283371421041e-15,2.5213288574871e-13,8.2066478219541e-14,-0.001393026460917,0.0013930264605671,-0.0014172255355006,0.0014172255357787,-0.0014172255355813,0.0014172255358511,-0.0014172255353298,0.0014172255361436,-0.0014172255353318,0.0014172255358963,-0.0013663691125369,0.0013663691119621,-0.0013663691112736,0.0013663691104302,-0.0013663691133131,0.0013663691099258,-0.0013663691124711,0.0013663691104048,-6.8376642905201e-12,6.6969154138311e-12,-0.0013930264607107,0.0013930264606377,-1.1437950578461e-13,6.7449351233325e-14,-0.0014172255380717,0.0014172255333888,-0.0014172255379561,0.0014172255331995,-0.0014172255334458,0.0014172255379848,-0.001417225533285,0.0014172255379469,-0.001366369103816,0.0013663691175019,-0.0013663691176992,0.0013663691037483,0.77568247358427,0.9123616557077,1368840,32768,0.0057874503311391,0.005787450331356,0.0057874503310753,29.860202855048,29.869001837372,0.00015408162284038,0.00015408162284038,0.00015408162284038,229465.50040285,0.017514147956763
33868800,0.99999617394684,0.01691498894469,0.0056383296481904,0.0056383296483848,0.0056383296481147,-0.0013932264624857,0.0013932264618713,6.1840956683576e-12,-6.7936885163027e-12,4.5714221108983e-14,-6.5282746833367e-13,-0.0014174492664886,0.0014174492706888,-0.0014174492710196,0.0014174492661565,-0.0014174492674913,0.0014174492708069,-0.0014174492717553,0.001417449266525,-0.0013665431132646,0.0013665431258771,-0.0013665431268581,0.0013665431125322,-7.2589017749452e-13,1.5531672576888e-14,2.5452522442911e-13,8.7934078380148e-14,-0.0013932264624018,0.0013932264620545,-0.0014174492686823,0.0014174492689987,-0.0014174492688143,0.0014174492690398,-0.0014174492685574,0.001417449269367,-0.0014174492685137,0.0014174492690966,-0.0013665431196202,0.0013665431190748,-0.0013665431184607,0.0013665431176102,-0.0013665431203313,0.0013665431171232,-0.0013665431196124,0.0013665431176625,-6.8269818521553e-12,6.6785333283323e-12,-0.0013932264621999,0.0013932264621262,-1.1482755092067e-13,6.3639349979189e-14,-0.0014174492712715,0.0014174492665696,-0.0014174492711135,0.0014174492664357,-0.0014174492666588,0.0014174492711375,-0.0014174492664979,0.0014174492711068,-0.0013665431110903,0.0013665431247111,-0.0013665431248953,0.0013665431110925,0.76926648008104,0.79912606441466,1368840,32768,0.0057882787742507,0.0057882787744562,0.0057882787741867,29.991420405196,30.000218039695,0.00015513136324156,0.00015513136324156,0.00015513136324156,230381.24369629,0.017516677124416
33955200,0.9999963208034,0.016914991416695,0.0056383304721921,0.0056383304723865,0.0056383304721164,-0.0013932301725546,0.0013932301719582,6.2037901990561e-12,-6.77870226824e-12,3.7597557302785e-14,-6.2233213523928e-13,-0.0014175744459533,0.0014175744501887,-0.0014175744505349,0.0014175744455988,-0.0014175744468966,0.0014175744503871,-0.0014175744512854,0.0014175744460015,-0.0013664332048106,0.0013664332176691,-0.0013664332183191,0.00136643320421,-7.2357986572002e-13,-2.0816540539564e-14,2.6331136778316e-13,9.394605648305e-14,-0.0013932301724725,0.001393230172128,-0.001417574448202,0.0014175744484207,-0.0014175744483399,0.0014175744485727,-0.0014175744480159,0.001417574448829,-0.0014175744481076,0.0014175744486233,-0.0013664332113952,0.001366433210637,-0.0013664332099596,0.0013664332092186,-0.001366433211842,0.0013664332085677,-0.0013664332112095,0.0013664332091134,-6.8248696225649e-12,6.6852894748779e-12,-0.0013932301722658,0.0013932301721986,-1.0715090308405e-13,7.3987327973211e-14,-0.0014175744508421,0.0014175744460697,-0.0014175744506286,0.0014175744458988,-0.0014175744461233,0.0014175744506664,-0.0014175744459836,0.0014175744506481,-0.001366433202561,0.0013664332160892,-0.0013664332164088,0.0013664332026584,0.76728907593611,0.77434335722282,1368840,32768,0.0057882939348377,0.0057882939350191,0.0057882939347376,30.12263459822,30.131434242017,0.00015618107678576,0.00015618107678576,0.00015618107678576,237005.56095035,0.01751672414282
34041600,0.99999646316756,0.016914993806181,0.0056383312686874,0.0056383312688818,0.0056383312686116,-0.0013934432295473,0.0013934432290179,6.2165508092282e-12,-6.7660849478081e-12,6.3074249595559e-14,-5.8502059861052e-13,-0.0014178215116939,0.001417821515875,-0.0014178215161885,0.0014178215113643,-0.0014178215127625,0.0014178215161767,-0.0014178215169598,0.001417821511833,-0.0013666150184641,0.0013666150302555,-0.0013666150312884,0.0013666150177658,-6.7045042996429e-13,1.9130239113738e-14,3.1183529717514e-13,1.307571231067e-13,-0.0013934432294851,0.0013934432291888,-0.0014178215138567,0.0014178215144988,-0.0014178215139772,0.0014178215144732,-0.0014178215138497,0.0014178215145267,-0.0014178215138506,0.0014178215143448,-0.0013666150240278,0.0013666150244643,-0.0013666150231202,0.0013666150228908,-0.0013666150251756,0.0013666150221819,-0.0013666150246267,0.00136661502287,-6.8280003504527e-12,6.6823232713757e-12,-0.0013934432293442,0.0013934432292281,-9.8329819620919e-14,9.4283766754468e-14,-0.0014178215167865,0.0014178215119093,-0.0014178215164743,0.0014178215117721,-0.001417821512232,0.001417821516469,-0.0014178215117654,0.0014178215163219,-0.0013666150162916,0.0013666150293738,-0.0013666150295537,0.0013666150160217,0.76515353671658,0.75098643361818,1368840,32768,0.0057891765185371,0.0057891765187621,0.005789176518552,30.265684618838,30.275253776393,0.0001573254769507,0.0001573254769507,0.0001573254769507,238598.73160882,0.017519418389291
34128000,0.99999660212185,0.016914996131331,0.0056383320437376,0.0056383320439319,0.0056383320436618,-0.00139390400761,0.0013939040075027,6.4176832235946e-12,-6.5295483503094e-12,2.972573307573e-13,-3.8469430667652e-13,-0.0014183122609235,0.0014183122655277,-0.0014183122652393,0.0014183122609285,-0.0014183122621594,0.0014183122657673,-0.0014183122664667,0.0014183122611619,-0.0013670479710472,0.0013670479835786,-0.0013670479847783,0.0013670479702462,-6.1739031562024e-13,1.0431816609281e-13,4.2412051399766e-13,2.3671818018679e-13,-0.001393904007695,0.0013939040075783,-0.0014183122630095,0.0014183122637916,-0.0014183122633824,0.0014183122640593,-0.0014183122634487,0.0014183122639304,-0.0014183122634098,0.0014183122636006,-0.0013670479769109,0.0013670479773741,-0.0013670479762317,0.0013670479761123,-0.0013670479782551,0.0013670479747276,-0.0013670479771424,0.0013670479760573,-6.8570061114054e-12,6.6180597051718e-12,-0.0013939040076603,0.0013939040075326,-1.4924891113645e-13,4.8414991543477e-14,-0.0014183122659889,0.0014183122608794,-0.0014183122658776,0.001418312260925,-0.0014183122614135,0.0014183122651348,-0.0014183122613059,0.0014183122660609,-0.001367047969663,0.0013670479835536,-0.0013670479829345,0.0013670479690086,0.76284119405043,0.72762951001354,1368840,32768,0.0057910853258726,0.0057910853262051,0.0057910853260389,30.535934080257,30.553782449215,0.00015948747264205,0.00015948747264205,0.00015948747264205,240088.79990764,0.017525245208517
34214400,0.99999673771645,0.016914998386848,0.0056383327955765,0.0056383327957708,0.0056383327955007,-0.0013943782452262,0.0013943782443787,6.0052783958084e-12,-6.9987723687789e-12,-6.7624434119957e-14,-7.1620838503134e-13,-0.0014188199194945,0.0014188199236355,-0.0014188199239841,0.0014188199191005,-0.0014188199208401,0.0014188199243664,-0.0014188199247568,0.0014188199200471,-0.0013674924180589,0.0013674924297219,-0.0013674924314839,0.0013674924163493,-6.990541737866e-13,-5.8252926295441e-15,2.7402333465758e-13,2.7770666331089e-14,-0.0013943782450613,0.0013943782446326,-0.0014188199221072,0.0014188199219323,-0.0014188199218131,0.0014188199223179,-0.0014188199216203,0.001418819922547,-0.0014188199221043,0.0014188199216895,-0.0013674924237631,0.0013674924233652,-0.0013674924233211,0.0013674924218211,-0.0013674924247772,0.0013674924213795,-0.0013674924243654,0.0013674924222047,-6.8342281601974e-12,6.6979391472626e-12,-0.001394378244878,0.0013943782447495,-2.2085960583182e-13,3.7446561915591e-14,-0.0014188199246976,0.0014188199195674,-0.0014188199245162,0.0014188199196246,-0.0014188199200517,0.0014188199242537,-0.001418819919623,0.0014188199246164,-0.0013674924157218,0.0013674924293389,-0.0013674924291537,0.0013674924152912,0.75834979505518,0.67431668349713,1368840,32768,0.0057930498783027,0.0057930498784871,0.0057930498783498,30.813685832097,30.832311122036,0.00016170948665677,0.00016170948665677,0.00016170948665677,241696.55661196,0.017531242261162
34300800,0.99999686994747,0.016915000570483,0.0056383335234549,0.0056383335236492,0.0056383335233791,-0.0013947775297714,0.0013947775291299,6.117790796867e-12,-6.8066873544913e-12,4.791412449168e-14,-6.0908453994422e-13,-0.001419289910844,0.001419289915018,-0.0014192899155604,0.0014192899104599,-0.0014192899118098,0.0014192899151264,-0.0014192899157032,0.0014192899110415,-0.001367828142545,0.001367828155172,-0.0013678281575256,0.0013678281428827,-7.3319383672569e-13,-3.2460655408083e-14,2.2394304104676e-13,8.7135279253501e-15,-0.001394777529708,0.0013947775292945,-0.0014192899133725,0.0014192899133676,-0.0014192899134003,0.0014192899137095,-0.0014192899129186,0.0014192899137589,-0.0014192899130835,0.0014192899134971,-0.0013678281490308,0.0013678281499822,-0.0013678281488837,0.0013678281476582,-0.0013678281511334,0.0013678281470084,-0.001367828150171,0.0013678281480569,-6.5333331170403e-12,6.9188972206745e-12,-0.001394777529238,0.0013947775296486,1.6122766284087e-13,3.8737040139426e-13,-0.0014192899153481,0.0014192899110336,-0.0014192899151254,0.0014192899109488,-0.0014192899109692,0.0014192899156232,-0.0014192899106691,0.0014192899158164,-0.0013678281420997,0.0013678281551381,-0.0013678281558606,0.0013678281410365,0.75287685977762,0.61110028707413,1368840,32768,0.0057947038724961,0.0057947038727059,0.0057947038724658,31.092125622559,31.110839794857,0.00016393700498047,0.00016393700498047,0.00016393700498047,245498.20707866,0.017536291533872
34387200,0.99999699880954,0.016915002704656,0.0056383342348456,0.00563833423504,0.0056383342347699,-0.0013951436450825,0.0013951436446585,6.2415478397037e-12,-6.6389210090497e-12,1.4789757006605e-13,-4.9394796905213e-13,-0.0014197414781095,0.0014197414823763,-0.0014197414823654,0.0014197414780534,-0.001419741479206,0.0014197414824029,-0.0014197414832003,0.001419741478436,-0.0013681175106528,0.0013681175237898,-0.0013681175247195,0.0013681175110184,-8.0786884957295e-13,-1.2348272768743e-13,3.0699315098173e-13,8.5572621109282e-14,-0.0013951436451092,0.0013951436447257,-0.0014197414801786,0.0014197414801539,-0.0014197414803268,0.0014197414806178,-0.0014197414800651,0.0014197414807203,-0.0014197414797232,0.0014197414805248,-0.0013681175167643,0.0013681175173409,-0.0013681175166445,0.0013681175149507,-0.0013681175189425,0.0013681175149226,-0.0013681175177614,0.0013681175153391,-6.7248867946187e-12,6.6835594689048e-12,-0.0013951436448277,0.0013951436448346,-5.7686943585824e-14,1.7603715159762e-13,-0.0014197414826412,0.0014197414780306,-0.0014197414827606,0.0014197414781031,-0.0014197414783573,0.0014197414825673,-0.0014197414780787,0.0014197414826462,-0.001368117509249,0.001368117522663,-0.0013681175233855,0.0013681175089737,0.7550989447234,0.66690379671628,1368840,32768,0.0057962204387914,0.0057962204389857,0.0057962204386282,31.370630295761,31.389368467679,0.00016616504236608,0.00016616504236608,0.00016616504236608,250283.04606441,0.017540921373692
34473600,0.9999971243004,0.016915004790377,0.0056383349300862,0.0056383349302806,0.0056383349300105,-0.001395818666574,0.0013958186658928,6.093385174795e-12,-6.7777302391113e-12,-9.7458787406826e-15,-6.3851152332302e-13,-0.0014203564143938,0.0014203564185707,-0.0014203564190133,0.0014203564140947,-0.0014203564152848,0.0014203564186975,-0.0014203564195367,0.0014203564146056,-0.0013688513215377,0.0013688513347861,-0.001368851335545,0.0013688513213265,-6.7439836818101e-13,-3.3169280818886e-15,4.4389649809022e-13,2.0203307802815e-13,-0.0013958186663482,0.0013958186662089,-0.0014203564165353,0.0014203564173019,-0.001420356416774,0.0014203564172169,-0.0014203564162958,0.0014203564174516,-0.0014203564163506,0.0014203564172384,-0.0013688513281004,0.0013688513277108,-0.0013688513261539,0.0013688513254904,-0.0013688513293531,0.0013688513251324,-0.001368851328589,0.0013688513258096,-6.7323753305549e-12,6.6660657680313e-12,-0.0013958186662167,0.0013958186662256,-9.1114157701496e-14,1.6244780203704e-13,-0.0014203564193038,0.0014203564147162,-0.0014203564189739,0.0014203564146129,-0.0014203564147505,0.0014203564191462,-0.0014203564147636,0.0014203564191866,-0.0013688513187088,0.0013688513323196,-0.0013688513327755,0.0013688513189442,0.7578306867447,0.72270730635844,1368840,32768,0.0057990169053874,0.0057990169055743,0.0057990169053366,31.64914055541,31.667897140501,0.00016839312444328,0.00016839312444328,0.00016839312444328,246345.41988796,0.017549457506009
34560000,0.99999724642137,0.016915006829444,0.0056383356097751,0.0056383356099695,0.0056383356096994,-0.0013964918266741,0.0013964918261325,6.1959312479652e-12,-6.7709846216558e-12,3.3959256685666e-14,-5.3665372324419e-13,-0.0014209632426268,0.0014209632469685,-0.0014209632474035,0.0014209632424078,-0.0014209632437263,0.001420963247405,-0.0014209632479676,0.0014209632431162,-0.0013695875849745,0.0013695875976528,-0.0013695875985359,0.0013695875844968,-7.4175504577486e-13,-1.282741401366e-13,2.1687684514949e-13,1.1458326426581e-15,-0.0013964918266932,0.0013964918261881,-0.0014209632452277,0.0014209632452563,-0.0014209632451627,0.0014209632452951,-0.0014209632448629,0.0014209632455962,-0.0014209632449212,0.0014209632452371,-0.0013695875916172,0.0013695875908792,-0.0013695875901294,0.0013695875891664,-0.0013695875922009,0.0013695875888351,-0.0013695875912,0.0013695875891264,-6.8102562454641e-12,6.6841726266439e-12,-0.0013964918263948,0.0013964918263451,-1.0436445879625e-13,1.2261978346155e-13,-0.0014209632475669,0.0014209632427406,-0.0014209632475181,0.001420963242702,-0.0014209632429739,0.0014209632475768,-0.0014209632425991,0.001420963247539,-0.0013695875829374,0.0013695875964728,-0.0013695875966403,0.0013695875829452,0.76127760619498,0.7785108160006,1368840,32768,0.0058018056368114,0.005801805636966,0.0058018056366732,31.927649641349,31.946425813322,0.00017062119713079,0.00017062119713079,0.00017062119713079,242329.84376295,0.017557970133541
34646400,0.99999736517734,0.016915008823863,0.0056383362745815,0.0056383362747759,0.0056383362745058,-0.0013971631061792,0.0013971631057368,6.2426722612358e-12,-6.6968583567506e-12,6.401322091063e-14,-4.7605642739116e-13,-0.0014215683633772,0.0014215683677124,-0.0014215683680431,0.0014215683631282,-0.0014215683641955,0.0014215683679979,-0.0014215683685102,0.0014215683633777,-0.0013703206333467,0.0013703206462877,-0.0013703206466393,0.0013703206325577,-6.8750514424859e-13,-1.0443422137093e-13,1.6731982967053e-13,-1.4628082533884e-14,-0.0013971631062459,0.0013971631057488,-0.0014215683654641,0.0014215683658237,-0.0014215683658121,0.0014215683659372,-0.0014215683653232,0.0014215683660203,-0.001421568365524,0.0014215683658323,-0.0013703206396883,0.0013703206392742,-0.0013703206387806,0.0013703206374305,-0.0013703206404676,0.0013703206375983,-0.001370320639604,0.0013703206376417,-6.7303966262971e-12,6.736580202099e-12,-0.0013971631059318,0.0013971631059361,-8.2643004724699e-14,1.1032521787562e-13,-0.0014215683681713,0.0014215683634419,-0.0014215683684164,0.0014215683633465,-0.0014215683634302,0.0014215683680302,-0.0014215683633546,0.0014215683680317,-0.001370320630979,0.0013703206448193,-0.0013703206448576,0.0013703206311474,0.76566262111566,0.83431432564276,1368840,32768,0.005804586554447,0.0058045865546099,0.0058045865543473,32.206156398434,32.224954486144,0.00017284925118747,0.00017284925118747,0.00017284925118747,238298.14094599,0.017566459032574
34732800,0.99999748132474,0.016915010788078,0.0056383369293197,0.0056383369295141,0.005638336929244,-0.0013980585312448,0.0013980585306899,6.2819656490851e-12,-6.8169756872486e-12,1.1448650251593e-14,-5.3682901200688e-13,-0.0014223929242305,0.0014223929285299,-0.0014223929288327,0.0014223929238743,-0.0014223929251466,0.0014223929287175,-0.0014223929295506,0.0014223929243105,-0.0013712794817495,0.0013712794942049,-0.0013712794950957,0.0013712794809746,-6.4344522554298e-13,-5.2322901571273e-14,3.3652560172681e-13,3.3077489505401e-14,-0.0013980585311952,0.0013980585308431,-0.0014223929264291,0.0014223929267312,-0.0014223929266084,0.0014223929268117,-0.0014223929263231,0.0014223929271306,-0.0014223929263793,0.0014223929268304,-0.0013712794881807,0.0013712794870631,-0.0013712794867888,0.0013712794859492,-0.0013712794888314,0.001371279485708,-0.0013712794880399,0.0013712794857646,-6.93856703154e-12,6.6878901013129e-12,-0.0013980585309896,0.0013980585309106,-1.5371918633732e-13,1.6123613317034e-13,-0.0014223929291492,0.0014223929243019,-0.001422392928971,0.0014223929241733,-0.0014223929243491,0.0014223929289976,-0.0014223929241886,0.001422392928972,-0.0013712794796131,0.0013712794931598,-0.0013712794932031,0.0013712794796242,0.77095584734313,0.89011783528492,1368840,32768,0.0058082959838585,0.005808295984073,0.0058082959837871,32.601613713549,32.628077333204,0.00017601290970839,0.00017601290970839,0.00017601290970839,234127.13715173,0.01757778251807
34819200,0.99999759509936,0.016915012708627,0.0056383375695028,0.0056383375696971,0.005638337569427,-0.0013990445223339,0.0013990445217126,6.2274774460152e-12,-6.8358503459348e-12,2.5372871935003e-14,-6.2368524096165e-13,-0.0014233112060959,0.0014233112103009,-0.0014233112106605,0.0014233112057408,-0.0014233112070533,0.0014233112104514,-0.0014233112113693,0.0014233112061151,-0.0013723249868987,0.0013723249997834,-0.0013723250006531,0.0013723249861054,-7.4511953122744e-13,-5.3509571201683e-14,3.2345064821649e-13,4.7318995613636e-14,-0.001399044522258,0.0013990445218883,-0.0014233112082865,0.0014233112085809,-0.0014233112083928,0.0014233112086242,-0.0014233112081613,0.001423311208985,-0.0014233112081675,0.001423311208685,-0.0013723249933076,0.0013723249929056,-0.0013723249921676,0.001372324991349,-0.0013723249944292,0.0013723249911408,-0.0013723249937422,0.0013723249911784,-6.846803540734e-12,6.7440788553732e-12,-0.0013990445220274,0.0013990445219896,-1.5974376699639e-13,1.2795279701223e-13,-0.0014233112108727,0.0014233112062186,-0.0014233112107261,0.0014233112060324,-0.0014233112062342,0.0014233112108101,-0.0014233112060674,0.0014233112107736,-0.0013723249847314,0.001372324998756,-0.0013723249988551,0.0013723249848839,0.76949572780676,0.83758763975058,1368840,32768,0.0058123805514587,0.0058123805516653,0.0058123805513975,33.04516764471,33.075063064154,0.00017956134115767,0.00017956134115767,0.00017956134115767,229990.43738409,0.017590251418183
34905600,0.9999977064303,0.016915014584837,0.0056383381949062,0.0056383381951005,0.0056383381948304,-0.0013997998219212,0.0013997998213647,6.1712591781506e-12,-6.8948491317977e-12,1.2235885025641e-13,-5.7479682270456e-13,-0.0014241152082003,0.0014241152122343,-0.0014241152127768,0.0014241152081538,-0.0014241152097735,0.0014241152121311,-0.0014241152134777,0.0014241152085426,-0.0013730323427516,0.0013730323552835,-0.0013730323567979,0.0013730323412485,-8.4610100513626e-13,-1.0655139198694e-13,2.3500782067239e-13,-1.0689776375846e-13,-0.0013997998218815,0.0013997998214052,-0.001424115209648,0.0014241152106694,-0.001424115210056,0.0014241152102902,-0.0014241152109876,0.0014241152099694,-0.0014241152103262,0.0014241152110013,-0.0013730323499649,0.001373032348818,-0.0013730323480883,0.0013730323467649,-0.001373032350411,0.0013730323463838,-0.0013730323506353,0.0013730323474203,-7.0510676535467e-12,6.5426649496063e-12,-0.0013997998218,0.0013997998215009,-2.9476852443568e-13,5.8893142031407e-14,-0.001424115213396,0.0014241152072538,-0.001424115212948,0.0014241152074948,-0.0014241152084853,0.001424115212704,-0.0014241152077634,0.0014241152117802,-0.0013730323413458,0.0013730323546489,-0.0013730323547584,0.0013730323403813,0.76818887625527,0.80613688129707,1368840,32768,0.005815509266819,0.0058155092668208,0.0058155092668505,33.49179520202,33.522048795105,0.00018313436161616,0.00018313436161616,0.00018313436161616,232471.75251734,0.017599803139583
34992000,0.99999781523296,0.01691501640835,0.0056383388027438,0.0056383388029382,0.0056383388026681,-0.0014005939623959,0.0014005939617666,6.2007160723803e-12,-6.8651158048363e-12,8.4812114930459e-16,-5.561775679806e-13,-0.0014249445349748,0.0014249445391048,-0.0014249445394384,0.001424944534627,-0.001424944536151,0.0014249445394338,-0.0014249445400796,0.0014249445349409,-0.0013737933216802,0.0013737933344156,-0.0013737933348542,0.0013737933208523,-5.6222400091329e-13,3.5533032137318e-14,5.1335337623027e-13,2.0965997738455e-13,-0.0014005939621989,0.0014005939620838,-0.0014249445368996,0.001424944537647,-0.0014249445371275,0.0014249445377374,-0.0014249445368968,0.0014249445380078,-0.0014249445371301,0.0014249445376051,-0.0013737933279786,0.0013737933278147,-0.0013737933245625,0.0013737933262058,-0.0013737933284922,0.0013737933255646,-0.0013737933284115,0.0013737933257329,-6.9256274856578e-12,6.6680874121538e-12,-0.0014005939620682,0.0014005939620573,-5.6252693283539e-14,2.5818846546078e-13,-0.0014249445397711,0.0014249445352844,-0.0014249445396368,0.0014249445348947,-0.0014249445353183,0.0014249445395295,-0.0014249445347066,0.0014249445397764,-0.0013737933190704,0.0013737933334877,-0.0013737933331061,0.0013737933192858,0.76399337137135,0.74465079368024,1368840,32768,0.0058187989290403,0.0058187989292892,0.0058187989289638,33.938715702095,33.969034526055,0.00018670972561676,0.00018670972561676,0.00018670972561676,234093.60795301,0.017609846099171
35078400,0.9999979214266,0.016915018180317,0.0056383393933994,0.0056383393935938,0.0056383393933237,-0.0014013121440801,0.0014013121434033,6.1811380234175e-12,-6.9514671668615e-12,-3.8498618011293e-14,-5.4744630530292e-13,-0.001425735126263,0.0014257351305629,-0.0014257351309673,0.0014257351259087,-0.0014257351272788,0.0014257351307233,-0.0014257351316551,0.0014257351261639,-0.0013744451757813,0.0013744451886003,-0.0013744451900813,0.0013744451742174,-5.9525696236722e-13,-4.3925775744762e-14,3.5275998813039e-13,4.99663265042e-14,-0.0014013121439456,0.0014013121436741,-0.001425735128175,0.0014257351288164,-0.0014257351281922,0.001425735128808,-0.0014257351284121,0.0014257351291491,-0.0014257351284861,0.001425735128952,-0.0013744451818509,0.0013744451808216,-0.0013744451808484,0.0013744451801044,-0.0013744451832702,0.001374445179228,-0.0013744451820406,0.0013744451793459,-6.8992369977514e-12,6.7605814688768e-12,-0.0014013121437823,0.0014013121436836,-2.0108432760006e-13,1.128494937019e-13,-0.0014257351312291,0.0014257351262399,-0.0014257351307324,0.0014257351261392,-0.0014257351263784,0.0014257351307638,-0.0014257351263022,0.0014257351309321,-0.0013744451727722,0.0013744451873151,-0.0013744451871138,0.0013744451728227,0.76065629563235,0.70622966914048,1368840,32768,0.0058217738816619,0.0058217738819442,0.0058217738816259,34.38566175788,34.416020257006,0.00019028529406304,0.00019028529406304,0.00019028529406304,237961.38616329,0.017618928535865
35164800,0.99999802493624,0.016915019899211,0.005638339966364,0.0056383399665584,0.0056383399662882,-0.0014020776011241,0.001402077600571,6.2976178032754e-12,-6.8438846887265e-12,4.0845516903378e-14,-5.2715048414985e-13,-0.001426551538506,0.0014265515428658,-0.00142655154335,0.001426551538421,-0.0014265515392838,0.0014265515429832,-0.0014265515440585,0.0014265515386696,-0.0013751651416265,0.0013751651545877,-0.0013751651553478,0.0013751651413671,-7.7324287796085e-13,-1.6266400131465e-13,2.6831580313639e-13,-8.2605035296404e-14,-0.0014020776011237,0.0014020776007036,-0.0014265515405222,0.0014265515409244,-0.0014265515408965,0.0014265515412402,-0.0014265515407372,0.0014265515415985,-0.0014265515409019,0.0014265515413044,-0.0013751651476274,0.0013751651470784,-0.0013751651473615,0.0013751651453566,-0.0013751651487746,0.0013751651448513,-0.0013751651480816,0.0013751651451729,-6.8395954079963e-12,6.8295534794763e-12,-0.0014020776008172,0.001402077600814,-1.6066262127897e-13,2.0167760359353e-13,-0.0014265515435204,0.0014265515388232,-0.0014265515432331,0.0014265515386568,-0.0014265515386722,0.001426551543589,-0.0014265515385985,0.0014265515432582,-0.0013751651387755,0.0013751651520922,-0.0013751651528168,0.0013751651391345,0.75704962507686,0.66780854460072,1368840,32768,0.0058249447132151,0.0058249447134887,0.0058249447130828,34.832609785234,34.863005987957,0.00019386087828187,0.00019386087828187,0.00019386087828187,240597.52795993,0.017628608872635
35251200,0.99999812569317,0.016915021563961,0.0056383405212809,0.0056383405214752,0.0056383405212051,-0.0014028394298236,0.0014028394289667,6.0782035356425e-12,-6.9794506061043e-12,-1.3734962759257e-13,-6.2133001879442e-13,-0.0014273660490926,0.0014273660527123,-0.0014273660536551,0.0014273660483172,-0.0014273660497705,0.0014273660535474,-0.0014273660547737,0.0014273660490345,-0.0013758803625225,0.0013758803742951,-0.0013758803750675,0.0013758803611475,-5.9128670130303e-13,-6.4363680792556e-14,3.76479439988e-13,7.1347496853534e-14,-0.0014028394295729,0.0014028394293144,-0.0014273660508156,0.0014273660513858,-0.0014273660509568,0.0014273660514611,-0.0014273660509654,0.0014273660515406,-0.0014273660509122,0.0014273660515158,-0.001375880368284,0.0013758803673063,-0.0013758803671269,0.0013758803655469,-0.0013758803691699,0.0013758803656287,-0.0013758803680691,0.001375880365526,-6.8109162841239e-12,6.7741018205452e-12,-0.001402839429334,0.0014028394293542,-1.0802387641531e-13,2.0836198762548e-13,-0.0014273660535887,0.0014273660489203,-0.0014273660536834,0.0014273660489046,-0.0014273660491374,0.0014273660536906,-0.0014273660489264,0.0014273660535649,-0.0013758803595099,0.0013758803728924,-0.0013758803724329,0.0013758803596174,0.75326375739571,0.62938742006096,1368840,32768,0.0058281005055102,0.0058281005057111,0.005828100505299,35.279557351996,35.309991718907,0.00019743645881597,0.00019743645881597,0.00019743645881597,243372.07167494,0.01763824337955
35337600,0.99999822330484,0.01691502316832,0.0056383410560671,0.0056383410562615,0.0056383410559914,-0.0014034762155708,0.001403476215095,6.2538977418345e-12,-6.8807506213211e-12,2.7487572038248e-14,-3.2522353523248e-13,-0.0014280594887138,0.0014280594933756,-0.0014280594935761,0.0014280594884583,-0.0014280594895435,0.0014280594933596,-0.0014280594940784,0.0014280594889865,-0.0013764677565987,0.0013764677692054,-0.0013764677693622,0.0013764677558108,-5.8688562987039e-13,-1.9159611745836e-13,4.8222091554086e-13,1.3859063379833e-13,-0.0014034762155075,0.001403476215209,-0.0014280594912695,0.0014280594914791,-0.0014280594915679,0.0014280594912493,-0.0014280594910948,0.0014280594915111,-0.0014280594909894,0.0014280594913956,-0.0013764677625459,0.0013764677624874,-0.0013764677619202,0.0013764677611778,-0.0013764677639911,0.001376467759646,-0.0013764677624075,0.001376467760295,-6.8424130866241e-12,6.8202388228562e-12,-0.0014034762153254,0.0014034762153901,-1.6825891862906e-13,1.8536992531132e-13,-0.0014280594940754,0.0014280594891948,-0.0014280594934214,0.0014280594887341,-0.0014280594891259,0.001428059494181,-0.0014280594884658,0.0014280594935168,-0.0013764677545986,0.0013764677684966,-0.0013764677676831,0.001376467754542,0.7493553744308,0.5909662955212,1368840,32768,0.0058307383029681,0.0058307383030729,0.0058307383030709,35.663538480694,35.689862813927,0.00020050830784555,0.00020050830784555,0.00020050830784555,246319.6781702,0.017646296589225
35424000,0.99999831724871,0.016915024704122,0.0056383415680011,0.0056383415681954,0.0056383415679253,-0.0014039150668115,0.0014039150661804,6.1830352448704e-12,-6.9257824221011e-12,-1.873535411838e-13,-4.8061552340802e-13,-0.0014285574983563,0.0014285575028106,-0.0014285575032913,0.0014285574978685,-0.0014285574994138,0.0014285575033332,-0.0014285575040263,0.001428557498818,-0.0013768554766139,0.0013768554904355,-0.0013768554909804,0.001376855476653,-6.7074124460951e-13,-3.3465586472834e-13,2.7493201278044e-13,-1.2006752319605e-13,-0.001403915066779,0.0014039150662773,-0.0014285575009898,0.0014285575010094,-0.0014285575010922,0.0014285575011466,-0.001428557500759,0.001428557501349,-0.0014285575010629,0.0014285575009507,-0.0013768554835072,0.0013768554834483,-0.0013768554826472,0.0013768554816509,-0.0013768554851923,0.0013768554811736,-0.0013768554842817,0.0013768554814139,-6.9098844371853e-12,6.7259353508213e-12,-0.0014039150664947,0.001403915066441,-1.8374973951277e-13,2.2308706719617e-13,-0.001428557503435,0.0014285574986986,-0.0014285575030652,0.0014285574984888,-0.0014285574988397,0.0014285575031974,-0.0014285574985374,0.0014285575029976,-0.0013768554745974,0.001376855488874,-0.0013768554895017,0.0013768554748261,0.74536386858302,0.55254517098144,1368840,32768,0.0058325561587393,0.0058325561588728,0.0058325561586233,35.946798523649,35.966370312919,0.00020277438818919,0.00020277438818919,0.00020277438818919,249410.34516423,0.017651846627102
35510400,0.99999840755333,0.016915026189649,0.0056383420631766,0.005638342063371,0.0056383420631009,-0.0014043386689163,0.0014043386684285,6.2942534354663e-12,-6.7982549650362e-12,-7.6836387995207e-14,-4.0007060164715e-13,-0.0014290406028398,0.0014290406070597,-0.0014290406074197,0.0014290406025098,-0.0014290406036829,0.0014290406073643,-0.0014290406080147,0.0014290406030168,-0.0013772274350041,0.0013772274480546,-0.0013772274489767,0.0013772274345267,-6.3422265434502e-13,-2.6799337180998e-13,3.0428988062361e-13,-9.3403014249088e-14,-0.0014043386689687,0.0014043386684836,-0.0014290406050632,0.0014290406053973,-0.0014290406051942,0.0014290406053977,-0.0014290406049927,0.00142904060564,-0.0014290406050854,0.0014290406052885,-0.0013772274416038,0.0013772274410769,-0.0013772274406222,0.0013772274394228,-0.0013772274424865,0.001377227439132,-0.0013772274419141,0.0013772274393504,-6.8638514905191e-12,6.7561784269161e-12,-0.0014043386686559,0.0014043386686558,-1.8115611286393e-13,2.2758287102892e-13,-0.0014290406076314,0.0014290406029638,-0.0014290406074384,0.0014290406028298,-0.0014290406030159,0.0014290406075323,-0.0014290406027411,0.0014290406076042,-0.0013772274328886,0.0013772274468635,-0.0013772274469229,0.0013772274328189,0.75005025172837,0.64701585131699,1368840,32768,0.0058343108492666,0.005834310849489,0.005834310849198,36.223926531905,36.242877811911,0.00020499141225524,0.00020499141225524,0.00020499141225524,252577.36119767,0.017657203826861
35596800,0.9999984942813,0.016915027585585,0.0056383425284889,0.0056383425286832,0.0056383425284131,-0.0014051176347659,0.001405117634245,6.2533686403511e-12,-6.7517300922214e-12,-4.380007370252e-14,-4.6776629829597e-13,-0.0014296996085295,0.0014296996128588,-0.0014296996132536,0.0014296996082752,-0.0014296996094204,0.0014296996130758,-0.0014296996138112,0.0014296996087622,-0.0013781203320981,0.0013781203452775,-0.0013781203461004,0.001378120331664,-6.6034853268796e-13,-1.9295472301272e-13,2.7487172050468e-13,-3.7402725019484e-14,-0.0014051176347749,0.0014051176343384,-0.0014296996108029,0.0014296996111536,-0.0014296996110791,0.0014296996111652,-0.0014296996107206,0.0014296996114105,-0.0014296996108195,0.0014296996111224,-0.0013781203392822,0.0013781203383265,-0.0013781203382847,0.0013781203367774,-0.0013781203396567,0.001378120336253,-0.0013781203392037,0.0013781203365475,-6.7906399623751e-12,6.7419073922982e-12,-0.0014051176344798,0.0014051176344973,-1.4371213910456e-13,1.7975297925811e-13,-0.0014296996134513,0.0014296996086514,-0.0014296996132987,0.0014296996084958,-0.0014296996088,0.0014296996134474,-0.0014296996084735,0.0014296996133474,-0.0013781203301967,0.0013781203441548,-0.0013781203442869,0.0013781203302771,0.733908184413,0.42619644272479,1368840,32768,0.0058375378607195,0.0058375378609314,0.0058375378606495,36.500484419666,36.519385310903,0.00020720387535733,0.00020720387535733,0.00020720387535733,245466.55018722,0.017667055120449
35683200,0.99999857750064,0.016915028933215,0.0056383429776988,0.0056383429778932,0.0056383429776231,-0.0014050265102533,0.0014050265097246,6.213094458935e-12,-6.7301199876894e-12,-4.5252882261392e-14,-4.7712992400834e-13,-0.0014299235424213,0.0014299235465791,-0.0014299235469331,0.0014299235421082,-0.0014299235432931,0.0014299235468471,-0.0014299235475721,0.0014299235425358,-0.0013777426217616,0.0013777426347007,-0.0013777426356078,0.001377742621155,-6.722194641568e-13,-1.974751437405e-13,2.2030074055183e-13,-1.7849807641806e-14,-0.001405026510274,0.0014050265098108,-0.0014299235446688,0.0014299235449179,-0.001429923544724,0.0014299235449792,-0.001429923544568,0.0014299235451957,-0.0014299235445501,0.0014299235449597,-0.0013777426282548,0.0013777426276479,-0.0013777426271845,0.0013777426260239,-0.0013777426291104,0.0013777426258482,-0.0013777426285629,0.0013777426259377,-6.7994280468464e-12,6.6725388644003e-12,-0.0014050265100031,0.0014050265099439,-1.4376337283353e-13,1.0620893186062e-13,-0.0014299235471718,0.0014299235425558,-0.0014299235470348,0.0014299235423438,-0.0014299235425787,0.0014299235470989,-0.0014299235424095,0.0014299235470669,-0.0013777426195084,0.0013777426333731,-0.0013777426335239,0.0013777426194004,0.73830504668842,0.51863330302199,1368840,32768,0.0058371599645366,0.0058371599647579,0.0058371599644727,36.776983795426,36.795892809896,0.0002094158703634,0.0002094158703634,0.0002094158703634,263534.07482502,0.017665902890043
35769600,0.99999865728202,0.016915030232481,0.0056383434107873,0.0056383434109817,0.0056383434107116,-0.0014058247403929,0.0014058247398948,6.2844500143659e-12,-6.7185982220244e-12,-2.6360488822808e-14,-4.5869575186552e-13,-0.0014305935913089,0.0014305935955538,-0.0014305935959926,0.001430593591303,-0.0014305935923853,0.0014305935959113,-0.0014305935967313,0.0014305935915277,-0.0013786630057495,0.001378663019567,-0.0013786630197601,0.0013786630054899,-6.5229092590114e-13,-1.7779530376963e-13,3.2420962503027e-13,7.3890536812468e-14,-0.0014058247403348,0.0014058247399848,-0.0014305935935118,0.0014305935939373,-0.0014305935937824,0.0014305935938128,-0.0014305935933955,0.0014305935941388,-0.0014305935934612,0.0014305935939064,-0.0013786630122523,0.0013786630129945,-0.0013786630120277,0.0013786630102671,-0.0013786630134633,0.0013786630098742,-0.0013786630134134,0.0013786630099037,-6.7912598846134e-12,6.7383236782488e-12,-0.0014058247401117,0.0014058247401195,-1.1634279874854e-13,1.4524838629091e-13,-0.001430593596264,0.0014305935914589,-0.0014305935962363,0.0014305935913674,-0.0014305935915331,0.0014305935962597,-0.0014305935913367,0.0014305935959859,-0.0013786630033402,0.0013786630176955,-0.001378663018008,0.0013786630039748,0.74267460395457,0.60432253861505,1368840,32768,0.0058404667791545,0.0058404667792204,0.0058404667790374,37.053475925764,37.072400308888,0.00021162780740611,0.00021162780740611,0.00021162780740611,255806.62142392,0.017675997878434
35856000,0.9999987336984,0.016915031485131,0.0056383438283376,0.0056383438285319,0.0056383438282618,-0.0014065901523328,0.0014065901518438,6.2573635624266e-12,-6.8049484076149e-12,2.1662367641303e-14,-3.9139701367813e-13,-0.0014312430297164,0.0014312430341304,-0.0014312430346664,0.0014312430298771,-0.0014312430313857,0.0014312430344334,-0.0014312430348388,0.0014312430301329,-0.0013795382704726,0.0013795382829482,-0.0013795382833426,0.0013795382698174,-5.7904910456498e-13,-1.244264929737e-13,3.6042498926398e-13,1.7359749083346e-13,-0.001406590152289,0.0014065901519729,-0.0014312430323996,0.0014312430325121,-0.0014312430323814,0.0014312430326509,-0.001431243032216,0.0014312430325508,-0.0014312430319289,0.0014312430324897,-0.0013795382758724,0.0013795382762094,-0.0013795382753071,0.001379538274692,-0.0013795382772939,0.0013795382743402,-0.0013795382761229,0.0013795382741584,-6.9138222580641e-12,6.6758724096216e-12,-0.0014065901521884,0.0014065901519995,-1.9897956836959e-13,1.8340616177354e-16,-0.0014312430348008,0.0014312430302817,-0.0014312430350003,0.0014312430295136,-0.0014312430303097,0.001431243034753,-0.0014312430300775,0.0014312430348599,-0.0013795382678953,0.0013795382812515,-0.0013795382813468,0.0013795382680754,0.74747646743281,0.69001177420814,1368840,32768,0.0058436376035911,0.0058436376037676,0.0058436376036143,37.329965826429,37.34890780788,0.00021383972661143,0.00021383972661143,0.00021383972661143,248988.86559181,0.017685677883495
35942400,0.99999880682476,0.016915032693271,0.0056383442310509,0.0056383442312453,0.0056383442309752,-0.001407343446777,0.0014073434462249,6.2248126156592e-12,-6.786071690168e-12,9.2016600720717e-15,-4.6440687151239e-13,-0.0014318871974596,0.0014318872017664,-0.0014318872020271,0.0014318871970507,-0.0014318871982585,0.0014318872018896,-0.0014318872026035,0.0014318871974234,-0.0013803944679043,0.0013803944809316,-0.0013803944821269,0.0013803944679633,-6.6992103437225e-13,-1.527231285309e-13,1.6136836442488e-13,2.4109381122015e-14,-0.0014073434467826,0.0014073434463361,-0.0014318871995897,0.0014318871999364,-0.0014318871997697,0.0014318872000279,-0.0014318871994831,0.0014318872002958,-0.0014318871995814,0.0014318872000668,-0.0013803944749976,0.0013803944740357,-0.0013803944732543,0.0013803944724426,-0.0013803944754283,0.0013803944725113,-0.0013803944744844,0.0013803944724935,-6.8422906785988e-12,6.6959460316803e-12,-0.0014073434464936,0.0014073434464528,-5.2239462943795e-14,9.7291968973602e-14,-0.0014318872020968,0.0014318871976994,-0.0014318872021375,0.0014318871973931,-0.0014318871975423,0.001431887202213,-0.0014318871974349,0.001431887202219,-0.0013803944663091,0.0013803944794214,-0.0013803944803044,0.0013803944657681,0.75328020658575,0.77570100980124,1368840,32768,0.0058467582076882,0.0058467582079298,0.0058467582075734,37.606452418273,37.625415306873,0.00021605161934618,0.00021605161934618,0.00021605161934618,242532.47326887,0.017695204706911
36028800,0.99999887673798,0.016915033856633,0.0056383446188381,0.0056383446190325,0.0056383446187624,-0.0014080870867401,0.0014080870862481,6.223645033681e-12,-6.7549605817675e-12,-2.8865412299115e-14,-4.686616827073e-13,-0.0014325244045163,0.0014325244088764,-0.0014325244091296,0.0014325244045779,-0.0014325244053985,0.0014325244091768,-0.001432524409654,0.0014325244045999,-0.001381235945379,0.0013812359582194,-0.0013812359593008,0.0013812359460443,-7.0556973944643e-13,-2.243808217905e-13,2.5979900449522e-13,7.5680452720001e-14,-0.0014080870867523,0.0014080870863361,-0.0014325244070221,0.001432524407207,-0.0014325244071614,0.0014325244070779,-0.0014325244065094,0.0014325244075911,-0.0014325244068453,0.0014325244071355,-0.0013812359519652,0.0013812359520845,-0.0013812359507824,0.0013812359500789,-0.0013812359527984,0.001381235949119,-0.0013812359525001,0.0013812359494635,-6.8736091336063e-12,6.6327358450611e-12,-0.0014080870865189,0.0014080870864312,-7.6852711025961e-14,1.1921871089139e-13,-0.0014325244092718,0.0014325244048399,-0.0014325244096158,0.0014325244046365,-0.0014325244049313,0.0014325244095032,-0.0014325244048551,0.0014325244092998,-0.0013812359435746,0.001381235956345,-0.0013812359579748,0.0013812359429961,0.7586326001304,0.83080222133201,1368840,32768,0.0058498387853919,0.0058498387855995,0.0058498387853131,37.882937134221,37.901922805865,0.00021826349707377,0.00021826349707377,0.00021826349707377,236254.39945294,0.017704609492741
36115200,0.99999894294243,0.016915034953081,0.0056383449843209,0.0056383449845152,0.0056383449842451,-0.0014084377448766,0.0014084377443301,6.2245901077508e-12,-6.7747768587468e-12,-1.9123886366634e-14,-5.0729650244007e-13,-0.0014328080811935,0.0014328080854104,-0.001432808085755,0.0014328080808595,-0.0014328080820861,0.0014328080856406,-0.0014328080864008,0.0014328080812918,-0.0013816457642845,0.001381645777044,-0.0013816457779358,0.0013816457636949,-6.7542774849886e-13,-1.4450658542301e-13,2.2548081759815e-13,6.1719055701685e-14,-0.0014084377448624,0.0014084377444489,-0.0014328080834157,0.0014328080836981,-0.0014328080834934,0.0014328080837777,-0.001432808083316,0.0014328080839999,-0.0014328080833115,0.0014328080837612,-0.001381645770751,0.0013816457701953,-0.0013816457695577,0.0013816457686109,-0.0013816457715303,0.001381645768273,-0.0013816457709226,0.0013816457685169,-6.8371937166605e-12,6.689643165405e-12,-0.0014084377446256,0.0014084377445504,-1.0439286969302e-13,7.1222000687356e-14,-0.0014328080859967,0.0014328080813057,-0.0014328080858834,0.0014328080811054,-0.0014328080813608,0.0014328080859053,-0.0014328080812026,0.0014328080858589,-0.001381645762138,0.0013816457757672,-0.0013816457760015,0.0013816457620602,0.75497882796617,0.75354661301225,1368840,32768,0.0058512913886214,0.0058512913888379,0.0058512913885579,37.994753570386,38.0028275768,0.00021915802856309,0.00021915802856309,0.00021915802856309,232036.16415192,0.017709044288169
36201600,0.99999900482128,0.016915035976159,0.0056383453253469,0.0056383453255412,0.0056383453252711,-0.0014080182991207,0.001408018298576,6.2225440820202e-12,-6.7868735480247e-12,-1.3801813658184e-14,-5.0034783236423e-13,-0.0014324764764615,0.0014324764806756,-0.0014324764810337,0.0014324764761218,-0.0014324764773311,0.0014324764809269,-0.0014324764816711,0.0014324764765956,-0.001381144960205,0.0013811449728712,-0.0013811449739474,0.0013811449594996,-6.5402487293025e-13,-1.2466613271169e-13,2.2203274646377e-13,8.0523481239392e-14,-0.0014080182990999,0.0014080182986961,-0.0014324764786893,0.0014324764789744,-0.0014324764787632,0.0014324764790508,-0.0014324764785993,0.001432476479263,-0.0014324764786007,0.0014324764790113,-0.0013811449666637,0.0013811449661086,-0.0013811449654789,0.0013811449645753,-0.0013811449674045,0.0013811449642641,-0.0013811449666732,0.0013811449644679,-6.8416127581324e-12,6.6953641671029e-12,-0.0014080182988635,0.0014080182987974,-9.0171715904211e-14,6.3105013361629e-14,-0.0014324764812805,0.0014324764765739,-0.0014324764811799,0.0014324764763778,-0.0014324764766282,0.001432476481186,-0.0014324764764813,0.0014324764811627,-0.0013811449580593,0.0013811449717307,-0.0013811449718442,0.0013811449577908,0.75364865129729,0.73045191308876,1368840,32768,0.0058495537135575,0.0058495537137631,0.0058495537134834,37.864837199203,37.856521077519,0.00021811869759362,0.00021811869759362,0.00021811869759362,236533.72776941,0.017703739620687
36288000,0.99999906263598,0.016915036930209,0.0056383456433633,0.0056383456435577,0.0056383456432876,-0.0014076857945905,0.0014076857940489,6.2319386038475e-12,-6.7647633411235e-12,-3.41763088784e-15,-5.0787998461509e-13,-0.0014321706769577,0.001432170681155,-0.0014321706815012,0.0014321706766163,-0.0014321706778338,0.0014321706813842,-0.0014321706821566,0.0014321706770356,-0.0013807877030344,0.0013807877158602,-0.0013807877166749,0.0013807877025163,-6.6075902014785e-13,-1.1338833018199e-13,2.1256109463976e-13,5.7945259223871e-14,-0.0014076857945823,0.0014076857941659,-0.0014321706791666,0.001432170679448,-0.0014321706792563,0.0014321706795301,-0.0014321706790892,0.0014321706797594,-0.0014321706790601,0.0014321706795029,-0.0013807877095029,0.001380787708954,-0.0013807877082774,0.0013807877073679,-0.0013807877102834,0.0013807877069717,-0.0013807877094903,0.0013807877073194,-6.8378317559923e-12,6.6862149171945e-12,-0.0014076857943474,0.0014076857942672,-1.0579217988623e-13,6.0750144124798e-14,-0.0014321706817633,0.0014321706770645,-0.001432170681655,0.0014321706768672,-0.0014321706771171,0.0014321706816623,-0.0014321706769786,0.0014321706816178,-0.0013807877008505,0.001380787714466,-0.0013807877147781,0.0013807877008288,0.7522473914136,0.71149841764089,1368840,32768,0.0058481763097719,0.0058481763099971,0.0058481763097207,37.720078168328,37.710214578237,0.00021696062534662,0.00021696062534662,0.00021696062534662,237791.68771959,0.017699534435264
36374400,0.99999911667438,0.016915037820016,0.0056383459399659,0.0056383459401602,0.0056383459398901,-0.0014073580207568,0.0014073580202014,6.2099216882139e-12,-6.7735010741917e-12,-1.5937307243851e-14,-5.22953700594e-13,-0.0014318657204572,0.0014318657246524,-0.0014318657249919,0.0014318657201027,-0.0014318657213403,0.0014318657248664,-0.0014318657256389,0.0014318657205356,-0.0013804391253208,0.0013804391380669,-0.0013804391389933,0.0013804391246998,-6.7360924522935e-13,-1.2383301110416e-13,1.986621663013e-13,7.2901419970485e-14,-0.0014073580207377,0.0014073580203254,-0.0014318657226766,0.0014318657229504,-0.0014318657227536,0.0014318657230349,-0.0014318657225691,0.0014318657232434,-0.0014318657225517,0.0014318657230157,-0.0013804391317186,0.0013804391310247,-0.0013804391305357,0.0013804391296372,-0.0013804391324601,0.0013804391292672,-0.0013804391318115,0.0013804391294987,-6.8390228372527e-12,6.6719135893843e-12,-0.0014073580205102,0.0014073580204162,-1.1123307249422e-13,2.6538836315591e-14,-0.0014318657252231,0.0014318657205558,-0.0014318657251331,0.0014318657203489,-0.0014318657206044,0.0014318657251459,-0.0014318657204648,0.00143186572509,-0.0013804391230474,0.0013804391366666,-0.0013804391369049,0.0013804391229188,0.75063324234137,0.69254492219304,1368840,32768,0.0058468185149117,0.0058468185151288,0.0058468185148457,37.573923335379,37.563908078955,0.00021579138668303,0.00021579138668303,0.00021579138668303,238870.13931875,0.017695389081236
36460800,0.99999916720608,0.016915038650111,0.0056383462166643,0.0056383462168587,0.0056383462165885,-0.0014070283727058,0.0014070283721456,6.2107757650636e-12,-6.7666175197737e-12,-1.2668289463041e-14,-5.3812982520911e-13,-0.0014315599039103,0.0014315599081028,-0.0014315599084599,0.0014315599035709,-0.001431559904805,0.0014315599083313,-0.0014315599091102,0.0014315599039919,-0.0013800881094295,0.0013800881220904,-0.0013800881229971,0.0013800881088555,-6.8441215050213e-13,-1.1618521532731e-13,2.1165653403817e-13,7.8314284022968e-14,-0.0014070283726823,0.0014070283722756,-0.0014315599061274,0.0014315599063958,-0.0014315599061994,0.0014315599064769,-0.0014315599060119,0.0014315599066977,-0.0014315599060101,0.0014315599064725,-0.0013800881158588,0.0013800881152925,-0.0013800881146525,0.001380088113757,-0.0013800881166618,0.001380088113385,-0.001380088116056,0.0013800881136809,-6.8265358657799e-12,6.6783959795871e-12,-0.0014070283724523,0.0014070283723696,-1.0449069023408e-13,4.0786401062268e-14,-0.0014315599086773,0.0014315599040172,-0.001431559908578,0.0014315599037984,-0.0014315599040643,0.0014315599085922,-0.0014315599039195,0.0014315599085547,-0.0013800881072924,0.0013800881207997,-0.0013800881210767,0.0013800881072102,0.74886371755547,0.67359142674518,1368840,32768,0.0058454529578529,0.0058454529580734,0.0058454529577918,37.427627853643,37.417601579673,0.00021462102282914,0.00021462102282914,0.00021462102282914,240022.01786016,0.017691220033744
36547200,0.99999921448033,0.016915039414939,0.0056383464716069,0.0056383464718013,0.0056383464715312,-0.0014066973680789,0.0014066973675615,6.2185104552447e-12,-6.7468517118408e-12,2.602273443509e-15,-4.7362985446247e-13,-0.0014312535332625,0.0014312535374295,-0.0014312535377882,0.0014312535329007,-0.0014312535341189,0.0014312535377077,-0.0014312535384434,0.0014312535333593,-0.0013797352960283,0.0013797353087135,-0.0013797353095306,0.0013797352952007,-6.4624911047445e-13,-1.2728567033367e-13,2.0775041807322e-13,6.0006902124448e-14,-0.0014066973680852,0.0014066973676594,-0.0014312535354475,0.0014312535357608,-0.0014312535355706,0.0014312535358003,-0.0014312535353987,0.0014312535360339,-0.0014312535354067,0.0014312535357695,-0.0013797353025013,0.0013797353017517,-0.0013797353013019,0.0013797353003735,-0.0013797353032358,0.001379735300155,-0.0013797353025583,0.0013797353002106,-6.7868765479331e-12,6.70586537571e-12,-0.0014066973678207,0.0014066973677906,-1.0224281772857e-13,5.6886262163739e-14,-0.0014312535379934,0.0014312535334062,-0.0014312535378715,0.0014312535331978,-0.0014312535333807,0.0014312535379619,-0.0014312535332389,0.0014312535379536,-0.0013797352937582,0.0013797353076145,-0.0013797353075278,0.0013797352937968,0.73751417164327,0.51734844106458,1368840,32768,0.0058440817816684,0.0058440817818841,0.0058440817816082,37.281316794556,37.271295080391,0.00021345053435645,0.00021345053435645,0.00021345053435645,241232.70993091,0.017687033840322
36633600,0.99999925872727,0.016915040126998,0.0056383467089596,0.005638346709154,0.0056383467088839,-0.0014059977767986,0.0014059977762853,6.2095903895113e-12,-6.7664539953575e-12,-5.3639243710865e-15,-4.8219668098709e-13,-0.0014307604051827,0.00143076040936,-0.0014307604096252,0.0014307604048844,-0.0014307604060035,0.0014307604098837,-0.0014307604103703,0.0014307604055538,-0.0013788474541194,0.0013788474668579,-0.0013788474681211,0.0013788474536088,-6.599583975475e-13,-1.3852720926532e-13,1.9165167458466e-13,8.1495245670303e-14,-0.0014059977768022,0.0014059977763655,-0.0014307604073223,0.001430760407603,-0.0014307604074387,0.0014307604076757,-0.0014307604072809,0.0014307604080178,-0.0014307604074464,0.0014307604076474,-0.0013788474610567,0.0013788474603253,-0.0013788474598175,0.0013788474591659,-0.0013788474621033,0.0013788474584194,-0.0013788474611841,0.0013788474586229,-6.8887746703095e-12,6.6150884430006e-12,-0.0014059977765827,0.0014059977764498,-9.1171332425436e-14,3.0829293480364e-14,-0.0014307604101494,0.0014307604051837,-0.001430760409828,0.0014307604051484,-0.001430760405337,0.0014307604098185,-0.0014307604051483,0.0014307604099796,-0.0013788474522824,0.0013788474660146,-0.0013788474661025,0.0013788474518964,0.73361145466447,0.48156401590331,1368840,32768,0.0058411835128342,0.0058411835130077,0.0058411835127277,37.135005437447,37.124988581109,0.00021228004349957,0.00021228004349957,0.00021228004349957,253120.76399404,0.01767818629304
36720000,0.99999930015953,0.016915040797449,0.0056383469324436,0.0056383469326379,0.0056383469323678,-0.0014056044828146,0.0014056044822365,6.1831204481499e-12,-6.7808086156572e-12,-5.8813615049137e-14,-5.2273111915842e-13,-0.00143042862199,0.001430428626215,-0.0014304286265538,0.0014304286216754,-0.0014304286229187,0.0014304286264443,-0.0014304286272225,0.0014304286221024,-0.001378400664048,0.0013784006768141,-0.0013784006779936,0.001378400663393,-6.5408242999545e-13,-1.4741026142358e-13,1.60062639608e-13,1.1059723897733e-13,-0.0014056044827931,0.0014056044823702,-0.0014304286242733,0.0014304286245125,-0.0014304286243265,0.0014304286246002,-0.001430428624165,0.001430428624805,-0.0014304286241267,0.0014304286245854,-0.0013784006707262,0.0013784006699019,-0.0013784006692861,0.0013784006683229,-0.0013784006712075,0.0013784006682628,-0.0013784006706943,0.0013784006683572,-6.8660330709321e-12,6.6254215979181e-12,-0.0014056044825826,0.0014056044824495,-6.9525170171422e-14,-7.6003560496339e-15,-0.0014304286268181,0.0014304286221045,-0.0014304286267414,0.0014304286218756,-0.0014304286221874,0.0014304286266938,-0.0014304286220569,0.0014304286266228,-0.0013784006619843,0.001378400675593,-0.0013784006758421,0.0013784006615596,0.73780776491418,0.56834652841547,1368840,32768,0.0058395542855883,0.0058395542858204,0.0058395542855489,36.988694310967,36.978682081827,0.00021110955448774,0.00021110955448774,0.00021110955448774,256352.77860891,0.017673212392418
36806400,0.99999933897362,0.016915041416872,0.0056383471389177,0.0056383471391121,0.005638347138842,-0.0014055574013888,0.0014055574008483,6.224717368569e-12,-6.7425791953045e-12,-1.0827463346074e-14,-5.2182755852628e-13,-0.0014302652406443,0.0014302652448474,-0.0014302652451985,0.001430265240313,-0.0014302652415333,0.0014302652450876,-0.0014302652458214,0.0014302652407443,-0.001378463340685,0.0013784633534957,-0.0013784633544709,0.001378463340161,-6.7828013194873e-13,-1.2448549117134e-13,1.6315795681289e-13,8.6724174165421e-14,-0.0014055574013825,0.0014055574009575,-0.0014302652428683,0.0014302652431043,-0.0014302652429136,0.0014302652432138,-0.0014302652427753,0.0014302652434027,-0.0014302652427361,0.0014302652432034,-0.0013784633472135,0.0013784633464815,-0.0013784633459304,0.0013784633450271,-0.0013784633479241,0.0013784633447159,-0.001378463347438,0.0013784633450635,-6.8396161720679e-12,6.6548751687199e-12,-0.0014055574011552,0.001405557401052,-7.9890677041714e-14,9.0175480495087e-15,-0.0014302652454143,0.0014302652407497,-0.0014302652453315,0.0014302652405247,-0.0014302652407928,0.0014302652453279,-0.0014302652406586,0.0014302652452545,-0.0013784633386113,0.0013784633521526,-0.0013784633525155,0.0013784633383777,0.72764537939182,0.43194025391056,1368840,32768,0.0058393594508761,0.005839359451089,0.0058393594508141,36.842382829078,36.832375582545,0.00020993906263263,0.00020993906263263,0.00020993906263263,249450.8001283,0.017672616870365
36892800,0.99999937558079,0.016915042004612,0.0056383473348313,0.0056383473350257,0.0056383473347556,-0.001405109590814,0.0014051095902622,6.2110280073578e-12,-6.7626233476753e-12,-5.4510687677086e-15,-5.2018590279539e-13,-0.0014300132461452,0.0014300132503378,-0.0014300132506907,0.0014300132457985,-0.0014300132470375,0.0014300132505691,-0.0014300132513373,0.001430013246233,-0.0013778372453478,0.0013778372580794,-0.0013778372589924,0.0013778372447115,-6.8336609422314e-13,-1.2571927700944e-13,1.663290952309e-13,1.0170995165432e-13,-0.0014051095908014,0.0014051095903795,-0.0014300132483733,0.0014300132486149,-0.0014300132484253,0.001430013248723,-0.0014300132482742,0.0014300132489191,-0.0014300132482424,0.0014300132487114,-0.0013778372518702,0.001377837251156,-0.0013778372505623,0.001377837249689,-0.001377837252547,0.0013778372493499,-0.0013778372518913,0.001377837249615,-6.8378328736053e-12,6.6635879613736e-12,-0.0014051095905755,0.0014051095904694,-7.4847419345069e-14,2.0181736402983e-15,-0.0014300132509259,0.0014300132462483,-0.0014300132508416,0.0014300132460237,-0.0014300132463054,0.0014300132508308,-0.0014300132461796,0.0014300132507572,-0.0013778372432032,0.0013778372567878,-0.0013778372570488,0.0013778372430506,0.73199885042174,0.52015280790738,1368840,32768,0.0058375041840659,0.0058375041842825,0.0058375041840009,36.814515137526,36.812326902647,0.0002097161211002,0.0002097161211002,0.0002097161211002,260776.85142793,0.017666953599772
36979200,0.99999941040335,0.016915042567167,0.0056383475223494,0.0056383475225438,0.0056383475222737,-0.001405614620159,0.0014056146195369,6.1947541662772e-12,-6.7838039947387e-12,-2.2149499818573e-14,-5.9312093938597e-13,-0.001430391133748,0.0014303911378677,-0.0014303911383154,0.0014303911331921,-0.0014303911346654,0.0014303911380723,-0.0014303911387769,0.0014303911336533,-0.001378461328518,0.0013784613410953,-0.0013784613420441,0.0013784613279743,-6.8446535475913e-13,-7.0306234545736e-14,2.5238870146312e-13,2.3087371167247e-13,-0.0014056146200482,0.0014056146197529,-0.0014303911359508,0.0014303911362135,-0.0014303911357158,0.0014303911364549,-0.0014303911358872,0.0014303911367057,-0.0014303911357865,0.0014303911363641,-0.0013784613346395,0.0013784613345103,-0.0013784613334933,0.0013784613331149,-0.0013784613358261,0.0013784613325005,-0.0013784613349324,0.0013784613327304,-6.8865589732917e-12,6.6206462732127e-12,-0.0014056146199006,0.0014056146197601,-6.3866460688172e-14,-3.0425658752304e-14,-0.0014303911385458,0.0014303911338603,-0.0014303911384465,0.0014303911334624,-0.0014303911339359,0.0014303911385046,-0.0014303911338484,0.0014303911383456,-0.0013784613263363,0.00137846133973,-0.0013784613401759,0.0013784613262088,0.7366773751408,0.60836536190416,1368840,32768,0.0058395964351925,0.0058395964354104,0.0058395964351199,36.94634732583,36.954970510239,0.00021077077860664,0.00021077077860664,0.00021077077860664,253307.21274336,0.017673340506144
37065600,0.9999994435316,0.016915043106119,0.0056383477020001,0.0056383477021945,0.0056383477019243,-0.0014061242436083,0.0014061242429495,6.1363098781806e-12,-6.8349389620123e-12,-5.7794557945338e-14,-5.415242509235e-13,-0.001430782501834,0.0014307825059951,-0.0014307825065641,0.0014307825015396,-0.0014307825027927,0.0014307825063206,-0.0014307825071189,0.0014307825019916,-0.0013790821408241,0.0013790821529108,-0.0013790821536763,0.0013790821395839,-6.0811083439614e-13,-8.1369896558456e-14,1.9249141363709e-13,1.3779646688311e-13,-0.0014061242435033,0.0014061242431393,-0.0014307825040835,0.0014307825043389,-0.0014307825041534,0.0014307825045352,-0.001430782504059,0.0014307825048984,-0.001430782504,0.0014307825045643,-0.0013790821471953,0.0013790821462783,-0.0013790821457076,0.0013790821449125,-0.0013790821473801,0.0013790821445745,-0.0013790821464711,0.0013790821445447,-6.8931703595536e-12,6.6055877920625e-12,-0.0014061242433401,0.0014061242431578,-9.3383441317616e-14,-2.6238845480105e-14,-0.0014307825068539,0.0014307825020426,-0.0014307825067847,0.0014307825016194,-0.0014307825021973,0.0014307825066239,-0.0014307825019841,0.0014307825065202,-0.0013790821382578,0.0013790821516425,-0.0013790821513462,0.0013790821382756,0.7417914479778,0.69657791590101,1368840,32768,0.0058417076866644,0.00584170768684,0.0058417076865405,37.087964937259,37.097614117828,0.00021190371949807,0.00021190371949807,0.00021190371949807,246335.91553114,0.017679785558403
37152000,0.99999947503516,0.016915043623018,0.0056383478742999,0.0056383478744942,0.0056383478742241,-0.0014066224956182,0.0014066224950033,6.1878513477418e-12,-6.8292132545758e-12,-9.934255338848e-15,-5.524496524541e-13,-0.0014311689439673,0.0014311689481604,-0.0014311689486658,0.0014311689436045,-0.0014311689448068,0.0014311689481809,-0.0014311689492858,0.0014311689439839,-0.0013796848785199,0.0013796848913985,-0.0013796848920748,0.001379684877819,-6.4156243011991e-13,-5.6514832334195e-14,1.9840687998248e-13,1.2700976699762e-13,-0.0014066224955614,0.0014066224951828,-0.0014311689461022,0.0014311689463245,-0.0014311689461857,0.0014311689466432,-0.0014311689459959,0.0014311689468444,-0.0014311689460661,0.0014311689465804,-0.0013796848851281,0.001379684884629,-0.0013796848833191,0.001379684883064,-0.0013796848857326,0.0013796848829358,-0.0013796848845953,0.0013796848831573,-6.8245712787379e-12,6.7195818978561e-12,-0.0014066224953331,0.0014066224952948,-1.0876373616605e-14,7.2962006354907e-14,-0.0014311689487212,0.0014311689439286,-0.001431168948618,0.0014311689437609,-0.0014311689440969,0.0014311689486129,-0.0014311689439664,0.0014311689486298,-0.0013796848764014,0.0013796848901287,-0.001379684890301,0.0013796848764802,0.74806143950988,0.78479046989783,1368840,32768,0.0058437718120408,0.0058437718122947,0.0058437718120541,37.230498733634,37.24025772542,0.00021304398986907,0.00021304398986907,0.00021304398986907,239748.85679313,0.017686086830216
37238400,0.99999950498004,0.016915044119723,0.005638348039868,0.0056383480400624,0.0056383480397923,-0.0014071109907901,0.0014071109902007,6.2412692599789e-12,-6.8404879689645e-12,1.4903985869933e-14,-5.4354480684396e-13,-0.0014315485399985,0.0014315485442186,-0.0014315485445804,0.0014315485396266,-0.0014315485409221,0.0014315485444907,-0.0014315485452948,0.0014315485400682,-0.0013802722082028,0.0013802722209856,-0.0013802722218957,0.0013802722076481,-6.869862483358e-13,-8.5869053229955e-14,1.880756661822e-13,1.0453510064208e-13,-0.0014071109907414,0.0014071109903561,-0.0014315485422647,0.0014315485424949,-0.001431548542284,0.0014315485426064,-0.0014315485420979,0.0014315485428065,-0.0014315485421373,0.0014315485425819,-0.0013802722148303,0.0013802722140837,-0.0013802722132373,0.0013802722124439,-0.0013802722156126,0.0013802722124674,-0.0013802722146784,0.0013802722126323,-6.8636977305105e-12,6.7453267584271e-12,-0.0014071109905099,0.0014071109904516,-5.0914150490004e-14,4.4539756988056e-14,-0.0014315485448066,0.0014315485401284,-0.001431548544753,0.0014315485399355,-0.0014315485401346,0.0014315485447719,-0.0014315485400319,0.0014315485446122,-0.001380272206066,0.0013802722196959,-0.0013802722200041,0.0013802722060631,0.75619177547337,0.87300302389465,1368840,32768,0.0058457954893381,0.0058457954895591,0.0058457954892774,37.373122186745,37.38290133301,0.00021418497749396,0.00021418497749396,0.00021418497749396,233331.71681906,0.017692264737669
37324800,0.99999953343016,0.016915044588724,0.0056383481962019,0.0056383481963963,0.0056383481961262,-0.0014075921159525,0.0014075921153902,6.2280757806777e-12,-6.8345833846396e-12,3.771996532801e-14,-5.4739818912578e-13,-0.0014319238915824,0.0014319238958654,-0.0014319238962203,0.0014319238912958,-0.0014319238926189,0.0014319238960981,-0.0014319238968914,0.0014319238917442,-0.0013808453723396,0.0013808453853526,-0.0013808453860091,0.0013808453716029,-6.8900418668916e-13,-6.0691998842273e-14,1.7555222523532e-13,9.7328379625988e-14,-0.001407592115922,0.0014075921155262,-0.0014319238939171,0.0014319238940816,-0.0014319238939009,0.0014319238941515,-0.001431923893746,0.0014319238943988,-0.0014319238937457,0.0014319238942251,-0.0013808453790007,0.0013808453781989,-0.0013808453780088,0.0013808453767506,-0.0013808453795417,0.0013808453767817,-0.0013808453788106,0.0013808453771478,-6.8690105093852e-12,6.721074499317e-12,-0.0014075921157004,0.0014075921156061,-9.0043013953614e-14,3.4351891749758e-16,-0.0014319238963616,0.0014319238917998,-0.0014319238963376,0.0014319238914987,-0.0014319238917482,0.001431923896352,-0.0014319238916016,0.0014319238962564,-0.0013808453703963,0.0013808453843503,-0.0013808453844572,0.0013808453705574,0.75145807644445,0.76558456952602,1368840,32768,0.0058477885978544,0.0058477885980728,0.0058477885977793,37.515764415201,37.525544940601,0.0002153261153216,0.0002153261153216,0.0002153261153216,226954.46834775,0.017698349477301
37411200,0.99999956044751,0.016915045029168,0.0056383483430164,0.0056383483432107,0.0056383483429406,-0.0014076413375436,0.001407641336997,6.2630418301359e-12,-6.804914526297e-12,1.4709344757262e-14,-6.0221454393553e-13,-0.0014320795807455,0.0014320795849206,-0.0014320795851169,0.0014320795803539,-0.0014320795817178,0.0014320795849941,-0.0014320795857398,0.0014320795808846,-0.0013807926320244,0.0013807926455493,-0.0013807926455974,0.0013807926319527,-7.072062776866e-13,-4.8440020190634e-14,2.6247674622146e-13,1.1269226321107e-13,-0.0014076413375182,0.0014076413371586,-0.0014320795830733,0.0014320795832391,-0.0014320795829674,0.0014320795833467,-0.0014320795828371,0.0014320795837152,-0.0014320795828246,0.0014320795832827,-0.0013807926387195,0.0013807926378948,-0.0013807926370148,0.001380792636213,-0.0013807926389264,0.0013807926362131,-0.0013807926385425,0.0013807926364313,-6.8641298937788e-12,6.7315588849086e-12,-0.0014076413372966,0.0014076413372304,-1.2644166670564e-13,3.497975492191e-14,-0.0014320795855463,0.0014320795809144,-0.0014320795853593,0.0014320795805468,-0.0014320795809489,0.0014320795854515,-0.0014320795807403,0.0014320795854361,-0.0013807926292592,0.0013807926432614,-0.0013807926440095,0.0013807926298151,0.743046267052,0.63706424169363,1368840,32768,0.0058479922650418,0.005847992265324,0.0058479922650138,37.658406902341,37.668188548189,0.00021646725521873,0.00021646725521873,0.00021646725521873,232804.46747185,0.017698972090483
37497600,0.99999958609217,0.016915045444759,0.0056383484815469,0.0056383484817413,0.0056383484814712,-0.0014076082475081,0.0014076082468594,6.1998674806572e-12,-6.8794228971762e-12,5.8369099217026e-15,-6.0931782693511e-13,-0.001432199111318,0.0014321991153391,-0.0014321991157868,0.0014321991109499,-0.0014321991121448,0.0014321991157371,-0.0014321991165435,0.0014321991113693,-0.0013806193179593,0.0013806193311969,-0.001380619332526,0.0013806193172607,-6.8648767533157e-13,-2.8428749168286e-14,2.719703973734e-13,1.6872022806579e-13,-0.0014076082473898,0.0014076082470572,-0.0014321991134111,0.0014321991139651,-0.0014321991137372,0.0014321991136979,-0.0014321991132787,0.0014321991140081,-0.0014321991132508,0.001432199113954,-0.0013806193244554,0.0013806193243883,-0.0013806193238069,0.0013806193231044,-0.0013806193256716,0.0013806193218492,-0.0013806193249143,0.0013806193225259,-6.7880057487309e-12,6.8189889786851e-12,-0.0014076082471533,0.0014076082471732,-4.9895593370931e-14,6.5260535747194e-14,-0.0014321991160415,0.0014321991113707,-0.0014321991158112,0.0014321991111796,-0.0014321991114513,0.0014321991161535,-0.0014321991112826,0.0014321991158487,-0.0013806193159978,0.0013806193300787,-0.001380619330309,0.0013806193155152,0.73870642452824,0.58517435017955,1368840,32768,0.0058478549588762,0.0058478549590409,0.0058478549587913,37.801047225888,37.810832155782,0.0002176083778071,0.0002176083778071,0.0002176083778071,241395.97327672,0.017698553714085
37584000,0.99999961042236,0.016915045836891,0.0056383486122574,0.0056383486124518,0.0056383486121817,-0.0014077451004668,0.0014077450998484,6.256663363229e-12,-6.8160464215194e-12,3.3560739448329e-14,-5.7555959352009e-13,-0.0014324079823354,0.0014324079865639,-0.0014324079870076,0.0014324079818958,-0.0014324079834072,0.0014324079867172,-0.0014324079878346,0.0014324079823764,-0.0013806913746747,0.0013806913868967,-0.0013806913884481,0.0013806913736695,-6.3525891680556e-13,1.7320470871504e-14,2.6486414387633e-13,1.5829766411502e-13,-0.0014077451003298,0.0014077451000876,-0.0014324079845374,0.0014324079848086,-0.0014324079847388,0.0014324079848283,-0.0014324079843733,0.001432407985168,-0.0014324079844205,0.0014324079851306,-0.0013806913807803,0.0013806913802421,-0.0013806913796992,0.001380691379069,-0.0013806913815939,0.0013806913787679,-0.0013806913809062,0.0013806913791752,-6.8690388614602e-12,6.7319579903632e-12,-0.0014077451001875,0.00140774510012,-6.3507765763702e-14,5.6009288954669e-14,-0.001432407987065,0.0014324079825104,-0.001432407986934,0.00143240798213,-0.0014324079825302,0.0014324079869789,-0.0014324079823726,0.0014324079870584,-0.0013806913723363,0.0013806913858185,-0.0013806913859924,0.00138069137186,0.73474886512336,0.54243370808786,1368840,32768,0.0058484217724545,0.0058484217726661,0.0058484217724385,37.943687177498,37.953475763373,0.00021874949741998,0.00021874949741998,0.00021874949741998,245308.13112859,0.017700284549405
37670400,0.99999963336531,0.016915046204601,0.0056383487348275,0.0056383487350219,0.0056383487347518,-0.0014076935338265,0.0014076935332503,6.2425125455268e-12,-6.8189187455366e-12,4.175075395489e-14,-5.6634466914735e-13,-0.0014324214263089,0.0014324214304807,-0.0014324214308488,0.0014324214260058,-0.0014324214271919,0.0014324214307172,-0.001432421431547,0.0014324214263752,-0.0013805824060773,0.0013805824187804,-0.0013805824198347,0.0013805824054412,-7.0218984269995e-13,-5.119178906716e-14,2.2677701329438e-13,1.1479634599161e-13,-0.0014076935337791,0.001407693533409,-0.001432421428498,0.0014324214287858,-0.0014324214285786,0.001432421428868,-0.0014324214284115,0.0014324214291257,-0.0014324214284677,0.0014324214288814,-0.0013805824126273,0.0013805824120561,-0.0013805824111547,0.001380582410487,-0.0013805824133359,0.0013805824102421,-0.0013805824125377,0.0013805824105049,-6.8654089135291e-12,6.7236901252938e-12,-0.001407693533559,0.0014076935334936,-7.2420317020791e-14,5.1801770432648e-14,-0.0014324214311264,0.0014324214264012,-0.001432421430999,0.001432421426198,-0.0014324214264647,0.0014324214310338,-0.0014324214263172,0.0014324214309594,-0.0013805824038985,0.0013805824175632,-0.0013805824178299,0.0013805824037455,0.73067330475188,0.49969306599618,1368840,32768,0.0058482080930533,0.0058482080932834,0.0058482080930031,37.979346745305,37.982050849137,0.00021903477396244,0.00021903477396244,0.00021903477396244,248787.86796998,0.017699632431268
37756800,0.99999965484735,0.016915046546929,0.0056383488489369,0.0056383488491312,0.0056383488488611,-0.0014073809758644,0.0014073809753036,6.2362268257865e-12,-6.8044823630287e-12,2.9243341930095e-14,-5.906263391237e-13,-0.001432176985883,0.001432176990135,-0.0014321769904841,0.001432176985564,-0.0014321769866865,0.0014321769903546,-0.0014321769911495,0.0014321769859756,-0.0013802101387399,0.0013802101513963,-0.0013802101521315,0.0013802101376952,-6.8620571335707e-13,-2.3272318458411e-14,2.3162157117882e-13,9.9057356218704e-14,-0.0014073809757986,0.0014073809754511,-0.001432176988068,0.0014321769883065,-0.0014321769881749,0.0014321769885198,-0.0014321769879493,0.0014321769886811,-0.0014321769879248,0.0014321769885377,-0.001380210144962,0.0013802101444562,-0.001380210144007,0.0013802101430027,-0.0013802101456113,0.0013802101425517,-0.0013802101450904,0.0013802101430354,-6.8117776107521e-12,6.7561617803658e-12,-0.0014073809755782,0.0014073809755395,-8.0422249037849e-14,6.4865724279002e-14,-0.0014321769906127,0.0014321769859288,-0.0014321769906448,0.001432176985746,-0.0014321769860484,0.001432176990633,-0.00143217698582,0.0014321769905289,-0.0013802101365042,0.0013802101503097,-0.0013802101501448,0.0013802101364614,0.72651025515137,0.4569524239045,1368840,32768,0.0058469132875118,0.0058469132876808,0.0058469132874078,37.882283131636,37.875956058269,0.00021825826505308,0.00021825826505308,0.00021825826505308,252447.7195859,0.017695679547111
37843200,0.99999967495911,0.016915046866054,0.0056383489553119,0.0056383489555063,0.0056383489552362,-0.0014070479033213,0.0014070479026743,6.18662694397e-12,-6.8429233063313e-12,4.4277206185274e-14,-6.3875995691001e-13,-0.0014319112784039,0.0014319112825639,-0.0014319112829391,0.0014319112779163,-0.0014319112792449,0.0014319112827543,-0.0014319112836615,0.0014319112784172,-0.0013798175629286,0.0013798175754996,-0.0013798175764838,0.0013798175621047,-7.199413886377e-13,6.6401500891492e-15,1.9988701123607e-13,7.3093237639999e-14,-0.0014070479032525,0.0014070479028593,-0.0014319112807309,0.0014319112808717,-0.0014319112808639,0.0014319112809223,-0.0014319112805821,0.0014319112811838,-0.0014319112804403,0.001431911280911,-0.0013798175693584,0.0013798175687326,-0.0013798175681473,0.0013798175670718,-0.0013798175697952,0.0013798175666325,-0.0013798175689484,0.0013798175669358,-6.8517948000192e-12,6.7046895292783e-12,-0.001407047903017,0.001407047902948,-7.8149318474317e-14,6.0122927991702e-14,-0.0014319112831703,0.0014319112784771,-0.0014319112831393,0.0014319112781576,-0.0014319112786056,0.0014319112830578,-0.0014319112783639,0.0014319112830922,-0.0013798175605147,0.0013798175741169,-0.0013798175742404,0.001379817560385,0.72344192708446,0.43132005729132,1368840,32768,0.005845533508039,0.0058455335082793,0.0058455335079757,37.77704167584,37.769861267401,0.00021741633340672,0.00021741633340672,0.00021741633340672,256196.34184043,0.017691467208345
37929600,0.9999996937936,0.01691504716687,0.0056383490555839,0.0056383490557783,0.0056383490555082,-0.0014067601991455,0.001406760198533,6.2083513391282e-12,-6.829060847467e-12,4.7593281352042e-14,-6.223503111546e-13,-0.0014316680936352,0.0014316680978391,-0.0014316680982011,0.0014316680932836,-0.0014316680945824,0.0014316680980161,-0.001431668098898,0.0014316680936678,-0.0013794916097942,0.0013794916225045,-0.0013794916234359,0.0013794916090181,-7.2480203426596e-13,-1.1957722935067e-14,2.2395192312836e-13,1.087494130742e-13,-0.0014067601990728,0.001406760198711,-0.0014316680958616,0.0014316680961153,-0.0014316680959356,0.0014316680962191,-0.0014316680957047,0.0014316680964767,-0.0014316680956949,0.0014316680962544,-0.0013794916162369,0.0013794916156591,-0.0013794916149638,0.0013794916141218,-0.0013794916170139,0.0013794916137131,-0.0013794916161462,0.0013794916140865,-6.8572067523348e-12,6.7075909112314e-12,-0.0014067601988671,0.0014067601987808,-8.7309097472886e-14,3.9883663934385e-14,-0.0014316680984341,0.0014316680937359,-0.001431668098335,0.0014316680935261,-0.0014316680937943,0.0014316680983385,-0.0014316680936545,0.0014316680982873,-0.0013794916074992,0.0013794916212384,-0.0013794916214386,0.0013794916074701,0.72823088123699,0.52548026821167,1368840,32768,0.0058443416952591,0.0058443416954772,0.0058443416951958,37.671030830758,37.663766476533,0.00021656824664606,0.00021656824664606,0.00021656824664606,258590.8360908,0.017687828639336
38016000,0.99999971143784,0.01691504744927,0.0056383491497171,0.0056383491499115,0.0056383491496414,-0.0014068204069725,0.0014068204064039,6.2260035792761e-12,-6.8071181648597e-12,5.1205406298222e-14,-6.0287517081266e-13,-0.0014315990050406,0.0014315990093063,-0.0014315990096248,0.0014315990047611,-0.0014315990059564,0.0014315990095332,-0.0014315990103221,0.0014315990051235,-0.0013796738933056,0.0013796739058768,-0.0013796739069089,0.0013796738925384,-7.2866203399268e-13,-3.2216280520627e-14,2.367089451748e-13,1.2806241131065e-13,-0.0014068204069022,0.0014068204065596,-0.0014315990073101,0.0014315990075805,-0.0014315990073841,0.001431599007664,-0.0014315990071311,0.0014315990079524,-0.0014315990071482,0.0014315990076895,-0.0013796738997122,0.0013796738991544,-0.0013796738981938,0.0013796738976767,-0.0013796739003811,0.0013796738972405,-0.0013796738996301,0.0013796738976474,-6.8902833889251e-12,6.6702062886e-12,-0.001406820406744,0.0014068204065942,-1.2871365612145e-13,-7.8778769833246e-15,-0.0014315990099964,0.0014315990051954,-0.001431599009866,0.0014315990049754,-0.0014315990052106,0.0014315990097787,-0.0014315990051132,0.001431599009734,-0.0013796738911115,0.0013796739046785,-0.0013796739049145,0.0013796738909791,0.72979385215722,0.56198697248515,1368840,32768,0.0058445913104097,0.0058445913105865,0.0058445913103306,37.564942566057,37.557671685665,0.00021571954052845,0.00021571954052845,0.00021571954052845,250796.94660519,0.017688589998257
38102400,0.9999997279726,0.016915047714089,0.00563834923799,0.0056383492381844,0.0056383492379143,-0.0014067133392513,0.0014067133386487,6.2163976962587e-12,-6.8324028630178e-12,1.8278882769149e-14,-6.1294159858431e-13,-0.0014314406425572,0.001431440646775,-0.0014314406471206,0.0014314406422126,-0.0014314406434728,0.0014314406469526,-0.001431440647789,0.0014314406425872,-0.0013796154708866,0.0013796154835537,-0.0013796154845413,0.0013796154701161,-7.2134222819596e-13,-4.7168911963294e-14,2.1520642559142e-13,9.3505349358115e-14,-0.0014067133391913,0.0014067133388116,-0.0014314406447819,0.0014314406450446,-0.001431440644855,0.0014314406451429,-0.0014314406446328,0.0014314406453921,-0.0014314406446065,0.0014314406451503,-0.0013796154772418,0.0013796154766986,-0.0013796154759845,0.0013796154751418,-0.0013796154780259,0.0013796154747588,-0.0013796154773161,0.0013796154751528,-6.8635049716932e-12,6.7125967583062e-12,-0.0014067133389774,0.0014067133388887,-1.0024993743323e-13,3.3302982616741e-14,-0.0014314406473557,0.0014314406426522,-0.0014314406472456,0.0014314406424479,-0.0014314406426934,0.0014314406472577,-0.001431440642566,0.001431440647201,-0.0013796154685962,0.0013796154822843,-0.0013796154824611,0.0013796154684915,0.73019941993135,0.57718443256635,1368840,32768,0.0058441478730458,0.0058441478732589,0.0058441478729758,37.458846341389,37.451576894797,0.00021487077073111,0.00021487077073111,0.00021487077073111,247777.41092183,0.017687235870741
38188800,0.99999974347286,0.016915047962469,0.0056383493207834,0.0056383493209778,0.0056383493207077,-0.0014065487290925,0.0014065487284961,6.2317628151001e-12,-6.8302442819021e-12,3.1027905059975e-14,-5.9911610917882e-13,-0.001431255680933,0.0014312556851446,-0.0014312556854955,0.0014312556805579,-0.0014312556818572,0.0014312556853444,-0.0014312556861887,0.0014312556809785,-0.0013794710159045,0.0013794710285817,-0.0013794710296461,0.0013794710152287,-7.0548597729942e-13,-3.2496801362672e-14,2.2739146511153e-13,9.8817187085118e-14,-0.0014065487290327,0.0014065487286618,-0.0014312556831384,0.0014312556834038,-0.0014312556832193,0.0014312556835019,-0.0014312556830156,0.0014312556837512,-0.0014312556829994,0.0014312556835314,-0.0013794710223343,0.0013794710217639,-0.0013794710211239,0.0013794710202215,-0.0013794710231116,0.001379471019906,-0.0013794710222808,0.0013794710202232,-6.8752089082636e-12,6.714108065078e-12,-0.0014065487288207,0.0014065487287387,-9.4745164423792e-14,4.5716309280485e-14,-0.0014312556857366,0.0014312556810356,-0.0014312556856274,0.0014312556808185,-0.0014312556810766,0.001431255685646,-0.0014312556809296,0.0014312556855849,-0.0013794710137074,0.0013794710273035,-0.0013794710275675,0.0013794710135261,0.73055192434684,0.59029928701812,1368840,32768,0.0058434660275805,0.0058434660277999,0.0058434660275203,37.352749311541,37.34548210393,0.00021402199449233,0.00021402199449233,0.00021402199449233,246439.74409364,0.017685154037707
38275200,0.99999975800817,0.016915048195524,0.0056383493984686,0.0056383493986629,0.0056383493983928,-0.001406378522311,0.0014063785217046,6.2235538452903e-12,-6.8391150697292e-12,3.1010552648903e-14,-6.1043255758674e-13,-0.0014310678501222,0.001431067854342,-0.001431067854694,0.00143106784977,-0.0014310678510632,0.0014310678545351,-0.0014310678553938,0.0014310678501688,-0.0013793182146197,0.0013793182273487,-0.0013793182283296,0.0013793182139284,-7.1370284392685e-13,-2.9404013492277e-14,2.3602937769982e-13,1.0334775456174e-13,-0.0014063785222401,0.0014063785218786,-0.0014310678523355,0.0014310678526131,-0.0014310678524273,0.0014310678527016,-0.0014310678522129,0.0014310678529639,-0.0014310678521764,0.0014310678527461,-0.001379318221009,0.0013793182205065,-0.0013793182197934,0.001379318218988,-0.0013793182218434,0.0013793182185892,-0.001379318221066,0.0013793182189409,-6.8770573812058e-12,6.7130280392485e-12,-0.0014063785220388,0.0014063785219469,-1.0069380622628e-13,4.3906423394786e-14,-0.00143106785495,0.0014310678502426,-0.0014310678548337,0.0014310678500242,-0.0014310678502837,0.001431067854854,-0.0014310678501324,0.0014310678547961,-0.0013793182123817,0.0013793182260452,-0.0013793182263149,0.00137931821229,0.73097102128903,0.60341414146988,1368840,32768,0.0058427609926841,0.0058427609928977,0.0058427609926224,37.246652217647,37.239387313062,0.00021317321774117,0.00021317321774117,0.00021317321774117,245257.62960488,0.017683001429671
38361600,0.99999977168402,0.016915048416234,0.0056383494720385,0.0056383494722328,0.0056383494719627,-0.0014063175099626,0.001406317509362,6.2178922682476e-12,-6.8342276896235e-12,3.4398507972723e-14,-5.9876611987075e-13,-0.0014309878688068,0.0014309878730005,-0.0014309878734262,0.0014309878684257,-0.0014309878697196,0.0014309878731939,-0.0014309878740777,0.0014309878688739,-0.0013792752776276,0.0013792752902536,-0.001379275291364,0.0013792752768457,-7.2948739113153e-13,-5.3409397791324e-14,2.0980782580906e-13,6.5414472221011e-14,-0.0014063175099257,0.0014063175095149,-0.0014309878710658,0.0014309878712899,-0.001430987871179,0.0014309878713517,-0.0014309878709471,0.0014309878715689,-0.001430987870891,0.0014309878714293,-0.0013792752841099,0.0013792752835549,-0.0013792752827824,0.0013792752818674,-0.0013792752848765,0.0013792752815405,-0.0013792752839591,0.0013792752818114,-6.874146940706e-12,6.7051677499631e-12,-0.0014063175096926,0.0014063175096055,-9.2076363600884e-14,6.4335622826178e-14,-0.0014309878736175,0.0014309878689363,-0.0014309878735273,0.0014309878687232,-0.0014309878690053,0.0014309878735292,-0.0014309878688569,0.0014309878734347,-0.0013792752754691,0.0013792752891179,-0.0013792752892788,0.0013792752752527,0.73575591754608,0.68645999815632,1368840,32768,0.0058425082863585,0.0058425082865988,0.0058425082863038,37.197134109288,37.19360843,0.00021277707287431,0.00021277707287431,0.00021277707287431,244039.74914119,0.017682229790907
38448000,0.99999978458482,0.01691504862666,0.0056383495421805,0.0056383495423749,0.0056383495421048,-0.0014065192657551,0.0014065192651562,6.2279736514447e-12,-6.8266199808573e-12,4.0300004156654e-14,-6.1199733331332e-13,-0.0014310842126034,0.0014310842168218,-0.0014310842171769,0.0014310842122593,-0.0014310842135418,0.0014310842170042,-0.0014310842178699,0.0014310842126421,-0.0013795747085107,0.0013795747212118,-0.0013795747222152,0.0013795747078007,-7.2357654229214e-13,-2.843689597823e-14,2.3936304056459e-13,9.5157945931247e-14,-0.0014065192656902,0.0014065192653256,-0.0014310842148306,0.0014310842151032,-0.0014310842149056,0.0014310842151846,-0.0014310842146775,0.0014310842154544,-0.0014310842146722,0.00143108421522,-0.001379574714925,0.0013795747144225,-0.001379574713703,0.0013795747128582,-0.0013795747157377,0.0013795747124435,-0.0013795747149335,0.0013795747128131,-6.8694872595267e-12,6.7125055257991e-12,-0.0014065192654808,0.0014065192653997,-9.8326231495239e-14,5.7806881098286e-14,-0.0014310842174113,0.0014310842127033,-0.0014310842173029,0.0014310842125039,-0.0014310842127676,0.0014310842173203,-0.0014310842126141,0.0014310842172721,-0.0013795747062821,0.0013795747199607,-0.0013795747201894,0.0013795747061834,0.74362262876745,0.79944244,1368840,32768,0.0058433442001431,0.0058433442003592,0.0058433442000794,37.193944838675,37.19360843,0.0002127515587094,0.0002127515587094,0.0002127515587094,237853.2899449,0.01768478129572
38534400,0.99999979675647,0.016915048825809,0.0056383496085635,0.0056383496087579,0.0056383496084878,-0.0014067856222226,0.0014067856216267,6.2271271184822e-12,-6.8244600468418e-12,3.9050042342129e-14,-6.095222030445e-13,-0.0014312160228098,0.0014312160270298,-0.0014312160273819,0.0014312160224675,-0.0014312160237499,0.0014312160272166,-0.0014312160280742,0.0014312160228578,-0.0013799629330346,0.0013799629457514,-0.001379962946741,0.0013799629323167,-7.1984168580121e-13,-2.8452895489456e-14,2.3850383151872e-13,9.6849217793465e-14,-0.0014067856221586,0.0014067856217953,-0.0014312160250391,0.0014312160253111,-0.0014312160251135,0.0014312160253959,-0.0014312160248931,0.0014312160256622,-0.0014312160248842,0.0014312160254278,-0.0013799629394609,0.0013799629389515,-0.0013799629382303,0.001379962937399,-0.0013799629402857,0.0013799629369727,-0.0013799629394733,0.0013799629373701,-6.8665625253459e-12,6.7124248223822e-12,-0.0014067856219505,0.0014067856218681,-1.0098232682394e-13,5.2596040285896e-14,-0.0014312160276188,0.0014312160229162,-0.0014312160275128,0.0014312160227134,-0.0014312160229732,0.0014312160275273,-0.0014312160228227,0.0014312160274796,-0.0013799629308232,0.0013799629445243,-0.0013799629447407,0.0013799629307302,0.74587018640882,0.79944244,1368840,32768,0.0058444477378742,0.0058444477380907,0.0058444477378107,37.193642424471,37.19360843,0.00021274913939576,0.00021274913939576,0.00021274913939576,229909.06351751,0.017688149794087
38620800,0.99999980824037,0.016915049014213,0.0056383496713647,0.005638349671559,0.0056383496712889,-0.0014067966341962,0.0014067966336,6.2258773625437e-12,-6.8240032372676e-12,3.8582938964758e-14,-6.0960564167198e-13,-0.0014312177079311,0.001431217712151,-0.0014312177125022,0.0014312177075894,-0.0014312177088715,0.0014312177123373,-0.0014312177131958,0.0014312177079795,-0.0013799779354597,0.0013799779481735,-0.0013799779491529,0.0013799779347314,-7.1887606824134e-13,-2.7875471952878e-14,2.4001360892547e-13,9.6213090167903e-14,-0.0014067966341312,0.0014067966337685,-0.0014312177101271,0.0014312177104004,-0.0014312177102023,0.001431217710484,-0.0014312177099802,0.0014312177107513,-0.001431217709973,0.001431217710516,-0.0013799779419063,0.001379977941399,-0.0013799779406722,0.0013799779398526,-0.0013799779427744,0.0013799779394699,-0.001379977941965,0.0013799779398651,-6.8643853565628e-12,6.7129227483474e-12,-0.0014067966339228,0.0014067966338416,-1.0181653663352e-13,5.3897353472848e-14,-0.0014312177127075,0.0014312177080051,-0.0014312177125994,0.0014312177078032,-0.0014312177080619,0.0014312177126151,-0.0014312177079101,0.0014312177125692,-0.0013799779333102,0.0013799779470205,-0.0013799779472249,0.0013799779332298,0.74780418427131,0.79944244,1368840,32768,0.0058444933118084,0.0058444933120228,0.0058444933117427,37.193611914377,37.19360843,0.00021274889531501,0.00021274889531501,0.00021274889531501,229066.60931965,0.017688289076149
38707200,0.99999981907539,0.016915049192371,0.0056383497307508,0.0056383497309452,0.0056383497306751,-0.0014068055049958,0.0014068055044,6.2253034683111e-12,-6.8224811072971e-12,3.9327298578024e-14,-6.0988307437307e-13,-0.0014312191078999,0.001431219112119,-0.0014312191124708,0.0014312191075577,-0.0014312191088403,0.0014312191123057,-0.0014312191131635,0.0014312191079478,-0.0013799896893319,0.0013799897020512,-0.0013799897030312,0.0013799896886133,-7.2017291097662e-13,-2.8156728066579e-14,2.3986543698143e-13,9.6098123091833e-14,-0.0014068055049314,0.0014068055045684,-0.001431219110107,0.0014312191103807,-0.0014312191101824,0.001431219110464,-0.001431219109961,0.0014312191107316,-0.0014312191099531,0.0014312191104963,-0.0013799896957763,0.0013799896952648,-0.0013799896945423,0.001379989693718,-0.0013799896966328,0.0013799896933211,-0.0013799896958192,0.0013799896937158,-6.8639978978111e-12,6.7112379174649e-12,-0.001406805504723,0.0014068055046415,-1.0189006379908e-13,5.3789474415538e-14,-0.0014312191126867,0.0014312191079856,-0.0014312191125798,0.0014312191077838,-0.0014312191080425,0.0014312191125956,-0.0014312191078908,0.001431219112549,-0.0013799896871648,0.0013799897008708,-0.0013799897010848,0.0013799896870833,0.74948454216965,0.79944244,1368840,32768,0.005844530023552,0.0058445300237674,0.0058445300234874,37.193608789179,37.19360843,0.00021274887031343,0.00021274887031343,0.00021274887031343,228341.71427116,0.017688401276187
38793600,0.99999982929819,0.016915049360794,0.0056383497868918,0.0056383497870862,0.0056383497868161,-0.0014068125927493,0.0014068125921581,6.2274390648348e-12,-6.8195179037033e-12,4.0710815136072e-14,-6.0787975322022e-13,-0.001431220496471,0.0014312205006816,-0.0014312205010364,0.0014312204961233,-0.0014312204974086,0.0014312205008794,-0.0014312205017369,0.0014312204965246,-0.0013799984872374,0.0013799984999415,-0.0013799985009412,0.0013799984865187,-7.1564528458662e-13,-2.4252847327456e-14,2.4123686567346e-13,9.7501756682379e-14,-0.0014068125926839,0.001406812592326,-0.0014312204985892,0.0014312204988603,-0.0014312204986585,0.0014312204989376,-0.0014312204984392,0.0014312204992093,-0.0014312204984441,0.0014312204989748,-0.0013799984937638,0.0013799984932519,-0.001379998492527,0.0013799984917041,-0.0013799984946999,0.0013799984913989,-0.0013799984938945,0.001379998491801,-6.8665628194545e-12,6.7078622558831e-12,-0.0014068125924817,0.0014068125923971,-1.0294338456203e-13,5.271409550292e-14,-0.0014312205011764,0.0014312204964646,-0.00143122050106,0.001431220496264,-0.0014312204965285,0.0014312205010796,-0.0014312204963747,0.001431220501029,-0.0013799984852552,0.0013799984989469,-0.0013799984991686,0.0013799984851602,0.75095690831428,0.79944244,1368840,32768,0.0058445593554264,0.0058445593556385,0.0058445593553672,37.193608467718,37.19360843,0.00021274886774175,0.00021274886774175,0.00021274886774175,227713.19805853,0.017688490925098
38880000,0.99999983894338,0.016915049519976,0.0056383498399526,0.005638349840147,0.0056383498398769,-0.0014068182204193,0.0014068182198188,6.2233182642518e-12,-6.8234020203403e-12,3.5970607005e-14,-6.11212533759e-13,-0.0014312213730831,0.001431221377281,-0.0014312213776439,0.0014312213727236,-0.0014312213740278,0.0014312213774766,-0.0014312213783339,0.0014312213731226,-0.0013800054131041,0.0013800054257956,-0.0013800054267906,0.001380005412357,-7.1866883927792e-13,-2.8633860549333e-14,2.3968303078911e-13,9.6542580102212e-14,-0.0014068182203525,0.0014068182199882,-0.0014312213751876,0.0014312213754591,-0.0014312213752828,0.0014312213755408,-0.0014312213750523,0.0014312213758152,-0.0014312213750472,0.0014312213755894,-0.0013800054195661,0.0013800054190712,-0.0013800054183537,0.0013800054175296,-0.0013800054204978,0.0013800054172207,-0.0013800054196945,0.0013800054175979,-6.8632840960879e-12,6.7109218682964e-12,-0.001406818220144,0.0014068182200625,-1.0234822627312e-13,5.2721683506406e-14,-0.0014312213777738,0.0014312213730688,-0.0014312213776722,0.0014312213728709,-0.0014312213731418,0.0014312213776889,-0.0014312213729775,0.0014312213776266,-0.0013800054110424,0.0013800054247532,-0.0013800054249463,0.0013800054109496,0.7522577186341,0.79944244,1368840,32768,0.0058445826435477,0.00584458264376,0.0058445826434824,37.193608434602,37.19360843,0.00021274886747682,0.00021274886747682,0.00021274886747682,227156.37707925,0.01768856210573
