time,ASR_ext,ASR_strain,ASR_strain_xx,ASR_strain_yy,ASR_strain_zz,disp_x_101,disp_x_102,disp_x_103,disp_x_104,disp_x_105,disp_x_106,disp_x_p1_neg,disp_x_p1_pos,disp_x_p2_neg,disp_x_p2_pos,disp_x_p3_neg,disp_x_p3_pos,disp_x_p4_neg,disp_x_p4_pos,disp_x_p5_neg,disp_x_p5_pos,disp_x_p6_neg,disp_x_p6_pos,disp_y_101,disp_y_102,disp_y_103,disp_y_104,disp_y_105,disp_y_106,disp_y_p1_neg,disp_y_p1_pos,disp_y_p2_neg,disp_y_p2_pos,disp_y_p3_neg,disp_y_p3_pos,disp_y_p4_neg,disp_y_p4_pos,disp_y_p5_neg,disp_y_p5_pos,disp_y_p6_neg,disp_y_p6_pos,disp_y_p7_neg,disp_y_p7_pos,disp_y_p8_neg,disp_y_p8_pos,disp_z_101,disp_z_102,disp_z_103,disp_z_104,disp_z_105,disp_z_106,disp_z_p1_neg,disp_z_p1_pos,disp_z_p2_neg,disp_z_p2_pos,disp_z_p3_neg,disp_z_p3_pos,disp_z_p4_neg,disp_z_p4_pos,disp_z_p5_neg,disp_z_p5_pos,disp_z_p6_neg,disp_z_p6_pos,humidity,humidity_bc,ndof,nelem,strain_xx,strain_yy,strain_zz,temp,temp_bc,thermal_strain_xx,thermal_strain_yy,thermal_strain_zz,vonmises,vstrain
2419200,0,0,0,0,0,0,0,0,0,0,0,0,0,0,0,0,0,0,0,0,0,0,0,0,0,0,0,0,0,0,0,0,0,0,0,0,0,0,0,0,0,0,0,0,0,0,0,0,0,0,0,0,0,0,0,0,0,0,0,0,0,0,0,0,0,0,0,0,0,0,0,0,0,0,0,0,0
2505600,0.0094344996598284,0.000167461727115,5.5820575704999e-05,5.5820575704999e-05,5.5820575704999e-05,-5.0433234180018e-05,5.0433234120684e-05,-9.6883702080067e-13,9.0954458168443e-13,5.8411642954109e-14,-1.1867006129197e-13,-4.954033767899e-05,4.9540336910198e-05,-4.9540336907138e-05,4.9540337682033e-05,-4.954033761809e-05,4.9540336873223e-05,-4.9540336994394e-05,4.9540337496928e-05,-5.1082343008862e-05,5.1082341307281e-05,-5.1082341426957e-05,5.1082342889285e-05,1.0517046909965e-13,2.8903669322026e-13,2.6682886206096e-13,2.8008065144894e-13,-5.0433233937233e-05,5.0433234363469e-05,-4.9540336937951e-05,4.954033755636e-05,-4.9540337053042e-05,4.9540337532092e-05,-4.9540336996019e-05,4.9540337590071e-05,-4.9540336872212e-05,4.9540337623179e-05,-5.108234200371e-05,5.1082342184449e-05,-5.1082341761615e-05,5.1082342166995e-05,-5.1082341991163e-05,5.1082342043334e-05,-5.1082341806962e-05,5.1082342147632e-05,9.4713926775139e-13,-9.5152909894837e-13,-5.0433234153283e-05,5.0433234148911e-05,4.3718214070922e-15,-8.8198408540337e-15,-4.9540336963563e-05,4.954033780717e-05,-4.9540336801252e-05,4.9540337636077e-05,-4.9540337806363e-05,4.9540336962862e-05,-4.9540337645489e-05,4.9540336793209e-05,-5.1082342751905e-05,5.1082341118009e-05,-5.1082341125107e-05,5.1082342741411e-05,0.80608370545084,0.89000107803841,1368840,32768,0.00021011632875365,0.00021011632875365,0.00021011632875675,29.887420316437,31.134358786665,0.00015429936253149,0.00015429936253149,0.00015429936253149,280778.43344304,0.00063054798144273
2592000,0.020799611732012,0.00036893899847063,0.0001229796661618,0.0001229796661618,0.00012297966614702,-6.9997965161782e-05,6.9997965092618e-05,-1.7183378285691e-12,1.6493584900685e-12,8.2480864457384e-14,-1.529791400114e-13,-6.9447116241168e-05,6.9447115023408e-05,-6.9447115011218e-05,6.9447116253348e-05,-6.944711628377e-05,6.9447114918084e-05,-6.9447115067888e-05,6.9447116133969e-05,-7.0466544457796e-05,7.0466541197573e-05,-7.046654134618e-05,7.0466544309214e-05,6.6532754234734e-14,3.0803847072532e-13,1.5854790957222e-13,1.7102977515777e-13,-6.9997965025172e-05,6.9997965229226e-05,-6.9447115538335e-05,6.9447115704374e-05,-6.9447115531048e-05,6.9447115691284e-05,-6.9447115455143e-05,6.9447115768448e-05,-6.9447115454236e-05,6.9447115789878e-05,-7.0466542757698e-05,7.0466542827584e-05,-7.0466542610957e-05,7.0466542783263e-05,-7.0466542808337e-05,7.0466542745587e-05,-7.0466542510971e-05,7.0466542894634e-05,1.6989418117291e-12,-1.7023933106081e-12,-6.9997965127484e-05,6.9997965124025e-05,4.4513442534592e-15,-7.9798040165825e-15,-6.9447115113794e-05,6.9447116251685e-05,-6.9447115011109e-05,6.9447116140713e-05,-6.9447116250266e-05,6.9447115113766e-05,-6.9447116148871e-05,6.9447115004108e-05,-7.0466544297678e-05,7.0466541144502e-05,-7.046654115073e-05,7.0466544288707e-05,0.80782119381534,0.89156329086413,1368840,32768,0.00029161562119834,0.00029161562119834,0.00029161562119232,31.683586750047,31.842440124136,0.00016866869400037,0.00016866869400037,0.00016866869400037,149385.79810955,0.00087522979021775
2678400,0.0332860113935,0.00059093788168489,0.0001969792939006,0.0001969792939006,0.00019697929388369,-8.9313159143828e-05,8.9313159067577e-05,-2.0802623694493e-12,2.0042796823962e-12,1.0444668974003e-13,-1.823368727484e-13,-8.8728365463437e-05,8.8728364041266e-05,-8.8728364019035e-05,8.8728365485651e-05,-8.8728365549369e-05,8.872836394782e-05,-8.8728364121717e-05,8.8728365375478e-05,-8.9867357055823e-05,8.9867353060447e-05,-8.9867353233268e-05,8.9867356883011e-05,8.1918635309569e-14,3.7493704110539e-13,1.8128194909325e-13,1.9324471415369e-13,-8.9313158987123e-05,8.9313159224283e-05,-8.8728364689722e-05,8.8728364810901e-05,-8.8728364693652e-05,8.8728364806007e-05,-8.8728364600774e-05,8.8728364900422e-05,-8.872836458898e-05,8.8728364913306e-05,-8.9867354939123e-05,8.9867355144445e-05,-8.9867354818055e-05,8.9867355077307e-05,-8.9867354990527e-05,8.9867355084188e-05,-8.9867354680831e-05,8.986735521163e-05,2.0433977465574e-12,-2.0462065205858e-12,-8.9313159104132e-05,8.9313159101314e-05,4.5142173327298e-15,-7.4004007610719e-15,-8.8728364130617e-05,8.8728365480352e-05,-8.8728364040601e-05,8.8728365382393e-05,-8.87283654784e-05,8.8728364130997e-05,-8.8728365389745e-05,8.872836403441e-05,-8.9867356942994e-05,8.9867353033922e-05,-8.9867353039295e-05,8.9867356934797e-05,0.80925328494241,0.89127806232602,1368840,32768,0.00037206888300894,0.00037206888300894,0.00037206888299653,32.491621592168,32.550521461607,0.00017513297273734,0.00017513297273734,0.00017513297273734,148339.58531459,0.0011168300164203
2764800,0.046404257583948,0.00082451116692496,0.00027483705564827,0.00027483705564827,0.00027483705562842,-0.0001086547706821,0.000108654770577,-4.1215557758811e-12,4.0168639621956e-12,1.5045182751318e-13,-2.5789509758474e-13,-0.00010800727116885,0.00010800726841265,-0.00010800726837847,0.00010800727120301,-0.00010800727130325,0.00010800726829917,-0.00010800726854237,0.00010800727106004,-0.00010931735661301,0.00010931734862117,-0.00010931734886336,0.00010931735637081,5.3966535182924e-14,4.6942053705239e-13,2.084642844774e-13,2.1932259028659e-13,-0.00010865477049119,0.00010865477076791,-0.00010800726975002,0.00010800726983872,-0.00010800726976324,0.00010800726982964,-0.00010800726962985,0.00010800726996526,-0.00010800726960949,0.00010800726998158,-0.00010931735244463,0.00010931735279647,-0.00010931735232147,0.00010931735270026,-0.00010931735261807,0.00010931735267244,-0.00010931735215981,0.00010931735288004,4.0511339226248e-12,-4.0532062021489e-12,-0.00010865477062636,0.00010865477062428,4.3352218818003e-15,-6.4799582917222e-15,-0.00010800726849626,0.00010800727117307,-0.0001080072684085,0.0001080072710781,-0.0001080072711706,0.00010800726849685,-0.00010800727108439,0.00010800726840345,-0.00010931735654918,0.00010931734863501,-0.00010931734863917,0.00010931735654197,0.81051085618997,0.89099283378791,1368840,32768,0.00045262568964659,0.00045262568964659,0.00045262568962898,32.830247488317,32.854492038584,0.00017784197990653,0.00017784197990653,0.00017784197990653,158061.07767103,0.0013587996449528
2851200,0.059662770426103,0.0010608596404576,0.00035361988015824,0.00035361988015824,0.00035361988014118,-0.0001273864232374,0.00012738642313017,-4.8033545733149e-12,4.6966337618713e-12,1.7448297297377e-13,-2.8433548654018e-13,-0.00012668060786209,0.00012668060470096,-0.00012668060465175,0.00012668060791129,-0.00012668060805056,0.00012668060459212,-0.0001266806048545,0.00012668060778819,-0.00012815580112511,0.00012815579180905,-0.00012815579207033,0.00012815580086383,6.277482124289e-14,5.2945524048745e-13,2.2825379745354e-13,2.3878959944312e-13,-0.00012738642303766,0.00012738642332991,-0.00012668060627498,0.00012668060630876,-0.00012668060629649,0.00012668060632298,-0.00012668060614616,0.00012668060647577,-0.00012668060611771,0.00012668060646858,-0.00012815579626045,0.00012815579671848,-0.00012815579614271,0.00012815579657525,-0.00012815579646727,0.00012815579660368,-0.00012815579597957,0.00012815579677783,4.7099733892813e-12,-4.7116853944256e-12,-0.00012738642318223,0.0001273864231805,4.3560507491691e-15,-6.138507325756e-15,-0.00012668060478625,0.00012668060788356,-0.00012668060469727,0.00012668060778759,-0.0001266806078807,0.00012668060478697,-0.00012668060779346,0.00012668060469274,-0.00012815580112792,0.00012815579183677,-0.0001281557918403,0.00012815580112102,0.8116229418746,0.89070760524979,1368840,32768,0.00053063585959128,0.00053063585959129,0.00053063585958121,32.734782838501,32.729407863211,0.00017707826270801,0.00017707826270801,0.00017707826270801,167238.49245186,0.0015931756597425
2937600,0.073021183292761,0.0012992420691668,0.0004330806897265,0.0004330806897265,0.00043308068971383,-0.00014623077020099,0.00014623077009261,-5.6145346452617e-12,5.506750568506e-12,1.9736749077922e-13,-3.0861309414064e-13,-0.00014545467310422,0.00014545466950864,-0.00014545466944475,0.00014545467316809,-0.00014545467341625,0.00014545466941569,-0.00014545466969494,0.000145454673137,-0.00014711589938696,0.00014711588852913,-0.00014711588880734,0.00014711589910874,7.7544083287366e-14,5.9170303555122e-13,2.6519866996194e-13,2.7547156982675e-13,-0.00014623076998161,0.00014623077031199,-0.00014545467134361,0.0001454546713151,-0.00014545467137161,0.00014545467141176,-0.00014545467120566,0.00014545467158036,-0.00014545467117089,0.00014545467149056,-0.00014711589370732,0.00014711589424174,-0.00014711589358787,0.00014711589409517,-0.00014711589387352,0.00014711589410394,-0.0001471158933906,0.00014711589428904,5.5007989065752e-12,-5.5022233768454e-12,-0.00014623077015078,0.00014623077014935,4.3701964567334e-15,-5.8631627961659e-15,-0.00014545466960464,0.00014545467323645,-0.0001454546695045,0.00014545467312947,-0.00014545467323333,0.00014545466960549,-0.00014545467313498,0.00014545466950033,-0.00014711589932734,0.00014711588851661,-0.00014711588851971,0.00014711589932076,0.81262245286919,0.89042237671169,1368840,32768,0.00060910921234279,0.00060910921234279,0.00060910921235639,32.612475814238,32.604323687838,0.00017609980651391,0.00017609980651391,0.00017609980651391,180369.64070877,0.0018289986462883
3024000,0.086465967579266,0.0015391188177474,0.00051303960592028,0.00051303960592029,0.0005130396059068,-0.00016519191161617,0.00016519191150181,-8.4796801464452e-12,8.3659902445936e-12,2.2489993460843e-13,-3.4244944281635e-13,-0.00016435023052545,0.00016435022509361,-0.0001643502250156,0.00016435023060344,-0.00016435023086329,0.00016435022496381,-0.00016435022526903,0.00016435023055808,-0.00016618235355732,0.00016618233717544,-0.00016618233747995,0.00016618235325281,3.286198873586e-14,6.0789767385842e-13,3.0568768213129e-13,3.1544184784308e-13,-0.00016519191136878,0.0001651919117492,-0.00016435022779282,0.00016435022783649,-0.00016435022783966,0.00016435022797423,-0.00016435022765371,0.00016435022816308,-0.00016435022760045,0.00016435022803186,-0.00016618234505839,0.00016618234567041,-0.00016618234490356,0.00016618234553209,-0.00016618234531034,0.00016618234541864,-0.00016618234478539,0.00016618234569117,8.339619476673e-12,-8.340722984322e-12,-0.00016519191157412,0.00016519191157301,4.2748712438532e-15,-5.4426278491022e-15,-0.00016435022512076,0.00016435023066293,-0.00016435022500511,0.0001643502305408,-0.00016435023065968,0.00016435022512179,-0.00016435023054573,0.00016435022500135,-0.00016618235348669,0.00016618233713739,-0.00016618233714018,0.00016618235348078,0.81259745908013,0.87677430802203,1368840,32768,0.0006880627135027,0.00068806271350271,0.00068806271356338,32.487665366574,32.479239512465,0.00017510132293259,0.00017510132293259,0.00017510132293259,191503.99374192,0.0020663205887056
3110400,0.099986386237498,0.0017799309195318,0.00059331030651316,0.00059331030651316,0.00059331030650553,-0.00018423173099898,0.00018423173089042,-1.1161094514165e-11,1.1053248066153e-11,2.3996820590074e-13,-3.5180605771348e-13,-0.0001833385873278,0.00018333858001962,-0.00018333857992794,0.00018333858741947,-0.00018333858760003,0.00018333857994514,-0.00018333858025243,0.00018333858729274,-0.00018530121175612,0.00018530119016768,-0.00018530119047446,0.00018530121144934,2.488083549579e-14,6.2385990198617e-13,3.2484315232166e-13,3.3423077109702e-13,-0.00018423173073439,0.00018423173115502,-0.00018333858360539,0.00018333858377945,-0.00018333858368836,0.0001833385838164,-0.00018333858349451,0.00018333858401317,-0.00018333858340536,0.0001833385839825,-0.00018530120062841,0.00018530120126675,-0.00018530120045018,0.00018530120110422,-0.00018530120088494,0.00018530120098184,-0.00018530120038953,0.00018530120124654,1.1008878535582e-11,-1.1009758415872e-11,-0.00018423173096567,0.00018423173096478,4.2057152682855e-15,-5.147114817999e-15,-0.00018333858005981,0.00018333858744144,-0.00018333857993712,0.00018333858731251,-0.00018333858743812,0.00018333858006097,-0.00018333858731703,0.00018333857993364,-0.00018530121165417,0.00018530119010471,-0.00018530119010729,0.00018530121164874,0.81127983064189,0.84958561210054,1368840,32768,0.00076733755666435,0.00076733755666435,0.00076733755674979,32.362604727898,32.354155337091,0.00017410083782318,0.00017410083782318,0.00017410083782318,197485.68673446,0.0023046649903664
3196800,0.11357198421757,0.0020214435086248,0.00067381450287521,0.00067381450287522,0.00067381450287437,-0.00020333143055428,0.00020333143044776,-1.4273034525578e-11,1.4167279353752e-11,2.5633266737473e-13,-3.6623853592883e-13,-0.00020240172578085,0.00020240171641171,-0.00020240171630759,0.00020240172588496,-0.00020240172606214,0.00020240171633009,-0.00020240171664568,0.00020240172574655,-0.0002044536939407,0.00020445366625504,-0.00020445366657009,0.00020445369362564,1.5808112661245e-14,6.4587240736851e-13,3.2948796952495e-13,3.3853726086024e-13,-0.00020333143028735,0.0002033314307147,-0.00020240172103117,0.00020240172119565,-0.00020240172112061,0.0002024017212343,-0.00020240172091639,0.00020240172144152,-0.00020240172082098,0.00020240172140892,-0.00020445367975474,0.00020445368039292,-0.00020445367958203,0.00020445368023598,-0.00020445368003713,0.00020445368008431,-0.00020445367949725,0.00020445368038994,1.4112681786376e-11,-1.4113381548087e-11,-0.00020333143052189,0.00020333143052118,4.1292736697003e-15,-4.8870749679202e-15,-0.0002024017164511,0.00020240172593579,-0.00020240171633067,0.00020240172580934,-0.00020240172593236,0.0002024017164523,-0.00020240172581358,0.0002024017163275,-0.0002044536937931,0.00020445366620668,-0.00020445366620893,0.00020445369378792,0.80976522345064,0.82666567875123,1368840,32768,0.00084685540862275,0.00084685540862275,0.00084685540870813,32.237518807348,32.229071161718,0.00017310015045878,0.00017310015045878,0.00017310015045878,198490.09924561,0.0025437969501303
3283200,0.12721215256587,0.0022625257967295,0.00075417526557529,0.00075417526557529,0.00075417526557889,-0.0002223978993815,0.00022239789931008,-3.3143533186341e-12,3.243652239533e-12,2.3739026075813e-13,-3.1169923515527e-13,-0.00022147156749878,0.00022147156544039,-0.00022147156532546,0.00022147156761369,-0.00022147156774597,0.00022147156536916,-0.00022147156562566,0.00022147156748948,-0.00022350410837051,0.00022350410216621,-0.0002235041024219,0.00022350410811482,4.8035786216175e-14,6.0479108470927e-13,3.1915292059367e-13,3.290069178145e-13,-0.00022239789914388,0.0002223978995477,-0.00022147156640146,0.00022147156656076,-0.00022147156648837,0.00022147156660121,-0.00022147156630834,0.00022147156678368,-0.00022147156621493,0.00022147156674981,-0.00022350410493911,0.00022350410553478,-0.00022350410478612,0.00022350410538121,-0.00022350410519407,0.00022350410527863,-0.00022350410472003,0.00022350410551,3.162700337558e-12,-3.1636127481036e-12,-0.00022239789936467,0.00022239789936375,4.4214237520688e-15,-5.3967101342098e-15,-0.00022147156546982,0.00022147156764487,-0.00022147156535215,0.00022147156752065,-0.00022147156764139,0.00022147156547106,-0.00022147156752541,0.00022147156534853,-0.00022350410823711,0.00022350410210763,-0.00022350410211021,0.0002235041082313,0.80501662623001,0.76479338888033,1368840,32768,0.00092622862139952,0.00092622862139953,0.0009262286214762,32.112428501689,32.103986986345,0.00017209942801351,0.00017209942801351,0.00017209942801351,186764.0115285,0.0027825507716923
3369600,0.14089672800808,0.0025034333003762,0.0008344777667897,0.0008344777667897,0.00083447776679677,-0.0002414528096224,0.00024145280953674,-6.0860135139648e-12,6.0011170229355e-12,2.6101857385586e-13,-3.4990554591987e-13,-0.00024055557913022,0.00024055557524148,-0.00024055557512022,0.00024055557925148,-0.00024055557938396,0.0002405555751341,-0.00024055557542527,0.00024055557909279,-0.00024249991308641,0.00024249990143625,-0.00024249990172677,0.00024249991279589,4.3326213178634e-14,6.6201659799809e-13,3.3496281261233e-13,3.4444302897249e-13,-0.00024145280936289,0.00024145280979624,-0.00024055557711098,0.00024055557727011,-0.00024055557719589,0.00024055557731002,-0.00024055557699545,0.00024055557751321,-0.00024055557690429,0.00024055557747963,-0.00024249990689983,0.00024249990755207,-0.00024249990676017,0.00024249990740537,-0.00024249990720617,0.00024249990726871,-0.00024249990666891,0.0002424999075552,5.92044173751e-12,-5.9211635288789e-12,-0.00024145280959392,0.00024145280959319,4.3322481674981e-15,-5.1140496516465e-15,-0.00024055557525852,0.00024055557925356,-0.00024055557514398,0.00024055557913273,-0.00024055557924999,0.00024055557525981,-0.00024055557913716,0.00024055557514066,-0.00024249991293391,0.00024249990140959,-0.00024249990141187,0.00024249991292844,0.80170275470338,0.73261215393987,1368840,32768,0.0010055474326827,0.0010055474326827,0.001005547432741,31.987339144515,31.978902810972,0.00017109871315612,0.00017109871315612,0.00017109871315612,168775.47113176,0.0030211977106618
3456000,0.15461494974783,0.0027439303957891,0.00091464346525944,0.00091464346525944,0.00091464346527023,-0.00026047087816346,0.00026047087807144,-8.543534136926e-12,8.4523244269966e-12,2.7942385717532e-13,-3.7489730449763e-13,-0.00025963139639733,0.00025963139087793,-0.00025963139074857,0.00025963139652668,-0.00025963139665989,0.00025963139074607,-0.00025963139105796,0.000259631396348,-0.0002614126080615,0.00026141259157174,-0.00026141259188307,0.00026141260775016,4.5100938373762e-14,7.0730393279154e-13,3.42835336818e-13,3.5204886095778e-13,-0.0002604708778928,0.00026047087834209,-0.00025963139357397,0.00025963139371327,-0.00025963139364621,0.00025963139374481,-0.00025963139343139,0.00025963139396254,-0.00025963139335307,0.00025963139393715,-0.00026141259943613,0.00026141260011509,-0.00026141259931948,0.00026141259998424,-0.00026141259978055,0.0002614125998167,-0.00026141259919427,0.00026141260014851,8.3707500293325e-12,-8.3713323277202e-12,-0.00026047087812487,0.00026047087812428,4.2706158591464e-15,-4.9103830794028e-15,-0.00025963139090117,0.00025963139649897,-0.00025963139079325,0.00025963139638492,-0.00025963139649533,0.00025963139090249,-0.00025963139638911,0.00025963139079015,-0.00026141260788288,0.00026141259157494,-0.00026141259157701,0.00026141260787764,0.79821837156655,0.70043091899941,1368840,32768,0.0010847066225382,0.0010847066225382,0.0010847066225679,31.862250048807,31.853818635599,0.00017009800039046,0.00017009800039046,0.00017009800039046,145791.77598707,0.003259420975638
3542400,0.16849508474741,0.0029862078754059,0.00099540262512914,0.00099540262512914,0.00099540262514758,-0.00027987663400031,0.00027987663391439,-8.9242256136804e-12,8.8391500251812e-12,2.8670764201363e-13,-3.7610452497081e-13,-0.00027911607411509,0.00027911606830588,-0.00027911606816784,0.00027911607425312,-0.00027911607435515,0.00027911606819634,-0.0002791160685047,0.00027911607404679,-0.00028066995042203,0.00028066993317355,-0.00028066993348155,0.00028066995011402,7.5409556583927e-14,7.4567545817808e-13,3.5967533293753e-13,3.688380373982e-13,-0.00027987663371467,0.00027987663420003,-0.00027911607113812,0.00027911607131507,-0.00027911607121506,0.00027911607130129,-0.00027911607099763,0.0002791160715216,-0.00027911607091464,0.00027911607154149,-0.00028066994141155,0.0002806699420984,-0.00028066994129589,0.00028066994198071,-0.00028066994178421,0.00028066994176693,-0.00028066994116013,0.00028066994215506,8.7579474580698e-12,-8.758475973174e-12,-0.00027987663396003,0.00027987663395949,4.2729889484148e-15,-4.8577118943537e-15,-0.00027911606835665,0.00027911607422154,-0.00027911606826116,0.00027911607411996,-0.0002791160742179,0.00027911606835804,-0.00027911607412402,0.00027911606825807,-0.00028066995018754,0.00028066993318,-0.00028066993318211,0.00028066995018248,0.79462189052264,0.66824968405895,1368840,32768,0.0011654730384098,0.0011654730384098,0.0011654730384198,31.866077953001,31.866037061444,0.00017012862362401,0.00017012862362401,0.00017012862362401,126681.61644348,0.0035025393398612
3628800,0.18266783339121,0.0032326205944142,0.0010775401981307,0.0010775401981307,0.0010775401981528,-0.00029986601820859,0.00029986601812535,-9.0182661893348e-12,8.9359052384935e-12,2.873803016114e-13,-3.7418737030328e-13,-0.00029920863364984,0.00029920862774443,-0.00029920862760468,0.00029920863378958,-0.00029920863381698,0.0002992086275675,-0.00029920862787219,0.0002992086335123,-0.00030047600340534,0.00030047598593776,-0.0003004759862425,0.0003004760031006,6.12063360708e-14,7.2919982638702e-13,3.6548346938162e-13,3.7461012760892e-13,-0.00029986601791439,0.00029986601841955,-0.00029920863054918,0.00029920863084468,-0.00029920863059038,0.00029920863079158,-0.00029920863037389,0.00029920863101096,-0.00029920863032665,0.00029920863107014,-0.00030047599427961,0.00030047599493312,-0.000300475994178,0.00030047599487607,-0.0003004759946302,0.00030047599460588,-0.00030047599400926,0.00030047599504707,8.859560964141e-12,-8.8600650259482e-12,-0.00029986601816799,0.00029986601816748,4.2675203654763e-15,-4.8273745858436e-15,-0.00029920862776209,0.00029920863369611,-0.00029920862767477,0.00029920863360273,-0.00029920863369256,0.0002992086277636,-0.00029920863360662,0.00029920862767158,-0.00030047600313612,0.0003004759859669,-0.00030047598596923,0.00030047600313136,0.79172621393284,0.64735214500615,1368840,32768,0.0012486616884402,0.0012486616884402,0.0012486616884433,32.003037749028,32.011945642157,0.00017122430199223,0.00017122430199223,0.00017122430199223,132434.84196643,0.0037530105493896
3715200,0.19713189758761,0.0034837048806905,0.0011612349602226,0.0011612349602226,0.0011612349602454,-0.00032024535702165,0.00032024535695028,-9.0212074303642e-12,8.950742193323e-12,2.7893743821156e-13,-3.5380732378206e-13,-0.00031970714971105,0.00031970714389956,-0.00031970714375831,0.0003197071498523,-0.00031970714996511,0.00031970714373177,-0.00031970714401428,0.00031970714968261,-0.00032065896491459,0.00032065894739578,-0.00032065894767874,0.00032065896463163,7.9568348653331e-14,7.1736253865142e-13,3.8911654612059e-13,3.9820147492416e-13,-0.00032024535672816,0.00032024535724377,-0.00031970714667811,0.00031970714693869,-0.00031970714671161,0.0003197071469763,-0.00031970714650527,0.00031970714718537,-0.00031970714646577,0.00031970714715382,-0.00032065895573205,0.00032065895643114,-0.00032065895567215,0.00032065895639075,-0.00032065895606111,0.00032065895612395,-0.00032065895549112,0.00032065895654066,8.8701334499824e-12,-8.8706090678055e-12,-0.00032024535698811,0.00032024535698762,4.2610076967868e-15,-4.7922653642885e-15,-0.00031970714390109,0.00031970714986223,-0.00031970714382106,0.00031970714977617,-0.00031970714985882,0.00031970714390277,-0.00031970714977985,0.00031970714381775,-0.00032065896462387,0.00032065894744217,-0.00032065894744485,0.00032065896461954,0.79075896602582,0.65446358265355,1368840,32768,0.0013334660612664,0.0013334660612664,0.0013334660612743,32.148107371828,32.15785422287,0.00017238485897462,0.00017238485897462,0.00017238485897462,154277.80581611,0.0040084108752915
3801600,0.21187744665856,0.0037393399472873,0.0012464466490883,0.0012464466490883,0.0012464466491106,-0.0003409979714601,0.00034099797140577,-8.7069230168314e-12,8.6534927299724e-12,2.6515461294388e-13,-3.2281719697975e-13,-0.00034058886820024,0.0003405888625913,-0.00034058886244858,0.00034058886834295,-0.00034058886842195,0.00034058886241165,-0.00034058886266167,0.00034058886817194,-0.00034120621025677,0.00034120619333199,-0.00034120619358276,0.000341206210006,5.9380708018954e-14,6.51081807508e-13,3.7735015052075e-13,3.8639568484765e-13,-0.00034099797119467,0.0003409979716712,-0.00034058886524953,0.00034058886554094,-0.00034058886526306,0.00034058886556911,-0.000340588865072,0.00034058886576263,-0.0003405888650525,0.00034058886574049,-0.00034120620138743,0.00034120620203415,-0.00034120620133998,0.00034120620200951,-0.00034120620170894,0.00034120620173575,-0.00034120620118894,0.00034120620213168,8.5730156517272e-12,-8.5734698584397e-12,-0.00034099797143267,0.0003409979714322,4.2522542877268e-15,-4.7615163036512e-15,-0.00034058886257215,0.00034058886834261,-0.00034058886250334,0.00034058886826779,-0.00034058886833936,0.000340588862574,-0.00034058886827129,0.0003405888624999,-0.00034120620996437,0.0003412061933795,-0.00034120619338249,0.00034120620996043,0.78997732802373,0.66157502030094,1368840,32768,0.0014198163451845,0.0014198163451845,0.0014198163451824,32.293928874923,32.303762803583,0.00017355143099939,0.00017355143099939,0.00017355143099939,174853.09340071,0.0042685337307978
3888000,0.22689258136367,0.0039993582040244,0.0013331194013349,0.0013331194013349,0.0013331194013546,-0.00036210488271128,0.00036210488270675,-7.8031173260043e-12,7.7993984102029e-12,2.1885922944195e-13,-2.259242378755e-13,-0.00036183714177812,0.00036183713679172,-0.00036183713664735,0.00036183714192247,-0.00036183714194784,0.00036183713661227,-0.00036183713676477,0.00036183714179534,-0.00036209612806218,0.0003620961129681,-0.0003620961131213,0.00036209612790897,8.4037925346125e-14,5.313250808835e-13,3.5839838297689e-13,3.6735687308793e-13,-0.00036210488251266,0.00036210488290537,-0.00036183713912924,0.00036183713941123,-0.00036183713912381,0.00036183713946406,-0.00036183713898014,0.00036183713960929,-0.00036183713897965,0.00036183713956244,-0.00036209612018967,0.00036209612068592,-0.00036209612012694,0.00036209612068902,-0.0003620961204307,0.00036209612042066,-0.00036209612004917,0.0003620961207452,7.7036776799937e-12,-7.7040934834677e-12,-0.00036210488270773,0.00036210488270731,4.2281373774231e-15,-4.6989740966257e-15,-0.00036183713673605,0.00036183714195284,-0.00036183713667596,0.0003618371418868,-0.00036183714194976,0.00036183713673809,-0.00036183714189011,0.00036183713667248,-0.00036209612778167,0.00036209611295689,-0.00036209611296001,0.00036209612777799,0.78934692843556,0.66868645794834,1368840,32768,0.001507633178591,0.001507633178591,0.0015076331785848,32.439824972681,32.449671384295,0.00017471859978144,0.00017471859978144,0.00017471859978144,194752.16989675,0.0045331435933986
3974400,0.24216412691264,0.004263567781593,0.001421189260526,0.001421189260526,0.001421189260541,-0.00038355062200165,0.00038355062201348,-7.0522002807105e-12,7.0647814184242e-12,2.0200350907852e-13,-1.92385630104e-13,-0.00038343783209066,0.00038343782765356,-0.0003834378275102,0.00038343783223401,-0.0003834378322609,0.00038343782746803,-0.000383437827587,0.00038343783214193,-0.00038331216642601,0.00038331215230245,-0.00038331215242234,0.00038331216630611,4.1081700864591e-14,4.3662175525509e-13,3.439030422518e-13,3.5283190505102e-13,-0.0003835506218538,0.00038355062216132,-0.0003834378297236,0.00038343782996664,-0.00038343782971962,0.00038343783006205,-0.000383437829593,0.00038343783018988,-0.00038343782959107,0.00038343783010042,-0.00038331215881792,0.00038331215975636,-0.00038331215923593,0.00038331216037146,-0.00038331215955423,0.00038331215951861,-0.00038331215872987,0.0003833121603769,6.9600760362194e-12,-6.9604754927663e-12,-0.00038355062201169,0.00038355062201128,4.2214114799535e-15,-4.6759086247894e-15,-0.00038343782755527,0.00038343783230868,-0.00038343782750684,0.00038343783225431,-0.00038343783230577,0.00038343782755749,-0.00038343783225748,0.00038343782750326,-0.00038331216673583,0.00038331215276126,-0.00038331215276465,0.00038331216673248,0.78884273371765,0.67579789559573,1368840,32768,0.0015968518230359,0.0015968518230359,0.0015968518230522,32.585728543986,32.595579965008,0.00017588582835188,0.00017588582835188,0.00017588582835188,214390.45848524,0.0048020488299859
4060800,0.25767771431235,0.0045317565823168,0.0015105855274338,0.0015105855274338,0.0015105855274492,-0.00040531820840773,0.00040531820843516,-6.2876659639149e-12,6.3157803954795e-12,1.8523297361275e-13,-1.5966007102384e-13,-0.0004053763408421,0.00040537633694858,-0.00040537633680655,0.00040537634098413,-0.00040537634099141,0.00040537633673006,-0.00040537633681671,0.00040537634090476,-0.00040483692070475,0.00040483690812908,-0.00040483690821677,0.00040483692061706,-5.1343416787978e-14,2.9350599131402e-13,2.6768778555719e-13,2.7659290321784e-13,-0.0004053182083401,0.00040531820850279,-0.00040537633874349,0.00040537633894278,-0.00040537633874033,0.00040537633908469,-0.00040537633863035,0.0004053763391955,-0.00040537633862763,0.00040537633905953,-0.00040483691396118,0.00040483691483462,-0.00040483691430429,0.00040483691530495,-0.00040483691428046,0.0004048369148847,-0.00040483691388648,0.00040483691524747,6.2018155167342e-12,-6.202201889122e-12,-0.00040531820841944,0.00040531820841905,4.2157223155182e-15,-4.6577106513132e-15,-0.00040537633678534,0.0004053763411124,-0.00040537633675072,0.00040537634107186,-0.00040537634110964,0.00040537633678772,-0.0004053763410749,0.00040537633674706,-0.00040483692094735,0.00040483690848815,-0.00040483690849175,0.00040483692094426,0.78844693535378,0.68290933324313,1368840,32768,0.0016874012677066,0.0016874012677066,0.0016874012676975,32.73163281941,32.741488545721,0.00017705306255528,0.00017705306255528,0.00017705306255528,233701.39860873,0.0050750387409616
4147200,0.27341772080908,0.0048036884612068,0.0016012294870653,0.0016012294870653,0.0016012294870762,-0.00042738873313748,0.00042738873317823,-5.6831720557889e-12,5.7245448396729e-12,1.700964691108e-13,-1.308316870053e-13,-0.00042763434536327,0.00042763434184885,-0.00042763434170826,0.00042763434550385,-0.00042763434548886,0.00042763434165588,-0.00042763434171465,0.0004276343454301,-0.00042665302589694,0.00042665301448361,-0.00042665301454331,0.00042665302583724,-9.4100794402971e-14,2.0608346715919e-13,2.1229889860555e-13,2.211852392663e-13,-0.00042738873314006,0.00042738873317565,-0.00042763434349546,0.00042763434362964,-0.00042763434348597,0.00042763434374528,-0.00042763434339058,0.00042763434384114,-0.00042763434339419,0.00042763434373144,-0.00042665301976826,0.00042665302041469,-0.00042665302015881,0.00042665302107214,-0.00042665302047278,0.00042665302021834,-0.00042665301974154,0.00042665302098877,5.5875895897382e-12,-5.5879663539636e-12,-0.00042738873316041,0.00042738873316002,4.2109356970403e-15,-4.6434831447773e-15,-0.0004276343416887,0.00042763434560382,-0.00042763434166229,0.0004276343455715,-0.00042763434560114,0.00042763434169118,-0.00042763434557448,0.0004276343416586,-0.00042665302624739,0.00042665301488926,-0.00042665301489296,0.00042665302624442,0.78814701765664,0.69002077089052,1368840,32768,0.0017792025038253,0.0017792025038253,0.0017792025038351,32.877537116754,32.887397126434,0.00017822029693403,0.00017822029693403,0.00017822029693403,252263.50834964,0.0053518783220035
4233600,0.28936731751061,0.0050791057217458,0.001693035240578,0.001693035240578,0.0016930352405897,-0.00044974154963469,0.00044974154968452,-5.2514392265481e-12,5.3018404441785e-12,1.5878417498774e-13,-1.1009890126002e-13,-0.0004501867848611,0.00045018678168038,-0.00045018678154129,0.00045018678500019,-0.00045018678497509,0.00045018678143277,-0.00045018678147205,0.00045018678493581,-0.00044874526086604,0.0004487452501657,-0.00044874525020573,0.00044874526082602,-2.0480192726523e-13,6.3025844824292e-14,1.3553532364331e-13,1.4440417678682e-13,-0.0004497415497279,0.00044974154959131,-0.00045018678317659,0.0004501867832159,-0.0004501867831641,0.00045018678339255,-0.00045018678307921,0.00045018678347761,-0.00045018678308583,0.00045018678330688,-0.00044874525509258,0.00044874525581091,-0.00044874525562619,0.00044874525577364,-0.00044874525611111,0.00044874525548681,-0.00044874525575918,0.00044874525563549,5.1491118746373e-12,-5.1494791942983e-12,-0.00044974154966905,0.00044974154966867,4.2069836118914e-15,-4.6298291501328e-15,-0.00045018678144992,0.00045018678515222,-0.0004501867814258,0.0004501867851222,-0.00045018678514958,0.00045018678145245,-0.00045018678512516,0.00045018678142212,-0.00044874526147598,0.00044874525073513,-0.00044874525073882,0.00044874526147303,0.78793429101462,0.69713220853792,1368840,32768,0.0018721693203185,0.0018721693203185,0.001872169320357,33.023441369924,33.033305707146,0.00017938753095939,0.00017938753095939,0.00017938753095939,269557.77623166,0.0056323106214406
4320000,0.30559624404683,0.0053592258787657,0.0017864086262526,0.0017864086262526,0.0017864086262605,-0.00047262375686736,0.00047262375692889,-4.9560521768903e-12,5.0181186852129e-12,1.5716090840095e-13,-9.6593372668181e-14,-0.00047327657405327,0.00047327657119624,-0.00047327657105,0.0004732765741995,-0.00047327657424055,0.00047327657085268,-0.00047327657087583,0.0004732765742174,-0.00047136422486996,0.0004713642154506,-0.00047136421547409,0.00047136422484646,-2.9012026202514e-13,-3.6850425715378e-14,2.7166126894942e-14,3.6019958438524e-14,-0.00047262375704485,0.0004726237567514,-0.00047327657258801,0.00047327657244822,-0.00047327657253945,0.00047327657276699,-0.00047327657245916,0.0004732765728473,-0.00047327657250187,0.00047327657253444,-0.0004713642201755,0.00047136421997236,-0.00047136422002371,0.00047136421990466,-0.0004713642204986,0.00047136421962371,-0.00047136422014606,0.0004713642197414,4.8549544638855e-12,-4.8553244966989e-12,-0.00047262375689494,0.00047262375689456,4.1979526377814e-15,-4.623880802439e-15,-0.00047327657090077,0.00047327657447871,-0.00047327657087746,0.00047327657444952,-0.00047327657447604,0.00047327657090324,-0.00047327657445255,0.00047327657087386,-0.00047136422461508,0.00047136421528915,-0.00047136421529265,0.00047136422461194,0.7877507236646,0.70348514477375,1368840,32768,0.001967328947459,0.001967328947459,0.001967328947445,33.24706149469,33.262008750992,0.00018117649195752,0.00018117649195752,0.00018117649195752,284913.60969135,0.0059194385308013
4406400,0.32216988156584,0.005645148764699,0.0018817162548981,0.0018817162548981,0.0018817162549029,-0.00049611588677272,0.00049611588683842,-4.8859345542297e-12,4.9521547738945e-12,1.627638144419e-13,-9.7977889195681e-14,-0.00049698757696568,0.000496987574247,-0.00049698757409352,0.00049698757711914,-0.00049698757720592,0.00049698757382282,-0.00049698757384489,0.00049698757718385,-0.00049458688909339,0.00049458687984686,-0.0004945868798688,0.00049458688907145,-3.7542639127557e-13,-1.1400295570708e-13,-5.6034824939268e-14,-4.7192870790192e-14,-0.00049611588702694,0.00049611588658419,-0.00049698757563208,0.00049698757531791,-0.00049698757555539,0.00049698757573598,-0.00049698757547218,0.00049698757581919,-0.00049698757554303,0.00049698757540703,-0.00049458688458513,0.00049458688422726,-0.00049458688440022,0.00049458688409282,-0.00049458688490206,0.00049458688382485,-0.00049458688453305,0.00049458688392099,4.7754814064387e-12,-4.7758583066894e-12,-0.00049611588680019,0.0004961158867998,4.1882911682268e-15,-4.6216014603066e-15,-0.00049698757390446,0.00049698757747216,-0.00049698757387802,0.00049698757743982,-0.00049698757746937,0.0004969875739068,-0.00049698757744299,0.00049698757387454,-0.00049458688880337,0.00049458687964693,-0.00049458687965011,0.00049458688879991,0.78747034678595,0.70739061052005,1368840,32768,0.0020650156156963,0.0020650156156963,0.0020650156156731,33.544666691485,33.564636033845,0.00018355733353187,0.00018355733353187,0.00018355733353187,298657.97938253,0.0062142766635005
4492800,0.33907346772357,0.0059366331642277,0.001978877721409,0.001978877721409,0.0019788777214097,-0.00052006408129551,0.00052006408135539,-5.1180751022012e-12,5.178476551096e-12,1.7700483527084e-13,-1.1817410309756e-13,-0.00052116843617594,0.00052116843343483,-0.00052116843327464,0.00052116843633612,-0.0005211684365824,0.00052116843299075,-0.00052116843303113,0.00052116843654202,-0.00051825816293835,0.00051825815324709,-0.00051825815328672,0.00051825816289872,-4.5317405290258e-13,-1.5528619912792e-13,-1.3023016034476e-13,-1.2139890899372e-13,-0.00052006408161553,0.00052006408103537,-0.00052116843499447,0.0005211684343732,-0.00052116843489072,0.00052116843492531,-0.00052116843479519,0.00052116843502101,-0.0005211684348931,0.0005211684344748,-0.00051825815828145,0.00051825815778086,-0.00051825815809989,0.00051825815760658,-0.00051825815859405,0.00051825815738782,-0.00051825815822683,0.00051825815745982,4.9848611423844e-12,-4.9852376602938e-12,-0.0005200640813223,0.00052006408132192,4.1831663247873e-15,-4.6160501593068e-15,-0.00052116843311959,0.00052116843682708,-0.00052116843307462,0.00052116843677624,-0.00052116843682407,0.0005211684331217,-0.00052116843677962,0.00052116843307136,-0.00051825816264801,0.00051825815306449,-0.00051825815306715,0.00051825816264404,0.78723101717278,0.71129607626636,1368840,32768,0.0021645888949861,0.0021645888949861,0.0021645888949723,33.846805906861,33.867263316698,0.00018597444725489,0.00018597444725489,0.00018597444725489,310970.70481908,0.006514897941573
4579200,0.35628529659424,0.0062333198970075,0.0020777732990025,0.0020777732990025,0.0020777732990024,-0.00054443297401078,0.00054443297405368,-5.5852239193608e-12,5.6286850107719e-12,1.9946359770048e-13,-1.5792975623671e-13,-0.0005457814688605,0.00054578146579948,-0.00054578146563429,0.00054578146902567,-0.00054578146946011,0.00054578146543599,-0.00054578146551516,0.00054578146938095,-0.00054234518619914,0.00054234517557746,-0.00054234517565524,0.00054234518612134,-5.4495999890493e-13,-1.8222982822442e-13,-2.1204724360962e-13,-2.0322312255546e-13,-0.0005444329743976,0.00054443297366685,-0.00054578146778098,0.00054578146681113,-0.00054578146760432,0.0005457814673591,-0.0005457814674871,0.00054578146747683,-0.00054578146765792,0.00054578146693475,-0.00054234518115397,0.00054234518053307,-0.00054234518098926,0.00054234518030215,-0.00054234518144829,0.00054234518009784,-0.00054234518107862,0.00054234518018611,5.4289613107232e-12,-5.4293407366321e-12,-0.00054443297403095,0.00054443297403056,4.177978983257e-15,-4.6140502204036e-15,-0.00054578146567233,0.00054578146957776,-0.00054578146561175,0.00054578146951129,-0.00054578146957445,0.00054578146567414,-0.00054578146951494,0.00054578146560876,-0.00054234518585072,0.00054234517540968,-0.0005423451754117,0.0005423451858461,0.78703244471091,0.71520154201266,1368840,32768,0.0022659011945749,0.0022659011945749,0.0022659011945688,34.149367320314,34.169890599551,0.00018839493856251,0.00018839493856251,0.00018839493856251,321443.97721723,0.0068208617031348
4665600,0.37378094757502,0.0065348072505056,0.0021782690835016,0.0021782690835016,0.0021782690835024,-0.00056918973387266,0.00056918973388689,-6.3195795882403e-12,6.3344367520112e-12,2.2947523968895e-13,-2.1712727867538e-13,-0.00057079308349591,0.00057079307964692,-0.00057079307947927,0.00057079308366355,-0.00057079308416574,0.00057079307942488,-0.00057079307956358,0.00057079308402704,-0.00056681651025097,0.00056681649815629,-0.00056681649829295,0.0005668165101143,-6.0601045738474e-13,-1.5086063487734e-13,-2.5927789725292e-13,-2.5045783765557e-13,-0.00056918973429043,0.00056918973346911,-0.00057079308229565,0.00057079308112339,-0.00057079308194709,0.00057079308136623,-0.00057079308179906,0.00057079308151528,-0.0005707930821418,0.00057079308127833,-0.00056681650450188,0.00056681650383631,-0.00056681650437312,0.00056681650359488,-0.00056681650480027,0.00056681650338251,-0.00056681650439631,0.00056681650353189,6.1280427483828e-12,-6.1284255418358e-12,-0.00056918973388252,0.00056918973388213,4.174037927183e-15,-4.6137561117413e-15,-0.00057079307988902,0.00057079308394087,-0.00057079307980223,0.00057079308384822,-0.00057079308393719,0.00057079307989044,-0.00057079308385219,0.00057079307979957,-0.00056681650987462,0.00056681649804887,-0.00056681649805012,0.00056681650986923,0.78687422993878,0.71910700775897,1368840,32768,0.0023688155130555,0.0023688155130555,0.0023688155130662,34.451970801731,34.472517882404,0.00019081576641385,0.00019081576641385,0.00019081576641385,330138.44217925,0.0071317588283598
4752000,0.39153367279182,0.0068406544891201,0.0022802181630376,0.0022802181630376,0.0022802181630449,-0.00059429904276448,0.00059429904274119,-7.2697327896534e-12,7.2471631335527e-12,2.6301481066631e-13,-2.8884213195349e-13,-0.00059616648819668,0.00059616648359825,-0.00059616648343182,0.00059616648836309,-0.00059616648878526,0.00059616648334472,-0.00059616648355686,0.00059616648857312,-0.00059163800010525,0.00059163798610974,-0.00059163798631937,0.00059163799989561,-6.0644015014028e-13,-4.2922647382292e-14,-2.5294910529905e-13,-2.4413603813515e-13,-0.00059429904315703,0.00059429904234863,-0.00059616648660801,0.00059616648546483,-0.00059616648626205,0.00059616648558828,-0.00059616648607806,0.00059616648577395,-0.0005961664864182,0.00059616648565639,-0.00059163799339652,0.00059163799280573,-0.00059163799329886,0.00059163799256193,-0.00059163799367641,0.00059163799231148,-0.0005916379932014,0.00059163799256878,7.0374549811693e-12,-7.0378402708695e-12,-0.00059429904275173,0.00059429904275133,4.1690601380745e-15,-4.6117561728381e-15,-0.00059616648387484,0.00059616648851271,-0.00059616648377072,0.00059616648840272,-0.00059616648850867,0.00059616648387589,-0.000596166488407,0.00059616648376836,-0.00059163799966621,0.00059163798605241,-0.00059163798605294,0.0005916379996601,0.78675597027304,0.72301247350527,1368840,32768,0.0024731845602275,0.0024731845602275,0.0024731845602221,34.75457850551,34.775145165257,0.00019323662804408,0.00019323662804408,0.00019323662804408,337295.04232923,0.0074471486657945
4838400,0.40951451877514,0.0071503843097298,0.002383461436572,0.002383461436572,0.0023834614365858,-0.00061972270327158,0.00061972270321678,-8.3008154378451e-12,8.2468200653079e-12,2.8587213444958e-13,-3.4376149832219e-13,-0.00062186205706416,0.00062186205177625,-0.00062186205161598,0.00062186205722442,-0.00062186205771107,0.00062186205142843,-0.00062186205169712,0.00062186205744238,-0.00061677276585586,0.00061677274979401,-0.00061677275006081,0.00061677276558907,-4.7808205668604e-13,1.6302044538877e-13,-1.0362211934185e-13,-9.4812893972348e-14,-0.00061972270352296,0.00061972270296539,-0.00062186205506198,0.00062186205409302,-0.00062186205460998,0.00062186205421267,-0.00062186205440069,0.00062186205442417,-0.00062186205484686,0.0006218620543104,-0.0006167727579379,0.00061677275771379,-0.00061677275787873,0.00061677275746274,-0.00061677275822835,0.0006167727571674,-0.00061677275772481,0.00061677275748366,8.0383011854165e-12,-8.0386922065593e-12,-0.0006197227032493,0.0006197227032489,4.1643617521952e-15,-4.6124473281943e-15,-0.00062186205212108,0.00062186205732622,-0.00062186205198351,0.00062186205718277,-0.00062186205732217,0.00062186205212212,-0.00062186205718701,0.0006218620519811,-0.00061677276534316,0.00061677274975454,-0.00061677274975515,0.00061677276533713,0.78667731368649,0.72691793925158,1368840,32768,0.002578849134472,0.002578849134472,0.0025788491344925,35.057186591995,35.07777244811,0.00019565749273596,0.00019565749273596,0.00019565749273596,343096.49979118,0.0077665540584923
4924800,0.42769243006825,0.0074634839053644,0.0024878279684472,0.0024878279684472,0.0024878279684699,-0.00064541966354179,0.00064541966347973,-9.3327606111578e-12,9.2715385696845e-12,2.821768723373e-13,-3.4744551813086e-13,-0.00064783726169288,0.00064783725570972,-0.00064783725555866,0.00064783726184393,-0.00064783726210169,0.00064783725527844,-0.00064783725555237,0.00064783726182777,-0.00064218119215066,0.00064218117406592,-0.00064218117433921,0.00064218119187736,-2.5563208767402e-13,3.8226205101703e-13,1.0240691014213e-13,1.1121319074866e-13,-0.00064541966357696,0.00064541966344455,-0.00064783725890456,0.00064783725857685,-0.00064783725860286,0.00064783725869612,-0.00064783725839524,0.00064783725890604,-0.00064783725869112,0.00064783725879265,-0.00064218118301017,0.00064218118320382,-0.00064218118296016,0.00064218118297529,-0.00064218118329591,0.00064218118268141,-0.00064218118280243,0.00064218118301973,9.052766267734e-12,-9.0531561969984e-12,-0.00064541966352157,0.00064541966352117,4.1633434009522e-15,-4.6102856295269e-15,-0.00064783725584414,0.00064783726189704,-0.00064783725569862,0.00064783726174565,-0.00064783726189333,0.00064783725584552,-0.00064783726174952,0.00064783725569586,-0.00064218119164186,0.00064218117406179,-0.00064218117406322,0.00064218119163663,0.78663798098412,0.73082340499788,1368840,32768,0.002685638234423,0.002685638234423,0.0026856382344672,35.35979466881,35.380399730963,0.00019807835735048,0.00019807835735048,0.00019807835735048,347528.32258096,0.0080894616051164
5011200,0.44603438700721,0.0077792426484118,0.0025930808827929,0.0025930808827929,0.002593080882826,-0.00067133280445104,0.00067133280437905,-1.0309259684193e-11,1.0238132687956e-11,2.8144633583116e-13,-3.5678320345922e-13,-0.00067403775411593,0.00067403774765396,-0.00067403774750963,0.00067403775426025,-0.00067403775464741,0.00067403774718959,-0.00067403774747653,0.00067403775436047,-0.00066779996681342,0.00066779994679993,-0.00066779994708609,0.00066779996652725,-2.0231814284902e-13,4.4493761885822e-13,1.5824126602177e-13,1.6704284180879e-13,-0.00067133280442234,0.00067133280440775,-0.00067403775106661,0.00067403775072488,-0.0006740377507921,0.00067403775102082,-0.00067403775058134,0.000674037751234,-0.00067403775085003,0.00067403775094394,-0.00066779995664728,0.00066779995696615,-0.00066779995661071,0.00066779995674507,-0.00066779995695788,0.00066779995645158,-0.00066779995645929,0.0006677999568124,1.0012283984538e-11,-1.001267850925e-11,-0.00067133280444124,0.00067133280444084,4.158685455014e-15,-4.6103738621255e-15,-0.00067403774775815,0.00067403775449483,-0.00067403774759929,0.00067403775433012,-0.00067403775449105,0.00067403774775943,-0.00067403775433407,0.00067403774759659,-0.00066779996633289,0.00066779994685818,-0.00066779994685946,0.00066779996632752,0.78623079079754,0.72885757449027,1368840,32768,0.0027933141624405,0.0027933141624405,0.0027933141625486,35.662403086821,35.683027013817,0.00020049922469456,0.00020049922469456,0.00020049922469456,351933.43362608,0.0084151555270583
5097600,0.46439010621644,0.0080937615299784,0.0026979205099765,0.0026979205099765,0.0026979205100255,-0.00069695094213039,0.00069695094204921,-1.1015466345359e-11,1.0935170173352e-11,2.8052671686607e-13,-3.651780499436e-13,-0.00069999332617498,0.00069999331912741,-0.00069999331898973,0.00069999332631265,-0.00069999332653707,0.0006999933186613,-0.00069999331895987,0.0006999933262385,-0.00069305143878932,0.00069305141796961,-0.00069305141826742,0.0006930514384915,-1.5049604950782e-13,5.0450054373705e-13,1.9991578241596e-13,2.0871486655115e-13,-0.0006969509420352,0.00069695094214438,-0.0006999933226634,0.00069999332260089,-0.00069999332244931,0.0006999933227846,-0.00069999332223602,0.00069999332300041,-0.00069999332244429,0.00069999332282257,-0.00069305142845758,0.00069305142827657,-0.0006930514278394,0.00069305142809996,-0.00069305142820002,0.00069305142778004,-0.00069305142768869,0.00069305142819242,1.0711100518526e-11,-1.0711496348345e-11,-0.00069695094211889,0.00069695094211849,4.1562811167002e-15,-4.6102121023613e-15,-0.00069999331919529,0.00069999332646831,-0.00069999331903303,0.0006999933263002,-0.00069999332646451,0.00069999331919655,-0.00069999332630418,0.00069999331903035,-0.00069305143784721,0.00069305141747868,-0.00069305141747993,0.00069305143784181,0.78257459346442,0.68033219149736,1368840,32768,0.0028997528250853,0.0028997528250852,0.0028997528252053,35.864783378708,35.878820791791,0.00020211826702966,0.00020211826702966,0.00020211826702966,367352.88952219,0.0087372106426795
5184000,0.4826264098267,0.0084060827135576,0.0028020275711632,0.0028020275711632,0.0028020275712312,-0.00072219099306361,0.00072219099297087,-1.1725183391931e-11,1.1633341682926e-11,2.8157181729191e-13,-3.7795498314647e-13,-0.00072559772438305,0.00072559771685842,-0.00072559771672753,0.00072559772451393,-0.00072559772469648,0.00072559771637645,-0.00072559771669124,0.00072559772438168,-0.00071790802506183,0.00071790800228775,-0.00071790800260175,0.00071790802474782,-8.1944820171405e-14,5.8735434165451e-13,2.7719087851629e-13,2.8598682947514e-13,-0.00072219099288471,0.00072219099314977,-0.000725597720524,0.00072559772063382,-0.00072559772034425,0.00072559772080962,-0.00072559772012623,0.0007255977210303,-0.00072559772030018,0.00072559772086036,-0.00071790801340027,0.00071790801393616,-0.00071790801334251,0.0007179080137597,-0.00071790801372368,0.00071790801344972,-0.00071790801320299,0.00071790801387605,1.1410492740809e-11,-1.1410890011761e-11,-0.00072219099304986,0.00072219099304945,4.1541267707492e-15,-4.609388598107e-15,-0.00072559771689453,0.00072559772466081,-0.00072559771672859,0.00072559772448902,-0.00072559772465696,0.00072559771689573,-0.00072559772449304,0.00072559771672595,-0.00071790802460341,0.00071790800240529,-0.00071790800240646,0.00071790802459793,0.78233435335452,0.68861650922473,1368840,32768,0.0030046095099933,0.0030046095099933,0.003004609510128,35.979158862315,35.987182183576,0.00020303327089852,0.00020303327089852,0.00020303327089852,386214.44091652,0.0090545797592696
5270400,0.50070849098018,0.0087185297466393,0.0029061765821867,0.0029061765821867,0.0029061765822659,-0.00074747950433593,0.00074747950421153,-1.4989087601016e-11,1.4865662614211e-11,3.0319723753252e-13,-4.3175658954432e-13,-0.00075115034806175,0.00075115033835748,-0.00075115033823317,0.00075115034818605,-0.00075115034838539,0.0007511503378511,-0.00075115033822231,0.00075115034801418,-0.00074298084590571,0.00074298081684882,-0.00074298081721947,0.00074298084553506,-6.5261212197117e-14,6.7964800560231e-13,3.2783798661278e-13,3.3660731981861e-13,-0.00074747950408304,0.00074747950446442,-0.00075115034305595,0.00075115034327086,-0.00075115034288523,0.00075115034344047,-0.00075115034264246,0.00075115034368641,-0.00075115034280739,0.00075115034352265,-0.00074298083110373,0.00074298083163145,-0.00074298083090808,0.0007429808313915,-0.00074298083133544,0.00074298083109433,-0.00074298083084976,0.00074298083153361,1.465705595759e-11,-1.4657455871843e-11,-0.00074747950430538,0.00074747950430497,4.1397154462994e-15,-4.597183088624e-15,-0.00075115033839559,0.00075115034833732,-0.00075115033822904,0.00075115034816493,-0.00075115034833345,0.00075115033839675,-0.00075115034816893,0.0007511503382264,-0.00074298084535918,0.00074298081685486,-0.00074298081685608,0.00074298084535376,0.78946351774919,0.80400170950033,1368840,32768,0.00310965659585,0.00310965659585,0.0031096565959806,36.088083158241,36.095543575362,0.00020390466526592,0.00020390466526592,0.00020390466526592,374061.51009158,0.0093726249014804
5356800,0.51860941364795,0.0090267172922002,0.0030089057640371,0.0030089057640371,0.003008905764126,-0.00077249915553225,0.00077249915539847,-1.5439165682322e-11,1.5306366606889e-11,3.0344108302438e-13,-4.4150402706092e-13,-0.00077641996755237,0.00077641995754403,-0.00077641995742553,0.00077641996767086,-0.0007764199678791,0.00077641995703961,-0.00077641995742369,0.00077641996749503,-0.00076776937984497,0.00076776934981357,-0.00076776935019699,0.00076776937946154,-5.0707921496041e-14,7.0480767081534e-13,3.4938181467686e-13,3.581352945067e-13,-0.0007724991552522,0.00077249915567852,-0.00077641996237777,0.00077641996262898,-0.00077641996220972,0.00077641996279534,-0.00077641996196339,0.00077641996304493,-0.00077641996212566,0.00077641996288442,-0.0007677693644864,0.00076776936514861,-0.0007677693643842,0.00076776936498778,-0.00076776936482102,0.00076776936460106,-0.00076776936421293,0.00076776936513079,1.5102570523896e-11,-1.510296701546e-11,-0.00077249915549572,0.00077249915549531,4.1333810809864e-15,-4.5877569059992e-15,-0.0007764199575908,0.00077641996782628,-0.00077641995742273,0.00077641996765239,-0.00077641996782235,0.0007764199575919,-0.00077641996765643,0.00077641995742016,-0.00076776937934722,0.00076776934991912,-0.00076776934992022,0.00076776937934169,0.78637952826427,0.74770296004574,1368840,32768,0.0032135759547341,0.0032135759547341,0.0032135759548594,36.196500596692,36.203904967147,0.00020477200477353,0.00020477200477353,0.00020477200477353,359398.43525146,0.0096873544829475
5443200,0.53630226136044,0.0093294198172142,0.0031098066057058,0.0031098066057058,0.0031098066058026,-0.00079696500200064,0.00079696500185506,-1.5767181933709e-11,1.562259984324e-11,3.028360353317e-13,-4.5284794521789e-13,-0.00080124418921444,0.00080124417898174,-0.00080124417887131,0.00080124418932486,-0.0008012441895367,0.00080124417847837,-0.00080124417887785,0.00080124418913722,-0.00079186256595223,0.00079186253523172,-0.00079186253563054,0.00079186256555341,-1.0322787587102e-14,7.5636489908623e-13,3.9761762235604e-13,4.0637108564228e-13,-0.00079696500167075,0.00079696500218496,-0.00080124418388334,0.00080124418422092,-0.00080124418372221,0.00080124418438137,-0.0008012441834722,0.00080124418463477,-0.00080124418362754,0.00080124418448017,-0.00079186255018087,0.00079186255098492,-0.00079186255011595,0.00079186255082506,-0.00079186255056661,0.0007918625504293,-0.00079186254994592,0.00079186255097179,1.5424292607272e-11,-1.5424695083947e-11,-0.00079696500196089,0.00079696500196047,4.1304914633799e-15,-4.5900656589978e-15,-0.00080124417903335,0.00080124418948081,-0.00080124417886449,0.00080124418930612,-0.00080124418947685,0.00080124417903441,-0.00080124418931022,0.00080124417886195,-0.00079186256546017,0.00079186253539404,-0.00079186253539507,0.00079186256545455,0.78129223246564,0.67633392771571,1368840,32768,0.0033151845469465,0.0033151845469465,0.0033151845470828,36.304866967835,36.312266358933,0.00020563893574268,0.00020563893574268,0.00020563893574268,375643.34641225,0.0099951809151333
5529600,0.55376041951953,0.0096257451244334,0.0032085817081102,0.0032085817081102,0.003208581708213,-0.00082089485774122,0.00082089485758372,-1.6004647811642e-11,1.5848158423168e-11,3.023081176357e-13,-4.6438963674478e-13,-0.00082560987994869,0.00082560986954447,-0.00082560986944206,0.0008256098800511,-0.0008256098802597,0.00082560986903814,-0.0008256098694533,0.00082560987984455,-0.00081530420109031,0.000815304169896,-0.00081530417031046,0.00081530420067586,2.0048019899695e-14,7.9834873047959e-13,4.312357313753e-13,4.3999141885829e-13,-0.00082089485737178,0.00082089485795316,-0.00082560987449503,0.00082560987490331,-0.00082560987433762,0.00082560987505151,-0.00082560987408376,0.00082560987530889,-0.00082560987423537,0.00082560987516653,-0.00081530418504339,0.00081530418592405,-0.00081530418498194,0.00081530418576688,-0.00081530418543385,0.00081530418536772,-0.00081530418480851,0.00081530418592007,1.5653674261585e-11,-1.5654076131661e-11,-0.00082089485769701,0.00082089485769661,4.1353773435314e-15,-4.587727495133e-15,-0.00082560986959993,0.00082560988019805,-0.00082560986943198,0.00082560988002426,-0.00082560988019402,0.00082560986960094,-0.00082560988002841,0.00082560986942949,-0.00081530420059258,0.00081530417007236,-0.00081530417007326,0.00081530420058683,0.77529938442746,0.60141412576628,1368840,32768,0.0034145570277487,0.0034145570277487,0.0034145570278914,36.413227672056,36.420627750718,0.00020650582137645,0.00020650582137645,0.00020650582137645,407144.11660676,0.010296324187211
5616000,0.57095915651116,0.0099156676271997,0.0033052225423638,0.0033052225423638,0.0033052225424721,-0.00084428522658753,0.00084428522641701,-1.6240359757863e-11,1.6070871413557e-11,3.0299416285396e-13,-4.7826028653536e-13,-0.00084950597112219,0.00084950596056413,-0.00084950596046974,0.00084950597121656,-0.00084950597144045,0.00084950596006116,-0.0008495059604942,0.00084950597100742,-0.00083811060083241,0.00083811056917849,-0.00083811056961081,0.00083811060040009,3.8094292127877e-14,8.3139663632992e-13,4.5469469027168e-13,4.6344881989785e-13,-0.0008442852261879,0.00084428522681664,-0.00084950596557458,0.00084950596601662,-0.00084950596542567,0.00084950596616735,-0.00084950596516687,0.00084950596642981,-0.00084950596531,0.00084950596628493,-0.00083811058453118,0.00083811058545848,-0.00083811058446441,0.00083811058530961,-0.00083811058492722,0.0008381105849001,-0.00083811058428154,0.00083811058547208,1.5884028621476e-11,-1.5884435568603e-11,-0.00084428522653395,0.00084428522653353,4.1288885711707e-15,-4.5925949934931e-15,-0.00084950596061938,0.00084950597136992,-0.00084950596045338,0.00084950597119809,-0.00084950597136586,0.00084950596062034,-0.00084950597120228,0.00084950596045093,-0.00083811060032779,0.0008381105693535,-0.00083811056935432,0.00083811060032197,0.77036212382232,0.54799038503428,1368840,32768,0.0035116795418091,0.0035116795418091,0.0035116795419398,36.521587349535,36.528989142504,0.00020737269879628,0.00020737269879628,0.00020737269879628,449158.36161229,0.010590736279031
5702400,0.58787537266578,0.010199079007864,0.0033996930025843,0.0033996930025843,0.0033996930026956,-0.00086715158316929,0.00086715158298535,-1.6473068479654e-11,1.6290172037603e-11,3.046845156266e-13,-4.9355401049906e-13,-0.0008729292939467,0.00087292928323666,-0.00087292928314998,0.00087292929403338,-0.00087292929426981,0.00087292928272863,-0.00087292928318067,0.00087292929381776,-0.00086032280762464,0.00086032277551048,-0.00086032277596186,0.00086032280717325,5.0841902697125e-14,8.6143678663866e-13,4.7484078805752e-13,4.8358573414071e-13,-0.00086715158274201,0.00086715158341263,-0.00087292928830377,0.00087292928877958,-0.00087292928816026,0.00087292928893431,-0.00087292928789579,0.0008729292892026,-0.00087292928803353,0.00087292928905371,-0.00086032279106678,0.0008603227920392,-0.00086032279100426,0.00086032279189839,-0.00086032279147264,0.00086032279147818,-0.00086032279081564,0.00086032279206861,1.6110732519357e-11,-1.6111140495864e-11,-0.00086715158310966,0.00086715158310924,4.1223042134948e-15,-4.5898450775011e-15,-0.00087292928328651,0.00087292929418773,-0.00087292928312412,0.00087292929401952,-0.00087292929418365,0.00087292928328743,-0.00087292929402374,0.0008729292831217,-0.00086032280711458,0.00086032277569617,-0.00086032277569695,0.00086032280710873,0.7661351165887,0.50714110322116,1368840,32768,0.0036066169854122,0.0036066169854122,0.0036066169855456,36.629946749391,36.637350534289,0.00020823957399513,0.00020823957399513,0.00020823957399513,494925.97793516,0.010878608079787
5788800,0.60448768925321,0.01047565067852,0.0034918835594688,0.0034918835594688,0.0034918835595825,-0.000889463732743,0.00088946373254382,-1.6658159869356e-11,1.6460036554241e-11,3.0828263364774e-13,-5.1260838428338e-13,-0.0008958511381473,0.00089585112730549,-0.0008958511272261,0.00089585113822668,-0.00089585113847385,0.00089585112680047,-0.00089585112727556,0.00089585113799877,-0.00088191010698959,0.00088191007450132,-0.0008819100749756,0.0008819101065153,9.4368440638327e-14,9.2859599048579e-13,5.3143944779408e-13,5.4018776234054e-13,-0.00088946373225305,0.00088946373303378,-0.00089585113238777,0.0008958511329678,-0.00089585113225227,0.00089585113311523,-0.00089585113197995,0.00089585113339156,-0.00089585113210966,0.00089585113324997,-0.00088191009018419,0.00088191009128073,-0.0008819100901217,0.00088191009114306,-0.00088191009061227,0.00088191009069987,-0.00088191008992784,0.00088191009131968,1.6287105263643e-11,-1.6287516876069e-11,-0.00088946373267396,0.00088946373267354,4.1229034598941e-15,-4.5926832260917e-15,-0.00089585112736447,0.00089585113838142,-0.00089585112719898,0.00089585113821011,-0.00089585113837726,0.00089585112736529,-0.00089585113821443,0.00089585112719664,-0.00088191010647032,0.00088191007470166,-0.00088191007470225,0.00088191010646426,0.76186094028237,0.46629182140805,1368840,32768,0.003699244613557,0.003699244613557,0.003699244613683,36.738306040097,36.745711926074,0.00020910644832077,0.00020910644832077,0.00020910644832077,544063.43343207,0.011159555616373
5875200,0.62071718877538,0.010745740548469,0.0035819135161181,0.0035819135161181,0.003581913516233,-0.0009111267617267,0.0009111267615183,-1.6782691050309e-11,1.6575360472351e-11,3.0664933795557e-13,-5.2030964901502e-13,-0.00091813454584983,0.00091813453493424,-0.0009181345348627,0.00091813454592134,-0.00091813454617983,0.0009181345344261,-0.00091813453491167,0.00091813454569427,-0.00090285661019954,0.0009028565774652,-0.00090285657795046,0.00090285660971427,4.6138296389069e-16,8.3965449251397e-13,4.392411311173e-13,4.4799560815933e-13,-0.00091112676132484,0.00091112676192017,-0.00091813454014703,0.00091813454053529,-0.00091813454001421,0.00091813454068934,-0.00091813453974047,0.00091813454096717,-0.00091813453986751,0.00091813454081897,-0.00090285659335834,0.00090285659427692,-0.00090285659329724,0.00090285659414087,-0.00090285659379776,0.00090285659370137,-0.00090285659310852,0.0009028565943254,1.6410976979448e-11,-1.6411400606212e-11,-0.00091112676164993,0.0009111267616495,4.120668234061e-15,-4.6007123925709e-15,-0.00091813453497119,0.00091813454607328,-0.00091813453481454,0.00091813454591081,-0.00091813454606924,0.00091813453497213,-0.000918134545915,0.00091813453481207,-0.00090285660968921,0.00090285657767292,-0.00090285657767382,0.00090285660968342,0.76210078800111,0.49184196051334,1368840,32768,0.0037891691812126,0.0037891691812126,0.0037891691813256,36.784584561936,36.787895818362,0.00020947667649548,0.00020947667649548,0.00020947667649548,586495.52370195,0.011432379498346
5961600,0.63650464876183,0.01100667847397,0.0036688928246188,0.0036688928246188,0.0036688928247323,-0.00093206137242947,0.00093206137220766,-1.6921870313183e-11,1.6701151820688e-11,3.1095591227503e-13,-5.3819982307072e-13,-0.00093968077831204,0.00093968076729144,-0.00093968076722511,0.00093968077837835,-0.00093968077864503,0.00093968076678244,-0.00093968076728948,0.00093968077813799,-0.00092306030069455,0.00092306026767993,-0.00092306026818624,0.00092306030018824,1.032335962845e-13,9.6633398099843e-13,5.563461418749e-13,5.6510047921532e-13,-0.00093206137190411,0.00093206137273302,-0.00093968077244116,0.00093968077306267,-0.00093968077231343,0.00093968077320939,-0.0009396807720316,0.00093968077349547,-0.00093968077215355,0.00093968077335459,-0.00092306028359318,0.00092306028475155,-0.00092306028353197,0.00092306028462033,-0.00092306028404868,0.00092306028415271,-0.00092306028333325,0.00092306028480667,1.6540995242773e-11,-1.6541418421022e-11,-0.00093206137234802,0.00093206137234759,4.1205873541789e-15,-4.600594749106e-15,-0.00093968076735053,0.00093968077853873,-0.0009396807671861,0.00093968077836846,-0.00093968077853452,0.0009396807673513,-0.00093968077837284,0.0009396807671838,-0.00092306030016684,0.00092306026789788,-0.00092306026789838,0.00092306030016067,0.75737031191433,0.44077103288462,1368840,32768,0.0038760622016813,0.0038760622016813,0.0038760622018027,36.780618397046,36.78047504981,0.00020944494717637,0.00020944494717637,0.00020944494717637,618417.24552235,0.01169607646828
6048000,0.65184046277698,0.01125929378461,0.0037530979281654,0.0037530979281654,0.0037530979282793,-0.00095217581796346,0.00095217581772276,-1.7058948507892e-11,1.6819360327146e-11,3.1795006625549e-13,-5.6436449434621e-13,-0.00096049574074788,0.00096049572963546,-0.00096049572957655,0.00096049574080677,-0.00096049574109204,0.00096049572911873,-0.00096049572965597,0.00096049574055481,-0.00094235995070869,0.00094235991741225,-0.00094235991794862,0.00094235995017231,1.5081781908974e-13,1.0481720176673e-12,6.214826814101e-13,6.3023882016607e-13,-0.00095217581736386,0.00095217581832235,-0.00096049573477339,0.00096049573551094,-0.00096049573464856,0.0009604957356567,-0.00096049573435537,0.00096049573595437,-0.00096049573447442,0.00096049573581446,-0.00094235993339315,0.00094235993469572,-0.00094235993333575,0.0009423599345693,-0.00094235993387141,0.00094235993407369,-0.00094235993312594,0.00094235993476256,1.66681282413e-11,-1.6668554823857e-11,-0.00095217581787281,0.00095217581787237,4.1189182875207e-15,-4.6044181617152e-15,-0.00096049572969999,0.00096049574097128,-0.00096049572953544,0.00096049574080089,-0.00096049574096697,0.00096049572970065,-0.00096049574080538,0.00096049572953323,-0.00094235995016644,0.00094235991764721,-0.00094235991764749,0.00094235995016004,0.75516893410457,0.42834657677503,1368840,32768,0.003959543692903,0.003959543692903,0.0039595436930254,36.773524747184,36.773054281258,0.00020938819797747,0.00020938819797747,0.00020938819797747,665837.84289964,0.011949485765077
6134400,0.66671924285981,0.011504207165956,0.0038347357219471,0.0038347357219471,0.0038347357220616,-0.0009717443506204,0.00097174435036714,-1.7138153499998e-11,1.6886034687349e-11,3.2035564717841e-13,-5.7949263513307e-13,-0.000980725437462,0.00098072542630019,-0.00098072542624821,0.00098072543751398,-0.0009807254378109,0.00098072542578538,-0.00098072542634067,0.00098072543725562,-0.00096116594344726,0.0009611659099932,-0.00096116591054787,0.00096116594289258,7.6427356373195e-14,9.9115830719113e-13,5.6112476427362e-13,5.698820390243e-13,-0.0009717443500738,0.00097174435091374,-0.00098072543151551,0.0009807254321413,-0.0009807254314045,0.00098072543229256,-0.00098072543110567,0.00098072543259601,-0.00098072543121089,0.0009807254324506,-0.00096116592610796,0.0009611659272998,-0.00096116592605057,0.00096116592716712,-0.00096116592661264,0.00096116592666595,-0.00096116592585119,0.00096116592736164,1.6746888158768e-11,-1.6747308153291e-11,-0.00097174435052887,0.00097174435052844,4.1225652349325e-15,-4.6016094239908e-15,-0.00098072542635965,0.00098072543769833,-0.00098072542619002,0.00098072543752287,-0.00098072543769404,0.00098072542636034,-0.00098072543752733,0.0009807254261878,-0.00096116594292417,0.00096116591024321,-0.00096116591024356,0.00096116594291784,0.75514731447585,0.44713313593456,1368840,32768,0.0040407527325658,0.0040407527325658,0.0040407527327106,36.766136908729,36.765633512706,0.00020932909526983,0.00020932909526983,0.00020932909526983,697020.00666369,0.012196058118011
6220800,0.68113817918624,0.011741491571003,0.0039138305236285,0.0039138305236285,0.0039138305237454,-0.00099077884439314,0.00099077884412755,-1.7187085799268e-11,1.6922648642347e-11,3.2385452558419e-13,-5.9549763148554e-13,-0.0010003704437894,0.0010003704325956,-0.0010003704325492,0.0010003704438358,-0.0010003704441525,0.0010003704320793,-0.0010003704326535,0.0010003704435783,-0.00097950081210424,0.00097950077854599,-0.00097950077911955,0.00097950081153068,1.0212010088925e-13,1.0371015966699e-12,5.9886082469817e-13,6.0761677595987e-13,-0.00099077884380565,0.00099077884471505,-0.0010003704378026,0.001000370438485,-0.0010003704376887,0.0010003704386357,-0.0010003704373831,0.001000370438946,-0.0010003704374912,0.0010003704388012,-0.00097950079467153,0.00097950079594188,-0.00097950079461459,0.00097950079582117,-0.00097950079519739,0.00097950079528811,-0.00097950079440485,0.00097950079601825,1.6788510563703e-11,-1.6788941160843e-11,-0.00099077884429014,0.0009907788442897,4.1175359768082e-15,-4.6050946116383e-15,-0.0010003704326624,0.001000370444017,-0.0010003704324965,0.0010003704438453,-0.0010003704440127,0.001000370432663,-0.0010003704438498,0.0010003704324943,-0.00097950081156046,0.00097950077880349,-0.0009795007788037,0.00097950081155397,0.75528326491448,0.46591969509408,1368840,32768,0.0041197391683726,0.0041197391683726,0.0041197391684954,36.758719483953,36.758212744154,0.00020926975587162,0.00020926975587162,0.00020926975587162,712898.86598558,0.012435939816027
6307200,0.69509607319919,0.011971222933082,0.0039904076443217,0.0039904076443217,0.0039904076444385,-0.0010092182133441,0.0010092182130651,-1.7235829119016e-11,1.6958068045603e-11,3.2859422637782e-13,-6.1377020562388e-13,-0.0010193973551623,0.0010193973439318,-0.0010193973438909,0.0010193973552033,-0.0010193973555294,0.0010193973434051,-0.0010193973440004,0.001019397354934,-0.00099727754569949,0.00099727751203068,-0.0009972775126253,0.00099727754510486,1.3931862626454e-13,1.0979292237217e-12,6.4595960093642e-13,6.547134915993e-13,-0.0010092182127028,0.0010092182137064,-0.0010193973491147,0.0010193973498813,-0.0010193973489989,0.0010193973500288,-0.0010193973486855,0.0010193973503471,-0.0010193973487955,0.0010193973502054,-0.00099727752815799,0.00099727752953681,-0.0009972775281062,0.00099727752941259,-0.00099727752869333,0.00099727752887087,-0.00099727752788697,0.00099727752961907,1.6828318671122e-11,-1.6828748294027e-11,-0.0010092182132347,0.0010092182132343,4.116263956844e-15,-4.6041975802185e-15,-0.0010193973440035,0.0010193973553831,-0.0010193973438365,0.0010193973552103,-0.0010193973553787,0.001019397344004,-0.0010193973552149,0.0010193973438344,-0.00099727754514049,0.0009972775123034,-0.00099727751230348,0.00099727754513388,0.7555462528236,0.4847062542536,1368840,32768,0.0041962500655742,0.0041962500655742,0.0041962500656984,36.751299037698,36.750791975602,0.00020921039230158,0.00020921039230158,0.00020921039230158,722525.1461982,0.01266835765795
6393600,0.7085931308393,0.01219310128731,0.0040643670957309,0.0040643670957309,0.004064367095848,-0.0010270343219519,0.0010270343216594,-1.7274581449865e-11,1.6983189586981e-11,3.3388268246618e-13,-6.3290582692614e-13,-0.0010377866476179,0.0010377866363641,-0.0010377866363284,0.0010377866476536,-0.0010377866479956,0.001037786635832,-0.0010377866364492,0.0010377866473783,-0.0010144512586543,0.001014451224904,-0.0010144512255204,0.0010144512580378,1.698643989945e-13,1.1536292096254e-12,6.8981768205803e-13,6.9856875479229e-13,-0.0010270343212607,0.0010270343223506,-0.001037786641521,0.0010377866423633,-0.0010377866414076,0.0010377866425126,-0.0010377866410859,0.0010377866428394,-0.0010377866411935,0.0010377866426959,-0.001014451241025,0.0010144512424977,-0.0010144512409713,0.0010144512423795,-0.0010144512415795,0.0010144512418133,-0.0010144512407429,0.0010144512425936,1.6861332986087e-11,-1.6861767333112e-11,-0.0010270343218345,0.0010270343218341,4.1124184860852e-15,-4.605182844237e-15,-0.0010377866364382,0.00103778664784,-0.0010377866362696,0.0010377866476655,-0.0010377866478355,0.0010377866364387,-0.0010377866476702,0.0010377866362675,-0.0010144512580862,0.0010144512251851,-0.0010144512251851,0.0010144512580795,0.75471974164126,0.48538089711844,1368840,32768,0.0042701692349721,0.0042701692349721,0.0042701692350909,36.743878282645,36.74337120705,0.00020915102626115,0.00020915102626115,0.00020915102626115,728854.24797645,0.012892953512168
6480000,0.72163097174651,0.012408575845956,0.004136191948613,0.004136191948613,0.0041361919487298,-0.0010443043962147,0.0010443043959063,-1.7316738559053e-11,1.70095684723e-11,3.4058709529803e-13,-6.5564498520164e-13,-0.0010555968118857,0.0010555968006037,-0.0010555968005737,0.0010555968119157,-0.0010555968122734,0.0010555968000637,-0.0010555968007066,0.0010555968116304,-0.0010311497827961,0.0010311497489523,-0.0010311497495944,0.0010311497821539,1.9783339750197e-13,1.2118190220401e-12,7.3285900136645e-13,7.4160043285113e-13,-0.0010443043954728,0.0010443043966482,-0.0010555968057374,0.0010555968066544,-0.0010555968056259,0.0010555968068034,-0.0010555968052941,0.0010555968071405,-0.0010555968053998,0.0010555968069973,-0.0010311497650708,0.0010311497666402,-0.0010311497650187,0.0010311497665244,-0.0010311497656455,0.0010311497659372,-0.0010311497647798,0.001031149766748,1.6895687877745e-11,-1.6896118941782e-11,-0.0010443043960887,0.0010443043960883,4.1081024414668e-15,-4.6004035784756e-15,-0.00105559680068,0.0010555968121038,-0.0010555968005122,0.0010555968119302,-0.0010555968120993,0.0010555968006804,-0.0010555968119349,0.0010555968005103,-0.0010311497822146,0.001031149749246,-0.0010311497492458,0.0010311497822077,0.75876646002925,0.56135094059269,1368840,32768,0.0043418177794927,0.0043418177794927,0.0043418177796089,36.736457507634,36.735950438499,0.00020909166006107,0.00020909166006107,0.00020909166006107,729420.21773862,0.01311069751657
6566400,0.73421303575017,0.012617417971754,0.004205805990546,0.004205805990546,0.0042058059906624,-0.0010612465729439,0.0010612465726215,-1.7356805393862e-11,1.7035592500813e-11,3.4897991243264e-13,-6.7831920428451e-13,-0.001072930480831,0.0010729304695226,-0.0010729304694962,0.0010729304808574,-0.0010729304812287,0.0010729304689735,-0.0010729304696409,0.0010729304805613,-0.001047689324158,0.0010476892902238,-0.0010476892908904,0.0010476893234914,2.1798934057528e-13,1.2635965156409e-12,7.6939767557621e-13,7.7813497115782e-13,-0.0010612465721587,0.0010612465734068,-0.0010729304746382,0.0010729304756182,-0.0010729304745275,0.0010729304757664,-0.0010729304741853,0.0010729304761141,-0.0010729304742902,0.0010729304759717,-0.0010476893063448,0.0010476893079986,-0.0010476893062942,0.001047689307884,-0.0010476893069415,0.0010476893072754,-0.0010476893060465,0.0010476893081171,1.6928644076838e-11,-1.6929079357658e-11,-0.0010612465728117,0.0010612465728113,4.1049334206312e-15,-4.5991242057948e-15,-0.0010729304696021,0.0010729304810468,-0.0010729304694342,0.0010729304808731,-0.0010729304810421,0.0010729304696024,-0.0010729304808779,0.0010729304694323,-0.0010476893235658,0.0010476892905324,-0.001047689290532,0.0010476893235588,0.76199620364098,0.61978136300686,1368840,32768,0.004412101160911,0.004412101160911,0.0044121011610304,36.729622412901,36.729153963061,0.00020903697930321,0.00020903697930321,0.00020903697930321,703384.89544988,0.013324337562296
6652800,0.74665262781403,0.012824930571041,0.004274976856975,0.004274976856975,0.0042749768570912,-0.0010789023507523,0.0010789023504153,-1.7388601481337e-11,1.7052921559658e-11,3.5738117048585e-13,-7.0143199820452e-13,-0.0010909404056138,0.0010909403942881,-0.0010909403942655,0.0010909404056363,-0.001090940406024,0.0010909403937336,-0.001090940394426,0.0010909404053315,-0.0010650014866699,0.0010650014526609,-0.0010650014533526,0.0010650014859783,2.3135287350499e-13,1.308957732828e-12,8.006786115092e-13,8.0941140539011e-13,-0.0010789023499296,0.001078902351238,-0.0010909403993876,0.0010909404004173,-0.0010909403992818,0.0010909404005671,-0.001090940398929,0.0010909404009255,-0.001090940399029,0.0010909404007816,-0.0010650014687811,0.0010650014705093,-0.0010650014687331,0.0010650014703955,-0.0010650014694011,0.0010650014697646,-0.0010650014684772,0.0010650014706363,1.6954680899078e-11,-1.6955120892989e-11,-0.0010789023506131,0.0010789023506127,4.1013600003849e-15,-4.5980212983114e-15,-0.0010909403943695,0.0010909404058318,-0.0010909403942004,0.0010909404056569,-0.0010909404058271,0.0010909403943698,-0.0010909404056618,0.0010909403941986,-0.001065001486068,0.0010650014529815,-0.0010650014529811,0.0010650014860609,0.76550576026941,0.67821178542102,1368840,32768,0.0044853397595694,0.0044853397595694,0.0044853397596904,37.16886915621,37.197859537707,0.00021255095324968,0.00021255095324968,0.00021255095324968,675924.9616807,0.013547007898975
6739200,0.75894280281767,0.013031131324128,0.0043437104413371,0.0043437104413371,0.0043437104414533,-0.001096503574253,0.0010965035739107,-1.7404308280917e-11,1.70633051248e-11,3.5773951247993e-13,-7.0719698385288e-13,-0.0011088625281315,0.0011088625167937,-0.0011088625167754,0.0011088625281498,-0.0011088625285412,0.0011088625162367,-0.0011088625169355,0.0011088625278424,-0.0010823215886755,0.0010823215546344,-0.001082321555333,0.0010823215879768,8.1100022449983e-14,1.1630724395236e-12,6.5111516402574e-13,6.5984748181825e-13,-0.0010965035735771,0.0010965035745866,-0.0011088625220492,0.0011088625227779,-0.001108862521943,0.0011088625229272,-0.0011088625215891,0.0011088625232868,-0.0011088625216896,0.0011088625231434,-0.00108232157092,0.0010823215723499,-0.0010823215708706,0.0010823215722379,-0.0010823215715442,0.0010823215716033,-0.0010823215706122,0.0010823215724829,1.6968139046764e-11,-1.6968576173116e-11,-0.0010965035741102,0.0010965035741098,4.1012864732194e-15,-4.5975066081525e-15,-0.0011088625168738,0.0011088625283445,-0.0011088625167055,0.0011088625281704,-0.00110886252834,0.0011088625168742,-0.0011088625281751,0.0011088625167035,-0.0010823215880718,0.0010823215549588,-0.0010823215549588,0.0010823215880651,0.76954158008205,0.73664220783519,1368840,32768,0.0045583468408847,0.0045583468408847,0.0045583468410015,37.634759503745,37.666565112353,0.00021627807602996,0.00021627807602996,0.00021627807602996,645234.73490348,0.013769022605572
6825600,0.77105900620284,0.013237388238846,0.0044124627462434,0.0044124627462434,0.0044124627463592,-0.0011141113188375,0.0011141113184901,-1.7416998599119e-11,1.7070921259779e-11,3.5799913690152e-13,-7.12591569052e-13,-0.001126699009575,0.0011266989982281,-0.001126698998213,0.0011266990095901,-0.0011266990099874,0.0011266989976701,-0.0011266989983758,0.0011266990092817,-0.0010997989168094,0.0010997988827396,-0.0010997988834452,0.0010997989161038,8.4250543850776e-14,1.1720665177018e-12,6.577241294058e-13,6.66456279924e-13,-0.0011141113181525,0.0011141113191751,-0.0011266990034828,0.0011266990042227,-0.0011266990033769,0.0011266990043723,-0.0011266990030211,0.0011266990047339,-0.0011266990031212,0.0011266990045901,-0.0010997988990308,0.0010997989004773,-0.0010997988989828,0.0010997989003651,-0.0010997988996604,0.0010997988997266,-0.0010997988987231,0.0010997989006114,1.6978096183757e-11,-1.6978542442183e-11,-0.0011141113186924,0.001114111318692,4.0982718594314e-15,-4.6002859350107e-15,-0.00112669899831,0.001126699009787,-0.0011266989981417,0.0011266990096128,-0.0011266990097825,0.0011266989983104,-0.0011266990096175,0.0011266989981396,-0.0010997989162024,0.0010997988830695,-0.0010997988830695,0.0010997989161957,0.78034425033655,0.88014327974572,1368840,32768,0.0046313759628251,0.0046313759628251,0.0046313759629429,38.103117361495,38.135270687,0.00022002493889196,0.00022002493889196,0.00022002493889196,604699.54024053,0.013991151721808
6912000,0.78297575287998,0.013437182521275,0.0044790608403866,0.0044790608403866,0.0044790608405021,-0.0011313620197115,0.0011313620193624,-1.7424598087548e-11,1.7076698259767e-11,3.5889228608701e-13,-7.1528266331151e-13,-0.0011441647604682,0.0011441647491163,-0.0011441647491018,0.0011441647604827,-0.0011441647608824,0.0011441647485572,-0.0011441647492659,0.0011441647601737,-0.00111684671785,0.0011168466837628,-0.001116846684472,0.0011168467171413,8.815636570707e-14,1.1796785755999e-12,6.6392706858673e-13,6.7263734109683e-13,-0.0011313620190192,0.0011313620200547,-0.0011441647543678,0.00114416475512,-0.0011441647542616,0.0011441647552697,-0.0011441647539045,0.0011441647556324,-0.001144164754005,0.0011441647554885,-0.0011168467000563,0.0011168467015171,-0.0011168467000093,0.0011168467014045,-0.0011168467006903,0.0011168467007648,-0.0011168466997493,0.001116846701653,1.6984755774429e-11,-1.698513930683e-11,-0.0011313620195657,0.0011313620195653,4.1193815086637e-15,-4.5575960626864e-15,-0.0011441647491994,0.0011441647606803,-0.0011441647490306,0.0011441647605057,-0.0011441647606757,0.0011441647491997,-0.0011441647605104,0.0011441647490285,-0.0011168467172438,0.001116846684098,-0.0011168466840977,0.0011168467172364,0.7681282571475,0.66927950108049,1368840,32768,0.0047029187293204,0.0047029187293204,0.004702918729439,38.571771875515,38.603976261646,0.00022377417500412,0.00022377417500412,0.00022377417500412,565345.09275674,0.014208808345594
6998400,0.79466805572872,0.013632268582856,0.0045440895275801,0.0045440895275801,0.0045440895276954,-0.0011475264040688,0.0011475264037064,-1.7441295489219e-11,1.7080179609296e-11,3.5780618691366e-13,-7.2763258014767e-13,-0.0011609247468203,0.0011609247354536,-0.0011609247354483,0.0011609247468255,-0.0011609247472385,0.001160924734893,-0.0011609247356188,0.0011609247465128,-0.0011324389356379,0.0011324389015121,-0.0011324389022377,0.0011324389349123,9.8163736459351e-14,1.2014344973685e-12,6.8013842995842e-13,6.8884220634344e-13,-0.0011475264033536,0.0011475264044216,-0.001160924740698,0.0011609247414785,-0.0011609247405944,0.0011609247416285,-0.0011609247402335,0.0011609247419954,-0.0011609247403313,0.0011609247418511,-0.001132438917804,0.0011324389193037,-0.0011324389177589,0.001132438919192,-0.0011324389184469,0.0011324389185436,-0.001132438917496,0.0011324389194428,1.6994742528164e-11,-1.6995181977974e-11,-0.0011475264039168,0.0011475264039163,4.0862134042795e-15,-4.5842128966192e-15,-0.0011609247355409,0.0011609247470286,-0.0011609247353716,0.0011609247468535,-0.0011609247470241,0.0011609247355412,-0.0011609247468582,0.0011609247353696,-0.0011324389350237,0.0011324389018569,-0.0011324389018567,0.0011324389350168,0.76400246310028,0.61390026052372,1368840,32768,0.0047699512382316,0.0047699512382316,0.0047699512383517,39.040433132082,39.072681836293,0.00022752346505665,0.00022752346505665,0.00022752346505665,590405.78110187,0.014412787106875
7084800,0.80611165245539,0.013822606053874,0.004607535351253,0.004607535351253,0.0046075353513683,-0.0011635932279492,0.0011635932275767,-1.7453761578976e-11,1.7082512361562e-11,3.5914485190071e-13,-7.3924923997257e-13,-0.0011774543421322,0.0011774543307562,-0.0011774543307567,0.0011774543421317,-0.0011774543425558,0.0011774543301925,-0.0011774543309327,0.0011774543418155,-0.0011480511028926,0.0011480510687354,-0.0011480510694755,0.0011480511021525,1.0720240151081e-13,1.2237722910671e-12,6.9614244839958e-13,7.0484033525864e-13,-0.0011635932272134,0.0011635932283125,-0.0011774543359929,0.0011774543367986,-0.0011774543358901,0.0011774543369491,-0.0011774543355248,0.0011774543373204,-0.0011774543356218,0.0011774543371757,-0.0011480510850233,0.0011480510865618,-0.0011480510849804,0.0011480510864503,-0.0011480510856757,0.0011480510857927,-0.0011480510847132,0.0011480510867044,1.7002208535376e-11,-1.700265224241e-11,-0.0011635932277922,0.0011635932277917,4.0812062043049e-15,-4.5837717336258e-15,-0.0011774543308468,0.0011774543423387,-0.0011774543306774,0.0011774543421635,-0.0011774543423341,0.0011774543308471,-0.0011774543421683,0.0011774543306755,-0.0011480511022711,0.0011480510690887,-0.0011480510690885,0.0011480511022642,0.76187602183265,0.59419810702723,1368840,32768,0.0048365747777483,0.0048365747777483,0.0048365747778687,39.509094294879,39.541387410939,0.00023127275435903,0.00023127275435903,0.00023127275435903,591606.64054207,0.014615561875783
7171200,0.81728413298694,0.014007213814501,0.0046690712714619,0.0046690712714619,0.0046690712715771,-0.0011792717870332,0.0011792717866512,-1.7465961485689e-11,1.7085272350775e-11,3.6140056240207e-13,-7.5108131968713e-13,-0.0011935821318922,0.0011935821205069,-0.001193582120512,0.001193582131887,-0.0011935821323208,0.0011935821199395,-0.0011935821206939,0.0011935821315664,-0.0011632658939036,0.0011632658597164,-0.0011632658604707,0.0011632658931493,1.1585740181237e-13,1.2468360166332e-12,7.1219334408515e-13,7.2088643329665e-13,-0.0011792717862767,0.0011792717874077,-0.001193582125735,0.0011935821265674,-0.001193582125633,0.0011935821267179,-0.0011935821252629,0.0011935821270941,-0.0011935821253592,0.0011935821269494,-0.0011632658760001,0.0011632658775764,-0.0011632658759582,0.0011632658774658,-0.0011632658766627,0.001163265876798,-0.0011632658756865,0.0011632658777243,1.7009715541337e-11,-1.701015941013e-11,-0.0011792717868714,0.001179271786871,4.0784783464626e-15,-4.5817129729902e-15,-0.0011935821206002,0.0011935821320964,-0.0011935821204306,0.0011935821319211,-0.0011935821320918,0.0011935821206005,-0.0011935821319259,0.0011935821204287,-0.0011632658932753,0.0011632658600779,-0.0011632658600777,0.0011632658932683,0.75690079556389,0.53332239675741,1368840,32768,0.0049015839096862,0.0049015839096862,0.0049015839098066,39.977756249522,40.010092985586,0.00023502204999617,0.00023502204999617,0.00023502204999617,589673.90882499,0.014813462660218
7257600,0.82816437809457,0.014185676551595,0.0047285588504932,0.0047285588504932,0.0047285588506084,-0.0011943386049803,0.0011943386045868,-1.7477126556369e-11,1.7085009344104e-11,3.6373675573885e-13,-7.6501251174583e-13,-0.0012091838800892,0.0012091838686925,-0.0012091838687035,0.0012091838800782,-0.0012091838805241,0.0012091838681168,-0.0012091838688881,0.0012091838797528,-0.0011777676841419,0.0011777676499274,-0.0011777676506985,0.0011777676833707,1.2461339902855e-13,1.2722873604356e-12,7.3029482970013e-13,7.3898624065408e-13,-0.0011943386041999,0.0011943386053672,-0.0012091838739121,0.0012091838747749,-0.0012091838738052,0.0012091838749242,-0.0012091838734296,0.001209183875306,-0.0012091838735307,0.0012091838751625,-0.0011777676662047,0.0011777676678218,-0.0011777676661597,0.0011777676677135,-0.0011777676668788,0.0011777676670275,-0.0011777676658825,0.0011777676679754,1.7013275373763e-11,-1.7013720801332e-11,-0.001194338604814,0.0011943386048135,4.0759637174004e-15,-4.5820364925186e-15,-0.0012091838687941,0.001209183880291,-0.0012091838686232,0.0012091838801144,-0.0012091838802864,0.0012091838687944,-0.0012091838801192,0.0012091838686214,-0.0011777676835023,0.0011777676503006,-0.0011777676503002,0.0011777676834953,0.75136027479031,0.46898638272369,1368840,32768,0.0049640523195011,0.0049640523195011,0.0049640523196265,40.446417747655,40.478798560232,0.00023877134198123,0.00023877134198123,0.00023877134198123,599289.60189652,0.015003666256231
7344000,0.83863408744461,0.014356431190108,0.0047854770633307,0.0047854770633307,0.0047854770634462,-0.0012084061998814,0.0012084061994756,-1.7491572673873e-11,1.7087101147848e-11,3.6656830159001e-13,-7.8038098342604e-13,-0.0012238242924725,0.0012238242810671,-0.0012238242810843,0.0012238242924553,-0.0012238242929131,0.0012238242804926,-0.0012238242812823,0.0012238242921233,-0.001191225580134,0.0011912255458834,-0.001191225546673,0.0011912255793444,1.3908436871507e-13,1.3053764102497e-12,7.5334309801782e-13,7.6202926464669e-13,-0.0012084061990723,0.0012084062002848,-0.0012238242862707,0.0012238242871725,-0.0012238242861727,0.0012238242873228,-0.001223824285791,0.0012238242877109,-0.0012238242858833,0.0012238242875664,-0.0011912255621497,0.0011912255638216,-0.0011912255621096,0.0011912255637142,-0.0011912255628379,0.0011912255630227,-0.0011912255618278,0.0011912255639846,1.7023937665684e-11,-1.7024384644676e-11,-0.001208406199708,0.0012084061997075,4.0731402742429e-15,-4.5795659797558e-15,-0.0012238242811656,0.0012238242926703,-0.0012238242809971,0.0012238242924959,-0.0012238242926656,0.0012238242811658,-0.0012238242925008,0.0012238242809952,-0.0011912255794912,0.0011912255462646,-0.0011912255462642,0.0011912255794841,0.74719297784308,0.42818194048028,1368840,32768,0.005022374139196,0.005022374139196,0.0050223741393173,40.737816754527,40.75839951913,0.00024110253403621,0.00024110253403621,0.00024110253403621,612388.13511485,0.01518127730753
7430400,0.84856022810958,0.014517615797995,0.0048392052659598,0.0048392052659598,0.0048392052660754,-0.0012212788337695,0.0012212788333527,-1.7505281902125e-11,1.7089843505247e-11,3.6921072086591e-13,-7.9415050395311e-13,-0.0012372479048092,0.0012372478933933,-0.0012372478934159,0.0012372479047866,-0.0012372479052557,0.0012372478928146,-0.0012372478936209,0.0012372479044495,-0.0012035063596284,0.0012035063253442,-0.0012035063261503,0.0012035063588223,1.5261610238871e-13,1.3357589655393e-12,7.7549933292476e-13,7.8418043353192e-13,-0.0012212788329328,0.0012212788341894,-0.0012372478985833,0.0012372478995232,-0.0012372478984863,0.0012372478996735,-0.001237247898099,0.0012372479000673,-0.0012372478981903,0.0012372478999228,-0.0012035063416015,0.0012035063433242,-0.0012035063415623,0.0012035063432177,-0.0012035063423015,0.0012035063425147,-0.0012035063412753,0.0012035063434933,1.703224070615e-11,-1.7032687104277e-11,-0.0012212788335906,0.0012212788335901,4.0706256451807e-15,-4.5775660408526e-15,-0.0012372478934949,0.0012372479050044,-0.0012372478933262,0.00123724790483,-0.0012372479049997,0.001237247893495,-0.0012372479048349,0.0012372478933244,-0.0012035063589778,0.0012035063257346,-0.0012035063257341,0.0012035063589706,0.74405231144458,0.40318419993587,1368840,32768,0.0050757387346758,0.0050757387346758,0.0050757387347973,40.784549264742,40.788401559428,0.00024147639411794,0.00024147639411794,0.00024147639411794,621603.29097891,0.015343819649545
7516800,0.85795355233162,0.014669530967763,0.0048898436558823,0.0048898436558823,0.0048898436559979,-0.0012334153637907,0.0012334153633609,-1.7522921627949e-11,1.7094553243721e-11,3.7442537038548e-13,-8.1249882577742e-13,-0.0012499031822103,0.0012499031707824,-0.0012499031708098,0.0012499031821828,-0.0012499031826651,0.0012499031701969,-0.0012499031710239,0.0012499031818381,-0.0012150776133554,0.0012150775790278,-0.0012150775798547,0.0012150776125285,1.6338624395652e-13,1.3705072422386e-12,7.9845089647613e-13,8.0713023978404e-13,-0.0012334153629247,0.0012334153642269,-0.0012499031759598,0.0012499031769371,-0.0012499031758636,0.0012499031770874,-0.0012499031754684,0.0012499031774893,-0.0012499031755589,0.0012499031773448,-0.0012150775952791,0.0012150775970565,-0.0012150775952408,0.0012150775969508,-0.0012150775959955,0.0012150775962315,-0.0012150775949463,0.001215077597234,1.7043474657078e-11,-1.7043925988878e-11,-0.0012334153636053,0.0012334153636048,4.0676625004087e-15,-4.5787130646353e-15,-0.0012499031708867,0.0012499031824032,-0.0012499031707181,0.0012499031822287,-0.0012499031823984,0.0012499031708868,-0.0012499031822336,0.0012499031707163,-0.0012150776126948,0.0012150775794293,-0.0012150775794288,0.0012150776126876,0.74114180583033,0.38129582520854,1368840,32768,0.0051260490561639,0.0051260490561639,0.0051260490562854,40.816147281607,40.818403599726,0.00024172917825286,0.00024172917825286,0.00024172917825286,627089.64180613,0.015497083217578
7603200,0.86683344672401,0.014812673043018,0.0049375576809676,0.0049375576809676,0.0049375576810831,-0.0012448472269958,0.0012448472265528,-1.7541377137675e-11,1.7099810318415e-11,3.800770506717e-13,-8.3156091991411e-13,-0.0012618401164683,0.0012618401050279,-0.0012618401050602,0.0012618401164359,-0.0012618401169319,0.0012618401044352,-0.0012618401052837,0.0012618401160834,-0.0012259578983686,0.0012259578639954,-0.0012259578648438,0.0012259578975202,1.7398447901124e-13,1.4062331600275e-12,8.2180388342606e-13,8.3047779123825e-13,-0.0012448472260999,0.0012448472274487,-0.0012618401101928,0.001261840111208,-0.0012618401100973,0.0012618401113583,-0.0012618401096938,0.0012618401117687,-0.0012618401097836,0.0012618401116241,-0.0012259578802414,0.0012259578820745,-0.0012259578802038,0.0012259578819695,-0.0012259578809748,0.0012259578812332,-0.0012259578799014,0.0012259578822606,1.7055379940438e-11,-1.7055834889775e-11,-0.0012448472268038,0.0012448472268033,4.063118521577e-15,-4.5777130951837e-15,-0.0012618401051351,0.0012618401166589,-0.0012618401049664,0.0012618401164844,-0.0012618401166541,0.0012618401051352,-0.0012618401164894,0.0012618401049646,-0.0012259578976975,0.0012259578644085,-0.0012259578644079,0.0012259578976902,0.73878159319769,0.36716775327241,1368840,32768,0.0051734358770383,0.0051734358770383,0.0051734358771598,40.846311615012,40.848405640024,0.0002419704929201,0.0002419704929201,0.0002419704929201,631388.65617149,0.015641462255051
7689600,0.87522026018813,0.014947588121122,0.0049825293736688,0.0049825293736688,0.0049825293737844,-0.0012556419058237,0.0012556419053692,-1.7557435573572e-11,1.7104413177801e-11,3.8472455575244e-13,-8.4784506950335e-13,-0.0012731107727529,0.0012731107613015,-0.0012731107613382,0.0012731107727162,-0.001273110773224,0.0012731107607027,-0.0012731107615697,0.001273110772357,-0.0012362330117178,0.0012362329773052,-0.001236232978172,0.0012362330108509,1.8546515769615e-13,1.4390423764785e-12,8.4415129447799e-13,8.5282070426583e-13,-0.0012556419048998,0.0012556419062931,-0.0012731107664535,0.0012731107675059,-0.0012731107663585,0.0012731107676562,-0.001273110765948,0.0012731107680737,-0.0012731107660373,0.0012731107679292,-0.0012362329935443,0.00123623299543,-0.0012362329935075,0.0012362329953256,-0.0012362329942923,0.0012362329945747,-0.0012362329931984,0.0012362329956233,1.7065749476597e-11,-1.7066203381848e-11,-0.001255641905626,0.0012556419056255,4.0618023853135e-15,-4.5750072954911e-15,-0.0012731107614113,0.0012731107729414,-0.0012731107612426,0.0012731107727669,-0.0012731107729366,0.0012731107614113,-0.0012731107727719,0.0012731107612409,-0.0012362330110376,0.0012362329777281,-0.0012362329777274,0.0012362330110302,0.73730524443501,0.3653920339003,1368840,32768,0.0052181793656017,0.0052181793656017,0.0052181793657233,40.876330328504,40.878407680322,0.00024221064262803,0.00024221064262803,0.00024221064262803,632843.50725881,0.015777806583011
7776000,0.88313450288356,0.01507465728913,0.0050248857630046,0.0050248857630046,0.0050248857631203,-0.0012658527948481,0.0012658527943819,-1.7574770249891e-11,1.7110077151829e-11,3.9044471924066e-13,-8.6542679709952e-13,-0.0012837561700648,0.0012837561586021,-0.0012837561586426,0.0012837561700243,-0.0012837561705441,0.0012837561579962,-0.0012837561588827,0.0012837561696576,-0.0012459677162686,0.0012459676818134,-0.0012459676826997,0.0012459677153823,1.9543158852265e-13,1.4726725917456e-12,8.6614161717402e-13,8.7480576793134e-13,-0.0012658527938965,0.0012658527953336,-0.001283756163742,0.0012837561648301,-0.0012837561636474,0.0012837561649804,-0.0012837561632291,0.0012837561654059,-0.001283756163318,0.0012837561652614,-0.0012459676980474,0.0012459676999854,-0.0012459676980112,0.0012459676998816,-0.0012459676988114,0.0012459676991146,-0.0012459676976946,0.0012459677001868,1.7077268977626e-11,-1.7077727338623e-11,-0.0012658527946446,0.0012658527946441,4.0563319641958e-15,-4.5745955433639e-15,-0.0012837561587142,0.0012837561702514,-0.0012837561585454,0.0012837561700769,-0.0012837561702465,0.0012837561587142,-0.0012837561700819,0.0012837561585438,-0.0012459677155788,0.0012459676822466,-0.0012459676822459,0.0012459677155713,0.73590666238776,0.36361631452819,1368840,32768,0.0052605012037699,0.0052605012037699,0.0052605012038914,40.906333988614,40.908409720621,0.00024245067190891,0.00024245067190891,0.00024245067190891,630379.25340864,0.015906788522393
7862400,0.89059664675175,0.015194254592992,0.0050647515309589,0.0050647515309589,0.0050647515310746,-0.0012754655103765,0.0012754655098985,-1.7592646012623e-11,1.7116189288637e-11,3.9641574271235e-13,-8.8335630818879e-13,-0.0012937841928738,0.0012937841813995,-0.0012937841814437,0.0012937841928295,-0.0012937841933614,0.0012937841807863,-0.0012937841816925,0.0012937841924552,-0.0012551268667911,0.0012551268322922,-0.0012551268331982,0.0012551268658851,2.0497106180417e-13,1.5064665464958e-12,8.8798978980087e-13,8.9664996825307e-13,-0.0012754655093972,0.0012754655108778,-0.0012937841865277,0.0012937841876511,-0.0012937841864333,0.0012937841878014,-0.0012937841860071,0.001293784188235,-0.0012937841860957,0.0012937841880905,-0.0012551268485217,0.0012551268505119,-0.001255126848486,0.0012551268504086,-0.001255126849302,0.0012551268496252,-0.0012551268481618,0.0012551268507214,1.7089279581298e-11,-1.7089732876274e-11,-0.001275465510167,0.0012754655101666,4.0571775265998e-15,-4.5698309830356e-15,-0.0012937841815139,0.0012937841930585,-0.0012937841813451,0.0012937841928839,-0.0012937841930536,0.0012937841815138,-0.001293784192889,0.0012937841813434,-0.0012551268660915,0.0012551268327357,-0.0012551268327349,0.001255126866084,0.73456826470213,0.36184059515609,1368840,32768,0.0053003420685241,0.0053003420685241,0.0053003420686457,40.936336080546,40.938411760919,0.00024269068864436,0.00024269068864436,0.00024269068864436,627045.63816654,0.01602822448922
7948800,0.89762699554927,0.015306739603093,0.0051022465343257,0.0051022465343257,0.0051022465344415,-0.001284508669698,0.0012845086692082,-1.7610715534141e-11,1.7122453920786e-11,4.0259152463468e-13,-9.015334293608e-13,-0.0013032237126616,0.0013032237011757,-0.0013032237012235,0.0013032237126138,-0.0013032237131579,0.001303223700555,-0.0013032237014812,0.0013032237122317,-0.0012637386593431,0.0012637386247998,-0.0012637386257258,0.0012637386584171,2.1407587189377e-13,1.5402683245364e-12,9.0961352075485e-13,9.1826999895245e-13,-0.0012845086686913,0.001284508670215,-0.0013032237062926,0.0013032237074507,-0.0013032237061985,0.001303223707601,-0.0013032237057641,0.0013032237080429,-0.0013032237058525,0.0013032237078984,-0.0012637386410253,0.0012637386430674,-0.0012637386409902,0.0012637386429646,-0.0012637386418222,0.0012637386421645,-0.0012637386406581,0.0012637386432852,1.7101452032968e-11,-1.7101909173414e-11,-0.0012845086694827,0.0012845086694822,4.0529350091469e-15,-4.570272146029e-15,-0.0013032237012924,0.0013032237128446,-0.0013032237011236,0.00130322371267,-0.0013032237128396,0.0013032237012923,-0.0013032237126751,0.001303223701122,-0.0012637386586335,0.0012637386252538,-0.001263738625253,0.0012637386586259,0.73327776269483,0.36006487578398,1368840,32768,0.0053378208639409,0.0053378208639409,0.0053378208640625,40.966338005075,40.968413801217,0.0002429307040406,0.0002429307040406,0.0002429307040406,622989.79082718,0.016142474228145
8035200,0.9042455908905,0.015412462833964,0.0051374876112826,0.0051374876112826,0.0051374876113984,-0.0012930102319808,0.0012930102314792,-1.7629267820322e-11,1.7129182979924e-11,4.0893740430183e-13,-9.1990260348926e-13,-0.0013121030438858,0.0013121030323881,-0.0013121030324394,0.0013121030438345,-0.0013121030443907,0.0013121030317597,-0.0013121030327059,0.0013121030434445,-0.0012718305226245,0.0012718304880358,-0.0012718304889819,0.0012718305216784,2.2271434328851e-13,1.5739565637662e-12,9.3093829209185e-13,9.3959090643689e-13,-0.0012930102309468,0.0012930102325131,-0.001312103037494,0.0013121030386862,-0.0013121030374001,0.0013121030388364,-0.0013121030369575,0.0013121030392867,-0.0013121030370456,0.0013121030391423,-0.0012718305042581,0.0012718305063517,-0.0012718305042235,0.0012718305062493,-0.0012718305050718,0.0012718305054323,-0.0012718305038835,0.0012718305065778,1.7114094911442e-11,-1.7114550588698e-11,-0.0012930102317595,0.001293010231759,4.051824748947e-15,-4.5674487028715e-15,-0.0013121030325069,0.001312103044067,-0.0013121030323381,0.0013121030438924,-0.001312103044062,0.0013121030325068,-0.0013121030438975,0.0013121030323365,-0.0012718305219049,0.0012718304885004,-0.0012718304884995,0.0012718305218973,0.7320263219519,0.35828915641187,1368840,32768,0.0053730537306564,0.0053730537306564,0.005373053730778,40.996339908582,40.998415841515,0.00024317071926865,0.00024317071926865,0.00024317071926865,618345.28165475,0.016249889382844
8121600,0.91048288881964,0.015511935877988,0.0051706452926241,0.0051706452926241,0.00517064529274,-0.0013010753811666,0.0013010753806525,-1.7649814927916e-11,1.7137284791243e-11,4.1592513200801e-13,-9.395469445446e-13,-0.0013205272915159,0.001320527280005,-0.0013205272800598,0.0013205272914611,-0.0013205272920301,0.0013205272793676,-0.0013205272803352,0.0013205272910625,-0.0012795071034716,0.0012795070688329,-0.0012795070698004,0.0012795071025042,2.2984933120188e-13,1.608053854838e-12,9.5167155208734e-13,9.6031919231963e-13,-0.0013010753801055,0.0013010753817135,-0.0013205272851013,0.0013205272863261,-0.0013205272850069,0.0013205272864764,-0.0013205272845554,0.0013205272869357,-0.001320527284644,0.0013205272867913,-0.0012795070850547,0.0012795070871991,-0.0012795070850206,0.0012795070870969,-0.0012795070858858,0.0012795070862613,-0.0012795070846712,0.0012795070874335,1.7128239096994e-11,-1.7128695494816e-11,-0.0013010753809387,0.0013010753809382,4.0487366079934e-15,-4.5652428879047e-15,-0.0013205272801264,0.0013205272916955,-0.0013205272799571,0.0013205272915204,-0.0013205272916905,0.0013205272801262,-0.0013205272915255,0.0013205272799555,-0.0012795071027398,0.0012795070693078,-0.0012795070693068,0.0012795071027321,0.73080588714793,0.35651343703977,1368840,32768,0.0054064768116036,0.0054064768116035,0.0054064768117234,41.059593935136,41.063890215266,0.00024367675148108,0.00024367675148108,0.00024367675148108,613178.50804446,0.01635179759459
8208000,0.91636904749495,0.01560566203246,0.0052018873441147,0.0052018873441147,0.0052018873442305,-0.0013087616468448,0.0013087616463185,-1.7667664853202e-11,1.7142922207259e-11,4.2283983253337e-13,-9.5888291266757e-13,-0.0013285557311217,0.0013285557196004,-0.0013285557196586,0.0013285557310635,-0.0013285557316446,0.001328555718957,-0.0013285557199455,0.0013285557306561,-0.0012868241426717,0.0012868241079889,-0.0012868241089773,0.0012868241416833,2.3866085613349e-13,1.6434025984875e-12,9.7403666848074e-13,9.8267967833978e-13,-0.0013087616457561,0.0013087616474073,-0.0013285557246849,0.0013285557259438,-0.0013285557245931,0.0013285557260938,-0.0013285557241329,0.0013285557265621,-0.001328555724219,0.0013285557264179,-0.0012868241242053,0.0012868241264034,-0.0012868241241717,0.0012868241263027,-0.0012868241250564,0.0012868241254512,-0.0012868241238168,0.0012868241266495,1.7140692981242e-11,-1.7141148151161e-11,-0.0013087616466125,0.001308761646612,4.0471116576346e-15,-4.5624194447471e-15,-0.0013285557197223,0.0013285557312989,-0.0013285557195546,0.0013285557311255,-0.0013285557312938,0.0013285557197221,-0.0013285557311306,0.0013285557195531,-0.0012868241419354,0.0012868241084779,-0.0012868241084769,0.0012868241419277,0.72960979001055,0.35473771766766,1368840,32768,0.0054383286932218,0.0054383286932218,0.0054383286933484,41.165058414666,41.172251607191,0.00024452046731732,0.00024452046731732,0.00024452046731732,607613.68829609,0.016448924743598
8294400,0.92191948418493,0.015693957750763,0.0052313192502156,0.0052313192502156,0.0052313192503315,-0.0013160182987672,0.0013160182982289,-1.7686127377419e-11,1.7149331364404e-11,4.2972531336312e-13,-9.7802756310576e-13,-0.001336138075011,0.0013361380634783,-0.0013361380635398,0.0013361380749495,-0.001336138075543,0.0013361380628267,-0.0013361380638359,0.0013361380745338,-0.0012937319014003,0.001293731866672,-0.0012937318676812,0.0012937319003912,2.4568996492845e-13,1.6767637833703e-12,9.9437218143595e-13,1.0030104763655e-12,-0.0013160182976522,0.0013160182993439,-0.0013361380685528,0.0013361380698434,-0.0013361380684612,0.0013361380699933,-0.0013361380679923,0.0013361380704704,-0.0013361380680782,0.0013361380703263,-0.0012937318828861,0.0012937318851339,-0.001293731882853,0.0012937318850337,-0.0012937318837549,0.0012937318841646,-0.0012937318824897,0.0012937318853889,1.7153149012484e-11,-1.7153603557421e-11,-0.0013160182985289,0.0013160182985284,4.045464649126e-15,-4.5595960015896e-15,-0.0013361380636021,0.0013361380751865,-0.0013361380634345,0.0013361380750132,-0.0013361380751814,0.0013361380636019,-0.0013361380750183,0.001336138063433,-0.0012937319006538,0.0012937318671718,-0.0012937318671708,0.0012937319006461,0.72884500882151,0.35907401629265,1368840,32768,0.0054683993101226,0.0054683993101226,0.0054683993102496,41.273141051481,41.280612999116,0.00024538512841185,0.00024538512841185,0.00024538512841185,601670.69229957,0.016540628808756
8380800,0.92714868801232,0.015777080959413,0.0052590269864323,0.0052590269864323,0.0052590269865483,-0.001322889482533,0.0013228894819832,-1.7704632238579e-11,1.7156372855174e-11,4.3671240873568e-13,-9.9667672868067e-13,-0.0013433032933097,0.0013433032817657,-0.00134330328183,0.0013433032932454,-0.0013433032938505,0.001343303281106,-0.0013433032821352,0.0013433032928213,-0.0013002882655164,0.0013002882307426,-0.0013002882317718,0.0013002882644872,2.5184801209846e-13,1.7088297045138e-12,1.0136147057224e-12,1.0222470137025e-12,-0.0013228894813931,0.0013228894831232,-0.0013433032868312,0.0013433032881514,-0.0013433032867397,0.0013433032883012,-0.0013433032862623,0.0013433032887871,-0.0013433032863481,0.0013433032886429,-0.0013002882469556,0.0013002882492507,-0.0013002882469228,0.0013002882491509,-0.0013002882478416,0.0013002882482644,-0.0013002882465513,0.0013002882495143,1.7165932680775e-11,-1.7166389255062e-11,-0.001322889482289,0.0013228894822885,4.0412441898228e-15,-4.5580078148135e-15,-0.0013433032818912,0.0013433032934837,-0.0013433032817237,0.0013433032933104,-0.0013433032934786,0.0013433032818909,-0.0013433032933156,0.0013433032817222,-0.0013002882647599,0.0013002882312528,-0.0013002882312518,0.0013002882647522,0.72822748391751,0.3649459305384,1368840,32768,0.0054968717745917,0.0054968717745917,0.0054968717747188,41.381471976954,41.388974391042,0.00024625177581563,0.00024625177581563,0.00024625177581563,594011.15459119,0.016627466717099
8467200,0.93207092398124,0.01585527279057,0.0052850909301512,0.0052850909301512,0.0052850909302673,-0.001329374393571,0.00132937439301,-1.7723062293201e-11,1.7163722395357e-11,4.4365300552875e-13,-1.0148908487224e-12,-0.0013500608780244,0.0013500608664692,-0.0013500608665361,0.0013500608779574,-0.0013500608785739,0.0013500608658015,-0.0013500608668502,0.0013500608775252,-0.0013064825167726,0.0013064824819538,-0.0013064824830025,0.0013064825157239,2.5745389966597e-13,1.7398418049095e-12,1.032044433148e-12,1.0406716567246e-12,-0.0013293743924071,0.0013293743941739,-0.0013500608715262,0.0013500608728747,-0.0013500608714349,0.0013500608730245,-0.0013500608709491,0.0013500608735188,-0.0013500608710348,0.0013500608733747,-0.0013064824981663,0.001306482500507,-0.0013064824981339,0.0013064825004075,-0.0013064824990693,0.0013064824995041,-0.0013064824977544,0.0013064825007791,1.7178829433847e-11,-1.7179284743467e-11,-0.0013293743933214,0.0013293743933209,4.0397295302123e-15,-4.554654976064e-15,-0.0013500608665963,0.0013500608781969,-0.0013500608664289,0.0013500608780237,-0.0013500608781918,0.001350060866596,-0.0013500608780289,0.0013500608664274,-0.0013064825160065,0.0013064824824741,-0.001306482482473,0.0013064825159987,0.7276558627695,0.37081784478414,1368840,32768,0.0055237428788506,0.0055237428788506,0.0055237428789779,41.489828134894,41.497335782967,0.00024711862507915,0.00024711862507915,0.00024711862507915,585773.97534698,0.016709427469703
8553600,0.93670024362046,0.015928767529481,0.005309589176455,0.005309589176455,0.0053095891765711,-0.0013354847376471,0.0013354847370753,-1.7741665298421e-11,1.7171554391389e-11,4.5049113486388e-13,-1.0326876873941e-12,-0.0013564266601578,0.0013564266485913,-0.0013564266486608,0.0013564266600883,-0.0013564266607157,0.0013564266479157,-0.0013564266489834,0.0013564266596481,-0.001312322212145,0.0013123221772809,-0.0013123221783486,0.0013123222110773,2.62621947668e-13,1.7698834055416e-12,1.049761175002e-12,1.0583837259272e-12,-0.0013354847364601,0.0013354847382623,-0.0013564266536406,0.001356426655016,-0.0013564266535493,0.0013564266551658,-0.0013564266530554,0.0013564266556685,-0.001356426653141,0.0013564266555244,-0.0013123221934939,0.0013123221958785,-0.0013123221934619,0.0013123221957794,-0.0013123221944135,0.0013123221948593,-0.0013123221930745,0.0013123221961589,1.7192050088789e-11,-1.7192505552816e-11,-0.0013354847373921,0.0013354847373917,4.0370457886694e-15,-4.5524491610972e-15,-0.00135642664872,0.001356426660329,-0.0013564266485526,0.0013564266601559,-0.0013564266603238,0.0013564266487197,-0.0013564266601611,0.0013564266485511,-0.0013123222113694,0.0013123221778111,-0.0013123221778099,0.0013123222113616,0.72712544188229,0.37668975902989,1368840,32768,0.0055490612519626,0.0055490612519626,0.0055490612520901,41.598186891831,41.605697174892,0.00024798549513465,0.00024798549513465,0.00024798549513465,577391.39370248,0.016786658234913
8640000,0.94105044469835,0.015997793344195,0.0053325977813595,0.0053325977813595,0.0053325977814757,-0.0013412385782013,0.0013412385776191,-1.7760413387445e-11,1.7179864519873e-11,4.5720970902782e-13,-1.0500266282896e-12,-0.0013624194405637,0.0013624194289858,-0.0013624194290576,0.0013624194404918,-0.0013624194411299,0.0013624194283026,-0.0013624194293887,0.0013624194400438,-0.0013178244233159,0.0013178243884065,-0.0013178243894927,0.0013178244222297,2.6736950851563e-13,1.7989142061705e-12,1.0667541338199e-12,1.0753724569331e-12,-0.0013412385769922,0.0013412385788283,-0.001362419434028,0.0013624194354292,-0.0013624194339368,0.0013624194355789,-0.0013624194334349,0.0013624194360897,-0.0013624194335204,0.0013624194359458,-0.0013178244046209,0.0013178244070478,-0.0013178244045892,0.0013178244069489,-0.0013178244055566,0.0013178244060126,-0.001317824404194,0.0013178244073362,1.7205579793112e-11,-1.7206036080644e-11,-0.0013412385779412,0.0013412385779408,4.0345605704734e-15,-4.5504492221939e-15,-0.001362419429116,0.0013624194407336,-0.0013624194289486,0.0013624194405605,-0.0013624194407284,0.0013624194291156,-0.0013624194405658,0.0013624194289472,-0.0013178244225311,0.0013178243889463,-0.0013178243889451,0.0013178244225233,0.72663263210976,0.38256167327564,1368840,32768,0.0055729018571673,0.0055729018571673,0.0055729018572949,41.706545908972,41.714058566817,0.00024885236727177,0.00024885236727177,0.00024885236727177,568941.8384189,0.016859386616677
8726400,0.94513503116973,0.016062572348403,0.0053541907827622,0.0053541907827622,0.0053541907828785,-0.001346653527461,0.0013466535268687,-1.7779285016812e-11,1.7188642545828e-11,4.6379025799657e-13,-1.0668782605427e-12,-0.001368057574313,0.0013680575627237,-0.0013680575627978,0.0013680575742389,-0.0013680575748873,0.001368057562033,-0.001368057563137,0.0013680575737833,-0.0013230057732607,0.001323005738306,-0.0013230057394101,0.0013230057721566,2.7170687601203e-13,1.8268956748853e-12,1.0830103283808e-12,1.0916231296039e-12,-0.0013466535262306,0.0013466535280991,-0.0013680575677595,0.0013680575691852,-0.0013680575676684,0.0013680575693349,-0.0013680575671587,0.0013680575698536,-0.0013680575672442,0.0013680575697097,-0.0013230057545226,0.0013230057569901,-0.0013230057544912,0.0013230057568915,-0.0013230057554741,0.0013230057559394,-0.0013230057540886,0.0013230057572864,1.7219405076642e-11,-1.7219858224563e-11,-0.0013466535271959,0.0013466535271954,4.0333400195251e-15,-4.546390522655e-15,-0.0013680575628553,0.0013680575744817,-0.001368057562688,0.0013680575743088,-0.0013680575744765,0.0013680575628549,-0.001368057574314,0.0013680575626866,-0.001323005772467,0.001323005738855,-0.0013230057388539,0.0013230057724592,0.72617462064916,0.38843358752138,1368840,32768,0.0055953377738998,0.0055953377738998,0.0055953377740276,41.814904944218,41.822419958742,0.00024971923955374,0.00024971923955374,0.00024971923955374,560491.70725457,0.016927834600564
8812800,0.94896717850714,0.016122806239786,0.0053742687465566,0.0053742687465566,0.0053742687466729,-0.0013517009180191,0.0013517009174169,-1.7798354978355e-11,1.7197909292147e-11,4.7027835390734e-13,-1.0833416399507e-12,-0.0013733291143932,0.0013733291027923,-0.0013733291028686,0.001373329114317,-0.0013733291149753,0.0013733291020943,-0.0013733291032157,0.0013733291138539,-0.0013278101891926,0.0013278101541925,-0.001327810155314,0.0013278101880711,2.7634261674628e-13,1.8546929065813e-12,1.0993226995344e-12,1.1079300505563e-12,-0.0013517009167675,0.0013517009186685,-0.0013733291078216,0.0013733291092721,-0.0013733291077305,0.0013733291094217,-0.0013733291072132,0.0013733291099482,-0.0013733291072987,0.0013733291098043,-0.0013278101704114,0.0013278101729194,-0.0013278101703803,0.0013278101728211,-0.0013278101713783,0.0013278101718535,-0.0013278101699703,0.0013278101732233,1.7233568261613e-11,-1.7234023041838e-11,-0.0013517009177491,0.0013517009177486,4.0298033628617e-15,-4.5445964598153e-15,-0.0013733291029252,0.0013733291145608,-0.001373329102758,0.0013733291143878,-0.0013733291145555,0.0013733291029248,-0.0013733291143931,0.0013733291027566,-0.0013278101883902,0.0013278101547505,-0.0013278101547493,0.0013278101883823,0.71961928054934,0.303444394553,1368840,32768,0.0056162502156625,0.0056162502156625,0.0056162502157905,41.923264086609,41.930781350667,0.00025058611269287,0.00025058611269287,0.00025058611269287,553276.96305501,0.016991639308056
8899200,0.9525403586484,0.016178757985851,0.0053929193285783,0.0053929193285783,0.0053929193286946,-0.0013557528840488,0.0013557528834301,-1.782080346904e-11,1.7203770907196e-11,4.7395577097653e-13,-1.1038652776735e-12,-0.0013778264272194,0.0013778264156011,-0.0013778264156856,0.0013778264271348,-0.00137782642781,0.001377826414896,-0.0013778264160422,0.0013778264266639,-0.0013314173621038,0.0013314173270505,-0.0013314173281967,0.0013314173609576,2.8968403270459e-13,1.8927990108483e-12,1.1252095410621e-12,1.1338121642872e-12,-0.0013557528827631,0.0013557528847158,-0.0013778264206175,0.0013778264221112,-0.0013778264205274,0.0013778264222609,-0.001377826420002,0.0013778264227958,-0.0013778264200864,0.0013778264226518,-0.0013314173432653,0.0013314173458341,-0.0013314173432349,0.0013314173457364,-0.0013314173442489,0.0013314173447525,-0.0013314173428173,0.0013314173461467,1.7247788974239e-11,-1.7248245467647e-11,-0.0013557528837707,0.0013557528837703,4.0268843343889e-15,-4.5425965209121e-15,-0.0013778264157384,0.0013778264273831,-0.0013778264155712,0.0013778264272102,-0.0013778264273778,0.0013778264157379,-0.0013778264272155,0.0013778264155698,-0.0013314173612898,0.0013314173276217,-0.0013314173276204,0.0013314173612818,0.71680617244117,0.27958262364292,1368840,32768,0.0056330376750424,0.0056330376750424,0.0056330376751711,41.9256647777,41.926091268594,0.0002506053182216,0.0002506053182216,0.0002506053182216,565464.28163948,0.017042862951788
8985600,0.95584994750648,0.016230650250613,0.0054102167501654,0.0054102167501654,0.0054102167502819,-0.0013595244018003,0.0013595244011922,-1.7816453146057e-11,1.7210003746199e-11,4.6154951762612e-13,-1.0806874269174e-12,-0.0013818828943794,0.0013818828827586,-0.001381882882847,0.001381882894291,-0.0013818828949524,0.0013818828820652,-0.0013818828831864,0.0013818828938312,-0.0013348997504736,0.0013348997154416,-0.0013348997165645,0.0013348997493507,-5.3063614237127e-14,1.5092224457608e-12,7.5814152863494e-13,7.6674068689245e-13,-0.0013595244008866,0.0013595244021059,-0.0013818828881352,0.0013818828889076,-0.0013818828880459,0.0013818828890576,-0.0013818828875347,0.0013818828895781,-0.0013818828876184,0.0013818828894338,-0.0013348997320203,0.0013348997338416,-0.0013348997319894,0.0013348997337438,-0.0013348997329768,0.0013348997327897,-0.0013348997315816,0.0013348997341463,1.7249770943103e-11,-1.7250230767291e-11,-0.0013595244015266,0.0013595244015261,4.0230021000473e-15,-4.5429200404406e-15,-0.0013818828828919,0.0013818828945383,-0.0013818828827259,0.0013818828943665,-0.0013818828945336,0.001381882882892,-0.0013818828943713,0.001381882882724,-0.0013348997496742,0.0013348997160009,-0.0013348997160009,0.0013348997496675,0.71784137697747,0.31372910299747,1368840,32768,0.0056486631524833,0.0056486631524833,0.0056486631526081,41.804214265887,41.796109633982,0.0002496337141271,0.0002496337141271,0.0002496337141271,565092.94245678,0.017090542731766
9072000,0.9589146132096,0.016278635771908,0.0054262119239305,0.0054262119239305,0.0054262119240469,-0.0013632708029886,0.0013632708023985,-1.7807707824985e-11,1.721929466825e-11,4.4804098912592e-13,-1.0487915483734e-12,-0.0013857430786928,0.0013857430670747,-0.0013857430671601,0.0013857430786074,-0.0013857430792511,0.0013857430663964,-0.0013857430674846,0.0013857430781629,-0.0013385166295682,0.0013385165945688,-0.0013385165956585,0.0013385166284785,-3.9244212880941e-14,1.4776264257034e-12,7.49460091641e-13,7.580544301928e-13,-0.0013632708020926,0.0013632708032945,-0.0013857430724514,0.0013857430732214,-0.0013857430723618,0.0013857430733714,-0.0013857430718655,0.0013857430738767,-0.0013857430719494,0.0013857430737324,-0.0013385166111474,0.0013385166129361,-0.0013385166111166,0.0013385166128384,-0.0013385166120744,0.0013385166119141,-0.0013385166107235,0.0013385166132259,1.7250038699629e-11,-1.725049666358e-11,-0.0013632708027238,0.0013632708027233,4.0214874404368e-15,-4.5393319147612e-15,-0.0013857430672068,0.001385743078853,-0.0013857430670408,0.0013857430786813,-0.0013857430788483,0.0013857430672069,-0.001385743078686,0.0013857430670389,-0.0013385166287852,0.0013385165951115,-0.0013385165951114,0.0013385166287785,0.71683841233018,0.31420980998412,1368840,32768,0.0056641845538802,0.0056641845538802,0.0056641845540048,41.675045933571,41.666127999369,0.00024860036746857,0.00024860036746857,0.00024860036746857,552256.89138742,0.017137906334378
9158400,0.96175292120922,0.016323005021803,0.0054410016738955,0.0054410016738955,0.005441001674012,-0.0013665550848412,0.001366555084265,-1.7800973383659e-11,1.7226469449065e-11,4.3517520569618e-13,-1.0217315515083e-12,-0.0013892145993132,0.0013892145876958,-0.0013892145877805,0.0013892145992285,-0.0013892145998586,0.001389214587031,-0.0013892145880921,0.0013892145987974,-0.0013416055648257,0.0013416055298528,-0.0013416055309153,0.0013416055637632,-2.7003586823664e-14,1.4499490874036e-12,7.4190560183725e-13,7.5049633755793e-13,-0.0013665550839597,0.0013665550851464,-0.0013892145930734,0.0013892145938413,-0.0013892145929838,0.0013892145939913,-0.0013892145925005,0.0013892145944832,-0.0013892145925844,0.001389214594339,-0.0013416055464321,0.0013416055481926,-0.0013416055464015,0.001341605548095,-0.0013416055473334,0.001341605547197,-0.0013416055460214,0.0013416055484694,1.7250289368442e-11,-1.7250749060281e-11,-0.0013665550845834,0.0013665550845829,4.0189948695243e-15,-4.538390767042e-15,-0.0013892145878276,0.0013892145994737,-0.0013892145876617,0.0013892145993021,-0.001389214599469,0.0013892145878277,-0.0013892145993068,0.0013892145876598,-0.0013416055640564,0.0013416055303821,-0.001341605530382,0.0013416055640496,0.71554035837993,0.30977246867508,1368840,32768,0.005677791054568,0.0056777910545681,0.0056777910546927,41.545144009444,41.536146364756,0.00024756115207555,0.00024756115207555,0.00024756115207555,546721.44727807,0.017179428932652
9244800,0.96438214418901,0.016364035058918,0.0054546783529337,0.0054546783529337,0.0054546783530502,-0.0013695464752865,0.0013695464747222,-1.779524877913e-11,1.7232588909179e-11,4.2384671353855e-13,-9.9831394337077e-13,-0.001392394386387,0.0013923943747699,-0.0013923943748543,0.0013923943863026,-0.0013923943869211,0.0013923943741169,-0.0013923943751548,0.0013923943858833,-0.0013444024945503,0.0013444024596002,-0.0013444024606393,0.0013444024935112,-1.6395734415686e-14,1.4258216958024e-12,7.3528266445755e-13,7.4386880473039e-13,-0.0013695464744177,0.001369546475591,-0.0013923943801484,0.0013923943809145,-0.001392394380059,0.0013923943810645,-0.0013923943795871,0.0013923943815448,-0.0013923943796708,0.0013923943814007,-0.0013444024761802,0.0013444024779161,-0.0013444024761498,0.0013444024778188,-0.0013444024770591,0.0013444024769435,-0.0013444024757811,0.0013444024781816,1.7250522243681e-11,-1.7250981031136e-11,-0.0013695464750347,0.0013695464750342,4.0168625817231e-15,-4.5357731999481e-15,-0.0013923943749016,0.0013923943865477,-0.0013923943747358,0.0013923943863761,-0.001392394386543,0.0013923943749017,-0.0013923943863809,0.0013923943747339,-0.0013444024937928,0.001344402460118,-0.0013444024601178,0.001344402493786,0.71424965909349,0.30533512736603,1368840,32768,0.0056901839358022,0.0056901839358022,0.0056901839359268,41.415167403887,41.406164730143,0.0002465213392311,0.0002465213392311,0.0002465213392311,542408.33845645,0.017217249574799
9331200,0.9668182543523,0.016401985629473,0.0054673285431188,0.0054673285431188,0.0054673285432352,-0.0013722908065631,0.0013722908060091,-1.7790292312899e-11,1.7237906423203e-11,4.1400480831964e-13,-9.7798468206281e-13,-0.0013953165214663,0.0013953165098494,-0.0013953165099335,0.0013953165213822,-0.0013953165219907,0.0013953165092068,-0.0013953165102244,0.001395316520973,-0.0013469639569367,0.0013469639220062,-0.0013469639230251,0.0013469639559178,-7.2374553712946e-15,1.4048186536074e-12,7.2948040972716e-13,7.3806211447374e-13,-0.0013722908057052,0.0013722908068669,-0.0013953165152289,0.0013953165159932,-0.0013953165151396,0.0013953165161431,-0.0013953165146775,0.0013953165166135,-0.0013953165147611,0.0013953165164693,-0.001346963938587,0.0013469639403014,-0.0013469639385568,0.0013469639402043,-0.0013469639394465,0.0013469639393489,-0.001346963938198,0.0013469639405572,1.7250737384167e-11,-1.7251193612877e-11,-0.0013722908063164,0.0013722908063159,4.0160464301853e-15,-4.5326556481283e-15,-0.0013953165099811,0.0013953165216271,-0.0013953165098153,0.0013953165214555,-0.0013953165216224,0.0013953165099812,-0.0013953165214603,0.0013953165098135,-0.0013469639561895,0.0013469639225142,-0.0013469639225139,0.0013469639561826,0.71296597528415,0.30089778605699,1368840,32768,0.0057015531381981,0.0057015531381981,0.0057015531383228,41.285183072774,41.276183095531,0.00024548146458219,0.00024548146458219,0.00024548146458219,538314.35755161,0.017251947454053
9417600,0.96907600367044,0.016437096785524,0.0054790322618026,0.0054790322618026,0.0054790322619191,-0.0013748073657926,0.0013748073652476,-1.778600273806e-11,1.7242525811496e-11,4.0545002554474e-13,-9.6033630944377e-13,-0.001398000997912,0.0013980009862952,-0.0013980009863791,0.0013980009978281,-0.0013980009984278,0.0013980009856616,-0.0013980009866616,0.0013980009974278,-0.0013493084535136,0.0013493084186002,-0.0013493084196014,0.0013493084525124,6.7003835431762e-16,1.3865325173833e-12,7.2439561469651e-13,7.3297362286484e-13,-0.0013748073649444,0.0013748073660959,-0.0013980009916756,0.0013980009924383,-0.0013980009915864,0.0013980009925882,-0.0013980009911329,0.0013980009930498,-0.0013980009912164,0.0013980009929056,-0.0013493084351817,0.0013493084368774,-0.0013493084351517,0.0013493084367805,-0.0013493084360243,0.0013493084359422,-0.0013493084348014,0.0013493084371247,1.7250934289917e-11,-1.7251389900998e-11,-0.0013748073655504,0.00137480736555,4.01462735589e-15,-4.5301263136331e-15,-0.0013980009864269,0.0013980009980728,-0.0013980009862612,0.0013980009979013,-0.0013980009980681,0.001398000986427,-0.0013980009979061,0.0013980009862593,-0.0013493084527753,0.0013493084190995,-0.0013493084190993,0.0013493084527684,0.71168888930486,0.29646044474795,1368840,32768,0.0057119786000892,0.0057119786000892,0.0057119786002139,41.155197942903,41.146201460918,0.00024444158354322,0.00024444158354322,0.00024444158354322,534438.77469261,0.017283766218122
9504000,0.97116901028969,0.016469589719324,0.0054898632397359,0.0054898632397359,0.0054898632398523,-0.0013771139096716,0.0013771139091343,-1.7782296542459e-11,1.7246533512593e-11,3.9800832641295e-13,-9.450206596793e-13,-0.0014004662327806,0.001400466221164,-0.0014004662212477,0.0014004662326968,-0.0014004662332891,0.0014004662205381,-0.001400466221523,0.0014004662323042,-0.0013514530058636,0.001351452970965,-0.001351452971951,0.0013514530048777,7.4959474745383e-15,1.3706091178029e-12,7.1993884827414e-13,7.2851287678463e-13,-0.0013771139088317,0.0013771139099742,-0.0014004662265451,0.0014004662273064,-0.0014004662264561,0.0014004662274563,-0.00140046622601,0.0014004662279103,-0.0014004662260934,0.0014004662277661,-0.0013514529875472,0.0013514529892265,-0.0013514529875174,0.0013514529891298,-0.0013514529883751,0.0013514529883065,-0.0013514529871745,0.0013514529894666,1.7251115519674e-11,-1.7251570836647e-11,-0.0013771139094333,0.0013771139094328,4.012789176751e-15,-4.5283028399272e-15,-0.0014004662212956,0.0014004662329415,-0.0014004662211299,0.00140046623277,-0.0014004662329368,0.0014004662212958,-0.0014004662327749,0.0014004662211281,-0.0013514530051331,0.0013514529714569,-0.0013514529714566,0.0013514530051262,0.71041796151644,0.29202310343891,1368840,32768,0.00572153391332,0.00572153391332,0.0057215339134448,41.02521273397,41.016219826305,0.00024340170187176,0.00024340170187176,0.00024340170187176,530778.86759285,0.017312930201802
9590400,0.97310984121086,0.016499668180106,0.0054998893933299,0.0054998893933299,0.0054998893934464,-0.0013792267907002,0.0013792267901696,-1.7779098169579e-11,1.7250006759429e-11,3.9153006843693e-13,-9.3173012451955e-13,-0.0014027291968071,0.0014027291851906,-0.0014027291852742,0.0014027291967235,-0.0014027291973092,0.0014027291845716,-0.0014027291855432,0.0014027291963376,-0.0013534132792374,0.0013534132443516,-0.0013534132453243,0.0013534132782647,1.3385649901113e-14,1.3567393540146e-12,7.1602898977645e-13,7.2459977573894e-13,-0.0013792267898676,0.0013792267910022,-0.0014027291905725,0.0014027291913324,-0.0014027291904835,0.0014027291914823,-0.0014027291900439,0.0014027291919297,-0.0014027291901272,0.0014027291917855,-0.0013534132609343,0.0013534132625995,-0.0013534132609047,0.0013534132625029,-0.0013534132617496,0.0013534132616925,-0.0013534132605684,0.0013534132628332,1.725128139696e-11,-1.7251737706549e-11,-0.0013792267904652,0.0013792267904647,4.0108774704465e-15,-4.5268028857497e-15,-0.0014027291853223,0.001402729196968,-0.0014027291851566,0.0014027291967967,-0.0014027291969634,0.0014027291853224,-0.0014027291968015,0.0014027291851548,-0.0013534132785136,0.001353413244837,-0.0013534132448367,0.0013534132785067,0.70915275877516,0.28758576212987,1368840,32768,0.0057302868471963,0.0057302868471963,0.0057302868473212,40.895227520632,40.886238191692,0.00024236182016506,0.00024236182016506,0.00024236182016506,527330.364423,0.01733964601693
9676800,0.97490259648241,0.016527404749379,0.0055091349164208,0.0055091349164208,0.0055091349165373,-0.0013809948129662,0.0013809948124414,-1.7776315063424e-11,1.7253016285137e-11,3.8586949136368e-13,-9.2015521341926e-13,-0.0014046411628231,0.0014046411512067,-0.0014046411512902,0.0014046411627396,-0.0014046411633197,0.0014046411505935,-0.0014046411515537,0.0014046411623595,-0.0013550363628985,0.0013550363280238,-0.001355036328985,0.0013550363619373,1.8484288258858e-14,1.344609893679e-12,7.1258386891959e-13,7.211514104959e-13,-0.0013809948121399,0.0013809948132676,-0.0014046411565893,0.0014046411573479,-0.0014046411565004,0.0014046411574977,-0.0014046411560664,0.0014046411579394,-0.0014046411561496,0.0014046411577952,-0.0013550363446071,0.0013550363462598,-0.0013550363445777,0.0013550363461633,-0.0013550363454113,0.0013550363453643,-0.0013550363442469,0.0013550363464879,1.7251422833815e-11,-1.7251878275784e-11,-0.0013809948127341,0.0013809948127337,4.0097819156796e-15,-4.5248323577127e-15,-0.0014046411513383,0.001404641162984,-0.0014046411511727,0.0014046411628127,-0.0014046411629794,0.0014046411513385,-0.0014046411628175,0.0014046411511709,-0.0013550363621806,0.0013550363285036,-0.0013550363285033,0.0013550363621736,0.70789657795858,0.28314842082083,1368840,32768,0.0057376110392739,0.0057376110392739,0.0057376110393988,40.684023823529,40.669624716922,0.00024067219058823,0.00024067219058823,0.00024067219058823,524170.23811664,0.017362001782005
9763200,0.97655210205444,0.016552944983253,0.0055176483277122,0.0055176483277122,0.0055176483278287,-0.0013824185728235,0.0013824185723037,-1.777391887192e-11,1.7255589471233e-11,3.8095975899969e-13,-9.101709890187e-13,-0.0014061988032043,0.0014061987915879,-0.0014061987916714,0.0014061988031208,-0.0014061988036961,0.0014061987909799,-0.0014061987919303,0.0014061988027458,-0.0013563273846748,0.0013563273498097,-0.001356327350761,0.0013563273837236,2.2854919444958e-14,1.3340943141874e-12,7.0957241863792e-13,7.1813706140572e-13,-0.0013824185720028,0.0013824185731244,-0.0014061987969712,0.0014061987977286,-0.0014061987968824,0.0014061987978785,-0.0014061987964533,0.0014061987983152,-0.0014061987965364,0.001406198798171,-0.0013563273663936,0.0013563273680354,-0.0013563273663643,0.0013563273679391,-0.0013563273671883,0.0013563273671499,-0.0013563273660384,0.0013563273682588,1.7251538477341e-11,-1.7251993970779e-11,-0.001382418572594,0.0013824185725935,4.0081422598876e-15,-4.5235676904651e-15,-0.0014061987917196,0.0014061988033652,-0.001406198791554,0.001406198803194,-0.0014061988033606,0.0014061987917198,-0.0014061988031988,0.0014061987915522,-0.001356327383962,0.0013563273502848,-0.0013563273502844,0.001356327383955,0.70839618350759,0.30515093879817,1368840,32768,0.0057435090095063,0.0057435090095063,0.0057435090096312,40.38536662954,40.364967028842,0.00023828293303632,0.00023828293303632,0.00023828293303632,521113.16725791,0.017380004824795
9849600,0.97807072491994,0.016576476057331,0.0055254920190717,0.0055254920190717,0.0055254920191882,-0.0013838177276524,0.0013838177271375,-1.7771586002011e-11,1.7258132687658e-11,3.7762169921042e-13,-9.0186330163637e-13,-0.001407645765442,0.0014076457538265,-0.001407645753909,0.0014076457653595,-0.00140764576593,0.0014076457532223,-0.0014076457541639,0.0014076457649884,-0.0013576744253497,0.0013576743904931,-0.0013576743914356,0.0013576744244072,2.6441133417995e-14,1.3260262922776e-12,7.0741753410051e-13,7.1598006847685e-13,-0.0013838177268363,0.0013838177279536,-0.0014076457592096,0.0014076457599666,-0.0014076457591207,0.0014076457601164,-0.0014076457586954,0.0014076457605492,-0.0014076457587787,0.0014076457604051,-0.0013576744070768,0.0013576744087104,-0.0013576744070475,0.0013576744086141,-0.001357674407864,0.0013576744078324,-0.0013576744067255,0.0013576744089299,1.7251634533231e-11,-1.7252090864878e-11,-0.0013838177274253,0.0013838177274248,4.0065908366943e-15,-4.5227147753446e-15,-0.0014076457539578,0.0014076457656033,-0.0014076457537923,0.0014076457654321,-0.0014076457655987,0.0014076457539579,-0.0014076457654369,0.0014076457537905,-0.0013576744246411,0.0013576743909638,-0.0013576743909634,0.0013576744246341,0.70888742271456,0.32514777092601,1368840,32768,0.0057493051465283,0.0057493051465283,0.0057493051466532,40.081264055066,40.060309340762,0.00023585011244052,0.00023585011244052,0.00023585011244052,512892.56837369,0.017397696866921
9936000,0.97947008106112,0.016598169471441,0.0055327231571082,0.0055327231571082,0.0055327231572247,-0.0013850591698858,0.0013850591693751,-1.7769549578928e-11,1.7260356149144e-11,3.7467693622973e-13,-8.9457740656841e-13,-0.0014089309776495,0.0014089309660348,-0.0014089309661164,0.0014089309775679,-0.0014089309781343,0.001408930965434,-0.001408930966368,0.0014089309772003,-0.0013588687613809,0.0013588687265318,-0.0013588687274667,0.0013588687604461,2.9607271988752e-14,1.3189544421413e-12,7.055408046686e-13,7.1410130234245e-13,-0.0013850591690737,0.0013850591701872,-0.0014089309714178,0.0014089309721744,-0.0014089309713287,0.0014089309723242,-0.0014089309709067,0.0014089309727536,-0.0014089309709902,0.0014089309726095,-0.0013588687431153,0.0013588687447417,-0.0013588687430861,0.0013588687446455,-0.0013588687438959,0.0013588687438704,-0.0013588687427673,0.0013588687449578,1.7251720207084e-11,-1.7252175935809e-11,-0.0013850591696608,0.0013850591696603,4.0059364449208e-15,-4.5214206972307e-15,-0.0014089309661657,0.0014089309778111,-0.0014089309660002,0.0014089309776399,-0.0014089309778065,0.0014089309661659,-0.0014089309776448,0.0014089309659984,-0.0013588687606761,0.0013588687269986,-0.0013588687269982,0.0013588687606691,0.70914385405978,0.33996392803986,1368840,32768,0.0057544479091423,0.0057544479091423,0.005754447909267,39.77664556129,39.755651652682,0.00023341316449032,0.00023341316449032,0.00023341316449032,505245.9493041,0.017413394848724
10022400,0.98076070321473,0.016618188649309,0.0055393962163976,0.0055393962163976,0.0055393962165141,-0.0013861399186124,0.0013861399181053,-1.7767819190614e-11,1.7262246150229e-11,3.7199657693639e-13,-8.8820645413781e-13,-0.0014100610666634,0.0014100610550493,-0.0014100610551303,0.0014100610665824,-0.0014100610671453,0.0014100610544515,-0.0014100610553789,0.001410061066218,-0.0013598984911155,0.0013598984562728,-0.001359898457201,0.0013598984901873,3.2390539903004e-14,1.3126817330329e-12,7.0385862260223e-13,7.1241625087844e-13,-0.0013861399178038,0.0013861399189139,-0.0014100610604323,0.0014100610611885,-0.0014100610603431,0.0014100610613383,-0.0014100610599241,0.0014100610617646,-0.0014100610600076,0.0014100610616206,-0.0013598984728562,0.0013598984744762,-0.001359898472827,0.00135989847438,-0.001359898473631,0.0013598984736108,-0.0013598984725112,0.0013598984746892,1.7251795910653e-11,-1.7252251823196e-11,-0.0013861399183892,0.0013861399183887,4.0045173706255e-15,-4.5201854408493e-15,-0.00141006105518,0.0014100610668253,-0.0014100610550145,0.0014100610666541,-0.0014100610668207,0.0014100610551802,-0.001410061066659,0.0014100610550128,-0.0013598984904138,0.0013598984567363,-0.0013598984567359,0.0013598984904068,0.70947160253369,0.35478008515371,1368840,32768,0.0057589249445358,0.0057589249445358,0.0057589249446604,39.471974784266,39.450993964602,0.00023097579827413,0.00023097579827413,0.00023097579827413,498744.14587486,0.017427061024321
10108800,0.98195211645647,0.01663668090236,0.0055455603007479,0.0055455603007479,0.0055455603008644,-0.0013870991899988,0.0013870991894948,-1.7766377852293e-11,1.7263830601825e-11,3.698140406702e-13,-8.8293926210573e-13,-0.001411062189864,0.0014110621782503,-0.0014110621783307,0.0014110621897836,-0.0014110621903435,0.001411062177655,-0.0014110621785769,0.0014110621894216,-0.001360814684632,0.0013608146497946,-0.0013608146507173,0.0013608146837093,3.4698587040807e-14,1.3075348571782e-12,7.0249391796949e-13,7.1104918970004e-13,-0.0013870991891931,0.0013870991903005,-0.0014110621836333,0.0014110621843892,-0.001411062183544,0.0014110621845389,-0.0014110621831274,0.0014110621849628,-0.0014110621832111,0.0014110621848188,-0.001360814666378,0.0013608146679927,-0.0013608146663488,0.0013608146678965,-0.0013608146671479,0.0013608146671321,-0.0013608146660354,0.0013608146682033,1.7251862526265e-11,-1.725231841675e-11,-0.0013870991897771,0.0013870991897766,4.0033409359765e-15,-4.5184796106083e-15,-0.0014110621783809,0.0014110621900261,-0.0014110621782154,0.0014110621898549,-0.0014110621900214,0.001411062178381,-0.0014110621898598,0.0014110621782136,-0.001360814683933,0.0013608146502554,-0.0013608146502549,0.001360814683926,0.70986525485405,0.36959624226756,1368840,32768,0.0057628987390307,0.0057628987390307,0.0057628987391553,39.167298644752,39.146336276522,0.00022853838915801,0.00022853838915801,0.00022853838915801,492412.35942115,0.017439191218702
10195200,0.98305293736051,0.016653779499081,0.0055512598329883,0.0055512598329883,0.0055512598331048,-0.0013879474353119,0.0013879474348106,-1.7765086450568e-11,1.7265250734912e-11,3.6789811390633e-13,-8.7825955212648e-13,-0.0014119455372806,0.0014119455256674,-0.0014119455257473,0.0014119455372007,-0.001411945537758,0.0014119455250742,-0.0014119455259912,0.001411945536841,-0.0013616269578405,0.0013616269230079,-0.0013616269239257,0.0013616269569227,3.6759171150201e-14,1.3029948745481e-12,7.0130474106273e-13,7.0985719670285e-13,-0.0013879474345088,0.0013879474356137,-0.0014119455310503,0.001411945531806,-0.0014119455309609,0.0014119455319557,-0.0014119455305464,0.0014119455323774,-0.0014119455306302,0.0014119455322334,-0.0013616269395911,0.0013616269412012,-0.001361626939562,0.0013616269411051,-0.0013616269403568,0.001361626940345,-0.0013616269392507,0.0013616269414096,1.7251920348028e-11,-1.7252376400273e-11,-0.0013879474350915,0.001387947435091,4.0018336290825e-15,-4.5178031606852e-15,-0.0014119455257977,0.0014119455374428,-0.0014119455256323,0.0014119455372717,-0.0014119455374382,0.0014119455257979,-0.0014119455372766,0.0014119455256305,-0.0013616269571439,0.0013616269234662,-0.0013616269234658,0.0013616269571369,0.71032017598145,0.38441239938141,1368840,32768,0.0057664125927062,0.0057664125927062,0.0057664125928308,38.862621971902,38.841678588442,0.00022610097577522,0.00022610097577522,0.00022610097577522,486249.42014811,0.017449917554094
10281600,0.9840709656087,0.016669604859565,0.0055565349531493,0.0055565349531493,0.0055565349532659,-0.0013886941058471,0.0013886941053483,-1.7763930324122e-11,1.7266521637263e-11,3.6622409151716e-13,-8.7411232588022e-13,-0.0014127212228163,0.0014127212112035,-0.0014127212112829,0.0014127212227369,-0.0014127212232919,0.0014127212106123,-0.0014127212115249,0.0014127212223792,-0.0013623440179422,0.0013623439831137,-0.0013623439840272,0.0013623440170287,3.859429155912e-14,1.2990035001583e-12,7.0027292515753e-13,7.0882268418885e-13,-0.0013886941050463,0.0013886941061491,-0.0014127212165864,0.0014127212173419,-0.0014127212164968,0.0014127212174916,-0.0014127212160843,0.0014127212179113,-0.0014127212161682,0.0014127212177674,-0.0013623439996969,0.0013623440013029,-0.0013623439996678,0.0013623440012069,-0.0013623440004588,0.0013623440004505,-0.0013623439993584,0.0013623440015094,1.7251971170005e-11,-1.7252425839939e-11,-0.0013886941056279,0.0013886941056275,4.0009586558124e-15,-4.5155385239859e-15,-0.0014127212113337,0.0014127212229787,-0.0014127212111683,0.0014127212228076,-0.0014127212229741,0.0014127212113338,-0.0014127212228125,0.0014127212111665,-0.0013623440172477,0.0013623439835699,-0.0013623439835694,0.0013623440172406,0.710832344677,0.39922855649526,1368840,32768,0.0057695056619946,0.0057695056619946,0.0057695056621191,38.557945262754,38.537020900362,0.00022366356210203,0.00022366356210203,0.00022366356210203,480252.56899492,0.017459359515676
10368000,0.98501326635142,0.016684265896809,0.0055614219655643,0.0055614219655643,0.0055614219656808,-0.0013893477610075,0.0013893477605108,-1.7762895473383e-11,1.7267658573119e-11,3.6476647428166e-13,-8.7044146743419e-13,-0.001413398402153,0.0014133983905406,-0.0014133983906195,0.001413398402074,-0.0014133984026269,0.001413398389951,-0.0014133983908598,0.0014133984017181,-0.0013629737589941,0.0013629737241694,-0.001362973725079,0.0013629737580845,4.0229300434251e-14,1.2955054709913e-12,6.9938440634529e-13,7.0793138788793e-13,-0.0013893477602086,0.0013893477613097,-0.0014133983959234,0.0014133983966788,-0.0014133983958337,0.0014133983968284,-0.0014133983954228,0.0014133983972465,-0.0014133983955068,0.0014133983971026,-0.0013629737407524,0.0013629737423549,-0.0013629737407234,0.0013629737422589,-0.0013629737415111,0.0013629737415058,-0.0013629737404156,0.0013629737425597,1.7252013874583e-11,-1.7252469095971e-11,-0.0013893477607894,0.0013893477607889,3.9998263374627e-15,-4.5145091436681e-15,-0.0014133983906706,0.0014133984023155,-0.0014133983905052,0.0014133984021445,-0.0014133984023109,0.0014133983906708,-0.0014133984021493,0.0014133983905035,-0.0013629737583015,0.0013629737246236,-0.0013629737246232,0.0013629737582944,0.71139824033966,0.41404471360911,1368840,32768,0.0057722134076482,0.0057722134076482,0.0057722134077726,38.253268566871,38.232363212283,0.00022122614853497,0.00022122614853497,0.00022122614853497,474417.95913048,0.01746762531676
10454400,0.98589252956768,0.0166979585074,0.0055659861690946,0.0055659861690946,0.0055659861692111,-0.0013901875044837,0.0013901875039891,-1.7761911488737e-11,1.7268772244979e-11,3.6337538442555e-13,-8.6691333992195e-13,-0.0014142532309464,0.0014142532193344,-0.0014142532194129,0.0014142532308679,-0.0014142532314188,0.0014142532187464,-0.0014142532196515,0.0014142532305137,-0.0013637969202375,0.0013637968854164,-0.0013637968863223,0.0013637969193317,4.1811075641516e-14,1.2921618304901e-12,6.985442757607e-13,7.0708897244667e-13,-0.0013901875036867,0.0013901875047861,-0.0014142532247171,0.0014142532254725,-0.0014142532246273,0.0014142532256221,-0.001414253224218,0.0014142532260385,-0.0014142532243022,0.0014142532258946,-0.0013637969019993,0.0013637969035984,-0.0013637969019702,0.0013637969035024,-0.0013637969027548,0.0013637969027525,-0.0013637969016641,0.0013637969038015,1.7252069872872e-11,-1.7252525145729e-11,-0.0013901875042666,0.0013901875042661,3.9982381506866e-15,-4.5133032981529e-15,-0.0014142532194643,0.0014142532311091,-0.0014142532192989,0.0014142532309381,-0.0014142532311045,0.0014142532194644,-0.0014142532309429,0.0014142532192972,-0.0013637969195467,0.0013637968858688,-0.0013637968858683,0.0013637969195396,0.71201274010622,0.42886087072296,1368840,32768,0.0057756920736615,0.0057756920736615,0.0057756920737858,38.084911682279,38.073038917348,0.00021987929345823,0.00021987929345823,0.00021987929345823,468623.28088892,0.017478244250892
10540800,0.98671921941236,0.016710780758578,0.0055702602528206,0.0055702602528206,0.0055702602529371,-0.0013912182483469,0.0013912182478542,-1.7761052882614e-11,1.7269789008036e-11,3.6217325938494e-13,-8.6380114087985e-13,-0.0014152969265427,0.001415296914931,-0.001415296915009,0.0014152969264646,-0.0014152969270137,0.0014152969143445,-0.0014152969152462,0.0014152969261119,-0.0013648118694485,0.0013648118346306,-0.0013648118355331,0.001364811868546,4.3217620907818e-14,1.2892485408126e-12,6.9782745023276e-13,7.0637150907057e-13,-0.0013912182475516,0.0013912182486495,-0.0014152969203136,0.001415296921069,-0.0014152969202236,0.0014152969212185,-0.0014152969198158,0.0014152969216335,-0.0014152969199001,0.0014152969214896,-0.0013648118512133,0.0013648118528095,-0.0013648118511843,0.0013648118527136,-0.001364811851966,0.0013648118519664,-0.0013648118508795,0.0013648118530112,1.7252139076641e-11,-1.725259411421e-11,-0.0013912182481308,0.0013912182481303,3.9978999257251e-15,-4.5127739025608e-15,-0.0014152969150607,0.0014152969267055,-0.0014152969148954,0.0014152969265345,-0.0014152969267009,0.0014152969150609,-0.0014152969265394,0.0014152969148936,-0.0013648118687593,0.0013648118350813,-0.0013648118350808,0.0013648118687522,0.70913079467007,0.38822628619046,1368840,32768,0.0057799619760785,0.0057799619760785,0.0057799619762028,38.051782382968,38.049168904199,0.00021961425906374,0.00021961425906374,0.00021961425906374,463064.33740725,0.017491278514149
10627200,0.98749685517961,0.016722824781543,0.0055742749271423,0.0055742749271423,0.0055742749272588,-0.0013919298235893,0.0013919298230969,-1.7760956870842e-11,1.7269940179888e-11,3.6001422240086e-13,-8.6137686199873e-13,-0.0014161595133067,0.0014161595016939,-0.0014161595017732,0.0014161595132274,-0.0014161595137762,0.0014161595011092,-0.0014161595020092,0.0014161595128762,-0.0013653823158995,0.001365382281083,-0.0013653822819838,0.0013653823149988,4.4164533156769e-14,1.2856355886859e-12,6.9646313529399e-13,7.0500394790744e-13,-0.0013919298227955,0.0013919298238907,-0.0014161595070777,0.0014161595078317,-0.0014161595069881,0.0014161595079813,-0.0014161595065818,0.0014161595083948,-0.0014161595066657,0.0014161595082509,-0.0013653822976669,0.0013653822992592,-0.0013653822976381,0.0013653822991634,-0.0013653822984168,0.0013653822984194,-0.0013653822973349,0.0013653822994597,1.7252213956706e-11,-1.7252668273709e-11,-0.0013919298233733,0.0013919298233729,3.9970764214708e-15,-4.5108033745238e-15,-0.0014161595018241,0.001416159513469,-0.0014161595016589,0.001416159513298,-0.0014161595134644,0.0014161595018243,-0.0014161595133029,0.0014161595016571,-0.0013653823152115,0.0013653822815331,-0.0013653822815326,0.0013653823152044,0.70805560517149,0.37898076647405,1368840,32768,0.0057829094759773,0.0057829094759773,0.0057829094761018,38.027034309115,38.02529889105,0.00021941627447292,0.00021941627447292,0.00021941627447292,466655.19225498,0.017500276955232
10713600,0.98822839103602,0.01673413053567,0.0055780435118511,0.0055780435118511,0.0055780435119677,-0.0013927342113685,0.001392734210877,-1.776052069299e-11,1.7270474457684e-11,3.5856320790483e-13,-8.5893049555707e-13,-0.0014170378087956,0.0014170377971825,-0.0014170377972621,0.0014170378087159,-0.0014170378092638,0.0014170377965992,-0.001417037797497,0.0014170378083661,-0.0013661166915166,0.0013661166567021,-0.0013661166576006,0.0013661166906181,4.5188148944833e-14,1.2827696100631e-12,6.955491025553e-13,7.040877258974e-13,-0.0013927342105761,0.0013927342116694,-0.0014170378025667,0.0014170378033202,-0.0014170378024773,0.0014170378034698,-0.0014170378020722,0.0014170378038819,-0.001417037802156,0.001417037803738,-0.0013661166732864,0.0013661166748757,-0.0013661166732577,0.00136611667478,-0.0013661166740339,0.0013661166740386,-0.0013661166729558,0.001366116675075,1.7252280572318e-11,-1.7252734698151e-11,-0.001392734211153,0.0013927342111526,3.9959441031212e-15,-4.5093328312126e-15,-0.0014170377973129,0.0014170378089577,-0.0014170377971476,0.0014170378087868,-0.0014170378089531,0.0014170377973131,-0.0014170378087916,0.0014170377971459,-0.0013661166908298,0.0013661166571512,-0.0013661166571507,0.0013661166908227,0.70657683050792,0.36416572583627,1368840,32768,0.0057862415693653,0.0057862415693653,0.0057862415694898,38.003075507864,38.001428877901,0.00021922460406291,0.00021922460406291,0.00021922460406291,465470.66272963,0.01751044904975
10800000,0.9889165760247,0.016744743237602,0.0055815810791619,0.0055815810791619,0.0055815810792784,-0.0013934533801458,0.0013934533796549,-1.7760250804176e-11,1.7270823535255e-11,3.5718379416262e-13,-8.5691343952969e-13,-0.0014178438778518,0.0014178438662383,-0.0014178438663185,0.0014178438777717,-0.001417843878319,0.0014178438656564,-0.0014178438665524,0.001417843877423,-0.0013667541727141,0.0013667541379011,-0.0013667541387979,0.0013667541718173,4.5994153733704e-14,1.2801883653889e-12,6.9466052492133e-13,7.0319632665844e-13,-0.0013934533793546,0.0013934533804461,-0.0014178438716232,0.0014178438723759,-0.0014178438715339,0.0014178438725255,-0.0014178438711299,0.0014178438729366,-0.0014178438712136,0.0014178438727926,-0.001366754154486,0.0013667541560726,-0.0013667541544574,0.0013667541559769,-0.0013667541552314,0.0013667541552378,-0.0013667541541566,0.0013667541562709,1.7252344746828e-11,-1.7252798563847e-11,-0.0013934533799306,0.0013934533799302,3.9946867885901e-15,-4.5081269856974e-15,-0.001417843866369,0.0014178438780138,-0.0014178438662037,0.0014178438778429,-0.0014178438780092,0.0014178438663691,-0.0014178438778477,0.001417843866202,-0.0013667541720283,0.0013667541383495,-0.001366754138349,0.0013667541720212,0.70503247563999,0.34935068519849,1368840,32768,0.0057892206103111,0.0057892206103111,0.0057892206104358,37.979196275056,37.977558864752,0.00021903357020045,0.00021903357020045,0.00021903357020045,465375.71963517,0.017519543567271
10886400,0.98956399384404,0.016754704555143,0.0055849015183421,0.0055849015183421,0.0055849015184586,-0.0013941180604843,0.0013941180599939,-1.7760061633485e-11,1.7271082880273e-11,3.5595486111745e-13,-8.552203147829e-13,-0.0014185947323407,0.0014185947207267,-0.0014185947208073,0.00141859473226,-0.0014185947328069,0.0014185947201459,-0.0014185947210405,0.0014185947319123,-0.0013673380849438,0.0013673380501321,-0.0013673380510274,0.0013673380840485,4.6644133877257e-14,1.2779265411037e-12,6.9385246504818e-13,7.0238645434066e-13,-0.0013941180596942,0.0013941180607841,-0.0014185947261121,0.0014185947268642,-0.001418594726023,0.0014185947270138,-0.00141859472562,0.0014185947274238,-0.0014185947257035,0.0014185947272799,-0.0013673380667175,0.0013673380683016,-0.001367338066689,0.0013673380682061,-0.0013673380674611,0.0013673380674689,-0.0013673380663892,0.0013673380684991,1.7252405715554e-11,-1.7252858635541e-11,-0.0013941180602694,0.001394118060269,3.9942529783133e-15,-4.5066564423862e-15,-0.0014185947208575,0.0014185947325024,-0.0014185947206923,0.0014185947323315,-0.0014185947324978,0.0014185947208577,-0.0014185947323363,0.0014185947206906,-0.0013673380842589,0.0013673380505798,-0.0013673380505794,0.0013673380842518,0.70342889316721,0.33453564456071,1368840,32768,0.0057919739253577,0.0057919739253577,0.0057919739254825,37.955325197689,37.953688851603,0.00021884260158151,0.00021884260158151,0.00021884260158151,465465.80521308,0.017527949087744
10972800,0.99017307509998,0.016764053916846,0.0055880179722432,0.0055880179722432,0.0055880179723598,-0.0013947314593764,0.0013947314588863,-1.7759943651795e-11,1.7271262904186e-11,3.548524683242e-13,-8.5380691678477e-13,-0.0014192936397026,0.0014192936280882,-0.0014192936281693,0.0014192936396214,-0.0014192936401681,0.0014192936275083,-0.0014192936284018,0.0014192936392746,-0.0013678715829217,0.0013678715481109,-0.0013678715490051,0.0013678715820275,4.7161382781541e-14,1.2759378518568e-12,6.9311358137057e-13,7.0164509463575e-13,-0.0013947314585871,0.0013947314596756,-0.0014192936334742,0.0014192936342255,-0.0014192936333852,0.0014192936343752,-0.001419293632983,0.0014192936347844,-0.0014192936330664,0.0014192936346404,-0.0013678715646969,0.0013678715662789,-0.0013678715646685,0.0013678715661835,-0.001367871565439,0.001367871565448,-0.0013678715643696,0.0013678715664757,1.7252463596139e-11,-1.7252915604389e-11,-0.0013947314591617,0.0013947314591612,3.9934000631928e-15,-4.5052741316737e-15,-0.0014192936282192,0.0014192936398641,-0.0014192936280541,0.0014192936396932,-0.0014192936398595,0.0014192936282194,-0.001419293639698,0.0014192936280523,-0.0013678715822375,0.0013678715485583,-0.0013678715485578,0.0013678715822304,0.70177134324087,0.31972060392292,1368840,32768,0.0057945148011841,0.0057945148011841,0.0057945148013089,37.931454959469,37.929818838454,0.00021865163967575,0.00021865163967575,0.00021865163967575,465731.77774854,0.017535706155049
11059200,0.99074610630112,0.016772828476881,0.0055909428255882,0.0055909428255882,0.0055909428257047,-0.0013952965973016,0.0013952965968117,-1.7759886330016e-11,1.7271374018438e-11,3.538582339915e-13,-8.5263333498983e-13,-0.0014199436878451,0.0014199436762302,-0.0014199436763119,0.0014199436877634,-0.0014199436883099,0.0014199436756513,-0.0014199436765439,0.0014199436874173,-0.0013683576291138,0.0013683575943038,-0.0013683575951971,0.0013683576282205,4.756634099858e-14,1.2741852473094e-12,6.9243488335433e-13,7.0096448307503e-13,-0.0013952965965131,0.0013952965976002,-0.0014199436816169,0.0014199436823675,-0.001419943681528,0.0014199436825172,-0.0014199436811266,0.0014199436829257,-0.0014199436812097,0.0014199436827816,-0.0013683576108903,0.0013683576124704,-0.001368357610862,0.001368357612375,-0.001368357611631,0.001368357611641,-0.0013683576105639,0.0013683576126666,1.7252517594489e-11,-1.725296995567e-11,-0.001395296597087,0.0013952965970865,3.9923633301584e-15,-4.5042447513559e-15,-0.0014199436763615,0.0014199436880064,-0.0014199436761964,0.0014199436878355,-0.0014199436880018,0.0014199436763617,-0.0014199436878404,0.0014199436761946,-0.0013683576284303,0.0013683575947508,-0.0013683575947503,0.0013683576284231,0.70006422332542,0.30490556328514,1368840,32768,0.005796855751607,0.005796855751607,0.0057968557517319,37.907584807213,37.905948825305,0.0002184606784577,0.0002184606784577,0.0002184606784577,466165.75370104,0.017542852956098
11145600,0.9912852381692,0.016781066230277,0.0055936887433868,0.0055936887433868,0.0055936887435033,-0.0013958165836535,0.0013958165831636,-1.7759902770691e-11,1.727140431163e-11,3.5299534858735e-13,-8.5174850907948e-13,-0.0014205479606965,0.0014205479490811,-0.0014205479491634,0.0014205479606142,-0.0014205479611607,0.0014205479485029,-0.0014205479493949,0.0014205479602687,-0.0013687994302596,0.0013687993954499,-0.0013687993963426,0.0013687994293669,4.7836009230989e-14,1.2727167664352e-12,6.9183038527721e-13,7.0035738397443e-13,-0.0013958165828656,0.0013958165839515,-0.0014205479544683,0.0014205479552182,-0.0014205479543797,0.001420547955368,-0.0014205479539788,0.0014205479557759,-0.0014205479540618,0.0014205479556318,-0.0013687994120371,0.0013687994136155,-0.0013687994120089,0.0013687994135202,-0.0013687994127768,0.0013687994127874,-0.0013687994117113,0.0013687994138113,1.7252568798807e-11,-1.7253021615856e-11,-0.0013958165834389,0.0013958165834385,3.9907236743664e-15,-4.5034212471016e-15,-0.0014205479492127,0.0014205479608575,-0.0014205479490475,0.0014205479606867,-0.0014205479608529,0.0014205479492128,-0.0014205479606915,0.0014205479490457,-0.0013687994295765,0.0013687993958968,-0.0013687993958963,0.0013687994295693,0.69856588606131,0.29399228489918,1368840,32768,0.0057990096592618,0.0057990096592618,0.0057990096593868,37.883714664832,37.882078812156,0.00021826971731865,0.00021826971731865,0.00021826971731865,466755.45551262,0.017549428803018
11232000,0.99179159014808,0.01678882104102,0.0055962736803011,0.0055962736803011,0.0055962736804176,-0.0013962521607721,0.0013962521602822,-1.7759933902093e-11,1.7271411399649e-11,3.5232404556578e-13,-8.5109502904284e-13,-0.0014210561953434,0.0014210561837276,-0.0014210561838103,0.0014210561952606,-0.0014210561958072,0.00142105618315,-0.0014210561840416,0.0014210561949157,-0.0013691688076274,0.001369168772818,-0.0013691687737103,0.0013691688067351,4.8015944910548e-14,1.2715802129209e-12,6.9134984664851e-13,6.9987582515631e-13,-0.0013962521599847,0.0013962521610696,-0.0014210561891153,0.0014210561898647,-0.0014210561890268,0.0014210561900144,-0.0014210561886263,0.0014210561904219,-0.0014210561887092,0.0014210561902778,-0.0013691687894056,0.0013691687909827,-0.0013691687893775,0.0013691687908876,-0.0013691687901445,0.0013691687901556,-0.0013691687890804,0.0013691687911783,1.7252613326858e-11,-1.7253064460135e-11,-0.0013962521605575,0.0013962521605571,3.9910398411783e-15,-4.5017154168606e-15,-0.0014210561838594,0.0014210561955042,-0.0014210561836942,0.0014210561953334,-0.0014210561954996,0.0014210561838595,-0.0014210561953382,0.0014210561836925,-0.0013691688069446,0.0013691687732648,-0.0013691687732643,0.0013691688069375,0.70017946775184,0.33161180199135,1368840,32768,0.0058008139173414,0.0058008139173414,0.0058008139174665,37.825991499567,37.822117327325,0.00021780793199654,0.00021780793199654,0.00021780793199654,466771.18768218,0.017554937232974
11318400,0.99226644901679,0.016796096741716,0.0055986989138666,0.0055986989138666,0.0055986989139832,-0.0013968513406942,0.0013968513402058,-1.7759240790914e-11,1.7272225521837e-11,3.5239949914308e-13,-8.4964224989484e-13,-0.0014215935194158,0.0014215935078009,-0.0014215935078826,0.0014215935193341,-0.0014215935198792,0.0014215935072235,-0.0014215935081131,0.0014215935189896,-0.0013698250322036,0.0013698249973962,-0.0013698249982865,0.0013698250313132,4.8769804233605e-14,1.2709380781259e-12,6.9146707468492e-13,6.9999090987584e-13,-0.0013968513399074,0.0013968513409925,-0.0014215935131878,0.0014215935139379,-0.001421593513099,0.0014215935140876,-0.001421593512699,0.0014215935144946,-0.0014215935127822,0.0014215935143506,-0.001369825013983,0.0013698250155596,-0.0013698250139548,0.0013698250154644,-0.001369825014721,0.0013698250147332,-0.0013698250136581,0.0013698250157545,1.7252639678995e-11,-1.7253089393197e-11,-0.0013968513404803,0.0013968513404798,3.9906869107836e-15,-4.4998625322885e-15,-0.0014215935079322,0.001421593519577,-0.0014215935077671,0.0014215935194062,-0.0014215935195724,0.0014215935079324,-0.001421593519411,0.0014215935077654,-0.0013698250315215,0.0013698249978418,-0.0013698249978413,0.0013698250315143,0.70048022532836,0.34600422993901,1368840,32768,0.0058032960870891,0.0058032960870891,0.0058032960872139,37.737311735343,37.731315367918,0.00021709849388274,0.00021709849388274,0.00021709849388274,458506.9530897,0.017562514504386
11404800,0.99271183746167,0.016802922645321,0.0056009742150682,0.0056009742150682,0.0056009742151847,-0.0013972878151646,0.0013972878146768,-1.7758928638685e-11,1.7272609774804e-11,3.5220763735727e-13,-8.4874165976019e-13,-0.0014220268861982,0.0014220268745835,-0.0014220268746649,0.0014220268861168,-0.0014220268866613,0.0014220268740064,-0.001422026874895,0.0014220268857727,-0.0013702644937369,0.0013702644589306,-0.0013702644598198,0.0013702644928477,4.9187467944853e-14,1.270256848937e-12,6.9136271757884e-13,6.9988500134657e-13,-0.0013972878143783,0.0013972878154631,-0.0014220268799703,0.0014220268807205,-0.0014220268798813,0.0014220268808702,-0.0014220268794816,0.0014220268812768,-0.001422026879565,0.0014220268811329,-0.0013702644755172,0.0013702644770932,-0.001370264475489,0.0013702644769979,-0.0013702644762545,0.0013702644762674,-0.0013702644751926,0.0013702644772876,1.7252666795813e-11,-1.7253116046795e-11,-0.001397287814951,0.0013972878149506,3.9901133988922e-15,-4.4988625628368e-15,-0.0014220268747147,0.0014220268863594,-0.0014220268745496,0.0014220268861886,-0.0014220268863548,0.0014220268747149,-0.0014220268861935,0.0014220268745479,-0.0013702644930553,0.0013702644593756,-0.0013702644593751,0.0013702644930481,0.70057436786455,0.35610410304841,1368840,32768,0.0058051041585343,0.0058051041585343,0.005805104158659,37.646709407651,37.640513408512,0.00021637367526121,0.00021637367526121,0.00021637367526121,454212.66916215,0.017568034266116
11491200,0.99312968592788,0.016809328146663,0.0056031093821821,0.0056031093821821,0.0056031093822986,-0.0013976685078826,0.0013976685073954,-1.7758712233531e-11,1.7272886178125e-11,3.5202204008596e-13,-8.4805432781653e-13,-0.0014224132553583,0.0014224132437437,-0.0014224132438249,0.0014224132552771,-0.0014224132558211,0.0014224132431669,-0.0014224132440547,0.0014224132549333,-0.0013706401708813,0.0013706401360756,-0.0013706401369641,0.0013706401699928,4.9497370242257e-14,1.2696897118509e-12,6.9125368965957e-13,6.997742988461e-13,-0.0013976685070967,0.0013976685081813,-0.0014224132491304,0.0014224132498808,-0.0014224132490414,0.0014224132500304,-0.001422413248642,0.0014224132504368,-0.0014224132487254,0.0014224132502928,-0.0013706401526622,0.0013706401542376,-0.001370640152634,0.0013706401541424,-0.0013706401533989,0.0013706401534124,-0.0013706401523379,0.0013706401544317,1.7252691530352e-11,-1.7253141310729e-11,-0.0013976685076693,0.0013976685076688,3.9891428403068e-15,-4.4982743455124e-15,-0.0014224132438749,0.0014224132555196,-0.0014224132437098,0.0014224132553488,-0.001422413255515,0.0014224132438751,-0.0014224132553537,0.0014224132437081,-0.0013706401701999,0.0013706401365203,-0.0013706401365197,0.0013706401701928,0.70071349568603,0.3662039761578,1368840,32768,0.0058066811394675,0.0058066811394675,0.0058066811395922,37.555926082438,37.549711449105,0.00021564740865951,0.00021564740865951,0.00021564740865951,450673.67983905,0.017572848627558
11577600,0.99352179662118,0.01681534095455,0.0056051136514778,0.0056051136514778,0.0056051136515943,-0.0013980180801448,0.0013980180796581,-1.7758510254408e-11,1.7273143905546e-11,3.5187051530317e-13,-8.4743455263259e-13,-0.0014227664021187,0.0014227663905043,-0.0014227663905853,0.0014227664020377,-0.0014227664025813,0.0014227663899277,-0.0014227663908148,0.0014227664016942,-0.0013709867147944,0.0013709866799895,-0.0013709866808772,0.0013709867139067,4.978047924053e-14,1.2691978298187e-12,6.9116781176838e-13,6.9968737503098e-13,-0.0013980180793592,0.0013980180804437,-0.0014227663958909,0.0014227663966413,-0.0014227663958018,0.001422766396791,-0.0014227663954027,0.0014227663971971,-0.0014227663954861,0.0014227663970531,-0.0013709866965759,0.0013709866981509,-0.0013709866965477,0.0013709866980556,-0.0013709866973121,0.0013709866973261,-0.0013709866962518,0.0013709866983447,1.7252714029664e-11,-1.7253163633576e-11,-0.0013980180799318,0.0013980180799313,3.9885693284155e-15,-4.498097880315e-15,-0.0014227663906354,0.0014227664022801,-0.0014227663904703,0.0014227664021093,-0.0014227664022755,0.0014227663906356,-0.0014227664021141,0.0014227663904686,-0.0013709867141134,0.0013709866804337,-0.0013709866804332,0.0013709867141063,0.70089482065724,0.37630384926719,1368840,32768,0.0058081292061841,0.0058081292061841,0.0058081292063088,37.465124529528,37.458909489699,0.00021492099623622,0.00021492099623622,0.00021492099623622,447189.98794919,0.017577269444075
11664000,0.99388984881925,0.016820986898555,0.0056069956328129,0.0056069956328129,0.0056069956329294,-0.0013983385528741,0.0013983385523877,-1.7758320466088e-11,1.7273386015797e-11,3.5174848961921e-13,-8.4687277567684e-13,-0.0014230885228756,0.0014230885112614,-0.0014230885113422,0.0014230885227949,-0.001423088523338,0.001423088510685,-0.0014230885115714,0.0014230885224516,-0.0013713059665605,0.0013713059317562,-0.0013713059326433,0.0013713059656734,5.0042294771657e-14,1.2687717766578e-12,6.9110344241129e-13,6.9962118587654e-13,-0.0013983385520887,0.0013983385531731,-0.0014230885166479,0.0014230885173984,-0.0014230885165587,0.0014230885175481,-0.0014230885161598,0.0014230885179539,-0.0014230885162434,0.00142308851781,-0.0013713059483425,0.001371305949917,-0.0013713059483143,0.0013713059498218,-0.0013713059490783,0.0013713059490927,-0.0013713059480186,0.0013713059501106,1.7252734146697e-11,-1.7253183552086e-11,-0.0013983385526612,0.0013983385526607,3.9878781730592e-15,-4.4972155543283e-15,-0.0014230885113925,0.0014230885230371,-0.0014230885112274,0.0014230885228663,-0.0014230885230325,0.0014230885113926,-0.0014230885228711,0.0014230885112256,-0.0013713059658797,0.0013713059322001,-0.0013713059321995,0.0013713059658726,0.7011159253899,0.38640372237658,1368840,32768,0.0058094567305393,0.0058094567305393,0.0058094567306639,37.374321113379,37.368107530292,0.00021419456890703,0.00021419456890703,0.00021419456890703,443761.21918694,0.017581322269598
11750400,0.99423540719096,0.016826290000027,0.0056087633333036,0.0056087633333036,0.0056087633334201,-0.0013986317856025,0.0013986317851166,-1.7758132898288e-11,1.7273622420339e-11,3.5163931648379e-13,-8.4633208631218e-13,-0.0014233816309167,0.0014233816193026,-0.0014233816193832,0.0014233816308361,-0.0014233816313789,0.0014233816187264,-0.0014233816196122,0.0014233816304931,-0.001371599626773,0.0013715995919693,-0.0013715995928557,0.0013715996258865,5.0297463447017e-14,1.2683731197189e-12,6.9104882827089e-13,6.9956501112205e-13,-0.0013986317848174,0.0013986317859016,-0.001423381624689,0.0014233816254396,-0.0014233816245997,0.0014233816255892,-0.001423381624201,0.0014233816259949,-0.0014233816242847,0.001423381625851,-0.0013715996085555,0.0013715996101296,-0.0013715996085272,0.0013715996100344,-0.0013715996092908,0.0013715996093057,-0.0013715996082318,0.001371599610323,1.7252752116736e-11,-1.7253201294191e-11,-0.0013986317853898,0.0013986317853893,3.9871943704195e-15,-4.495862654482e-15,-0.0014233816194336,0.0014233816310782,-0.0014233816192685,0.0014233816309074,-0.0014233816310736,0.0014233816194338,-0.0014233816309122,0.0014233816192668,-0.0013715996260925,0.0013715995924128,-0.0013715995924123,0.0013715996260854,0.70137469673926,0.39650359548597,1368840,32768,0.0058106714157685,0.0058106714157684,0.0058106714158931,37.283517508431,37.277305570885,0.00021346814006745,0.00021346814006745,0.00021346814006745,440386.56527787,0.017585030617583
11836800,0.99455992984323,0.016831276078012,0.0056104253592987,0.0056104253592987,0.0056104253594152,-0.0013988998170351,0.0013988998165495,-1.7757964168149e-11,1.7273836913787e-11,3.515672010398e-13,-8.4587083569719e-13,-0.0014236478003324,0.0014236477887185,-0.0014236477887989,0.0014236478002521,-0.0014236478007945,0.0014236477881424,-0.0014236477890277,0.0014236477999093,-0.0013718697702663,0.0013718697354631,-0.001371869736349,0.0013718697693804,5.0520809565123e-14,1.2680587028535e-12,6.9101919130863e-13,6.9953407089078e-13,-0.0013988998162502,0.0013988998173344,-0.0014236477941048,0.0014236477948556,-0.0014236477940154,0.0014236477950051,-0.0014236477936169,0.0014236477954106,-0.0014236477937006,0.0014236477952667,-0.0013718697520491,0.001371869753623,-0.0013718697520209,0.0013718697535278,-0.0013718697527841,0.0013718697527993,-0.0013718697517256,0.0013718697538161,1.7252768233891e-11,-1.7253216712837e-11,-0.0013988998168226,0.0013988998168221,3.9866576221109e-15,-4.4951273828264e-15,-0.0014236477888495,0.001423647800494,-0.0014236477886844,0.0014236478003232,-0.0014236478004894,0.0014236477888496,-0.0014236478003281,0.0014236477886826,-0.001371869769586,0.0013718697359063,-0.0013718697359058,0.0013718697695789,0.70215792643868,0.41440432049797,1368840,32768,0.0058117817080693,0.0058117817080693,0.0058117817081938,37.192713904662,37.186503611479,0.0002127417112373,0.0002127417112373,0.0002127417112373,437059.18054586,0.017588420267108
11923200,0.99486477582241,0.016835973641739,0.0056119912138741,0.0056119912138741,0.0056119912139906,-0.0013991828592451,0.0013991828587601,-1.7757694396978e-11,1.727416231561e-11,3.5161327316174e-13,-8.4531294097578e-13,-0.0014239081022873,0.0014239080906738,-0.0014239080907537,0.0014239081022074,-0.0014239081027492,0.0014239080900978,-0.0014239080909822,0.0014239081018648,-0.0013721742301901,0.0013721741953876,-0.0013721741962728,0.001372174229305,5.0825182619676e-14,1.2678431138514e-12,6.9108855683662e-13,6.99601407069e-13,-0.0013991828584605,0.0013991828595447,-0.0014239080960597,0.0014239080968108,-0.0014239080959702,0.0014239080969604,-0.0014239080955719,0.0014239080973657,-0.0014239080956557,0.0014239080972218,-0.0013721742119734,0.0013721742135472,-0.0013721742119451,0.0013721742134519,-0.0013721742127081,0.0013721742127237,-0.00137217421165,0.00137217421374,1.7252781174672e-11,-1.7253229381568e-11,-0.0013991828590328,0.0013991828590324,3.9860914629361e-15,-4.4939215373112e-15,-0.0014239080908046,0.001423908102449,-0.0014239080906395,0.0014239081022783,-0.0014239081024444,0.0014239080908047,-0.0014239081022831,0.0014239080906378,-0.0013721742295101,0.0013721741958304,-0.0013721741958299,0.0013721742295029,0.70419385365339,0.45157405799106,1368840,32768,0.0058129542144748,0.0058129542144748,0.0058129542145992,37.101910353739,37.095701652072,0.00021201528282991,0.00021201528282991,0.00021201528282991,432598.6290903,0.017591999731492
12009600,0.99515155152131,0.016840406579004,0.0056134688596291,0.0056134688596291,0.0056134688597456,-0.0013995783077074,0.0013995783072236,-1.7757192691717e-11,1.7274754797511e-11,3.5194291015038e-13,-8.4453531767282e-13,-0.0014242332179092,0.0014242332062965,-0.0014242332063754,0.0014242332178302,-0.001424233218371,0.0014242332057204,-0.0014242332066036,0.0014242332174878,-0.0013726344906801,0.001372634455879,-0.0013726344567629,0.0013726344897963,5.1315491170498e-14,1.2678677711864e-12,6.9139239314286e-13,6.9990419193678e-13,-0.0013995783069231,0.0013995783080079,-0.0014242332116816,0.0014242332124336,-0.0014242332115919,0.0014242332125831,-0.0014242332111936,0.0014242332129882,-0.0014242332112778,0.0014242332128444,-0.001372634472464,0.001372634474038,-0.0013726344724356,0.0013726344739426,-0.0013726344731983,0.0013726344732147,-0.0013726344721406,0.0013726344742305,1.725279299784e-11,-1.7253240506228e-11,-0.0013995783074957,0.0013995783074952,3.9857826488407e-15,-4.4926568700636e-15,-0.0014242332064269,0.0014242332180713,-0.0014242332062618,0.0014242332179005,-0.0014242332180667,0.001424233206427,-0.0014242332179054,0.0014242332062601,-0.0013726344900004,0.001372634456321,-0.0013726344563204,0.0013726344899933,0.7063574014523,0.48874379548415,1368840,32768,0.0058145924336764,0.0058145924336764,0.0058145924338007,37.03343927965,37.028705240894,0.0002114675142372,0.0002114675142372,0.0002114675142372,425402.48065122,0.017597000675467
12096000,0.99542164905447,0.016844595627379,0.0056148652090877,0.0056148652090876,0.0056148652092042,-0.0013999867723815,0.0013999867718987,-1.7756710132929e-11,1.7275329897589e-11,3.5228344386496e-13,-8.4380557526006e-13,-0.0014245716694871,0.0014245716578751,-0.0014245716579532,0.0014245716694091,-0.0014245716699488,0.001424571657299,-0.001424571658181,0.0014245716690668,-0.0013731072712014,0.0013731072364015,-0.0013731072372842,0.0013731072703187,5.1789770799228e-14,1.267935912487e-12,6.9170714455683e-13,7.002176088327e-13,-0.0013999867715974,0.0013999867726828,-0.0014245716632596,0.0014245716640123,-0.0014245716631695,0.0014245716641617,-0.0014245716627714,0.0014245716645667,-0.0014245716628558,0.001424571664423,-0.0013731072529858,0.00137310725456,-0.0013731072529573,0.0013731072544646,-0.0013731072537197,0.0013731072537368,-0.0013731072526623,0.0013731072547522,1.7252805703334e-11,-1.7253252998493e-11,-0.0013999867721703,0.0013999867721698,3.9852385478156e-15,-4.4920098310066e-15,-0.0014245716580052,0.0014245716696495,-0.0014245716578401,0.0014245716694788,-0.0014245716696449,0.0014245716580054,-0.0014245716694836,0.0014245716578384,-0.0013731072705221,0.0013731072368427,-0.0013731072368422,0.001373107270515,0.70864325054545,0.52591353297724,1368840,32768,0.0058162845701874,0.0058162845701874,0.0058162845703115,36.983789353941,36.980347930741,0.00021107031483153,0.00021107031483153,0.00021107031483153,418381.36991548,0.017602166235568
12182400,0.99567608814117,0.016848555636467,0.0056161852121169,0.0056161852121169,0.0056161852122334,-0.0014003752641508,0.0014003752636691,-1.7755019831626e-11,1.7274705063736e-11,3.5260086063868e-13,-8.4304453968565e-13,-0.0014248910476538,0.0014248910360437,-0.0014248910361208,0.0014248910475767,-0.0014248910481152,0.0014248910354686,-0.0014248910363494,0.0014248910472344,-0.0013735591196048,0.0013735590848087,-0.0013735590856902,0.0013735591187233,5.2918412790579e-14,1.2685905910165e-12,6.9274225264088e-13,7.0125148901308e-13,-0.0014003752633665,0.0014003752644534,-0.0014248910414263,0.0014248910421809,-0.0014248910413371,0.0014248910423301,-0.0014248910409392,0.0014248910427349,-0.0014248910410227,0.0014248910425914,-0.0013735591013901,0.0013735591029658,-0.0013735591013616,0.0013735591028709,-0.0013735591021246,0.001373559102144,-0.0013735591010679,0.0013735591031588,1.7251987845966e-11,-1.7252432788256e-11,-0.0014003752639407,0.0014003752639403,3.9855032456116e-15,-4.4905392876954e-15,-0.0014248910361727,0.0014248910478163,-0.0014248910360084,0.0014248910476463,-0.0014248910478117,0.0014248910361729,-0.0014248910476512,0.0014248910360066,-0.0013735591189283,0.0013735590852502,-0.0013735590852497,0.0013735591189212,0.71105277290103,0.56308327047033,1368840,32768,0.0058178939652259,0.0058178939652259,0.0058178939653526,36.935309354634,36.931990620589,0.00021068247483707,0.00021068247483707,0.00021068247483707,411544.45038374,0.017607079225704
12268800,0.99591580927147,0.01685229853847,0.0056174328461178,0.0056174328461178,0.0056174328462343,-0.001400742735165,0.0014007427346841,-1.7758538856475e-11,1.727909157679e-11,3.5306708169007e-13,-8.4263393458229e-13,-0.0014251900041793,0.0014251899925664,-0.0014251899926426,0.0014251900041031,-0.0014251900046412,0.0014251899919878,-0.0014251899928678,0.0014251900037612,-0.0013739890643337,0.0013739890295302,-0.0013739890304108,0.0013739890634531,5.1411164718325e-14,1.2671605464681e-12,6.910178016452e-13,6.9952543880155e-13,-0.001400742734382,0.0014007427354671,-0.0014251899979515,0.0014251899987041,-0.0014251899978586,0.0014251899988536,-0.0014251899974606,0.0014251899992585,-0.0014251899975479,0.0014251899991146,-0.0013739890461176,0.0013739890476902,-0.0013739890460888,0.0013739890475934,-0.0013739890468493,0.0013739890468643,-0.0013739890457914,0.0013739890478796,1.7254835200158e-11,-1.7255281017421e-11,-0.0014007427349534,0.0014007427349529,3.9846429777746e-15,-4.4903628224981e-15,-0.0014251899926971,0.0014251900043428,-0.0014251899925306,0.0014251900041706,-0.0014251900043382,0.0014251899926973,-0.0014251900041755,0.0014251899925289,-0.00137398906365,0.001373989029968,-0.0013739890299675,0.0013739890636429,0.71326270196245,0.59448294252411,1368840,32768,0.005819416278693,0.005819416278693,0.0058194162788117,36.886939340378,36.883633310436,0.00021029551472302,0.00021029551472302,0.00021029551472302,404878.28751613,0.017611726390709
12355200,0.99614169355626,0.016855815640023,0.0056186052133021,0.0056186052133021,0.0056186052134186,-0.0014010649444422,0.001401064943962,-1.7761227465516e-11,1.7282498502122e-11,3.5346751063371e-13,-8.4230917979745e-13,-0.0014254564618158,0.0014254564502015,-0.001425456450277,0.0014254564617403,-0.0014254564622777,0.0014254564496227,-0.001425456450502,0.0014254564613984,-0.0013743610673748,0.0013743610325661,-0.0013743610334461,0.0013743610664949,5.1687303341304e-14,1.2674984184992e-12,6.9134991098478e-13,6.9985698749649e-13,-0.0014010649436592,0.001401064944745,-0.001425456455587,0.0014254564563402,-0.0014254564554938,0.0014254564564897,-0.0014254564550958,0.0014254564568946,-0.0014254564551833,0.0014254564567508,-0.0013743610491559,0.001374361050729,-0.001374361049127,0.0013743610506322,-0.0013743610498876,0.0013743610499029,-0.0013743610488295,0.0013743610509183,1.7257848990442e-11,-1.7258295770911e-11,-0.0014010649442309,0.0014010649442304,3.9839665278514e-15,-4.4900981247021e-15,-0.0014254564503319,0.0014254564619795,-0.0014254564501654,0.0014254564618074,-0.0014254564619749,0.0014254564503321,-0.0014254564618122,0.0014254564501637,-0.0013743610666912,0.0013743610330034,-0.0013743610330029,0.0013743610666841,0.71122383788617,0.5528617812204,1368840,32768,0.0058207510698264,0.0058207510698264,0.005820751069945,36.838580236748,36.835276000283,0.00020990864189398,0.00020990864189398,0.00020990864189398,399097.1627793,0.017615801181252
12441600,0.99635456775318,0.016859081864515,0.0056196939547997,0.0056196939547997,0.0056196939549162,-0.0014010662068689,0.0014010662063878,-1.7762107541572e-11,1.728239350533e-11,3.5293835032861e-13,-8.427663717129e-13,-0.0014255517066257,0.0014255516950106,-0.0014255516950871,0.0014255517065491,-0.0014255517070874,0.0014255516944334,-0.0014255516953136,0.0014255517062072,-0.0013742735686875,0.0013742735338771,-0.0013742735347579,0.0013742735678065,5.2050204019643e-14,1.2677893397589e-12,6.9175000905618e-13,7.0023871112922e-13,-0.0014010662060854,0.0014010662071713,-0.0014255517003963,0.0014255517011498,-0.0014255517003048,0.0014255517012991,-0.0014255516999069,0.001425551701704,-0.0014255516999928,0.0014255517015603,-0.0013742735504669,0.0013742735520409,-0.0013742735504384,0.001374273551945,-0.0013742735511998,0.0013742735512166,-0.0013742735501424,0.0013742735522318,1.7258619143385e-11,-1.725905043168e-11,-0.0014010662066579,0.0014010662066575,3.9695993197009e-15,-4.4870982163472e-15,-0.0014255516951406,0.0014255517067887,-0.001425551694975,0.0014255517066174,-0.0014255517067841,0.0014255516951408,-0.0014255517066222,0.0014255516949733,-0.0013742735680065,0.0013742735343165,-0.0013742735343159,0.0013742735679994,0.70080292197202,0.38766121643206,1368840,32768,0.0058207561059697,0.0058207561059697,0.0058207561060914,36.790222089668,36.78691869013,0.00020952177671735,0.00020952177671735,0.00020952177671735,402364.947606,0.017615817285202
12528000,0.99655520779024,0.016862173044161,0.005620724348015,0.005620724348015,0.0056207243481315,-0.0014004734163142,0.0014004734158289,-1.7764049144022e-11,1.7280123015868e-11,3.506591258397e-13,-8.447512816635e-13,-0.0014253436760702,0.0014253436644518,-0.0014253436645326,0.0014253436759894,-0.0014253436765317,0.0014253436638765,-0.0014253436647609,0.0014253436756473,-0.0013733302393148,0.0013733302045001,-0.0013733302053851,0.0013733302384298,5.0921297330497e-14,1.2664382486808e-12,6.903966662087e-13,6.9888507601125e-13,-0.0014004734155301,0.001400473416613,-0.0014253436698407,0.0014253436705908,-0.0014253436697514,0.0014253436707403,-0.0014253436693535,0.0014253436711451,-0.0014253436694372,0.0014253436710013,-0.0013733302210927,0.0013733302226649,-0.0013733302210647,0.0013733302225697,-0.0013733302218265,0.0013733302218427,-0.00137333022077,0.0013733302228575,1.725894663338e-11,-1.725938751697e-11,-0.0014004734161018,0.0014004734161014,3.9774887845655e-15,-4.4780690804164e-15,-0.001425343664583,0.0014253436762314,-0.001425343664418,0.0014253436760608,-0.0014253436762268,0.0014253436645832,-0.0014253436760656,0.0014253436644163,-0.001373330238635,0.0013733302049431,-0.0013733302049426,0.0013733302386279,0.70372109642996,0.44416568327059,1368840,32768,0.0058182999070136,0.0058182999070137,0.0058182999071383,36.741864330963,36.738561379977,0.0002091349146477,0.0002091349146477,0.0002091349146477,423325.66558221,0.017608320970429
12614400,0.99674434195917,0.016865057183309,0.0056216857277309,0.0056216857277309,0.0056216857278474,-0.0014008683482144,0.0014008683477306,-1.7760954679732e-11,1.7278580327702e-11,3.5125168126695e-13,-8.4377375270281e-13,-0.0014256225926879,0.0014256225810729,-0.0014256225811524,0.0014256225926085,-0.0014256225931488,0.0014256225805001,-0.0014256225813828,0.0014256225922662,-0.0013738313002472,0.0013738312654395,-0.0013738312663229,0.0013738312993638,5.3018086216212e-14,1.268092271681e-12,6.9258073000175e-13,7.0107359738872e-13,-0.0014008683474295,0.0014008683485154,-0.0014256225864583,0.001425622587212,-0.0014256225863713,0.0014256225873612,-0.0014256225859736,0.0014256225877658,-0.001425622586055,0.0014256225876223,-0.0013738312820265,0.0013738312836019,-0.0013738312819983,0.0013738312835081,-0.0013738312827619,0.0013738312827827,-0.0013738312817065,0.0013738312837968,1.7257439091199e-11,-1.7257880496832e-11,-0.0014008683480042,0.0014008683480038,3.9787975681125e-15,-4.4807160583766e-15,-0.0014256225812021,0.0014256225928493,-0.0014256225810387,0.0014256225926802,-0.0014256225928447,0.0014256225812023,-0.0014256225926851,0.001425622581037,-0.0013738312995736,0.0013738312658837,-0.0013738312658832,0.0013738312995666,0.69674658103867,0.34134742341345,1368840,32768,0.0058199360610985,0.0058199360610985,0.0058199360612291,36.693506434947,36.690204069824,0.00020874805147957,0.00020874805147957,0.00020874805147957,414084.23748544,0.017613315380404
12700800,0.99692265399003,0.016867779895655,0.0056225932985129,0.0056225932985129,0.0056225932986295,-0.0014004905377653,0.0014004905372788,-1.776269452364e-11,1.7277532595004e-11,3.4971909573345e-13,-8.4505568412892e-13,-0.0014255084978498,0.0014255084862314,-0.0014255084863137,0.0014255084977675,-0.001425508498311,0.0014255084856568,-0.0014255084865421,0.0014255084974257,-0.001373214102027,0.0013732140672148,-0.0013732140681009,0.0013732141011409,5.0507427620991e-14,1.2654137285086e-12,6.8963168038731e-13,6.9812355515754e-13,-0.0014004905369814,0.0014004905380627,-0.001425508491621,0.0014255084923696,-0.0014255084915321,0.0014255084925192,-0.0014255084911345,0.0014255084929238,-0.0014255084912177,0.0014255084927799,-0.0013732140838068,0.0013732140853776,-0.001373214083779,0.0013732140852826,-0.0013732140845404,0.0013732140845562,-0.0013732140834846,0.0013732140855703,1.725703916224e-11,-1.7257478832632e-11,-0.0014004905375524,0.0014004905375519,3.9797681266979e-15,-4.479069049868e-15,-0.0014255084863632,0.0014255084980104,-0.0014255084861982,0.0014255084978398,-0.0014255084980058,0.0014255084863634,-0.0014255084978446,0.0014255084861965,-0.0013732141013471,0.0013732140676587,-0.0013732140676581,0.00137321410134,0.69757501289788,0.36632788116199,1368840,32768,0.0058183706118086,0.0058183706118086,0.0058183706119334,36.645148651214,36.641846759671,0.00020836118920971,0.00020836118920971,0.00020836118920971,427909.57684296,0.017608537676505
12787200,0.9970898854903,0.016870332601592,0.0056234442004917,0.0056234442004917,0.0056234442006082,-0.0014005190259716,0.0014005190254857,-1.7762384606637e-11,1.727786352607e-11,3.4995433854694e-13,-8.4464178500855e-13,-0.0014254950283456,0.0014254950167277,-0.0014254950168094,0.0014254950282639,-0.0014254950288068,0.001425495016153,-0.0014254950170377,0.0014254950279221,-0.0013732828753601,0.0013732828405488,-0.0013732828414341,0.0013732828744748,5.0764360948325e-14,1.2654805573494e-12,6.8983040409585e-13,6.9832224026432e-13,-0.0014005190251877,0.0014005190262695,-0.0014254950221168,0.001425495022866,-0.0014254950220278,0.0014254950230156,-0.0014254950216302,0.0014254950234201,-0.0014254950217136,0.0014254950232762,-0.0013732828571402,0.0013732828587112,-0.0013732828571124,0.0013732828586162,-0.0013732828578737,0.0013732828578898,-0.001373282856818,0.0013732828589038,1.725703169188e-11,-1.7257474001898e-11,-0.0014005190257589,0.0014005190257585,3.9787755099628e-15,-4.4804513605806e-15,-0.0014254950168593,0.0014254950285064,-0.0014254950166943,0.0014254950283358,-0.0014254950285018,0.0014254950168595,-0.0014254950283406,0.0014254950166926,-0.0013732828746804,0.0013732828409921,-0.0013732828409916,0.0013732828746733,0.6974700472108,0.37449136351002,1368840,32768,0.0058184886782259,0.0058184886782259,0.0058184886783507,36.495977530681,36.486035919083,0.00020716782024545,0.00020716782024545,0.00020716782024545,423173.08141744,0.017608897972249
12873600,0.99724613877486,0.016872717799015,0.0056242392662994,0.0056242392662994,0.005624239266416,-0.0014003009871795,0.0014003009866937,-1.7762281448024e-11,1.727793652384e-11,3.499726615166e-13,-8.4448020170951e-13,-0.0014252745735643,0.0014252745619466,-0.0014252745620281,0.0014252745734828,-0.0014252745740255,0.0014252745613719,-0.0014252745622563,0.0014252745731411,-0.0013730688711914,0.0013730688363804,-0.0013730688372655,0.0013730688703063,5.0836505803173e-14,1.2654063206467e-12,6.8984430808286e-13,6.9833635748011e-13,-0.0014003009863957,0.0014003009874775,-0.0014252745673356,0.0014252745680848,-0.0014252745672465,0.0014252745682344,-0.0014252745668489,0.0014252745686389,-0.0014252745669324,0.001425274568495,-0.0013730688529717,0.0013730688545426,-0.0013730688529438,0.0013730688544476,-0.0013730688537051,0.0013730688537212,-0.0013730688526496,0.0013730688547351,1.7257015015919e-11,-1.7257457664161e-11,-0.0014003009869669,0.0014003009869665,3.9781211181894e-15,-4.480510182313e-15,-0.0014252745620781,0.0014252745737252,-0.0014252745619131,0.0014252745735546,-0.0014252745737206,0.0014252745620783,-0.0014252745735594,0.0014252745619114,-0.0013730688705118,0.0013730688368236,-0.0013730688368231,0.0013730688705047,0.69742426666134,0.38265484585804,1368840,32768,0.0058175854509913,0.0058175854509913,0.0058175854511159,36.268522704074,36.25320763594,0.00020534818163259,0.00020534818163259,0.00020534818163259,420937.42934787,0.017606140634093
12960000,0.99739219184785,0.016874947384108,0.0056249824613304,0.0056249824613304,0.005624982461447,-0.001400061961073,0.0014000619605874,-1.7762176348293e-11,1.7278009580432e-11,3.4999949893203e-13,-8.4432620641396e-13,-0.0014250298328386,0.001425029821221,-0.0014250298213024,0.0014250298327571,-0.0014250298332997,0.0014250298206463,-0.0014250298215305,0.0014250298324155,-0.0013728363660574,0.0013728363312466,-0.0013728363321315,0.0013728363651725,5.0910591775191e-14,1.2653490760719e-12,6.8986668056116e-13,6.9835810681568e-13,-0.0014000619602893,0.0014000619613711,-0.0014250298266099,0.0014250298273592,-0.0014250298265207,0.0014250298275088,-0.0014250298261232,0.0014250298279132,-0.0014250298262067,0.0014250298277693,-0.0013728363478379,0.0013728363494087,-0.00137283634781,0.0013728363493137,-0.0013728363485712,0.0013728363485874,-0.0013728363475157,0.0013728363496011,1.7256996663539e-11,-1.7257439885293e-11,-0.0014000619608605,0.00140006196086,3.9776358388967e-15,-4.4808042909752e-15,-0.0014250298213524,0.0014250298329995,-0.0014250298211875,0.0014250298328289,-0.0014250298329949,0.0014250298213526,-0.0014250298328337,0.0014250298211857,-0.0013728363653779,0.0013728363316897,-0.0013728363316892,0.0013728363653708,0.69743141637535,0.39081832820607,1368840,32768,0.0058165952883768,0.0058165952883768,0.0058165952885014,36.036192288143,36.020379352797,0.00020348953830514,0.00020348953830514,0.00020348953830514,418651.56171504,0.017603117877272
13046400,0.99752879752746,0.016877032974382,0.0056256776580886,0.0056256776580886,0.0056256776582051,-0.0013998111108422,0.0013998111103568,-1.7762071219152e-11,1.7278081372357e-11,3.5003383611834e-13,-8.4417968147843e-13,-0.0014247719577491,0.0014247719461316,-0.0014247719462129,0.0014247719576678,-0.0014247719582102,0.0014247719455569,-0.0014247719464409,0.0014247719573262,-0.0013725931085381,0.0013725930737276,-0.0013725930746122,0.0013725931076534,5.0984618925477e-14,1.2653081618807e-12,6.8989641678509e-13,6.9838744415474e-13,-0.0013998111100586,0.0013998111111404,-0.0014247719515204,0.0014247719522698,-0.0014247719514312,0.0014247719524194,-0.0014247719510337,0.0014247719528238,-0.0014247719511173,0.0014247719526799,-0.0013725930903187,0.0013725930918895,-0.0013725930902908,0.0013725930917945,-0.0013725930910519,0.0013725930910682,-0.0013725930899965,0.0013725930920818,1.7256976546506e-11,-1.725742060647e-11,-0.0013998111106298,0.0013998111106293,3.9772314394861e-15,-4.4810689887713e-15,-0.001424771946263,0.00142477195791,-0.001424771946098,0.0014247719577394,-0.0014247719579054,0.0014247719462632,-0.0014247719577442,0.0014247719460963,-0.0013725931078586,0.0013725930741705,-0.00137259307417,0.0013725931078515,0.69748633131958,0.39898181055409,1368840,32768,0.0058155561444498,0.0058155561444498,0.0058155561445744,35.803404044568,35.787551069655,0.00020162723235655,0.00020162723235655,0.00020162723235655,416365.44089289,0.017599945592057
13132800,0.99765665042766,0.01687898526557,0.0056263284218177,0.0056263284218177,0.0056263284219342,-0.0013995499491107,0.0013995499486255,-1.7761965604731e-11,1.7278152899583e-11,3.5007446723003e-13,-8.4404042102686e-13,-0.0014245027972141,0.0014245027855967,-0.0014245027856779,0.0014245027971329,-0.0014245027976752,0.001424502785022,-0.0014245027859058,0.0014245027967914,-0.0013723403437196,0.0013723403089093,-0.0013723403097938,0.0013723403428351,5.1058999006158e-14,1.2652808355096e-12,6.8993215834027e-13,6.9842285483767e-13,-0.0013995499483272,0.0013995499494091,-0.0014245027909854,0.001424502791735,-0.0014245027908961,0.0014245027918845,-0.0014245027904987,0.0014245027922889,-0.0014245027905823,0.001424502792145,-0.0013723403255003,0.0013723403270711,-0.0013723403254723,0.0013723403269761,-0.0013723403262334,0.0013723403262498,-0.0013723403251782,0.0013723403272634,1.7256956017722e-11,-1.7257400386499e-11,-0.0013995499488984,0.0013995499488979,3.9767093966106e-15,-4.4811572213699e-15,-0.0014245027857281,0.0014245027973751,-0.0014245027855631,0.0014245027972045,-0.0014245027973705,0.0014245027857282,-0.0014245027972093,0.0014245027855614,-0.0013723403430401,0.0013723403093521,-0.0013723403093516,0.001372340343033,0.69758471037857,0.40714529290212,1368840,32768,0.0058144742847069,0.0058144742847069,0.0058144742848314,35.570569873497,35.554722786512,0.00019976455898798,0.00019976455898798,0.00019976455898798,414087.22734172,0.017596642909355
13219200,0.99777638905482,0.016880814067875,0.005626938022586,0.005626938022586,0.0056269380227026,-0.0013992792410777,0.0013992792405927,-1.7761859107985e-11,1.7278225073849e-11,3.5012220106591e-13,-8.4390671922901e-13,-0.0014242232496086,0.0014242232379914,-0.0014242232380724,0.0014242232495276,-0.0014242232500697,0.0014242232374167,-0.0014242232383003,0.0014242232491861,-0.0013720787115126,0.0013720786767026,-0.0013720786775869,0.0013720787106283,5.1132526171718e-14,1.2652646521804e-12,6.899723096872e-13,6.9846278008857e-13,-0.0013992792402942,0.0013992792413762,-0.00142422324338,0.0014242232441297,-0.0014242232432907,0.0014242232442792,-0.0014242232428932,0.0014242232446835,-0.001424223242977,0.0014242232445397,-0.0013720786932935,0.0013720786948643,-0.0013720786932655,0.0013720786947692,-0.0013720786940265,0.001372078694043,-0.0013720786929713,0.0013720786950565,1.725693490072e-11,-1.725737789454e-11,-0.0013992792408654,0.001399279240865,3.9771873231867e-15,-4.4803631279819e-15,-0.0014242232381227,0.0014242232497697,-0.0014242232379578,0.0014242232495991,-0.0014242232497651,0.0014242232381229,-0.0014242232496039,0.001424223237956,-0.0013720787108332,0.0013720786771453,-0.0013720786771447,0.0013720787108261,0.6977229370166,0.41530877525015,1368840,32768,0.0058133528788063,0.0058133528788063,0.0058133528789309,35.337731026921,35.32189450337,0.00019790184821537,0.00019790184821537,0.00019790184821537,411819.93463541,0.017593219507061
13305600,0.99788860045993,0.016882526290951,0.0056275087636116,0.0056275087636116,0.0056275087637282,-0.0013989994534041,0.0013989994529192,-1.7761749184872e-11,1.7278298689247e-11,3.5017031724306e-13,-8.4376895873161e-13,-0.0014239339413194,0.0014239339297023,-0.0014239339297831,0.0014239339412385,-0.0014239339417804,0.0014239339291276,-0.0014239339300109,0.0014239339408971,-0.0013718084766102,0.0013718084418005,-0.0013718084426845,0.0013718084757261,5.1211053184537e-14,1.2652497666058e-12,6.9001468890725e-13,6.9850477880554e-13,-0.0013989994526206,0.0013989994537027,-0.0014239339350907,0.0014239339358405,-0.0014239339350014,0.0014239339359901,-0.001423933934604,0.0014239339363944,-0.0014239339346877,0.0014239339362505,-0.0013718084583912,0.001371808459962,-0.0013718084583632,0.001371808459867,-0.0013718084591242,0.0013718084591408,-0.0013718084580691,0.0013718084601541,1.7256911930833e-11,-1.7257355740805e-11,-0.0013989994531919,0.0013989994531914,3.9769079199576e-15,-4.4804807714468e-15,-0.0014239339298336,0.0014239339414805,-0.0014239339296686,0.0014239339413099,-0.0014239339414759,0.0014239339298337,-0.0014239339413147,0.0014239339296669,-0.0013718084759309,0.001371808442243,-0.0013718084422425,0.0013718084759238,0.69704604182405,0.40983348306016,1368840,32768,0.0058121938592619,0.0058121938592619,0.0058121938593864,35.104891632936,35.089066220227,0.00019603913306348,0.00019603913306348,0.00019603913306348,409568.83155376,0.017589681287992
13392000,0.99799382471144,0.016884128010562,0.0056280426701484,0.0056280426701484,0.0056280426702649,-0.0013986474563486,0.0013986474558636,-1.7761809477148e-11,1.7278179663472e-11,3.5004674748862e-13,-8.4382489819917e-13,-0.0014236037142853,0.0014236037026681,-0.0014236037027491,0.0014236037142043,-0.0014236037147464,0.0014236037020935,-0.001423603702977,0.0014236037138629,-0.001371437359076,0.0013714373242661,-0.0013714373251503,0.0013714373581918,5.1143378781355e-14,1.2651176199075e-12,6.8990952116417e-13,6.9839956143162e-13,-0.0013986474555652,0.001398647456647,-0.0014236037080567,0.0014236037088063,-0.0014236037079674,0.0014236037089559,-0.00142360370757,0.0014236037093601,-0.0014236037076538,0.0014236037092163,-0.001371437340857,0.0013714373424276,-0.001371437340829,0.0013714373423326,-0.00137143734159,0.0013714373416065,-0.0013714373405349,0.0013714373426198,1.7256890843242e-11,-1.7257334895853e-11,-0.0013986474561364,0.0013986474561359,3.9769226253907e-15,-4.4801866627845e-15,-0.0014236037027995,0.0014236037144464,-0.0014236037026345,0.0014236037142758,-0.0014236037144418,0.0014236037027996,-0.0014236037142806,0.0014236037026328,-0.0013714373583966,0.0013714373247088,-0.0013714373247082,0.0013714373583895,0.69533865173509,0.38837101080074,1368840,32768,0.0058107356647063,0.0058107356647063,0.0058107356648308,34.872052103128,34.856237937084,0.00019417641682502,0.00019417641682502,0.00019417641682502,409246.2021269,0.017585229927774
13478400,0.99809255897328,0.016885627056154,0.0056285423520124,0.0056285423520124,0.0056285423521289,-0.0013982110044866,0.001398211004001,-1.7762067366328e-11,1.7277834674011e-11,3.497089931009e-13,-8.4409483112938e-13,-0.0014232270080732,0.0014232269964554,-0.0014232269965371,0.0014232270079915,-0.0014232270085342,0.0014232269958809,-0.0014232269967651,0.0014232270076501,-0.001370947268324,0.0013709472335135,-0.0013709472343983,0.0013709472674392,5.0905591927933e-14,1.2648231987548e-12,6.8961933701439e-13,6.9810932029829e-13,-0.0013982110037031,0.0013982110047844,-0.0014232270018446,0.0014232270025936,-0.0014232270017554,0.0014232270027431,-0.0014232270013581,0.0014232270031474,-0.0014232270014416,0.0014232270030035,-0.0013709472501049,0.0013709472516751,-0.001370947250077,0.0013709472515802,-0.0013709472508379,0.0013709472508541,-0.001370947249783,0.0013709472518674,1.7256872196753e-11,-1.7257314889111e-11,-0.0013982110042741,0.0013982110042736,3.9773123193682e-15,-4.4798925541223e-15,-0.001423226996587,0.0014232270082339,-0.0014232269964221,0.0014232270080633,-0.0014232270082293,0.0014232269965872,-0.0014232270080682,0.0014232269964204,-0.0013709472676445,0.0013709472339566,-0.001370947233956,0.0013709472676374,0.69354142604922,0.36690853854131,1368840,32768,0.0058089275605914,0.0058089275605914,0.005808927560716,34.639212561719,34.623409653942,0.00019231370049375,0.00019231370049375,0.00019231370049375,411249.54181609,0.017579710580732
13564800,0.99818549451974,0.01688703560874,0.005629011869541,0.005629011869541,0.0056290118696575,-0.0013978535551043,0.001397853554618,-1.7762340607981e-11,1.7277483949431e-11,3.493653859508e-13,-8.4438041064041e-13,-0.0014229296280442,0.001422929616426,-0.0014229296165083,0.0014229296279619,-0.0014229296285052,0.0014229296158517,-0.0014229296167364,0.0014229296276205,-0.0013705358695152,0.0013705358347041,-0.0013705358355895,0.0013705358686298,5.0656158371486e-14,1.2645261820931e-12,6.8932344164203e-13,6.9781304993738e-13,-0.0013978535543208,0.0013978535554015,-0.0014229296218157,0.001422929622564,-0.0014229296217267,0.0014229296227136,-0.0014229296213294,0.0014229296231179,-0.0014229296214127,0.001422929622974,-0.001370535851296,0.0013705358528657,-0.0013705358512682,0.0013705358527708,-0.001370535852029,0.0013705358520449,-0.0013705358509742,0.0013705358530581,1.725685955008e-11,-1.7257302301261e-11,-0.0013978535548914,0.001397853554891,3.9773270248013e-15,-4.4796278563263e-15,-0.0014229296165578,0.0014229296282047,-0.0014229296163929,0.0014229296280342,-0.0014229296282001,0.001422929616558,-0.001422929628039,0.0014229296163912,-0.0013705358688356,0.0013705358351476,-0.001370535835147,0.0013705358688285,0.69236986689499,0.35653166287173,1368840,32768,0.0058074467297415,0.0058074467297415,0.0058074467298662,34.45265608204,34.439893091613,0.00019082124865632,0.00019082124865632,0.00019082124865632,413361.68426631,0.0175751903126
13651200,0.99827317301436,0.016888363900697,0.0056294546335267,0.0056294546335267,0.0056294546336432,-0.0013976049591131,0.0013976049586265,-1.7762485088861e-11,1.7277287573077e-11,3.4916983310128e-13,-8.4452825906492e-13,-0.0014227154770381,0.0014227154654196,-0.0014227154655022,0.0014227154769554,-0.0014227154774991,0.0014227154648453,-0.0014227154657304,0.0014227154766141,-0.0013702569854861,0.0013702569506747,-0.0013702569515604,0.0013702569846004,5.0514574461484e-14,1.2643428531349e-12,6.8915170791779e-13,6.9764124636233e-13,-0.0013976049583296,0.00139760495941,-0.0014227154708096,0.0014227154715576,-0.0014227154707207,0.0014227154717072,-0.0014227154703234,0.0014227154721114,-0.0014227154704067,0.0014227154719675,-0.0013702569672669,0.0013702569688364,-0.0013702569672391,0.0013702569687415,-0.0013702569679999,0.0013702569680157,-0.0013702569669452,0.0013702569690288,1.7256849197456e-11,-1.7257292478031e-11,-0.0013976049589001,0.0013976049588997,3.9767241020437e-15,-4.479980786721e-15,-0.0014227154655515,0.0014227154771985,-0.0014227154653866,0.0014227154770279,-0.0014227154771939,0.0014227154655517,-0.0014227154770327,0.0014227154653849,-0.0013702569848065,0.0013702569511184,-0.0013702569511179,0.0013702569847994,0.69209796181816,0.36076519790321,1368840,32768,0.0058064168653319,0.0058064168653319,0.0058064168654567,34.29917817538,34.288689134044,0.00018959342540304,0.00018959342540304,0.00018959342540304,413962.24533722,0.017572046600527
13737600,0.99835593481107,0.016889617256446,0.0056298724187766,0.0056298724187766,0.0056298724188931,-0.0013974250761617,0.0013974250756752,-1.7762448619387e-11,1.7277297043376e-11,3.4917627408098e-13,-8.4448664268921e-13,-0.0014225350728845,0.001422535061266,-0.0014225350613487,0.0014225350728019,-0.0014225350733455,0.0014225350606918,-0.0014225350615768,0.0014225350724606,-0.0013700789590818,0.0013700789242705,-0.0013700789251561,0.0013700789581962,5.0525309427655e-14,1.2643170450998e-12,6.8915281633981e-13,6.9764165811446e-13,-0.0013974250753783,0.0013974250764586,-0.0014225350666561,0.0014225350674041,-0.0014225350665672,0.0014225350675537,-0.0014225350661699,0.0014225350679579,-0.0014225350662531,0.001422535067814,-0.0013700789408626,0.0013700789424321,-0.0013700789408349,0.0013700789423372,-0.0013700789415956,0.0013700789416114,-0.0013700789405409,0.0013700789426245,1.7256837227233e-11,-1.7257279757832e-11,-0.0013974250759488,0.0013974250759483,3.9768343927921e-15,-4.4792749259316e-15,-0.001422535061398,0.0014225350730449,-0.0014225350612331,0.0014225350728743,-0.0014225350730403,0.0014225350613982,-0.0014225350728792,0.0014225350612314,-0.0013700789584021,0.0013700789247142,-0.0013700789247136,0.001370078958395,0.69185814801471,0.3649987329347,1368840,32768,0.0058056716949304,0.0058056716949304,0.0058056716950551,34.147756046623,34.137485176475,0.00018838204837298,0.00018838204837298,0.00018838204837298,412466.66003493,0.017569771819771
13824000,0.99843408763235,0.016890800475483,0.0056302668251222,0.0056302668251222,0.0056302668252387,-0.0013972404003574,0.0013972403998709,-1.7762410370556e-11,1.7277308131273e-11,3.4918633259723e-13,-8.4444587922863e-13,-0.0014223493338186,0.0014223493222001,-0.0014223493222827,0.001422349333736,-0.0014223493342795,0.0014223493216259,-0.0014223493225108,0.0014223493333946,-0.0013698966120491,0.0013698965772378,-0.0013698965781234,0.0013698966111635,5.0536926719814e-14,1.2642967038094e-12,6.8915603682966e-13,6.9764486389888e-13,-0.0013972403995739,0.0013972404006543,-0.0014223493275901,0.0014223493283381,-0.0014223493275012,0.0014223493284877,-0.0014223493271039,0.0014223493288919,-0.0014223493271872,0.001422349328748,-0.00136989659383,0.0013698965953994,-0.0013698965938022,0.0013698965953045,-0.001369896594563,0.0013698965945787,-0.0013698965935082,0.0013698965955918,1.7256824521739e-11,-1.7257266486178e-11,-0.0013972404001444,0.001397240400144,3.9771285014543e-15,-4.4788631738045e-15,-0.0014223493223321,0.0014223493339789,-0.0014223493221671,0.0014223493338084,-0.0014223493339743,0.0014223493223322,-0.0014223493338132,0.0014223493221654,-0.0013698966113694,0.0013698965776815,-0.0013698965776809,0.0013698966113623,0.69164748332188,0.36923226796619,1368840,32768,0.0058049066692963,0.0058049066692963,0.005804906669421,33.996526055099,33.986281218906,0.00018717220844079,0.00018717220844079,0.00018717220844079,410972.14624966,0.017567436431434
13910400,0.99850791746176,0.016891917969348,0.0056306393230773,0.0056306393230773,0.0056306393231938,-0.0013970508859276,0.0013970508854412,-1.7762370210018e-11,1.7277321072054e-11,3.4919997923916e-13,-8.444054981093e-13,-0.0014221581973139,0.0014221581856955,-0.001422158185778,0.0014221581972313,-0.0014221581977749,0.0014221581851213,-0.0014221581860061,0.00142215819689,-0.0013697098824593,0.0013697098476481,-0.0013697098485337,0.0013697098815737,5.0551396865996e-14,1.2642814910389e-12,6.8916297411773e-13,6.9765133428945e-13,-0.0013970508851442,0.0013970508862246,-0.0014221581910854,0.0014221581918335,-0.0014221581909965,0.0014221581919831,-0.0014221581905992,0.0014221581923873,-0.0014221581906825,0.0014221581922434,-0.0013697098642402,0.0013697098658096,-0.0013697098642124,0.0013697098657147,-0.0013697098649732,0.0013697098649889,-0.0013697098639185,0.001369709866002,1.7256811492725e-11,-1.7257252391021e-11,-0.0013970508857147,0.0013970508857143,3.9771946759033e-15,-4.4783631890786e-15,-0.0014221581858274,0.0014221581974743,-0.0014221581856625,0.0014221581973037,-0.0014221581974697,0.0014221581858276,-0.0014221581973085,0.0014221581856608,-0.0013697098817796,0.0013697098480917,-0.0013697098480912,0.0013697098817725,0.69146350790413,0.37346580299768,1368840,32768,0.0058041215989863,0.0058041215989863,0.005804121599111,33.845315245451,33.835077261337,0.00018596252196361,0.00018596252196361,0.00018596252196361,409478.93657191,0.017565039856542
13996800,0.99857769087201,0.016892973841746,0.0056309912805433,0.0056309912805433,0.0056309912806598,-0.001396856772969,0.0013968567724826,-1.776232953479e-11,1.7277334130478e-11,3.492151405407e-13,-8.4436529345517e-13,-0.0014219619513941,0.0014219619397757,-0.0014219619398582,0.0014219619513116,-0.0014219619518551,0.0014219619392015,-0.0014219619400863,0.0014219619509703,-0.0013695189595264,0.0013695189247153,-0.0013695189256008,0.0013695189586409,5.0566072888242e-14,1.2642707928363e-12,6.8917160253061e-13,6.9765995167325e-13,-0.0013968567721856,0.001396856773266,-0.0014219619451657,0.0014219619459138,-0.0014219619450767,0.0014219619460634,-0.0014219619446794,0.0014219619464676,-0.0014219619447628,0.0014219619463236,-0.0013695189413073,0.0013695189428767,-0.0013695189412795,0.0013695189427819,-0.0013695189420403,0.001369518942056,-0.0013695189409856,0.001369518943069,1.7256796757881e-11,-1.7257238788495e-11,-0.0013968567727561,0.0013968567727557,3.9766064585788e-15,-4.4786278868747e-15,-0.0014219619399077,0.0014219619515545,-0.0014219619397428,0.0014219619513839,-0.0014219619515499,0.0014219619399079,-0.0014219619513888,0.001421961939741,-0.0013695189588467,0.0013695189251588,-0.0013695189251583,0.0013695189588396,0.69130414405119,0.37769933802917,1368840,32768,0.0058033174786097,0.0058033174786097,0.0058033174787344,33.69410638302,33.683873303768,0.00018475285106416,0.00018475285106416,0.00018475285106416,407988.46264317,0.017562585131597
14083200,0.9986436565038,0.01689397070837,0.0056313235694177,0.0056313235694177,0.0056313235695342,-0.0013966582120348,0.0013966582115485,-1.7762287580189e-11,1.7277347335957e-11,3.4923305175823e-13,-8.4432691227475e-13,-0.0014217608303953,0.001421760818777,-0.0014217608188594,0.0014217608303128,-0.0014217608308563,0.0014217608182027,-0.0014217608190875,0.0014217608299716,-0.0013693238849976,0.0013693238501867,-0.0013693238510721,0.0013693238841122,5.0582425329863e-14,1.2642647378742e-12,6.8918340731704e-13,6.9767115721328e-13,-0.0013966582112514,0.0013966582123319,-0.0014217608241669,0.001421760824915,-0.0014217608240779,0.0014217608250646,-0.0014217608236806,0.0014217608254688,-0.001421760823764,0.0014217608253248,-0.0013693238667787,0.001369323868348,-0.0013693238667509,0.0013693238682532,-0.0013693238675116,0.0013693238675273,-0.0013693238664569,0.0013693238685403,1.7256782052448e-11,-1.7257224502167e-11,-0.0013966582118219,0.0013966582118215,3.9765402841298e-15,-4.4785102434098e-15,-0.0014217608189089,0.0014217608305557,-0.001421760818744,0.0014217608303851,-0.0014217608305511,0.0014217608189091,-0.00142176083039,0.0014217608187423,-0.001369323884318,0.0013693238506302,-0.0013693238506296,0.0013693238843109,0.69033353722543,0.36864124454675,1368840,32768,0.0058024949315366,0.0058024949315366,0.0058024949316613,33.542897680592,33.532669346199,0.00018354318144474,0.00018354318144474,0.00018354318144474,406503.90825824,0.017560074161023
14169600,0.99870604636802,0.016894909134379,0.0056316363780876,0.0056316363780876,0.0056316363782041,-0.0013963918629029,0.0013963918624163,-1.776240781181e-11,1.7277176576468e-11,3.4907471835991e-13,-8.4446140816599e-13,-0.0014215233997053,0.0014215233880867,-0.0014215233881695,0.0014215233996225,-0.0014215234001663,0.0014215233875126,-0.0014215233883976,0.0014215233992813,-0.0013690322296145,0.0013690321948032,-0.0013690321956889,0.0013690322287288,5.0461223150153e-14,1.264124054672e-12,6.8904356416268e-13,6.9753120560636e-13,-0.0013963918621195,0.0013963918631996,-0.0014215233934769,0.0014215233942247,-0.001421523393388,0.0014215233943743,-0.0014215233929907,0.0014215233947785,-0.001421523393074,0.0014215233946346,-0.0013690322113955,0.0013690322129646,-0.0013690322113677,0.0013690322128698,-0.0013690322121284,0.001369032212144,-0.0013690322110738,0.001369032213157,1.7256768905791e-11,-1.7257211995196e-11,-0.0013963918626899,0.0013963918626894,3.9757167798755e-15,-4.4785690651422e-15,-0.0014215233882188,0.0014215233998656,-0.0014215233880539,0.001421523399695,-0.001421523399861,0.001421523388219,-0.0014215233996999,0.0014215233880522,-0.0013690322289348,0.0013690321952469,-0.0013690321952464,0.0013690322289277,0.68709731143627,0.32446844578257,1368840,32768,0.0058013915227873,0.0058013915227873,0.005801391522912,33.391688898514,33.38146538863,0.00018233351118811,0.00018233351118811,0.00018233351118811,406934.7948107,0.017556705972256
14256000,0.99876507704224,0.016895792611186,0.0056319308703565,0.0056319308703565,0.005631930870473,-0.0013959478956053,0.0013959478951175,-1.7762971794581e-11,1.7276497950141e-11,3.4843262032851e-13,-8.4507330123779e-13,-0.0014211954221105,0.0014211954104909,-0.0014211954105749,0.0014211954220265,-0.0014211954225715,0.0014211954099171,-0.0014211954108033,0.0014211954216853,-0.0013684838773291,0.0013684838425165,-0.0013684838434034,0.0013684838764421,4.9963944224036e-14,1.2636180002787e-12,6.8849185859044e-13,6.9697850190284e-13,-0.0013959478948219,0.0013959478959009,-0.0014211954158822,0.0014211954166288,-0.0014211954157937,0.0014211954167785,-0.0014211954153964,0.0014211954171827,-0.0014211954154793,0.0014211954170386,-0.0013684838591097,0.0013684838606781,-0.0013684838590821,0.0013684838605834,-0.0013684838598428,0.0013684838598578,-0.0013684838587883,0.0013684838608707,1.7256761876594e-11,-1.7257205090995e-11,-0.0013959478953917,0.0013959478953913,3.9751506207007e-15,-4.4783631890786e-15,-0.0014211954106235,0.0014211954222703,-0.0014211954104586,0.0014211954220998,-0.0014211954222657,0.0014211954106236,-0.0014211954221046,0.0014211954104569,-0.0013684838766491,0.0013684838429611,-0.0013684838429605,0.001368483876642,0.68368225904379,0.28029564701839,1368840,32768,0.005799552201968,0.005799552201968,0.0057995522020929,33.240480116611,33.230261431062,0.00018112384093289,0.00018112384093289,0.00018112384093289,412624.85769912,0.017551091709793
14342400,0.99882057869673,0.016896626176825,0.0056322087255696,0.0056322087255696,0.0056322087256861,-0.0013952534540618,0.0013952534535727,-1.7763543100658e-11,1.7275769795915e-11,3.4776424368813e-13,-8.4571536985833e-13,-0.0014206264924329,0.0014206264808122,-0.0014206264808975,0.0014206264923476,-0.0014206264928939,0.0014206264802387,-0.0014206264811263,0.0014206264920063,-0.0013676778287745,0.0013676777939606,-0.0013676777948488,0.0013676778278863,4.943557801232e-14,1.2630866856276e-12,6.8791281561804e-13,6.9639884314043e-13,-0.0013952534532783,0.0013952534543562,-0.0014206264862046,0.0014206264869499,-0.0014206264861165,0.0014206264870997,-0.0014206264857192,0.0014206264875039,-0.0014206264858017,0.0014206264873598,-0.0013676778105549,0.0013676778121224,-0.0013676778105274,0.0013676778120279,-0.0013676778112881,0.0013676778113024,-0.0013676778102337,0.0013676778123153,1.7256740083142e-11,-1.7257182841675e-11,-0.0013952534538477,0.0013952534538472,3.9752241478663e-15,-4.478010258684e-15,-0.0014206264809453,0.0014206264925922,-0.0014206264807804,0.0014206264924217,-0.0014206264925876,0.0014206264809455,-0.0014206264924265,0.0014206264807787,-0.0013676778280943,0.0013676777944061,-0.0013676777944055,0.0013676778280872,0.68609895028749,0.33016534651402,1368840,32768,0.0057966752628502,0.0057966752628501,0.0057966752629753,32.967806903009,32.949677023916,0.00017894245522407,0.00017894245522407,0.00017894245522407,418817.6312665,0.017542310038561
14428800,0.9988725676095,0.016897407097346,0.00563246903241,0.00563246903241,0.0056324690325265,-0.0013948754603717,0.0013948754598838,-1.7762900017362e-11,1.7276405658843e-11,3.4840873870513e-13,-8.4506747788627e-13,-0.0014201340610269,0.0014201340494073,-0.0014201340494913,0.0014201340609429,-0.0014201340614879,0.0014201340488335,-0.0014201340497198,0.0014201340606016,-0.0013674067667761,0.0013674067319636,-0.0013674067328506,0.0013674067658891,4.9925151291486e-14,1.2635484031401e-12,6.8845330462118e-13,6.96938782528e-13,-0.0013948754595882,0.0013948754606672,-0.0014201340547986,0.0014201340555451,-0.0014201340547101,0.0014201340556948,-0.0014201340543128,0.001420134056099,-0.0014201340543957,0.001420134055955,-0.0013674067485569,0.0013674067501251,-0.0013674067485292,0.0013674067500304,-0.00136740674929,0.0013674067493047,-0.0013674067482354,0.0013674067503177,1.7256689319987e-11,-1.7257132174105e-11,-0.0013948754601581,0.0013948754601576,3.9751653261338e-15,-4.4778337934866e-15,-0.0014201340495399,0.0014201340611867,-0.001420134049375,0.0014201340610161,-0.0014201340611821,0.0014201340495401,-0.001420134061021,0.0014201340493733,-0.0013674067660961,0.0013674067324082,-0.0013674067324076,0.0013674067660889,0.6862394614241,0.34057045049571,1368840,32768,0.0057951095539027,0.0057951095539027,0.0057951095540276,32.615295500136,32.591717354755,0.00017612236400109,0.00017612236400109,0.00017612236400109,410618.22599124,0.017537529981199
14515200,0.99892129356414,0.01689813929606,0.0056327130986477,0.0056327130986477,0.0056327130987642,-0.0013942866407129,0.0013942866402252,-1.7762754036528e-11,1.7276472568563e-11,3.4851027972077e-13,-8.4495339313619e-13,-0.0014195273211224,0.001419527309503,-0.0014195273095869,0.0014195273210386,-0.0014195273215834,0.0014195273089292,-0.0014195273098152,0.0014195273206974,-0.0013668359377897,0.0013668359029776,-0.0013668359038643,0.001366835936903,4.9999149030906e-14,1.2636051403774e-12,6.8853363488773e-13,6.9701873596783e-13,-0.0013942866399295,0.0013942866410086,-0.0014195273148941,0.0014195273156409,-0.0014195273148055,0.0014195273157906,-0.0014195273144083,0.0014195273161947,-0.0014195273144913,0.0014195273160507,-0.0013668359195706,0.001366835921139,-0.001366835919543,0.0013668359210442,-0.0013668359203037,0.0013668359203185,-0.0013668359192492,0.0013668359213315,1.7256643968431e-11,-1.7257086815196e-11,-0.0013942866404994,0.0013942866404989,3.9748859229047e-15,-4.4774808630919e-15,-0.0014195273096355,0.0014195273212823,-0.0014195273094706,0.0014195273211117,-0.0014195273212777,0.0014195273096357,-0.0014195273211166,0.0014195273094689,-0.0013668359371097,0.001366835903422,-0.0013668359034214,0.0013668359371026,0.68643188739634,0.3509755544774,1368840,32768,0.0057926703414424,0.0057926703414424,0.0057926703415673,32.257822629123,32.233757685593,0.00017326258103298,0.00017326258103298,0.00017326258103298,408338.91550261,0.017530083950885
14601600,0.99896699831809,0.016898826354759,0.005632942118214,0.005632942118214,0.0056329421183306,-0.0013936936027847,0.0013936936022972,-1.776260642339e-11,1.7276541242936e-11,3.4861437948177e-13,-8.4483804371886e-13,-0.001418915656478,0.0014189156448588,-0.0014189156449424,0.0014189156563944,-0.001418915656939,0.0014189156442849,-0.0014189156451707,0.0014189156560532,-0.0013662613202837,0.0013662612854719,-0.0013662612863584,0.0013662613193972,5.0075823159152e-14,1.2636664215935e-12,6.8861661213224e-13,6.9710133638562e-13,-0.0013936936020013,0.0013936936030806,-0.0014189156502497,0.0014189156509967,-0.0014189156501611,0.0014189156511463,-0.0014189156497638,0.0014189156515505,-0.0014189156498469,0.0014189156514065,-0.0013662613020647,0.0013662613036331,-0.001366261302037,0.0013662613035384,-0.0013662613027978,0.0013662613028127,-0.0013662613017432,0.0013662613038256,1.7256598028658e-11,-1.7257040846013e-11,-0.0013936936025713,0.0013936936025708,3.9746285778252e-15,-4.4773926304932e-15,-0.0014189156449912,0.0014189156566379,-0.0014189156448264,0.0014189156564674,-0.0014189156566333,0.0014189156449914,-0.0014189156564722,0.0014189156448246,-0.0013662613196037,0.0013662612859161,-0.0013662612859156,0.0013662613195966,0.68667200980424,0.36138065845909,1368840,32768,0.0057902136481199,0.0057902136481199,0.0057902136482447,31.899887735644,31.875798016432,0.00017039910188515,0.00017039910188515,0.00017039910188515,406052.61014917,0.01752258461253
14688000,0.99900990428109,0.016899471625041,0.0056331572083083,0.0056331572083083,0.0056331572084248,-0.0013930973180043,0.001393097317517,-1.7762456927957e-11,1.7276611387852e-11,3.4872081740664e-13,-8.4472216490594e-13,-0.0014183003189902,0.0014183003073713,-0.0014183003074546,0.0014183003189068,-0.0014183003194512,0.0014183003067973,-0.0014183003076829,0.0014183003185656,-0.0013656836873532,0.0013656836525418,-0.0013656836534281,0.0013656836864669,5.0156291289141e-14,1.2637321254687e-12,6.8870297162637e-13,6.971869955335e-13,-0.0013930973172209,0.0013930973183004,-0.001418300312762,0.0014183003135091,-0.0014183003126732,0.0014183003136588,-0.001418300312276,0.0014183003140629,-0.0014183003123591,0.0014183003139189,-0.0013656836691344,0.0013656836707029,-0.0013656836691067,0.0013656836706081,-0.0013656836698674,0.0013656836698824,-0.0013656836688128,0.0013656836708953,1.7256552030063e-11,-1.7256993994503e-11,-0.001393097317791,0.0013930973177905,3.9743565273127e-15,-4.4764808936403e-15,-0.0014183003075036,0.0014183003191502,-0.0014183003073387,0.0014183003189797,-0.0014183003191456,0.0014183003075038,-0.0014183003189845,0.001418300307337,-0.0013656836866733,0.0013656836529858,-0.0013656836529853,0.0013656836866662,0.68695616011423,0.37178576244078,1368840,32768,0.0057877434976723,0.0057877434976723,0.005787743497797,31.541906949139,31.517838347271,0.00016753525559311,0.00016753525559311,0.00016753525559311,403767.09299374,0.017515044251989
14774400,0.99905021528906,0.016900078172683,0.0056333593908554,0.0056333593908554,0.0056333593909719,-0.0013924980386344,0.0013924980381474,-1.7762306756074e-11,1.7276682591559e-11,3.4882822589009e-13,-8.4460531553443e-13,-0.0014176816472659,0.0014176816356471,-0.0014176816357303,0.0014176816471827,-0.0014176816477269,0.0014176816350731,-0.0014176816359585,0.0014176816468415,-0.0013651032208412,0.0013651031860302,-0.0013651031869162,0.0013651032199552,5.0237729977716e-14,1.2637998770754e-12,6.88790485497e-13,6.9727421345729e-13,-0.0013924980378511,0.0013924980389307,-0.0014176816410377,0.001417681641785,-0.0014176816409488,0.0014176816419346,-0.0014176816405516,0.0014176816423388,-0.0014176816406348,0.0014176816421948,-0.0013651032026225,0.0013651032041912,-0.0013651032025948,0.0013651032040964,-0.0013651032033555,0.0013651032033706,-0.001365103202301,0.0013651032043835,1.7256505119732e-11,-1.7256947363574e-11,-0.0013924980384212,0.0013924980384207,3.9742241784147e-15,-4.4763926610416e-15,-0.0014176816357794,0.001417681647426,-0.0014176816356145,0.0014176816472554,-0.0014176816474214,0.0014176816357796,-0.0014176816472603,0.0014176816356128,-0.0013651032201614,0.0013651031864741,-0.0013651031864735,0.0013651032201543,0.68728112188357,0.38219086642248,1368840,32768,0.0057852609350502,0.0057852609350502,0.0057852609351749,31.183921541156,31.159878678109,0.00016467137232924,0.00016467137232924,0.00016467137232924,401485.38081488,0.017507466059966
14860800,0.99908811823762,0.01690064880371,0.0056335496011979,0.0056335496011979,0.0056335496013144,-0.0013918959385146,0.0013918959380279,-1.7762156231261e-11,1.7276753648212e-11,3.4893620788543e-13,-8.4448855439552e-13,-0.0014170598728377,0.0014170598612191,-0.0014170598613021,0.0014170598727547,-0.0014170598732987,0.0014170598606451,-0.0014170598615302,0.0014170598724135,-0.0013645200468077,0.0013645200119969,-0.0013645200128828,0.0013645200459218,5.0321227426926e-14,1.2638700991948e-12,6.888797290942e-13,6.9736332838195e-13,-0.0013918959377314,0.0013918959388111,-0.0014170598666094,0.001417059867357,-0.0014170598665205,0.0014170598675066,-0.0014170598661233,0.0014170598679107,-0.0014170598662066,0.0014170598677668,-0.0013645200285891,0.0013645200301578,-0.0013645200285613,0.001364520030063,-0.0013645200293221,0.0013645200293372,-0.0013645200282674,0.0013645200303501,1.7256458297633e-11,-1.7256900438537e-11,-0.0013918959383015,0.0013918959383011,3.9740256550676e-15,-4.4766867697039e-15,-0.0014170598613513,0.0014170598729978,-0.0014170598611864,0.0014170598728273,-0.0014170598729932,0.0014170598613515,-0.0014170598728321,0.0014170598611847,-0.0013645200461279,0.0013645200124407,-0.0013645200124401,0.0013645200461207,0.68764405500507,0.39259597040417,1368840,32768,0.0057827666803619,0.0057827666803619,0.0057827666804865,30.825935671855,30.801919008948,0.00016180748537484,0.00016180748537484,0.00016180748537484,399209.59498698,0.017499852235337
14947200,0.99912365158816,0.016901184098273,0.0056337280327189,0.0056337280327189,0.0056337280328354,-0.0013911626921407,0.0013911626916541,-1.7761995133241e-11,1.7276816322768e-11,3.4904513102849e-13,-8.4437085210889e-13,-0.0014163084986148,0.0014163084869965,-0.0014163084870792,0.0014163084985321,-0.0014163084990758,0.0014163084864224,-0.0014163084873073,0.0014163084981909,-0.0013638046041168,0.0013638045693065,-0.0013638045701921,0.0013638046032312,5.0406548349842e-14,1.2639415786288e-12,6.8896974288846e-13,6.9745331092716e-13,-0.0013911626913574,0.0013911626924374,-0.0014163084923866,0.0014163084931344,-0.0014163084922977,0.001416308493284,-0.0014163084919004,0.0014163084936881,-0.0014163084919838,0.0014163084935442,-0.0013638045858984,0.0013638045874673,-0.0013638045858706,0.0013638045873724,-0.0013638045866313,0.0013638045866466,-0.0013638045855767,0.0013638045876595,1.7256401887591e-11,-1.7256843638802e-11,-0.0013911626919277,0.0013911626919272,3.9743859381789e-15,-4.4761573741118e-15,-0.0014163084871286,0.0014163084987751,-0.0014163084869637,0.0014163084986045,-0.0014163084987705,0.0014163084871288,-0.0014163084986094,0.001416308486962,-0.0013638046034371,0.0013638045697501,-0.0013638045697495,0.00136380460343,0.68804315541096,0.40300107438586,1368840,32768,0.0057797291214068,0.0057797291214068,0.0057797291215314,30.401571436398,30.373290336527,0.00015841257149119,0.00015841257149119,0.00015841257149119,396985.37971642,0.017490580067681
15033600,0.99915666500674,0.016901680047054,0.0056338933489792,0.0056338933489792,0.0056338933490957,-0.0013900885421889,0.0013900885417025,-1.7761808550706e-11,1.7276855556863e-11,3.4915409828785e-13,-8.4425129693769e-13,-0.0014152190366759,0.0014152190250578,-0.0014152190251403,0.0014152190365934,-0.0014152190371369,0.0014152190244837,-0.0014152190253683,0.0014152190362522,-0.0013627462386834,0.0013627462038735,-0.0013627462047589,0.001362746237798,5.0493486870401e-14,1.2640136573092e-12,6.8906054526157e-13,6.9754364640277e-13,-0.0013900885414056,0.0013900885424858,-0.0014152190304477,0.0014152190311957,-0.0014152190303587,0.0014152190313453,-0.0014152190299615,0.0014152190317494,-0.0014152190300449,0.0014152190316055,-0.0013627462204651,0.0013627462220341,-0.0013627462204373,0.0013627462219392,-0.001362746221198,0.0013627462212134,-0.0013627462201434,0.0013627462222263,1.7256320743011e-11,-1.7256762604513e-11,-0.0013900885419759,0.0013900885419755,3.9744079963286e-15,-4.4760103197807e-15,-0.0014152190251898,0.0014152190368362,-0.0014152190250249,0.0014152190366657,-0.0014152190368316,0.00141521902519,-0.0014152190366705,0.0014152190250232,-0.0013627462380037,0.0013627462043169,-0.0013627462043163,0.0013627462379966,0.68606453558158,0.37427876945462,1368840,32768,0.0057752792946991,0.0057752792946991,0.0057752792948236,29.802449728297,29.762787601846,0.00015361959782637,0.00015361959782637,0.00015361959782637,394846.57256466,0.01747699716338
15120000,0.99918735477482,0.016902138426797,0.0056340461422267,0.0056340461422267,0.0056340461423432,-0.0013888117224932,0.0013888117220061,-1.7762083792297e-11,1.7276366601212e-11,3.4876002209131e-13,-8.4462831483182e-13,-0.0014140125503966,0.0014140125387779,-0.0014140125388612,0.0014140125503133,-0.0014140125508576,0.0014140125382039,-0.0014140125390894,0.0014140125499721,-0.0013614060717417,0.0013614060369311,-0.0013614060378172,0.0013614060708556,5.0188790296319e-14,1.2637051887916e-12,6.8872040675551e-13,6.9720355385119e-13,-0.0013888117217099,0.0013888117227894,-0.0014140125441684,0.0014140125449156,-0.0014140125440796,0.0014140125450653,-0.0014140125436824,0.0014140125454694,-0.0014140125437656,0.0014140125453254,-0.0013614060535233,0.0013614060550918,-0.0013614060534956,0.001361406054997,-0.0013614060542563,0.0013614060542713,-0.0013614060532017,0.0013614060552841,1.7256244245348e-11,-1.725668491571e-11,-0.00138881172228,0.0013888117222795,3.9743785854623e-15,-4.4754809241887e-15,-0.0014140125389102,0.0014140125505566,-0.0014140125387453,0.0014140125503861,-0.001414012550552,0.0014140125389104,-0.0014140125503909,0.0014140125387436,-0.0013614060710618,0.001361406037375,-0.0013614060373745,0.0013614060710547,0.68207978042406,0.31554913324883,1368840,32768,0.0057699897335569,0.0057699897335569,0.0057699897336816,29.19292821304,29.152284867166,0.00014874342570432,0.00014874342570432,0.00014874342570432,397996.36019048,0.017460851637758
15206400,0.9992159155115,0.016902562277117,0.0056341874256668,0.0056341874256668,0.0056341874257833,-0.001387379193985,0.0013873791934963,-1.7762744036833e-11,1.7275436070816e-11,3.4794466464698e-13,-8.4541914361372e-13,-0.0014127261786568,0.0014127261670369,-0.0014127261671217,0.0014127261785719,-0.0014127261791178,0.0014127261664633,-0.0014127261673503,0.0014127261782308,-0.0013598414858842,0.001359841451072,-0.0013598414519597,0.0013598414849964,4.9554015570604e-14,1.2630739874861e-12,6.8801912303218e-13,6.9650188411024e-13,-0.0013873791932016,0.0013873791942797,-0.0014127261724288,0.0014127261731744,-0.0014127261723405,0.0014127261733242,-0.0014127261719432,0.0014127261737283,-0.0014127261720259,0.0014127261735842,-0.0013598414676654,0.0013598414692329,-0.0013598414676379,0.0013598414691383,-0.0013598414683985,0.0013598414684127,-0.0013598414673441,0.0013598414694256,1.7256172600478e-11,-1.7256614064933e-11,-0.001387379193771,0.0013873791937706,3.9742609419974e-15,-4.4752750481251e-15,-0.0014127261671698,0.0014127261788162,-0.0014127261670049,0.0014127261786457,-0.0014127261788116,0.00141272616717,-0.0014127261786505,0.0014127261670032,-0.001359841485204,0.001359841451517,-0.0013598414515164,0.0013598414851969,0.67774697431624,0.25467942007145,1368840,32768,0.0057640549912006,0.0057640549912006,0.0057640549913256,28.582452610642,28.541782132486,0.00014385962088513,0.00014385962088513,0.00014385962088513,405744.5199366,0.017442737392733
15292800,0.9992425241528,0.016902964010089,0.0056343213366575,0.0056343213366575,0.005634321336774,-0.0013859146592544,0.0013859146587639,-1.7763451647569e-11,1.7274430219191e-11,3.470508096007e-13,-8.4627091171043e-13,-0.0014114235196741,0.0014114235080528,-0.0014114235081394,0.0014114235195875,-0.0014114235201351,0.0014114235074797,-0.0014114235083684,0.0014114235192464,-0.0013582313866802,0.0013582313518664,-0.0013582313527558,0.0013582313857908,4.8858125064876e-14,1.2623661414633e-12,6.8723211214836e-13,6.9575931855982e-13,-0.0013859146584709,0.0013859146595475,-0.0014114235134462,0.0014114235141901,-0.0014114235133584,0.00141142351434,-0.0014114235129612,0.0014114235147441,-0.0014114235130433,0.0014114235146,-0.0013582313684612,0.0013582313700275,-0.0013582313684338,0.0013582313699331,-0.0013582313691944,0.0013582313692078,-0.0013582313681402,0.0013582313702206,1.7256089514781e-11,-1.7256549706605e-11,-0.0013859146590396,0.0013859146590391,3.9878708203426e-15,-4.5062446902591e-15,-0.0014114235081864,0.0014114235198328,-0.0014114235080216,0.0014114235196624,-0.0014114235198283,0.0014114235081866,-0.0014114235196672,0.0014114235080198,-0.0013582313859997,0.0013582313523126,-0.0013582313523121,0.0013582313859926,0.68959762825423,0.46598060193548,1368840,32768,0.0057579876143023,0.0057579876143023,0.0057579876144276,27.971885493036,27.931279397805,0.00013897508394429,0.00013897508394429,0.00013897508394429,414496.75682954,0.017424218647958
15379200,0.99926734054525,0.01690334217374,0.005634447391208,0.005634447391208,0.0056344473913245,-0.0013857497933354,0.0013857497928501,-1.7764656478409e-11,1.7280832847124e-11,3.4987666444924e-13,-8.438294862943e-13,-0.0014107681029179,0.001410768091298,-0.0014107680913792,0.0014107681028366,-0.0014107681033794,0.0014107680907212,-0.0014107680916049,0.0014107681024957,-0.0013585174251691,0.0013585173903533,-0.0013585173912376,0.0013585174242847,4.9635630724376e-14,1.2634558839077e-12,6.8820809703857e-13,6.9673143592112e-13,-0.001385749792553,0.0013857497936325,-0.0014107680966893,0.0014107680974364,-0.0014107680965976,0.0014107680975862,-0.0014107680962002,0.0014107680979904,-0.0014107680962863,0.0014107680978463,-0.0013585174069491,0.0013585174085165,-0.001358517406921,0.0013585174084204,-0.0013585174076804,0.0013585174076928,-0.0013585174066246,0.0013585174087063,1.7258982132296e-11,-1.7259437272803e-11,-0.0013857497931217,0.0013857497931213,3.9874002464831e-15,-4.5029800841082e-15,-0.0014107680914308,0.0014107681030791,-0.0014107680912645,0.0014107681029071,-0.0014107681030745,0.001410768091431,-0.001410768102912,0.0014107680912628,-0.0013585174244846,0.0013585173907939,-0.0013585173907933,0.0013585174244775,0.69611493711796,0.58118402251387,1368840,32768,0.005757305324566,0.005757305324566,0.0057573053246853,27.361308966332,27.320776663125,0.00013409047173066,0.00013409047173066,0.00013409047173066,384191.42748164,0.017422133646695
15465600,0.99929050920666,0.016903697137053,0.0056345657123123,0.0056345657123123,0.0056345657124288,-0.0013850657104969,0.0013850657100142,-1.7766571419909e-11,1.7285261270663e-11,3.5130147386347e-13,-8.427155203252e-13,-0.0014098528248893,0.0014098528132695,-0.0014098528133482,0.0014098528248106,-0.0014098528253509,0.0014098528126921,-0.0014098528135734,0.0014098528244696,-0.0013580458329075,0.0013580457980883,-0.0013580457989703,0.0013580458320255,5.0644070505468e-14,1.2647246135312e-12,6.8948115189762e-13,6.9800222062894e-13,-0.0013850657097146,0.0013850657107965,-0.0014098528186595,0.0014098528194093,-0.0014098528185671,0.0014098528195589,-0.0014098528181697,0.0014098528199632,-0.0014098528182565,0.0014098528198193,-0.001358045814685,0.0013580458162543,-0.0013580458146564,0.0013580458161579,-0.0013580458154162,0.0013580458154299,-0.0013580458143599,0.0013580458164436,1.7262105683932e-11,-1.726255982447e-11,-0.0013850657102845,0.001385065710284,3.9866870329771e-15,-4.500980145205e-15,-0.0014098528134013,0.0014098528250514,-0.001409852813235,0.0014098528248795,-0.0014098528250469,0.0014098528134014,-0.0014098528248844,0.0014098528132333,-0.0013580458322237,0.0013580457985273,-0.0013580457985267,0.0013580458322166,0.69958333795558,0.63479025455408,1368840,32768,0.0057544716860759,0.0057544716860759,0.0057544716861949,26.750731001341,26.710273928445,0.00012920584801072,0.00012920584801072,0.00012920584801072,369606.45544198,0.017413483438053
15552000,0.99931216097601,0.016904029754302,0.0056346765847284,0.0056346765847284,0.0056346765848449,-0.0013841196086178,0.0013841196081362,-1.7768963067434e-11,1.7288749693506e-11,3.51977291453e-13,-8.4228321000257e-13,-0.0014088038448066,0.0014088038331858,-0.0014088038332633,0.001408803844729,-0.0014088038452682,0.0014088038326081,-0.0014088038334884,0.001408803844388,-0.0013571926515948,0.0013571926167711,-0.0013571926176521,0.0013571926507139,5.1082968862131e-14,1.2653835970762e-12,6.9008287432423e-13,6.9860162878802e-13,-0.0013841196078354,0.0013841196089185,-0.0014088038385758,0.0014088038393267,-0.001408803838483,0.0014088038394763,-0.0014088038380855,0.0014088038398806,-0.0014088038381726,0.0014088038397368,-0.0013571926333696,0.0013571926349398,-0.0013571926333409,0.0013571926348434,-0.0013571926341009,0.0013571926341151,-0.0013571926330443,0.0013571926351291,1.7265021447799e-11,-1.7265477000059e-11,-0.0013841196084059,0.0013841196084054,3.9849444391533e-15,-4.5004213387467e-15,-0.0014088038333171,0.0014088038449692,-0.0014088038331509,0.0014088038447973,-0.0014088038449646,0.0014088038333173,-0.0014088038448021,0.0014088038331491,-0.0013571926509113,0.0013571926172094,-0.0013571926172089,0.0013571926509042,0.70132927405136,0.65271059529583,1368840,32768,0.0057505523448986,0.0057505523448986,0.0057505523450176,26.14015233866,26.099771193764,0.00012432121870928,0.00012432121870928,0.00012432121870928,362617.20144162,0.017401520247187
15638400,0.99933287655049,0.016904348804669,0.0056347829348508,0.0056347829348508,0.0056347829349674,-0.0013837812934993,0.001383781293018,-1.7771951270264e-11,1.7292082238757e-11,3.5226123866096e-13,-8.4222038839232e-13,-0.001408418309608,0.0014084182979855,-0.0014084182980626,0.0014084183095309,-0.0014084183100697,0.0014084182974077,-0.0014084182982876,0.0014084183091897,-0.0013568924243427,0.0013568923895132,-0.0013568923903939,0.0013568924234621,5.1218376490226e-14,1.2657321599572e-12,6.9033366261871e-13,6.9884960650658e-13,-0.0013837812927169,0.0013837812938005,-0.0014084183033761,0.0014084183041275,-0.0014084183032833,0.001408418304277,-0.0014084183028857,0.0014084183046814,-0.0014084183029729,0.0014084183045376,-0.0013568924061144,0.0013568924076851,-0.0013568924060856,0.0013568924075886,-0.0013568924068458,0.0013568924068602,-0.0013568924057889,0.0013568924078744,1.7268169998672e-11,-1.7268623433349e-11,-0.0013837812932876,0.0013837812932871,3.9848194429719e-15,-4.4979214151177e-15,-0.0014084182981166,0.0014084183097707,-0.0014084182979504,0.0014084183095988,-0.0014084183097661,0.0014084182981168,-0.0014084183096037,0.0014084182979486,-0.0013568924236594,0.0013568923899513,-0.0013568923899508,0.0013568924236522,0.70313732031129,0.67063093603758,1368840,32768,0.0057491508283945,0.0057491508283945,0.0057491508285134,25.914177330541,25.898385522375,0.00012251341864433,0.00012251341864433,0.00012251341864433,359234.98461141,0.017397242332762
15724800,0.9993527618777,0.016904658667578,0.0056348862224871,0.0056348862224871,0.0056348862226036,-0.0013835365426813,0.0013835365422004,-1.7773809154684e-11,1.7294312905906e-11,3.5251290744324e-13,-8.420950981022e-13,-0.0014081350929692,0.0014081350813457,-0.0014081350814224,0.0014081350928925,-0.001408135093431,0.0014081350807678,-0.0014081350816474,0.0014081350925513,-0.0013566795272277,0.0013566794923946,-0.0013566794932749,0.0013566795263474,5.1383959667068e-14,1.2660174269778e-12,6.9056677130622e-13,6.9907630546344e-13,-0.0013835365418988,0.0013835365429829,-0.0014081350867366,0.0014081350874885,-0.0014081350866437,0.0014081350876379,-0.0014081350862461,0.0014081350880424,-0.0014081350863334,0.0014081350878986,-0.0013566795089974,0.0013566795105685,-0.0013566795089686,0.001356679510472,-0.0013566795097289,0.0013566795097435,-0.0013566795086718,0.0013566795107577,1.7270200877806e-11,-1.7270652724297e-11,-0.0013835365424697,0.0013835365424693,3.9812974917416e-15,-4.4962449957429e-15,-0.0014081350814766,0.0014081350931321,-0.0014081350813104,0.0014081350929602,-0.0014081350931275,0.0014081350814768,-0.0014081350929651,0.0014081350813087,-0.0013566795265445,0.0013566794928325,-0.0013566794928319,0.0013566795265373,0.71137696003759,0.79804980302726,1368840,32768,0.0057481369062108,0.0057481369062107,0.0057481369063297,25.737768396933,25.725959239622,0.00012110214717546,0.00012110214717546,0.00012110214717546,356087.59161822,0.01739414754713
15811200,0.99937186006318,0.016904958874621,0.0056349862915015,0.0056349862915015,0.005634986291618,-0.0013836649019792,0.0013836649015008,-1.7774271008221e-11,1.7297317431767e-11,3.5385642522322e-13,-8.4084966556108e-13,-0.0014080460403635,0.0014080460287411,-0.0014080460288152,0.0014080460402894,-0.0014080460408254,0.0014080460281627,-0.0014080460290398,0.0014080460399482,-0.0013570028583878,0.0013570028235542,-0.001357002824432,0.0013570028575099,5.2474249888862e-14,1.2671596898766e-12,6.9182879341407e-13,7.0032056156992e-13,-0.0013836649011968,0.0013836649022832,-0.0014080460341303,0.0014080460348847,-0.0014080460340367,0.001408046035034,-0.0014080460336391,0.0014080460354385,-0.0014080460337271,0.0014080460352949,-0.0013570028401564,0.0013570028417294,-0.0013570028401271,0.0013570028416326,-0.0013570028408877,0.0013570028409038,-0.0013570028398304,0.0013570028419181,1.7271906061008e-11,-1.7272327886357e-11,-0.0013836649017688,0.0013836649017684,3.9863561607321e-15,-4.4775102739581e-15,-0.001408046028871,0.0014080460405274,-0.0014080460287048,0.0014080460403556,-0.0014080460405228,0.0014080460288712,-0.0014080460403604,0.0014080460287031,-0.0013570028577052,0.0013570028239904,-0.0013570028239898,0.0013570028576981,0.71758703156882,0.84262532356392,1368840,32768,0.0057486689895215,0.0057486689895215,0.0057486689896402,25.564961173142,25.553532956869,0.00011971968938514,0.00011971968938514,0.00011971968938514,342467.76123183,0.017395770416708
15897600,0.99939020802705,0.016905248516605,0.0056350828388295,0.0056350828388295,0.0056350828389461,-0.0013835177254666,0.0013835177249893,-1.7775678391697e-11,1.7299723152392e-11,3.5439834984427e-13,-8.4040900255244e-13,-0.0014078121604576,0.0014078121488348,-0.0014078121489079,0.0014078121603845,-0.0014078121609194,0.0014078121482562,-0.0014078121491324,0.0014078121600433,-0.0013569200943204,0.0013569200594842,-0.0013569200603611,0.0013569200934435,5.2961411476998e-14,1.2677274372382e-12,6.9234179980091e-13,7.0083931042838e-13,-0.0013835177246842,0.0013835177257717,-0.0014078121542237,0.0014078121549792,-0.0014078121541299,0.0014078121551284,-0.0014078121537322,0.0014078121555329,-0.0014078121538204,0.0014078121553894,-0.0013569200760873,0.0013569200776611,-0.001356920076058,0.0013569200775643,-0.0013569200768186,0.0013569200768354,-0.0013569200757611,0.0013569200778498,1.7273765268916e-11,-1.7274207909806e-11,-0.0013835177252568,0.0013835177252563,3.9793416691377e-15,-4.4835689124003e-15,-0.0014078121489642,0.0014078121606218,-0.0014078121487981,0.0014078121604501,-0.0014078121606172,0.0014078121489644,-0.0014078121604549,0.0014078121487964,-0.0013569200936382,0.0013569200599198,-0.0013569200599193,0.0013569200936311,0.72050768044915,0.82628061128145,1368840,32768,0.0057480592834663,0.0057480592834663,0.005748059283585,25.392491608292,25.381106674116,0.00011833993286634,0.00011833993286634,0.00011833993286634,336199.09962189,0.017393909407309
15984000,0.99940784040234,0.016905527677104,0.0056351758923292,0.0056351758923292,0.0056351758924457,-0.0013831795338047,0.0013831795333272,-1.7779161255887e-11,1.7303060256328e-11,3.5439365881111e-13,-8.4055693920955e-13,-0.0014074800442319,0.0014074800326067,-0.0014074800326799,0.0014074800441587,-0.0014074800446937,0.0014074800320281,-0.0014074800329045,0.0014074800438173,-0.0013565621486918,0.0013565621138487,-0.0013565621147257,0.0013565621478147,5.2974352258137e-14,1.2678894469948e-12,6.9237550281542e-13,7.0086119211285e-13,-0.0013831795330221,0.0013831795341097,-0.0014074800379968,0.0014074800387522,-0.001407480037903,0.0014074800389014,-0.0014074800375053,0.001407480039306,-0.0014074800375934,0.0014074800391625,-0.0013565621304551,0.0013565621320292,-0.001356562130426,0.0013565621319324,-0.0013565621311865,0.0013565621312036,-0.001356562130129,0.0013565621322181,1.7277148871432e-11,-1.7277590688817e-11,-0.0013831795335948,0.0013831795335943,3.9755623728279e-15,-4.4773926304932e-15,-0.0014074800327362,0.001407480044396,-0.0014074800325701,0.0014074800442243,-0.0014074800443915,0.0014074800327363,-0.0014074800442291,0.0014074800325683,-0.0013565621480097,0.0013565621142845,-0.001356562114284,0.0013565621480026,0.72255837482025,0.80993589899898,1368840,32768,0.0057466580804237,0.0057466580804237,0.0057466580805425,25.220055315186,25.208680391364,0.00011696044252148,0.00011696044252148,0.00011696044252148,335330.89213606,0.017389633194611
16070400,0.99942478998384,0.016905796535013,0.0056352655116323,0.0056352655116323,0.0056352655117488,-0.001382834932002,0.0013828349315243,-1.7781496022796e-11,1.7305216661039e-11,3.5434488088947e-13,-8.4069361150489e-13,-0.0014071460576522,0.0014071460460255,-0.0014071460460988,0.0014071460575789,-0.001407146058114,0.0014071460454468,-0.0014071460463234,0.0014071460572375,-0.001356197562792,0.0013561975279442,-0.0013561975288215,0.0013561975619147,5.296194087259e-14,1.2679694371982e-12,6.9236135802694e-13,7.008486042621e-13,-0.0013828349312194,0.001382834932307,-0.0014071460514164,0.0014071460521717,-0.0014071460513227,0.0014071460523209,-0.0014071460509249,0.0014071460527255,-0.001407146051013,0.001407146052582,-0.0013561975445529,0.0013561975461271,-0.0013561975445238,0.0013561975460303,-0.0013561975452844,0.0013561975453016,-0.0013561975442269,0.0013561975463161,1.7279374921075e-11,-1.7279817966364e-11,-0.0013828349317921,0.0013828349317916,3.974996213653e-15,-4.478804352072e-15,-0.0014071460461549,0.0014071460578163,-0.0014071460459889,0.0014071460576446,-0.0014071460578117,0.0014071460461551,-0.0014071460576494,0.0014071460459871,-0.0013561975621099,0.0013561975283802,-0.0013561975283797,0.0013561975621028,0.72392200491315,0.79359118671651,1368840,32768,0.0057452303448785,0.0057452303448785,0.0057452303449975,25.0476223241,25.036254108611,0.0001155809785928,0.0001155809785928,0.0001155809785928,334841.56145859,0.017385275932104
16156800,0.99944108786378,0.016906055347538,0.0056353517824738,0.0056353517824738,0.0056353517825903,-0.0013824849124412,0.0013824849119633,-1.778403734222e-11,1.730753941361e-11,3.542747653844e-13,-8.408479009091e-13,-0.0014068103569616,0.0014068103453331,-0.0014068103454066,0.0014068103568881,-0.0014068103574235,0.0014068103447545,-0.0014068103456313,0.0014068103565466,-0.0013558268846914,0.0013558268498385,-0.001355826850716,0.0013558268838139,5.2915177595294e-14,1.2680125277936e-12,6.9232031700131e-13,7.0080535558332e-13,-0.0013824849116586,0.001382484912746,-0.001406810350725,0.0014068103514802,-0.0014068103506313,0.0014068103516294,-0.0014068103502335,0.001406810352034,-0.0014068103503215,0.0014068103518905,-0.0013558268664497,0.001355826868024,-0.0013558268664207,0.0013558268679272,-0.0013558268671812,0.0013558268671985,-0.0013558268661237,0.0013558268682132,1.7281794641272e-11,-1.7282235988083e-11,-0.0013824849122312,0.0013824849122308,3.9753491440477e-15,-4.4767161805701e-15,-0.0014068103454626,0.0014068103571257,-0.0014068103452966,0.0014068103569539,-0.0014068103571211,0.0014068103454628,-0.0014068103569588,0.0014068103452948,-0.0013558268840093,0.0013558268502748,-0.0013558268502742,0.0013558268840022,0.7247397084725,0.77724647443404,1368840,32768,0.0057437801818562,0.0057437801818562,0.0057437801819752,24.875189655926,24.863827825858,0.0001142015172474,0.0001142015172474,0.0001142015172474,334649.48874037,0.017380850171074
16243200,0.9994567635319,0.016906304409765,0.005635434803216,0.005635434803216,0.0056354348033326,-0.0013821302451851,0.001382130244707,-1.778659705814e-11,1.7309851195928e-11,3.541859445684e-13,-8.4101283704689e-13,-0.0014064730681288,0.0014064730564985,-0.0014064730565722,0.001406473068055,-0.0014064730685906,0.0014064730559199,-0.001406473056797,0.0014064730677135,-0.0013554506668742,0.0013554506320162,-0.001355450632894,0.0013554506659964,5.2840562227683e-14,1.268019818012e-12,6.9225350286596e-13,7.0073919583975e-13,-0.0013821302444024,0.0013821302454897,-0.0014064730618913,0.0014064730626463,-0.0014064730617978,0.0014064730627955,-0.0014064730613999,0.0014064730632002,-0.0014064730614879,0.0014064730630566,-0.00135545064863,0.0013554506502043,-0.0013554506486011,0.0013554506501075,-0.0013554506493616,0.0013554506493788,-0.001355450648304,0.0013554506503935,1.7284222096526e-11,-1.728466369333e-11,-0.001382130244975,0.0013821302449746,3.9753932603471e-15,-4.477098521831e-15,-0.0014064730566281,0.0014064730682927,-0.001406473056462,0.001406473068121,-0.0014064730682881,0.0014064730566282,-0.0014064730681258,0.0014064730564603,-0.0013554506661921,0.0013554506324527,-0.0013554506324522,0.001355450666185,0.72512199812867,0.76090176215158,1368840,32768,0.0057423107770014,0.0057423107770014,0.0057423107771205,24.702757017647,24.691401543106,0.00011282205614118,0.00011282205614118,0.00011282205614118,334695.08567345,0.017376365650721
16329600,0.99947184496699,0.01690654404054,0.0056355146801412,0.0056355146801412,0.0056355146802577,-0.0013817715505974,0.0013817715501189,-1.7789194022922e-11,1.7312175124933e-11,3.5407890372078e-13,-8.4118318478406e-13,-0.0014061342958779,0.0014061342842457,-0.0014061342843197,0.0014061342958039,-0.0014061342963397,0.0014061342836672,-0.0014061342845446,0.0014061342954623,-0.0013550694641566,0.0013550694292934,-0.0013550694301715,0.0013550694632785,5.2746212168836e-14,1.2679954290512e-12,6.9216492652779e-13,7.006515514584e-13,-0.0013817715498146,0.0013817715509017,-0.0014061342896396,0.0014061342903944,-0.0014061342895461,0.0014061342905436,-0.0014061342891483,0.0014061342909483,-0.0014061342892361,0.0014061342908047,-0.0013550694459098,0.0013550694474841,-0.001355069445881,0.0013550694473874,-0.0013550694466415,0.0013550694466587,-0.0013550694455839,0.0013550694476734,1.7286677639158e-11,-1.7287119625656e-11,-0.0013817715503871,0.0013817715503867,3.975577078261e-15,-4.477627917423e-15,-0.0014061342843754,0.0014061342960417,-0.0014061342842094,0.00140613429587,-0.0014061342960371,0.0014061342843756,-0.0014061342958749,0.0014061342842076,-0.0013550694634744,0.0013550694297302,-0.0013550694297296,0.0013550694634673,0.72515656725623,0.74455704986911,1368840,32768,0.0057408246969226,0.0057408246969226,0.0057408246970418,24.53032438606,24.518975260353,0.00011144259508848,0.00011144259508848,0.00011144259508848,334933.40819398,0.017371830216821
16416000,0.99948640805024,0.016906771093104,0.0056355903643292,0.0056355903643292,0.0056355903644457,-0.0013815195684826,0.001381519568004,-1.7792392513445e-11,1.7315246619337e-11,3.5379935343732e-13,-8.4103510107262e-13,-0.0014059029801751,0.0014059029685407,-0.0014059029686149,0.0014059029801009,-0.0014059029806368,0.0014059029679623,-0.0014059029688397,0.0014059029797594,-0.0013547948273889,0.0013547947925195,-0.0013547947933976,0.0013547948265108,5.2797622362996e-14,1.267624238185e-12,6.919890734441e-13,7.0045964555629e-13,-0.0013815195676999,0.0013815195687867,-0.0014059029739358,0.0014059029746903,-0.0014059029738424,0.0014059029748395,-0.0014059029734447,0.0014059029752441,-0.0014059029735325,0.0014059029751005,-0.0013547948091391,0.0013547948107131,-0.0013547948091104,0.0013547948106163,-0.0013547948098706,0.001354794809888,-0.0013547948088135,0.0013547948109023,1.7289808425868e-11,-1.7290256375419e-11,-0.0013815195682723,0.0013815195682718,3.9727536351035e-15,-4.4650400666791e-15,-0.0014059029686704,0.0014059029803389,-0.0014059029685044,0.0014059029801672,-0.0014059029803343,0.0014059029686706,-0.001405902980172,0.0014059029685027,-0.0013547948267068,0.0013547947929564,-0.0013547947929558,0.0013547948266997,0.71157455895377,0.52307539463863,1368840,32768,0.0057397807166864,0.0057397807166864,0.0057397807168056,24.415091171115,24.407384604394,0.00011052072936892,0.00011052072936892,0.00011052072936892,335299.52640287,0.017368644093347
16502400,0.99950047822141,0.01690699382345,0.0056356646077778,0.0056356646077777,0.0056356646078943,-0.0013805411168901,0.0013805411164067,-1.7797925153251e-11,1.7315964273883e-11,3.5170009403884e-13,-8.4381892779333e-13,-0.0014053123105246,0.0014053122988841,-0.0014053122989629,0.0014053123104457,-0.0014053123109865,0.0014053122983063,-0.0014053122991888,0.001405312310104,-0.0013534645159082,0.0013534644810268,-0.0013534644819099,0.0013534645150251,5.0639923573331e-14,1.2662383503758e-12,6.901185644104e-13,6.9835318049559e-13,-0.0013805411161069,0.0013805411171899,-0.0014053123042842,0.0014053123050343,-0.0014053123041921,0.0014053123051838,-0.0014053123037941,0.0014053123055887,-0.0014053123038808,0.0014053123054448,-0.0013534644976535,0.0013534644992252,-0.0013534644976256,0.0013534644991286,-0.0013534644983859,0.0013534644984003,-0.0013534644973285,0.0013534644994153,1.7293052532645e-11,-1.7293415227447e-11,-0.0013805411166774,0.0013805411166771,3.8987926592664e-15,-4.3038391089048e-15,-0.0014053122990157,0.0014053123106866,-0.0014053122988495,0.0014053123105149,-0.001405312310682,0.0014053122990159,-0.0014053123105196,0.001405312298848,-0.0013534645152244,0.0013534644814671,-0.0013534644814664,0.0013534645152175,0.72247546781313,0.73248561102731,1368840,32768,0.0057357265578834,0.0057357265578834,0.0057357265580031,24.305830831961,24.298625293851,0.00010964664665569,0.00010964664665569,0.00010964664665569,357291.9901891,0.017356272586341
16588800,0.99951407493256,0.01690721216392,0.0056357373879344,0.0056357373879344,0.0056357373880509,-0.0013810771928633,0.001381077192384,-1.7797820524094e-11,1.731998926857e-11,3.5385577818417e-13,-8.417629023682e-13,-0.0014054932528165,0.0014054932411783,-0.001405493241253,0.0014054932527418,-0.0014054932532785,0.0014054932405997,-0.001405493241478,0.0014054932524002,-0.0013543271871809,0.0013543271523004,-0.0013543271531795,0.0013543271863018,5.2331018970351e-14,1.2679480224112e-12,6.9204236225734e-13,7.0025765172706e-13,-0.0013810771920803,0.001381077193167,-0.0014054932465754,0.0014054932473296,-0.0014054932464822,0.0014054932474788,-0.0014054932460842,0.0014054932478837,-0.001405493246172,0.00140549324774,-0.0013543271689254,0.0013543271704997,-0.0013543271688969,0.0013543271704028,-0.0013543271696576,0.001354327169674,-0.0013543271685997,0.0013543271706892,1.729497273869e-11,-1.7295315970851e-11,-0.0013810771926526,0.0013810771926522,3.8987632484002e-15,-4.2819574244341e-15,-0.0014054932413082,0.0014054932529801,-0.0014054932411421,0.0014054932528085,-0.0014054932529755,0.0014054932413084,-0.0014054932528131,0.0014054932411406,-0.0013543271864983,0.001354327152738,-0.0013543271527371,0.0013543271864913,0.7331149727584,0.90536956812686,1368840,32768,0.0057379480481095,0.0057379480481095,0.0057379480482287,24.197025127798,24.189865983308,0.00010877620102238,0.00010877620102238,0.00010877620102238,335741.31150346,0.017363050562909
16675200,0.99952721644626,0.016907424900175,0.0056358083000194,0.0056358083000194,0.005635808300136,-0.0013814151302691,0.001381415129793,-1.7798659586697e-11,1.7324001204831e-11,3.5547965504643e-13,-8.4019300915089e-13,-0.0014055712119232,0.0014055712002861,-0.0014055712003576,0.0014055712118516,-0.0014055712123852,0.0014055711997069,-0.0014055712005821,0.00140557121151,-0.0013548991816119,0.0013548991467306,-0.0013548991476064,0.0013548991807361,5.3624567688619e-14,1.2692339794496e-12,6.9349453664441e-13,7.0172037174785e-13,-0.0013814151294863,0.0013814151305758,-0.0014055712056812,0.0014055712064385,-0.0014055712055872,0.0014055712065875,-0.0014055712051891,0.0014055712069924,-0.0014055712052777,0.0014055712068489,-0.0013548991633551,0.0013548991649314,-0.0013548991633261,0.0013548991648342,-0.001354899164087,0.0013548991641051,-0.0013548991630288,0.0013548991651202,1.7297349371968e-11,-1.7297703052339e-11,-0.0013814151300599,0.0013814151300595,3.8908737835355e-15,-4.3031920698479e-15,-0.0014055712004147,0.0014055712120879,-0.0014055712002486,0.0014055712119164,-0.0014055712120834,0.0014055712004149,-0.001405571211921,0.0014055712002471,-0.0013548991809303,0.0013548991471659,-0.0013548991471651,0.0013548991809233,0.73881636192789,0.93026865924923,1368840,32768,0.0057393484889153,0.0057393484889153,0.0057393484890343,24.088260073654,24.081106672765,0.00010790608058923,0.00010790608058923,0.00010790608058923,319838.90759829,0.01736732331111
16761600,0.99953992021201,0.016907631559817,0.0056358771865668,0.0056358771865668,0.0056358771866833,-0.0013813148444091,0.0013813148439337,-1.7800486824993e-11,1.7326468011825e-11,3.5580399807915e-13,-8.3988063634072e-13,-0.0014054177815892,0.0014054177699512,-0.0014054177700221,0.0014054177815183,-0.0014054177820512,0.0014054177693719,-0.0014054177702465,0.0014054177811766,-0.0013548353308601,0.0013548352959752,-0.0013548352968505,0.0013548353299849,5.3985409606323e-14,1.2695982293515e-12,6.9383938456542e-13,7.0207090515695e-13,-0.0013813148436263,0.0013813148447165,-0.0014054177753465,0.0014054177761044,-0.0014054177752523,0.0014054177762534,-0.0014054177748542,0.0014054177766583,-0.0014054177749429,0.0014054177765148,-0.0013548353126012,0.0013548353141782,-0.0013548353125722,0.0013548353140809,-0.0013548353133331,0.0013548353133518,-0.0013548353122749,0.001354835314367,1.7299459189867e-11,-1.7299819046521e-11,-0.0013813148442003,0.0013813148441999,3.8911899503474e-15,-4.3082801497046e-15,-0.0014054177700796,0.0014054177817542,-0.0014054177699135,0.0014054177815826,-0.0014054177817496,0.0014054177700797,-0.0014054177815873,0.0014054177699119,-0.0013548353301787,0.0013548352964102,-0.0013548352964095,0.0013548353301718,0.74227977086076,0.91509256745446,1368840,32768,0.0057389329806708,0.0057389329806708,0.0057389329807898,23.979498356496,23.972347362222,0.00010703598685196,0.00010703598685196,0.00010703598685196,315671.65085015,0.017366055264657
16848000,0.99955220293344,0.016907832101001,0.0056359440336281,0.0056359440336281,0.0056359440337446,-0.0013811010177986,0.0013811010173231,-1.7802356767868e-11,1.7328295455998e-11,3.5577585188017e-13,-8.398979005192e-13,-0.0014052057189885,0.0014052057073493,-0.0014052057074203,0.0014052057189176,-0.0014052057194505,0.0014052057067701,-0.0014052057076447,0.0014052057185759,-0.0013546089122409,0.0013546088773523,-0.0013546088782275,0.0013546089113656,5.407375984846e-14,1.2696791202627e-12,6.9386305663638e-13,7.0210362474562e-13,-0.0013811010170157,0.001381101018106,-0.0014052057127452,0.0014052057135032,-0.0014052057126511,0.0014052057136521,-0.001405205712253,0.001405205714057,-0.0014052057123417,0.0014052057139136,-0.00135460889398,0.0013546088955572,-0.0013546088939511,0.0013546088954599,-0.0013546088947118,0.001354608894731,-0.0013546088936538,0.001354608895746,1.7301279134269e-11,-1.7301640520288e-11,-0.0013811010175898,0.0013811010175894,3.8944251456321e-15,-4.3145740750766e-15,-0.0014052057074777,0.0014052057191535,-0.0014052057073116,0.001405205718982,-0.0014052057191489,0.0014052057074779,-0.0014052057189866,0.0014052057073101,-0.0013546089115596,0.0013546088777873,-0.0013546088777866,0.0013546089115526,0.7449560549416,0.89991647565968,1368840,32768,0.0057380469970841,0.0057380469970841,0.0057380469972033,23.870736896533,23.86358805168,0.00010616589517226,0.00010616589517226,0.00010616589517226,314694.61363429,0.017363351629932
16934400,0.99956408060546,0.016908026556209,0.0056360088520308,0.0056360088520308,0.0056360088521473,-0.0013808814441625,0.001380881443687,-1.7804377853184e-11,1.7330224426481e-11,3.5573423550447e-13,-8.399554575844e-13,-0.0014049923066059,0.0014049922949653,-0.0014049922950363,0.0014049923065348,-0.0014049923070678,0.0014049922943861,-0.0014049922952608,0.0014049923061931,-0.0013543752591688,0.0013543752242761,-0.0013543752251515,0.0013543752582934,5.4113140998334e-14,1.269739202986e-12,6.9386297208014e-13,7.0211750667448e-13,-0.0013808814433796,0.0013808814444699,-0.0014049923003618,0.0014049923011198,-0.0014049923002678,0.0014049923012687,-0.0014049922998697,0.0014049923016736,-0.0014049922999583,0.0014049923015302,-0.0013543752409058,0.0013543752424831,-0.001354375240877,0.0013543752423859,-0.0013543752416377,0.001354375241657,-0.0013543752405797,0.0013543752426721,1.7303229045289e-11,-1.7303598710466e-11,-0.0013808814439537,0.0013808814439533,3.898152972926e-15,-4.3242502500643e-15,-0.0014049922950936,0.0014049923067708,-0.0014049922949276,0.0014049923065993,-0.0014049923067662,0.0014049922950938,-0.001404992306604,0.001404992294926,-0.0013543752584875,0.0013543752247114,-0.0013543752247107,0.0013543752584806,0.74697645783376,0.88474038386491,1368840,32768,0.0057371372258064,0.0057371372258064,0.0057371372259257,23.761975325498,23.754828741137,0.00010529580260398,0.00010529580260398,0.00010529580260398,314042.9486415,0.017360575325878
17020800,0.99957556854611,0.016908214083004,0.0056360713609625,0.0056360713609625,0.005636071361079,-0.0013806565763483,0.0013806565758726,-1.7805837779172e-11,1.7331518269308e-11,3.5568466348945e-13,-8.4004733713048e-13,-0.0014047775584833,0.0014047775468417,-0.0014047775469128,0.0014047775584121,-0.0014047775589452,0.0014047775462624,-0.0014047775471373,0.0014047775580703,-0.0013541343597626,0.001354134324867,-0.0013541343257426,0.0013541343588872,5.4090465220475e-14,1.2697642536913e-12,6.9383013668618e-13,7.0205759673998e-13,-0.0013806565755654,0.0013806565766556,-0.0014047775522388,0.0014047775529967,-0.0014047775521448,0.0014047775531456,-0.0014047775517467,0.0014047775535505,-0.0014047775518352,0.0014047775534071,-0.0013541343414981,0.0013541343430755,-0.0013541343414694,0.0013541343429782,-0.0013541343422299,0.0013541343422494,-0.0013541343411719,0.0013541343432646,1.7304551446067e-11,-1.7305001108801e-11,-0.0013806565761395,0.0013806565761391,3.881094670516e-15,-4.314632896809e-15,-0.0014047775469701,0.0014047775586482,-0.001404777546804,0.0014047775584766,-0.0014047775586436,0.0014047775469702,-0.0014047775584813,0.0014047775468024,-0.0013541343590813,0.0013541343253022,-0.0013541343253017,0.0013541343590743,0.74480068050747,0.8168373588107,1368840,32768,0.0057362055385816,0.0057362055385815,0.0057362055387009,23.653212045214,23.646069430594,0.00010442569636171,0.00010442569636171,0.00010442569636171,313666.35658136,0.017357732080554
17107200,0.99958668143055,0.016908395221067,0.0056361317403168,0.0056361317403168,0.0056361317404333,-0.0013802702573029,0.001380270256826,-1.7808248205536e-11,1.7332831964469e-11,3.5510940165154e-13,-8.4060990817962e-13,-0.0014044821000338,0.00140448208839,-0.0014044820884623,0.0014044820999616,-0.0014044821004957,0.001404482087811,-0.001404482088687,0.0014044820996197,-0.0013536607620625,0.001353660727162,-0.0013536607280386,0.0013536607611859,5.3676919030498e-14,1.2693596594337e-12,6.9335121565512e-13,7.0158905223016e-13,-0.0013802702565198,0.0013802702576091,-0.0014044820937887,0.0014044820945455,-0.001404482093695,0.0014044820946945,-0.0014044820932969,0.0014044820950994,-0.0014044820933851,0.0014044820949559,-0.0013536607437959,0.0013536607453726,-0.0013536607437673,0.0013536607452755,-0.0013536607445278,0.0013536607445469,-0.00135366074347,0.0013536607455619,1.7306460917146e-11,-1.7306824545743e-11,-0.0013802702570935,0.0013802702570931,3.8928222534229e-15,-4.3127800122369e-15,-0.0014044820885188,0.0014044821001983,-0.0014044820883528,0.0014044821000268,-0.0014044821001937,0.001404482088519,-0.0014044821000314,0.0014044820883512,-0.001353660761381,0.0013536607275982,-0.0013536607275975,0.0013536607613741,0.74370788353823,0.78518100685759,1368840,32768,0.0057346048802513,0.0057346048802513,0.0057346048803708,23.544449520294,23.537310120051,0.00010355559616235,0.00010355559616235,0.00010355559616235,318021.46137579,0.017352847479301
17193600,0.99959724087802,0.016908566697354,0.005636188899079,0.005636188899079,0.0056361888991955,-0.0013793955927793,0.0013793955923019,-1.781013920659e-11,1.7334165011981e-11,3.5482167514727e-13,-8.408923113171e-13,-0.0014036623557305,0.0014036623440852,-0.001403662344158,0.0014036623556577,-0.0014036623561923,0.0014036623435063,-0.0014036623443828,0.0014036623553158,-0.0013527348750162,0.0013527348401118,-0.001352734840989,0.001352734874139,5.3446367250167e-14,1.269135978767e-12,6.9309124197949e-13,7.0133888340206e-13,-0.0013793955919962,0.001379395593085,-0.0014036623494848,0.0014036623502411,-0.0014036623493913,0.0014036623503901,-0.0014036623489933,0.001403662350795,-0.0014036623490813,0.0014036623506515,-0.0013527348567478,0.0013527348583242,-0.0013527348567193,0.0013527348582271,-0.0013527348574798,0.0013527348574986,-0.001352734856422,0.0013527348585136,1.7308080367673e-11,-1.7308443760983e-11,-0.0013793955925696,0.0013793955925692,3.8967044877645e-15,-4.3187210072142e-15,-0.0014036623442142,0.0014036623558948,-0.0014036623440482,0.0014036623557232,-0.0014036623558902,0.0014036623442144,-0.0014036623557279,0.0014036623440466,-0.0013527348743346,0.0013527348405485,-0.0013527348405478,0.0013527348743276,0.74096817140912,0.73653500939555,1368840,32768,0.005730981170953,0.005730981170953,0.0057309811710725,23.134001152925,23.10775799277,0.0001002720092234,0.0001002720092234,0.0001002720092234,320085.46931766,0.017341788176778
17280000,0.99960726536307,0.016908728650683,0.0056362428835223,0.0056362428835223,0.0056362428836388,-0.0013784139605396,0.0013784139600613,-1.7812218804825e-11,1.7335323270715e-11,3.543517777376e-13,-8.4135476777761e-13,-0.0014027590381577,0.0014027590265105,-0.0014027590265842,0.001402759038084,-0.0014027590386195,0.0014027590259318,-0.0014027590268092,0.0014027590377421,-0.0013516800949014,0.0013516800599928,-0.0013516800608709,0.0013516800940233,5.3052438107962e-14,1.2687525934204e-12,6.926579151438e-13,7.0091648454135e-13,-0.0013784139597564,0.0013784139608444,-0.0014027590319115,0.0014027590326669,-0.0014027590318183,0.001402759032816,-0.0014027590314202,0.0014027590332209,-0.001402759031508,0.0014027590330773,-0.0013516800766311,0.001351680078207,-0.0013516800766028,0.00135168007811,-0.0013516800773632,0.0013516800773815,-0.0013516800763055,0.0013516800783966,1.73097144354e-11,-1.7310082203577e-11,-0.0013784139603294,0.0013784139603291,3.9006823074213e-15,-4.326044312904e-15,-0.0014027590266399,0.0014027590383216,-0.0014027590264739,0.0014027590381501,-0.001402759038317,0.0014027590266401,-0.0014027590381548,0.0014027590264723,-0.0013516800942195,0.00135168006043,-0.0013516800604293,0.0013516800942125,0.73718362706318,0.67931440928827,1368840,32768,0.005726914281051,0.005726914281051,0.0057269142811707,22.699088336605,22.670708850427,9.6792706692835e-05,9.6792706692835e-05,9.6792706692835e-05,323782.83873007,0.017329376438763
17366400,0.99961678638073,0.01690888159502,0.0056362938649678,0.0056362938649678,0.0056362938650843,-0.0013773907722305,0.001377390771751,-1.781463524571e-11,1.7336591437855e-11,3.5377426596843e-13,-8.4193619119199e-13,-0.0014018326533091,0.0014018326416597,-0.0014018326417346,0.0014018326532342,-0.0014018326537709,0.0014018326410812,-0.0014018326419598,0.0014018326528923,-0.0013505674515538,0.0013505674166402,-0.0013505674175194,0.0013505674506745,5.2551982808292e-14,1.2682772035314e-12,6.9211933784697e-13,7.0038723600365e-13,-0.0013773907714472,0.0013773907725342,-0.0014018326470623,0.0014018326478166,-0.0014018326469694,0.0014018326479657,-0.0014018326465713,0.0014018326483706,-0.0014018326466588,0.001401832648227,-0.0013505674332814,0.0013505674348564,-0.0013505674332532,0.0013505674347596,-0.0013505674340136,0.0013505674340312,-0.0013505674329559,0.0013505674350462,1.7311580643094e-11,-1.7311949403888e-11,-0.0013773907720198,0.0013773907720194,3.9042336695178e-15,-4.3317206100852e-15,-0.0014018326417896,0.0014018326534726,-0.0014018326416235,0.001401832653301,-0.001401832653468,0.0014018326417897,-0.0014018326533057,0.0014018326416219,-0.0013505674508715,0.0013505674170782,-0.0013505674170775,0.0013505674508646,0.73302927460078,0.62191897194069,1368840,32768,0.0057226752007488,0.0057226752007488,0.0057226752008686,22.262205419192,22.233659708085,9.3297643353536e-05,9.3297643353536e-05,9.3297643353536e-05,328626.41181596,0.017316439375183
17452800,0.9996258342461,0.016909026075352,0.0056363420250784,0.0056363420250784,0.0056363420251949,-0.0013763550650829,0.0013763550646023,-1.7817148330702e-11,1.7337893368671e-11,3.5316584337885e-13,-8.4255179003293e-13,-0.0014009002461152,0.0014009002344634,-0.0014009002345395,0.0014009002460391,-0.001400900246577,0.0014009002338851,-0.0014009002347649,0.0014009002456972,-0.0013494368643655,0.0013494368294467,-0.0013494368303272,0.001349436863485,5.2015440375766e-14,1.2677698330018e-12,6.9154671747248e-13,6.9982485612514e-13,-0.0013763550642997,0.0013763550653855,-0.0014009002398678,0.0014009002406209,-0.0014009002397751,0.0014009002407701,-0.0014009002393771,0.001400900241175,-0.0014009002394643,0.0014009002410313,-0.0013494368460909,0.0013494368476651,-0.0013494368460628,0.0013494368475683,-0.0013494368468232,0.00134943684684,-0.0013494368457656,0.0013494368478551,1.7313515583983e-11,-1.7313888388771e-11,-0.0013763550648717,0.0013763550648713,3.9077776788978e-15,-4.3388086288453e-15,-0.0014009002345938,0.0014009002462782,-0.0014009002344277,0.0014009002461066,-0.0014009002462736,0.001400900234594,-0.0014009002461113,0.0014009002344261,-0.0013494368636828,0.0013494368298855,-0.0013494368298849,0.0013494368636759,0.72872694756058,0.56601547915426,1368840,32768,0.0057183842412543,0.0057183842412543,0.0057183842413741,21.825135830375,21.796610565742,8.9801086643e-05,8.9801086643e-05,8.9801086643e-05,333884.61628854,0.017303344133911
17539200,0.99963443721223,0.016909162656854,0.0056363875522458,0.0056363875522458,0.0056363875523623,-0.0013753131671149,0.001375313166633,-1.7819508390956e-11,1.7339014246193e-11,3.5254477411679e-13,-8.4318150608965e-13,-0.0013999650326515,0.0013999650209975,-0.0013999650210748,0.0013999650325742,-0.0013999650331133,0.0013999650204194,-0.0013999650213005,0.0013999650322322,-0.0013482973977141,0.0013482973627905,-0.0013482973636722,0.0013482973968324,5.1459133841137e-14,1.2672448453634e-12,6.9095935306312e-13,6.9924630027021e-13,-0.0013753131663316,0.0013753131674164,-0.0013999650264036,0.0013999650271554,-0.0013999650263112,0.0013999650273046,-0.0013999650259131,0.0013999650277096,-0.001399965026,0.0013999650275658,-0.0013482973794375,0.0013482973810108,-0.0013482973794096,0.0013482973809142,-0.0013482973801699,0.0013482973801859,-0.0013482973791124,0.0013482973812011,1.7315287941604e-11,-1.7315661768419e-11,-0.0013753131669031,0.0013753131669027,3.9104173041415e-15,-4.3441319956318e-15,-0.0013999650211284,0.001399965032814,-0.0013999650209623,0.0013999650326424,-0.0013999650328094,0.0013999650211285,-0.0013999650326471,0.0013999650209607,-0.0013482973970311,0.0013482973632301,-0.0013482973632295,0.0013482973970241,0.72456884073239,0.51484623117264,1368840,32768,0.0057140676196143,0.0057140676196143,0.0057140676197343,21.388048513355,21.359561423399,8.6304388106834e-05,8.6304388106834e-05,8.6304388106834e-05,339370.44076559,0.017290170727267
17625600,0.99964262154924,0.01690929200255,0.0056364306674779,0.0056364306674779,0.0056364306675944,-0.0013742779602098,0.0013742779597267,-1.7821685412685e-11,1.7340001068988e-11,3.5194723354772e-13,-8.4378798756206e-13,-0.0013990333421962,0.0013990333305401,-0.0013990333306186,0.0013990333421177,-0.001399033342658,0.0013990333299623,-0.0013990333308445,0.0013990333417758,-0.0013471678278737,0.0013471677929456,-0.0013471677938285,0.0013471678269908,5.0921385563095e-14,1.2667372468996e-12,6.903893520939e-13,6.9869412596229e-13,-0.0013742779594264,0.00137427796051,-0.0013990333359478,0.0013990333366984,-0.0013990333358557,0.0013990333368478,-0.0013990333354577,0.0013990333372527,-0.0013990333355443,0.0013990333371089,-0.0013471678095952,0.0013471678111678,-0.0013471678095675,0.0013471678110712,-0.0013471678103277,0.001347167810343,-0.0013471678092703,0.0013471678113582,1.731690192171e-11,-1.7317278160216e-11,-0.0013742779599973,0.0013742779599969,3.9183361798723e-15,-4.3539258140844e-15,-0.0013990333306715,0.0013990333423583,-0.0013990333305054,0.0013990333421867,-0.0013990333423537,0.0013990333306717,-0.0013990333421914,0.0013990333305038,-0.0013471678271903,0.0013471677933861,-0.0013471677933854,0.0013471678271833,0.72133971817064,0.47920502092113,1368840,32768,0.0057097787114091,0.0057097787114091,0.0057097787115291,20.950959749405,20.922512281056,8.2807677995242e-05,8.2807677995242e-05,8.2807677995242e-05,344696.67543547,0.017277082026365
17712000,0.99965041200635,0.016909414559334,0.0056364715197393,0.0056364715197393,0.0056364715198558,-0.0013732951972948,0.0013732951968109,-1.7823760966925e-11,1.7341194091365e-11,3.5150540880987e-13,-8.4423394452662e-13,-0.0013981285471957,0.0013981285355378,-0.0013981285356172,0.0013981285471164,-0.0013981285476575,0.0013981285349601,-0.0013981285358432,0.0013981285467744,-0.0013461142149676,0.0013461141800352,-0.001346114180919,0.0013461142140838,5.0513574492032e-14,1.2663488874402e-12,6.8996438345875e-13,6.9827582991742e-13,-0.0013732951965114,0.0013732951975943,-0.0013981285409468,0.0013981285416965,-0.0013981285408549,0.001398128541846,-0.0013981285404569,0.0013981285422509,-0.0013981285405433,0.001398128542107,-0.0013461141966873,0.0013461141982591,-0.0013461141966596,0.0013461141981627,-0.0013461141974198,0.0013461141974345,-0.0013461141963624,0.0013461141984497,1.7318560606332e-11,-1.7318944704892e-11,-0.001373295197082,0.0013732951970816,3.9180567766432e-15,-4.3617196936338e-15,-0.0013981285356696,0.0013981285473575,-0.0013981285355034,0.0013981285471858,-0.0013981285473529,0.0013981285356697,-0.0013981285471905,0.0013981285355018,-0.0013461142142839,0.0013461141804762,-0.0013461141804755,0.0013461142142769,0.71809250163817,0.44356381066962,1368840,32768,0.0057057070984757,0.0057057070984757,0.0057057070985958,20.514522603597,20.486155652505,7.9316180828775e-05,7.9316180828775e-05,7.9316180828775e-05,348536.80805318,0.017264656490837
17798400,0.99965783857914,0.016909530853875,0.0056365102845863,0.0056365102845863,0.0056365102847028,-0.0013723385185521,0.0013723385180672,-1.7826115865573e-11,1.7342643752961e-11,3.5105981948114e-13,-8.4470090084966e-13,-0.0013972515190884,0.0013972515074284,-0.0013972515075087,0.0013972515190081,-0.0013972515195502,0.0013972515068509,-0.0013972515077349,0.0013972515186662,-0.0013450853061404,0.0013450852712033,-0.001345085272088,0.0013450853052557,5.0095910780783e-14,1.2659689615466e-12,6.8953413557312e-13,6.978517399319e-13,-0.0013723385177686,0.0013723385188506,-0.0013972515128389,0.0013972515135877,-0.0013972515127472,0.0013972515137372,-0.0013972515123492,0.0013972515141421,-0.0013972515124353,0.0013972515139982,-0.001345085287858,0.0013450852894292,-0.0013450852878304,0.0013450852893329,-0.0013450852885907,0.0013450852886047,-0.0013450852875333,0.00134508528962,1.7320490723839e-11,-1.7320877638489e-11,-0.0013723385183388,0.0013723385183384,3.9209463942497e-15,-4.3644843150589e-15,-0.0013972515075605,0.0013972515192498,-0.0013972515073944,0.0013972515190781,-0.0013972515192452,0.0013972515075607,-0.0013972515190828,0.0013972515073928,-0.0013450853054564,0.0013450852716449,-0.0013450852716442,0.0013450853054494,0.71483189895319,0.40792260041811,1368840,32768,0.0057017435334077,0.0057017435334077,0.0057017435335278,20.094038258834,20.066711756922,7.5952306070673e-05,7.5952306070673e-05,7.5952306070673e-05,352508.36418241,0.017252560846249
17884800,0.99966491844988,0.016909641201569,0.0056365470671509,0.0056365470671509,0.0056365470672674,-0.0013713628314138,0.001371362830928,-1.7828750108628e-11,1.73443552595e-11,3.5060433339593e-13,-8.4517709218469e-13,-0.0013963546876263,0.0013963546759641,-0.0013963546760452,0.0013963546875451,-0.0013963546880881,0.0013963546753867,-0.0013963546762716,0.0013963546872032,-0.0013440376137942,0.0013440375788517,-0.0013440375797373,0.0013440376129086,4.9671864911564e-14,1.2655816167621e-12,6.8909481443526e-13,6.9742234128503e-13,-0.0013713628306303,0.0013713628317115,-0.0013963546813761,0.001396354682124,-0.0013963546812847,0.0013963546822735,-0.0013963546808866,0.0013963546826785,-0.0013963546809725,0.0013963546825345,-0.0013440375955094,0.00134403759708,-0.0013440375954819,0.0013440375969837,-0.0013440375962421,0.0013440375962556,-0.0013440375951848,0.0013440375972709,1.7322694538867e-11,-1.7323078938888e-11,-0.0013713628312,0.0013713628311996,3.9268506256442e-15,-4.3682783168018e-15,-0.0013963546760966,0.0013963546877874,-0.0013963546759304,0.0013963546876157,-0.0013963546877828,0.0013963546760968,-0.0013963546876204,0.0013963546759288,-0.0013440376131098,0.0013440375792939,-0.0013440375792932,0.0013440376131028,0.71156150963391,0.37228139016661,1368840,32768,0.0056977012055893,0.0056977012055893,0.0056977012057094,19.666235509796,19.647267861338,7.2529884078364e-05,7.2529884078364e-05,7.2529884078364e-05,356558.73469772,0.017240224954478
17971200,0.99967167427184,0.016909746476623,0.0056365821588355,0.0056365821588355,0.005636582158952,-0.0013703968424005,0.0013703968419137,-1.7831884586401e-11,1.7346534781152e-11,3.5013733295659e-13,-8.4567313585443e-13,-0.0013954732278884,0.0013954732162235,-0.0013954732163057,0.0013954732278062,-0.0013954732283502,0.0013954732156463,-0.0013954732165322,0.0013954732274643,-0.0013429954061144,0.0013429953711656,-0.0013429953720522,0.0013429954052278,4.9232848911437e-14,1.2651878162924e-12,6.8864548992652e-13,6.9698019302765e-13,-0.0013703968416169,0.0013703968426973,-0.0013954732216373,0.0013954732223842,-0.0013954732215461,0.0013954732225338,-0.001395473221148,0.0013954732229388,-0.0013954732212337,0.0013954732227948,-0.0013429953878267,0.0013429953893967,-0.0013429953877994,0.0013429953893005,-0.0013429953885596,0.0013429953885724,-0.0013429953875023,0.0013429953895878,1.7325379368612e-11,-1.7325769672865e-11,-0.0013703968421863,0.0013703968421859,3.92624035017e-15,-4.3759545528863e-15,-0.0013954732163565,0.0013954732280491,-0.0013954732161903,0.0013954732278773,-0.0013954732280445,0.0013954732163566,-0.0013954732278821,0.0013954732161886,-0.0013429954054297,0.0013429953716084,-0.0013429953716077,0.0013429954054227,0.71145773395801,0.3844551578311,1368840,32768,0.0056936990305699,0.0056936990305699,0.0056936990306901,19.246266987579,19.227823965754,6.9170135900627e-05,6.9170135900627e-05,6.9170135900627e-05,360847.2039199,0.017228011793088
18057600,0.99967812398902,0.016909847308148,0.0056366157693437,0.0056366157693437,0.0056366157694602,-0.0013696329754762,0.0013696329749896,-1.783466800137e-11,1.734948895561e-11,3.5024657961918e-13,-8.4560716728149e-13,-0.0013946930028342,0.0013946929911676,-0.0013946929912495,0.0013946930027523,-0.0013946930032961,0.0013946929905903,-0.0013946929914761,0.0013946930024103,-0.0013422476798388,0.0013422476448845,-0.001342247645771,0.0013422476789523,4.9268494881301e-14,1.2652629867901e-12,6.8872059424978e-13,6.9706119055323e-13,-0.0013696329746927,0.0013696329757732,-0.0013946929965822,0.0013946929973293,-0.0013946929964909,0.0013946929974789,-0.0013946929960928,0.0013946929978839,-0.0013946929961786,0.0013946929977399,-0.0013422476615483,0.0013422476631184,-0.001342247661521,0.0013422476630222,-0.0013422476622812,0.001342247662294,-0.0013422476612238,0.0013422476633094,1.7328251016179e-11,-1.7328643401251e-11,-0.0013696329752621,0.0013696329752617,3.9283285216719e-15,-4.3799544306928e-15,-0.0013946929913005,0.001394693002995,-0.0013946929911343,0.0013946930028232,-0.0013946930029904,0.0013946929913006,-0.001394693002828,0.0013946929911326,-0.0013422476791541,0.0013422476453272,-0.0013422476453265,0.0013422476791471,0.71381113400631,0.43343334366343,1368840,32768,0.0056905343728703,0.0056905343728703,0.0056905343729904,18.826787846152,18.808380070171,6.5814302769214e-05,6.5814302769214e-05,6.5814302769214e-05,359135.37172697,0.017218354113926
18144000,0.99968428418944,0.016909943823654,0.0056366479411792,0.0056366479411792,0.0056366479412957,-0.001369021411167,0.0013690214106814,-1.7837284318502e-11,1.7353140785225e-11,3.507900041944e-13,-8.4510338855393e-13,-0.0013939883593378,0.0013939883476701,-0.001393988347751,0.001393988359257,-0.0013939883597998,0.0013939883470926,-0.0013939883479773,0.001393988358915,-0.0013417226004073,0.0013417225654481,-0.0013417225663335,0.0013417225995219,4.9671306105106e-14,1.2656842827434e-12,6.8918962220071e-13,6.9753857302835e-13,-0.0013690214103835,0.0013690214114649,-0.0013939883530848,0.0013939883538329,-0.0013939883529932,0.0013939883539824,-0.0013939883525951,0.0013939883543874,-0.0013939883526812,0.0013939883542435,-0.0013417225821141,0.0013417225836847,-0.0013417225820865,0.0013417225835885,-0.0013417225828469,0.0013417225828602,-0.0013417225817894,0.0013417225838756,1.7331366038664e-11,-1.7331762644195e-11,-0.0013690214109533,0.0013690214109529,3.930299049709e-15,-4.3863954103959e-15,-0.0013939883478025,0.0013939883594991,-0.0013939883476363,0.0013939883593273,-0.0013939883594945,0.0013939883478027,-0.001393988359332,0.0013939883476347,-0.0013417225997229,0.0013417225658901,-0.0013417225658894,0.0013417225997159,0.71534987349099,0.46764876411549,1368840,32768,0.0056880008028299,0.0056880008028299,0.00568800080295,18.40734158876,18.388936174587,6.2458732710078e-05,6.2458732710078e-05,6.2458732710078e-05,352895.73129165,0.017210622013345
18230400,0.99969017038357,0.01691003608575,0.0056366786952112,0.0056366786952112,0.0056366786953277,-0.001368346603951,0.0013683466034661,-1.7840651583282e-11,1.7357201249416e-11,3.5115712533204e-13,-8.4476983992009e-13,-0.0013932514230973,0.0013932514114277,-0.0013932514115078,0.0013932514230171,-0.0013932514235592,0.00139325141085,-0.0013932514117341,0.0013932514226752,-0.0013411059497757,0.0013411059148101,-0.0013411059156948,0.001341105948891,4.9935298040334e-14,1.2659678954027e-12,6.8950102996683e-13,6.9785968086578e-13,-0.0013683466031675,0.0013683466042495,-0.001393251416843,0.0013932514175918,-0.0013932514167512,0.0013932514177413,-0.0013932514163531,0.0013932514181463,-0.0013932514164394,0.0013932514180023,-0.0013411059314791,0.0013411059330502,-0.0013411059314515,0.0013411059329539,-0.0013411059322119,0.0013411059322254,-0.0013411059311543,0.0013411059332409,1.733506813145e-11,-1.7335467692773e-11,-0.0013683466037377,0.0013683466037372,3.9338210009393e-15,-4.3925128705705e-15,-0.0013932514115598,0.0013932514232588,-0.0013932514113936,0.001393251423087,-0.0013932514232542,0.00139325141156,-0.0013932514230918,0.001393251411392,-0.0013411059490915,0.0013411059152516,-0.0013411059152509,0.0013411059490845,0.71559316762268,0.47962916559167,1368840,32768,0.0056852051594247,0.0056852051594247,0.0056852051595446,17.987897600313,17.969492279003,5.9103180802503e-05,5.9103180802503e-05,5.9103180802503e-05,348525.49079877,0.017202090395313
18316800,0.99969580800228,0.01691012449277,0.0056367081642179,0.0056367081642179,0.0056367081643344,-0.0013676438265073,0.0013676438260226,-1.7844197607306e-11,1.7360954899451e-11,3.5127303355583e-13,-8.4467487223305e-13,-0.0013925291014191,0.0013925290897472,-0.0013925290898272,0.0013925291013391,-0.001392529101881,0.0013925290891695,-0.0013925290900533,0.0013925291009972,-0.0013404221112487,0.0013404220762762,-0.0013404220771607,0.0013404221103642,5.0004031234699e-14,1.2660532457365e-12,6.8959004562981e-13,6.9795710436015e-13,-0.0013676438257239,0.001367643826806,-0.0013925290951636,0.0013925290959125,-0.0013925290950717,0.001392529096062,-0.0013925290946736,0.001392529096467,-0.0013925290947599,0.0013925290963231,-0.0013404220929486,0.0013404220945198,-0.0013404220929209,0.0013404220944235,-0.0013404220936814,0.001340422093695,-0.0013404220926237,0.0013404220947105,1.7338715637668e-11,-1.7339118743001e-11,-0.0013676438262941,0.0013676438262936,3.9361150485048e-15,-4.39874797421e-15,-0.0013925290898792,0.0013925291015806,-0.0013925290897131,0.0013925291014089,-0.001392529101576,0.0013925290898794,-0.0013925291014136,0.0013925290897114,-0.0013404221105646,0.0013404220767175,-0.0013404220767169,0.0013404221105575,0.71588544825575,0.49160956706785,1368840,32768,0.0056822935606053,0.0056822935606053,0.0056822935607252,17.599329585078,17.582248155016,5.5994636680621e-05,5.5994636680621e-05,5.5994636680621e-05,346707.0996252,0.017193205227578
18403200,0.99970130359641,0.016910210711039,0.0056367369036407,0.0056367369036407,0.0056367369037572,-0.0013674714578211,0.0013674714573367,-1.7847186868927e-11,1.7364156948689e-11,3.5138863296552e-13,-8.4457505175308e-13,-0.0013923325582916,0.0013923325466178,-0.0013923325466976,0.0013923325582118,-0.0013923325587536,0.0013923325460401,-0.0013923325469237,0.0013923325578699,-0.0013402718401679,0.0013402718051896,-0.001340271806074,0.0013402718392836,5.0079087765303e-14,1.2661391512004e-12,6.8968307587604e-13,6.9805670425862e-13,-0.0013674714570377,0.0013674714581201,-0.0013923325520351,0.0013923325527842,-0.0013923325519432,0.0013923325529337,-0.0013923325515451,0.0013923325533387,-0.0013923325516314,0.0013923325531948,-0.0013402718218649,0.0013402718234362,-0.0013402718218371,0.0013402718233399,-0.0013402718225977,0.0013402718226113,-0.0013402718215399,0.0013402718236268,1.7341808249074e-11,-1.7342214266082e-11,-0.001367471457608,0.0013674714576076,3.9380635183921e-15,-4.4034243019396e-15,-0.0013923325467498,0.0013923325584532,-0.0013923325465837,0.0013923325582815,-0.0013923325584486,0.00139233254675,-0.0013923325582862,0.001392332546582,-0.0013402718394838,0.0013402718056308,-0.0013402718056301,0.0013402718394768,0.71621773048151,0.50358996854403,1368840,32768,0.0056815794799482,0.0056815794799482,0.005681579480068,17.485298278236,17.480018791454,5.5082386225886e-05,5.5082386225886e-05,5.5082386225886e-05,344776.862555,0.017191025954782
18489600,0.99970666514662,0.016910294871757,0.0056367649572136,0.0056367649572136,0.0056367649573301,-0.0013673202167636,0.0013673202162794,-1.7850160601611e-11,1.7367347586511e-11,3.5150476177081e-13,-8.4447108434098e-13,-0.0013921614799754,0.0013921614682998,-0.0013921614683793,0.0013921614798959,-0.0013921614804374,0.001392161467722,-0.0013921614686054,0.0013921614795539,-0.0013401397784122,0.0013401397434281,-0.0013401397443122,0.0013401397775281,5.0157291258593e-14,1.2662250382825e-12,6.8977689286293e-13,6.9815731883197e-13,-0.0013673202159802,0.0013673202170628,-0.0013921614737178,0.0013921614744672,-0.0013921614736259,0.0013921614746167,-0.0013921614732278,0.0013921614750217,-0.0013921614733142,0.0013921614748778,-0.0013401397601062,0.0013401397616776,-0.0013401397600784,0.0013401397615813,-0.0013401397608389,0.0013401397608527,-0.0013401397597812,0.0013401397618682,1.7344887007961e-11,-1.7345295921939e-11,-0.0013673202165506,0.0013673202165502,3.9397693486331e-15,-4.4082770948666e-15,-0.0013921614684316,0.0013921614801371,-0.0013921614682655,0.0013921614799654,-0.0013921614801325,0.0013921614684318,-0.0013921614799701,0.0013921614682638,-0.0013401397777281,0.0013401397438691,-0.0013401397438684,0.0013401397777211,0.71658681598221,0.51557037002021,1368840,32768,0.0056809529196674,0.0056809529196674,0.0056809529197872,17.382328590142,17.377789427893,5.4258628721131e-05,5.4258628721131e-05,5.4258628721131e-05,342952.08502525,0.017189113820827
18576000,0.99971189674137,0.016910376441683,0.0056367921471887,0.0056367921471887,0.0056367921473052,-0.0013671701620046,0.0013671701615206,-1.7852458325535e-11,1.7369863333187e-11,3.5161987590121e-13,-8.4436585226163e-13,-0.0013919917737596,0.0013919917620826,-0.0013919917621619,0.0013919917736803,-0.0013919917742216,0.0013919917615047,-0.0013919917623879,0.0013919917733384,-0.0013400087726349,0.0013400087376464,-0.0013400087385303,0.001340008771751,5.0238141729843e-14,1.2663106680195e-12,6.8987181275731e-13,6.9825855103351e-13,-0.0013671701612212,0.0013671701623039,-0.0013919917675013,0.0013919917682508,-0.0013919917674092,0.0013919917684003,-0.0013919917670111,0.0013919917688053,-0.0013919917670976,0.0013919917686614,-0.0013400087543267,0.0013400087558982,-0.0013400087542988,0.0013400087558019,-0.0013400087550594,0.0013400087550732,-0.0013400087540016,0.0013400087560888,1.7347289934553e-11,-1.7347700745533e-11,-0.0013671701617917,0.0013671701617912,3.9424530901761e-15,-4.4122475618068e-15,-0.0013919917622144,0.0013919917739214,-0.0013919917620482,0.0013919917737497,-0.0013919917739168,0.0013919917622145,-0.0013919917737544,0.0013919917620466,-0.001340008771951,0.0013400087380872,-0.0013400087380866,0.0013400087719439,0.71177083120414,0.44491818485885,1368840,32768,0.005680331271843,0.005680331271843,0.0056803312719628,17.280049564034,17.275560064332,5.3440396512272e-05,5.3440396512272e-05,5.3440396512272e-05,341135.09175064,0.017187216689338
18662400,0.99971700211548,0.016910456670141,0.0056368188900081,0.0056368188900081,0.0056368188901246,-0.0013667037287429,0.0013667037282573,-1.7855515379203e-11,1.7371340935106e-11,3.5082307671347e-13,-8.4516426904702e-13,-0.0013916631366024,0.0013916631249225,-0.0013916631250033,0.0013916631365215,-0.0013916631370644,0.0013916631243449,-0.0013916631252297,0.0013916631361796,-0.0013394172281281,0.0013394171931333,-0.0013394171940187,0.0013394172272426,4.9565103467171e-14,1.2656674413461e-12,6.8913457976457e-13,6.9754438167442e-13,-0.0013667037279595,0.0013667037290408,-0.0013916631303433,0.0013916631310913,-0.0013916631302517,0.0013916631312409,-0.0013916631298536,0.0013916631316459,-0.0013916631299396,0.001391663131502,-0.0013394172098172,0.0013394172113876,-0.0013394172097895,0.0013394172112915,-0.00133941721055,0.0013394172105629,-0.0013394172094923,0.0013394172115785,1.7349588629035e-11,-1.7350003748707e-11,-0.0013667037285293,0.0013667037285288,3.9501366789771e-15,-4.4257765602699e-15,-0.0013916631250549,0.0013916631367636,-0.0013916631248888,0.0013916631365918,-0.001391663136759,0.0013916631250551,-0.0013916631365966,0.0013916631248871,-0.0013394172274436,0.0013394171935751,-0.0013394171935745,0.0013394172274366,0.71734314372978,0.54534554436908,1368840,32768,0.0056783986150162,0.0056783986150162,0.0056783986151362,17.177816839851,17.17333070077,5.2622534718804e-05,5.2622534718804e-05,5.2622534718804e-05,348609.06449671,0.017181319759177
18748800,0.99972198486799,0.016910535559316,0.0056368451863998,0.0056368451863998,0.0056368451865163,-0.0013668863565329,0.0013668863560494,-1.78567401212e-11,1.7374672421566e-11,3.5189226463875e-13,-8.4411459523148e-13,-0.0013916611355268,0.0013916611238471,-0.0013916611239259,0.001391661135448,-0.0013916611359888,0.0013916611232692,-0.0013916611241519,0.0013916611351061,-0.001339771010534,0.0013397709755372,-0.0013397709764206,0.0013397710096507,5.0431518175267e-14,1.2665107097025e-12,6.9008667384051e-13,6.9850877868335e-13,-0.0013668863557496,0.0013668863568327,-0.0013916611292669,0.001391661130017,-0.0013916611291747,0.0013916611301664,-0.0013916611287766,0.0013916611305714,-0.0013916611288632,0.0013916611304276,-0.0013397709922215,0.0013397709937933,-0.0013397709921935,0.001339770993697,-0.0013397709929542,0.0013397709929682,-0.0013397709918964,0.0013397709939838,1.7351825354823e-11,-1.7352246474311e-11,-0.0013668863563202,0.0013668863563198,3.9536218666247e-15,-4.4338645484816e-15,-0.0013916611239787,0.0013916611356888,-0.0013916611238126,0.001391661135517,-0.0013916611356842,0.0013916611239789,-0.0013916611355218,0.0013916611238109,-0.0013397710098502,0.0013397709759777,-0.0013397709759771,0.0013397710098432,0.72279305909206,0.64489692877595,1368840,32768,0.0056791555464648,0.0056791555464648,0.0056791555465845,17.075587325398,17.071101337209,5.1804698603184e-05,5.1804698603184e-05,5.1804698603184e-05,337097.82107765,0.017183628551453
18835200,0.99972684848049,0.016910612748933,0.0056368709162723,0.0056368709162723,0.0056368709163888,-0.001367037809353,0.0013670378088715,-1.7858771544435e-11,1.7378663917276e-11,3.5289070472532e-13,-8.4312009620098e-13,-0.0013916438375694,0.0013916438258894,-0.0013916438259662,0.0013916438374925,-0.0013916438380314,0.0013916438253111,-0.0013916438261918,0.0013916438371507,-0.0013400795702377,0.0013400795352373,-0.0013400795361187,0.0013400795693562,5.1230729054041e-14,1.2672789509391e-12,6.9097375703485e-13,6.9939882502245e-13,-0.0013670378085698,0.0013670378096547,-0.0013916438313084,0.0013916438320604,-0.0013916438312157,0.0013916438322098,-0.0013916438308176,0.0013916438326147,-0.0013916438309048,0.001391643832471,-0.0013400795519228,0.0013400795534958,-0.0013400795518945,0.0013400795533993,-0.0013400795526554,0.0013400795526703,-0.0013400795515973,0.0013400795536859,1.7354805234378e-11,-1.7355227964111e-11,-0.0013670378091413,0.0013670378091409,3.95504094092e-15,-4.4378938371543e-15,-0.0013916438260202,0.0013916438377321,-0.0013916438258541,0.0013916438375604,-0.0013916438377275,0.0013916438260204,-0.0013916438375652,0.0013916438258524,-0.0013400795695544,0.0013400795356764,-0.0013400795356758,0.0013400795695473,0.72442397251194,0.67141121253251,1368840,32768,0.0056797833018662,0.0056797833018662,0.0056797833019857,16.973357994793,16.968871973648,5.0986863958341e-05,5.0986863958341e-05,5.0986863958341e-05,326630.93401353,0.017185543209737
18921600,0.99973159632212,0.016910688293272,0.0056368960977185,0.0056368960977185,0.005636896097835,-0.0013669352675872,0.0013669352671062,-1.7861416448929e-11,1.7381831232281e-11,3.5314931447203e-13,-8.4285028091424e-13,-0.0013914969657657,0.0013914969540842,-0.0013914969541605,0.0013914969656894,-0.0013914969662277,0.0013914969535058,-0.001391496954386,0.0013914969653475,-0.0013400181570092,0.0013400181220038,-0.0013400181228847,0.0013400181561283,5.1453134024427e-14,1.2674810513827e-12,6.9120752746685e-13,6.9963580307705e-13,-0.001366935266804,0.0013669352678893,-0.0013914969595038,0.0013914969602563,-0.0013914969594109,0.0013914969604056,-0.0013914969590128,0.0013914969608105,-0.0013914969591001,0.0013914969606669,-0.0013400181386917,0.001340018140265,-0.0013400181386633,0.0013400181401685,-0.0013400181394242,0.0013400181394395,-0.0013400181383661,0.001340018140455,1.7357699675366e-11,-1.7358124956492e-11,-0.0013669352673757,0.0013669352673753,3.9552762278498e-15,-4.4406584585793e-15,-0.0013914969542148,0.0013914969659286,-0.0013914969540487,0.0013914969657569,-0.001391496965924,0.001391496954215,-0.0013914969657617,0.001391496954047,-0.0013400181563261,0.0013400181224425,-0.0013400181224419,0.0013400181563191,0.72615960985307,0.69792549628906,1368840,32768,0.0056793585288195,0.0056793585288195,0.005679358528939,16.871128690023,16.866642610087,5.0169029520185e-05,5.0169029520185e-05,5.0169029520185e-05,323422.42945786,0.017184246764147
19008000,0.9997362316537,0.016910762519661,0.0056369208398481,0.0056369208398481,0.0056369208399646,-0.0013668314022375,0.001366831401757,-1.7862982592261e-11,1.7383917550899e-11,3.5340280672802e-13,-8.4257899508419e-13,-0.0013913492086111,0.0013913491969288,-0.0013913491970046,0.0013913492085353,-0.0013913492090731,0.0013913491963503,-0.00139134919723,0.0013913492081934,-0.0013399546418642,0.0013399546068558,-0.0013399546077362,0.0013399546409838,5.1680803539868e-14,1.2676802732378e-12,6.9144120231354e-13,6.9987038414606e-13,-0.0013668314014544,0.0013668314025401,-0.0013913492023485,0.0013913492031015,-0.0013913492022556,0.0013913492032508,-0.0013913492018575,0.0013913492036558,-0.0013913492019449,0.0013913492035121,-0.001339954623545,0.0013399546251187,-0.0013399546235166,0.0013399546250221,-0.0013399546242775,0.0013399546242931,-0.0013399546232194,0.0013399546253086,1.7359515561069e-11,-1.7359940945132e-11,-0.0013668314020263,0.0013668314020258,3.9562247282855e-15,-4.4403349390509e-15,-0.0013913491970592,0.0013913492087742,-0.0013913491968931,0.0013913492086025,-0.0013913492087696,0.0013913491970594,-0.0013913492086073,0.0013913491968914,-0.0013399546411813,0.0013399546072942,-0.0013399546072936,0.0013399546411742,0.7307684155435,0.77244247275956,1368840,32768,0.0056789282687205,0.0056789282687205,0.0056789282688399,16.768899558195,16.764413246525,4.9351196465555e-05,4.9351196465555e-05,4.9351196465555e-05,320245.00897802,0.017182933586258
19094400,0.99974076872376,0.016910835284024,0.0056369450946357,0.0056369450946357,0.0056369450947522,-0.001366947720058,0.0013669477195789,-1.7865112894829e-11,1.7387425914309e-11,3.540947267668e-13,-8.4187589891623e-13,-0.0013913495131677,0.0013913495014848,-0.0013913495015592,0.0013913495130933,-0.0013913495136298,0.001391349500906,-0.0013913495017844,0.0013913495127515,-0.0013401772350238,0.0013401772000116,-0.0013401772008906,0.0013401772341449,5.2261874023858e-14,1.2682239257473e-12,6.9206752876793e-13,7.0050040901688e-13,-0.001366947719275,0.001366947720362,-0.0013913495069042,0.0013913495076586,-0.0013913495068109,0.0013913495078078,-0.0013913495064128,0.0013913495082127,-0.0013913495065006,0.0013913495080691,-0.0013401772167023,0.0013401772182768,-0.0013401772166737,0.0013401772181801,-0.0013401772174347,0.001340177217451,-0.0013401772163764,0.0013401772184665,1.7362312681501e-11,-1.7362739418464e-11,-0.0013669477198475,0.001366947719847,3.9569599999411e-15,-4.4431583822084e-15,-0.0013913495016146,0.0013913495133314,-0.0013913495014486,0.0013913495131597,-0.0013913495133268,0.0013913495016148,-0.0013913495131645,0.0013913495014469,-0.0013401772343413,0.001340177200449,-0.0013401772004484,0.0013401772343342,0.73185974893929,0.77233723771011,1368840,32768,0.0056794103627192,0.0056794103627192,0.0056794103628386,16.705415376297,16.702590596921,4.8843323010377e-05,4.8843323010377e-05,4.8843323010377e-05,312931.29975797,0.017184404073208
19180800,0.99974528839148,0.016910908626694,0.0056369695421924,0.0056369695421924,0.0056369695423089,-0.0013673741884103,0.0013673741879313,-1.7867008439862e-11,1.7389389942544e-11,3.5411962306506e-13,-8.4183566485124e-13,-0.0013917650016957,0.0013917649900116,-0.0013917649900859,0.0013917650016214,-0.0013917650021578,0.0013917649894328,-0.0013917649903111,0.0013917650012795,-0.001340609740691,0.001340609705675,-0.0013406097065539,0.001340609739812,5.2324430936316e-14,1.2682708176971e-12,6.9210799811986e-13,7.0054342240873e-13,-0.0013673741876272,0.0013673741887143,-0.0013917649954316,0.001391764996186,-0.0013917649953383,0.0013917649963352,-0.0013917649949402,0.0013917649967401,-0.0013917649950279,0.0013917649965966,-0.0013406097223675,0.0013406097239421,-0.0013406097223389,0.0013406097238454,-0.0013406097230998,0.0013406097231163,-0.0013406097220417,0.0013406097241318,1.7364231593468e-11,-1.7364659786269e-11,-0.0013673741881998,0.0013673741881993,3.957276166753e-15,-4.4454230189076e-15,-0.0013917649901414,0.0013917650018594,-0.0013917649899753,0.0013917650016877,-0.0013917650018548,0.0013917649901415,-0.0013917650016925,0.0013917649899736,-0.0013406097400085,0.0013406097061123,-0.0013406097061118,0.0013406097400014,0.74043868311256,0.91425068683464,1368840,32768,0.0056811772327932,0.0056811772327932,0.0056811772329125,16.919378470325,16.928491014325,5.0555027762601e-05,5.0555027762601e-05,5.0555027762601e-05,311781.28790336,0.017189795820983
19267200,0.99974979272267,0.016910981849324,0.0056369939497359,0.0056369939497359,0.0056369939498524,-0.0013682207375542,0.0013682207370777,-1.7868300723913e-11,1.7393110417122e-11,3.5534848258307e-13,-8.4060632005394e-13,-0.0013924119095021,0.0013924118978183,-0.0013924118978903,0.0013924119094301,-0.0013924119099641,0.0013924118972391,-0.001392411898115,0.0013924119090883,-0.001341638552126,0.001341638517108,-0.0013416385179845,0.0013416385512495,5.3338458781991e-14,1.2692361374719e-12,6.9322073434712e-13,7.0165203560018e-13,-0.0013682207367714,0.0013682207378605,-0.0013924119032371,0.0013924119039938,-0.0013924119031431,0.0013924119041429,-0.001392411902745,0.0013924119045478,-0.0013924119028334,0.0013924119044044,-0.0013416385338009,0.001341638535377,-0.0013416385337719,0.0013416385352801,-0.001341638534533,0.0013416385345508,-0.0013416385334746,0.0013416385355662,1.7366707694295e-11,-1.736713465184e-11,-0.0013682207373449,0.0013682207373444,3.9564085461994e-15,-4.4416290171647e-15,-0.0013924118979471,0.0013924119096667,-0.0013924118977811,0.001392411909495,-0.0013924119096621,0.0013924118979473,-0.0013924119094998,0.0013924118977794,-0.0013416385514443,0.0013416385175437,-0.0013416385175432,0.0013416385514372,0.74173695421288,0.87574310507145,1368840,32768,0.0056846848627897,0.0056846848627897,0.0056846848629088,17.144530089317,17.154391431729,5.2356240714534e-05,5.2356240714534e-05,5.2356240714534e-05,299699.1738817,0.017200498466738
19353600,0.99975428071335,0.016911054831494,0.0056370182771259,0.0056370182771259,0.0056370182772424,-0.0013685773917126,0.0013685773912356,-1.7871642474766e-11,1.7396016534224e-11,3.551032106642e-13,-8.4080546102914e-13,-0.0013928033752285,0.0013928033635423,-0.0013928033636147,0.0013928033751561,-0.0013928033756905,0.0013928033629633,-0.0013928033638395,0.0013928033748143,-0.001341953894704,0.0013419538596793,-0.0013419538605562,0.001341953893827,5.3252902572145e-14,1.2691175418303e-12,6.9305068807133e-13,7.0148305546829e-13,-0.0013685773909296,0.0013685773920185,-0.0013928033689624,0.0013928033697188,-0.0013928033688686,0.0013928033698679,-0.0013928033684706,0.0013928033702728,-0.0013928033685588,0.0013928033701294,-0.0013419538763756,0.0013419538779516,-0.0013419538763467,0.0013419538778547,-0.0013419538771076,0.0013419538771255,-0.0013419538760494,0.0013419538781409,1.7369811687705e-11,-1.7370238248204e-11,-0.001368577391503,0.0013685773915026,3.9568055928934e-15,-4.442717219215e-15,-0.0013928033636713,0.0013928033753929,-0.0013928033635053,0.0013928033752213,-0.0013928033753884,0.0013928033636715,-0.0013928033752261,0.0013928033635036,-0.0013419538940221,0.0013419538601154,-0.0013419538601148,0.0013419538940151,0.74186864893238,0.83723552330826,1368840,32768,0.0056861623251462,0.0056861623251462,0.0056861623252654,17.370380602583,17.380291849132,5.4163044820662e-05,5.4163044820662e-05,5.4163044820662e-05,300842.42285453,0.017205007701479
19440000,0.99975875116877,0.016911127447409,0.0056370424824308,0.0056370424824308,0.0056370424825473,-0.0013689255048266,0.001368925504349,-1.7874556371043e-11,1.7398417166769e-11,3.548302631202e-13,-8.4105460047692e-13,-0.0013931928425513,0.0013931928308629,-0.0013931928309358,0.0013931928424784,-0.0013931928430133,0.0013931928302839,-0.0013931928311607,0.0013931928421365,-0.0013422582020303,0.0013422581669998,-0.0013422581678772,0.0013422582011529,5.3103465960861e-14,1.2689558261823e-12,6.9283786552879e-13,7.0127242954983e-13,-0.0013689255040435,0.001368925505132,-0.0013931928362843,0.0013931928370402,-0.0013931928361907,0.0013931928371893,-0.0013931928357926,0.0013931928375942,-0.0013931928358807,0.0013931928374508,-0.0013422581836991,0.0013422581852749,-0.0013422581836704,0.0013422581851781,-0.0013422581844312,0.001342258184449,-0.0013422581833731,0.0013422581854644,1.7372457695107e-11,-1.7372885262928e-11,-0.0013689255046168,0.0013689255046163,3.9572835194696e-15,-4.4445995146534e-15,-0.0013931928309921,0.0013931928427155,-0.0013931928308261,0.0013931928425439,-0.0013931928427109,0.0013931928309922,-0.0013931928425487,0.0013931928308243,-0.0013422582013484,0.0013422581674363,-0.0013422581674357,0.0013422582013414,0.74105947805501,0.79872794154507,1368840,32768,0.0056876044265769,0.0056876044265769,0.0056876044266962,17.596277998033,17.606192266536,5.5970223984264e-05,5.5970223984264e-05,5.5970223984264e-05,302465.08868508,0.01720940895553
19526400,0.99976320288166,0.016911199608173,0.0056370665360188,0.0056370665360188,0.0056370665361353,-0.001369265651727,0.0013692656512489,-1.7877532603651e-11,1.7400814299421e-11,3.5452833116755e-13,-8.4134082702702e-13,-0.0013935801828045,0.0013935801711139,-0.0013935801711874,0.001393580182731,-0.0013935801832665,0.001393580170535,-0.0013935801714123,0.0013935801823892,-0.0013425515616524,0.0013425515266159,-0.0013425515274939,0.0013425515607744,5.2901766240296e-14,1.2687509317064e-12,6.9258714157059e-13,7.0102329010204e-13,-0.0013692656509439,0.0013692656520319,-0.0013935801765367,0.001393580177292,-0.0013935801764432,0.0013935801774411,-0.0013935801760451,0.001393580177846,-0.001393580176133,0.0013935801777026,-0.0013425515433184,0.0013425515448938,-0.0013425515432897,0.0013425515447971,-0.0013425515440505,0.0013425515440681,-0.0013425515429925,0.0013425515450835,1.7375142642495e-11,-1.7375568291257e-11,-0.0013692656515169,0.0013692656515165,3.958783473647e-15,-4.4444818711885e-15,-0.0013935801712432,0.0013935801829685,-0.0013935801710772,0.0013935801827969,-0.0013935801829639,0.0013935801712434,-0.0013935801828017,0.0013935801710755,-0.0013425515609704,0.0013425515270529,-0.0013425515270523,0.0013425515609633,0.73953861728569,0.76022035978189,1368840,32768,0.0056890135425575,0.0056890135425575,0.005689013542677,17.822178574669,17.83209268394,5.7777428597347e-05,5.7777428597347e-05,5.7777428597347e-05,304496.28695195,0.017213709497834
19612800,0.99976763464509,0.016911271246477,0.0056370904154535,0.0056370904154535,0.0056370904155701,-0.0013695986425783,0.0013695986420995,-1.7880182302116e-11,1.7402828120253e-11,3.5420220877742e-13,-8.416585820257e-13,-0.0013939653966483,0.0013939653849555,-0.0013939653850296,0.0013939653965741,-0.0013939653971102,0.0013939653843768,-0.0013939653852547,0.0013939653962322,-0.0013428347378824,0.0013428347028406,-0.0013428347037192,0.0013428347370038,5.2657214887642e-14,1.2685110787396e-12,6.9230507665807e-13,7.0074198987204e-13,-0.0013695986417952,0.0013695986428827,-0.0013939653903796,0.0013939653911344,-0.0013939653902863,0.0013939653912835,-0.0013939653898883,0.0013939653916884,-0.001393965389976,0.0013939653915449,-0.0013428347195459,0.001342834721121,-0.0013428347195173,0.0013428347210242,-0.001342834720278,0.0013428347202954,-0.0013428347192201,0.0013428347213107,1.7377477041769e-11,-1.7377904661059e-11,-0.001369598642368,0.0013695986423675,3.9586364193159e-15,-4.445864181901e-15,-0.0013939653850851,0.001393965396812,-0.0013939653849191,0.0013939653966404,-0.0013939653968074,0.0013939653850853,-0.0013939653966452,0.0013939653849174,-0.0013428347372002,0.001342834703278,-0.0013428347032774,0.0013428347371931,0.73751706674196,0.7217127780187,1368840,32768,0.0056903930239255,0.0056903930239255,0.005690393024045,18.048079310512,18.057993101344,5.9584634484092e-05,5.9584634484092e-05,5.9584634484092e-05,306867.15688737,0.017217919572571
19699200,0.99977204525426,0.016911342311161,0.0056371141036816,0.0056371141036815,0.0056371141037981,-0.0013699253135902,0.0013699253131108,-1.788268510801e-11,1.7404651917478e-11,3.5385564583527e-13,-8.4199915985658e-13,-0.0013943485122092,0.0013943485005144,-0.0013943485005892,0.0013943485121344,-0.0013943485126711,0.0013943484999358,-0.0013943485008144,0.0013943485117925,-0.0013431087291997,0.0013431086941528,-0.0013431086950321,0.0013431087283204,5.2380105706079e-14,1.2682409693442e-12,6.9199443173629e-13,7.0043523453732e-13,-0.001369925312807,0.0013699253138939,-0.0013943485059398,0.001394348506694,-0.0013943485058467,0.0013943485068431,-0.0013943485054487,0.0013943485072481,-0.0013943485055362,0.0013943485071045,-0.0013431087108608,0.0013431087124355,-0.0013431087108324,0.0013431087123389,-0.001343108711593,0.0013431087116101,-0.0013431087105352,0.0013431087126254,1.7379648946007e-11,-1.7380076616766e-11,-0.0013699253133795,0.0013699253133791,3.9600701990443e-15,-4.4478052990718e-15,-0.0013943485006443,0.0013943485123727,-0.0013943485004783,0.0013943485122011,-0.0013943485123681,0.0013943485006445,-0.0013943485122058,0.0013943485004766,-0.0013431087285173,0.0013431086945907,-0.0013431086945901,0.0013431087285102,0.73515217358035,0.68320519625551,1368840,32768,0.0056917463301023,0.0056917463301023,0.0056917463302219,18.273979993468,18.283893518748,6.1391839947743e-05,6.1391839947743e-05,6.1391839947743e-05,309515.00191294,0.017222049753033
19785600,0.99977643350778,0.016911412761443,0.005637137587109,0.005637137587109,0.0056371375872255,-0.0013702462908737,0.0013702462903935,-1.7885200692925e-11,1.7406452715406e-11,3.5349284809496e-13,-8.4235861946357e-13,-0.0013947295415935,0.0013947295298967,-0.0013947295299722,0.001394729541518,-0.0013947295420554,0.0013947295293182,-0.0013947295301975,0.0013947295411761,-0.0013433743468494,0.0013433743117975,-0.0013433743126775,0.0013433743459694,5.2078938435944e-14,1.2679506399783e-12,6.9166512194354e-13,7.0010700927026e-13,-0.0013702462900905,0.0013702462911767,-0.0013947295353234,0.0013947295360769,-0.0013947295352305,0.0013947295362261,-0.0013947295348325,0.001394729536631,-0.0013947295349198,0.0013947295364874,-0.0013433743285082,0.0013433743300825,-0.0013433743284799,0.0013433743299859,-0.0013433743292405,0.0013433743292572,-0.0013433743281827,0.0013433743302725,1.73818182915e-11,-1.7382247072519e-11,-0.0013702462906627,0.0013702462906622,3.9600996099105e-15,-4.4489523228545e-15,-0.0013947295300269,0.0013947295417567,-0.0013947295298608,0.0013947295415851,-0.0013947295417521,0.001394729530027,-0.0013947295415899,0.0013947295298591,-0.0013433743461668,0.0013433743122359,-0.0013433743122353,0.0013433743461598,0.73254359579524,0.64469761449232,1368840,32768,0.0056930760513963,0.0056930760513962,0.0056930760515159,18.499880622253,18.509793936152,6.3199044978025e-05,6.3199044978025e-05,6.3199044978025e-05,312394.23916587,0.017226107955833
19872000,0.99978078911857,0.016911482295297,0.00563716076506,0.00563716076506,0.0056371607651765,-0.0013704971196593,0.0013704971191784,-1.7887322686923e-11,1.7407824644083e-11,3.5311450671185e-13,-8.4273572559029e-13,-0.0013950442481636,0.001395044236465,-0.0013950442365412,0.0013950442480873,-0.0013950442486255,0.0013950442358866,-0.0013950442367667,0.0013950442477454,-0.0013435668658912,0.001343566830835,-0.0013435668317157,0.0013435668650105,5.1755948303071e-14,1.267640697241e-12,6.9131799100403e-13,6.9976232862355e-13,-0.001370497118876,0.0013704971199616,-0.001395044241893,0.0013950442426457,-0.0013950442418002,0.0013950442427949,-0.0013950442414022,0.0013950442431999,-0.0013950442414894,0.0013950442430562,-0.0013435668475481,0.0013435668491218,-0.0013435668475199,0.0013435668490253,-0.0013435668482804,0.0013435668482966,-0.0013435668472226,0.001343566849312,1.7383579531813e-11,-1.7384009055456e-11,-0.0013704971194479,0.0013704971194475,3.9612466336933e-15,-4.4501875792359e-15,-0.0013950442365955,0.0013950442483266,-0.0013950442364294,0.0013950442481549,-0.001395044248322,0.0013950442365956,-0.0013950442481597,0.0013950442364277,-0.0013435668652084,0.0013435668312738,-0.0013435668312732,0.0013435668652013,0.72847029287287,0.58613753799082,1368840,32768,0.0056941151474124,0.0056941151474124,0.0056941151475321,18.692240257467,18.700715052263,6.4737922059737e-05,6.4737922059737e-05,6.4737922059737e-05,315492.16313098,0.017229279271413
19958400,0.99978505799961,0.0169115510457,0.0056371836818612,0.0056371836818612,0.0056371836819777,-0.001370289878015,0.0013702898775329,-1.789201232307e-11,1.7411335889758e-11,3.5253306859204e-13,-8.4334776571642e-13,-0.0013949403246746,0.0013949403129721,-0.0013949403130496,0.0013949403245971,-0.0013949403251364,0.001394940312394,-0.0013949403132753,0.0013949403242552,-0.0013432663966683,0.0013432663616027,-0.0013432663624846,0.0013432663957864,5.124646386747e-14,1.2671831009261e-12,6.9077477230487e-13,6.9923584470727e-13,-0.0013702898772317,0.0013702898783163,-0.0013949403184026,0.0013949403191541,-0.0013949403183101,0.0013949403193035,-0.0013949403179121,0.0013949403197084,-0.0013949403179989,0.0013949403195647,-0.0013432663783209,0.0013432663798939,-0.0013432663782928,0.0013432663797974,-0.0013432663790533,0.0013432663790689,-0.0013432663779956,0.0013432663800842,1.7387701376482e-11,-1.7388136348488e-11,-0.0013702898778031,0.0013702898778026,3.9667023493778e-15,-4.4619519257256e-15,-0.0013949403131031,0.001394940324837,-0.0013949403129371,0.0013949403246653,-0.0013949403248324,0.0013949403131033,-0.0013949403246702,0.0013949403129354,-0.0013432663959852,0.0013432663620424,-0.0013432663620418,0.0013432663959781,0.73489968141465,0.70684412759495,1368840,32768,0.0056932563977502,0.0056932563977502,0.0056932563978701,18.685119221638,18.685007471449,6.4680953773102e-05,6.4680953773102e-05,6.4680953773102e-05,320809.91829095,0.017226659169063
20044800,0.99978923981852,0.016911618591996,0.0056372061972931,0.0056372061972931,0.0056372061974096,-0.0013706468999773,0.0013706468994974,-1.7893566231481e-11,1.7415080275369e-11,3.5364971094997e-13,-8.4224862282389e-13,-0.0013951119642009,0.0013951119524986,-0.0013951119525739,0.0013951119641256,-0.0013951119646628,0.0013951119519201,-0.0013951119527992,0.0013951119637837,-0.0013437948904623,0.0013437948553941,-0.0013437948562738,0.0013437948895825,5.2129878056244e-14,1.2680414533805e-12,6.9176661332834e-13,7.0022729971312e-13,-0.0013706468991941,0.0013706469002806,-0.001395111957928,0.0013951119586817,-0.001395111957835,0.0013951119588309,-0.0013951119574369,0.0013951119592358,-0.0013951119575244,0.0013951119590922,-0.0013437948721129,0.0013437948736872,-0.0013437948720845,0.0013437948735906,-0.0013437948728452,0.0013437948728618,-0.0013437948717873,0.0013437948738772,1.7390322325825e-11,-1.7390757341948e-11,-0.0013706468997664,0.001370646899766,3.9662611863845e-15,-4.4614225301336e-15,-0.0013951119526287,0.0013951119643642,-0.0013951119524627,0.0013951119641926,-0.0013951119643596,0.0013951119526289,-0.0013951119641974,0.001395111952461,-0.0013437948897798,0.0013437948558322,-0.0013437948558316,0.0013437948897727,0.73711176629028,0.74287786107422,1368840,32768,0.0056947358674605,0.0056947358674605,0.0056947358675801,18.66995044362,18.669299890635,6.455960354896e-05,6.455960354896e-05,6.455960354896e-05,309453.7602385,0.017231172901639
20131200,0.99979333629833,0.016911684987476,0.0056372283291198,0.0056372283291198,0.0056372283292363,-0.0013707308560566,0.0013707308555774,-1.7895428762818e-11,1.7417581757774e-11,3.5397390692836e-13,-8.4192572092362e-13,-0.0013951424845029,0.0013951424727996,-0.0013951424728743,0.0013951424844282,-0.0013951424849648,0.001395142472221,-0.0013951424730994,0.0013951424840863,-0.0013439275122454,0.0013439274771736,-0.0013439274780527,0.0013439275113662,5.2393634704542e-14,1.2682940743396e-12,6.9205643903319e-13,7.0051848199417e-13,-0.0013707308552735,0.0013707308563605,-0.0013951424782292,0.0013951424789835,-0.001395142478136,0.0013951424791327,-0.0013951424777379,0.0013951424795376,-0.0013951424778256,0.0013951424793941,-0.001343927493894,0.0013439274954688,-0.0013439274938655,0.0013439274953721,-0.0013439274946263,0.0013439274946432,-0.0013439274935683,0.0013439274956586,1.7392494965335e-11,-1.7392930569675e-11,-0.0013707308558461,0.0013707308558456,3.9670258689063e-15,-4.462010747458e-15,-0.0013951424729295,0.0013951424846664,-0.0013951424727635,0.0013951424844947,-0.0013951424846618,0.0013951424729296,-0.0013951424844996,0.0013951424727617,-0.001343927511563,0.0013439274776113,-0.0013439274776108,0.0013439275115559,0.73952440908877,0.77624390056034,1368840,32768,0.005695083784878,0.005695083784878,0.0056950837849976,18.654279026375,18.65359230982,6.4434232210997e-05,6.4434232210997e-05,6.4434232210997e-05,305775.33464949,0.017232234330874
20217600,0.99979734924861,0.016911750276475,0.0056372500921196,0.0056372500921196,0.0056372500922361,-0.0013708061397404,0.0013708061392618,-1.7897466965258e-11,1.7420219883064e-11,3.5427503008219e-13,-8.4162058318654e-13,-0.0013951678435628,0.0013951678318585,-0.0013951678319326,0.0013951678434888,-0.0013951678440247,0.0013951678312798,-0.0013951678321576,0.0013951678431469,-0.0013440474698119,0.0013440474347363,-0.0013440474356148,0.0013440474689334,5.2652450327314e-14,1.2685373352905e-12,6.923328827939e-13,7.0079520883447e-13,-0.0013708061389573,0.0013708061400449,-0.0013951678372884,0.0013951678380432,-0.001395167837195,0.0013951678381924,-0.0013951678367969,0.0013951678385973,-0.0013951678368847,0.0013951678384538,-0.0013440474514585,0.0013440474530336,-0.0013440474514299,0.0013440474529369,-0.0013440474521906,0.0013440474522079,-0.0013440474511326,0.0013440474532233,1.7394822570699e-11,-1.7395257564763e-11,-0.0013708061395301,0.0013708061395297,3.9673052721354e-15,-4.4622460343878e-15,-0.0013951678319881,0.0013951678437266,-0.0013951678318221,0.0013951678435549,-0.001395167843722,0.0013951678319883,-0.0013951678435597,0.0013951678318204,-0.0013440474691297,0.0013440474351736,-0.001344047435173,0.0013440474691226,0.74229529864064,0.80868178139082,1368840,32768,0.0056953957565693,0.0056953957565693,0.0056953957566887,18.63857394281,18.637884729006,6.4308591542478e-05,6.4308591542478e-05,6.4308591542478e-05,302293.21906569,0.017233186119992
20304000,0.99980128044706,0.016911814514218,0.0056372715047006,0.0056372715047006,0.0056372715048171,-0.0013708783657198,0.0013708783652417,-1.7899672515527e-11,1.7423020385746e-11,3.5457105045074e-13,-8.4131597484506e-13,-0.001395190913043,0.0013951909013376,-0.001395190901411,0.0013951909129696,-0.001395190913505,0.0013951909007587,-0.001395190901636,0.0013951909126277,-0.0013441627567303,0.0013441627216504,-0.0013441627225283,0.0013441627558523,5.2919295116565e-14,1.2687847027336e-12,6.9260958206152e-13,7.0107386208651e-13,-0.0013708783649367,0.0013708783660248,-0.0013951909067677,0.0013951909075232,-0.0013951909066742,0.0013951909076723,-0.0013951909062762,0.0013951909080772,-0.0013951909063641,0.0013951909079337,-0.0013441627383745,0.00134416273995,-0.0013441627383459,0.0013441627398533,-0.0013441627391066,0.0013441627391243,-0.0013441627380486,0.0013441627401397,1.7397312465223e-11,-1.7397748473962e-11,-0.0013708783655098,0.0013708783655093,3.9676287916639e-15,-4.4638930428964e-15,-0.001395190901467,0.001395190913207,-0.001395190901301,0.0013951909130354,-0.0013951909132024,0.0013951909014671,-0.0013951909130402,0.0013951909012992,-0.0013441627560483,0.0013441627220873,-0.0013441627220868,0.0013441627560412,0.74549162401939,0.84111966222131,1368840,32768,0.0056956950478252,0.0056956950478252,0.0056956950479446,18.62286657392,18.622177148191,6.4182932591356e-05,6.4182932591356e-05,6.4182932591356e-05,298841.30794739,0.017234099254628
20390400,0.99980513163256,0.016911877475806,0.0056372924918965,0.0056372924918964,0.005637292492013,-0.0013709501411056,0.0013709501406281,-1.7902168542216e-11,1.7426121673356e-11,3.5487052659606e-13,-8.4100483729127e-13,-0.0013952130570208,0.001395213045314,-0.0013952130453869,0.0013952130569479,-0.0013952130574827,0.001395213044735,-0.0013952130456117,0.001395213056606,-0.0013442771329713,0.0013442770978866,-0.001344277098764,0.0013442771320939,5.3200257121604e-14,1.2690430146952e-12,6.9289405682689e-13,7.0136063273763e-13,-0.0013709501403226,0.0013709501414112,-0.0013952130507445,0.0013952130515006,-0.0013952130506509,0.0013952130516497,-0.0013952130502528,0.0013952130520546,-0.0013952130503409,0.0013952130519111,-0.0013442771146129,0.0013442771161889,-0.0013442771145842,0.0013442771160921,-0.001344277115345,0.0013442771153631,-0.0013442771142869,0.0013442771163784,1.7400096291943e-11,-1.7400531646291e-11,-0.0013709501408959,0.0013709501408954,3.969349327338e-15,-4.4647165471507e-15,-0.0013952130454431,0.001395213057185,-0.0013952130452771,0.0013952130570134,-0.0013952130571804,0.0013952130454433,-0.0013952130570182,0.0013952130452754,-0.0013442771322895,0.0013442770983232,-0.0013442770983226,0.0013442771322824,0.74582830520677,0.82126598431432,1368840,32768,0.0056959924622415,0.0056959924622415,0.005695992462361,18.607158997988,18.606469567377,6.4057271983901e-05,6.4057271983901e-05,6.4057271983901e-05,295346.17278733,0.017235006695897
20476800,0.99980890450554,0.016911938616837,0.0056373128722401,0.0056373128722401,0.0056373128723566,-0.0013708776232374,0.0013708776227597,-1.7903421930396e-11,1.742711423127e-11,3.5473867768278e-13,-8.4110280488667e-13,-0.0013951609918269,0.0013951609801192,-0.0013951609801923,0.0013951609917538,-0.0013951609922888,0.0013951609795403,-0.0013951609804172,0.0013951609914119,-0.0013441824678505,0.0013441824327633,-0.001344182433641,0.001344182466973,5.3120112511143e-14,1.2689349077037e-12,6.9276907902723e-13,7.0124278339667e-13,-0.0013708776224544,0.0013708776235428,-0.0013951609855503,0.0013951609863061,-0.0013951609854567,0.0013951609864552,-0.0013951609850587,0.0013951609868601,-0.0013951609851467,0.0013951609867167,-0.0013441824494911,0.0013441824510669,-0.0013441824494625,0.0013441824509701,-0.0013441824502231,0.0013441824502412,-0.001344182449165,0.0013441824512564,1.7401199140605e-11,-1.7401662295574e-11,-0.0013708776230276,0.0013708776230272,3.9455412311296e-15,-4.4952156154251e-15,-0.0013951609802484,0.001395160991991,-0.0013951609800824,0.0013951609918194,-0.0013951609919865,0.0013951609802486,-0.0013951609918242,0.0013951609800807,-0.0013441824671688,0.0013441824332001,-0.0013441824331996,0.0013441824671616,0.73927061588652,0.7051435878032,1368840,32768,0.0056956919431834,0.0056956919431834,0.0056956919433029,18.591451335201,18.590761986563,6.3931610681605e-05,6.3931610681605e-05,6.3931610681605e-05,295872.66297668,0.017234089871761
20563200,0.99981260072887,0.016911997748368,0.0056373325827505,0.0056373325827504,0.005637332582867,-0.0013705170821373,0.0013705170816577,-1.790551321945e-11,1.7427271020598e-11,3.5372234108411e-13,-8.4208024561476e-13,-0.0013949641276204,0.0013949641159102,-0.0013949641159853,0.0013949641275453,-0.0013949641280822,0.0013949641153316,-0.0013949641162105,0.0013949641272034,-0.0013436709523659,0.0013436709172744,-0.0013436709181539,0.0013436709514865,5.2303725686495e-14,1.2681180355998e-12,6.9187282331899e-13,7.0033854631461e-13,-0.0013705170813542,0.0013705170824409,-0.0013949641213434,0.0013949641220973,-0.0013949641212503,0.0013949641222465,-0.0013949641208523,0.0013949641226514,-0.0013949641209398,0.0013949641225079,-0.0013436709340048,0.0013436709355793,-0.0013436709339763,0.0013436709354827,-0.0013436709347369,0.0013436709347539,-0.0013436709336792,0.0013436709357691,1.7402369428383e-11,-1.7402789158208e-11,-0.0013705170819266,0.0013705170819261,3.9717021966359e-15,-4.4609225454077e-15,-0.0013949641160402,0.0013949641277838,-0.0013949641158742,0.0013949641276121,-0.0013949641277792,0.0013949641160404,-0.001394964127617,0.0013949641158725,-0.0013436709516835,0.0013436709177123,-0.0013436709177119,0.0013436709516764,0.72982046159703,0.5627439105104,1368840,32768,0.0056941979365038,0.0056941979365038,0.0056941979366235,18.575743713059,18.575054405748,6.3805949704466e-05,6.3805949704466e-05,6.3805949704466e-05,304747.69546665,0.017229531626084
20649600,0.99981620833198,0.016912054639387,0.0056373515464236,0.0056373515464236,0.0056373515465401,-0.0013699121822056,0.0013699121817233,-1.7908040098138e-11,1.7427134024783e-11,3.5235948565958e-13,-8.4342493982939e-13,-0.0013945904667412,0.001394590455028,-0.0013945904551057,0.0013945904666635,-0.0013945904672031,0.0013945904544499,-0.0013945904553314,0.0013945904663216,-0.0013428556904584,0.0013428556553615,-0.0013428556562436,0.0013428556895762,5.1168995645836e-14,1.267015914857e-12,6.9062424749154e-13,6.990724673454e-13,-0.0013699121814223,0.0013699121825066,-0.0013945904604639,0.0013945904612152,-0.0013945904603715,0.0013945904613646,-0.0013945904599736,0.0013945904617695,-0.0013945904600604,0.0013945904616258,-0.0013428556720953,0.0013428556736681,-0.0013428556720673,0.0013428556735717,-0.0013428556728277,0.0013428556728433,-0.0013428556717701,0.0013428556738585,1.7403624948851e-11,-1.7404025885132e-11,-0.0013699121819936,0.0013699121819932,3.9545556616273e-15,-4.4605696150131e-15,-0.001394590455159,0.0013945904669036,-0.001394590454993,0.0013945904667319,-0.001394590466899,0.0013945904551592,-0.0013945904667367,0.0013945904549913,-0.0013428556897751,0.0013428556558012,-0.0013428556558006,0.0013428556897681,0.71951860326994,0.4203442332176,1368840,32768,0.0056916914884913,0.0056916914884913,0.0056916914886112,18.499601495097,18.496320583305,6.3196811960777e-05,6.3196811960777e-05,6.3196811960777e-05,317641.02881712,0.017221883966569
20736000,0.99981966336205,0.01691210965972,0.0056373698865345,0.0056373698865345,0.005637369886651,-0.0013686538971949,0.0013686538967095,-1.7912795144051e-11,1.7428807326606e-11,3.5082144441039e-13,-8.449838627936e-13,-0.0013936029245375,0.0013936029128195,-0.0013936029129002,0.0013936029244567,-0.0013936029249993,0.001393602912242,-0.0013936029131265,0.0013936029241148,-0.0013413528932136,0.0013413528581066,-0.0013413528589918,0.0013413528923284,4.988344668318e-14,1.265807885585e-12,6.8924785939219e-13,6.9769334771185e-13,-0.0013686538964113,0.001368653897493,-0.0013936029182592,0.0013936029190075,-0.0013936029181676,0.001393602919157,-0.0013936029177696,0.001393602919562,-0.0013936029178556,0.0013936029194181,-0.0013413528748464,0.0013413528764173,-0.0013413528748188,0.0013413528763211,-0.001341352875579,0.0013413528755929,-0.0013413528745217,0.0013413528766082,1.7406897025362e-11,-1.7407327107812e-11,-0.0013686538969813,0.0013686538969809,3.9612392809767e-15,-4.451511068216e-15,-0.0013936029129518,0.0013936029246987,-0.0013936029127857,0.001393602924527,-0.0013936029246941,0.001393602912952,-0.0013936029245318,0.001393602912784,-0.0013413528925294,0.0013413528585485,-0.0013413528585479,0.0013413528925223,0.7266864489281,0.55131483595069,1368840,32768,0.0056864780203895,0.0056864780203895,0.0056864780205096,18.118301300501,18.101876137917,6.0146410404004e-05,6.0146410404004e-05,6.0146410404004e-05,332829.49109245,0.017205975608222
20822400,0.99982297099727,0.016912162869799,0.0056373876232276,0.0056373876232276,0.0056373876233441,-0.0013683586078698,0.0013683586073869,-1.7915772406039e-11,1.7434348274981e-11,3.5215087438545e-13,-8.4372048962408e-13,-0.0013930819242234,0.0013930819125048,-0.0013930819125829,0.0013930819241452,-0.0013930819246853,0.0013930819119268,-0.0013930819128088,0.0013930819238033,-0.0013412658409383,0.0013412658058259,-0.0013412658067086,0.0013412658400556,5.0907974208097e-14,1.2668482765959e-12,6.9041039556868e-13,6.9888010557486e-13,-0.0013683586070864,0.0013683586081703,-0.0013930819179437,0.0013930819186944,-0.0013930819178514,0.0013930819188438,-0.0013930819174533,0.0013930819192488,-0.00139308191754,0.001393081919105,-0.0013412658225677,0.0013412658241401,-0.0013412658225397,0.0013412658240438,-0.0013412658233002,0.0013412658233153,-0.0013412658222425,0.0013412658243307,1.7411109279034e-11,-1.7411548170038e-11,-0.0013683586076575,0.001368358607657,3.9685993502493e-15,-4.4681576184989e-15,-0.0013930819126361,0.0013930819243856,-0.00139308191247,0.0013930819242139,-0.001393081924381,0.0013930819126362,-0.0013930819242187,0.0013930819124683,-0.0013412658402549,0.0013412658062661,-0.0013412658062655,0.0013412658402478,0.73424409876439,0.69238088739836,1368840,32768,0.0056852549947382,0.0056852549947382,0.0056852549948581,17.72468233194,17.70743169253,5.6997458655518e-05,5.6997458655518e-05,5.6997458655518e-05,318964.65161076,0.017202242110964
20908800,0.99982613859962,0.016912213585716,0.0056374045285331,0.0056374045285331,0.0056374045286496,-0.0013680493786099,0.0013680493781296,-1.7917031088175e-11,1.7438173981637e-11,3.5345927559117e-13,-8.4243205839653e-13,-0.0013925533912067,0.0013925533794885,-0.0013925533795642,0.0013925533911311,-0.0013925533916686,0.00139255337891,-0.0013925533797895,0.0013925533907892,-0.0013411602392093,0.001341160204095,-0.0013411602049752,0.0013411602383292,5.1944648420765e-14,1.2678551134848e-12,6.9157047042331e-13,7.0004090834842e-13,-0.0013680493778267,0.0013680493789128,-0.0013925533849261,0.0013925533856793,-0.0013925533848331,0.0013925533858286,-0.001392553384435,0.0013925533862335,-0.0013925533845224,0.0013925533860899,-0.001341160220837,0.001341160222411,-0.0013411602208087,0.0013411602223145,-0.0013411602215694,0.0013411602215857,-0.0013411602205115,0.0013411602226011,1.7413615790697e-11,-1.7414055365503e-11,-0.0013680493783988,0.0013680493783984,3.9687316991473e-15,-4.4689223010207e-15,-0.0013925533796188,0.0013925533913699,-0.0013925533794528,0.0013925533911982,-0.0013925533913653,0.001392553379619,-0.001392553391203,0.001392553379451,-0.0013411602385266,0.0013411602045335,-0.0013411602045329,0.0013411602385195,0.73062466183741,0.63314123000179,1368840,32768,0.0056839742189994,0.0056839742189994,0.005683974219119,17.330292942081,17.312987247142,5.384234353665e-05,5.384234353665e-05,5.384234353665e-05,305689.89710562,0.017198332369383
20995200,0.99982917323461,0.016912262006517,0.0056374206688003,0.0056374206688003,0.0056374206689168,-0.0013671064673782,0.0013671064668968,-1.792024657818e-11,1.7440311710449e-11,3.5291067470349e-13,-8.4297380655238e-13,-0.0013917016572445,0.0013917016455236,-0.0013917016456003,0.0013917016571678,-0.0013917016577064,0.0013917016449453,-0.0013917016458259,0.0013917016568259,-0.0013401335450757,0.001340133509955,-0.0013401335108362,0.0013401335441945,5.1495103330529e-14,1.2674191782729e-12,6.910749359292e-13,6.9954570288838e-13,-0.0013671064665949,0.0013671064676801,-0.001391701650963,0.0013917016517152,-0.0013917016508703,0.0013917016518645,-0.0013917016504723,0.0013917016522694,-0.0013917016505594,0.0013917016521258,-0.0013401335267005,0.0013401335282739,-0.0013401335266723,0.0013401335281774,-0.0013401335274329,0.0013401335274487,-0.0013401335263751,0.0013401335284641,1.7416309031949e-11,-1.7416749746427e-11,-0.0013671064671666,0.0013671064671662,3.9681728926891e-15,-4.4695399292114e-15,-0.0013917016456543,0.0013917016574073,-0.0013917016454883,0.0013917016572356,-0.0013917016574027,0.0013917016456545,-0.0013917016572404,0.0013917016454866,-0.0013401335443928,0.0013401335103941,-0.0013401335103935,0.0013401335443857,0.72798884797732,0.59471585585635,1368840,32768,0.0056800675360474,0.0056800675360474,0.0056800675361671,16.935852160589,16.918542801755,5.0686817284712e-05,5.0686817284712e-05,5.0686817284712e-05,310446.65204772,0.017186411345735
21081600,0.99983208155323,0.016912308419558,0.0056374361398139,0.0056374361398139,0.0056374361399304,-0.0013662214019093,0.0013662214014272,-1.7924264205444e-11,1.7443580639997e-11,3.5253450972448e-13,-8.4335358906793e-13,-0.0013908799580172,0.0013908799462932,-0.0013908799463707,0.0013908799579397,-0.0013908799584791,0.0013908799457151,-0.0013908799465964,0.0013908799575978,-0.0013391907459946,0.0013391907108658,-0.0013391907117477,0.0013391907451126,5.1175877788533e-14,1.2671173455819e-12,6.907311081976e-13,6.9920116929599e-13,-0.001366221401126,0.0013662214022105,-0.0013908799517345,0.0013908799524859,-0.001390879951642,0.0013908799526353,-0.0013908799512439,0.0013908799530402,-0.0013908799513308,0.0013908799528965,-0.0013391907276156,0.0013391907291884,-0.0013391907275875,0.001339190729092,-0.001339190728348,0.0013391907283634,-0.0013391907272903,0.0013391907293788,1.7419968390747e-11,-1.7420407259693e-11,-0.0013662214016974,0.0013662214016969,3.9690625713923e-15,-4.4683340836962e-15,-0.0013908799464242,0.0013908799581796,-0.0013908799462582,0.0013908799580079,-0.001390879958175,0.0013908799464244,-0.0013908799580127,0.0013908799462564,-0.0013391907453113,0.0013391907113054,-0.0013391907113048,0.0013391907453042,0.72816123741904,0.60389552379455,1368840,32768,0.0056764005532187,0.0056764005532187,0.0056764005533385,16.54140804252,16.524098356367,4.7531264340159e-05,4.7531264340159e-05,4.7531264340159e-05,313607.57796525,0.017175221715138
21168000,0.99983486981167,0.016912352928152,0.0056374509760117,0.0056374509760117,0.0056374509761283,-0.0013654897966189,0.001365489796137,-1.7927650204945e-11,1.7447108561633e-11,3.5261009565068e-13,-8.4328529703656e-13,-0.0013901360402495,0.0013901360285234,-0.0013901360286007,0.0013901360401722,-0.0013901360407114,0.0013901360279452,-0.0013901360288264,0.0013901360398303,-0.0013384710999614,0.001338471064826,-0.0013384710657079,0.0013384710990796,5.1220905824722e-14,1.2671664948158e-12,6.9079015786427e-13,6.9925993220671e-13,-0.0013654897958356,0.0013654897969202,-0.0013901360339657,0.0013901360347173,-0.0013901360338731,0.0013901360348666,-0.0013901360334751,0.0013901360352715,-0.001390136033562,0.0013901360351279,-0.0013384710815791,0.001338471083152,-0.001338471081551,0.0013384710830556,-0.0013384710823116,0.001338471082327,-0.0013384710812538,0.0013384710833424,1.7423426490986e-11,-1.7423865043765e-11,-0.0013654897964071,0.0013654897964066,3.9691728621407e-15,-4.4681576184989e-15,-0.0013901360286543,0.0013901360404121,-0.0013901360284883,0.0013901360402403,-0.0013901360404075,0.0013901360286545,-0.0013901360402452,0.0013901360284866,-0.0013384710992783,0.0013384710652656,-0.001338471065265,0.0013384710992712,0.72838414984407,0.61307519173276,1368840,32768,0.0056733694788894,0.0056733694788894,0.0056733694790092,16.14696370008,16.12965391098,4.4375709600635e-05,4.4375709600635e-05,4.4375709600635e-05,312361.22487703,0.017165972248882
21254400,0.99983754791976,0.016912395694823,0.0056374652315688,0.0056374652315688,0.0056374652316853,-0.0013648040502265,0.0013648040497447,-1.7931034763314e-11,1.7450635395067e-11,3.5268559334428e-13,-8.4321626973353e-13,-0.0013894372087257,0.0013894371969974,-0.0013894371970746,0.0013894372086486,-0.0013894372091877,0.0013894371964192,-0.0013894371973002,0.0013894372083067,-0.0013377979002401,0.0013377978650981,-0.0013377978659798,0.0013377978993584,5.1269933738717e-14,1.2672184417582e-12,6.9085169826366e-13,6.9932153326602e-13,-0.0013648040494433,0.001364804050528,-0.0013894372024407,0.0013894372031925,-0.0013894372023482,0.0013894372033418,-0.0013894372019501,0.0013894372037467,-0.0013894372020371,0.0013894372036031,-0.0013377978818544,0.0013377978834274,-0.0013377978818263,0.001337797883331,-0.0013377978825869,0.0013377978826023,-0.0013377978815291,0.0013377978836177,1.7426882238357e-11,-1.7427321474939e-11,-0.0013648040500147,0.0013648040500143,3.9688493426122e-15,-4.4683929054287e-15,-0.0013894371971283,0.0013894372088883,-0.0013894371969623,0.0013894372087166,-0.0013894372088837,0.0013894371971285,-0.0013894372087214,0.0013894371969605,-0.0013377978995569,0.0013377978655375,-0.0013377978655369,0.0013377978995498,0.7286528142234,0.62225485967096,1368840,32768,0.0056705283931959,0.0056705283931959,0.0056705283933156,15.776135180632,15.75983803545,4.1409081445055e-05,4.1409081445055e-05,4.1409081445055e-05,311089.70284319,0.01715730261146
21340800,0.99984013433534,0.016912437015214,0.0056374790050326,0.0056374790050326,0.0056374790051491,-0.001364274231547,0.0013642742310654,-1.7934425615608e-11,1.7454174286957e-11,3.5276260569748e-13,-8.4314274256797e-13,-0.0013888930094956,0.0013888929977651,-0.0013888929978421,0.0013888930094186,-0.0013888930099575,0.0013888929971868,-0.0013888929980677,0.0013888930090767,-0.0013372815308062,0.0013372814956576,-0.0013372814965391,0.0013372815299246,5.1322755654456e-14,1.2672721165891e-12,6.9091569630856e-13,6.9938538425659e-13,-0.0013642742307638,0.0013642742318486,-0.0013888930032094,0.0013888930039613,-0.0013888930031168,0.0013888930041106,-0.0013888930027187,0.0013888930045156,-0.0013888930028058,0.0013888930043719,-0.0013372815124172,0.0013372815139902,-0.001337281512389,0.0013372815138938,-0.0013372815131496,0.0013372815131651,-0.0013372815120918,0.0013372815141805,1.7430347073685e-11,-1.7430785604406e-11,-0.0013642742313353,0.0013642742313349,3.9689963969433e-15,-4.4680693859002e-15,-0.0013888929978959,0.0013888930096582,-0.0013888929977299,0.0013888930094865,-0.0013888930096536,0.0013888929978961,-0.0013888930094913,0.0013888929977281,-0.001337281530123,0.0013372814960969,-0.0013372814960963,0.0013372815301159,0.72896328796597,0.63143452760917,1368840,32768,0.0056683333272453,0.0056683333272453,0.005668333327365,15.485953668302,15.473137698729,3.9087629346412e-05,3.9087629346412e-05,3.9087629346412e-05,309782.49823721,0.017150604336061
21427200,0.99984263336711,0.016912476959439,0.0056374923197742,0.0056374923197742,0.0056374923198907,-0.0013637507789959,0.0013637507785144,-1.7937799968406e-11,1.7457699326328e-11,3.5283972098872e-13,-8.4306803896776e-13,-0.0013883562875945,0.0013883562758619,-0.0013883562759387,0.0013883562875177,-0.0013883562880565,0.0013883562752836,-0.0013883562761643,0.0013883562871758,-0.0013367707866603,0.0013367707515051,-0.0013367707523865,0.0013367707857789,5.1378018672091e-14,1.2673264090481e-12,6.9098039469972e-13,6.994498749335e-13,-0.0013637507782127,0.0013637507792977,-0.0013883562813072,0.0013883562820592,-0.0013883562812146,0.0013883562822086,-0.0013883562808165,0.0013883562826135,-0.0013883562809036,0.0013883562824698,-0.001336770768268,0.0013367707698411,-0.0013367707682398,0.0013367707697447,-0.0013367707690004,0.0013367707690159,-0.0013367707679426,0.0013367707700314,1.7433796350665e-11,-1.7434234550514e-11,-0.0013637507787843,0.0013637507787838,3.9690111023764e-15,-4.4676282229068e-15,-0.0013883562759926,0.0013883562877572,-0.0013883562758266,0.0013883562875855,-0.0013883562877526,0.0013883562759928,-0.0013883562875903,0.0013883562758249,-0.0013367707859772,0.0013367707519444,-0.0013367707519438,0.0013367707859701,0.72931336135015,0.64061419554737,1368840,32768,0.0056661646277651,0.0056661646277651,0.0056661646278848,15.199034833296,15.186437362008,3.6792278666369e-05,3.6792278666369e-05,3.6792278666369e-05,308498.38119724,0.01714398658059
21513600,0.9998450486071,0.016912515941027,0.0056375053136367,0.0056375053136367,0.0056375053137532,-0.0013632278083954,0.001363227807914,-1.7942057205998e-11,1.7462080398371e-11,3.5294564422343e-13,-8.4304851015259e-13,-0.0013878199480228,0.0013878199362874,-0.0013878199363641,0.0013878199479461,-0.0013878199484848,0.0013878199357091,-0.0013878199365897,0.0013878199476042,-0.001336260600919,0.0013362605657555,-0.0013362605666368,0.0013362606000377,5.1408841259894e-14,1.2674398982282e-12,6.9106548585024e-13,6.9952764461651e-13,-0.0013632278076121,0.0013632278086973,-0.0013878199417341,0.0013878199424862,-0.0013878199416414,0.0013878199426355,-0.0013878199412433,0.0013878199430405,-0.0013878199413304,0.0013878199428969,-0.0013362605825225,0.0013362605840958,-0.0013362605824942,0.0013362605839993,-0.0013362605832549,0.0013362605832705,-0.001336260582197,0.001336260584286,1.7438115424603e-11,-1.7438551242171e-11,-0.0013632278081838,0.0013632278081833,3.9666582330785e-15,-4.462657786515e-15,-0.0013878199364181,0.0013878199481856,-0.0013878199362521,0.0013878199480139,-0.001387819948181,0.0013878199364183,-0.0013878199480187,0.0013878199362504,-0.001336260600236,0.0013362605661947,-0.0013362605661941,0.0013362606002289,0.73640785374712,0.77112383032438,1368840,32768,0.0056639979191631,0.0056639979191631,0.0056639979192828,14.912320682289,14.899737025288,3.4498565458308e-05,3.4498565458308e-05,3.4498565458308e-05,307209.31922421,0.017137374947559
21600000,0.99984738344282,0.016912553343301,0.0056375177810613,0.0056375177810613,0.0056375177811779,-0.0013630644703067,0.0013630644698276,-1.7942963869476e-11,1.7465247683966e-11,3.5408150658244e-13,-8.4189754531377e-13,-0.0013874670618423,0.0013874670501075,-0.001387467050182,0.0013874670617679,-0.0013874670623043,0.0013874670495288,-0.0013874670504071,0.001387467061426,-0.0013362736676837,0.0013362736325189,-0.0013362736333979,0.0013362736668047,5.2338195221709e-14,1.2683103716358e-12,6.9207453958317e-13,7.0055266477344e-13,-0.0013630644695237,0.0013630644706107,-0.0013874670555529,0.0013874670563072,-0.0013874670554596,0.0013874670564564,-0.0013874670550615,0.0013874670568613,-0.0013874670551492,0.0013874670567178,-0.0013362736492858,0.0013362736508605,-0.0013362736492573,0.0013362736507639,-0.0013362736500181,0.0013362736500348,-0.00133627364896,0.0013362736510503,1.744011956926e-11,-1.7440562541021e-11,-0.0013630644700962,0.0013630644700958,3.9701728315923e-15,-4.4750397611953e-15,-0.0013874670502373,0.0013874670620059,-0.0013874670500713,0.0013874670618343,-0.0013874670620014,0.0013874670502375,-0.0013874670618391,0.0013874670500696,-0.0013362736670013,0.0013362736329564,-0.0013362736329559,0.0013362736669942,0.73089914135611,0.66996005977474,1368840,32768,0.0056633215147719,0.0056633215147719,0.0056633215148914,14.625618729527,14.613036688567,3.2204949836216e-05,3.2204949836216e-05,3.2204949836216e-05,295776.57286618,0.017135309801448
21686400,0.99984964109761,0.016912589456577,0.00563752981882,0.00563752981882,0.0056375298189366,-0.0013622192189911,0.0013622192185102,-1.7947037597968e-11,1.7467609376524e-11,3.5319985704564e-13,-8.4274763699112e-13,-0.0013867651825664,0.0013867651708279,-0.0013867651709041,0.0013867651824902,-0.0013867651830283,0.0013867651702495,-0.0013867651711296,0.0013867651821483,-0.0013352955171961,0.001335295482023,-0.0013352954829037,0.0013352955163154,5.1643922313623e-14,1.2676179846995e-12,6.9128979885058e-13,6.9976809315333e-13,-0.0013622192182079,0.0013622192192934,-0.0013867651762759,0.0013867651770285,-0.001386765176183,0.0013867651771778,-0.001386765175785,0.0013867651775828,-0.0013867651758722,0.0013867651774391,-0.0013352954987946,0.0013352955003682,-0.0013352954987663,0.0013352955002717,-0.001335295499527,0.0013352954995428,-0.0013352954984691,0.0013352955005583,1.7443358323259e-11,-1.7443800927385e-11,-0.0013622192187797,0.0013622192187792,3.9712242700598e-15,-4.4741280243424e-15,-0.0013867651709584,0.0013867651827293,-0.0013867651707924,0.0013867651825576,-0.0013867651827247,0.0013867651709586,-0.0013867651825625,0.0013867651707906,-0.0013352955165132,0.0013352954824617,-0.0013352954824612,0.0013352955165061,0.72971739285602,0.65084678893061,1368840,32768,0.0056598192623948,0.0056598192623948,0.0056598192625145,14.338918262076,14.326336351846,2.991134609661e-05,2.991134609661e-05,2.991134609661e-05,303542.88274765,0.017124623969247
21772800,0.99985182464109,0.016912624319567,0.0056375414398169,0.0056375414398169,0.0056375414399334,-0.0013616092354425,0.0013616092349613,-1.79496812525e-11,1.7469908718045e-11,3.5302009783128e-13,-8.4291580832418e-13,-0.0013861842435094,0.001386184231769,-0.0013861842318455,0.0013861842434329,-0.0013861842439713,0.0013861842311906,-0.001386184232071,0.001386184243091,-0.0013346588990759,0.0013346588638975,-0.0013346588647786,0.0013346588981948,5.150257369055e-14,1.2674715847602e-12,6.9112857583465e-13,6.9960656132331e-13,-0.0013616092346593,0.0013616092357445,-0.0013861842372181,0.0013861842379704,-0.0013861842371253,0.0013861842381197,-0.0013861842367273,0.0013861842385246,-0.0013861842368144,0.001386184238381,-0.0013346588806719,0.0013346588822452,-0.0013346588806436,0.0013346588821487,-0.0013346588814043,0.0013346588814199,-0.0013346588803464,0.0013346588824354,1.7445836188739e-11,-1.7446277447317e-11,-0.001361609235231,0.0013616092352305,3.9714816151393e-15,-4.4732751092219e-15,-0.0013861842318996,0.0013861842436722,-0.0013861842317336,0.0013861842435005,-0.0013861842436676,0.0013861842318998,-0.0013861842435053,0.0013861842317319,-0.0013346588983929,0.0013346588643365,-0.0013346588643359,0.0013346588983858,0.72844761568661,0.63173351808648,1368840,32768,0.0056572919582938,0.0056572919582938,0.0056572919584135,14.052217890634,14.039636015125,2.7617743125069e-05,2.7617743125069e-05,2.7617743125069e-05,304724.14815569,0.017116912416567
21859200,0.99985395371558,0.016912658249025,0.0056375527496362,0.0056375527496362,0.0056375527497527,-0.0013612331966898,0.0013612331962083,-1.7952375876064e-11,1.7472248205399e-11,3.5283685342927e-13,-8.4309162648247e-13,-0.0013858361080328,0.0013858360962904,-0.0013858360963673,0.0013858361079559,-0.0013858361084947,0.0013858360957121,-0.0013858360965929,0.001385836107614,-0.0013342569028779,0.0013342568676942,-0.0013342568685756,0.0013342569019965,5.1353519420526e-14,1.2673218834511e-12,6.9096288236706e-13,6.9943972818465e-13,-0.0013612331959066,0.0013612331969915,-0.0013858361017407,0.0013858361024926,-0.001385836101648,0.0013858361026419,-0.0013858361012499,0.0013858361030469,-0.001385836101337,0.0013858361029032,-0.0013342568844713,0.0013342568860444,-0.0013342568844431,0.001334256885948,-0.0013342568852037,0.0013342568852192,-0.0013342568841459,0.0013342568862347,1.7448359317541e-11,-1.7448801826082e-11,-0.0013612331964781,0.0013612331964777,3.9706728163181e-15,-4.4734515744192e-15,-0.0013858360964212,0.0013858361081955,-0.0013858360962551,0.0013858361080238,-0.0013858361081909,0.0013858360964213,-0.0013858361080286,0.0013858360962534,-0.0013342569021948,0.0013342568681334,-0.0013342568681328,0.0013342569021877,0.72710392031564,0.61262024724234,1368840,32768,0.0056557339275373,0.0056557339275373,0.005655733927657,13.887494279296,13.880143341192,2.6299954234362e-05,2.6299954234362e-05,2.6299954234362e-05,305919.50662879,0.017112158464958
21945600,0.99985607094287,0.016912691922315,0.0056375639740663,0.0056375639740663,0.0056375639741828,-0.001361439726655,0.0013614397261731,-1.7955695465829e-11,1.7475199968166e-11,3.5265012383961e-13,-8.4327644436582e-13,-0.0013860682582442,0.0013860682464994,-0.0013860682465766,0.0013860682581669,-0.0013860682587061,0.0013860682459212,-0.0013860682468023,0.001386068257825,-0.0013344388924525,0.0013344388572622,-0.0013344388581439,0.0013344388915707,5.1199406481512e-14,1.2671724321344e-12,6.9079533233854e-13,6.9927158626245e-13,-0.0013614397258718,0.0013614397269564,-0.001386068251951,0.0013860682527026,-0.0013860682518584,0.0013860682528519,-0.0013860682514603,0.0013860682532569,-0.0013860682515473,0.0013860682531132,-0.0013344388740427,0.0013344388756156,-0.0013344388740145,0.0013344388755192,-0.0013344388747752,0.0013344388747904,-0.0013344388737173,0.0013344388758059,1.745150266269e-11,-1.7451943980091e-11,-0.0013614397264432,0.0013614397264427,3.9710110412797e-15,-4.4725986592987e-15,-0.0013860682466303,0.0013860682584067,-0.0013860682464642,0.001386068258235,-0.0013860682584021,0.0013860682466305,-0.0013860682582398,0.0013860682464625,-0.0013344388917692,0.0013344388577016,-0.0013344388577011,0.0013344388917621,0.72569444007218,0.59350697639821,1368840,32768,0.0056565895839683,0.0056565895839683,0.005656589584088,14.025212571521,14.030949381117,2.7401700572166e-05,2.7401700572166e-05,2.7401700572166e-05,307098.26991648,0.017114769455243
22032000,0.99985817776129,0.016912725361468,0.0056375751204504,0.0056375751204504,0.005637575120567,-0.0013616683036762,0.0013616683031939,-1.7959049333959e-11,1.7478176318417e-11,3.524601737601e-13,-8.4346752676368e-13,-0.0013863283993659,0.0013863283876187,-0.0013863283876963,0.0013863283992883,-0.0013863283998279,0.0013863283870406,-0.001386328387922,0.0013863283989464,-0.0013346388067861,0.0013346387715891,-0.0013346387724713,0.0013346388059039,5.1036852623891e-14,1.2670177750943e-12,6.9062071818759e-13,6.9909679013176e-13,-0.0013616683028929,0.0013616683039772,-0.0013863283930717,0.0013863283938229,-0.0013863283929792,0.0013863283939723,-0.0013863283925812,0.0013863283943773,-0.001386328392668,0.0013863283942335,-0.0013346387883731,0.0013346387899457,-0.001334638788345,0.0013346387898494,-0.0013346387891056,0.0013346387891206,-0.0013346387880478,0.0013346387901361,1.7454674712845e-11,-1.7455116780223e-11,-0.0013616683034642,0.0013616683034637,3.9703787076559e-15,-4.4726574810312e-15,-0.0013863283877498,0.0013863283995283,-0.0013863283875837,0.0013863283993566,-0.0013863283995237,0.0013863283877499,-0.0013863283993614,0.001386328387582,-0.0013346388061027,0.0013346387720288,-0.0013346387720283,0.0013346388060956,0.7242273265312,0.57439370555408,1368840,32768,0.0056575365731691,0.0056575365731691,0.0056575365732889,14.17519656306,14.181755421043,2.8601572504477e-05,2.8601572504477e-05,2.8601572504477e-05,308454.19827303,0.017117659198668
22118400,0.99986027400172,0.016912758562171,0.0056375861873514,0.0056375861873514,0.0056375861874679,-0.0013618968937138,0.0013618968932311,-1.7962037169153e-11,1.7480778856558e-11,3.5226650320601e-13,-8.4366346195447e-13,-0.0013865897912529,0.0013865897795035,-0.0013865897795815,0.0013865897911749,-0.0013865897917149,0.0013865897789254,-0.0013865897798073,0.001386589790833,-0.0013348378085874,0.0013348377733845,-0.0013348377742671,0.0013348378077049,5.0870122423267e-14,1.2668602100549e-12,6.9044355448217e-13,6.9891887644926e-13,-0.0013618968929305,0.0013618968940144,-0.0013865897849578,0.0013865897857086,-0.0013865897848654,0.001386589785858,-0.0013865897844673,0.001386589786263,-0.0013865897845541,0.0013865897861193,-0.0013348377901716,0.001334837791744,-0.0013348377901435,0.0013348377916476,-0.0013348377909041,0.0013348377909189,-0.0013348377898463,0.0013348377919344,1.7457479097762e-11,-1.745791976077e-11,-0.0013618968935016,0.0013618968935011,3.9706948744678e-15,-4.4719516202418e-15,-0.0013865897796348,0.0013865897914152,-0.0013865897794687,0.0013865897912435,-0.0013865897914106,0.0013865897796349,-0.0013865897912483,0.001386589779467,-0.0013348378079039,0.0013348377738245,-0.0013348377738239,0.0013348378078968,0.72270927608902,0.55528043470995,1368840,32768,0.0056584836154362,0.0056584836154362,0.0056584836155559,14.325947483392,14.332561460968,2.9807579867135e-05,2.9807579867135e-05,2.9807579867135e-05,309873.9994617,0.017120549113504
22204800,0.99986235939758,0.016912791546338,0.0056375971820739,0.0056375971820739,0.0056375971821905,-0.0013621241478402,0.0013621241473572,-1.7965438285839e-11,1.7483785529412e-11,3.5207027390657e-13,-8.4386516167503e-13,-0.0013868507112242,0.0013868506994723,-0.0013868506995506,0.0013868507111458,-0.0013868507116861,0.0013868506988943,-0.0013868506997765,0.0013868507108038,-0.0013350347878009,0.0013350347525913,-0.0013350347534742,0.0013350347869179,5.0697010064672e-14,1.2666995531981e-12,6.902620251013e-13,6.9873692612536e-13,-0.0013621241470569,0.0013621241481405,-0.001386850704928,0.0013868507056784,-0.0013868507048357,0.0013868507058278,-0.0013868507044376,0.0013868507062328,-0.0013868507045243,0.001386850706089,-0.0013350347693818,0.0013350347709539,-0.0013350347693538,0.0013350347708576,-0.0013350347701144,0.001335034770129,-0.0013350347690566,0.0013350347711444,1.7460691587857e-11,-1.7461133059665e-11,-0.0013621241476278,0.0013621241476273,3.970194889742e-15,-4.4719516202418e-15,-0.0013868506996037,0.0013868507113863,-0.0013868506994376,0.0013868507112145,-0.0013868507113817,0.0013868506996038,-0.0013868507112194,0.0013868506994359,-0.0013350347871173,0.0013350347530315,-0.0013350347530309,0.0013350347871102,0.72174636197215,0.54581434588776,1368840,32768,0.0056594251225198,0.0056594251225198,0.0056594251226396,14.476749791547,14.483367500893,3.1013998332374e-05,3.1013998332374e-05,3.1013998332374e-05,311348.21486964,0.017123422144608
22291200,0.99986443367783,0.016912824590087,0.0056376081966567,0.0056376081966567,0.0056376081967732,-0.0013623826090192,0.0013623826085359,-1.7967147071872e-11,1.7485268160589e-11,3.5196096842225e-13,-8.4398656973081e-13,-0.0013871274641889,0.0013871274524357,-0.0013871274525143,0.0013871274641103,-0.0013871274646508,0.0013871274518578,-0.0013871274527402,0.0013871274637683,-0.0013352771693938,0.0013352771341808,-0.001335277135064,0.0013352771685106,5.059186621792e-14,1.2666104162153e-12,6.9016743056463e-13,6.9863540716787e-13,-0.0013623826082359,0.0013623826093193,-0.0013871274578921,0.0013871274586424,-0.0013871274577999,0.0013871274587918,-0.0013871274574018,0.0013871274591968,-0.0013871274574885,0.001387127459053,-0.0013352771509731,0.0013352771525451,-0.0013352771509451,0.0013352771524488,-0.0013352771517057,0.0013352771517201,-0.0013352771506479,0.0013352771527356,1.7462299832844e-11,-1.7462728790328e-11,-0.0013623826088067,0.0013623826088062,3.9699816609618e-15,-4.4642753841573e-15,-0.0013871274525672,0.0013871274643509,-0.0013871274524011,0.0013871274641792,-0.0013871274643463,0.0013871274525674,-0.001387127464184,0.0013871274523994,-0.0013352771687101,0.0013352771346212,-0.0013352771346206,0.001335277168703,0.7269266752451,0.6415819639154,1368840,32768,0.0056604959490209,0.0056604959490209,0.0056604959491407,14.627555497933,14.634173540819,3.2220443983466e-05,3.2220443983466e-05,3.2220443983466e-05,311926.10258829,0.01712668969872
22377600,0.99986649657334,0.016912857531745,0.0056376191772093,0.0056376191772093,0.0056376191773259,-0.0013629808305122,0.0013629808300307,-1.7969093585937e-11,1.7488961488937e-11,3.5285111769938e-13,-8.4310715541984e-13,-0.0013875761961248,0.0013875761843713,-0.0013875761844482,0.001387576196048,-0.0013875761965868,0.001387576183793,-0.0013875761846738,0.0013875761957061,-0.0013360142856983,0.0013360142504819,-0.0013360142513633,0.0013360142848169,5.1300668093921e-14,1.2672968180404e-12,6.9095397271278e-13,6.9942147874216e-13,-0.001362980829729,0.0013629808308139,-0.0013875761898271,0.0013875761905791,-0.0013875761897345,0.0013875761907284,-0.0013875761893364,0.0013875761911334,-0.0013875761894235,0.0013875761909897,-0.0013360142672754,0.0013360142688484,-0.0013360142672471,0.001336014268752,-0.0013360142680079,0.0013360142680231,-0.0013360142669499,0.0013360142690386,1.7465088277071e-11,-1.7465525749001e-11,-0.0013629808303005,0.0013629808303001,3.9682831834374e-15,-4.4664517882579e-15,-0.0013875761845021,0.0013875761962875,-0.0013875761843361,0.0013875761961158,-0.0013875761962829,0.0013875761845023,-0.0013875761961206,0.0013875761843343,-0.0013360142850151,0.001336014250921,-0.0013360142509205,0.001336014285008,0.72868186154086,0.67319470915953,1368840,32768,0.0056629747157825,0.0056629747157825,0.0056629747159022,14.77836146625,14.784979580744,3.3426891729995e-05,3.3426891729995e-05,3.3426891729995e-05,302736.1168058,0.017134252505752
22464000,0.99986854781746,0.016912890352513,0.0056376301174655,0.0056376301174655,0.005637630117582,-0.0013633709668269,0.0013633709663459,-1.7971551304973e-11,1.749197322046e-11,3.5313007976552e-13,-8.4282607577134e-13,-0.0013879188614245,0.0013879188496696,-0.0013879188497459,0.0013879188613481,-0.0013879188618865,0.0013879188490912,-0.0013879188499714,0.0013879188610063,-0.0013364486028162,0.001336448567595,-0.0013364485684759,0.0013364486019353,5.1530602246062e-14,1.2675129217327e-12,6.9120577384395e-13,6.9967346369125e-13,-0.0013633709660437,0.0013633709671291,-0.0013879188551259,0.0013879188558783,-0.001387918855033,0.0013879188560276,-0.0013879188546349,0.0013879188564326,-0.0013879188547222,0.0013879188562889,-0.0013364485843908,0.0013364485859641,-0.0013364485843624,0.0013364485858677,-0.0013364485851232,0.0013364485851387,-0.0013364485840652,0.0013364485861542,1.7467813870277e-11,-1.7468250805458e-11,-0.0013633709666155,0.001363370966615,3.9688125790294e-15,-4.4658341600672e-15,-0.0013879188498002,0.0013879188615874,-0.0013879188496341,0.0013879188614157,-0.0013879188615828,0.0013879188498003,-0.0013879188614205,0.0013879188496324,-0.0013364486021332,0.0013364485680338,-0.0013364485680333,0.0013364486021261,0.73003244949101,0.69548811134312,1368840,32768,0.0056645911804527,0.0056645911804527,0.0056645911805722,14.929167451386,14.93578562067,3.4633339611086e-05,3.4633339611086e-05,3.4633339611086e-05,299500.44726519,0.017139184728252
22550400,0.9998705871461,0.016912923025472,0.0056376410084519,0.0056376410084519,0.0056376410085684,-0.0013637322075339,0.0013637322070533,-1.7974039802481e-11,1.7494856514731e-11,3.5332622083237e-13,-8.4262258198793e-13,-0.001388246592877,0.0013882465811207,-0.0013882465811966,0.0013882465928011,-0.001388246593339,0.0013882465805422,-0.001388246581422,0.0013882465924592,-0.0013368408214148,0.0013368407861889,-0.0013368407870694,0.0013368408205344,5.1698097129208e-14,1.2676665604214e-12,6.9138419854026e-13,6.99852149409e-13,-0.0013637322067507,0.0013637322078364,-0.0013882465865775,0.0013882465873304,-0.0013882465864845,0.0013882465874796,-0.0013882465860865,0.0013882465878846,-0.0013882465861738,0.0013882465877409,-0.0013368408029869,0.0013368408045605,-0.0013368408029585,0.001336840804464,-0.0013368408037193,0.0013368408037351,-0.0013368408026613,0.0013368408047506,1.7470492788438e-11,-1.7470929583917e-11,-0.0013637322073226,0.0013637322073222,3.9688125790294e-15,-4.466069446997e-15,-0.0013882465812511,0.00138824659304,-0.001388246581085,0.0013882465928684,-0.0013882465930355,0.0013882465812512,-0.0013882465928732,0.0013882465810833,-0.0013368408207319,0.0013368407866274,-0.0013368407866269,0.0013368408207248,0.73095546857329,0.70836833440602,1368840,32768,0.0056660878977522,0.0056660878977522,0.0056660878978718,15.079973449957,15.086591660595,3.5839787599656e-05,3.5839787599656e-05,3.5839787599656e-05,297076.66506468,0.017143751667388
22636800,0.99987261030995,0.016912955484874,0.0056376518282526,0.0056376518282526,0.0056376518283691,-0.0013640060240185,0.0013640060235381,-1.7976567254681e-11,1.7497618048015e-11,3.5344042322592e-13,-8.4250023278444e-13,-0.0013885009513292,0.0013885009395713,-0.001388500939647,0.0013885009512535,-0.0013885009517911,0.0013885009389927,-0.0013885009398723,0.0013885009509116,-0.0013371324748427,0.0013371324396119,-0.0013371324404922,0.0013371324739625,5.1803917425882e-14,1.2677593811153e-12,6.9149261434588e-13,6.9996026375324e-13,-0.0013640060232354,0.0013640060243213,-0.0013885009450287,0.0013885009457818,-0.0013885009449357,0.0013885009459311,-0.0013885009445377,0.001388500946336,-0.0013885009446251,0.0013885009461924,-0.0013371324564123,0.0013371324579861,-0.0013371324563839,0.0013371324578895,-0.0013371324571447,0.0013371324571606,-0.0013371324560867,0.0013371324581761,1.7473131501944e-11,-1.7473568253308e-11,-0.0013640060238074,0.0013640060238069,3.9691434512744e-15,-4.4658635709334e-15,-0.0013885009397016,0.0013885009514923,-0.0013885009395355,0.0013885009513206,-0.0013885009514877,0.0013885009397017,-0.0013885009513254,0.0013885009395338,-0.0013371324741599,0.0013371324400503,-0.0013371324400497,0.0013371324741528,0.73195076599556,0.72124855746891,1368840,32768,0.0056672223769519,0.0056672223769519,0.0056672223770714,15.199972274656,15.205269359804,3.679977819725e-05,3.679977819725e-05,3.679977819725e-05,295446.91582617,0.017147213374863
22723200,0.99987460834524,0.016912987589323,0.0056376625297357,0.0056376625297357,0.0056376625298522,-0.0013641464128309,0.0013641464123508,-1.7979094251012e-11,1.7500382316509e-11,3.5355584617041e-13,-8.4237520719212e-13,-0.0013886224903763,0.0013886224786169,-0.0013886224786923,0.0013886224903009,-0.0013886224908383,0.0013886224780383,-0.0013886224789176,0.001388622489959,-0.001337290104969,0.0013372900697332,-0.0013372900706132,0.001337290104089,5.1911561196262e-14,1.2678528157609e-12,6.9160041803784e-13,7.0006886337677e-13,-0.0013641464120478,0.0013641464131339,-0.001388622484075,0.0013886224848284,-0.001388622483982,0.0013886224849776,-0.0013886224835839,0.0013886224853825,-0.0013886224836714,0.001388622485239,-0.001337290086536,0.0013372900881099,-0.0013372900865075,0.0013372900880134,-0.0013372900872683,0.0013372900872844,-0.0013372900862103,0.0013372900882999,1.7475771597762e-11,-1.7476207746202e-11,-0.0013641464126199,0.0013641464126194,3.9692758001725e-15,-4.4654812296725e-15,-0.0013886224787471,0.0013886224905396,-0.0013886224785811,0.0013886224903679,-0.001388622490535,0.0013886224787473,-0.0013886224903727,0.0013886224785793,-0.0013372901042862,0.0013372900701714,-0.0013372900701709,0.0013372901042791,0.73302833928615,0.73412878053179,1368840,32768,0.0056678040452443,0.0056678040452443,0.0056678040453638,15.25092255342,15.253228751199,3.7207380427361e-05,3.7207380427361e-05,3.7207380427361e-05,293829.20757734,0.017148988233318
22809600,0.99987658110549,0.016913019339105,0.0056376731129963,0.0056376731129963,0.0056376731131128,-0.0013642813628538,0.001364281362374,-1.7981606453678e-11,1.7503132644254e-11,3.5367119558774e-13,-8.4225047570846e-13,-0.0013887373393894,0.0013887373276284,-0.0013887373277037,0.0013887373393142,-0.0013887373398514,0.0013887373270498,-0.0013887373279289,0.0013887373389724,-0.0013374429333985,0.0013374428981579,-0.0013374428990377,0.0013374429325188,5.2021234316412e-14,1.2679489304717e-12,6.9171104517297e-13,7.0017911736153e-13,-0.0013642813620707,0.0013642813631571,-0.0013887373330873,0.0013887373338408,-0.0013887373329941,0.0013887373339901,-0.0013887373325961,0.001388737334395,-0.0013887373326836,0.0013887373342514,-0.0013374429149631,0.0013374429165371,-0.0013374429149346,0.0013374429164406,-0.0013374429156954,0.0013374429157116,-0.0013374429146373,0.001337442916727,1.7478396046998e-11,-1.7478833327757e-11,-0.0013642813626429,0.0013642813626425,3.9690405132427e-15,-4.4663635556592e-15,-0.0013887373277586,0.0013887373395528,-0.0013887373275925,0.0013887373393811,-0.0013887373395482,0.0013887373277587,-0.0013887373393859,0.0013887373275908,-0.0013374429327159,0.001337442898596,-0.0013374428985954,0.0013374429327088,0.73419959412013,0.74700900359468,1368840,32768,0.0056683631806164,0.0056683631806164,0.0056683631807359,15.299069824238,15.301188142595,3.75925585939e-05,3.75925585939e-05,3.75925585939e-05,292177.61063551,0.017150694328584
22896000,0.99987852879059,0.016913049954718,0.0056376833182005,0.0056376833182005,0.005637683318317,-0.0013644158935894,0.0013644158931095,-1.7985520672336e-11,1.7507108375739e-11,3.5396248080683e-13,-8.4248155688439e-13,-0.0013888515760764,0.001388851564313,-0.001388851564388,0.0013888515760014,-0.0013888515765386,0.0013888515637341,-0.0013888515646134,0.0013888515756594,-0.0013375952206413,0.0013375951853929,-0.0013375951862728,0.0013375952197614,5.1958736225686e-14,1.2684041187719e-12,6.9197220447414e-13,7.0032334089677e-13,-0.0013644158928061,0.0013644158938928,-0.0013888515697729,0.0013888515705267,-0.0013888515696797,0.0013888515706759,-0.0013888515692815,0.001388851571081,-0.0013888515693691,0.0013888515709374,-0.0013375952022016,0.0013375952037763,-0.0013375952021732,0.0013375952036796,-0.0013375952029343,0.0013375952029503,-0.0013375952018758,0.0013375952039663,1.748235466136e-11,-1.7482751708054e-11,-0.0013644158933785,0.001364415893378,3.9303211078586e-15,-4.3883365275666e-15,-0.001388851564443,0.0013888515762398,-0.0013888515642769,0.0013888515760682,-0.0013888515762352,0.0013888515644431,-0.0013888515760729,0.0013888515642753,-0.0013375952199585,0.001337595185831,-0.0013375951858304,0.0013375952199515,0.71710087352098,0.47808803407847,1368840,32768,0.0056689205765424,0.0056689205765424,0.0056689205766619,15.347041972561,15.34914753399,3.7976335780483e-05,3.7976335780483e-05,3.7976335780483e-05,290515.7384703,0.017152395125162
22982400,0.99988045162115,0.016913080385541,0.0056376934618081,0.0056376934618081,0.0056376934619246,-0.0013636617979243,0.0013636617974396,-1.7990050548658e-11,1.7506745180952e-11,3.5142808764256e-13,-8.4489348320169e-13,-0.001388518042884,0.0013885180311149,-0.0013885180311948,0.001388518042804,-0.001388518043346,0.0013885180305371,-0.0013885180314211,0.001388518042462,-0.0013364573353609,0.0013364573001027,-0.0013364573009874,0.0013364573344762,4.9942591935157e-14,1.2663591408034e-12,6.8969991911149e-13,6.9806085854347e-13,-0.0013636617971407,0.0013636617982231,-0.0013885180365798,0.0013885180373289,-0.001388518036488,0.0013885180374783,-0.0013885180360897,0.0013885180378835,-0.0013885180361761,0.0013885180377396,-0.0013364573169178,0.0013364573184893,-0.0013364573168901,0.001336457318393,-0.0013364573176508,0.0013364573176643,-0.0013364573165928,0.0013364573186801,1.7484525565628e-11,-1.74849225535e-11,-0.001363661797711,0.0013636617977106,3.9357988816929e-15,-4.3925716923029e-15,-0.0013885180312469,0.0013885180430455,-0.0013885180310808,0.0013885180428738,-0.0013885180430409,0.0013885180312471,-0.0013885180428785,0.0013885180310792,-0.0013364573346767,0.0013364573005441,-0.0013364573005434,0.0013364573346696,0.72195932502954,0.56798774821511,1368840,32768,0.0056657956269332,0.0056657956269332,0.0056657956270531,15.395002225909,15.397106925386,3.8360017807267e-05,3.8360017807267e-05,3.8360017807267e-05,314658.1806044,0.01714286179106
23068800,0.99988234981857,0.016913110415722,0.0056377034718686,0.0056377034718686,0.0056377034719851,-0.0013640533397514,0.0013640533392684,-1.7992807993831e-11,1.7511194368562e-11,3.5226253273907e-13,-8.4401627470569e-13,-0.0013887638410934,0.0013887638293233,-0.0013887638294016,0.0013887638410151,-0.0013887638415555,0.0013887638287452,-0.0013887638296275,0.0013887638406731,-0.0013369836130507,0.0013369835777874,-0.0013369835786704,0.0013369836121677,5.0636394269384e-14,1.266977989545e-12,6.9044121264195e-13,6.9881022535671e-13,-0.001364053338968,0.0013640533400518,-0.001388763834788,0.0013887638355387,-0.0013887638346957,0.0013887638356881,-0.0013887638342975,0.0013887638360932,-0.0013887638343843,0.0013887638359494,-0.0013369835946046,0.0013369835961771,-0.0013369835945766,0.0013369835960807,-0.0013369835953374,0.0013369835953518,-0.0013369835942793,0.0013369835963676,1.7488098250603e-11,-1.7488500973594e-11,-0.001364053339539,0.0013640533395385,3.9373135413034e-15,-4.3995126567318e-15,-0.0013887638294547,0.0013887638412556,-0.0013887638292886,0.0013887638410839,-0.001388763841251,0.0013887638294549,-0.0013887638410886,0.001388763829287,-0.0013369836123669,0.0013369835782277,-0.001336983578227,0.0013369836123599,0.72195154235162,0.57343655006176,1368840,32768,0.0056674180729059,0.0056674180729059,0.0056674180730257,15.44296167829,15.445066316781,3.8743693426315e-05,3.8743693426315e-05,3.8743693426315e-05,305639.86370939,0.01714781173599
23155200,0.99988422360373,0.016913140072721,0.0056377133575347,0.0056377133575347,0.0056377133576512,-0.0013641629207653,0.0013641629202824,-1.7993339345246e-11,1.7511801144143e-11,3.5229719344492e-13,-8.4397492302778e-13,-0.0013888670123069,0.0013888670005365,-0.0013888670006147,0.0013888670122287,-0.001388867012769,0.0013888669999584,-0.0013888670008406,0.0013888670118867,-0.0013370996800201,0.0013370996447558,-0.0013370996456387,0.0013370996791371,5.067006971121e-14,1.2670029630468e-12,6.904755645337e-13,6.9884612867165e-13,-0.0013641629199819,0.0013641629210658,-0.0013888670060013,0.001388867006752,-0.001388867005909,0.0013888670069014,-0.0013888670055108,0.0013888670073065,-0.0013888670055976,0.0013888670071627,-0.0013370996615735,0.001337099663146,-0.0013370996615455,0.0013370996630496,-0.0013370996623063,0.0013370996623207,-0.0013370996612481,0.0013370996633365,1.7488670497827e-11,-1.7489068375378e-11,-0.0013641629205529,0.0013641629205525,3.9404310931232e-15,-4.3976597721597e-15,-0.0013888670006678,0.001388867012469,-0.0013888670005017,0.0013888670122973,-0.0013888670124644,0.001388867000668,-0.0013888670123021,0.0013888670005001,-0.0013370996793363,0.001337099645196,-0.0013370996451953,0.0013370996793293,0.72217441749814,0.58224788857419,1368840,32768,0.0056678720995029,0.0056678720995029,0.0056678720996226,15.490921074174,15.493025708177,3.9127368593388e-05,3.9127368593388e-05,3.9127368593388e-05,304794.47326098,0.017149197105927
23241600,0.99988607319691,0.016913169484981,0.0056377231616216,0.0056377231616216,0.0056377231617382,-0.0013642834815102,0.0013642834810274,-1.7995248419278e-11,1.7513856522529e-11,3.5236101502463e-13,-8.4388963151573e-13,-0.0013889751976791,0.0013889751859076,-0.0013889751859856,0.0013889751976011,-0.0013889751981412,0.0013889751853294,-0.0013889751862115,0.0013889751972591,-0.001337232113142,0.001337232077874,-0.0013372320787568,0.0013372321122592,5.071836235355e-14,1.2670269181974e-12,6.9051913673201e-13,6.988997961498e-13,-0.0013642834807268,0.0013642834818108,-0.0013889751913729,0.0013889751921238,-0.0013889751912805,0.0013889751922731,-0.0013889751908823,0.0013889751926782,-0.0013889751909692,0.0013889751925345,-0.0013372320946935,0.0013372320962661,-0.0013372320946655,0.0013372320961697,-0.0013372320954263,0.0013372320954408,-0.0013372320943682,0.0013372320964565,1.7490646908037e-11,-1.7491054689697e-11,-0.0013642834812978,0.0013642834812974,3.9407252017854e-15,-4.4067771406892e-15,-0.0013889751860388,0.0013889751978414,-0.0013889751858728,0.0013889751976697,-0.0013889751978368,0.001388975186039,-0.0013889751976744,0.0013889751858711,-0.0013372321124583,0.0013372320783141,-0.0013372320783135,0.0013372321124513,0.72556658389085,0.64533473333085,1368840,32768,0.0056683716235205,0.0056683716235205,0.0056683716236402,15.538880442562,15.540985099572,3.9511043540496e-05,3.9511043540496e-05,3.9511043540496e-05,303621.26624448,0.017150721283766
23328000,0.99988789881769,0.016913198619613,0.0056377328731657,0.0056377328731656,0.0056377328732822,-0.0013645726423562,0.0013645726418745,-1.7997224417736e-11,1.7516958133659e-11,3.5291486575193e-13,-8.4330509054953e-13,-0.0013891689817245,0.0013891689699522,-0.0013891689700291,0.0013891689816476,-0.0013891689821866,0.0013891689693738,-0.0013891689702548,0.0013891689813056,-0.0013376098906661,0.0013376098553945,-0.0013376098562762,0.0013376098897844,5.1180907046657e-14,1.2674372843374e-12,6.9101299664493e-13,6.9939839121218e-13,-0.0013645726415729,0.0013645726426578,-0.0013891689754174,0.0013891689761694,-0.0013891689753248,0.0013891689763187,-0.0013891689749266,0.0013891689767237,-0.0013891689750137,0.00138916897658,-0.0013376098722155,0.0013376098737887,-0.0013376098721873,0.0013376098736922,-0.0013376098729482,0.0013376098729632,-0.00133760987189,0.001337609873979,1.749316903687e-11,-1.7493576664123e-11,-0.0013645726421444,0.001364572642144,3.942504559192e-15,-4.4100123359738e-15,-0.001389168970083,0.0013891689818872,-0.001389168969917,0.0013891689817155,-0.0013891689818826,0.0013891689700832,-0.0013891689817202,0.0013891689699153,-0.0013376098899828,0.0013376098558338,-0.0013376098558332,0.0013376098899757,0.72813801044202,0.69102081424216,1368840,32768,0.0056695698096648,0.0056695698096648,0.0056695698097844,15.586839802138,15.588944490968,3.9894718417103e-05,3.9894718417103e-05,3.9894718417103e-05,297618.87032625,0.017154376932572
23414400,0.99988970723784,0.016913227281751,0.0056377424272117,0.0056377424272117,0.0056377424273282,-0.0013649136069706,0.0013649136064898,-1.7998903366445e-11,1.7519435822673e-11,3.5330388327947e-13,-8.4288651510143e-13,-0.0013894419487689,0.0013894419369959,-0.001389441937072,0.0013894419486928,-0.001389441949231,0.0013894419364174,-0.0013894419372976,0.0013894419483508,-0.0013380136482642,0.0013380136129895,-0.0013380136138703,0.0013380136473834,5.1516161510746e-14,1.2677267571119e-12,6.9136599505225e-13,6.9975065250966e-13,-0.0013649136061874,0.001364913607273,-0.0013894419424611,0.0013894419432138,-0.0013894419423683,0.0013894419433631,-0.0013894419419701,0.0013894419437681,-0.0013894419420574,0.0013894419436245,-0.0013380136298119,0.0013380136313855,-0.0013380136297836,0.0013380136312889,-0.0013380136305445,0.0013380136305599,-0.0013380136294862,0.0013380136315756,1.7495235679618e-11,-1.7495642049557e-11,-0.0013649136067592,0.0013649136067588,3.9426001445072e-15,-4.409512351248e-15,-0.0013894419371264,0.0013894419489319,-0.0013894419369603,0.0013894419487602,-0.0013894419489273,0.0013894419371266,-0.001389441948765,0.0013894419369587,-0.0013380136475811,0.0013380136134282,-0.0013380136134276,0.0013380136475741,0.72309575975909,0.60514741048134,1368840,32768,0.0056709825747908,0.0056709825747909,0.0056709825749104,15.691792024434,15.696340695733,4.0734336195474e-05,4.0734336195474e-05,4.0734336195474e-05,293260.21142623,0.017158687541371
23500800,0.99989151166776,0.01691325566174,0.0056377518872078,0.0056377518872078,0.0056377518873243,-0.0013650835893268,0.0013650835888444,-1.80017912194e-11,1.7520828691887e-11,3.5252912753596e-13,-8.4362281613735e-13,-0.0013897370417249,0.0013897370299492,-0.0013897370300269,0.0013897370416473,-0.001389737042187,0.001389737029371,-0.0013897370302526,0.0013897370413054,-0.0013380679518553,0.0013380679165746,-0.0013380679174569,0.0013380679509729,5.0908621247154e-14,1.2671107207843e-12,6.9067262101376e-13,6.990666513466e-13,-0.0013650835885434,0.0013650835896277,-0.0013897370354165,0.0013897370361677,-0.001389737035324,0.0013897370363171,-0.0013897370349258,0.0013897370367221,-0.0013897370350128,0.0013897370365784,-0.0013380679334004,0.0013380679349731,-0.0013380679333723,0.0013380679348767,-0.0013380679341331,0.0013380679341477,-0.001338067933075,0.0013380679351634,1.7497396348905e-11,-1.7497805909923e-11,-0.0013650835891146,0.0013650835891142,3.9455485838462e-15,-4.4157474548875e-15,-0.0013897370300803,0.0013897370418873,-0.0013897370299143,0.0013897370417157,-0.0013897370418827,0.0013897370300805,-0.0013897370417204,0.0013897370299126,-0.0013380679511717,0.0013380679170144,-0.0013380679170137,0.0013380679511647,0.71753904368183,0.51927400672051,1368840,32768,0.005671686624615,0.005671686624615,0.0056716866247347,15.912666458605,15.922241114251,4.2501331668835e-05,4.2501331668835e-05,4.2501331668835e-05,300154.3261055,0.017160836651705
23587200,0.99989331219247,0.016913284213931,0.005637761404605,0.005637761404605,0.0056377614047215,-0.0013652407137665,0.0013652407132825,-1.8004435359211e-11,1.7521841778585e-11,3.5171337304494e-13,-8.4444408516579e-13,-0.001390033575923,0.0013900335641446,-0.0013900335642239,0.0013900335758437,-0.001390033576385,0.0013900335635667,-0.00139003356445,0.0013900335755018,-0.0013380976999087,0.0013380976646225,-0.0013380976655065,0.0013380976990247,5.0228700841785e-14,1.2664696006642e-12,6.899405882298e-13,6.9833260024195e-13,-0.0013652407129831,0.001365240714066,-0.0013900335696139,0.0013900335703636,-0.0013900335695218,0.001390033570513,-0.0013900335691237,0.0013900335709181,-0.0013900335692102,0.0013900335707742,-0.0013380976814516,0.0013380976830233,-0.0013380976814237,0.0013380976829269,-0.0013380976821844,0.0013380976821982,-0.0013380976811264,0.0013380976832139,1.7499254615666e-11,-1.7499666889836e-11,-0.0013652407135536,0.0013652407135532,3.9477985151123e-15,-4.410953483693e-15,-0.0013900335642764,0.0013900335760847,-0.0013900335641103,0.001390033575913,-0.0013900335760801,0.0013900335642766,-0.0013900335759178,0.0013900335641086,-0.0013380976992247,0.0013380976650634,-0.0013380976650628,0.0013380976992177,0.72351651334484,0.62948455144777,1368840,32768,0.0056723374006317,0.0056723374006317,0.0056723374007515,16.138250960557,16.148141532768,4.4306007684457e-05,4.4306007684457e-05,4.4306007684457e-05,307878.19704099,0.017162823213322
23673600,0.99989510837634,0.016913312923233,0.0056377709743723,0.0056377709743723,0.0056377709744888,-0.0013660274990611,0.0013660274985791,-1.8005040958358e-11,1.7524450110667e-11,3.5270846029276e-13,-8.4342152816891e-13,-0.0013906490832752,0.0013906490714976,-0.0013906490715748,0.001390649083198,-0.0013906490837373,0.0013906490709193,-0.0013906490718005,0.0013906490828561,-0.0013390434021877,0.0013390433669007,-0.0013390433677827,0.0013390434013058,5.1054352089295e-14,1.2672275811849e-12,6.9083910122202e-13,6.9922813906032e-13,-0.0013660274982778,0.0013660274993624,-0.0013906490769657,0.0013906490777173,-0.0013906490768731,0.0013906490778666,-0.0013906490764749,0.0013906490782716,-0.001390649076562,0.0013906490781279,-0.0013390433837295,0.0013390433853025,-0.0013390433837014,0.001339043385206,-0.0013390433844622,0.001339043384477,-0.001339043383404,0.0013390433854926,1.7500825920605e-11,-1.7501245231324e-11,-0.0013660274988491,0.0013660274988487,3.9429530749019e-15,-4.4144239659074e-15,-0.0013906490716286,0.0013906490834378,-0.0013906490714625,0.0013906490832661,-0.0013906490834332,0.0013906490716287,-0.0013906490832709,0.0013906490714608,-0.0013390434015042,0.0013390433673401,-0.0013390433673395,0.0013390434014971,0.72932090414465,0.7352820555999,1368840,32768,0.0056755974080232,0.0056755974080232,0.0056755974081428,16.364129804265,16.374041951286,4.6113038434114e-05,4.6113038434114e-05,4.6113038434114e-05,297438.94564067,0.01717277013723
23760000,0.99989689974957,0.016913341708105,0.0056377805693295,0.0056377805693295,0.005637780569446,-0.0013667750790945,0.0013667750786143,-1.8006268464976e-11,1.752747543001e-11,3.5361562375601e-13,-8.4251311474384e-13,-0.0013912449606408,0.0013912449488632,-0.0013912449489387,0.0013912449605653,-0.0013912449611029,0.0013912449482846,-0.0013912449491641,0.0013912449602234,-0.0013399320188778,0.0013399319835889,-0.001339931984469,0.0013399320179977,5.1786476782211e-14,1.2679218393876e-12,6.9164145538712e-13,7.0003376150793e-13,-0.0013667750783114,0.0013667750793975,-0.0013912449543305,0.0013912449550838,-0.0013912449542374,0.001391244955233,-0.0013912449538393,0.001391244955638,-0.0013912449539268,0.0013912449554944,-0.0013399320004182,0.0013399320019922,-0.0013399320003898,0.0013399320018956,-0.0013399320011507,0.0013399320011664,-0.0013399320000925,0.0013399320021821,1.7502931826859e-11,-1.7503340299675e-11,-0.0013667750788834,0.001366775078883,3.9457618126263e-15,-4.4142769115763e-15,-0.0013912449489935,0.001391244960804,-0.0013912449488274,0.0013912449606324,-0.0013912449607994,0.0013912449489937,-0.0013912449606371,0.0013912449488258,-0.0013399320181949,0.0013399319840271,-0.0013399319840265,0.0013399320181879,0.733087083433,0.7891656146954,1368840,32768,0.0056786949474964,0.0056786949474964,0.0056786949476159,16.590028297169,16.599942369803,4.7920226377354e-05,4.7920226377354e-05,4.7920226377354e-05,288226.95768667,0.017182221470593
23846400,0.99989868583849,0.016913370573908,0.0056377901912638,0.0056377901912638,0.0056377901913803,-0.001367366545645,0.0013673665451657,-1.8008218214236e-11,1.7530346783468e-11,3.5406763935901e-13,-8.4203365880266e-13,-0.001391759994902,0.0013917599831236,-0.0013917599831981,0.0013917599948274,-0.001391759995364,0.0013917599825448,-0.0013917599834233,0.0013917599944855,-0.0013405925520515,0.0013405925167589,-0.0013405925176382,0.0013405925511723,5.2186935136719e-14,1.2682776998398e-12,6.9205615411542e-13,7.0045370456131e-13,-0.0013673665448619,0.0013673665459488,-0.0013917599885908,0.001391759989345,-0.0013917599884975,0.0013917599894942,-0.0013917599880993,0.0013917599898992,-0.0013917599881871,0.0013917599897556,-0.0013405925335898,0.0013405925351644,-0.0013405925335613,0.0013405925350677,-0.0013405925343223,0.0013405925343385,-0.0013405925332639,0.0013405925353541,1.7505323253802e-11,-1.750573492505e-11,-0.0013673665454344,0.0013673665454339,3.9469235418421e-15,-4.4178650372557e-15,-0.0013917599832534,0.0013917599950655,-0.0013917599830874,0.0013917599948939,-0.0013917599950609,0.0013917599832536,-0.0013917599948986,0.0013917599830857,-0.0013405925513689,0.0013405925171966,-0.0013405925171959,0.0013405925513619,0.73721898925918,0.83677736959159,1368840,32768,0.0056811455408958,0.0056811455408958,0.0056811455410151,16.815927961471,16.825842788321,4.9727423691769e-05,4.9727423691769e-05,4.9727423691769e-05,283341.65709865,0.017189699212175
23932800,0.99990046616797,0.016913399533415,0.0056377998444327,0.0056377998444327,0.0056377998445492,-0.0013679389617778,0.0013679389612994,-1.8010477718739e-11,1.7533436336144e-11,3.54469200621e-13,-8.4159626040017e-13,-0.0013922642972469,0.0013922642854674,-0.0013922642855411,0.0013922642971731,-0.0013922642977089,0.0013922642848885,-0.0013922642857662,0.0013922642968312,-0.0013412244042281,0.0013412243689312,-0.0013412243698096,0.0013412244033497,5.2568217606448e-14,1.2686088220772e-12,6.9243602302539e-13,7.008376781253e-13,-0.0013679389609948,0.0013679389620824,-0.0013922642909348,0.0013922642916898,-0.0013922642908413,0.0013922642918389,-0.0013922642904431,0.0013922642922439,-0.0013922642905311,0.0013922642921004,-0.001341224385764,0.0013412243873391,-0.0013412243857354,0.0013412243872424,-0.0013412243864963,0.0013412243865131,-0.001341224385438,0.0013412243875287,1.7507976996262e-11,-1.7508391527716e-11,-0.0013679389615676,0.0013679389615671,3.9473794102686e-15,-4.4216884498648e-15,-0.0013922642855969,0.0013922642974107,-0.0013922642854309,0.0013922642972391,-0.0013922642974061,0.0013922642855971,-0.0013922642972439,0.0013922642854292,-0.0013412244035457,0.0013412243693683,-0.0013412243693677,0.0013412244035387,0.74194603348324,0.88438912448778,1368840,32768,0.0056835171695963,0.0056835171695963,0.0056835171697156,17.041827558284,17.051743206839,5.1534620466273e-05,5.1534620466273e-05,5.1534620466273e-05,278900.31420404,0.017196936150205
24019200,0.99990224026209,0.016913428393993,0.0056378094646253,0.0056378094646253,0.0056378094647418,-0.0013685091446319,0.0013685091441543,-1.801313779924e-11,1.7536934346929e-11,3.5486626202046e-13,-8.4114800938805e-13,-0.0013927667044033,0.0013927666926225,-0.0013927666926954,0.0013927667043304,-0.0013927667048654,0.0013927666920435,-0.0013927666929203,0.0013927667039885,-0.0013418523457971,0.0013418523104952,-0.0013418523113728,0.0013418523449196,5.2968058332765e-14,1.2689427971686e-12,6.9282197630831e-13,7.0122606331922e-13,-0.0013685091438489,0.0013685091449373,-0.0013927666980902,0.001392766698846,-0.0013927666979965,0.0013927666989951,-0.0013927666975984,0.0013927666994001,-0.0013927666976865,0.0013927666992566,-0.0013418523273303,0.001341852328906,-0.0013418523273015,0.0013418523288091,-0.0013418523280625,0.0013418523280799,-0.0013418523270042,0.0013418523290954,1.7511034138162e-11,-1.751144894902e-11,-0.0013685091444221,0.0013685091444216,3.9485411394845e-15,-4.4228354736475e-15,-0.0013927666927517,0.0013927667045675,-0.0013927666925857,0.0013927667043959,-0.0013927667045629,0.0013927666927519,-0.0013927667044006,0.001392766692584,-0.0013418523451151,0.0013418523109318,-0.0013418523109312,0.001341852345108,0.74196752527896,0.84208196311467,1368840,32768,0.0056858795261955,0.0056858795261955,0.0056858795263148,17.267728296942,17.277643625356,5.3341826375535e-05,5.3341826375535e-05,5.3341826375535e-05,274454.11020218,0.017204144891528
24105600,0.9999040076444,0.016913456759448,0.005637818919777,0.005637818919777,0.0056378189198935,-0.0013688529640582,0.0013688529635802,-1.8017321024387e-11,1.7540673791515e-11,3.5451721386011e-13,-8.4125012391558e-13,-0.001393152369712,0.0013931523579281,-0.0013931523580016,0.0013931523696385,-0.0013931523701739,0.0013931523573492,-0.0013931523582265,0.0013931523692967,-0.0013421521488612,0.0013421521135511,-0.001342152114429,0.0013421521479833,5.2890148948137e-14,1.26862996849e-12,6.9254533770061e-13,7.0100261426309e-13,-0.0013688529632752,0.0013688529643632,-0.0013931523633976,0.0013931523641529,-0.001393152363304,0.001393152364302,-0.001393152362906,0.0013931523647069,-0.0013931523629939,0.0013931523645634,-0.0013421521303905,0.0013421521319657,-0.0013421521303618,0.001342152131869,-0.0013421521311225,0.00134215213114,-0.0013421521300645,0.0013421521321553,1.7514975782454e-11,-1.7515408607467e-11,-0.0013688529638482,0.0013688529638478,3.9661950119355e-15,-4.4581285131165e-15,-0.0013931523580575,0.001393152369876,-0.0013931523578915,0.0013931523697043,-0.0013931523698714,0.0013931523580577,-0.0013931523697091,0.0013931523578898,-0.0013421521481792,0.0013421521139879,-0.0013421521139874,0.0013421521481721,0.73198308487657,0.6668147606019,1368840,32768,0.0056873038405301,0.0056873038405301,0.0056873038406495,17.493630277901,17.503544043874,5.514904222321e-05,5.514904222321e-05,5.514904222321e-05,276271.20038529,0.017208491858061
24192000,0.99990576238094,0.016913484962559,0.0056378283208142,0.0056378283208142,0.0056378283209307,-0.0013687182237128,0.001368718223232,-1.8021169745046e-11,1.7541712348023e-11,3.5309316912841e-13,-8.4266955114129e-13,-0.0013932517855652,0.0013932517737772,-0.0013932517738535,0.0013932517854889,-0.0013932517860271,0.0013932517731989,-0.0013932517740789,0.001393251785147,-0.0013418019355047,0.0013418019001865,-0.0013418019010672,0.0013418019346241,5.1739066465858e-14,1.2675290315346e-12,6.9127250709942e-13,6.9972960903488e-13,-0.0013687182229296,0.0013687182240151,-0.0013932517792499,0.0013932517800026,-0.0013932517791571,0.0013932517801518,-0.0013932517787591,0.0013932517805567,-0.0013932517788463,0.0013932517804131,-0.0013418019170307,0.0013418019186043,-0.0013418019170025,0.0013418019185077,-0.001341801917763,0.0013418019177791,-0.0013418019167053,0.0013418019187943,1.7517454765546e-11,-1.7517886767055e-11,-0.0013687182235015,0.001368718223501,3.9662097173686e-15,-4.4584520326449e-15,-0.0013932517739078,0.0013932517857281,-0.0013932517737417,0.0013932517855564,-0.0013932517857235,0.0013932517739079,-0.0013932517855612,0.00139325177374,-0.0013418019348219,0.0013418019006253,-0.0013418019006247,0.0013418019348148,0.73305378555548,0.68906096147582,1368840,32768,0.0056867452005938,0.0056867452005938,0.0056867452007135,17.669981332224,17.677770166148,5.6559850657787e-05,5.6559850657787e-05,5.6559850657787e-05,289330.73381693,0.017206788545373
24278400,0.9999074941993,0.016913512838431,0.0056378376127714,0.0056378376127714,0.0056378376128879,-0.0013689452574708,0.0013689452569903,-1.8023930969516e-11,1.7544813459169e-11,3.5327722232924e-13,-8.4250982072683e-13,-0.0013934510343049,0.0013934510225153,-0.0013934510225912,0.0013934510342289,-0.0013934510347668,0.0013934510219369,-0.0013934510228166,0.0013934510338871,-0.0013420548937698,0.0013420548584462,-0.0013420548593266,0.0013420548928895,5.1867091966532e-14,1.2676742329812e-12,6.9143022838408e-13,6.9988798654949e-13,-0.0013689452566877,0.0013689452577735,-0.0013934510279887,0.0013934510287416,-0.0013934510278957,0.0013934510288909,-0.0013934510274977,0.0013934510292958,-0.0013934510275851,0.0013934510291522,-0.001342054875293,0.0013420548768668,-0.0013420548752647,0.0013420548767702,-0.0013420548760253,0.0013420548760415,-0.0013420548749675,0.0013420548770568,1.7520383881946e-11,-1.7520814155566e-11,-0.0013689452572596,0.0013689452572592,3.9673052721354e-15,-4.4575697066582e-15,-0.0013934510226457,0.0013934510344679,-0.0013934510224796,0.0013934510342962,-0.0013934510344633,0.0013934510226458,-0.001393451034301,0.0013934510224779,-0.0013420548930871,0.0013420548588848,-0.0013420548588842,0.00134205489308,0.73426696868484,0.71130716234974,1368840,32768,0.0056876858639384,0.0056876858639384,0.005687685864058,17.754573325631,17.758379286882,5.7236586605049e-05,5.7236586605049e-05,5.7236586605049e-05,287224.66406452,0.0172096589114
24364800,0.99990920282375,0.016913540393495,0.0056378467977928,0.0056378467977928,0.0056378467979093,-0.0013691653167174,0.0013691653162373,-1.8026490303095e-11,1.7547721987962e-11,3.5346267254622e-13,-8.4234141410683e-13,-0.001393641311606,0.0013936412998149,-0.0013936412998905,0.0013936413115304,-0.0013936413120679,0.0013936412992364,-0.0013936413001157,0.0013936413111886,-0.0013423021750165,0.0013423021396879,-0.001342302140568,0.0013423021741364,5.200473482046e-14,1.2678223608089e-12,6.9159329509368e-13,7.0005130508964e-13,-0.0013691653159343,0.0013691653170204,-0.0013936413052889,0.0013936413060422,-0.0013936413051959,0.0013936413061914,-0.0013936413047978,0.0013936413065963,-0.0013936413048853,0.0013936413064527,-0.0013423021565371,0.0013423021581111,-0.0013423021565087,0.0013423021580145,-0.0013423021572693,0.0013423021572857,-0.0013423021562115,0.001342302158301,1.7523113416208e-11,-1.7523544755972e-11,-0.0013691653165064,0.001369165316506,3.9668420509924e-15,-4.4583932109125e-15,-0.0013936412999451,0.0013936413117692,-0.0013936412997791,0.0013936413115975,-0.0013936413117646,0.0013936412999453,-0.0013936413116023,0.0013936412997774,-0.0013423021743338,0.0013423021401262,-0.0013423021401257,0.0013423021743267,0.73564461287431,0.73347617344896,1368840,32768,0.0056885976305124,0.0056885976305124,0.005688597630632,17.83543271529,17.838988407616,5.7883461722316e-05,5.7883461722316e-05,5.7883461722316e-05,285058.96180037,0.017212441097878
24451200,0.99991088837443,0.016913567511145,0.0056378558370095,0.0056378558370095,0.005637855837126,-0.0013693848451788,0.001369384844699,-1.8028833628567e-11,1.7550421876071e-11,3.5364819629036e-13,-8.4216689002665e-13,-0.0013938306195058,0.0013938306077134,-0.0013938306077886,0.0013938306194306,-0.0013938306199678,0.0013938306071348,-0.0013938306080138,0.0013938306190888,-0.0013425490320469,0.0013425489967139,-0.0013425489975935,0.0013425490311673,5.2149995088741e-14,1.2679713415518e-12,6.9175891135775e-13,7.0021669709585e-13,-0.0013693848443957,0.0013693848454821,-0.0013938306131879,0.0013938306139415,-0.0013938306130948,0.0013938306140907,-0.0013938306126967,0.0013938306144956,-0.0013938306127843,0.0013938306143521,-0.0013425490135652,0.0013425490151394,-0.0013425490135368,0.0013425490150428,-0.0013425490142974,0.001342549014314,-0.0013425490132395,0.0013425490153293,1.7525630133441e-11,-1.7526061576143e-11,-0.001369384844968,0.0013693848449675,3.9671435123712e-15,-4.4583638000462e-15,-0.0013938306078435,0.0013938306196692,-0.0013938306076774,0.0013938306194975,-0.0013938306196646,0.0013938306078436,-0.0013938306195023,0.0013938306076757,-0.0013425490313644,0.0013425489971519,-0.0013425489971514,0.0013425490313573,0.7338583364474,0.70088906137732,1368840,32768,0.0056895071929406,0.0056895071929406,0.0056895071930602,17.916058701288,17.91959752835,5.8528469610304e-05,5.8528469610304e-05,5.8528469610304e-05,282871.43948319,0.017215216579813
24537600,0.99991255099747,0.016913594398575,0.0056378647994861,0.0056378647994861,0.0056378647996027,-0.0013694518080477,0.0013694518075673,-1.8030740232086e-11,1.7551794716484e-11,3.5337811630582e-13,-8.4243573475481e-13,-0.0013939420447472,0.0013939420329531,-0.0013939420330289,0.0013939420446714,-0.0013939420452091,0.0013939420323747,-0.0013939420332542,0.0013939420443296,-0.0013425745986798,0.0013425745633429,-0.0013425745642231,0.0013425745977996,5.1930325328913e-14,1.2677607854841e-12,6.9151263027852e-13,6.9997764557518e-13,-0.0013694518072645,0.0013694518083505,-0.0013939420384287,0.0013939420391818,-0.0013939420383357,0.0013939420393311,-0.0013939420379377,0.0013939420397359,-0.0013939420380251,0.0013939420395924,-0.0013425745801963,0.0013425745817702,-0.0013425745801679,0.0013425745816736,-0.0013425745809285,0.0013425745809449,-0.0013425745798707,0.0013425745819602,1.7527274583204e-11,-1.7527710165486e-11,-0.0013694518078366,0.0013694518078361,3.9686434665486e-15,-4.4638048102977e-15,-0.0013939420330835,0.0013939420449103,-0.0013939420329174,0.0013939420447386,-0.0013939420449057,0.0013939420330836,-0.0013939420447434,0.0013939420329157,-0.0013425745979971,0.0013425745637813,-0.0013425745637808,0.00134257459799,0.73763294362641,0.76497482251868,1368840,32768,0.005689784545042,0.005689784545042,0.0056897845451616,17.996668800717,18.000206649084,5.9173350405733e-05,5.9173350405733e-05,5.9173350405733e-05,285006.93863322,0.017216063233237
24624000,0.99991419084241,0.016913621078423,0.0056378736927687,0.0056378736927687,0.0056378736928852,-0.0013697860458705,0.0013697860453912,-1.8031849051154e-11,1.7553932298241e-11,3.5390732072722e-13,-8.419247797759e-13,-0.0013941898653449,0.0013941898535507,-0.0013941898536254,0.0013941898652702,-0.0013941898658069,0.0013941898529721,-0.0013941898538506,0.0013941898649284,-0.001342988047071,0.0013429880117321,-0.0013429880126113,0.0013429880461918,5.2355782919711e-14,1.2681835813915e-12,6.91984465129e-13,7.0045576332195e-13,-0.0013697860450874,0.0013697860461743,-0.0013941898590259,0.00139418985978,-0.0013941898589326,0.0013941898599292,-0.0013941898585346,0.0013941898603341,-0.0013941898586222,0.0013941898601906,-0.0013429880285862,0.0013429880301607,-0.0013429880285577,0.0013429880300641,-0.0013429880293184,0.0013429880293352,-0.0013429880282604,0.0013429880303505,1.7528883386998e-11,-1.7529319123686e-11,-0.0013697860456599,0.0013697860456594,3.9713125026585e-15,-4.4672458816459e-15,-0.0013941898536806,0.0013941898655084,-0.0013941898535146,0.0013941898653368,-0.0013941898655038,0.0013941898536808,-0.0013941898653416,0.0013941898535129,-0.0013429880463886,0.0013429880121698,-0.0013429880121693,0.0013429880463815,0.74212144565287,0.82906058366005,1368840,32768,0.0056911694457804,0.0056911694457804,0.0056911694458999,18.077277693335,18.080815769818,5.9818221546682e-05,5.9818221546682e-05,5.9818221546682e-05,279581.23969916,0.017220288954002
24710400,0.99991580806065,0.016913647385953,0.0056378824619455,0.0056378824619455,0.005637882462062,-0.0013701158605167,0.0013701158600384,-1.8035372369989e-11,1.7558486659109e-11,3.5442752542356e-13,-8.4140311924168e-13,-0.0013944343337628,0.0013944343219668,-0.0013944343220405,0.0013944343336891,-0.0013944343342248,0.001394434321388,-0.0013944343222654,0.0013944343333473,-0.0013433946895523,0.0013433946542067,-0.0013433946550849,0.0013433946886742,5.2793004856999e-14,1.2686001238135e-12,6.9245848557447e-13,7.0093095468753e-13,-0.0013701158597337,0.0013701158608214,-0.0013944343274424,0.0013944343281975,-0.0013944343273489,0.0013944343283467,-0.0013944343269509,0.0013944343287516,-0.0013944343270388,0.0013944343286081,-0.0013433946710639,0.001343394672639,-0.0013433946710352,0.0013433946725423,-0.001343394671796,0.0013433946718134,-0.001343394670738,0.0013433946728287,1.75329051759e-11,-1.7533341162581e-11,-0.0013701158603066,0.0013701158603061,3.9716213167538e-15,-4.4674517577095e-15,-0.0013944343220963,0.0013944343339267,-0.0013944343219303,0.0013944343337551,-0.0013944343339221,0.0013944343220964,-0.0013944343337599,0.0013944343219286,-0.0013433946888702,0.0013433946546438,-0.0013433946546432,0.0013433946888631,0.74194857691283,0.80338046085544,1368840,32768,0.0056925360004133,0.0056925360004133,0.0056925360005327,18.157886881997,18.161424890552,6.0463095055972e-05,6.0463095055972e-05,6.0463095055972e-05,274202.83805138,0.017224458769528
24796800,0.99991740280533,0.016913672485022,0.0056378908283018,0.0056378908283018,0.0056378908284183,-0.0013702137629817,0.0013702137625029,-1.8037868705493e-11,1.7560481804041e-11,3.544342016902e-13,-8.4191542712044e-13,-0.0013945592538121,0.0013945592420143,-0.0013945592420883,0.0013945592537381,-0.0013945592542743,0.0013945592414354,-0.0013945592423135,0.0013945592533961,-0.0013434648910595,0.0013434648557087,-0.0013434648565875,0.0013434648901804,5.2569894025823e-14,1.2689039270325e-12,6.9244990679243e-13,7.0088254440173e-13,-0.0013702137621984,0.0013702137632861,-0.0013945592474909,0.0013945592482458,-0.0013945592473975,0.0013945592483949,-0.0013945592469993,0.0013945592488,-0.0013945592470871,0.0013945592486565,-0.0013434648725682,0.0013434648741438,-0.0013434648725399,0.0013434648740471,-0.0013434648733006,0.0013434648733182,-0.0013434648722425,0.0013434648743335,1.7535172106646e-11,-1.7535557616928e-11,-0.0013702137627713,0.0013702137627709,3.9397767013497e-15,-4.4600990411535e-15,-0.0013945592421439,0.0013945592539758,-0.0013945592419779,0.0013945592538042,-0.0013945592539712,0.001394559242144,-0.001394559253809,0.0013945592419762,-0.0013434648903772,0.0013434648561466,-0.0013434648561457,0.0013434648903702,0.71782212523223,0.43927619685029,1368840,32768,0.0056929415293011,0.0056929415293011,0.0056929415294206,18.23849654384,18.242034011286,6.1107972350715e-05,6.1107972350715e-05,6.1107972350715e-05,275261.9896266,0.017225696601401
24883200,0.99991897523111,0.016913697313541,0.0056378991044748,0.0056378991044748,0.0056378991045913,-0.0013692639274654,0.0013692639269802,-1.8043038885783e-11,1.7559236959717e-11,3.5112996439708e-13,-8.4509732991549e-13,-0.0013941595601154,0.0013941595483108,-0.0013941595483912,0.001394159560035,-0.0013941595605775,0.0013941595477331,-0.0013941595486176,0.001394159559693,-0.0013420151562842,0.0013420151209221,-0.0013420151218073,0.001342015155399,4.9844565518032e-14,1.2661773412102e-12,6.8946417998963e-13,6.9789478273462e-13,-0.0013692639266818,0.0013692639277638,-0.0013941595537937,0.0013941595545423,-0.001394159553702,0.0013941595546918,-0.0013941595533038,0.0013941595550969,-0.00139415955339,0.001394159554953,-0.0013420151377893,0.0013420151393605,-0.0013420151377616,0.0013420151392643,-0.0013420151385222,0.0013420151385358,-0.0013420151374644,0.0013420151395515,1.7537235514199e-11,-1.753765902332e-11,-0.0013692639272519,0.0013692639272515,3.9570555852563e-15,-4.4406290477131e-15,-0.001394159548443,0.0013941595602768,-0.0013941595482769,0.0013941595601051,-0.0013941595602722,0.0013941595484432,-0.0013941595601098,0.0013941595482752,-0.0013420151555999,0.0013420151213639,-0.0013420151213633,0.0013420151555929,0.72017118952379,0.49107144933571,1368840,32768,0.0056890055262859,0.0056890055262859,0.0056890055264059,18.319105727354,18.32264313202,6.175284581883e-05,6.175284581883e-05,6.175284581883e-05,307075.36208944,0.017213688150032
24969600,0.99992053246814,0.016913721961658,0.0056379073205137,0.0056379073205137,0.0056379073206302,-0.0013697264796343,0.00136972647915,-1.8045342859515e-11,1.756246124357e-11,3.5158620045939e-13,-8.4462381496928e-13,-0.0013945408994057,0.0013945408876,-0.0013945408876795,0.0013945408993262,-0.0013945408998678,0.0013945408870221,-0.0013945408879057,0.0013945408989842,-0.0013425524975867,0.0013425524622203,-0.0013425524631046,0.0013425524967025,5.0207142676843e-14,1.2665047466494e-12,6.8986355014208e-13,6.9829613812055e-13,-0.0013697264788508,0.0013697264799335,-0.0013945408930831,0.0013945408938325,-0.0013945408929911,0.001394540893982,-0.0013945408925929,0.0013945408943871,-0.0013945408926794,0.0013945408942432,-0.0013425524790894,0.0013425524806612,-0.0013425524790616,0.0013425524805649,-0.0013425524798223,0.0013425524798363,-0.0013425524787644,0.001342552480852,1.7539989371247e-11,-1.7540411674522e-11,-0.0013697264794213,0.0013697264794209,3.9586952410483e-15,-4.4408937455091e-15,-0.0013945408877319,0.0013945408995674,-0.0013945408875658,0.0013945408993957,-0.0013945408995628,0.001394540887732,-0.0013945408994005,0.0013945408875641,-0.0013425524969027,0.0013425524626615,-0.0013425524626609,0.0013425524968956,0.72224657666853,0.53635853196325,1368840,32768,0.0056909220439775,0.0056909220439775,0.0056909220440975,18.471768275399,18.478395501747,6.2974146203186e-05,6.2974146203186e-05,6.2974146203186e-05,301885.5633856,0.017219536152915
25056000,0.99992208608037,0.016913746628481,0.0056379155427881,0.0056379155427881,0.0056379155429047,-0.0013703992788935,0.00137039927841,-1.8048396677988e-11,1.7566307479012e-11,3.5197695322804e-13,-8.4421335692026e-13,-0.0013951434632042,0.0013951434513969,-0.0013951434514756,0.0013951434631255,-0.0013951434636662,0.0013951434508188,-0.0013951434517016,0.0013951434627835,-0.0013432899560092,0.0013432899206371,-0.0013432899215205,0.0013432899551258,5.0519397843544e-14,1.2667812786427e-12,6.9020595512302e-13,6.9864139227915e-13,-0.00137039927811,0.0013703992791934,-0.0013951434568804,0.0013951434576306,-0.0013951434567882,0.00139514345778,-0.0013951434563901,0.0013951434581851,-0.0013951434564767,0.0013951434580413,-0.0013432899375089,0.001343289939081,-0.0013432899374809,0.0013432899389847,-0.0013432899382416,0.001343289938256,-0.0013432899371837,0.0013432899392717,1.7543428648532e-11,-1.754385223118e-11,-0.0013703992786808,0.0013703992786804,3.9598422648311e-15,-4.4424231105528e-15,-0.0013951434515284,0.0013951434633662,-0.0013951434513623,0.0013951434631945,-0.0013951434633616,0.0013951434515286,-0.0013951434631993,0.0013951434513606,-0.0013432899553255,0.0013432899210776,-0.0013432899210771,0.0013432899553184,0.72443198984192,0.58164561459079,1368840,32768,0.0056937095932455,0.0056937095932455,0.0056937095933654,18.746247390011,18.758167973673,6.5169979120089e-05,6.5169979120089e-05,6.5169979120089e-05,297410.99719363,0.017228042368441
25142400,0.99992363597148,0.016913771315939,0.0056379237719409,0.0056379237719409,0.0056379237720575,-0.001371078486731,0.0013710784862483,-1.8050695122478e-11,1.756938694376e-11,3.5236463256117e-13,-8.4381004571173e-13,-0.0013957556285593,0.0013957556167508,-0.0013957556168288,0.0013957556284814,-0.0013957556290214,0.0013957556161727,-0.0013957556170547,0.0013957556281394,-0.0013440314830955,0.001344031447719,-0.0013440314486017,0.0013440314822129,5.0831329490717e-14,1.2670629795957e-12,6.905482865768e-13,6.9898416121956e-13,-0.0013710784859476,0.0013710784870317,-0.0013957556222346,0.0013957556229856,-0.0013957556221422,0.0013957556231349,-0.0013957556217441,0.00139575562354,-0.0013957556218309,0.0013957556233962,-0.0013440314645928,0.0013440314661654,-0.0013440314645647,0.001344031466069,-0.0013440314653255,0.0013440314653402,-0.0013440314642675,0.0013440314663559,1.7546106684367e-11,-1.7546530311132e-11,-0.0013710784865187,0.0013710784865183,3.9597319740827e-15,-4.4432466148071e-15,-0.0013957556168821,0.0013957556287216,-0.001395755616716,0.0013957556285499,-0.001395755628717,0.0013957556168822,-0.0013957556285547,0.0013957556167143,-0.001344031482412,0.0013440314481591,-0.0013440314481585,0.0013440314824049,0.72672661305158,0.62693269721833,1368840,32768,0.0056965236747757,0.0056965236747757,0.0056965236748954,19.025687060936,19.037940445599,6.7405496487483e-05,6.7405496487483e-05,6.7405496487483e-05,293079.4624686,0.017236629668434
25228800,0.99992518157999,0.016913796019272,0.0056379320063852,0.0056379320063852,0.0056379320065017,-0.0013717549879087,0.0013717549874268,-1.8052762765195e-11,1.7572224915885e-11,3.5274740027965e-13,-8.4341323430463e-13,-0.0013963665643323,0.0013963665525228,-0.0013963665526,0.0013963665642551,-0.0013963665647943,0.0013963665519445,-0.0013963665528257,0.0013963665639131,-0.0013447690169627,0.0013447689815823,-0.0013447689824643,0.0013447690160808,5.114349642482e-14,1.2673459231579e-12,6.908883772902e-13,6.9932606253941e-13,-0.0013717549871254,0.0013717549882101,-0.0013963665580068,0.0013963665587584,-0.0013963665579141,0.0013963665589078,-0.001396366557516,0.0013963665593128,-0.001396366557603,0.0013963665591691,-0.0013447689984579,0.0013447690000309,-0.0013447689984297,0.0013447689999345,-0.0013447689991905,0.0013447689992056,-0.0013447689981324,0.0013447690002212,1.7548548227427e-11,-1.7548972346823e-11,-0.0013717549876968,0.0013717549876964,3.9603790131397e-15,-4.4444524603222e-15,-0.0013963665526538,0.0013963665644948,-0.0013963665524877,0.0013963665643232,-0.0013963665644902,0.0013963665526539,-0.001396366564328,0.001396366552486,-0.0013447690162794,0.0013447689820219,-0.0013447689820213,0.0013447690162723,0.72915724823423,0.67221977984587,1368840,32768,0.0056993265289746,0.0056993265289746,0.0056993265290943,19.30543706978,19.317712917525,6.9643496558237e-05,6.9643496558237e-05,6.9643496558237e-05,288851.30979188,0.017245182797946
25315200,0.9999267223124,0.016913820735815,0.0056379402452329,0.0056379402452329,0.0056379402453494,-0.0013724282610704,0.0013724282605893,-1.8054619737878e-11,1.7574842071227e-11,3.5312403583251e-13,-8.43021158047e-13,-0.0013969756045002,0.0013969755926899,-0.0013969755927663,0.0013969756044237,-0.0013969756049622,0.0013969755921114,-0.0013969755929919,0.0013969756040818,-0.0013455019909678,0.0013455019555839,-0.0013455019564651,0.0013455019900867,5.1456751560973e-14,1.2676294806719e-12,6.9122560412051e-13,6.9966674330832e-13,-0.0013724282602872,0.0013724282613725,-0.0013969755981739,0.0013969755989263,-0.0013969755980811,0.0013969755990756,-0.0013969755976829,0.0013969755994806,-0.0013969755977702,0.001396975599337,-0.001345501972461,0.0013455019740345,-0.0013455019724327,0.001345501973938,-0.0013455019731935,0.001345501973209,-0.0013455019721354,0.0013455019742246,1.7550772865348e-11,-1.7551198484699e-11,-0.0013724282608589,0.0013724282608585,3.9616142695211e-15,-4.4466288644228e-15,-0.0013969755928205,0.001396975604663,-0.0013969755926545,0.0013969756044913,-0.0013969756046584,0.0013969755928207,-0.0013969756044961,0.0013969755926528,-0.0013455019902847,0.0013455019560229,-0.0013455019560223,0.0013455019902776,0.73180545544161,0.71750686247341,1368840,32768,0.0057021159960247,0.0057021159960247,0.0057021159961443,19.585207760089,19.597485389451,7.188166208071e-05,7.188166208071e-05,7.188166208071e-05,284717.23573285,0.017253695164007
25401600,0.99992825757048,0.016913845656435,0.0056379485521062,0.0056379485521062,0.0056379485522228,-0.0013730986074946,0.0013730986070142,-1.8055464329723e-11,1.7576463698158e-11,3.5350997992454e-13,-8.4263490514088e-13,-0.0013975827998545,0.001397582788044,-0.0013975827881197,0.0013975827997788,-0.0013975828003166,0.0013975827874654,-0.0013975827883451,0.0013975827994369,-0.0013462306679775,0.0013462306325922,-0.0013462306334726,0.0013462306670973,5.1774124218397e-14,1.2679312618938e-12,6.915689557637e-13,7.0000670351101e-13,-0.0013730986067114,0.0013730986077974,-0.0013975827935277,0.0013975827942808,-0.0013975827934347,0.0013975827944301,-0.0013975827930366,0.0013975827948351,-0.001397582793124,0.0013975827946915,-0.0013462306494699,0.0013462306510438,-0.0013462306494414,0.0013462306509472,-0.0013462306502023,0.0013462306502183,-0.0013462306491442,0.0013462306512339,1.7551988651736e-11,-1.7552424381072e-11,-0.0013730986072835,0.001373098607283,3.954577719777e-15,-4.4505993313631e-15,-0.0013975827881743,0.0013975828000176,-0.0013975827880082,0.0013975827998459,-0.0013975828000129,0.0013975827881744,-0.0013975827998507,0.0013975827880065,-0.0013462306672948,0.0013462306330307,-0.0013462306330303,0.0013462306672878,0.74041592325644,0.8616739196317,1368840,32768,0.0057048933229346,0.0057048933229346,0.0057048933230541,19.864978113808,19.877257861377,7.411982491046e-05,7.411982491046e-05,7.411982491046e-05,280653.57952351,0.017262170575403
25488000,0.99992978624991,0.016913870711334,0.0056379569037393,0.0056379569037393,0.0056379569038558,-0.0013740106719367,0.0013740106714585,-1.8056791818581e-11,1.7580049470968e-11,3.5460826990194e-13,-8.4143214776664e-13,-0.0013983058689187,0.0013983058571085,-0.001398305857182,0.0013983058688452,-0.0013983058693807,0.0013983058565295,-0.0013983058574069,0.0013983058685034,-0.0013473161345087,0.0013473160991212,-0.0013473160999993,0.0013473161336306,5.2736477172116e-14,1.2687480384124e-12,6.9260825489618e-13,7.0098465892926e-13,-0.0013740106711536,0.0013740106722416,-0.0013983058625911,0.0013983058633464,-0.0013983058624975,0.0013983058634955,-0.0013983058620994,0.0013983058639005,-0.0013983058621874,0.001398305863757,-0.0013473161159992,0.0013473161175746,-0.0013473161159705,0.0013473161174777,-0.0013473161167315,0.0013473161167486,-0.0013473161156732,0.0013473161177641,1.7554430135974e-11,-1.7554832219279e-11,-0.0013740106717266,0.0013740106717262,3.9405119730053e-15,-4.4014831847688e-15,-0.0013983058572379,0.0013983058690826,-0.0013983058570719,0.001398305868911,-0.0013983058690781,0.0013983058572381,-0.0013983058689158,0.0013983058570702,-0.0013473161338265,0.0013473160995582,-0.0013473160995575,0.0013473161338195,0.74755615154279,0.95250232212385,1368840,32768,0.0057086722808624,0.0057086722808624,0.0057086722809817,20.139386741661,20.157030333304,7.6315093933288e-05,7.6315093933288e-05,7.6315093933288e-05,269440.51584104,0.01727370208105
25574400,0.99993130822155,0.016913895689246,0.0056379652297097,0.0056379652297097,0.0056379652298262,-0.0013747800509819,0.0013747800505052,-1.8057885446936e-11,1.7582603569413e-11,3.5526663214237e-13,-8.4061911378074e-13,-0.0013989605018602,0.00139896049005,-0.0013989604901221,0.0013989605017881,-0.0013989605023222,0.0013989604894709,-0.0013989604903468,0.0013989605014464,-0.0013481873092173,0.001348187273828,-0.0013481872747046,0.0013481873083408,5.3408162534942e-14,1.2692385013703e-12,6.9334500996235e-13,7.0151267221058e-13,-0.001374780050199,0.0013747800512882,-0.001398960495532,0.0013989604962888,-0.0013989604954381,0.0013989604964377,-0.00139896049504,0.0013989604968427,-0.0013989604951284,0.0013989604966992,-0.0013481872907064,0.0013481872922828,-0.0013481872906777,0.0013481872921857,-0.0013481872914385,0.0013481872914565,-0.0013481872903803,0.0013481872924718,1.75562685504e-11,-1.7556586158344e-11,-0.0013747800507725,0.0013747800507722,3.8666833460662e-15,-4.2647226568267e-15,-0.0013989604901789,0.0013989605020247,-0.0013989604900128,0.0013989605018532,-0.0013989605020202,0.0013989604901791,-0.0013989605018578,0.0013989604900113,-0.0013481873085354,0.0013481872742639,-0.0013481872742632,0.0013481873085285,0.74842915718877,0.89921598704721,1368840,32768,0.0057118599237517,0.0057118599237517,0.0057118599238709,20.418664533454,20.43680280523,7.8549316267627e-05,7.8549316267627e-05,7.8549316267627e-05,262383.92896486,0.017283429696566
25660800,0.99993282292548,0.016913920568448,0.005637973522777,0.005637973522777,0.0056379735228936,-0.0013752149450329,0.0013752149445556,-1.8060177171043e-11,1.7584309840816e-11,3.5496911181965e-13,-8.4091584001008e-13,-0.0013994409177809,0.0013994409059689,-0.0013994409060416,0.0013994409177083,-0.0013994409182429,0.0013994409053899,-0.0013994409062663,0.0013994409173664,-0.001348572126166,0.001348572090772,-0.0013485720916492,0.0013485721252888,5.3254520169788e-14,1.2690972556853e-12,6.931209800416e-13,7.012962670569e-13,-0.0013752149442499,0.0013752149453386,-0.001399440911452,0.0013994409122083,-0.0013994409113583,0.0013994409123572,-0.0013994409109601,0.0013994409127622,-0.0013994409110484,0.0013994409126187,-0.0013485721076528,0.0013485721092291,-0.0013485721076243,0.001348572109132,-0.0013485721083851,0.0013485721084031,-0.001348572107327,0.0013485721094184,1.755824019605e-11,-1.7558576744592e-11,-0.0013752149448232,0.0013752149448229,3.8734404925812e-15,-4.2699577910146e-15,-0.0013994409060979,0.0013994409179452,-0.0013994409059319,0.0013994409177737,-0.0013994409179406,0.0013994409060981,-0.0013994409177783,0.0013994409059303,-0.0013485721254841,0.0013485720912085,-0.0013485720912078,0.0013485721254772,0.74897587282282,0.86523706048209,1368840,32768,0.0057136614715224,0.0057136614715224,0.0057136614716418,20.698375618613,20.716575277156,8.0787004948902e-05,8.0787004948902e-05,8.0787004948902e-05,264352.97402556,0.017288928425179
25747200,0.99993431808726,0.016913945084615,0.0056379816948328,0.0056379816948328,0.0056379816949494,-0.0013754400617592,0.0013754400612816,-1.8062173521821e-11,1.7585915909399e-11,3.5478147049314e-13,-8.4112301015176e-13,-0.0013996999357761,0.0013996999239626,-0.0013996999240357,0.0013996999357031,-0.0013996999362381,0.0013996999233836,-0.0013996999242605,0.0013996999353612,-0.0013487619371912,0.0013487619017932,-0.0013487619026708,0.0013487619363137,5.3140435419704e-14,1.2690123244563e-12,6.9295860448736e-13,7.0116018297888e-13,-0.0013754400609762,0.0013754400620647,-0.0013996999294466,0.0013996999302025,-0.001399699929353,0.0013996999303515,-0.0013996999289549,0.0013996999307565,-0.001399699929043,0.001399699930613,-0.0013487619186761,0.0013487619202522,-0.0013487619186477,0.0013487619201552,-0.0013487619194083,0.0013487619194263,-0.0013487619183503,0.0013487619204416,1.7560024700358e-11,-1.7560374410263e-11,-0.0013754400615494,0.001375440061549,3.8808079145703e-15,-4.2884866367358e-15,-0.0013996999240918,0.0013996999359403,-0.0013996999239258,0.0013996999357688,-0.0013996999359357,0.001399699924092,-0.0013996999357734,0.0013996999239242,-0.0013487619365092,0.00134876190223,-0.0013487619022292,0.0013487619365023,0.74771686784182,0.81827565817244,1368840,32768,0.0057145939869631,0.0057145939869631,0.0057145939870826,20.850697376978,20.860888483298,8.2005579015819e-05,8.2005579015819e-05,8.2005579015819e-05,265642.30189369,0.017291774797312
25833600,0.99993577578432,0.016913968976753,0.0056379896588788,0.0056379896588788,0.0056379896589953,-0.0013752404739133,0.001375240473435,-1.8064674724823e-11,1.7587786499313e-11,3.5445287759025e-13,-8.4143720643563e-13,-0.0013995576666062,0.0013995576547907,-0.0013995576548644,0.0013995576665326,-0.0013995576670681,0.0013995576542118,-0.0013995576550893,0.0013995576661906,-0.0013485080267942,0.0013485079913912,-0.0013485079922694,0.0013485080259161,5.2911413004417e-14,1.2687824417732e-12,6.9267704323592e-13,7.0089401463955e-13,-0.0013752404731301,0.0013752404742181,-0.0013995576602759,0.0013995576610313,-0.0013995576601825,0.0013995576611803,-0.0013995576597844,0.0013995576615853,-0.0013995576598724,0.0013995576614418,-0.0013485080082768,0.0013485080098526,-0.0013485080082484,0.0013485080097556,-0.001348508009009,0.0013485080090268,-0.0013485080079511,0.0013485080100421,1.7562209221858e-11,-1.756256063024e-11,-0.0013752404737031,0.0013752404737028,3.8877415262827e-15,-4.2973687183355e-15,-0.0013995576549201,0.0013995576667701,-0.0013995576547541,0.0013995576665986,-0.0013995576667655,0.0013995576549203,-0.0013995576666032,0.0013995576547525,-0.0013485080261121,0.0013485079918285,-0.0013485079918277,0.0013485080261052,0.74742156924857,0.79960567941862,1368840,32768,0.0057137669716088,0.0057137669716088,0.0057137669717283,20.803716507635,20.801103767876,8.1629732061074e-05,8.1629732061074e-05,8.1629732061074e-05,268266.53237229,0.017289251360009
25920000,0.99993719603343,0.016913992234632,0.005637997411505,0.005637997411505,0.0056379974116215,-0.0013750836978758,0.0013750836973973,-1.8066964551929e-11,1.7589820554821e-11,3.5431880815657e-13,-8.4156264378008e-13,-0.0013994230201111,0.0013994230082939,-0.0013994230083679,0.0013994230200372,-0.001399423020573,0.0013994230077151,-0.0013994230085929,0.0013994230196953,-0.0013483292181841,0.0013483291827765,-0.001348329183655,0.0013483292173057,5.2819121706206e-14,1.2686868527816e-12,6.9255677485121e-13,7.0078898843627e-13,-0.0013750836970927,0.0013750836981804,-0.0013994230137801,0.0013994230145352,-0.0013994230136868,0.0013994230146843,-0.0013994230132887,0.0013994230150892,-0.0013994230133765,0.0013994230149457,-0.0013483291996645,0.0013483292012401,-0.0013483291996361,0.0013483292011431,-0.0013483292003967,0.0013483292004144,-0.0013483291993388,0.0013483292014297,1.756437006761e-11,-1.7564725505281e-11,-0.0013750836976656,0.0013750836976652,3.8932707691328e-15,-4.3073978237179e-15,-0.0013994230084235,0.0013994230202749,-0.0013994230082574,0.0013994230201034,-0.0013994230202703,0.0013994230084236,-0.001399423020108,0.0013994230082558,-0.001348329217502,0.001348329183214,-0.0013483291832133,0.001348329217495,0.74679298332332,0.7809357006648,1368840,32768,0.0057131174070774,0.0057131174070774,0.0057131174071971,20.745086232113,20.741319052455,8.11606898569e-05,8.11606898569e-05,8.11606898569e-05,269062.1895872,0.01728726916486
26006400,0.99993857981794,0.016914014735214,0.0056380049116991,0.0056380049116991,0.0056380049118156,-0.0013749224751237,0.0013749224746449,-1.8068513960478e-11,1.7591094162972e-11,3.5417362141545e-13,-8.4169758083432e-13,-0.0013992852352301,0.0013992852234117,-0.0013992852234859,0.0013992852351559,-0.001399285235692,0.001399285222833,-0.001399285223711,0.001399285234814,-0.0013481451289562,0.0013481450935455,-0.0013481450944242,0.0013481451280775,5.2708478027471e-14,1.2685708011799e-12,6.9242721630914e-13,7.0066597748829e-13,-0.0013749224743405,0.0013749224754281,-0.0013992852288986,0.0013992852296535,-0.0013992852288054,0.0013992852298025,-0.0013992852284073,0.0013992852302075,-0.0013992852284951,0.0013992852300639,-0.0013481451104351,0.0013481451120105,-0.0013481451104068,0.0013481451119136,-0.0013481451111673,0.0013481451111849,-0.0013481451101095,0.0013481451122002,1.7565784406756e-11,-1.7566140498819e-11,-0.0013749224749133,0.001374922474913,3.8944030874824e-15,-4.3125153144409e-15,-0.0013992852235414,0.0013992852353938,-0.0013992852233753,0.0013992852352222,-0.0013992852353892,0.0013992852235415,-0.0013992852352269,0.0013992852233738,-0.001348145128274,0.0013481450939832,-0.0013481450939824,0.001348145128267,0.74152877898351,0.69652168285282,1368840,32768,0.0057124494271429,0.0057124494271429,0.0057124494272626,20.685411289211,20.681534337034,8.0683290313687e-05,8.0683290313687e-05,8.0683290313687e-05,269966.45982076,0.017285230745218
26092800,0.99993992817437,0.016914036334527,0.0056380121114702,0.0056380121114702,0.0056380121115867,-0.0013745801382622,0.0013745801377821,-1.8073227390015e-11,1.7594465471745e-11,3.5348752472818e-13,-8.4236847210375e-13,-0.001399056285243,0.0013990562734208,-0.0013990562734963,0.0013990562851675,-0.0013990562857049,0.0013990562728423,-0.0013990562737217,0.0013990562848255,-0.0013476984930389,0.0013476984576187,-0.0013476984584988,0.0013476984921589,5.2149142173621e-14,1.2680222370558e-12,6.9178779466656e-13,7.0006693696503e-13,-0.001374580137479,0.0013745801385653,-0.0013990562789102,0.0013990562796637,-0.0013990562788173,0.0013990562798129,-0.0013990562784192,0.0013990562802178,-0.0013990562785066,0.0013990562800742,-0.0013476984745135,0.001347698476088,-0.0013476984744853,0.0013476984759912,-0.0013476984752458,0.0013476984752627,-0.0013476984741881,0.001347698476278,1.7569841812217e-11,-1.7570212425895e-11,-0.0013745801380512,0.0013745801380509,3.909115873311e-15,-4.3381615897883e-15,-0.001399056273551,0.0013990562854062,-0.0013990562733849,0.0013990562852346,-0.0013990562854016,0.0013990562735511,-0.0013990562852393,0.0013990562733833,-0.0013476984923563,0.0013476984580573,-0.0013476984580566,0.0013476984923493,0.73054861317847,0.53839686589601,1368840,32768,0.0057110309715264,0.0057110309715264,0.0057110309716461,20.62563614992,20.621749621612,8.0205089199358e-05,8.0205089199358e-05,8.0205089199358e-05,276103.57095977,0.017280902461407
26179200,0.99994124211471,0.01691405774682,0.0056380192489013,0.0056380192489013,0.0056380192490178,-0.0013739919171808,0.001373991916698,-1.8076329251138e-11,1.7595043248212e-11,3.5193396924705e-13,-8.434397334951e-13,-0.0013987056943512,0.0013987056825254,-0.0013987056826037,0.0013987056942729,-0.0013987056948129,0.0013987056819476,-0.0013987056828294,0.0013987056939311,-0.001346893800203,0.0013468937647765,-0.0013468937656589,0.0013468937993208,5.1080174829839e-14,1.2665232166733e-12,6.9044926754294e-13,6.9876769724415e-13,-0.0013739919163975,0.0013739919174813,-0.0013987056880179,0.0013987056887686,-0.0013987056879256,0.001398705688918,-0.0013987056875277,0.0013987056893228,-0.0013987056876144,0.001398705689179,-0.0013468937816754,0.0013468937832478,-0.0013468937816477,0.0013468937831515,-0.0013468937824079,0.0013468937824232,-0.0013468937813509,0.0013468937834384,1.7571710902176e-11,-1.7572138197946e-11,-0.0013739919169685,0.0013739919169681,3.918887633614e-15,-4.3681018516045e-15,-0.0013987056826567,0.0013987056945133,-0.0013987056824906,0.0013987056943416,-0.0013987056945087,0.0013987056826568,-0.0013987056943463,0.0013987056824889,-0.0013468937995201,0.0013468937652169,-0.0013468937652164,0.0013468937995133,0.74324493777818,0.78002189925125,1368840,32768,0.0057085936736193,0.0057085936736193,0.0057085936737393,20.565852548046,20.561964906191,7.9726820384363e-05,7.9726820384363e-05,7.9726820384363e-05,289563.60703617,0.017273465417156
26265600,0.99994252262005,0.016914078854637,0.0056380262848401,0.0056380262848401,0.0056380262849566,-0.0013745533330135,0.0013745533325346,-1.8075560318746e-11,1.7598134359663e-11,3.5388408614291e-13,-8.415149099442e-13,-0.0013989379441671,0.0013989379323439,-0.0013989379324183,0.0013989379440927,-0.0013989379446288,0.0013989379317653,-0.0013989379326433,0.001398937943751,-0.0013477615798826,0.0013477615444584,-0.001347761545337,0.0013477615790043,5.2663244115218e-14,1.2680565999766e-12,6.9221683303032e-13,7.0046570419473e-13,-0.0013745533322305,0.0013745533333175,-0.0013989379378333,0.0013989379385878,-0.00139893793774,0.0013989379387368,-0.0013989379373421,0.0013989379391417,-0.0013989379374298,0.0013989379389981,-0.0013477615613554,0.0013477615629302,-0.001347761561327,0.0013477615628331,-0.0013477615620877,0.0013477615621049,-0.0013477615610303,0.0013477615631199,1.7572784781134e-11,-1.7573288530451e-11,-0.0013745533328031,0.0013745533328026,3.8807270346882e-15,-4.3360734182864e-15,-0.0013989379324735,0.0013989379443305,-0.0013989379323074,0.001398937944159,-0.001398937944326,0.0013989379324735,-0.0013989379441637,0.0013989379323058,-0.0013477615792011,0.0013477615448963,-0.0013477615448958,0.001347761579194,0.75194074826262,0.92560067273982,1368840,32768,0.0057109201704598,0.0057109201704598,0.0057109201705794,20.506069057579,20.50218019077,7.924855246063e-05,7.924855246063e-05,7.924855246063e-05,270152.25122817,0.017280563432759
26352000,0.99994377064072,0.016914099453969,0.0056380331512841,0.005638033151284,0.0056380331514006,-0.0013747986591928,0.001374798658716,-1.8076329633479e-11,1.7600974714069e-11,3.5499916972493e-13,-8.4043791343394e-13,-0.0013990074475141,0.0013990074356915,-0.0013990074357638,0.0013990074474418,-0.0013990074479759,0.0013990074351125,-0.0013990074359883,0.0013990074471001,-0.0013481689418659,0.0013481689064405,-0.001348168907317,0.0013481689409894,5.3562540171753e-14,1.268950230765e-12,6.9319097974139e-13,7.0142808655932e-13,-0.00137479865841,0.0013747986594989,-0.0013990074411797,0.0013990074419363,-0.0013990074410859,0.0013990074420853,-0.0013990074406879,0.0013990074424901,-0.0013990074407762,0.0013990074423466,-0.001348168923337,0.0013481689249132,-0.0013481689233084,0.0013481689248162,-0.001348168924069,0.0013481689240875,-0.0013481689230113,0.0013481689251024,1.7574634783442e-11,-1.7574993801886e-11,-0.0013747986589834,0.001374798658983,3.8938883973235e-15,-4.3118094536515e-15,-0.0013990074358203,0.0013990074476785,-0.0013990074356543,0.001399007447507,-0.0013990074476739,0.0013990074358205,-0.0013990074475116,0.0013990074356527,-0.0013481689411843,0.0013481689068766,-0.0013481689068759,0.0013481689411774,0.75272444792458,0.8874016471762,1368840,32768,0.005711936842608,0.005711936842608,0.0057119368427274,20.446283578213,20.442395475348,7.8770268625701e-05,7.8770268625701e-05,7.8770268625701e-05,259700.52968641,0.017283665083632
26438400,0.99994498709773,0.016914119658662,0.0056380398861819,0.0056380398861819,0.0056380398862984,-0.0013746087021331,0.0013746087016559,-1.8078815336954e-11,1.7603034621728e-11,3.5480473448832e-13,-8.4066770053175e-13,-0.0013988496986387,0.0013988496868142,-0.0013988496868869,0.001398849698566,-0.0013988496991005,0.0013988496862353,-0.0013988496871116,0.0013988496982242,-0.0013479433067457,0.0013479432713154,-0.0013479432721923,0.0013479433058688,5.3439308642274e-14,1.2688732037064e-12,6.9302549031169e-13,7.0127854701e-13,-0.0013746087013501,0.0013746087024388,-0.0013988496923035,0.0013988496930597,-0.0013988496922098,0.0013988496932087,-0.0013988496918118,0.0013988496936136,-0.0013988496919,0.0013988496934701,-0.0013479432882145,0.0013479432897906,-0.001347943288186,0.0013479432896935,-0.0013479432889464,0.0013479432889649,-0.0013479432878888,0.0013479432899798,1.7576892096835e-11,-1.7577256615111e-11,-0.0013746087019235,0.0013746087019231,3.8992779385591e-15,-4.3220738459637e-15,-0.0013988496869432,0.0013988496988029,-0.0013988496867772,0.0013988496986314,-0.0013988496987983,0.0013988496869434,-0.0013988496986361,0.0013988496867756,-0.0013479433060641,0.0013479432717518,-0.0013479432717511,0.0013479433060572,0.7573469747318,0.93136439565299,1368840,32768,0.0057111497271545,0.0057111497271545,0.005711149727274,20.386499021251,20.382610759927,7.8291992170006e-05,7.8291992170006e-05,7.8291992170006e-05,260985.48297109,0.017281263401965
26524800,0.99994618009094,0.016914139521099,0.005638046506994,0.005638046506994,0.0056380465071106,-0.0013747973004665,0.00137479729999,-1.8080201809304e-11,1.7605093529418e-11,3.5519250205405e-13,-8.4037644472353e-13,-0.0013989784412242,0.0013989784293992,-0.0013989784294712,0.0013989784411522,-0.001398978441686,0.0013989784288201,-0.0013989784296958,0.0013989784408104,-0.0013481825667691,0.0013481825313361,-0.0013481825322124,0.0013481825658928,5.3740711199338e-14,1.2692587691335e-12,6.9334742165338e-13,7.0167440256394e-13,-0.0013747972996836,0.0013747973007729,-0.0013989784348884,0.0013989784356454,-0.0013989784347946,0.0013989784357944,-0.0013989784343966,0.0013989784361992,-0.0013989784344849,0.0013989784360558,-0.0013481825482363,0.0013481825498129,-0.0013481825482076,0.0013481825497159,-0.0013481825489682,0.0013481825489872,-0.0013481825479104,0.0013481825500021,1.7578586368606e-11,-1.7578971878888e-11,-0.0013747973002572,0.0013747973002568,3.9239610080377e-15,-4.3706900078322e-15,-0.0013989784295279,0.0013989784413887,-0.0013989784293619,0.0013989784412172,-0.0013989784413841,0.0013989784295281,-0.0013989784412219,0.0013989784293603,-0.0013481825660877,0.0013481825317721,-0.0013481825317715,0.0013481825660807,0.75917777980247,0.91692149253239,1368840,32768,0.0057119311369539,0.0057119311369539,0.0057119311370733,20.425543942393,20.427870439668,7.860435153914e-05,7.860435153914e-05,7.860435153914e-05,257157.46688316,0.017283647918628
26611200,0.99994736021479,0.016914159162703,0.0056380530541956,0.0056380530541956,0.0056380530543122,-0.0013751254664316,0.001375125465955,-1.8081597575488e-11,1.760639498966e-11,3.5514338590746e-13,-8.404362958363e-13,-0.0013993101283353,0.0013993101165093,-0.0013993101165814,0.0013993101282632,-0.0013993101287971,0.0013993101159303,-0.001399310116806,0.0013993101279214,-0.0013485017170596,0.0013485016816239,-0.0013485016825003,0.0013485017161833,5.3737005430194e-14,1.2692691952856e-12,6.9333090929017e-13,7.016774465886e-13,-0.0013751254656486,0.001375125466738,-0.0013993101219991,0.0013993101227561,-0.0013993101219053,0.001399310122905,-0.0013993101215073,0.0013993101233098,-0.0013993101215956,0.0013993101231665,-0.0013485016985253,0.001348501700102,-0.0013485016984968,0.0013485017000051,-0.0013485016992571,0.0013485016992761,-0.0013485016981995,0.0013485017002911,1.757991779852e-11,-1.7580310852689e-11,-0.0013751254662223,0.0013751254662219,3.9198581921994e-15,-4.3937187160857e-15,-0.0013993101166381,0.0013993101284999,-0.0013993101164722,0.0013993101283283,-0.0013993101284953,0.0013993101166383,-0.001399310128333,0.0013993101164705,-0.0013485017163781,0.0013485016820598,-0.0013485016820592,0.001348501716371,0.75888695029242,0.87726751581883,1368840,32768,0.0057132906392944,0.0057132906392944,0.0057132906394139,20.606403499565,20.617856155914,8.0051227996522e-05,8.0051227996522e-05,8.0051227996522e-05,256950.68666228,0.017287797142698
26697600,0.99994852789335,0.016914178566284,0.0056380595220558,0.0056380595220558,0.0056380595221723,-0.001375406287566,0.0013754062870889,-1.8083598411423e-11,1.7607901237763e-11,3.5491439290304e-13,-8.4069967014333e-13,-0.001399630094613,0.0013996300827854,-0.001399630082858,0.0013996300945404,-0.0013996300950748,0.0013996300822065,-0.0013996300830827,0.0013996300941985,-0.0013487426584328,0.001348742622993,-0.0013487426238699,0.0013487426575559,5.3572892796664e-14,1.2691508496363e-12,6.9312560306214e-13,7.0147579098433e-13,-0.001375406286783,0.001375406287872,-0.0013996300882761,0.0013996300890326,-0.0013996300881825,0.0013996300891816,-0.0013996300877845,0.0013996300895864,-0.0013996300878726,0.001399630089443,-0.0013487426398967,0.0013487426414731,-0.0013487426398681,0.0013487426413762,-0.0013487426406286,0.0013487426406476,-0.0013487426395709,0.0013487426416625,1.7581666980378e-11,-1.758206023307e-11,-0.0013754062873565,0.0013754062873561,3.9311813756957e-15,-4.3861307125998e-15,-0.0013996300829143,0.0013996300947773,-0.0013996300827484,0.0013996300946057,-0.0013996300947727,0.0013996300829145,-0.0013996300946105,0.0013996300827467,-0.0013487426577513,0.0013487426234295,-0.0013487426234288,0.0013487426577443,0.75768466208659,0.83761353910526,1368840,32768,0.0057144539483972,0.0057144539483972,0.0057144539485168,20.795560496769,20.807841872159,8.1564483974154e-05,8.1564483974154e-05,8.1564483974154e-05,258689.29880034,0.017291347804211
26784000,0.99994968298822,0.016914197710771,0.0056380659035514,0.0056380659035514,0.0056380659036679,-0.0013756812180125,0.0013756812175349,-1.8085809932098e-11,1.7609569422095e-11,3.54648709843e-13,-8.4098563199563e-13,-0.0013999499683851,0.0013999499565558,-0.0013999499566289,0.001399949968312,-0.0013999499688469,0.0013999499559769,-0.0013999499568537,0.0013999499679701,-0.0013489737596292,0.0013489737241849,-0.0013489737250623,0.0013489737587518,5.3358899334017e-14,1.2689684397676e-12,6.9288846324777e-13,7.0124609211912e-13,-0.0013756812172294,0.001375681218318,-0.0013999499620476,0.0013999499628036,-0.0013999499619541,0.0013999499629526,-0.0013999499615561,0.0013999499633574,-0.0013999499616441,0.001399949963214,-0.001348973741091,0.0013489737426671,-0.0013489737410625,0.0013489737425702,-0.0013489737418229,0.0013489737418417,-0.0013489737407653,0.0013489737428567,1.7583607597564e-11,-1.7584004239858e-11,-0.0013756812178028,0.0013756812178024,3.9346592106267e-15,-4.390483520801e-15,-0.0013999499566849,0.0013999499685492,-0.0013999499565189,0.0013999499683776,-0.0013999499685446,0.0013999499566851,-0.0013999499683824,0.0013999499565173,-0.0013489737589476,0.0013489737246218,-0.0013489737246212,0.0013489737589406,0.75573598269723,0.7979595623917,1368840,32768,0.0057155928680566,0.0057155928680566,0.0057155928681763,20.985461254587,20.997827588404,8.3083690036698e-05,8.3083690036698e-05,8.3083690036698e-05,260783.54211695,0.01729482398986
26870400,0.99995082531701,0.016914216579848,0.0056380721932439,0.0056380721932439,0.0056380721933604,-0.0013759497695815,0.0013759497691032,-1.8088064230877e-11,1.7611232518347e-11,3.5435889516723e-13,-8.4129418139319e-13,-0.0014002681391763,0.0014002681273452,-0.0014002681274189,0.0014002681391026,-0.001400268139638,0.0014002681267664,-0.0014002681276438,0.0014002681387607,-0.0013491951946529,0.0013491951592041,-0.0013491951600821,0.0013491951937749,5.3109789297099e-14,1.2687490273528e-12,6.9262231880477e-13,7.0098679121706e-13,-0.0013759497687983,0.0013759497698864,-0.0014002681328381,0.0014002681335935,-0.0014002681327448,0.0014002681337426,-0.0014002681323468,0.0014002681341474,-0.0014002681324346,0.001400268134004,-0.0013491951761126,0.0013491951776883,-0.0013491951760842,0.0013491951775915,-0.0013491951768446,0.001349195176863,-0.001349195175787,0.0013491951778781,1.7585572949288e-11,-1.7585972444437e-11,-0.0013759497693714,0.001375949769371,3.9366370913803e-15,-4.3955716006578e-15,-0.0014002681274745,0.0014002681393402,-0.0014002681273085,0.0014002681391686,-0.0014002681393356,0.0014002681274747,-0.0014002681391733,0.0014002681273069,-0.0013491951939711,0.0013491951596414,-0.0013491951596407,0.0013491951939641,0.7532165437335,0.75830558567814,1368840,32768,0.0057167053722928,0.0057167053722928,0.0057167053724125,21.175433436317,21.18781330465,8.4603467490536e-05,8.4603467490536e-05,8.4603467490536e-05,263176.09376787,0.017298219526316
26956800,0.99995195469871,0.016914235162049,0.0056380783873108,0.0056380783873108,0.0056380783874273,-0.001376212664684,0.0013762126642052,-1.8090530861406e-11,1.7613064697669e-11,3.5404963990888e-13,-8.4162552421207e-13,-0.0014005844764278,0.0014005844645948,-0.0014005844646691,0.0014005844763535,-0.0014005844768896,0.0014005844640161,-0.0014005844648941,0.0014005844760116,-0.0013494082781471,0.0013494082426933,-0.001349408243572,0.0013494082772685,5.283147427002e-14,1.2685049281922e-12,6.9233415297569e-13,7.0070315282319e-13,-0.0013762126639008,0.0013762126649883,-0.001400584470089,0.0014005844708438,-0.0014005844699958,0.0014005844709929,-0.0014005844695978,0.0014005844713977,-0.0014005844696854,0.0014005844712542,-0.0013494082596045,0.0013494082611799,-0.0013494082595762,0.0013494082610831,-0.0013494082603366,0.0013494082603546,-0.001349408259279,0.0013494082613697,1.7587734618545e-11,-1.758813534895e-11,-0.0013762126644737,0.0013762126644733,3.9384238015034e-15,-4.3984244546815e-15,-0.0014005844647244,0.0014005844765915,-0.0014005844645584,0.0014005844764199,-0.0014005844765869,0.0014005844647245,-0.0014005844764246,0.0014005844645567,-0.0013494082774651,0.0013494082431311,-0.0013494082431304,0.0013494082774581,0.75029978955908,0.71865160896458,1368840,32768,0.0057177944500588,0.0057177944500588,0.0057177944501786,21.365412385672,21.377799020895,8.6123299085374e-05,8.6123299085374e-05,8.6123299085374e-05,265816.24532191,0.01730154354808
27043200,0.9999530709582,0.016914253449636,0.0056380844831732,0.0056380844831732,0.0056380844832897,-0.0013764706520416,0.0013764706515621,-1.8092858834406e-11,1.7614725823394e-11,3.5372485571317e-13,-8.4197539587667e-13,-0.00140089899487,0.0014008989830351,-0.00140089898311,0.0014008989947951,-0.0014008989953318,0.0014008989824565,-0.0014008989833352,0.0014008989944531,-0.0013496142576422,0.0013496142221837,-0.001349614223063,0.0013496142567628,5.2530954038942e-14,1.2682416825577e-12,6.9202709985595e-13,7.0040079441298e-13,-0.0013764706512584,0.0013764706523453,-0.0014008989885305,0.0014008989892847,-0.0014008989884375,0.0014008989894338,-0.0014008989880395,0.0014008989898387,-0.001400898988127,0.0014008989896952,-0.0013496142390974,0.0013496142406723,-0.0013496142390692,0.0013496142405756,-0.0013496142398295,0.0013496142398472,-0.001349614238772,0.0013496142408623,1.7589743527762e-11,-1.7590146155168e-11,-0.001376470651831,0.0013764706518306,3.9397252323338e-15,-4.4013361304377e-15,-0.0014008989831649,0.0014008989950334,-0.0014008989829989,0.0014008989948618,-0.0014008989950288,0.0014008989831651,-0.0014008989948666,0.0014008989829973,-0.00134961425696,0.0013496142226219,-0.0013496142226212,0.0013496142569529,0.74711825037154,0.67899763225102,1368840,32768,0.0057188631996227,0.0057188631996227,0.0057188631997426,21.555391750067,21.56778473714,8.7643134000533e-05,8.7643134000533e-05,8.7643134000533e-05,268658.12353672,0.017304805522452
27129600,0.9999541739268,0.016914271437272,0.0056380904790517,0.0056380904790517,0.0056380904791682,-0.0013767242320358,0.0013767242315556,-1.8095056076105e-11,1.7616232365605e-11,3.5338613076687e-13,-8.4233467901846e-13,-0.0014012116966254,0.0014012116847886,-0.0014012116848642,0.0014012116965498,-0.0014012116970872,0.0014012116842102,-0.0014012116850895,0.0014012116962078,-0.0013498139518723,0.0013498139164093,-0.0013498139172894,0.0013498139509922,5.2215875429083e-14,1.26796007719e-12,6.9170508028166e-13,7.0008358351532e-13,-0.0013767242312526,0.0013767242323389,-0.0014012116902853,0.0014012116910388,-0.0014012116901925,0.0014012116911879,-0.0014012116897944,0.0014012116915928,-0.0014012116898818,0.0014012116914493,-0.0013498139333255,0.0013498139349,-0.0013498139332974,0.0013498139348033,-0.0013498139340577,0.0013498139340749,-0.0013498139330002,0.00134981393509,1.7591612853009e-11,-1.759201573776e-11,-0.0013767242318249,0.0013767242318244,3.9421001597814e-15,-4.4040125192641e-15,-0.0014012116849188,0.0014012116967885,-0.0014012116847527,0.0014012116966169,-0.0014012116967839,0.0014012116849189,-0.0014012116966217,0.0014012116847511,-0.0013498139511899,0.001349813916848,-0.0013498139168474,0.0013498139511828,0.7437551204703,0.63934365553746,1368840,32768,0.0057199136913835,0.0057199136913835,0.0057199136915034,21.745370936222,21.757770453386,8.9162967489776e-05,8.9162967489776e-05,8.9162967489776e-05,271669.75181893,0.01730801177658
27216000,0.99995526344246,0.016914289121151,0.0056380963736783,0.0056380963736783,0.0056380963737948,-0.0013769736285806,0.0013769736280997,-1.8097313433615e-11,1.7617774583197e-11,3.5303621498597e-13,-8.4270640295667e-13,-0.0014015225486483,0.0014015225368096,-0.0014015225368859,0.0014015225485719,-0.00140152254911,0.0014015225362313,-0.0014015225371114,0.00140152254823,-0.0013500077297125,0.001350007694245,-0.0013500076951258,0.0013500077288317,5.1888091325016e-14,1.2676667773266e-12,6.9137095078321e-13,6.9975382888321e-13,-0.0013769736277973,0.001376973628883,-0.0014015225423076,0.0014015225430603,-0.0014015225422149,0.0014015225432095,-0.0014015225418169,0.0014015225436144,-0.001401522541904,0.0014015225434708,-0.0013500077111637,0.0013500077127376,-0.0013500077111356,0.0013500077126411,-0.001350007711896,0.0013500077119127,-0.0013500077108384,0.0013500077129279,1.7593530706184e-11,-1.7593935737928e-11,-0.0013769736283693,0.0013769736283689,3.9430413075006e-15,-4.4070712493514e-15,-0.00140152253694,0.0014015225488111,-0.001401522536774,0.0014015225486395,-0.0014015225488065,0.0014015225369402,-0.0014015225486443,0.0014015225367723,-0.0013500077290298,0.0013500076946841,-0.0013500076946835,0.0013500077290228,0.7402614438914,0.59968967882389,1368840,32768,0.0057209468513944,0.0057209468513944,0.0057209468515143,21.935349919125,21.947756169631,9.0682799352997e-05,9.0682799352997e-05,9.0682799352997e-05,274834.39701733,0.017311165141742
27302400,0.99995633732048,0.016914306536492,0.0056381021787919,0.0056381021787919,0.0056381021789084,-0.001377158556833,0.0013771585563513,-1.809964209777e-11,1.7619360740624e-11,3.5267804945709e-13,-8.4309583223634e-13,-0.0014017719669502,0.0014017719551096,-0.0014017719551867,0.0014017719668732,-0.001401771967412,0.0014017719545314,-0.0014017719554123,0.0014017719665312,-0.0013501347960083,0.0013501347605361,-0.0013501347614176,0.0013501347951268,5.1548131122331e-14,1.267370797398e-12,6.9103168173588e-13,6.9941236872635e-13,-0.0013771585560497,0.0013771585571347,-0.0014017719606089,0.0014017719613609,-0.0014017719605164,0.0014017719615102,-0.0014017719601183,0.0014017719619151,-0.0014017719602053,0.0014017719617714,-0.0013501347774573,0.0013501347790308,-0.0013501347774294,0.0013501347789343,-0.0013501347781897,0.0013501347782059,-0.0013501347771322,0.0013501347792212,1.7595509704551e-11,-1.759591161139e-11,-0.0013771585566213,0.0013771585566209,3.9417104658039e-15,-4.4065124428931e-15,-0.0014017719552404,0.0014017719671128,-0.0014017719550743,0.0014017719669412,-0.0014017719671082,0.0014017719552405,-0.0014017719669459,0.0014017719550727,-0.0013501347953254,0.0013501347609757,-0.0013501347609751,0.0013501347953184,0.73966770754124,0.60576459798308,1368840,32768,0.0057217129230884,0.0057217129230884,0.0057217129232083,22.094095554638,22.104535272851,9.1952764437104e-05,9.1952764437104e-05,9.1952764437104e-05,278164.1776468,0.017313503388226
27388800,0.99995739289404,0.01691432375965,0.0056381079198443,0.0056381079198443,0.0056381079199608,-0.0013773964594959,0.0013773964590143,-1.8100663198929e-11,1.7620383385853e-11,3.527036369107e-13,-8.4313368402117e-13,-0.0014020087161035,0.0014020087042623,-0.0014020087043393,0.0014020087160265,-0.0014020087165654,0.001402008703684,-0.0014020087045649,0.0014020087156845,-0.0013503754779681,0.001350375442494,-0.0013503754433754,0.0013503754770866,5.148925056815e-14,1.2673736392229e-12,6.9102572419729e-13,6.9938814887801e-13,-0.0013773964587126,0.0013773964597976,-0.0014020087097619,0.0014020087105139,-0.0014020087096694,0.0014020087106632,-0.0014020087092713,0.0014020087110681,-0.0014020087093583,0.0014020087109244,-0.0013503754594164,0.0013503754609897,-0.0013503754593883,0.0013503754608933,-0.0013503754601487,0.0013503754601648,-0.0013503754590911,0.00135037546118,1.7596569789813e-11,-1.7596907419204e-11,-0.0013773964592842,0.0013773964592838,3.9568938254921e-15,-4.3722781946083e-15,-0.001402008704393,0.0014020087162662,-0.001402008704227,0.0014020087160945,-0.0014020087162616,0.0014020087043932,-0.0014020087160993,0.0014020087042253,-0.0013503754772853,0.0013503754429337,-0.0013503754429331,0.0013503754772784,0.74421447210946,0.6936596777507,1368840,32768,0.0057226985602823,0.0057226985602823,0.0057226985604023,22.211649502084,22.219426609391,9.2893196016671e-05,9.2893196016671e-05,9.2893196016671e-05,277682.36123139,0.017316511392979
27475200,0.99995843013409,0.016914340706763,0.0056381135688823,0.0056381135688823,0.0056381135689988,-0.0013778614655896,0.0013778614651093,-1.8102455879458e-11,1.7623564612198e-11,3.534259824906e-13,-8.4243858760883e-13,-0.0014023563205732,0.0014023563087315,-0.0014023563088071,0.0014023563204976,-0.0014023563210351,0.001402356308153,-0.0014023563090325,0.0014023563201556,-0.0013509504959982,0.0013509504605208,-0.0013509504614009,0.001350950495118,5.2060262535892e-14,1.2679458607125e-12,6.9167435695553e-13,7.0004318769056e-13,-0.0013778614648064,0.0013778614658926,-0.0014023563142307,0.0014023563149841,-0.0014023563141378,0.0014023563151333,-0.0014023563137397,0.0014023563155382,-0.0014023563138271,0.0014023563153946,-0.0013509504774442,0.0013509504790185,-0.001350950477416,0.0013509504789219,-0.0013509504781766,0.0013509504781933,-0.0013509504771188,0.0013509504792086,1.759900953881e-11,-1.7599406703147e-11,-0.0013778614653786,0.0013778614653782,3.9399458138305e-15,-4.3962774614472e-15,-0.0014023563088617,0.0014023563207364,-0.0014023563086956,0.0014023563205647,-0.0014023563207318,0.0014023563088618,-0.0014023563205695,0.001402356308694,-0.0013509504953156,0.0013509504609594,-0.0013509504609588,0.0013509504953086,0.74522278383151,0.71481564294861,1368840,32768,0.0057246252377891,0.0057246252377891,0.0057246252379089,22.326779545827,22.33431794593,9.3814236366612e-05,9.3814236366612e-05,9.3814236366612e-05,270533.02025073,0.017322390790761
27561600,0.99995944916272,0.01691435738473,0.0056381191282045,0.0056381191282045,0.0056381191283211,-0.001378140186078,0.001378140185598,-1.8104706428352e-11,1.7626130416168e-11,3.535921685902e-13,-8.4228512170888e-13,-0.0014026082573288,0.0014026082454857,-0.0014026082455611,0.0014026082572535,-0.0014026082577907,0.0014026082449072,-0.0014026082457864,0.0014026082569115,-0.0013512547189231,0.0013512546834414,-0.0013512546843212,0.0013512547180433,5.2181288250404e-14,1.2680731068253e-12,6.9181526625379e-13,7.0018918323049e-13,-0.0013781401852947,0.0013781401863812,-0.0014026082509855,0.0014026082517392,-0.0014026082508925,0.0014026082518884,-0.0014026082504945,0.0014026082522933,-0.0014026082505819,0.0014026082521497,-0.0013512547003669,0.0013512547019414,-0.0013512547003387,0.0013512547018448,-0.0013512547010992,0.0013512547011161,-0.0013512547000414,0.0013512547021314,1.7601412141882e-11,-1.7601812622295e-11,-0.0013781401858671,0.0013781401858667,3.9408354925337e-15,-4.4009243783106e-15,-0.0014026082456158,0.0014026082574921,-0.0014026082454498,0.0014026082573205,-0.0014026082574875,0.001402608245616,-0.0014026082573252,0.0014026082454481,-0.0013512547182406,0.0013512546838798,-0.0013512546838791,0.0013512547182336,0.74641617810038,0.73597160814651,1368840,32768,0.0057257799937814,0.0057257799937814,0.0057257799939011,22.441691239569,22.449209282469,9.473352991655e-05,9.473352991655e-05,9.473352991655e-05,268622.72489421,0.01732591489612
27648000,0.99996045011799,0.016914373798217,0.0056381245993668,0.0056381245993668,0.0056381245994833,-0.0013784190761032,0.0013784190756235,-1.8106772865224e-11,1.7628518578505e-11,3.5375975170595e-13,-8.4212656772906e-13,-0.0014028598860594,0.0014028598742151,-0.0014028598742902,0.0014028598859844,-0.0014028598865213,0.0014028598736365,-0.0014028598745154,0.0014028598856425,-0.0013515592269225,0.0013515591914367,-0.0013515591923163,0.001351559226043,5.2311607798643e-14,1.268206202024e-12,6.9196095114145e-13,7.0033982568729e-13,-0.00137841907532,0.0013784190764068,-0.0014028598797154,0.0014028598804693,-0.0014028598796223,0.0014028598806185,-0.0014028598792242,0.0014028598810234,-0.0014028598793117,0.0014028598808799,-0.0013515592083642,0.0013515592099389,-0.0013515592083359,0.0013515592098422,-0.0013515592090965,0.0013515592091135,-0.0013515592080386,0.0013515592101288,1.7603634132826e-11,-1.7604035157339e-11,-0.0013784190758924,0.001378419075892,3.9430927765164e-15,-4.4032478367423e-15,-0.0014028598743451,0.0014028598862228,-0.001402859874179,0.0014028598860512,-0.0014028598862182,0.0014028598743452,-0.0014028598860559,0.0014028598741774,-0.0013515592262401,0.0013515591918749,-0.0013515591918743,0.0013515592262331,0.74782126082636,0.75712757334442,1368840,32768,0.0057269354465896,0.0057269354465896,0.0057269354467093,22.556581759165,22.564100619009,9.5652654073321e-05,9.5652654073321e-05,9.5652654073321e-05,266684.75573668,0.017329441154468
27734400,0.99996143314218,0.016914389953625,0.0056381299845027,0.0056381299845027,0.0056381299846193,-0.00137869814447,0.0013786981439907,-1.8108642411052e-11,1.763071651136e-11,3.5392843772917e-13,-8.4196354329758e-13,-0.0014031112426447,0.0014031112307994,-0.0014031112308741,0.00140311124257,-0.0014031112431066,0.0014031112302207,-0.0014031112310992,0.0014031112422281,-0.001351863918259,0.0013518638827697,-0.0013518638836489,0.0013518639173798,5.2449015365642e-14,1.2683435470929e-12,6.9211134176771e-13,7.0049410038607e-13,-0.0013786981436868,0.0013786981447739,-0.0014031112363,0.0014031112370543,-0.0014031112362068,0.0014031112372034,-0.0014031112358087,0.0014031112376084,-0.0014031112358964,0.0014031112374648,-0.0013518638996988,0.0013518639012737,-0.0013518638996705,0.0013518639011771,-0.0013518639004311,0.0013518639004483,-0.0013518638993732,0.0013518639014636,1.7605660394454e-11,-1.7606064029182e-11,-0.0013786981442594,0.001378698144259,3.943761873723e-15,-4.4062771559634e-15,-0.0014031112309292,0.0014031112428082,-0.0014031112307631,0.0014031112426366,-0.0014031112428036,0.0014031112309293,-0.0014031112426414,0.0014031112307615,-0.0013518639175767,0.0013518638832076,-0.001351863883207,0.0013518639175697,0.74946705200523,0.77828353854233,1368840,32768,0.0057280916324033,0.0057280916324033,0.005728091632523,22.671470086266,22.678991955548,9.6571760690129e-05,9.6571760690129e-05,9.6571760690129e-05,264716.94086937,0.017332969677312
27820800,0.99996239838051,0.016914405857626,0.0056381352858365,0.0056381352858365,0.005638135285953,-0.0013789773875109,0.0013789773870319,-1.8110664363988e-11,1.7633073645233e-11,3.5409996190099e-13,-8.4179637193396e-13,-0.0014033623249523,0.0014033623131058,-0.0014033623131801,0.001403362324878,-0.0014033623254142,0.001403362312527,-0.0014033623134052,0.001403362324536,-0.0013521687120781,0.0013521686765848,-0.0013521686774637,0.0013521687111992,5.2594540331719e-14,1.2684867191897e-12,6.9226651349791e-13,7.0065347787014e-13,-0.0013789773867277,0.0013789773878151,-0.0014033623186068,0.0014033623193615,-0.0014033623185136,0.0014033623195106,-0.0014033623181155,0.0014033623199155,-0.0014033623182032,0.001403362319772,-0.0013521686935158,0.001352168695091,-0.0013521686934874,0.0013521686949942,-0.001352168694248,0.0013521686942654,-0.0013521686931902,0.0013521686952808,1.76078420631e-11,-1.7608247013964e-11,-0.0013789773873004,0.0013789773873,3.9449236029389e-15,-4.4094829403818e-15,-0.0014033623132355,0.001403362325116,-0.0014033623130694,0.0014033623249443,-0.0014033623251114,0.0014033623132356,-0.0014033623249491,0.0014033623130678,-0.0013521687113959,0.0013521686770226,-0.0013521686770219,0.0013521687113888,0.75137673464023,0.79943950374023,1368840,32768,0.0057292485357059,0.0057292485357059,0.0057292485358256,22.786358072721,22.793883292087,9.749086458177e-05,9.749086458177e-05,9.749086458177e-05,262716.08046356,0.017336500418433
27907200,0.99996334598097,0.016914421516848,0.0056381405055773,0.0056381405055773,0.0056381405056938,-0.0013792567802668,0.0013792567797882,-1.8112822533352e-11,1.7635575333514e-11,3.5427408893447e-13,-8.4162443601002e-13,-0.0014036131239497,0.0014036131121019,-0.0014036131121759,0.0014036131238757,-0.0014036131244116,0.0014036131115231,-0.0014036131124009,0.0014036131235337,-0.0013524735247843,0.0013524734892869,-0.0013524734901655,0.0013524735239058,5.274953559672e-14,1.2686378616312e-12,6.9242770342661e-13,7.0081873752745e-13,-0.0013792567794836,0.0013792567805713,-0.0014036131176034,0.0014036131183584,-0.0014036131175101,0.0014036131185075,-0.001403613117112,0.0014036131189124,-0.0014036131171998,0.0014036131187689,-0.0013524735062199,0.0013524735077953,-0.0013524735061914,0.0013524735076985,-0.0013524735069521,0.0013524735069697,-0.0013524735058942,0.001352473507985,1.7610163139251e-11,-1.7610568722449e-11,-0.0013792567800565,0.0013792567800561,3.9467470766448e-15,-4.4118652205459e-15,-0.0014036131122314,0.0014036131241135,-0.0014036131120654,0.0014036131239418,-0.0014036131241089,0.0014036131122316,-0.0014036131239466,0.0014036131120638,-0.0013524735241022,0.0013524734897244,-0.0013524734897238,0.0013524735240952,0.75355989629773,0.82059546893814,1368840,32768,0.0057304060528909,0.0057304060528909,0.0057304060530105,22.901245896381,22.908774628627,9.8409967171048e-05,9.8409967171048e-05,9.8409967171048e-05,260680.52855312,0.017340033062367
27993600,0.99996427609428,0.016914436937523,0.005638145645802,0.005638145645802,0.0056381456459185,-0.0013795362472887,0.0013795362468104,-1.8115263576427e-11,1.7638365954145e-11,3.5445040707749e-13,-8.4144729436275e-13,-0.0014038636229642,0.0014038636111149,-0.0014038636111886,0.0014038636228905,-0.001403863623426,0.001403863610536,-0.0014038636114136,0.0014038636225485,-0.001352778227808,0.0013527781923058,-0.001352778193184,0.0013527782269298,5.2911707113079e-14,1.2687929561579e-12,6.9259282154413e-13,7.0098857057446e-13,-0.0013795362465055,0.0013795362475935,-0.001403863616617,0.0014038636173723,-0.0014038636165236,0.0014038636175214,-0.0014038636161255,0.0014038636179263,-0.0014038636162134,0.0014038636177829,-0.001352778209241,0.0013527782108167,-0.0013527782092125,0.0013527782107199,-0.0013527782099732,0.0013527782099911,-0.0013527782089153,0.0013527782110064,1.761276832437e-11,-1.761317548105e-11,-0.0013795362470786,0.0013795362470782,3.948349968854e-15,-4.4152180592955e-15,-0.0014038636112443,0.0014038636231281,-0.0014038636110783,0.0014038636229564,-0.0014038636231235,0.0014038636112445,-0.0014038636229612,0.0014038636110766,-0.001352778227126,0.0013527781927431,-0.0013527781927425,0.0013527782271189,0.75600938250891,0.84175143413605,1368840,32768,0.0057315638714386,0.0057315638714386,0.0057315638715582,23.016133575844,23.023665965166,9.9329068606749e-05,9.9329068606749e-05,9.9329068606749e-05,258612.23028081,0.01734356665517
28080000,0.9999651880949,0.016914452112247,0.0056381507040435,0.0056381507040435,0.00563815070416,-0.0013797881532613,0.0013797881527834,-1.8117983434513e-11,1.7641441919e-11,3.546287251594e-13,-8.4126679987673e-13,-0.0014040866622828,0.001404086650432,-0.0014040866505053,0.0014040866622095,-0.0014040866627447,0.001404086649853,-0.0014040866507302,0.0014040866618676,-0.0013530548822465,0.0013530548467391,-0.001353054847617,0.0013530548813687,5.3081672508989e-14,1.2689546129841e-12,6.9276233107161e-13,7.011632564144e-13,-0.0013797881524782,0.0013797881535665,-0.0014040866559347,0.0014040866566904,-0.0014040866558412,0.0014040866568394,-0.0014040866554431,0.0014040866572444,-0.0014040866555311,0.0014040866571009,-0.0013530548636768,0.0013530548652528,-0.0013530548636483,0.001353054865156,-0.001353054864409,0.0013530548644271,-0.001353054863351,0.0013530548654424,1.7615654589138e-11,-1.7616063260477e-11,-0.0013797881530514,0.001379788153051,3.9500705045281e-15,-4.4182179676503e-15,-0.0014040866505612,0.0014040866624469,-0.0014040866503952,0.0014040866622753,-0.0014040866624423,0.0014040866505614,-0.00140408666228,0.0014040866503935,-0.0013530548815647,0.0013530548471762,-0.0013530548471756,0.0013530548815576,0.75870348955271,0.86290739933395,1368840,32768,0.005732607501898,0.005732607501898,0.0057326075020176,23.116780284616,23.123413281259,0.00010013424227692,0.00010013424227692,0.00010013424227692,256525.8788512,0.017346751773748
28166400,0.99996608126488,0.016914467031086,0.0056381556769897,0.0056381556769897,0.0056381556771062,-0.0013800064486597,0.0013800064481821,-1.8120510886713e-11,1.7644328272e-11,3.5480766086951e-13,-8.4108348194756e-13,-0.0014042760702551,0.0014042760584027,-0.0014042760584757,0.0014042760701821,-0.0014042760707169,0.0014042760578237,-0.0014042760587005,0.0014042760698401,-0.0013532975566161,0.0013532975211039,-0.0013532975219813,0.0013532975557387,5.3256873039086e-14,1.2691196483835e-12,6.9293498204724e-13,7.0134042747254e-13,-0.0013800064478765,0.0013800064489652,-0.001404276063906,0.0014042760646621,-0.0014042760638124,0.0014042760648111,-0.0014042760634143,0.001404276065216,-0.0014042760635024,0.0014042760650726,-0.0013532975380439,0.0013532975396201,-0.0013532975380153,0.0013532975395232,-0.001353297538776,0.0013532975387944,-0.001353297537718,0.0013532975398097,1.7618349389167e-11,-1.7618759163413e-11,-0.0013800064484499,0.0013800064484495,3.9518719200843e-15,-4.4208061238781e-15,-0.0014042760585318,0.0014042760704192,-0.0014042760583658,0.0014042760702476,-0.0014042760704146,0.001404276058532,-0.0014042760702524,0.0014042760583641,-0.0013532975559344,0.0013532975215407,-0.0013532975215401,0.0013532975559274,0.76161266431494,0.88406336453186,1368840,32768,0.005733511883661,0.005733511883661,0.0057335118837805,23.200144854768,23.205654890634,0.00010080115883814,0.00010080115883814,0.00010080115883814,254424.38576081,0.017349511923211
28252800,0.99996695582155,0.016914481698801,0.005638160566228,0.005638160566228,0.0056381605663445,-0.0013802223391288,0.0013802223386515,-1.8122685584984e-11,1.7646865576841e-11,3.5498812594466e-13,-8.4089913463806e-13,-0.0014044627080022,0.0014044626961486,-0.0014044626962212,0.0014044627079296,-0.0014044627084641,0.0014044626955695,-0.001404462696446,0.0014044627075876,-0.0013535377230262,0.0013535376875097,-0.0013535376883868,0.0013535377221491,5.3436161679588e-14,1.2692885182247e-12,6.9311175973504e-13,7.0151908377942e-13,-0.0013802223383456,0.0013802223394347,-0.0014044627016523,0.0014044627024088,-0.0014044627015587,0.0014044627025578,-0.0014044627011606,0.0014044627029627,-0.0014044627012487,0.0014044627028193,-0.0013535377044517,0.0013535377060282,-0.0013535377044231,0.0013535377059314,-0.0013535377051838,0.0013535377052025,-0.0013535377041258,0.0013535377062178,1.7620693288151e-11,-1.7621102885932e-11,-0.0013802223389192,0.0013802223389188,3.9526145444565e-15,-4.421982558527e-15,-0.0014044626962775,0.0014044627081665,-0.0014044626961115,0.0014044627079949,-0.0014044627081619,0.0014044626962777,-0.0014044627079997,0.0014044626961099,-0.0013535377223446,0.0013535376879463,-0.0013535376879457,0.0013535377223376,0.76470634390369,0.90521932972976,1368840,32768,0.0057344062991138,0.0057344062991138,0.0057344062992334,23.282486498416,23.287896500009,0.00010145989198733,0.00010145989198733,0.00010145989198733,252306.42001591,0.017352241668458
28339200,0.99996781203365,0.016914496120285,0.0056381653733895,0.0056381653733895,0.005638165373506,-0.001380437445268,0.0013804374447911,-1.8124513323265e-11,1.7649055127598e-11,3.5516814985682e-13,-8.407148461503e-13,-0.0014046487216052,0.0014046487097506,-0.0014046487098228,0.001404648721533,-0.0014046487220671,0.0014046487091715,-0.0014046487100475,0.001404648721191,-0.0013537766743412,0.0013537766388211,-0.0013537766396979,0.0013537766734644,5.3618391406712e-14,1.2694612114784e-12,6.932900300243e-13,7.0170069587835e-13,-0.0013804374444849,0.0013804374455743,-0.0014046487152547,0.0014046487160114,-0.0014046487151609,0.0014046487161604,-0.0014046487147628,0.0014046487165653,-0.001404648714851,0.001404648716422,-0.0013537766557648,0.0013537766573415,-0.0013537766557361,0.0013537766572447,-0.0013537766564968,0.0013537766565158,-0.0013537766554388,0.0013537766575311,1.7622688991889e-11,-1.7623099273473e-11,-0.0013804374450586,0.0013804374450582,3.9539453861531e-15,-4.4239824974303e-15,-0.0014046487098794,0.0014046487217697,-0.0014046487097134,0.0014046487215981,-0.001404648721765,0.0014046487098795,-0.0014046487216028,0.0014046487097117,-0.0013537766736597,0.0013537766392575,-0.0013537766392569,0.0013537766736527,0.76795500223102,0.92637529492767,1368840,32768,0.0057352974619793,0.0057352974619793,0.0057352974620989,23.36473563483,23.370138109384,0.00010211788507864,0.00010211788507864,0.00010211788507864,250190.66897296,0.01735496150219
28425600,0.99996865017321,0.016914510299847,0.0056381700999102,0.0056381700999102,0.0056381701000267,-0.0013806517770189,0.0013806517765424,-1.8126288519034e-11,1.7651192268192e-11,3.553489825678e-13,-8.4053149881026e-13,-0.0014048342973528,0.0014048342854971,-0.001404834285569,0.0014048342972809,-0.0014048342978146,0.001404834284918,-0.0014048342857937,0.0014048342969389,-0.0013540143243727,0.0013540142888493,-0.0013540142897256,0.0013540143234963,5.3800974064232e-14,1.2696351583704e-12,6.9346798966128e-13,7.0188135212413e-13,-0.0013806517762358,0.0013806517773255,-0.0014048342910015,0.0014048342917587,-0.0014048342909077,0.0014048342919077,-0.0014048342905097,0.0014048342923126,-0.0014048342905979,0.0014048342921692,-0.0013540143057945,0.0013540143073715,-0.0013540143057658,0.0013540143072746,-0.0013540143065264,0.0013540143065458,-0.0013540143054685,0.001354014307561,1.7624631873712e-11,-1.7625043515548e-11,-0.0013806517768097,0.0013806517768092,3.9547688904074e-15,-4.426041258066e-15,-0.0014048342856258,0.0014048342975173,-0.0014048342854598,0.0014048342973458,-0.0014048342975127,0.0014048342856259,-0.0014048342973505,0.0014048342854581,-0.0013540143236914,0.0013540142892854,-0.0013540142892848,0.0013540143236843,0.77133100280051,0.94753126012558,1368840,32768,0.0057361854140318,0.0057361854140318,0.0057361854141514,23.446975761599,23.452379718758,0.00010277580609279,0.00010277580609279,0.00010277580609279,248086.80934214,0.017357671550058
28512000,0.99996947051123,0.016914524241222,0.0056381747470352,0.0056381747470352,0.0056381747471518,-0.0013808652267788,0.0013808652263027,-1.8128026421825e-11,1.7653289204133e-11,3.5552691830845e-13,-8.4034732796597e-13,-0.0014050194460623,0.0014050194342057,-0.0014050194342773,0.0014050194459908,-0.0014050194465241,0.0014050194336265,-0.0014050194345019,0.0014050194456488,-0.0013542505018103,0.0013542504662835,-0.0013542504671595,0.0013542505009343,5.3983674365216e-14,1.2698058222743e-12,6.936447305855e-13,7.0206034665597e-13,-0.0013808652259957,0.0013808652270858,-0.0014050194397104,0.001405019440468,-0.0014050194396165,0.0014050194406169,-0.0014050194392185,0.0014050194410218,-0.0014050194393068,0.0014050194408785,-0.0013542504832303,0.0013542504848076,-0.0013542504832016,0.0013542504847107,-0.0013542504839622,0.0013542504839818,-0.0013542504829042,0.0013542504849971,1.7626535992013e-11,-1.7626948994102e-11,-0.0013808652265698,0.0013808652265693,3.9554085767478e-15,-4.4277764991732e-15,-0.0014050194343342,0.001405019446227,-0.0014050194341682,0.0014050194460555,-0.0014050194462224,0.0014050194343344,-0.0014050194460602,0.0014050194341666,-0.0013542505011291,0.0013542504667195,-0.0013542504667189,0.0013542505011221,0.7748085552002,0.96868722532349,1368840,32768,0.0057370697100821,0.0057370697100821,0.0057370697102017,23.529214963256,23.534621328133,0.00010343371970605,0.00010343371970605,0.00010343371970605,246002.36480936,0.017360370451297
28598400,0.99997027331734,0.016914537917568,0.0056381793058173,0.0056381793058173,0.0056381793059338,-0.0013810777001629,0.0013810776996871,-1.812914452002e-11,1.7654763894376e-11,3.5570330997863e-13,-8.4016739228641e-13,-0.001405204166104,0.0014052041542468,-0.001405204154318,0.0014052041660328,-0.0014052041665658,0.0014052041536675,-0.0014052041545426,0.0014052041656908,-0.0013544850639523,0.0013544850284233,-0.001354485029299,0.0013544850630766,5.4160904245082e-14,1.2699747472609e-12,6.9383809967821e-13,7.0223262080488e-13,-0.0013810776993798,0.0013810777004702,-0.0014052041597517,0.0014052041605096,-0.0014052041596577,0.0014052041606585,-0.0014052041592596,0.0014052041610634,-0.001405204159348,0.0014052041609201,-0.001354485045371,0.0013544850469487,-0.0013544850453423,0.0013544850468517,-0.0013544850461029,0.0013544850461228,-0.0013544850450449,0.001354485047138,1.7627820305719e-11,-1.7628232374013e-11,-0.001381077699954,0.0013810776999536,3.9478793949944e-15,-4.4139533920478e-15,-0.0014052041543752,0.0014052041662688,-0.0014052041542092,0.0014052041660973,-0.0014052041662642,0.0014052041543753,-0.001405204166102,0.0014052041542075,-0.0013544850632712,0.001354485028859,-0.0013544850288584,0.0013544850632641,0.77665751136434,0.95878231187051,1368840,32768,0.0057379499596225,0.0057379499596225,0.0057379499597421,23.611454818467,23.616862937508,0.00010409163854774,0.00010409163854774,0.00010409163854774,243943.49677003,0.017363057012266
28684800,0.99997105885965,0.016914551287043,0.0056381837623087,0.0056381837623087,0.0056381837624252,-0.0013812226140748,0.0013812226135989,-1.8130442656834e-11,1.7655981298361e-11,3.5569758956515e-13,-8.4022177297806e-13,-0.0014053542194206,0.0014053542075626,-0.0014053542076338,0.0014053542193494,-0.0014053542198824,0.0014053542069833,-0.0014053542078584,0.0014053542190073,-0.0013546212482907,0.0013546212127592,-0.0013546212136349,0.0013546212474149,5.4164257083832e-14,1.2700287676694e-12,6.9385988026282e-13,7.022220181876e-13,-0.0013812226132916,0.0013812226143821,-0.0014053542130678,0.0014053542138257,-0.0014053542129739,0.0014053542139746,-0.0014053542125758,0.0014053542143796,-0.0014053542126642,0.0014053542142363,-0.0013546212297081,0.0013546212312859,-0.0013546212296793,0.0013546212311888,-0.0013546212304399,0.00135462123046,-0.001354621229382,0.0013546212314752,1.7629085531773e-11,-1.7629464711366e-11,-0.0013812226138659,0.0013812226138655,3.9502984387414e-15,-4.3789544612412e-15,-0.0014053542076909,0.0014053542195854,-0.001405354207525,0.0014053542194139,-0.0014053542195808,0.0014053542076911,-0.0014053542194186,0.0014053542075233,-0.0013546212476096,0.001354621213195,-0.0013546212131943,0.0013546212476026,0.77589798260325,0.91361234623909,1368840,32768,0.0057385502602605,0.0057385502602605,0.0057385502603802,23.693695717903,23.699104546883,0.00010474956574322,0.00010474956574322,0.00010474956574322,243724.79209005,0.017364889368659
28771200,0.99997182740465,0.016914564338115,0.0056381881126662,0.0056381881126662,0.0056381881127827,-0.0013812864803012,0.0013812864798248,-1.8132624119603e-11,1.7657639924162e-11,3.5541477467554e-13,-8.4049129415613e-13,-0.0014054639241599,0.0014054639123002,-0.0014054639123719,0.0014054639240882,-0.0014054639246217,0.001405463911721,-0.0014054639125966,0.0014054639237461,-0.0013546392882511,0.0013546392527152,-0.0013546392535915,0.0013546392873748,5.3968145427849e-14,1.269831163412e-12,6.9361502928697e-13,7.0198221668985e-13,-0.001381286479518,0.001381286480608,-0.0014054639178065,0.0014054639185639,-0.0014054639177127,0.0014054639187128,-0.0014054639173147,0.0014054639191177,-0.0014054639174029,0.0014054639189744,-0.0013546392696664,0.0013546392712439,-0.0013546392696379,0.001354639271147,-0.0013546392703984,0.0013546392704183,-0.0013546392693406,0.0013546392714335,1.7630996473395e-11,-1.7631393189217e-11,-0.0013812864800921,0.0013812864800917,3.9391223095762e-15,-4.3955716006578e-15,-0.0014054639124287,0.0014054639243246,-0.0014054639122627,0.001405463924153,-0.00140546392432,0.0014054639124289,-0.0014054639241577,0.0014054639122611,-0.0013546392875699,0.0013546392531514,-0.0013546392531508,0.0013546392875629,0.77417287503796,0.86844238060768,1368840,32768,0.0057388147373897,0.0057388147373897,0.0057388147375094,23.775936912154,23.781346156258,0.00010540749529723,0.00010540749529723,0.00010540749529723,245815.8258469,0.017365696968351
28857600,0.99997258035261,0.016914577167249,0.0056381923890441,0.0056381923890441,0.0056381923891606,-0.0013813915196309,0.0013813915191539,-1.8134437902429e-11,1.7658854063542e-11,3.5510675467358e-13,-8.4079116734816e-13,-0.0014056197893167,0.0014056197774554,-0.0014056197775277,0.0014056197892443,-0.0014056197897784,0.0014056197768763,-0.0014056197777525,0.0014056197889022,-0.001354694877412,0.0013546948418724,-0.0013546948427493,0.0013546948765352,5.3724917564176e-14,1.2695923030619e-12,6.9333988879527e-13,7.0171113673586e-13,-0.0013813915188476,0.0013813915199371,-0.0014056197829627,0.0014056197837195,-0.0014056197828691,0.0014056197838685,-0.001405619782471,0.0014056197842734,-0.0014056197825591,0.0014056197841301,-0.0013546948588257,0.0013546948604028,-0.0013546948587972,0.0013546948603059,-0.0013546948595577,0.0013546948595773,-0.0013546948584999,0.0013546948605925,1.7632517132823e-11,-1.7632914789792e-11,-0.0013813915194214,0.001381391519421,3.9406957909192e-15,-4.3981009351531e-15,-0.0014056197775841,0.0014056197894811,-0.0014056197774182,0.0014056197893095,-0.0014056197894764,0.0014056197775843,-0.0014056197893142,0.0014056197774165,-0.0013546948767307,0.0013546948423091,-0.0013546948423085,0.0013546948767237,0.77679403943869,0.90021254758509,1368840,32768,0.0057392498051916,0.0057392498051916,0.0057392498053114,23.883510358208,23.890533426894,0.00010626808286566,0.00010626808286566,0.00010626808286566,248244.02994965,0.017367025164799
28944000,0.99997331913035,0.016914589611362,0.0056381965370819,0.0056381965370819,0.0056381965371984,-0.0013817249398747,0.0013817249393982,-1.8135720863235e-11,1.7660564981863e-11,3.5532505682812e-13,-8.4056490955429e-13,-0.0014059193532154,0.0014059193413535,-0.0014059193414254,0.0014059193531435,-0.0014059193536772,0.0014059193407743,-0.0014059193416501,0.0014059193528014,-0.0013550576107526,0.0013550575752106,-0.0013550575760871,0.0013550576098762,5.3904853243735e-14,1.2697565848079e-12,6.9352075826983e-13,7.019145569921e-13,-0.0013817249390915,0.0013817249401814,-0.0014059193468609,0.0014059193476182,-0.0014059193467672,0.0014059193477671,-0.0014059193463692,0.001405919348172,-0.0014059193464573,0.0014059193480287,-0.001355057592165,0.0013550575937424,-0.0013550575921365,0.0013550575936455,-0.001355057592897,0.0013550575929168,-0.0013550575918392,0.001355057593932,1.7634001646295e-11,-1.7634418052692e-11,-0.0013817249396655,0.0013817249396651,3.9499528610632e-15,-4.4109828945592e-15,-0.0014059193414821,0.00140591935338,-0.0014059193413161,0.0014059193532084,-0.0014059193533753,0.0014059193414822,-0.0014059193532131,0.0014059193413144,-0.0013550576100715,0.001355057575647,-0.0013550575756465,0.0013550576100645,0.76796940116687,0.76205462782228,1368840,32768,0.0057406311676712,0.0057406311676712,0.005740631167791,24.019404233033,24.028279575084,0.00010735523386426,0.00010735523386426,0.00010735523386426,245890.20392816,0.017371241005497
29030400,0.99997404390873,0.016914601676318,0.0056382005587337,0.0056382005587337,0.0056382005588502,-0.0013816580792699,0.0013816580787913,-1.8138597937107e-11,1.7661469660108e-11,3.5431658763617e-13,-8.4156296729961e-13,-0.0014060188059348,0.00140601879407,-0.0014060187941439,0.0014060188058609,-0.0014060188063965,0.0014060187934912,-0.0014060187943689,0.0014060188055188,-0.0013548371150029,0.0013548370794549,-0.0013548370803333,0.0013548371141245,5.3068467030054e-14,1.268948208768e-12,6.9261186324183e-13,7.0100661414089e-13,-0.0013816580784865,0.0013816580795747,-0.0014060187995798,0.0014060188003351,-0.0014060187994866,0.0014060188004841,-0.0014060187990885,0.0014060188008891,-0.0014060187991762,0.0014060188007456,-0.0013548370964128,0.0013548370979889,-0.0013548370963846,0.0013548370978922,-0.001354837097145,0.0013548370971637,-0.0013548370960873,0.0013548370981789,1.7635930528546e-11,-1.763633401622e-11,-0.0013816580790597,0.0013816580790593,3.9497469849996e-15,-4.4126887248002e-15,-0.0014060187941993,0.0014060188060986,-0.0014060187940333,0.001406018805927,-0.001406018806094,0.0014060187941995,-0.0014060188059318,0.0014060187940317,-0.0013548371143212,0.0013548370798926,-0.001354837079892,0.0013548371143141,0.75893556209791,0.64315694384157,1368840,32768,0.0057403539204399,0.0057403539204399,0.0057403539205599,24.156980893348,24.166025723274,0.00010845584714678,0.00010845584714678,0.00010845584714678,254938.48163304,0.017370395735579
29116800,0.99997475479095,0.016914613416179,0.0056382044720207,0.0056382044720207,0.0056382044721372,-0.0013816013532676,0.0013816013527871,-1.8141731650198e-11,1.7662687828776e-11,3.5335011716118e-13,-8.4253202593083e-13,-0.0014061268935562,0.0014061268816883,-0.0014061268817641,0.0014061268934804,-0.001406126894018,0.0014061268811098,-0.0014061268819895,0.0014061268931383,-0.0013546297808029,0.0013546297452483,-0.0013546297461287,0.0013546297799226,5.222828681463e-14,1.2681464501729e-12,6.9171850082756e-13,7.0011599428989e-13,-0.0013816013524841,0.0013816013535705,-0.0014061268872005,0.0014061268879539,-0.0014061268871078,0.0014061268881031,-0.0014061268867097,0.0014061268885081,-0.0014061268867969,0.0014061268883645,-0.0013546297622101,0.0013546297637849,-0.0013546297621822,0.0013546297636884,-0.0013546297629425,0.00135462976296,-0.0013546297618849,0.0013546297639753,1.7638149637224e-11,-1.7638554146925e-11,-0.0013816013530565,0.0013816013530561,3.9501072681109e-15,-4.4143945550412e-15,-0.0014061268818184,0.0014061268937193,-0.0014061268816524,0.0014061268935477,-0.0014061268937147,0.0014061268818186,-0.0014061268935525,0.0014061268816507,-0.0013546297801205,0.0013546297456874,-0.0013546297456867,0.0013546297801135,0.75302572809673,0.57925683324607,1368840,32768,0.0057401187071067,0.0057401187071067,0.0057401187072268,24.29470828422,24.303771871464,0.00010955766627376,0.00010955766627376,0.00010955766627376,264000.47377517,0.01736967858565
29203200,0.99997545187745,0.016914624931187,0.0056382083103568,0.0056382083103568,0.0056382083104733,-0.0013816733466159,0.0013816733461343,-1.8144193016182e-11,1.766399687702e-11,3.5276709085458e-13,-8.4311327288001e-13,-0.0014063008097619,0.0014063007978917,-0.0014063007979687,0.001406300809685,-0.0014063008102237,0.0014063007973135,-0.0014063007981943,0.0014063008093428,-0.0013546099447343,0.0013546099091747,-0.0013546099100561,0.0013546099438528,5.169621483377e-14,1.267633381288e-12,6.9115761171233e-13,6.9957352556782e-13,-0.0013816733458324,0.0013816733469177,-0.0014063008034056,0.0014063008041579,-0.0014063008033132,0.0014063008043071,-0.0014063008029151,0.0014063008047121,-0.001406300803002,0.0014063008045685,-0.0013546099261393,0.0013546099277133,-0.0013546099261115,0.0013546099276169,-0.0013546099268718,0.0013546099268885,-0.0013546099258143,0.0013546099279039,1.7640067137469e-11,-1.7640477419053e-11,-0.0013816733464042,0.0013816733464038,3.9580923182907e-15,-4.4256883276713e-15,-0.0014063007980223,0.0014063008099246,-0.0014063007978563,0.0014063008097529,-0.00140630080992,0.0014063007980225,-0.0014063008097577,0.0014063007978546,-0.0013546099440515,0.0013546099096144,-0.0013546099096138,0.0013546099440445,0.7533174118267,0.60854115325235,1368840,32768,0.0057404168667029,0.0057404168667029,0.0057404168668231,24.432449145328,24.441518019654,0.00011065959316262,0.00011065959316262,0.00011065959316262,269499.32166488,0.0173705889476
29289600,0.99997613527162,0.016914636099135,0.0056382120330062,0.0056382120330062,0.0056382120331227,-0.0013820104639372,0.001382010463456,-1.8145108208811e-11,1.7665279661362e-11,3.5296908468381e-13,-8.4293333720045e-13,-0.0014066070219051,0.0014066070100345,-0.001406607010111,0.0014066070218285,-0.0014066070223668,0.0014066070094561,-0.0014066070103366,0.0014066070214864,-0.00135497817005,0.0013549781344887,-0.0013549781353698,0.0013549781691689,5.1809123149204e-14,1.2677609215094e-12,6.9131034969335e-13,6.9972827084046e-13,-0.0013820104631538,0.0013820104642394,-0.0014066070155484,0.001406607016301,-0.0014066070154559,0.0014066070164502,-0.0014066070150578,0.0014066070168552,-0.0014066070151448,0.0014066070167116,-0.0013549781514542,0.0013549781530283,-0.0013549781514263,0.0013549781529319,-0.0013549781521866,0.0013549781522035,-0.0013549781511291,0.0013549781532188,1.7641171486085e-11,-1.7641579341273e-11,-0.0013820104637258,0.0013820104637254,3.9554306348975e-15,-4.4299234924075e-15,-0.0014066070101649,0.0014066070220679,-0.0014066070099989,0.0014066070218962,-0.0014066070220633,0.0014066070101651,-0.001406607021901,0.0014066070099972,-0.0013549781693674,0.0013549781349283,-0.0013549781349277,0.0013549781693604,0.74531810284391,0.51172604602813,1368840,32768,0.0057418135778986,0.0057418135778986,0.0057418135780187,24.570192168665,24.579264167844,0.00011176153734931,0.00011176153734931,0.00011176153734931,267357.23206084,0.01737485153775
29376000,0.99997680508012,0.016914646970232,0.0056382156567052,0.0056382156567051,0.0056382156568217,-0.0013819805777029,0.0013819805772199,-1.8147635352197e-11,1.7666053961237e-11,3.5210602281446e-13,-8.4383966245402e-13,-0.0014067290940713,0.0014067290821981,-0.0014067290822764,0.001406729093993,-0.0014067290945331,0.00140672908162,-0.0014067290825022,0.0014067290936509,-0.0013548112935388,0.0013548112579722,-0.001354811258855,0.0013548112926559,5.1023941253619e-14,1.2670501270472e-12,6.9051563132439e-13,6.9892978052791e-13,-0.0013819805769193,0.0013819805780034,-0.0014067290877142,0.001406729088465,-0.001406729087622,0.0014067290886144,-0.0014067290872239,0.0014067290890194,-0.0014067290873105,0.0014067290888756,-0.0013548112749407,0.0013548112765137,-0.001354811274913,0.0013548112764174,-0.0013548112756734,0.0013548112756891,-0.0013548112746159,0.0013548112767045,1.764286861071e-11,-1.7643273657159e-11,-0.0013819805774906,0.0013819805774902,3.9554821039133e-15,-4.4258353820024e-15,-0.0014067290823293,0.0014067290942335,-0.0014067290821632,0.0014067290940618,-0.0014067290942289,0.0014067290823295,-0.0014067290940665,0.0014067290821615,-0.0013548112928554,0.0013548112584127,-0.0013548112584121,0.0013548112928484,0.7402040318101,0.4603940011284,1368840,32768,0.0057416895889229,0.0057416895889229,0.0057416895890431,24.707934752867,24.717010316034,0.00011286347802294,0.00011286347802294,0.00011286347802294,275807.43198354,0.017374473735205
29462400,0.99997746141285,0.016914657465557,0.0056382191551467,0.0056382191551467,0.0056382191552632,-0.0013820733613369,0.0013820733608529,-1.8151812077542e-11,1.7669211482424e-11,3.5161464076702e-13,-8.4438458698342e-13,-0.0014069129040653,0.0014069128921887,-0.001406912892268,0.001406912903986,-0.0014069129045271,0.0014069128916109,-0.0014069128924941,0.0014069129036439,-0.0013548235179234,0.0013548234823484,-0.0013548234832323,0.0013548235170395,5.0546897003464e-14,1.2666445548783e-12,6.9000963942916e-13,6.984783384368e-13,-0.0013820733605533,0.0013820733616365,-0.001406912897707,0.0014069128984568,-0.0014069128976151,0.0014069128986062,-0.001406912897217,0.0014069128990112,-0.0014069128973033,0.0014069128988675,-0.0013548234993216,0.0013548235008938,-0.0013548234992939,0.0013548235007977,-0.0013548235000543,0.0013548235000693,-0.0013548234989968,0.0013548235010848,1.7646555792187e-11,-1.7646985617291e-11,-0.0013820733611241,0.0013820733611237,3.9729301003008e-15,-4.4628048408461e-15,-0.0014069128923204,0.0014069129042271,-0.0014069128921543,0.0014069129040553,-0.0014069129042225,0.0014069128923206,-0.0014069129040602,0.0014069128921526,-0.0013548235172398,0.0013548234827897,-0.0013548234827891,0.0013548235172327,0.72939130157306,0.32867198137889,1368840,32768,0.0057420738930104,0.0057420738930104,0.0057420738931306,24.845676707237,24.854756464224,0.00011396541365789,0.00011396541365789,0.00011396541365789,280759.85091385,0.017375646968724
29548800,0.999978104383,0.016914667703989,0.0056382225679575,0.0056382225679575,0.005638222568074,-0.0013818773402181,0.0013818773397315,-1.8154574640207e-11,1.7669359919066e-11,3.5032607719058e-13,-8.4568154736217e-13,-0.0014069541215938,0.001406954109714,-0.0014069541097959,0.0014069541215119,-0.0014069541220556,0.0014069541091367,-0.0014069541100225,0.0014069541211698,-0.0013544126426693,0.0013544126070883,-0.0013544126079749,0.0013544126417826,4.9378903273106e-14,1.2655315999077e-12,6.888314768918e-13,6.972515670903e-13,-0.0013818773394344,0.0013818773405152,-0.001406954115235,0.0014069541159823,-0.0014069541151438,0.0014069541161319,-0.0014069541147457,0.0014069541165369,-0.0014069541148314,0.001406954116393,-0.0013544126240652,0.0013544126256358,-0.0013544126240379,0.0013544126255398,-0.0013544126247982,0.0013544126248115,-0.0013544126237407,0.001354412625827,1.7648098862694e-11,-1.7648505512036e-11,-0.0013818773400041,0.0013818773400036,3.9520557379982e-15,-4.4351586265954e-15,-0.0014069541098468,0.0014069541217546,-0.0014069541096806,0.0014069541215828,-0.00140695412175,0.0014069541098469,-0.0014069541215876,0.0014069541096789,-0.0013544126419848,0.0013544126075313,-0.0013544126075306,0.0013544126419776,0.72638015362839,0.31012996753392,1368840,32768,0.005741261545383,0.005741261545383,0.0057412615455034,24.983419116746,24.992502612414,0.00011506735293397,0.00011506735293397,0.00011506735293397,294312.2028115,0.017373168528123
29635200,0.99997873358708,0.016914677778557,0.0056382259261469,0.0056382259261469,0.0056382259262634,-0.0013820335371758,0.0013820335366887,-1.8156707810334e-11,1.7670996045554e-11,3.5005368845305e-13,-8.4594286290857e-13,-0.0014071566110684,0.0014071565991869,-0.0014071565992693,0.001407156610986,-0.0014071566115302,0.0014071565986096,-0.001407156599496,0.0014071566106439,-0.0013545300938815,0.0013545300582963,-0.0013545300591833,0.0013545300929944,4.9163645143212e-14,1.2653143455153e-12,6.8855150566532e-13,6.9699067800146e-13,-0.001382033536392,0.0013820335374724,-0.0014071566047091,0.0014071566054558,-0.0014071566046179,0.0014071566056054,-0.0014071566042198,0.0014071566060105,-0.0014071566043054,0.0014071566058665,-0.0013545300752755,0.0013545300768455,-0.0013545300752482,0.0013545300767496,-0.0013545300760084,0.0013545300760214,-0.001354530074951,0.001354530077037,1.7649997951737e-11,-1.7650418549182e-11,-0.0013820335369615,0.001382033536961,3.9674743846162e-15,-4.4394232021979e-15,-0.0014071565993199,0.001407156611229,-0.0014071565991538,0.0014071566110572,-0.0014071566112244,0.0014071565993201,-0.001407156611062,0.0014071565991521,-0.0013545300931967,0.0013545300587394,-0.0013545300587388,0.0013545300931895,0.73052675452488,0.39400691979345,1368840,32768,0.0057419086271939,0.0057419086271939,0.0057419086273143,25.107154439683,25.115347682611,0.00011605723551746,0.00011605723551746,0.00011605723551746,296677.34206447,0.017375143549477
29721600,0.99997934865977,0.016914687685612,0.0056382292284985,0.0056382292284985,0.0056382292286151,-0.0013825295974386,0.001382529596953,-1.8158071827488e-11,1.7673885810214e-11,3.5085285521552e-13,-8.4522229668608e-13,-0.0014075122512852,0.0014075122394036,-0.0014075122394845,0.0014075122512044,-0.0014075122517471,0.0014075122388261,-0.0014075122397109,0.0014075122508623,-0.0013551599005628,0.0013551598649753,-0.0013551598658608,0.0013551598996772,4.9747774357289e-14,1.2659468408989e-12,6.8924981705297e-13,6.9770672965598e-13,-0.001382529596655,0.0013825295977367,-0.0014075122449252,0.0014075122456734,-0.0014075122448336,0.0014075122458229,-0.0014075122444355,0.001407512246228,-0.0014075122445215,0.0014075122460841,-0.0013551598819552,0.0013551598835262,-0.0013551598819277,0.0013551598834302,-0.0013551598826881,0.0013551598827018,-0.0013551598816305,0.0013551598837174,1.7652090770156e-11,-1.7652515801289e-11,-0.001382529597225,0.0013825295972246,3.9692537420228e-15,-4.4545697983033e-15,-0.001407512239536,0.0014075122514465,-0.0014075122393699,0.0014075122512747,-0.0014075122514418,0.0014075122395362,-0.0014075122512795,0.0014075122393682,-0.0013551598998785,0.0013551598654174,-0.0013551598654169,0.0013551598998714,0.73490041769304,0.47788387205299,1368840,32768,0.0057439639333673,0.0057439639333673,0.0057439639334875,25.216462870103,25.223709074396,0.00011693170296082,0.00011693170296082,0.00011693170296082,288098.28226271,0.017381415843284
29808000,0.99997994976934,0.0169146974287,0.0056382324761945,0.0056382324761945,0.005638232476311,-0.0013830080147087,0.0013830080142246,-1.8159067458836e-11,1.7676349470245e-11,3.5161262612269e-13,-8.4449090726482e-13,-0.0014078574534983,0.0014078574416168,-0.0014078574416962,0.0014078574534189,-0.0014078574539602,0.0014078574410389,-0.0014078574419223,0.0014078574530768,-0.0013557649873808,0.0013557649517917,-0.0013557649526757,0.0013557649864968,5.0338344551069e-14,1.2665373191837e-12,6.8991976533651e-13,6.983742827921e-13,-0.0013830080139251,0.0013830080150081,-0.0014078574471376,0.0014078574478873,-0.0014078574470456,0.0014078574480367,-0.0014078574466475,0.0014078574484417,-0.0014078574467339,0.0014078574482979,-0.001355764968772,0.001355764970344,-0.0013557649687443,0.0013557649702478,-0.0013557649695049,0.0013557649695192,-0.0013557649684471,0.0013557649705349,1.7653790982921e-11,-1.7654214396457e-11,-0.0013830080144958,0.0013830080144954,3.9681140709566e-15,-4.4530698441259e-15,-0.0014078574417486,0.00140785745366,-0.0014078574415824,0.0014078574534883,-0.0014078574536554,0.0014078574417487,-0.0014078574534931,0.0014078574415807,-0.001355764986697,0.0013557649522329,-0.0013557649522323,0.0013557649866899,0.73942731303223,0.56176082431252,1368840,32768,0.0057459461297183,0.0057459461297183,0.0057459461298384,25.32490885205,25.332070466182,0.0001177992708164,0.0001177992708164,0.0001177992708164,280022.93477382,0.017387465076613
29894400,0.99998053711451,0.016914707009809,0.0056382356698974,0.0056382356698974,0.0056382356700139,-0.0013834706268393,0.0013834706263566,-1.8159825553324e-11,1.7678501757436e-11,3.5233497170258e-13,-8.4380275181691e-13,-0.0014081944454532,0.0014081944335719,-0.0014081944336499,0.0014081944453752,-0.0014081944459151,0.0014081944329938,-0.0014081944338758,0.0014081944450331,-0.0013563469589578,0.0013563469233674,-0.0013563469242501,0.0013563469580751,5.0910532953459e-14,1.2671166948665e-12,6.9057512583041e-13,6.9902013070895e-13,-0.0013834706260558,0.00138347062714,-0.001408194439092,0.001408194439843,-0.0014081944389997,0.0014081944399924,-0.0014081944386015,0.0014081944403974,-0.0014081944386883,0.0014081944402537,-0.001356346940348,0.0013563469419208,-0.00135634694032,0.0013563469418245,-0.0013563469410806,0.0013563469410957,-0.0013563469400228,0.0013563469421114,1.7655220174554e-11,-1.7655640463186e-11,-0.0013834706266271,0.0013834706266266,3.966400887999e-15,-4.4456288949712e-15,-0.0014081944337031,0.0014081944456155,-0.001408194433537,0.0014081944454437,-0.0014081944456109,0.0014081944337033,-0.0014081944454485,0.0014081944335354,-0.0013563469582743,0.0013563469238077,-0.001356346923807,0.0013563469582672,0.74408184193433,0.64563777657206,1368840,32768,0.0057478628322389,0.0057478628322389,0.0057478628323589,25.433276095565,25.440431857967,0.00011866620876452,0.00011866620876452,0.00011866620876452,272450.30207178,0.017393314486845
29980800,0.99998111089676,0.016914716466591,0.005638238822158,0.005638238822158,0.0056382388222745,-0.0013839184427174,0.0013839184422361,-1.8163382929943e-11,1.76834474887e-11,3.5301117163338e-13,-8.430786268796e-13,-0.0014085239239989,0.001408523912116,-0.0014085239121927,0.0014085239239223,-0.0014085239244609,0.0014085239115376,-0.0014085239124182,0.0014085239235803,-0.0013569070987985,0.0013569070632015,-0.0013569070640827,0.0013569070979172,5.1474633367637e-14,1.2676063453492e-12,6.9116022560307e-13,6.9963387666532e-13,-0.0013839184419341,0.0013839184430194,-0.0014085239176363,0.0014085239183887,-0.0014085239175436,0.001408523918538,-0.0014085239171455,0.001408523918943,-0.0014085239172326,0.0014085239187993,-0.001356907080185,0.0013569070817586,-0.0013569070801568,0.0013569070816622,-0.0013569070809175,0.0013569070809333,-0.0013569070798596,0.0013569070819489,1.7659440869145e-11,-1.7659872819184e-11,-0.0013839184425059,0.0013839184425054,3.9745109343603e-15,-4.4665694317228e-15,-0.0014085239122467,0.0014085239241617,-0.0014085239120806,0.00140852392399,-0.0014085239241571,0.0014085239122468,-0.0014085239239948,0.0014085239120789,-0.0013569070981154,0.0013569070636407,-0.0013569070636401,0.0013569070981083,0.75169596546468,0.77423136867587,1368840,32768,0.0057497182222895,0.0057497182222895,0.0057497182224093,25.541634486183,25.548793249753,0.00011953307588946,0.00011953307588946,0.00011953307588946,265350.16510285,0.017398976828733
30067200,0.99998167131799,0.016914725655934,0.0056382418852726,0.0056382418852726,0.0056382418853892,-0.0013844661991177,0.0013844661986383,-1.8163907163928e-11,1.7685920677852e-11,3.5402412598243e-13,-8.4212518541835e-13,-0.0014089037579466,0.0014089037460644,-0.0014089037461391,0.0014089037578719,-0.0014089037584086,0.0014089037454856,-0.0014089037463643,0.0014089037575299,-0.0013576125586945,0.0013576125230968,-0.0013576125239762,0.0013576125578151,5.2279785241388e-14,1.2684339303612e-12,6.9208770278398e-13,7.0051711438889e-13,-0.0013844661983345,0.0013844661994216,-0.0014089037515834,0.0014089037523377,-0.0014089037514902,0.0014089037524869,-0.0014089037510921,0.0014089037528919,-0.0014089037511797,0.0014089037527483,-0.0013576125400801,0.001357612541655,-0.0013576125400517,0.0013576125415584,-0.0013576125408126,0.0013576125408294,-0.0013576125397544,0.001357612541845,1.7660911794797e-11,-1.7661332708409e-11,-0.0013844661989071,0.0013844661989066,3.9554306348975e-15,-4.4403055281846e-15,-0.0014089037461942,0.0014089037581101,-0.0014089037460281,0.0014089037579384,-0.0014089037581055,0.0014089037461944,-0.0014089037579432,0.0014089037460265,-0.0013576125580121,0.0013576125235348,-0.0013576125235342,0.001357612558005,0.74778157651358,0.70027482735307,1368840,32768,0.0057519877179686,0.0057519877179686,0.0057519877180882,25.649994377342,25.657154641538,0.00012039995501874,0.00012039995501874,0.00012039995501874,255462.64612105,0.017405902858296
30153600,0.99998221857998,0.016914734500082,0.0056382448333217,0.0056382448333217,0.0056382448334382,-0.0013844933881266,0.0013844933876462,-1.8165385515824e-11,1.7686540305981e-11,3.5335548464426e-13,-8.427021972028e-13,-0.0014090194803006,0.0014090194684167,-0.0014090194684924,0.0014090194802247,-0.0014090194807624,0.0014090194678382,-0.0014090194687176,0.0014090194798828,-0.0013575572811309,0.0013575572455296,-0.0013575572464099,0.0013575572802506,5.1885414936189e-14,1.2679686651629e-12,6.9151099613727e-13,6.9998283659307e-13,-0.0013844933873433,0.0013844933884294,-0.001409019473937,0.0014090194746902,-0.0014090194738442,0.0014090194748395,-0.001409019473446,0.0014090194752443,-0.0014090194735333,0.0014090194751008,-0.001357557262514,0.0013575572640885,-0.0013575572624868,0.0013575572639922,-0.0013575572632467,0.0013575572632629,-0.0013575572621897,0.0013575572642793,1.7661914058296e-11,-1.7662446483207e-11,-0.0013844933879155,0.001384493387915,3.939291422057e-15,-4.4991566714991e-15,-0.0014090194685469,0.0014090194804636,-0.0014090194683808,0.0014090194802919,-0.0014090194804589,0.001409019468547,-0.0014090194802967,0.0014090194683792,-0.0013575572804476,0.0013575572459677,-0.0013575572459673,0.0013575572804406,0.73690064096423,0.53603222639823,1368840,32768,0.0057521001878122,0.0057521001878121,0.0057521001879319,25.758354274787,25.765516033324,0.00012126683419829,0.00012126683419829,0.00012126683419829,260187.48673384,0.017406246736104
30240000,0.99998275288436,0.016914743090775,0.0056382476968862,0.0056382476968862,0.0056382476970027,-0.0013842428017869,0.0013842428013038,-1.8168948156988e-11,1.7687281048058e-11,3.5211031680093e-13,-8.4393577716484e-13,-0.0014089983892133,0.0014089983773257,-0.0014089983774041,0.0014089983891349,-0.0014089983896752,0.0014089983767477,-0.00140899837763,0.0014089983887928,-0.0013570962569724,0.0013570962213642,-0.0013570962222471,0.0013570962560894,5.0773037153861e-14,1.2668949884042e-12,6.9036244115131e-13,6.9883266584764e-13,-0.0013842428010035,0.0013842428020873,-0.0014089983828491,0.0014089983835998,-0.0014089983827569,0.0014089983837492,-0.0014089983823588,0.0014089983841541,-0.0014089983824454,0.0014089983840104,-0.0013570962383538,0.0013570962399263,-0.0013570962383259,0.0013570962398301,-0.0013570962390864,0.0013570962391014,-0.0013570962380287,0.001357096240117,1.7664165636571e-11,-1.7664596829281e-11,-0.0013842428015745,0.0013842428015741,3.9725257008902e-15,-4.4645106710871e-15,-0.0014089983774571,0.0014089983893754,-0.001408998377291,0.0014089983892037,-0.0014089983893708,0.0014089983774573,-0.0014089983892085,0.0014089983772893,-0.0013570962562888,0.0013570962218045,-0.001357096221804,0.0013570962562817,0.73319467341856,0.49251518427337,1368840,32768,0.0057510617228411,0.0057510617228411,0.0057510617229611,25.866713442175,25.873877425109,0.0001221337075374,0.0001221337075374,0.0001221337075374,273135.00001354,0.017403078335596
30326400,0.99998327443257,0.016914751430992,0.0056382504769586,0.0056382504769586,0.0056382504770751,-0.0013843151620124,0.0013843151615285,-1.8171372509396e-11,1.7688901527965e-11,3.5171102017564e-13,-8.4434094125794e-13,-0.0014091408448562,0.0014091408329666,-0.0014091408330457,0.001409140844777,-0.0014091408453181,0.0014091408323887,-0.0014091408332718,0.0014091408444349,-0.0013571058217851,0.0013571057861719,-0.0013571057870557,0.0013571058209013,5.0422253752406e-14,1.2665645977621e-12,6.899908936783e-13,6.9846098602573e-13,-0.0013843151612289,0.001384315162312,-0.0014091408384913,0.0014091408392412,-0.0014091408383993,0.0014091408393907,-0.0014091408380012,0.0014091408397957,-0.0014091408380876,0.0014091408396519,-0.0013571058031643,0.0013571058047362,-0.0013571058031365,0.0013571058046401,-0.001357105803897,0.0013571058039114,-0.0013571058028393,0.001357105804927,1.7666208074176e-11,-1.7666639149242e-11,-0.0013843151617996,0.0013843151617992,3.9729227475842e-15,-4.4640106863613e-15,-0.0014091408330983,0.001409140845018,-0.0014091408329322,0.0014091408448462,-0.0014091408450134,0.0014091408330985,-0.001409140844851,0.0014091408329305,-0.0013571058211012,0.0013571057866129,-0.0013571057866123,0.0013571058210941,0.7293670191273,0.44899814214849,1368840,32768,0.0057513614127527,0.0057513614127527,0.0057513614128727,25.97507252147,25.982238816895,0.00012300058017176,0.00012300058017176,0.00012300058017176,276920.82919935,0.017403993342508
30412800,0.99998378435952,0.016914759521295,0.0056382531737261,0.0056382531737261,0.0056382531738426,-0.0013844420593445,0.0013844420588598,-1.8173438916857e-11,1.7690137637262e-11,3.5129644460535e-13,-8.4476004610163e-13,-0.0014093403662303,0.0014093403543389,-0.0014093403544189,0.0014093403661504,-0.0014093403666923,0.0014093403537612,-0.0014093403546451,0.0014093403658083,-0.0013571676748207,0.0013571676392033,-0.0013571676400879,0.001357167673936,5.0054323815942e-14,1.2662159356194e-12,6.8960699364147e-13,6.9807199790905e-13,-0.0013844420585609,0.0013844420596433,-0.001409340359865,0.0014093403606141,-0.0014093403597732,0.0014093403607636,-0.0014093403593751,0.0014093403611686,-0.0014093403594613,0.0014093403610247,-0.001357167656198,0.0013571676577694,-0.0013571676561703,0.0013571676576733,-0.0013571676569308,0.0013571676569447,-0.0013571676558731,0.0013571676579603,1.7667882964185e-11,-1.7668312237836e-11,-0.0013844420591313,0.0013844420591309,3.9719815998651e-15,-4.4602460954846e-15,-0.001409340354471,0.0014093403663919,-0.0014093403543049,0.0014093403662201,-0.0014093403663873,0.0014093403544712,-0.0014093403662249,0.0014093403543032,-0.0013571676741365,0.0013571676396448,-0.0013571676396442,0.0013571676741294,0.72368414277462,0.37972806822775,1368840,32768,0.005751887039312,0.005751887039312,0.0057518870394321,26.114782993302,26.123956640151,0.00012411826394641,0.00012411826394641,0.00012411826394641,280898.36828002,0.017405597946546
30499200,0.99998428365856,0.016914767518854,0.0056382558395792,0.0056382558395792,0.0056382558396957,-0.0013845325875334,0.0013845325870473,-1.8175635290936e-11,1.7690996846308e-11,3.506173329988e-13,-8.4544058413519e-13,-0.0014095511760652,0.0014095511641716,-0.0014095511642529,0.0014095511759838,-0.0014095511765271,0.0014095511635941,-0.0014095511644794,0.0014095511756418,-0.0013571495848975,0.0013571495492756,-0.0013571495501615,0.0013571495840115,4.9464224196022e-14,1.2656540042566e-12,6.8898457147957e-13,6.9744772286258e-13,-0.0013845325867498,0.001384532587831,-0.0014095511696993,0.001409551170447,-0.0014095511696078,0.0014095511705966,-0.0014095511692097,0.0014095511710017,-0.0014095511692956,0.0014095511708577,-0.001357149566273,0.0013571495678435,-0.0013571495662455,0.0013571495677475,-0.0013571495670059,0.001357149567019,-0.0013571495659483,0.0013571495680346,1.7669450151603e-11,-1.7669871307855e-11,-0.0013845325873196,0.0013845325873191,3.9738933061696e-15,-4.4562462176781e-15,-0.0014095511643042,0.0014095511762262,-0.001409551164138,0.0014095511760544,-0.0014095511762216,0.0014095511643043,-0.0014095511760592,0.0014095511641363,-0.0013571495842129,0.0013571495497179,-0.0013571495497174,0.0013571495842059,0.73065104435281,0.50541939280744,1368840,32768,0.0057522619375195,0.0057522619375195,0.0057522619376397,26.284256966599,26.295405041993,0.00012547405573279,0.00012547405573279,0.00012547405573279,287686.91920764,0.017406742702979
30585600,0.99998477244225,0.01691477536568,0.0056382584551878,0.0056382584551878,0.0056382584553044,-0.0013852637810619,0.0013852637805781,-1.8176971750108e-11,1.7694532503002e-11,3.5174959252669e-13,-8.4434426468582e-13,-0.0014100830109053,0.001410082999012,-0.0014100829990911,0.0014100830108262,-0.0014100830113673,0.0014100829984341,-0.0014100829993172,0.0014100830104842,-0.0013580675941466,0.0013580675585226,-0.0013580675594063,0.0013580675932629,5.0367902471624e-14,1.2665488850068e-12,6.8999226312176e-13,6.9845336861138e-13,-0.0013852637802785,0.0013852637813616,-0.0014100830045386,0.0014100830052885,-0.0014100830044466,0.001410083005438,-0.0014100830040484,0.001410083005843,-0.0014100830041349,0.0014100830056992,-0.0013580675755204,0.0013580675770923,-0.0013580675754926,0.0013580675769961,-0.0013580675762532,0.0013580675762674,-0.0013580675751953,0.001358067577283,1.7671838225708e-11,-1.7672266469978e-11,-0.0013852637808492,0.0013852637808487,3.9699154865128e-15,-4.4581285131165e-15,-0.0014100829991437,0.0014100830110672,-0.0014100829989776,0.0014100830108954,-0.0014100830110626,0.0014100829991439,-0.0014100830109002,0.0014100829989759,-0.0013580675934627,0.0013580675589634,-0.0013580675589628,0.0013580675934557,0.73237077073349,0.54258644128894,1368840,32768,0.005755291402747,0.005755291402747,0.0057552914028669,26.455518529328,26.466853443834,0.00012684414823462,0.00012684414823462,0.00012684414823462,275783.72735866,0.017415988272277
30672000,0.99998525077696,0.01691478306327,0.0056382610210511,0.0056382610210511,0.0056382610211676,-0.0013857054912015,0.0013857054907182,-1.8178825693471e-11,1.7696996251265e-11,3.5206280354655e-13,-8.4404083277899e-13,-0.0014104700272212,0.001410470015327,-0.0014104700154055,0.0014104700271427,-0.0014104700276832,0.0014104700147489,-0.0014104700156314,0.0014104700268007,-0.0013585618406744,0.0013585618050468,-0.00135856180593,0.0013585618397912,5.0614600817512e-14,1.2667933628323e-12,6.9027223618642e-13,6.9873168363846e-13,-0.001385705490418,0.0013857054915017,-0.0014104700208538,0.0014104700216043,-0.0014104700207615,0.0014104700217537,-0.0014104700203634,0.0014104700221587,-0.0014104700204501,0.0014104700220149,-0.0013585618220463,0.0013585618236185,-0.0013585618220183,0.0013585618235223,-0.001358561822779,0.0013585618227935,-0.0013585618217211,0.0013585618238091,1.7673985748338e-11,-1.767441277941e-11,-0.001385705490989,0.0013857054909885,3.9699816609618e-15,-4.456363861143e-15,-0.0014104700154584,0.0014104700273833,-0.0014104700152923,0.0014104700272115,-0.0014104700273787,0.0014104700154586,-0.0014104700272163,0.0014104700152906,-0.0013585618399907,0.0013585618054873,-0.0013585618054867,0.0013585618399836,0.7340070183037,0.5766538423242,1368840,32768,0.0057571213871528,0.0057571213871528,0.0057571213872726,26.62694312784,26.638301845676,0.00012821554502272,0.00012821554502272,0.00012821554502272,272338.72316548,0.017421573540551
30758400,0.99998571872886,0.01691479062537,0.0056382635417511,0.0056382635417511,0.0056382635418676,-0.0013861359619565,0.0013861359614739,-1.8180354087956e-11,1.7699077805322e-11,3.5234522138946e-13,-8.4376345889963e-13,-0.001410851239245,0.0014108512273501,-0.0014108512274281,0.0014108512391671,-0.001410851239707,0.0014108512267719,-0.0014108512276539,0.0014108512388251,-0.0013590395877536,0.0013590395521232,-0.0013590395530058,0.001359039586871,5.0842505619882e-14,1.267015267818e-12,6.9052569719336e-13,6.9898411710326e-13,-0.0013861359611732,0.0013861359622573,-0.001410851232877,0.001410851233628,-0.0014108512327846,0.0014108512337774,-0.0014108512323865,0.0014108512341824,-0.0014108512324733,0.0014108512340387,-0.0013590395691239,0.0013590395706965,-0.0013590395690959,0.0013590395706002,-0.0013590395698566,0.0013590395698713,-0.0013590395687986,0.001359039570887,1.7675779281782e-11,-1.7676207342234e-11,-0.0013861359617443,0.0013861359617439,3.9694890289526e-15,-4.4559226981496e-15,-0.0014108512274813,0.0014108512394074,-0.0014108512273152,0.0014108512392356,-0.0014108512394027,0.0014108512274815,-0.0014108512392404,0.0014108512273135,-0.0013590395870701,0.0013590395525632,-0.0013590395525627,0.001359039587063,0.73704530684616,0.6323730657908,1368840,32768,0.0057589047957073,0.0057589047957073,0.0057589047958271,26.798383416947,26.809750247518,0.00012958706733558,0.00012958706733558,0.00012958706733558,269217.48890351,0.017427016713583
30844800,0.99998617636785,0.016914798086273,0.0056382660287188,0.0056382660287188,0.0056382660288353,-0.0013866245511536,0.0013866245506718,-1.8181106859077e-11,1.7700741372148e-11,3.5280354562327e-13,-8.4332070771949e-13,-0.001411261556624,0.001411261544729,-0.001411261544806,0.0014112615565469,-0.0014112615570859,0.0014112615441506,-0.0014112615450317,0.0014112615562049,-0.0013596021777781,0.0013596021421463,-0.0013596021430281,0.0013596021768964,5.1216641249119e-14,1.2673877637914e-12,6.9094634243117e-13,6.9939298696551e-13,-0.0013866245503703,0.0013866245514552,-0.0014112615502556,0.0014112615510075,-0.001411261550163,0.0014112615511568,-0.0014112615497649,0.0014112615515618,-0.0014112615498519,0.0014112615514182,-0.0013596021591474,0.0013596021607205,-0.0013596021591193,0.0013596021606242,-0.0013596021598798,0.0013596021598951,-0.0013596021588219,0.0013596021609108,1.7676975304068e-11,-1.7677393247182e-11,-0.0013866245509418,0.0013866245509414,3.9659009032732e-15,-4.4482758729314e-15,-0.0014112615448599,0.0014112615567867,-0.0014112615446938,0.0014112615566149,-0.0014112615567821,0.0014112615448601,-0.0014112615566197,0.0014112615446921,-0.0013596021770947,0.0013596021425857,-0.001359602142585,0.0013596021770876,0.74352740614336,0.74307751585792,1368840,32768,0.0057609290135507,0.0057609290135507,0.0057609290136704,26.969824015696,26.98119864936,0.00013095859212557,0.00013095859212557,0.00013095859212557,264434.70194653,0.017433194783332
30931200,0.99998662376791,0.016914805405924,0.0056382684686025,0.0056382684686025,0.005638268468719,-0.0013872491148788,0.0013872491143987,-1.8182178458694e-11,1.7703489729364e-11,3.5366268114197e-13,-8.4246496915584e-13,-0.0014117404011237,0.0014117403892289,-0.0014117403893042,0.0014117404010483,-0.0014117404015857,0.0014117403886502,-0.0014117403895296,0.0014117404007063,-0.0013603629776985,0.001360362942065,-0.001360362942945,0.0013603629768184,5.1916649276119e-14,1.2680586807954e-12,6.9171811113358e-13,7.0016488985499e-13,-0.0013872491140956,0.0013872491151819,-0.0014117403947546,0.0014117403955081,-0.0014117403946615,0.0014117403956573,-0.0014117403942634,0.0014117403960623,-0.0014117403943509,0.0014117403959187,-0.0013603629590665,0.0013603629606407,-0.0013603629590381,0.0013603629605442,-0.0013603629597989,0.001360362959815,-0.0013603629587408,0.0013603629608307,1.7678853334931e-11,-1.7679277086691e-11,-0.0013872491146678,0.0013872491146673,3.9649671082706e-15,-4.4485699815936e-15,-0.0014117403893591,0.001411740401287,-0.001411740389193,0.0014117404011152,-0.0014117404012823,0.0014117403893592,-0.00141174040112,0.0014117403891913,-0.0013603629770157,0.0013603629425033,-0.0013603629425027,0.0013603629770086,0.7460916488625,0.77014088914354,1368840,32768,0.0057635166389512,0.0057635166389512,0.0057635166390707,27.141265257156,27.152647051201,0.00013233012205725,0.00013233012205725,0.00013233012205725,255810.85595637,0.017441092208812
31017600,0.99998706100706,0.016914812581982,0.0056382708606217,0.0056382708606217,0.0056382708607382,-0.0013876551205277,0.0013876551200481,-1.818394931636e-11,1.7705716455457e-11,3.5388777720662e-13,-8.4222891754352e-13,-0.0014121073750822,0.0014121073631865,-0.0014121073632614,0.0014121073750073,-0.0014121073755442,0.0014121073626078,-0.0014121073634867,0.0014121073746653,-0.001360803500123,0.0013608034644862,-0.0013608034653658,0.0013608034992435,5.2132495623338e-14,1.2682550792073e-12,6.9193363396127e-13,7.003835302345e-13,-0.0013876551197445,0.0013876551208313,-0.0014121073687125,0.0014121073694664,-0.0014121073686193,0.0014121073696157,-0.0014121073682211,0.0014121073700206,-0.0014121073683087,0.0014121073698771,-0.0013608034814892,0.0013608034830638,-0.0013608034814608,0.0013608034829672,-0.0013608034822216,0.001360803482238,-0.0013608034811634,0.0013608034832537,1.7680837274323e-11,-1.7681261452541e-11,-0.001387655120317,0.0013876551203165,3.9664817678812e-15,-4.4505110987644e-15,-0.0014121073633165,0.0014121073752457,-0.0014121073631504,0.001412107375074,-0.0014121073752411,0.0014121073633167,-0.0014121073750788,0.0014121073631487,-0.0013608034994404,0.0013608034649242,-0.0013608034649236,0.0013608034994333,0.74836008757202,0.78770223647543,1368840,32768,0.0057651986377312,0.0057651986377312,0.0057651986378507,27.312706579044,27.324095453043,0.00013370165263235,0.00013370165263235,0.00013370165263235,253248.76439626,0.017446226107622
31104000,0.99998748950157,0.016914819673586,0.0056382732244897,0.0056382732244897,0.0056382732246062,-0.0013881415638769,0.0013881415633976,-1.8185430315234e-11,1.7707516635757e-11,3.5404489005399e-13,-8.4206442256873e-13,-0.0014125649496877,0.0014125649377912,-0.0014125649378658,0.0014125649496131,-0.0014125649501497,0.0014125649372124,-0.001412564938091,0.0014125649492711,-0.0013613138265775,0.0013613137909378,-0.001361313791817,0.0013613138256982,5.22989317153e-14,1.2684089164195e-12,6.9209388274225e-13,7.0054393709889e-13,-0.0013881415630937,0.0013881415641808,-0.0014125649433174,0.0014125649440717,-0.0014125649432241,0.0014125649442209,-0.001412564942826,0.0014125649446259,-0.0014125649429137,0.0014125649444823,-0.0013613138079421,0.0013613138095169,-0.0013613138079136,0.0013613138094203,-0.0013613138086745,0.0013613138086912,-0.0013613138076163,0.0013613138097068,1.7682463695225e-11,-1.7682888983703e-11,-0.0013881415636663,0.0013881415636659,3.9663788298494e-15,-4.4506581530955e-15,-0.001412564937921,0.0014125649498513,-0.001412564937755,0.0014125649496796,-0.0014125649498467,0.0014125649379212,-0.0014125649496844,0.0014125649377533,-0.0013613138258949,0.0013613137913756,-0.001361313791375,0.0013613138258879,0.75461542497579,0.86308056669197,1368840,32768,0.005767213843321,0.005767213843321,0.0057672138434405,27.538149928605,27.553020126672,0.00013550519942884,0.00013550519942884,0.00013550519942884,251298.46873048,0.017452377163336
31190400,0.9999879096859,0.016914826688528,0.0056382755628037,0.0056382755628037,0.0056382755629202,-0.0013888003227605,0.0013888003222823,-1.818681918457e-11,1.7710036588186e-11,3.5461572555653e-13,-8.414926165076e-13,-0.001413128317223,0.0014131283053261,-0.0014131283053996,0.0014131283171495,-0.001413128317685,0.0014131283047471,-0.0014131283056246,0.0014131283168075,-0.0013620568827378,0.0013620568470955,-0.0013620568479737,0.0013620568818596,5.2807533824914e-14,1.2688954309685e-12,6.9262629294807e-13,7.0108086187268e-13,-0.0013888003219774,0.0013888003230655,-0.001413128310852,0.0014131283116074,-0.0014131283107584,0.0014131283117565,-0.0014131283103603,0.0014131283121615,-0.0014131283104483,0.001413128312018,-0.0013620568641007,0.0013620568656764,-0.0013620568640721,0.0013620568655797,-0.001362056864833,0.0013620568648505,-0.0013620568637748,0.0013620568658661,1.768439172456e-11,-1.7684818483582e-11,-0.0013888003225505,0.00138880032255,3.9674155628838e-15,-4.4539227592464e-15,-0.0014131283054555,0.001413128317387,-0.0014131283052895,0.0014131283172153,-0.0014131283173824,0.0014131283054557,-0.0014131283172201,0.0014131283052878,-0.0013620568820556,0.0013620568475326,-0.001362056847532,0.0013620568820485,0.76119667289222,0.92744920702684,1368840,32768,0.0057699429975878,0.0057699429975878,0.0057699429977073,27.782445165887,27.798660744504,0.0001374595613271,0.0001374595613271,0.0001374595613271,245503.74168078,0.017460707135269
31276800,0.9999883215374,0.01691483355948,0.0056382778531212,0.0056382778531212,0.0056382778532377,-0.0013894309487684,0.0013894309482912,-1.8187902048548e-11,1.7712072320113e-11,3.5513966543288e-13,-8.4106324727159e-13,-0.0014136780084892,0.0014136779965921,-0.0014136779966647,0.0014136780084167,-0.0014136780089512,0.001413677996013,-0.0014136779968895,0.0014136780080747,-0.0013627568330101,0.0013627567973659,-0.0013627567982431,0.0013627568321329,5.3235579571939e-14,1.2694005148033e-12,6.9310855762698e-13,7.0157175864082e-13,-0.0013894309479852,0.0013894309490743,-0.0014136780021176,0.001413678002874,-0.0014136780020238,0.0014136780030231,-0.0014136780016257,0.0014136780034281,-0.0014136780017139,0.0014136780032847,-0.0013627568143718,0.0013627568159481,-0.001362756814343,0.0013627568158514,-0.001362756815104,0.001362756815122,-0.0013627568140456,0.0013627568161378,1.7685918736734e-11,-1.7686353914617e-11,-0.0013894309485588,0.0013894309485583,3.9747903375895e-15,-4.4558932872834e-15,-0.0014136779967211,0.0014136780086535,-0.0014136779965551,0.0014136780084819,-0.0014136780086489,0.0014136779967213,-0.0014136780084867,0.0014136779965534,-0.0013627568323284,0.0013627567978024,-0.0013627567978018,0.0013627568323212,0.76059934234916,0.86462826064949,1368840,32768,0.0057725555560862,0.0057725555560862,0.0057725555562055,28.027951661239,28.044301362336,0.00013942361328991,0.00013942361328991,0.00013942361328991,240480.63772034,0.017468681428898
31363200,0.99998872501212,0.016914840267042,0.0056382800889752,0.0056382800889752,0.0056382800890917,-0.001389779748696,0.001389779748218,-1.8189960573896e-11,1.7713423043556e-11,3.5478091168668e-13,-8.4141653059668e-13,-0.0014140839018865,0.0014140838899877,-0.0014140838900609,0.0014140839018133,-0.0014140839023485,0.0014140838894087,-0.0014140838902859,0.0014140839014712,-0.0013630469612229,0.0013630469255744,-0.0013630469264524,0.0013630469603449,5.3006557156652e-14,1.2691824479357e-12,6.9282389352916e-13,7.0128612030805e-13,-0.0013897797479127,0.0013897797490013,-0.0014140838955143,0.0014140838962701,-0.0014140838954208,0.0014140838964192,-0.0014140838950226,0.0014140838968242,-0.0014140838951106,0.0014140838966808,-0.0013630469425826,0.0013630469441587,-0.001363046942554,0.0013630469440619,-0.0013630469433149,0.0013630469433328,-0.0013630469422566,0.0013630469443485,1.7687614802568e-11,-1.7688049811337e-11,-0.0013897797484861,0.0013897797484856,3.9717021966359e-15,-4.4574814740595e-15,-0.001414083890117,0.0014140839020506,-0.001414083889951,0.0014140839018789,-0.001414083902046,0.0014140838901171,-0.0014140839018837,0.0014140838899492,-0.0013630469605409,0.0013630469260115,-0.0013630469260109,0.0013630469605338,0.75787865724576,0.79905950129702,1368840,32768,0.00577400034854,0.00577400034854,0.0057740003486595,28.273571480907,28.289941980168,0.00014138857184726,0.00014138857184726,0.00014138857184726,243255.80180213,0.017473092145239
31449600,0.99998912007075,0.016914846799412,0.0056382822664319,0.0056382822664319,0.0056382822665484,-0.0013901071378152,0.0013901071373364,-1.8191961483358e-11,1.7714575126007e-11,3.5433879284017e-13,-8.4183534133171e-13,-0.0014144823862935,0.0014144823743929,-0.001414482374467,0.0014144823862194,-0.0014144823867554,0.001414482373814,-0.0014144823746921,0.0014144823858774,-0.0013633062393295,0.001363306203677,-0.0013633062045558,0.0013633062384507,5.2682214123933e-14,1.268852810947e-12,6.9244246584327e-13,7.0090113206918e-13,-0.0013901071370319,0.0013901071381198,-0.0014144823799208,0.0014144823806758,-0.0014144823798275,0.0014144823808249,-0.0014144823794293,0.0014144823812299,-0.0014144823795171,0.0014144823810864,-0.0013633062206874,0.001363306222263,-0.0013633062206589,0.0013633062221663,-0.0013633062214197,0.0013633062214373,-0.0013633062203616,0.0013633062224529,1.7689200077668e-11,-1.7689627402849e-11,-0.0013901071376049,0.0013901071376045,3.9694963816691e-15,-4.4559521090159e-15,-0.0014144823745225,0.0014144823864573,-0.0014144823743565,0.0014144823862856,-0.0014144823864527,0.0014144823745227,-0.0014144823862904,0.0014144823743548,-0.0013633062386473,0.0013633062041146,-0.001363306204114,0.0013633062386402,0.75384300202653,0.73349074194455,1368840,32768,0.0057753564694549,0.0057753564694549,0.0057753564695745,28.519202033644,28.535582598,0.00014335361626915,0.00014335361626915,0.00014335361626915,246929.73452416,0.017477232120548
31536000,0.9999895066809,0.016914853151258,0.0056382843837139,0.0056382843837139,0.0056382843838304,-0.0013904209993765,0.0013904209988968,-1.8193841337695e-11,1.7715511567988e-11,3.538535723692e-13,-8.423054740283e-13,-0.0014148763853453,0.001414876373443,-0.001414876373518,0.0014148763852703,-0.0014148763858072,0.0014148763728642,-0.0014148763737433,0.0014148763849282,-0.0013635457476706,0.0013635457120142,-0.0013635457128939,0.0013635457467909,5.2287520299205e-14,1.2684614736374e-12,6.9200348660673e-13,7.0046958642907e-13,-0.0013904209985932,0.0013904209996802,-0.0014148763789721,0.0014148763797262,-0.0014148763788791,0.0014148763798754,-0.0014148763784809,0.0014148763802804,-0.0014148763785684,0.0014148763801369,-0.0013635457290268,0.0013635457306018,-0.0013635457289985,0.0013635457305053,-0.0013635457297592,0.0013635457297763,-0.0013635457287012,0.0013635457307919,1.7690621269546e-11,-1.769105296224e-11,-0.0013904209991658,0.0013904209991653,3.9705551728532e-15,-4.4623342669865e-15,-0.0014148763735729,0.0014148763855087,-0.0014148763734069,0.001414876385337,-0.0014148763855041,0.0014148763735731,-0.0014148763853418,0.0014148763734052,-0.0013635457469881,0.0013635457124525,-0.0013635457124519,0.001363545746981,0.74907249191055,0.66792198259208,1368840,32768,0.0057766565686558,0.0057766565686558,0.0057766565687755,28.764832632682,28.781223215831,0.00014531866106145,0.00014531866106145,0.00014531866106145,251188.89795674,0.01748120104022
31622400,0.9999898848175,0.016914859320253,0.0056382864400454,0.0056382864400454,0.0056382864401619,-0.0013907231413056,0.0013907231408249,-1.8195764705408e-11,1.7716422275461e-11,3.533331617968e-13,-8.4280795867774e-13,-0.0014152658552838,0.0014152658433796,-0.0014152658434556,0.0014152658552077,-0.0014152658557457,0.0014152658428011,-0.0014152658436811,0.0014152658548657,-0.0013637680464091,0.0013637680107487,-0.0013637680116294,0.0013637680455284,5.1853827665865e-14,1.2680285162757e-12,6.9153125287138e-13,6.9999463035042e-13,-0.0013907231405222,0.0013907231416083,-0.0014152658489102,0.0014152658496632,-0.0014152658488174,0.0014152658498125,-0.0014152658484192,0.0014152658502175,-0.0014152658485065,0.0014152658500739,-0.0013637680277636,0.0013637680293379,-0.0013637680277355,0.0013637680292414,-0.0013637680284961,0.0013637680285126,-0.0013637680274381,0.0013637680295282,1.7692060078532e-11,-1.7692490513912e-11,-0.0013907231410944,0.0013907231410939,3.9699743082453e-15,-4.4608637236753e-15,-0.00141526584351,0.0014152658554468,-0.001415265843344,0.0014152658552751,-0.0014152658554422,0.0014152658435102,-0.0014152658552799,0.0014152658433422,-0.0013637680457263,0.0013637680111876,-0.0013637680111871,0.0013637680457192,0.74386089600975,0.60235322323961,1368840,32768,0.0057779081247309,0.0057779081247309,0.0057779081248507,29.010462475199,29.026863833663,0.00014728369980159,0.00014728369980159,0.00014728369980159,255905.1657974,0.017485021768313
31708800,0.99999025436412,0.016914865304022,0.0056382884346352,0.0056382884346352,0.0056382884347517,-0.0013910050791834,0.0013910050787016,-1.8197765438404e-11,1.771734171796e-11,3.5278164923336e-13,-8.4334850098807e-13,-0.0014156416644786,0.0014156416525726,-0.0014156416526497,0.0014156416644015,-0.0014156416649405,0.0014156416519942,-0.0014156416528753,0.0014156416640594,-0.0013639648755074,0.001363964839843,-0.0013639648407247,0.0013639648746256,5.1382547945489e-14,1.267566714207e-12,6.910255385412e-13,6.9948821935034e-13,-0.0013910050784,0.0013910050794851,-0.0014156416581046,0.0014156416588565,-0.001415641658012,0.0014156416590059,-0.0014156416576139,0.0014156416594109,-0.0014156416577008,0.0014156416592672,-0.0013639648568602,0.0013639648584338,-0.0013639648568322,0.0013639648583374,-0.0013639648575928,0.0013639648576087,-0.0013639648565349,0.0013639648586243,1.7693546827231e-11,-1.7693976769979e-11,-0.0013910050789717,0.0013910050789712,3.9701801843088e-15,-4.4595402346952e-15,-0.0014156416527034,0.0014156416646412,-0.0014156416525373,0.0014156416644695,-0.0014156416646366,0.0014156416527035,-0.0014156416644743,0.0014156416525356,-0.0013639648748243,0.0013639648402826,-0.001363964840282,0.0013639648748172,0.73835139408841,0.53678446388714,1368840,32768,0.0057790759837403,0.0057790759837403,0.0057790759838602,29.251401980421,29.267511833545,0.00014921121584337,0.00014921121584337,0.00014921121584337,261029.87654759,0.017488587017898
31795200,0.99999061078047,0.016914871020072,0.0056382903399852,0.0056382903399852,0.0056382903401017,-0.0013908455378436,0.0013908455373606,-1.8199613455478e-11,1.7718050931589e-11,3.5220357865773e-13,-8.4391716008652e-13,-0.0014155880161164,0.0014155880042085,-0.0014155880042868,0.0014155880160382,-0.0014155880165783,0.0014155880036304,-0.0014155880045127,0.0014155880156961,-0.0013637111192604,0.0013637110835921,-0.001363711084475,0.0013637111183775,5.0878210411478e-14,1.2670732881043e-12,6.9048180147552e-13,6.9896345596974e-13,-0.0013908455370601,0.0013908455381441,-0.001415588009742,0.0014155880104928,-0.0014155880096497,0.0014155880106422,-0.0014155880092516,0.0014155880110472,-0.0014155880093383,0.0014155880109035,-0.0013637111006116,0.0013637111021844,-0.0013637111005838,0.0013637111020882,-0.0013637111013443,0.0013637111013594,-0.0013637111002865,0.0013637111023751,1.7694850993272e-11,-1.7695289634284e-11,-0.0013908455376313,0.0013908455376308,3.976635869445e-15,-4.4719516202418e-15,-0.0014155880043399,0.0014155880162786,-0.0014155880041738,0.0014155880161069,-0.001415588016274,0.00141558800434,-0.0014155880161117,0.001415588004172,-0.0013637111185768,0.0013637110840324,-0.0013637110840319,0.0013637111185698,0.73133574613434,0.45226358797313,1368840,32768,0.0057784149314227,0.0057784149314227,0.0057784149315426,29.269665808296,29.271394090334,0.00014935732646636,0.00014935732646636,0.00014935732646636,266687.42184681,0.017486569655806
31881600,0.99999095426385,0.016914876653049,0.0056382922176442,0.0056382922176442,0.0056382922177607,-0.0013905896686436,0.0013905896681595,-1.8201538793719e-11,1.7718842672107e-11,3.5096879285018e-13,-8.4407256710365e-13,-0.0014154690791425,0.0014154690672325,-0.0014154690673122,0.001415469079063,-0.001415469079604,0.001415469066655,-0.0014154690675379,0.0014154690787212,-0.001363331801409,0.0013633317657361,-0.0013633317666212,0.0013633318005248,5.0472105170656e-14,1.2656147003102e-12,6.8946888572822e-13,6.9836181258482e-13,-0.0013905896678605,0.0013905896689427,-0.0014154690727681,0.001415469073517,-0.001415469072676,0.0014154690736668,-0.0014154690722783,0.0014154690740711,-0.0014154690723645,0.0014154690739272,-0.0013633317827588,0.0013633317843303,-0.0013633317827305,0.001363331784235,-0.0013633317834902,0.0013633317835058,-0.0013633317824348,0.0013633317845212,1.7696053221251e-11,-1.7696888048688e-11,-0.001390589668431,0.0013905896684302,4.0755666707064e-15,-4.7811186459896e-15,-0.0014154690673645,0.0014154690793041,-0.0014154690671987,0.0014154690791322,-0.0014154690792998,0.0014154690673644,-0.0014154690791375,0.0014154690671964,-0.0013633318007262,0.0013633317661782,-0.0013633317661775,0.001363331800717,0.7478961605461,0.76226457269967,1368840,32768,0.0057773547955178,0.0057773547955179,0.0057773547956381,29.274871930025,29.275276347123,0.0001493989754402,0.0001493989754402,0.0001493989754402,274373.1583909,0.017483334195472
31968000,0.99999128525729,0.016914882097468,0.0056382940324506,0.0056382940324506,0.0056382940325672,-0.0013914422382496,0.0013914422377702,-1.8201247596733e-11,1.7723268066326e-11,3.5355158159481e-13,-8.4164255310361e-13,-0.001415905022857,0.0014159050109496,-0.0014159050110246,0.001415905022782,-0.0014159050233187,0.0014159050103712,-0.0014159050112496,0.0014159050224403,-0.0013645756021609,0.0013645755664904,-0.0013645755673694,0.0013645756012818,5.2465044287734e-14,1.2676675640673e-12,6.9158197191018e-13,7.0044777827177e-13,-0.0013914422374666,0.0013914422385531,-0.0014159050164815,0.0014159050172353,-0.0014159050163882,0.0014159050173846,-0.0014159050159905,0.0014159050177892,-0.0014159050160779,0.0014159050176458,-0.0013645755835107,0.0013645755850843,-0.0013645755834819,0.0013645755849882,-0.0013645755842422,0.0013645755842596,-0.001364575583185,0.0013645755852743,1.7698180273918e-11,-1.7698744418448e-11,-0.001391442238039,0.0013914422380384,4.1038158077146e-15,-4.7270026521372e-15,-0.0014159050110796,0.0014159050230204,-0.0014159050109137,0.0014159050228486,-0.0014159050230158,0.0014159050110798,-0.0014159050228537,0.0014159050109117,-0.0013645756014787,0.0013645755669281,-0.0013645755669277,0.0013645756014713,0.75022057252687,0.78347041116359,1368840,32768,0.0057808873940576,0.0057808873940576,0.0057808873941772,29.278884573985,29.279158603911,0.00014943107659188,0.00014943107659188,0.00014943107659188,250194.74197848,0.01749411487825
32054400,0.99999160421005,0.016914887363859,0.0056382957879142,0.0056382957879142,0.0056382957880308,-0.0013915085246192,0.0013915085241401,-1.8203037924392e-11,1.7725384325205e-11,3.5376513389446e-13,-8.415233508628e-13,-0.0014159402000734,0.001415940188165,-0.0014159401882397,0.0014159401999988,-0.0014159402005351,0.0014159401875865,-0.0014159401884646,0.0014159401996571,-0.0013646689235888,0.0013646688879149,-0.0013646688887936,0.0013646689227101,5.2606657608603e-14,1.2678974908667e-12,6.9178196396233e-13,7.0062397877132e-13,-0.0013915085238362,0.0013915085249231,-0.0014159401936972,0.0014159401944514,-0.0014159401936038,0.0014159401946007,-0.0014159401932061,0.0014159401950053,-0.0014159401932936,0.0014159401948619,-0.0013646689049367,0.0013646689065107,-0.0013646689049079,0.0013646689064145,-0.0013646689056683,0.0013646689056858,-0.001364668904611,0.0013646689067006,1.7700125126268e-11,-1.7700679785795e-11,-0.0013915085244088,0.0013915085244082,4.0953895945414e-15,-4.7117384125669e-15,-0.0014159401882949,0.001415940200237,-0.001415940188129,0.0014159402000651,-0.0014159402002324,0.0014159401882951,-0.0014159402000702,0.001415940188127,-0.0013646689229067,0.0013646688883523,-0.001364668888352,0.0013646689228994,0.75282616793405,0.80523991285448,1368840,32768,0.0057811620136882,0.0057811620136882,0.0057811620138078,29.282779857373,29.2830408607,0.00014946223885898,0.00014946223885898,0.00014946223885898,248090.29801733,0.017494953080418
32140800,0.99999191155734,0.016914892460965,0.0056382974869495,0.0056382974869495,0.005638297487066,-0.0013915754746758,0.0013915754741971,-1.8204960997997e-11,1.7727647344307e-11,3.5397881854302e-13,-8.4139411951662e-13,-0.0014159755900215,0.001415975578112,-0.0014159755781863,0.0014159755899472,-0.0014159755904832,0.0014159755775334,-0.0014159755784112,0.0014159755896054,-0.0013647626148369,0.0013647625791593,-0.0013647625800377,0.0013647626139585,5.2761564641005e-14,1.2681306933013e-12,6.9199057891282e-13,7.0080909076333e-13,-0.0013915754738928,0.00139157547498,-0.0014159755836445,0.0014159755843991,-0.0014159755835511,0.0014159755845484,-0.0014159755831533,0.001415975584953,-0.0014159755832409,0.0014159755848096,-0.0013647625961828,0.0013647625977572,-0.001364762596154,0.0013647625976609,-0.0013647625969144,0.0013647625969322,-0.001364762595857,0.0013647625979471,1.7702209033195e-11,-1.7702754626821e-11,-0.0013915754744655,0.001391575474465,4.0886324480264e-15,-4.6957977230735e-15,-0.0014159755782417,0.0014159755901852,-0.0014159755780758,0.0014159755900134,-0.0014159755901806,0.0014159755782419,-0.0014159755900184,0.0014159755780738,-0.0013647626141549,0.0013647625795965,-0.0013647625795962,0.0013647626141476,0.75611982319197,0.83311157431456,1368840,32768,0.0057814393803393,0.0057814393803393,0.0057814393804589,29.286663379951,29.286923117489,0.0001494933070396,0.0001494933070396,0.0001494933070396,245946.71184178,0.017495799675884
32227200,0.99999220771892,0.016914897396444,0.0056382991321093,0.0056382991321093,0.0056382991322258,-0.0013916561068306,0.0013916561063523,-1.8206826720412e-11,1.7729943832974e-11,3.5423273725656e-13,-8.4121433089139e-13,-0.0014160177242855,0.0014160177123751,-0.0014160177124489,0.0014160177242117,-0.0014160177247472,0.0014160177117963,-0.0014160177126737,0.0014160177238699,-0.0013648757145995,0.0013648756789183,-0.0013648756797963,0.0013648757137215,5.2960587972744e-14,1.2683965785611e-12,6.9224068156647e-13,7.0103552502239e-13,-0.0013916561060476,0.0013916561071353,-0.0014160177179079,0.0014160177186629,-0.0014160177178143,0.0014160177188122,-0.0014160177174165,0.0014160177192168,-0.0014160177175042,0.0014160177190735,-0.0013648756959434,0.0013648756975182,-0.0013648756959146,0.0013648756974219,-0.001364875696675,0.0013648756966931,-0.0013648756956175,0.001364875697708,1.770427899937e-11,-1.770481613002e-11,-0.0013916561066205,0.00139165610662,4.0808091576108e-15,-4.6796217466502e-15,-0.0014160177125046,0.0014160177244494,-0.0014160177123386,0.0014160177242776,-0.0014160177244448,0.0014160177125047,-0.0014160177242826,0.0014160177123367,-0.0013648757139177,0.0013648756793553,-0.0013648756793549,0.0013648757139104,0.75977565057182,0.86098323577464,1368840,32768,0.0057817734341105,0.0057817734341105,0.0057817734342301,29.290545711374,29.290805374277,0.00014952436569099,0.00014952436569099,0.00014952436569099,243390.84625289,0.017496819282646
32313600,0.9999924930995,0.016914902177198,0.0056383007256939,0.0056383007256939,0.0056383007258104,-0.0013917359568499,0.0013917359563721,-1.8208963434549e-11,1.7732514666202e-11,3.5448787652106e-13,-8.4103213057513e-13,-0.0014160592200192,0.0014160592081076,-0.0014160592081809,0.0014160592199458,-0.001416059220481,0.0014160592075288,-0.0014160592084057,0.001416059219604,-0.0013649872878326,0.0013649872521472,-0.0013649872530248,0.001364987286955,5.3165875818988e-14,1.2686669122143e-12,6.9249422896783e-13,7.0126406215839e-13,-0.0013917359560669,0.0013917359571551,-0.0014160592136407,0.0014160592143963,-0.0014160592135471,0.0014160592145455,-0.0014160592131493,0.0014160592149502,-0.0014160592132371,0.0014160592148068,-0.0013649872691742,0.0013649872707495,-0.0013649872691454,0.0013649872706531,-0.0013649872699059,0.0013649872699243,-0.0013649872688483,0.0013649872709392,1.7706621368989e-11,-1.7707148941107e-11,-0.0013917359566401,0.0013917359566396,4.0732432122747e-15,-4.6623575681767e-15,-0.0014160592082369,0.0014160592201832,-0.001416059208071,0.0014160592200115,-0.0014160592201786,0.0014160592082371,-0.0014160592200165,0.0014160592080691,-0.0013649872871509,0.001364987252584,-0.0013649872525836,0.0013649872871436,0.76373522499708,0.88885489723472,1368840,32768,0.0057821042423013,0.0057821042423013,0.0057821042424208,29.294427915041,29.294687631066,0.00014955542332032,0.00014955542332032,0.00014955542332032,240825.13428062,0.017497829001638
32400000,0.9999927680892,0.016914906809371,0.0056383022697514,0.0056383022697513,0.0056383022698679,-0.0013918147415925,0.0013918147411151,-1.8211192042937e-11,1.7735181437675e-11,3.547395747142e-13,-8.4084310693791e-13,-0.0014161000431198,0.0014161000312069,-0.0014161000312798,0.0014161000430469,-0.0014161000435815,0.001416100030628,-0.0014161000315046,0.001416100042705,-0.0013650970286086,0.0013650969929188,-0.001365096993796,0.0013650970277314,5.33777222884e-14,1.2689334481895e-12,6.9274730028079e-13,7.0149258458895e-13,-0.0013918147408095,0.0013918147418982,-0.0014161000367405,0.0014161000374965,-0.0014161000366467,0.0014161000376457,-0.0014161000362489,0.0014161000380504,-0.0014161000363368,0.0014161000379071,-0.0013650970099478,0.0013650970115235,-0.0013650970099189,0.001365097011427,-0.0013650970106795,0.0013650970106982,-0.0013650970096218,0.0013650970117132,1.7709056324015e-11,-1.7709575999315e-11,-0.0013918147413829,0.0013918147413824,4.0652066930789e-15,-4.6462404134858e-15,-0.001416100031336,0.001416100043284,-0.0014161000311701,0.0014161000431122,-0.0014161000432794,0.0014161000313362,-0.0014161000431172,0.0014161000311682,-0.001365097027927,0.0013650969933553,-0.001365096993355,0.0013650970279197,0.76793670586784,0.9167265586948,1368840,32768,0.0057824306332639,0.0057824306332639,0.0057824306333835,29.298310098942,29.298569887855,0.00014958648079154,0.00014958648079154,0.00014958648079154,238266.94386759,0.017498825252087
32486400,0.99999303304656,0.016914911245325,0.005638303748403,0.005638303748403,0.0056383037485195,-0.0013918899331911,0.0013918899327141,-1.8212186615494e-11,1.773664089309e-11,3.5496383256916e-13,-8.4060296721519e-13,-0.0014161379426656,0.0014161379307524,-0.0014161379308248,0.0014161379425932,-0.0014161379431274,0.0014161379301734,-0.0014161379310494,0.0014161379422513,-0.0013652023146346,0.001365202278943,-0.0013652022798197,0.0013652023137579,5.3616273824344e-14,1.2691487283775e-12,6.9298502095976e-13,7.0172068056195e-13,-0.001391889932408,0.0013918899334972,-0.0014161379362859,0.0014161379370424,-0.0014161379361921,0.0014161379371915,-0.0014161379357942,0.0014161379375962,-0.0014161379358822,0.0014161379374529,-0.0013652022959727,0.0013652022975488,-0.0013652022959438,0.0013652022974523,-0.0013652022967044,0.0013652022967235,-0.0013652022956467,0.0013652022977385,1.771026999282e-11,-1.7710782278641e-11,-0.0013918899329817,0.0013918899329812,4.0641037855955e-15,-4.637593618816e-15,-0.0014161379308813,0.00141613794283,-0.0014161379307154,0.0014161379426583,-0.0014161379428254,0.0014161379308814,-0.0014161379426632,0.0014161379307135,-0.0013652023139532,0.0013652022793793,-0.0013652022793789,0.001365202313946,0.76322619925698,0.81481010692511,1368840,32768,0.0057827421361721,0.0057827421361721,0.0057827421362916,29.301025309243,29.301209584371,0.00014960820247394,0.00014960820247394,0.00014960820247394,235733.75739067,0.017499776067857
32572800,0.99999328795159,0.016914915474197,0.0056383051580268,0.0056383051580268,0.0056383051581433,-0.0013916221561376,0.0013916221556593,-1.8214461281299e-11,1.773760856941e-11,3.5431888168373e-13,-8.4127862304495e-13,-0.0014159785821297,0.0014159785702143,-0.001415978570288,0.001415978582056,-0.0014159785825915,0.0014159785696355,-0.0014159785705129,0.0014159785817141,-0.0013648322349158,0.0013648321992195,-0.0013648322000975,0.0013648322340378,5.3086789999712e-14,1.2686767832363e-12,6.9240837497296e-13,7.011346102307e-13,-0.0013916221553545,0.0013916221564425,-0.0014159785757495,0.0014159785765047,-0.001415978575656,0.0014159785766539,-0.0014159785752581,0.0014159785770586,-0.0014159785753458,0.0014159785769153,-0.0013648322162519,0.0013648322178273,-0.0013648322162232,0.0013648322177309,-0.0013648322169837,0.0013648322170022,-0.0013648322159261,0.0013648322180172,1.7711901619446e-11,-1.7712413390576e-11,-0.0013916221559276,0.0013916221559271,4.0590671747547e-15,-4.6330643454174e-15,-0.0014159785703437,0.0014159785822936,-0.0014159785701778,0.0014159785821219,-0.001415978582289,0.0014159785703439,-0.0014159785821269,0.0014159785701759,-0.0013648322342341,0.0013648321996567,-0.0013648321996563,0.0013648322342268,0.75626102395286,0.71055228244282,1368840,32768,0.0057816326191057,0.0057816326191057,0.0057816326192254,29.27723691944,29.275707084755,0.00014941789535552,0.00014941789535552,0.00014941789535552,241485.2956095,0.017496390032408
32659200,0.99999353317645,0.016914919499314,0.0056383064997326,0.0056383064997326,0.0056383064998492,-0.0013913186434701,0.0013913186429903,-1.8216716168296e-11,1.7738348252696e-11,3.5357221331747e-13,-8.4206506960779e-13,-0.0014158028951837,0.001415802883266,-0.0014158028833412,0.0014158028951085,-0.0014158028956454,0.0014158028826875,-0.0014158028835664,0.0014158028947665,-0.0013644112732244,0.0013644112375233,-0.0013644112384029,0.0013644112723448,5.2429045387476e-14,1.2680873858008e-12,6.9173487532733e-13,7.0043223462897e-13,-0.0013913186426869,0.0013913186437736,-0.001415802888803,0.0014158028895568,-0.0014158028887099,0.0014158028897061,-0.001415802888312,0.0014158028901108,-0.0014158028883993,0.0014158028899674,-0.0013644112545585,0.001364411256133,-0.0013644112545301,0.0013644112560366,-0.0013644112552905,0.0013644112553081,-0.001364411254233,0.0013644112563232,1.7713429249248e-11,-1.7713935277907e-11,-0.0013913186432594,0.0013913186432589,4.0492807090186e-15,-4.6142119801678e-15,-0.001415802883396,0.0014158028953471,-0.0014158028832301,0.0014158028951753,-0.0014158028953424,0.0014158028833962,-0.0014158028951803,0.0014158028832282,-0.0013644112725422,0.0013644112379615,-0.0013644112379611,0.0013644112725349,0.74829752783677,0.60629445796053,1368840,32768,0.0057803750859801,0.0057803750859801,0.0057803750860999,29.251891807595,29.250204585139,0.00014921513446076,0.00014921513446076,0.00014921513446076,248478.78844318,0.017492552103313
32745600,0.99999376909967,0.016914923327155,0.0056383077756796,0.0056383077756796,0.0056383077757961,-0.0013909889452292,0.0013909889447478,-1.8218722724644e-11,1.7738699947834e-11,3.5274603267437e-13,-8.429084850185e-13,-0.0014156159149097,0.0014156159029898,-0.0014156159030667,0.0014156159148329,-0.0014156159153714,0.0014156159024116,-0.0014156159032921,0.0014156159144909,-0.0013639517217737,0.0013639516860684,-0.0013639516869496,0.0013639517208925,5.1692303188562e-14,1.2673988038953e-12,6.9096883255294e-13,6.9965422898474e-13,-0.0013909889444459,0.0013909889455311,-0.0014156159085286,0.0014156159092808,-0.001415615908436,0.0014156159094302,-0.0014156159080381,0.001415615909835,-0.001415615908125,0.0014156159096914,-0.0013639517031063,0.0013639517046796,-0.001363951703078,0.0013639517045834,-0.0013639517038383,0.0013639517038549,-0.001363951702781,0.00136395170487,1.7714648829638e-11,-1.7715151718687e-11,-0.0013909889450177,0.0013909889450171,4.0441852764453e-15,-4.6071239614078e-15,-0.0014156159031205,0.0014156159150724,-0.0014156159029545,0.0014156159149007,-0.0014156159150678,0.0014156159031207,-0.0014156159149056,0.0014156159029527,-0.0013639517210909,0.0013639516865077,-0.0013639516865073,0.0013639517210837,0.73975111734161,0.50203663347825,1368840,32768,0.0057790090805505,0.0057790090805505,0.0057790090806705,29.226404534419,29.224702085523,0.00014901123627535,0.00014901123627535,0.00014901123627535,256406.58042011,0.017488383054284
32832000,0.99999399608629,0.016914926967785,0.0056383089892227,0.0056383089892227,0.0056383089893392,-0.0013906319658367,0.0013906319653535,-1.8220877952921e-11,1.7739063848482e-11,3.5185263349651e-13,-8.4382575111429e-13,-0.0014154166900102,0.0014154166780879,-0.0014154166781665,0.0014154166899315,-0.0014154166904719,0.00141541667751,-0.0014154166783923,0.0014154166895896,-0.0013634519283126,0.0013634518926027,-0.0013634518934857,0.0013634519274295,5.0891915875139e-14,1.2666551244084e-12,6.9013711347609e-13,6.9881457816491e-13,-0.0013906319650533,0.0013906319661369,-0.0014154166836287,0.0014154166843791,-0.0014154166835365,0.0014154166845286,-0.0014154166831386,0.0014154166849334,-0.0014154166832251,0.0014154166847897,-0.0013634519096433,0.0013634519112154,-0.0013634519096153,0.0013634519111194,-0.0013634519103756,0.001363451910391,-0.0013634519093183,0.0013634519114062,1.7715954613277e-11,-1.7716460252242e-11,-0.0013906319656243,0.0013906319656238,4.0397001193461e-15,-4.6041534639191e-15,-0.0014154166782193,0.0014154166901722,-0.0014154166780533,0.0014154166900004,-0.0014154166901676,0.0014154166782195,-0.0014154166900053,0.0014154166780514,-0.0013634519276292,0.0013634518930431,-0.0013634518930427,0.0013634519276219,0.731352967504,0.40460927212687,1368840,32768,0.0057775300550383,0.0057775300550383,0.0057775300551584,29.200903413033,29.199199585907,0.00014880722730426,0.00014880722730426,0.00014880722730426,265275.49172215,0.017483869036511
32918400,0.99999421448671,0.016914930519228,0.005638310173037,0.005638310173037,0.0056383101731535,-0.0013902673329834,0.0013902673324983,-1.8224830846869e-11,1.7741151872929e-11,3.5100163008231e-13,-8.4485924895341e-13,-0.0014152146471246,0.0014152146351987,-0.0014152146352792,0.0014152146470442,-0.0014152146475864,0.0014152146346211,-0.0014152146355054,0.0014152146467022,-0.0013629405439347,0.0013629405082167,-0.0013629405091016,0.0013629405430498,5.0044824106152e-14,1.2660231620967e-12,6.8934313405514e-13,6.9799455909828e-13,-0.0013902673321998,0.0013902673332819,-0.0014152146407422,0.0014152146414908,-0.0014152146406505,0.0014152146416404,-0.0014152146402525,0.0014152146420453,-0.0014152146403385,0.0014152146419015,-0.0013629405252619,0.0013629405268329,-0.0013629405252342,0.001362940526737,-0.0013629405259944,0.0013629405260087,-0.0013629405249371,0.0013629405270241,1.7719031607512e-11,-1.7719531129017e-11,-0.0013902673327701,0.0013902673327696,4.030310700304e-15,-4.587330448439e-15,-0.001415214635331,0.001415214647286,-0.0014152146351649,0.0014152146471141,-0.0014152146472814,0.0014152146353311,-0.0014152146471191,0.001415214635163,-0.0013629405432507,0.0013629405086584,-0.001362940508658,0.0013629405432435,0.74157911917572,0.59136693301626,1368840,32768,0.0057760193291089,0.0057760193291089,0.0057760193292292,29.175400851092,29.173697086291,0.00014860320680873,0.00014860320680873,0.00014860320680873,274494.73416061,0.017479258244013
33004800,0.99999442463719,0.016914933942331,0.0056383113140716,0.0056383113140716,0.0056383113141881,-0.0013907621928885,0.0013907621924064,-1.8225622293279e-11,1.774495528615e-11,3.5255580319163e-13,-8.4336558870135e-13,-0.0014154400618967,0.0014154400499719,-0.0014154400500493,0.0014154400618193,-0.0014154400623586,0.0014154400493937,-0.001415440050275,0.0014154400614773,-0.0013636873675541,0.0013636873318351,-0.0013636873327171,0.0013636873666721,5.1259228183412e-14,1.2672396396401e-12,6.9072711567251e-13,6.9936494370456e-13,-0.0013907621921051,0.0013907621931898,-0.0014154400555135,0.001415440056265,-0.0014154400554209,0.0014154400564144,-0.0014154400550229,0.0014154400568193,-0.0014154400551098,0.0014154400566757,-0.0013636873488799,0.0013636873504529,-0.0013636873488518,0.0013636873503567,-0.0013636873496123,0.001363687349628,-0.0013636873485546,0.0013636873506435,1.772127921532e-11,-1.7721767193059e-11,-0.0013907621926766,0.0013907621926761,4.0276710750604e-15,-4.5765072496685e-15,-0.0014154400501029,0.0014154400620592,-0.0014154400499368,0.0014154400618874,-0.0014154400620546,0.001415440050103,-0.0014154400618923,0.001415440049935,-0.001363687366871,0.0013636873322748,-0.0013636873322744,0.0013636873668637,0.74293816150763,0.62503185655508,1368840,32768,0.0057780697996616,0.0057780697996616,0.0057780697997815,29.149898230987,29.148194586675,0.0001483991858479,0.0001483991858479,0.0001483991858479,258613.95235905,0.017485515680633
33091200,0.99999462686036,0.016914937281802,0.0056383124272284,0.0056383124272284,0.0056383124273449,-0.0013908017647177,0.0013908017642361,-1.8228036116597e-11,1.7747867138371e-11,3.5280819254013e-13,-8.4311597867971e-13,-0.0014154362908709,0.0014154362789447,-0.0014154362790216,0.0014154362907939,-0.0014154362913327,0.0014154362783664,-0.0014154362792472,0.001415436290452,-0.0013637688511727,0.0013637688154491,-0.0013637688163306,0.0013637688502913,5.1451045852925e-14,1.2674237185754e-12,6.9097097035527e-13,6.9956173181047e-13,-0.0013908017639344,0.0013908017650195,-0.0014154362844867,0.0014154362852388,-0.0014154362843941,0.0014154362853882,-0.0014154362839961,0.0014154362857931,-0.001415436284083,0.0014154362856495,-0.0013637688324961,0.0013637688340694,-0.0013637688324679,0.0013637688339731,-0.0013637688332285,0.0013637688332444,-0.0013637688321707,0.0013637688342598,1.7723941428108e-11,-1.772441766356e-11,-0.0013908017645061,0.0013908017645056,4.0127671186014e-15,-4.5445376380829e-15,-0.0014154362790755,0.0014154362910336,-0.0014154362789094,0.0014154362908618,-0.001415436291029,0.0014154362790756,-0.0014154362908667,0.0014154362789076,-0.0013637688504897,0.0013637688158885,-0.001363768815888,0.0013637688504825,0.7530274778388,0.79978099776202,1368840,32768,0.0057782338119163,0.0057782338119163,0.0057782338120361,29.124396145018,29.122692087059,0.00014819516916014,0.00014819516916014,0.00014819516916014,255872.88140649,0.017486016040728
33177600,0.99999482146585,0.016914940508019,0.0056383135026343,0.0056383135026343,0.0056383135027508,-0.0013911887984334,0.0013911887979543,-1.8228724330867e-11,1.7751074363922e-11,3.5409316799089e-13,-8.4184984088876e-13,-0.0014156075556205,0.0014156075436952,-0.0014156075437696,0.0014156075555461,-0.0014156075560824,0.0014156075431164,-0.0014156075439947,0.0014156075552042,-0.0013643574638448,0.0013643574281204,-0.0013643574289993,0.0013643574629659,5.2491131726075e-14,1.2684337244851e-12,6.9212980627716e-13,7.0070579980115e-13,-0.0013911887976502,0.0013911887987375,-0.0014156075492357,0.0014156075499902,-0.0014156075491424,0.0014156075501394,-0.0014156075487443,0.0014156075505443,-0.001415607548832,0.0014156075504008,-0.001364357445167,0.0013643574467419,-0.0013643574451385,0.0013643574466454,-0.0013643574458992,0.0013643574459164,-0.0013643574448413,0.0013643574469319,1.7725855193174e-11,-1.7726320509841e-11,-0.0013911887982229,0.0013911887982224,4.0087745935114e-15,-4.5344791218342e-15,-0.001415607543825,0.0014156075557842,-0.0014156075436589,0.0014156075556124,-0.0014156075557796,0.0014156075438251,-0.0014156075556173,0.0014156075436572,-0.0013643574631625,0.001364357428558,-0.0013643574285575,0.0013643574631553,0.75593956037664,0.82129808892253,1368840,32768,0.0057798375124403,0.0057798375124403,0.0057798375125599,29.098893775465,29.097189587443,0.00014799115020372,0.00014799115020372,0.00014799115020372,243298.45885073,0.01749091002791
33264000,0.99999500885121,0.016914943627892,0.0056383145425918,0.0056383145425918,0.0056383145427083,-0.0013912167317845,0.0013912167313058,-1.8230414779225e-11,1.7753139477305e-11,3.5428298572151e-13,-8.4166305247737e-13,-0.0014156032602371,0.0014156032483109,-0.0014156032483849,0.0014156032601631,-0.001415603260699,0.001415603247732,-0.00141560324861,0.0014156032598211,-0.0013644124569302,0.0013644124212025,-0.0013644124220811,0.0013644124560516,5.2678831874317e-14,1.2686189210334e-12,6.9231810015727e-13,7.0089002946718e-13,-0.0013912167310013,0.001391216732089,-0.0014156032538516,0.0014156032546065,-0.0014156032537582,0.0014156032547557,-0.0014156032533602,0.0014156032551606,-0.0014156032534479,0.0014156032550172,-0.0013644124382506,0.0013644124398258,-0.0013644124382221,0.0013644124397293,-0.0013644124389828,0.0013644124390003,-0.0013644124379248,0.0013644124400157,1.7727718812712e-11,-1.7728182055913e-11,-0.0013912167315742,0.0013912167315737,4.0076569805949e-15,-4.5306262983589e-15,-0.0014156032484405,0.0014156032604009,-0.0014156032482745,0.0014156032602292,-0.0014156032603963,0.0014156032484406,-0.0014156032602341,0.0014156032482727,-0.001364412456248,0.0013644124216399,-0.0013644124216394,0.0013644124562408,0.7590549921851,0.84281518008304,1368840,32768,0.0057799532401422,0.0057799532401422,0.0057799532402618,29.082801532607,29.081704623438,0.00014786241226085,0.00014786241226085,0.00014786241226085,241127.52132328,0.017491263243321
33350400,0.99999519071772,0.016914946669187,0.0056383155563568,0.0056383155563568,0.0056383155564733,-0.0013915107907296,0.0013915107902513,-1.8232254987713e-11,1.7755350880336e-11,3.5447258287062e-13,-8.4147926397433e-13,-0.0014158622578041,0.0014158622458768,-0.0014158622459505,0.0014158622577304,-0.001415862258266,0.0014158622452979,-0.0014158622461755,0.0014158622573885,-0.0013647348417908,0.0013647348060596,-0.0013647348069378,0.0013647348409126,5.2869414287449e-14,1.268808503477e-12,6.9251189754571e-13,7.0107575908739e-13,-0.0013915107899464,0.0013915107910345,-0.0014158622514179,0.0014158622521732,-0.0014158622513244,0.0014158622523224,-0.0014158622509264,0.0014158622527273,-0.0014158622510142,0.0014158622525838,-0.0013647348231093,0.0013647348246848,-0.0013647348230807,0.0013647348245883,-0.0013647348238415,0.0013647348238593,-0.0013647348227835,0.0013647348248747,1.7729730192442e-11,-1.7730191266592e-11,-0.0013915107905195,0.001391510790519,4.0045982505076e-15,-4.5255676293683e-15,-0.0014158622460063,0.001415862257968,-0.0014158622458403,0.0014158622577963,-0.0014158622579634,0.0014158622460064,-0.0014158622578012,0.0014158622458385,-0.0013647348411088,0.0013647348064968,-0.0013647348064962,0.0013647348411016,0.76237038089571,0.86433227124355,1368840,32768,0.0057811714392499,0.0057811714392499,0.0057811714393694,29.205061617484,29.21292082576,0.00014884049293987,0.00014884049293987,0.00014884049293987,238897.67333674,0.017494981695177
33436800,0.99999536726198,0.016914949635083,0.0056383165449889,0.0056383165449889,0.0056383165451054,-0.0013918195088386,0.0013918195083606,-1.8234648591061e-11,1.7758114737079e-11,3.5465756251374e-13,-8.4129174029129e-13,-0.0014161397200622,0.0014161397081335,-0.0014161397082068,0.0014161397199889,-0.0014161397205241,0.0014161397075546,-0.0014161397084318,0.0014161397196469,-0.0013650688225461,0.0013650687868102,-0.001365068787688,0.0013650688216682,5.3062055461217e-14,1.2689928618156e-12,6.9270345051743e-13,7.0125901819483e-13,-0.0013918195080554,0.0013918195091438,-0.0014161397136751,0.0014161397144308,-0.0014161397135816,0.0014161397145799,-0.0014161397131835,0.0014161397149848,-0.0014161397132714,0.0014161397148414,-0.0013650688038622,0.001365068805438,-0.0013650688038335,0.0013650688053414,-0.0013650688045942,0.0013650688046124,-0.0013650688035362,0.0013650688056278,1.7732294437636e-11,-1.773275362949e-11,-0.0013918195086287,0.0013918195086282,4.0016571638852e-15,-4.5204501386453e-15,-0.0014161397082628,0.0014161397202263,-0.0014161397080968,0.0014161397200546,-0.0014161397202217,0.001416139708263,-0.0014161397200594,0.0014161397080951,-0.0013650688218642,0.0013650687872472,-0.0013650687872467,0.001365068821857,0.76586133005962,0.88584936240406,1368840,32768,0.0057824503547492,0.0057824503547492,0.0057824503548687,29.335447933612,29.344137028083,0.00014988358346889,0.00014988358346889,0.00014988358346889,236764.18330297,0.01749888554422
33523200,0.99999553859729,0.016914952527228,0.0056383175090372,0.0056383175090372,0.0056383175091537,-0.0013921285652671,0.0013921285647895,-1.8236717395508e-11,1.7760550809717e-11,3.5484039516362e-13,-8.4110483423644e-13,-0.0014164184918637,0.0014164184799339,-0.0014164184800068,0.0014164184917907,-0.0014164184923256,0.0014164184793548,-0.0014164184802316,0.0014164184914488,-0.001365402125981,0.0013654020902412,-0.0013654020911186,0.0013654021251035,5.3255637782704e-14,1.2691759738687e-12,6.9289503290001e-13,7.0144049794486e-13,-0.0013921285644839,0.0013921285655727,-0.0014164184854758,0.0014164184862319,-0.0014164184853822,0.001416418486381,-0.0014164184849842,0.0014164184867859,-0.0014164184850722,0.0014164184866425,-0.001365402107295,0.0013654021088711,-0.0013654021072663,0.0013654021087745,-0.001365402108027,0.0013654021080455,-0.001365402106969,0.0013654021090608,1.7734532369268e-11,-1.7734989222959e-11,-0.0013921285650574,0.0013921285650569,3.9979366893078e-15,-4.5142444458721e-15,-0.001416418480063,0.0014164184920279,-0.001416418479897,0.0014164184918562,-0.0014164184920233,0.0014164184800631,-0.0014164184918611,0.0014164184798952,-0.0013654021252993,0.0013654020906779,-0.0013654020906774,0.0013654021252921,0.76950074851424,0.90736645356456,1368840,32768,0.0057837306680142,0.0057837306680142,0.0057837306681337,29.466577196098,29.475353230405,0.00015093261756878,0.00015093261756878,0.00015093261756878,234662.87123043,0.017502793683895
33609600,0.99999570482926,0.016914955329408,0.0056383184430973,0.0056383184430973,0.0056383184432138,-0.0013924365888033,0.0013924365883261,-1.8237981636298e-11,1.7762202435732e-11,3.5500009616721e-13,-8.4087413540177e-13,-0.0014166969677648,0.0014166969558343,-0.0014166969559069,0.0014166969676922,-0.0014166969682266,0.0014166969552552,-0.0014166969561316,0.0014166969673502,-0.0013657335765391,0.0013657335407967,-0.0013657335416738,0.001365733575662,5.3479130955141e-14,1.2693239767003e-12,6.930653530645e-13,7.01632947948e-13,-0.0013924365880201,0.0013924365891092,-0.0014166969613764,0.0014166969621329,-0.0014166969612827,0.001416696962282,-0.0014166969608847,0.0014166969626868,-0.0014166969609728,0.0014166969625435,-0.0013657335578516,0.001365733559428,-0.0013657335578229,0.0013657335593314,-0.0013657335585835,0.0013657335586024,-0.0013657335575256,0.0013657335596177,1.773597338407e-11,-1.7736433053851e-11,-0.0013924365885937,0.0013924365885933,4.0062452590162e-15,-4.5284498942583e-15,-0.0014166969559632,0.0014166969679291,-0.0014166969557973,0.0014166969677574,-0.0014166969679245,0.0014166969559634,-0.0014166969677623,0.0014166969557955,-0.0013657335758574,0.0013657335412332,-0.0013657335412327,0.0013657335758502,0.76843341786478,0.85812931190057,1368840,32768,0.0057850066998279,0.0057850066998279,0.0057850066999475,29.59778297526,29.606569432728,0.00015198226380208,0.00015198226380208,0.00015198226380208,232592.03405357,0.01750668877296
33696000,0.99999586606222,0.016914958070246,0.00563831935671,0.00563831935671,0.0056383193568265,-0.0013925893827208,0.001392589382243,-1.8240497324151e-11,1.7764147435137e-11,3.5471056089467e-13,-8.411645971166e-13,-0.0014168973659994,0.001416897354067,-0.0014168973541401,0.0014168973659263,-0.0014168973664613,0.001416897353488,-0.001416897354365,0.0014168973655843,-0.0013658392938318,0.0013658392580844,-0.0013658392589621,0.0013658392929541,5.3262372871069e-14,1.2691201116047e-12,6.9281803709042e-13,7.0137794103241e-13,-0.0013925893819376,0.0013925893830262,-0.0014168973596104,0.0014168973603663,-0.0014168973595168,0.0014168973605154,-0.0014168973591188,0.0014168973609202,-0.0014168973592067,0.0014168973607769,-0.001365839275142,0.0013658392767181,-0.0013658392751134,0.0013658392766215,-0.001365839275874,0.0013658392758927,-0.0013658392748161,0.0013658392769079,1.773820272773e-11,-1.7738662735736e-11,-0.001392589382511,0.0013925893825105,4.003399757709e-15,-4.5232441709366e-15,-0.0014168973541962,0.0014168973661636,-0.0014168973540302,0.0014168973659919,-0.001416897366159,0.0014168973541963,-0.0014168973659968,0.0014168973540284,-0.0013658392931501,0.0013658392585214,-0.0013658392585209,0.0013658392931429,0.77489380845826,0.94143566578773,1368840,32768,0.0057856395516621,0.0057856395516621,0.0057856395517818,29.728990330861,29.73778563505,0.00015303192264689,0.00015303192264689,0.00015303192264689,234897.48335157,0.017508620982389
33782400,0.99999602240002,0.016914960730476,0.0056383202434533,0.0056383202434533,0.0056383202435698,-0.0013930239670416,0.001393023966565,-1.8241205743686e-11,1.776599796684e-11,3.5522072178019e-13,-8.4052529311749e-13,-0.001417242118029,0.0014172421060967,-0.0014172421061687,0.001417242117957,-0.0014172421184908,0.0014172421055176,-0.0014172421063934,0.001417242117615,-0.0013663543909054,0.0013663543551569,-0.0013663543560334,0.001366354390029,5.3801591692422e-14,1.2695089489907e-12,6.9330678870351e-13,7.0185091187759e-13,-0.0013930239662585,0.0013930239673481,-0.0014172421116395,0.0014172421123965,-0.0014172421115457,0.0014172421125455,-0.0014172421111477,0.0014172421129503,-0.0014172421112358,0.001417242112807,-0.0013663543722146,0.0013663543737914,-0.001366354372186,0.0013663543736947,-0.0013663543729466,0.0013663543729661,-0.0013663543718888,0.0013663543739812,1.7739468012606e-11,-1.7739921792861e-11,-0.0013930239668324,0.0013930239668319,3.9924368573239e-15,-4.5185090214745e-15,-0.0014172421062254,0.0014172421181935,-0.0014172421060594,0.0014172421180219,-0.0014172421181889,0.0014172421062255,-0.0014172421180267,0.0014172421060577,-0.001366354390224,0.0013663543555931,-0.0013663543555926,0.0013663543902169,0.7756824729955,0.9123616557077,1368840,32768,0.0057874400045339,0.0057874400045339,0.0057874400046534,29.860202855048,29.869001837372,0.00015408162284038,0.00015408162284038,0.00015408162284038,229453.53157461,0.017514116448484
33868800,0.99999617394593,0.01691496328803,0.005638321095971,0.005638321095971,0.0056383210960875,-0.0013932239714305,0.0013932239709536,-1.8242759637392e-11,1.7767278633598e-11,3.5508819641699e-13,-8.4065270098997e-13,-0.0014174659754319,0.0014174659634984,-0.0014174659635707,0.0014174659753596,-0.0014174659758936,0.0014174659629193,-0.0014174659637954,0.0014174659750176,-0.0013665283247588,0.0013665282890072,-0.0013665282898839,0.0013665283238821,5.3709859200669e-14,1.2694197348043e-12,6.9321902484052e-13,7.0173420956041e-13,-0.0013932239706474,0.0013932239717368,-0.0014174659690418,0.0014174659697986,-0.0014174659689481,0.0014174659699476,-0.0014174659685502,0.0014174659703525,-0.0014174659686382,0.0014174659702091,-0.0013665283060666,0.0013665283076433,-0.001366528306038,0.0013665283075466,-0.0013665283067985,0.0013665283068179,-0.0013665283057407,0.001366528307833,1.7740879322432e-11,-1.7741330477767e-11,-0.0013932239712212,0.0013932239712207,3.9828121513521e-15,-4.4994507801613e-15,-0.0014174659636272,0.0014174659755963,-0.0014174659634612,0.0014174659754247,-0.0014174659755917,0.0014174659636273,-0.0014174659754295,0.0014174659634595,-0.0013665283240774,0.0013665282894436,-0.0013665282894431,0.0013665283240703,0.76926647950346,0.79912606441466,1368840,32768,0.0057882684597319,0.0057882684597319,0.0057882684598516,29.991420405196,30.000218039695,0.00015513136324156,0.00015513136324156,0.00015513136324156,230371.13317658,0.017516645653164
33955200,0.99999632080252,0.016914965760036,0.005638321919973,0.005638321919973,0.0056383219200895,-0.0013932276897201,0.0013932276892418,-1.8245586021636e-11,1.7768625210108e-11,3.5434176333765e-13,-8.4141664824014e-13,-0.0014175934309589,0.0014175934190227,-0.0014175934190965,0.0014175934308851,-0.0014175934314206,0.0014175934184439,-0.0014175934193214,0.0014175934305431,-0.0013664166328238,0.0013664165970664,-0.0013664165979446,0.0013664166319456,5.3088142899558e-14,1.2688446641371e-12,6.9255703035811e-13,7.0107046513147e-13,-0.0013932276889369,0.001393227690025,-0.0014175934245682,0.0014175934253235,-0.0014175934244748,0.0014175934254726,-0.0014175934240768,0.0014175934258775,-0.0014175934241645,0.0014175934257341,-0.0013664166141291,0.001366416615705,-0.0013664166141007,0.0013664166156084,-0.0013664166148611,0.0013664166148797,-0.0013664166138035,0.0013664166158949,1.7742989022688e-11,-1.7743433766454e-11,-0.0013932276895101,0.0013932276895096,3.9875693589639e-15,-4.4925980483311e-15,-0.0014175934191521,0.0014175934311228,-0.0014175934189861,0.0014175934309511,-0.0014175934311181,0.0014175934191523,-0.0014175934309559,0.0014175934189844,-0.001366416632142,0.0013664165975038,-0.0013664165975033,0.0013664166321349,0.76728907536633,0.77434335722282,1368840,32768,0.0057882836558529,0.0057882836558529,0.0057882836559727,30.12263459822,30.131434242017,0.00015618107678576,0.00015618107678576,0.00015618107678576,237025.69270686,0.017516692783369
34041600,0.99999646316672,0.016914968149522,0.0056383227164686,0.0056383227164686,0.0056383227165852,-0.0013934407616647,0.0013934407611859,-1.8247900833273e-11,1.77705517689e-11,3.5415976889746e-13,-8.4162708298798e-13,-0.0014178398265107,0.0014178398145728,-0.001417839814647,0.0014178398264366,-0.0014178398269725,0.0014178398139941,-0.001417839814872,0.0014178398260945,-0.0013665988370896,0.0013665988013275,-0.0013665988022061,0.001366598836211,5.2903089729276e-14,1.2686949738571e-12,6.9238290700099e-13,7.0089213234412e-13,-0.0013934407608814,0.0013934407619692,-0.0014178398201193,0.0014178398208743,-0.0014178398200261,0.0014178398210234,-0.0014178398196281,0.0014178398214283,-0.0014178398197157,0.0014178398212848,-0.0013665988183927,0.0013665988199683,-0.0013665988183644,0.0013665988198717,-0.0013665988191247,0.0013665988191431,-0.0013665988180671,0.0013665988201583,1.7745121104613e-11,-1.7745566267485e-11,-0.0013934407614544,0.001393440761454,3.9857752961242e-15,-4.4907157528928e-15,-0.0014178398147024,0.0014178398266745,-0.0014178398145363,0.0014178398265028,-0.0014178398266698,0.0014178398147025,-0.0014178398265076,0.0014178398145346,-0.0013665988364076,0.0013665988017652,-0.0013665988017647,0.0013665988364005,0.76515353615471,0.75098643361818,1368840,32768,0.0057891663010712,0.0057891663010711,0.005789166301191,30.265684618838,30.275253776393,0.0001573254769507,0.0001573254769507,0.0001573254769507,238608.57511984,0.017519387215836
34128000,0.99999660212105,0.016914970474674,0.0056383234915191,0.0056383234915191,0.0056383234916356,-0.0013939015394193,0.0013939015389401,-1.8250065031864e-11,1.7772336184976e-11,3.5398195080027e-13,-8.4183278258635e-13,-0.001418329945357,0.0014183299334174,-0.0014183299334919,0.0014183299452824,-0.0014183299458187,0.0014183299328387,-0.0014183299337171,0.0014183299449404,-0.0013670323320962,0.0013670322963298,-0.0013670322972088,0.0013670323312172,5.2720007087031e-14,1.268546596037e-12,6.9221096556251e-13,7.0071819648127e-13,-0.001393901538636,0.0013939015397234,-0.0014183299389649,0.0014183299397195,-0.0014183299388718,0.0014183299398687,-0.0014183299384738,0.0014183299402736,-0.0014183299385613,0.0014183299401301,-0.0013670323133972,0.0013670323149725,-0.0013670323133689,0.001367032314876,-0.0013670323141293,0.0013670323141474,-0.0013670323130717,0.0013670323151626,1.7747107161588e-11,-1.77475517583e-11,-0.0013939015392088,0.0013939015392084,3.985032671752e-15,-4.4889216900531e-15,-0.0014183299335471,0.0014183299455206,-0.0014183299333811,0.0014183299453489,-0.001418329945516,0.0014183299335473,-0.0014183299453537,0.0014183299333794,-0.0013670323314141,0.0013670322967677,-0.0013670322967672,0.0013670323314069,0.76284119349449,0.72762951001354,1368840,32768,0.0057910751058046,0.0057910751058046,0.0057910751059245,30.535934080257,30.553782449215,0.00015948747264205,0.00015948747264205,0.00015948747264205,240090.09332528,0.017525214025746
34214400,0.99999673771567,0.016914972730192,0.0056383242433584,0.0056383242433584,0.0056383242434749,-0.0013943757786357,0.0013943757781562,-1.825177970007e-11,1.7773668732503e-11,3.5379930932102e-13,-8.4203598226109e-13,-0.0014188370589299,0.001418837046989,-0.0014188370470639,0.001418837058855,-0.0014188370593916,0.0014188370464104,-0.0014188370472891,0.0014188370585129,-0.0013674772826582,0.0013674772468884,-0.0013674772477678,0.0013674772817788,5.2533512784304e-14,1.2683873692836e-12,6.9203305923272e-13,7.0053695201816e-13,-0.0013943757778524,0.0013943757789395,-0.0014188370525373,0.0014188370532916,-0.0014188370524443,0.0014188370534407,-0.0014188370520463,0.0014188370538456,-0.0014188370521337,0.0014188370537021,-0.0013674772639577,0.0013674772655327,-0.0013674772639294,0.0013674772654362,-0.0013674772646898,0.0013674772647076,-0.0013674772636322,0.0013674772657229,1.7748643026433e-11,-1.7749087667261e-11,-0.001394375778425,0.0013943757784246,3.9837091827719e-15,-4.4872158598121e-15,-0.0014188370471188,0.0014188370590933,-0.0014188370469528,0.0014188370589216,-0.0014188370590887,0.001418837047119,-0.0014188370589265,0.0014188370469511,-0.001367477281976,0.0013674772473266,-0.0013674772473261,0.0013674772819689,0.75834979450505,0.67431668349713,1368840,32768,0.0057930396659193,0.0057930396659193,0.0057930396660391,30.813685832097,30.832311122036,0.00016170948665677,0.00016170948665677,0.00016170948665677,241691.4393882,0.017531211101598
34300800,0.99999686994673,0.016914974913828,0.0056383249712371,0.0056383249712371,0.0056383249713536,-0.0013947750706546,0.0013947750701743,-1.825357817454e-11,1.7774639144034e-11,3.5338842481443e-13,-8.424609986889e-13,-0.0014193076913629,0.0014193076794204,-0.0014193076794961,0.0014193076912872,-0.0014193076918247,0.0014193076788419,-0.0014193076797214,0.0014193076909451,-0.0013678125345969,0.0013678124988235,-0.0013678124997037,0.0013678125337167,5.2157612503093e-14,1.2680409570721e-12,6.9164723462234e-13,7.0015019912731e-13,-0.0013947750698713,0.0013947750709576,-0.0014193076849699,0.0014193076857233,-0.0014193076848771,0.0014193076858726,-0.001419307684479,0.0014193076862775,-0.0014193076845663,0.0014193076861339,-0.0013678125158948,0.0013678125174693,-0.0013678125158667,0.0013678125173729,-0.0013678125166271,0.0013678125166443,-0.0013678125155695,0.0013678125176596,1.775004824821e-11,-1.7750491617018e-11,-0.0013947750704436,0.0013947750704431,3.9829518529667e-15,-4.4868923402836e-15,-0.0014193076795506,0.0014193076915261,-0.0014193076793845,0.0014193076913543,-0.0014193076915214,0.0014193076795507,-0.0014193076913592,0.0014193076793828,-0.0013678125339144,0.0013678124992622,-0.0013678124992617,0.0013678125339073,0.75287685923067,0.61110028707412,1368840,32768,0.0057946936910457,0.0057946936910457,0.0057946936911656,31.092125622559,31.110839794858,0.00016393700498047,0.00016393700498047,0.00016393700498047,245501.57774783,0.01753626046951
34387200,0.99999699880883,0.016914977048001,0.0056383256826282,0.0056383256826282,0.0056383256827447,-0.0013951412254649,0.0013951412249835,-1.8256945821661e-11,1.7776981984227e-11,3.5288899889508e-13,-8.4299671761717e-13,-0.0014197623471742,0.0014197623352289,-0.0014197623353056,0.0014197623470975,-0.001419762347636,0.0014197623346506,-0.0014197623355312,0.0014197623467554,-0.0013680994860663,0.001368099450286,-0.0013680994511672,0.001368099485185,5.1694744290458e-14,1.2676326239582e-12,6.9117943273689e-13,6.996773018093e-13,-0.0013951412246815,0.0013951412257669,-0.0014197623407803,0.0014197623415327,-0.0014197623406877,0.001419762341682,-0.0014197623402897,0.0014197623420869,-0.0014197623403767,0.0014197623419433,-0.0013680994673611,0.0013680994689349,-0.0013680994673331,0.0013680994688385,-0.0013680994680934,0.00136809946811,-0.0013680994670359,0.0013680994691253,1.7752929983704e-11,-1.7753373036346e-11,-0.0013951412252534,0.0013951412252529,3.9811210265442e-15,-4.4836277341328e-15,-0.0014197623353595,0.001419762347337,-0.0014197623351935,0.0014197623471653,-0.0014197623473324,0.0014197623353597,-0.0014197623471701,0.0014197623351918,-0.0013680994853834,0.0013680994507254,-0.0013680994507249,0.0013680994853763,0.75509894412646,0.66690379671628,1368840,32768,0.0057962104223616,0.0057962104223616,0.0057962104224815,31.370630295765,31.389368467679,0.00016616504236612,0.00016616504236612,0.00016616504236612,250326.173819,0.017540890817494
34473600,0.99999712429972,0.016914979133724,0.0056383263778691,0.0056383263778691,0.0056383263779856,-0.0013958162080368,0.0013958162075562,-1.8258541052339e-11,1.7779335471153e-11,3.5328714849659e-13,-8.4262699361786e-13,-0.001420371472879,0.001420371460933,-0.0014203714610089,0.001420371472803,-0.0014203714733408,0.0014203714603545,-0.0014203714612344,0.001420371472461,-0.0013688377916082,0.001368837755825,-0.0013688377567055,0.0013688377907277,5.1980559088424e-14,1.2679317177622e-12,6.9152177521974e-13,7.0001843844663e-13,-0.0013958162072534,0.0013958162083395,-0.0014203714664844,0.0014203714672375,-0.0014203714663916,0.0014203714673868,-0.0014203714659936,0.0014203714677917,-0.0014203714660807,0.0014203714676481,-0.0013688377729013,0.0013688377744756,-0.0013688377728732,0.0013688377743792,-0.0013688377736336,0.0013688377736505,-0.0013688377725759,0.0013688377746659,1.7754897570655e-11,-1.7755339829203e-11,-0.0013958162078256,0.0013958162078251,3.9804004603217e-15,-4.4831865711394e-15,-0.0014203714610633,0.001420371473042,-0.0014203714608973,0.0014203714728703,-0.0014203714730374,0.0014203714610635,-0.0014203714728751,0.0014203714608955,-0.0013688377909256,0.0013688377562638,-0.0013688377562633,0.0013688377909184,0.75783068615322,0.72270730635844,1368840,32768,0.0057990067247146,0.0057990067247146,0.0057990067248345,31.64914055541,31.667897140501,0.00016839312444328,0.00016839312444328,0.00016839312444328,246312.22834561,0.017549426439885
34560000,0.99999724642072,0.016914981172791,0.0056383270575583,0.0056383270575583,0.0056383270576748,-0.0013964893619284,0.0013964893614485,-1.825960278461e-11,1.7781161827123e-11,3.5368470988077e-13,-8.4225006395634e-13,-0.0014209785948024,0.0014209785828562,-0.0014209785829313,0.0014209785947272,-0.0014209785952643,0.0014209785822775,-0.0014209785831566,0.0014209785943852,-0.0013695738521872,0.001369573816402,-0.0013695738172817,0.0013695738513074,5.2284696856048e-14,1.2682413847727e-12,6.9187370748316e-13,7.0036828070037e-13,-0.0013964893611451,0.0013964893622318,-0.0014209785884074,0.0014209785891613,-0.0014209785883144,0.0014209785893105,-0.0014209785879163,0.0014209785897154,-0.0014209785880037,0.0014209785895719,-0.0013695738334791,0.0013695738350538,-0.0013695738334508,0.0013695738349573,-0.0013695738342114,0.0013695738342286,-0.0013695738331536,0.001369573835244,1.7756331791546e-11,-1.7756772608962e-11,-0.0013964893617175,0.0013964893617171,3.9802166424078e-15,-4.4810983996375e-15,-0.0014209785829862,0.0014209785949658,-0.0014209785828201,0.0014209785947941,-0.0014209785949612,0.0014209785829863,-0.0014209785947989,0.0014209785828184,-0.0013695738515047,0.0013695738168403,-0.0013695738168398,0.0013695738514976,0.76127760560967,0.7785108160006,1368840,32768,0.0058017954303041,0.0058017954303041,0.0058017954304239,31.927649641349,31.946425813322,0.00017062119713079,0.00017062119713079,0.00017062119713079,242300.52490501,0.017557938988915
34646400,0.99999736517672,0.016914983167211,0.0056383277223649,0.0056383277223649,0.0056383277224814,-0.0013971606354483,0.0013971606349692,-1.8260640679374e-11,1.7782976242283e-11,3.5408438884733e-13,-8.41864958074e-13,-0.0014215836839967,0.0014215836720502,-0.0014215836721246,0.0014215836839223,-0.0014215836844586,0.0014215836714714,-0.0014215836723497,0.0014215836835803,-0.0013703069376864,0.0013703069018994,-0.0013703069027783,0.0013703069368074,5.2606745841202e-14,1.268562963184e-12,6.922328803342e-13,7.0072732855523e-13,-0.0013971606346651,0.0013971606357525,-0.0014215836776012,0.0014215836783558,-0.001421583677508,0.001421583678505,-0.0014215836771099,0.0014215836789099,-0.0014215836771975,0.0014215836787664,-0.0013703069189772,0.0013703069205524,-0.0013703069189488,0.0013703069204559,-0.0013703069197094,0.001370306919727,-0.0013703069186515,0.0013703069207424,1.7757744836614e-11,-1.7758185374627e-11,-0.0013971606352379,0.0013971606352374,3.9810622048118e-15,-4.4802160736508e-15,-0.0014215836721799,0.0014215836841604,-0.0014215836720139,0.0014215836839887,-0.0014215836841558,0.0014215836721801,-0.0014215836839935,0.0014215836720121,-0.0013703069370042,0.0013703069023372,-0.0013703069023366,0.0013703069369971,0.76566262053703,0.83431432564276,1368840,32768,0.0058045763229509,0.0058045763229509,0.0058045763230706,32.206156398434,32.224954486144,0.00017284925118747,0.00017284925118747,0.00017284925118747,238268.68811416,0.017566427811306
34732800,0.99999748132414,0.016914985131427,0.0056383283771034,0.0056383283771034,0.0056383283772199,-0.0013980560523152,0.0013980560518369,-1.8262258350543e-11,1.7785379168875e-11,3.5448946470783e-13,-8.4147667581811e-13,-0.0014224095105449,0.0014224094985977,-0.0014224094986713,0.0014224095104713,-0.0014224095110068,0.0014224094980188,-0.0014224094988963,0.0014224095101293,-0.0013712647914111,0.0013712647556211,-0.0013712647564992,0.0013712647905329,5.2949205967515e-14,1.2689070335553e-12,6.926076630025e-13,7.0109922895863e-13,-0.001398056051532,0.0013980560526202,-0.0014224095041487,0.0014224095049041,-0.0014224095040553,0.0014224095050532,-0.0014224095036572,0.0014224095054582,-0.001422409503745,0.0014224095053147,-0.0013712647727001,0.0013712647742759,-0.0013712647726716,0.0013712647741793,-0.0013712647734323,0.0013712647734503,-0.0013712647723743,0.0013712647744658,1.7759737834553e-11,-1.7760178056399e-11,-0.0013980560521051,0.0013980560521047,3.9794593126026e-15,-4.4789514064031e-15,-0.0014224094987271,0.0014224095107089,-0.0014224094985611,0.0014224095105372,-0.0014224095107043,0.0014224094987273,-0.001422409510542,0.0014224094985593,-0.0013712647907291,0.0013712647560584,-0.0013712647560578,0.001371264790722,0.77095584677227,0.89011783528492,1368840,32768,0.0058082857195287,0.0058082857195287,0.0058082857196483,32.601613713549,32.628077333204,0.00017601290970839,0.00017601290970839,0.00017601290970839,234114.81895173,0.017577751197927
34819200,0.99999759509879,0.016914987051977,0.0056383290172867,0.0056383290172867,0.0056383290174032,-0.0013990420362091,0.0013990420357316,-1.8263646219909e-11,1.7787561131629e-11,3.5489704049197e-13,-8.4108024675227e-13,-0.0014233277840027,0.001423327772055,-0.0014233277721278,0.0014233277839298,-0.0014233277844646,0.0014233277714759,-0.0014233277723527,0.0014233277835878,-0.0013723102897957,0.0013723102540031,-0.0013723102548805,0.0013723102889183,5.3312577219714e-14,1.2692673534301e-12,6.9300311783339e-13,7.0147486454205e-13,-0.0013990420354259,0.0013990420365148,-0.0014233277776058,0.0014233277783621,-0.0014233277775122,0.0014233277785111,-0.0014233277771142,0.0014233277789161,-0.0014233277772022,0.0014233277787727,-0.0013723102710832,0.0013723102726596,-0.0013723102710546,0.0013723102725629,-0.0013723102718153,0.0013723102718339,-0.0013723102707573,0.0013723102728493,1.7761504515876e-11,-1.7761939524646e-11,-0.0013990420359994,0.001399042035999,3.9730403910491e-15,-4.4658341600672e-15,-0.001423327772184,0.001423327784167,-0.001423327772018,0.0014233277839953,-0.0014233277841623,0.0014233277721842,-0.0014233277840001,0.0014233277720163,-0.001372310289114,0.0013723102544399,-0.0013723102544393,0.0013723102891069,0.76949572724539,0.83758763975058,1368840,32768,0.0058123702575088,0.0058123702575088,0.0058123702576284,33.04516764471,33.075063064154,0.00017956134115767,0.00017956134115767,0.00017956134115767,229978.13805639,0.017590220007273
34905600,0.99999770642975,0.016914988928188,0.0056383296426904,0.0056383296426904,0.0056383296428069,-0.0013997973553664,0.0013997973548883,-1.8266206788745e-11,1.7789515748387e-11,3.5458844697811e-13,-8.4138859027377e-13,-0.001424133764219,0.0014241337522693,-0.0014241337523427,0.0014241337641456,-0.0014241337646808,0.0014241337516903,-0.0014241337525677,0.0014241337638035,-0.0013730162491521,0.0013730162133543,-0.0013730162142323,0.0013730162482741,5.3090819288384e-14,1.2690576061612e-12,6.9274044019624e-13,7.0121231373926e-13,-0.0013997973545832,0.0013997973556716,-0.0014241337578214,0.0014241337585771,-0.001424133757728,0.0014241337587262,-0.0014241337573299,0.0014241337591311,-0.0014241337574177,0.0014241337589877,-0.0013730162304371,0.0013730162320132,-0.0013730162304086,0.0013730162319165,-0.0013730162311692,0.0013730162311876,-0.0013730162301113,0.001373016232203,1.7763761741037e-11,-1.7764194610166e-11,-0.0013997973551564,0.001399797355156,3.9734594958928e-15,-4.4655400514049e-15,-0.0014241337523986,0.001424133764383,-0.0014241337522325,0.0014241337642114,-0.0014241337643784,0.0014241337523987,-0.0014241337642162,0.0014241337522308,-0.0013730162484702,0.0013730162137915,-0.001373016213791,0.0013730162484631,0.76818887569991,0.80613688129706,1368840,32768,0.0058154990549474,0.0058154990549474,0.005815499055067,33.491795202021,33.522048795105,0.00018313436161617,0.00018313436161617,0.00018313436161617,232486.25532344,0.017599771982406
34992000,0.99999781523244,0.016914990751701,0.0056383302505283,0.0056383302505283,0.0056383302506448,-0.0014005914854267,0.0014005914849482,-1.8268199977854e-11,1.7791110023213e-11,3.5438833544432e-13,-8.4159278991796e-13,-0.0014249618761005,0.0014249618641493,-0.0014249618642231,0.0014249618760267,-0.0014249618765624,0.0014249618635704,-0.0014249618644482,0.0014249618756846,-0.0013737780548257,0.001373778019024,-0.0013737780199024,0.0013737780539473,5.2932471184634e-14,1.2689129377867e-12,6.925653756914e-13,7.0103901021004e-13,-0.0014005914846435,0.0014005914857315,-0.0014249618697023,0.0014249618704576,-0.001424961869609,0.0014249618706067,-0.0014249618692109,0.0014249618710117,-0.0014249618692987,0.0014249618708682,-0.0013737780361088,0.0013737780376847,-0.0013737780360805,0.0013737780375881,-0.001373778036841,0.0013737780368592,-0.0013737780357832,0.0013737780378746,1.776555795087e-11,-1.7765991665561e-11,-0.0014005914852166,0.0014005914852161,3.9739080116028e-15,-4.4665400208566e-15,-0.0014249618642787,0.0014249618762644,-0.0014249618641127,0.0014249618760928,-0.0014249618762598,0.0014249618642789,-0.0014249618760976,0.001424961864111,-0.0013737780541437,0.0013737780194615,-0.0013737780194609,0.0013737780541366,0.76399337082296,0.74465079368024,1368840,32768,0.0058187886736142,0.0058187886736142,0.0058187886737339,33.938715702095,33.969034526055,0.00018670972561676,0.00018670972561676,0.00018670972561676,234091.58444824,0.017609814806179
35078400,0.9999979214261,0.016914992523669,0.0056383308411841,0.0056383308411841,0.0056383308413007,-0.0014013096748653,0.0014013096743859,-1.8270461967575e-11,1.7792513362695e-11,3.539578044791e-13,-8.4203024714218e-13,-0.0014257532470471,0.0014257532350939,-0.0014257532351686,0.0014257532469724,-0.0014257532475089,0.0014257532345152,-0.0014257532353938,0.0014257532466303,-0.0013744292922099,0.0013744292564035,-0.0013744292572828,0.0013744292913306,5.25647765351e-14,1.268568124791e-12,6.9217422587606e-13,7.0064574281232e-13,-0.0014013096740819,0.0014013096751693,-0.0014257532406483,0.0014257532414028,-0.0014257532405552,0.0014257532415519,-0.0014257532401571,0.0014257532419569,-0.0014257532402446,0.0014257532418134,-0.0013744292734909,0.0013744292750662,-0.0013744292734627,0.0013744292749697,-0.0013744292742232,0.0013744292742409,-0.0013744292731654,0.0013744292752563,1.7767406570866e-11,-1.7767839028243e-11,-0.0014013096746547,0.0014013096746543,3.9739962442014e-15,-4.4650106558129e-15,-0.0014257532352237,0.0014257532472107,-0.0014257532350576,0.001425753247039,-0.0014257532472061,0.0014257532352238,-0.0014257532470438,0.0014257532350559,-0.0013744292915276,0.0013744292568416,-0.001374429256841,0.0013744292915205,0.76065629508992,0.70622966914048,1368840,32768,0.0058217636589854,0.0058217636589854,0.0058217636591052,34.38566175788,34.416020257006,0.00019028529406304,0.00019028529406304,0.00019028529406304,237969.50501307,0.017618897343575
35164800,0.99999802493577,0.016914994242563,0.005638331414149,0.005638331414149,0.0056383314142655,-0.0014020751392388,0.0014020751387589,-1.8272463759363e-11,1.7793929084151e-11,3.5366634279482e-13,-8.4233062031892e-13,-0.0014265693856325,0.0014265693736776,-0.0014265693737529,0.0014265693855572,-0.0014265693860943,0.001426569373099,-0.0014265693739782,0.0014265693852151,-0.0013751494633439,0.0013751494275335,-0.0013751494284133,0.001375149462464,5.2299196413096e-14,1.2683224484728e-12,6.9190128017024e-13,7.0037197176408e-13,-0.0014020751384555,0.0014020751395423,-0.0014265693792331,0.001426569379987,-0.0014265693791402,0.0014265693801362,-0.0014265693787421,0.0014265693805412,-0.0014265693788294,0.0014265693803976,-0.0013751494446231,0.001375149446198,-0.0013751494445949,0.0013751494461015,-0.0013751494453554,0.0013751494453728,-0.0013751494442977,0.0013751494463882,1.7769129253534e-11,-1.7769562563826e-11,-0.001402075139028,0.0014020751390276,3.9727683405366e-15,-4.4650988884116e-15,-0.0014265693738077,0.0014265693857958,-0.0014265693736416,0.0014265693856241,-0.0014265693857912,0.0014265693738078,-0.0014265693856289,0.0014265693736399,-0.0013751494626614,0.001375149427972,-0.0013751494279714,0.0013751494626543,0.75704962453977,0.66780854460072,1368840,32768,0.0058249345204743,0.0058249345204743,0.0058249345205942,34.832609785234,34.863005987957,0.00019386087828187,0.00019386087828187,0.00019386087828187,240601.78109452,0.017628577771141
35251200,0.99999812569272,0.016914995907315,0.0056383319690661,0.0056383319690661,0.0056383319691826,-0.0014028369752394,0.0014028369747588,-1.8274483771183e-11,1.7795337570535e-11,3.5336308735318e-13,-8.4264508130059e-13,-0.0014273839950413,0.0014273839830847,-0.0014273839831606,0.0014273839949654,-0.0014273839955031,0.0014273839825062,-0.001427383983386,0.0014273839946233,-0.0013758646238453,0.0013758645880309,-0.0013758645889113,0.0013758646229649,5.2019028501445e-14,1.2680648791354e-12,6.9161602234056e-13,7.000869951758e-13,-0.001402836974456,0.0014028369755423,-0.0014273839886414,0.0014273839893946,-0.0014273839885486,0.0014273839895439,-0.0014273839881505,0.0014273839899488,-0.0014273839882377,0.0014273839898053,-0.0013758646051227,0.0013758646066972,-0.0013758646050946,0.0013758646066007,-0.0013758646058551,0.001375864605872,-0.0013758646047973,0.0013758646068875,1.7770859788902e-11,-1.7771292908024e-11,-0.0014028369750283,0.0014028369750278,3.9727242242372e-15,-4.4652753536089e-15,-0.001427383983215,0.0014273839952044,-0.001427383983049,0.0014273839950327,-0.0014273839951998,0.0014273839832152,-0.0014273839950375,0.0014273839830473,-0.0013758646231627,0.0013758645884697,-0.0013758645884692,0.0013758646231556,0.75326375686323,0.62938742006096,1368840,32768,0.005828090343692,0.005828090343692,0.0058280903438119,35.279557351996,35.309991718907,0.00019743645881597,0.00019743645881597,0.00019743645881597,243377.50999403,0.017638212372496
35337600,0.99999822330441,0.016914997511674,0.0056383325038526,0.0056383325038526,0.0056383325039691,-0.0014034737661255,0.0014034737656443,-1.8276538193715e-11,1.779676276229e-11,3.5305221449719e-13,-8.4296880670512e-13,-0.0014280771164871,0.0014280771045289,-0.0014280771046053,0.0014280771164106,-0.0014280771169489,0.0014280771039504,-0.0014280771048309,0.0014280771160685,-0.0013764522982606,0.001376452262442,-0.0013764522633231,0.0013764522973795,5.1728243267088e-14,1.2677976740631e-12,6.9132034387333e-13,6.9979071010946e-13,-0.001403473765342,0.0014034737664277,-0.0014280771100866,0.0014280771108393,-0.001428077109994,0.0014280771109886,-0.0014280771095959,0.0014280771113935,-0.0014280771096829,0.0014280771112499,-0.0013764522795361,0.0013764522811102,-0.0013764522795081,0.0013764522810138,-0.0013764522802686,0.0013764522802851,-0.0013764522792108,0.0013764522813006,1.7772617264625e-11,-1.7773050221986e-11,-0.001403473765914,0.0014034737659136,3.9726506970717e-15,-4.4650400666791e-15,-0.0014280771046594,0.00142807711665,-0.0014280771044933,0.0014280771164782,-0.0014280771166454,0.0014280771046596,-0.001428077116483,0.0014280771044916,-0.0013764522975777,0.0013764522628813,-0.0013764522628807,0.0013764522975707,0.7493553739024,0.5909662955212,1368840,32768,0.0058307281614313,0.0058307281614313,0.0058307281615513,35.663538480694,35.689862813927,0.00020050830784555,0.00020050830784555,0.00020050830784555,246321.00807113,0.01764626564318
35424000,0.99999831724831,0.016914999047477,0.0056383330157868,0.0056383330157868,0.0056383330159033,-0.0014039126251407,0.0014039126246588,-1.8278456723341e-11,1.7798032164687e-11,3.5273126841952e-13,-8.4330429645614e-13,-0.0014285751858847,0.0014285751739249,-0.001428575174002,0.0014285751858076,-0.0014285751863466,0.0014285751733466,-0.0014285751742276,0.0014285751854655,-0.0013768399962836,0.0013768399604611,-0.0013768399613428,0.0013768399954018,5.1425723097106e-14,1.2675216788181e-12,6.910164266872e-13,6.99484337116e-13,-0.0014039126243572,0.0014039126254423,-0.0014285751794837,0.0014285751802357,-0.0014285751793912,0.0014285751803851,-0.0014285751789931,0.00142857518079,-0.00142857517908,0.0014285751806464,-0.0013768399775573,0.0013768399791309,-0.0013768399775294,0.0013768399790346,-0.0013768399782899,0.0013768399783059,-0.0013768399772321,0.0013768399793214,1.7774230097707e-11,-1.7774662694785e-11,-0.0014039126249289,0.0014039126249285,3.9719301308492e-15,-4.4634224690368e-15,-0.0014285751740557,0.0014285751860474,-0.0014285751738896,0.0014285751858756,-0.0014285751860427,0.0014285751740559,-0.0014285751858804,0.0014285751738879,-0.0013768399956005,0.0013768399609008,-0.0013768399609002,0.0013768399955934,0.74536386805846,0.55254517098144,1368840,32768,0.0058325460497518,0.0058325460497518,0.0058325460498718,35.946798523649,35.966370312919,0.00020277438818919,0.00020277438818919,0.00020277438818919,249412.35436252,0.017651815780522
35510400,0.99999840755295,0.016915000533004,0.0056383335109626,0.0056383335109626,0.0056383335110791,-0.0014043362290032,0.0014043362285207,-1.8280316666521e-11,1.77992250106e-11,3.5240152849285e-13,-8.4364440371315e-13,-0.0014290572776782,0.0014290572657167,-0.0014290572657945,0.0014290572776004,-0.0014290572781401,0.0014290572651386,-0.0014290572660203,0.0014290572772583,-0.0013772127645533,0.001377212728727,-0.0013772127296095,0.0013772127636709,5.1120055964439e-14,1.2672376139666e-12,6.9070397299715e-13,6.9916740562157e-13,-0.0014043362282197,0.0014043362293042,-0.0014290572712767,0.0014290572720281,-0.0014290572711844,0.0014290572721774,-0.0014290572707863,0.0014290572725824,-0.001429057270873,0.0014290572724387,-0.0013772127458254,0.0013772127473985,-0.0013772127457975,0.0013772127473022,-0.0013772127465579,0.0013772127465735,-0.0013772127455002,0.0013772127475891,1.7775777638665e-11,-1.7776207088781e-11,-0.0014043362287911,0.0014043362287907,3.9703051804903e-15,-4.4597166998926e-15,-0.0014290572658479,0.0014290572778406,-0.0014290572656817,0.0014290572776688,-0.001429057277836,0.001429057265848,-0.0014290572776736,0.00142905726568,-0.0013772127638699,0.0013772127291671,-0.0013772127291665,0.0013772127638628,0.75005025120549,0.64701585131699,1368840,32768,0.0058343007466205,0.0058343007466205,0.0058343007467405,36.223926531905,36.242877811911,0.00020499141225524,0.00020499141225524,0.00020499141225524,252565.73841145,0.017657172997874
35596800,0.99999849428094,0.016915001928942,0.0056383339762751,0.0056383339762751,0.0056383339763916,-0.0014051151804836,0.0014051151800024,-1.8283349279759e-11,1.7803624464435e-11,3.5311322733917e-13,-8.429748359327e-13,-0.001429715598668,0.0014297155867052,-0.0014297155867817,0.0014297155985916,-0.0014297155991299,0.0014297155861268,-0.0014297155870072,0.0014297155982495,-0.0013781061339885,0.0013781060981566,-0.0013781060990376,0.0013781061331074,5.1661480600759e-14,1.267794471955e-12,6.9134584860888e-13,6.9977929869336e-13,-0.0014051151797002,0.0014051151807859,-0.0014297155922653,0.0014297155930179,-0.0014297155921726,0.0014297155931672,-0.0014297155917744,0.0014297155935722,-0.0014297155918616,0.0014297155934286,-0.0013781061152573,0.0013781061168313,-0.0013781061152293,0.0013781061167349,-0.0013781061159899,0.0013781061160061,-0.001378106114932,0.0013781061170217,1.7779476172737e-11,-1.7779896836356e-11,-0.0014051151802721,0.0014051151802717,3.960489303888e-15,-4.4403055281846e-15,-0.0014297155868358,0.0014297155988309,-0.0014297155866697,0.0014297155986592,-0.0014297155988263,0.001429715586836,-0.001429715598664,0.001429715586668,-0.0013781061333055,0.0013781060985957,-0.0013781060985951,0.0013781061332984,0.73390818389795,0.42619644272479,1368840,32768,0.005837527698257,0.005837527698257,0.0058375276983769,36.500484419666,36.519385310903,0.00020720387535733,0.00020720387535733,0.00020720387535733,245445.4324892,0.017667024107702
35683200,0.9999985775003,0.016915003276572,0.0056383344254852,0.0056383344254852,0.0056383344256017,-0.0014050240917926,0.0014050240913079,-1.8287665794951e-11,1.7804378176703e-11,3.5129995920386e-13,-8.4476060490809e-13,-0.0014299401815774,0.0014299401696099,-0.0014299401696898,0.0014299401814974,-0.0014299401820393,0.0014299401690321,-0.001429940169916,0.0014299401811553,-0.0013777280364534,0.0013777280006123,-0.0013777280014969,0.0013777280355688,5.0145438679505e-14,1.2663180574996e-12,6.8969171899435e-13,6.981327313478e-13,-0.001405024091009,0.0014050240920915,-0.0014299401751739,0.0014299401759231,-0.0014299401750821,0.0014299401760726,-0.001429940174684,0.0014299401764776,-0.0014299401747702,0.0014299401763337,-0.0013777280177187,0.0013777280192904,-0.0013777280176912,0.0013777280191943,-0.0013777280184515,0.0013777280184657,-0.0013777280173939,0.0013777280194813,1.7782090916387e-11,-1.7782515609296e-11,-0.0014050240915795,0.001405024091579,3.9626362971224e-15,-4.4462759340281e-15,-0.0014299401697419,0.001429940181739,-0.0014299401695757,0.0014299401815671,-0.0014299401817343,0.0014299401697421,-0.0014299401815719,0.001429940169574,-0.0013777280357693,0.0013777280010539,-0.0013777280010533,0.0013777280357622,0.73830504617505,0.51863330302199,1368840,32768,0.005837149950743,0.005837149950743,0.0058371499508631,36.776983795426,36.795892809896,0.0002094158703634,0.0002094158703634,0.0002094158703634,263521.97773739,0.017665872332007
35769600,0.9999986572817,0.016915004575838,0.0056383348585739,0.0056383348585739,0.0056383348586904,-0.0014058222966735,0.0014058222961903,-1.8288539782958e-11,1.7806695282388e-11,3.5204864221446e-13,-8.4404771492169e-13,-0.0014306076725931,0.0014306076606258,-0.0014306076607043,0.0014306076725146,-0.0014306076730551,0.0014306076600477,-0.0014306076609303,0.0014306076721725,-0.0013786502749902,0.0013786502391477,-0.0013786502400309,0.001378650274107,5.0722538696554e-14,1.2669018558415e-12,6.9034830923009e-13,6.9879256413154e-13,-0.00140582229589,0.0014058222969738,-0.0014306076661891,0.0014306076669397,-0.0014306076660969,0.0014306076670891,-0.0014306076656988,0.0014306076674941,-0.0014306076657854,0.0014306076673503,-0.0013786502562544,0.001378650257827,-0.0013786502562266,0.0013786502577307,-0.0013786502569871,0.001378650257002,-0.0013786502559294,0.0013786502580177,1.7783659603759e-11,-1.7784084605482e-11,-0.001405822296461,0.0014058222964606,3.964099487717e-15,-4.4473935469447e-15,-0.0014306076607573,0.0014306076727553,-0.0014306076605911,0.0014306076725835,-0.0014306076727506,0.0014306076607574,-0.0014306076725883,0.0014306076605894,-0.0013786502743065,0.0013786502395883,-0.0013786502395877,0.0013786502742994,0.74267460336803,0.60432253861507,1368840,32768,0.0058404566591761,0.0058404566591761,0.005840456659296,37.053475925764,37.072400308888,0.00021162780740611,0.00021162780740611,0.00021162780740611,255759.61324099,0.017675966992961
35856000,0.9999987336981,0.01691500582849,0.0056383352761243,0.0056383352761243,0.0056383352762409,-0.0014065877014599,0.0014065877009779,-1.8289246673127e-11,1.7808698603541e-11,3.5271113668159e-13,-8.4340702861186e-13,-0.0014312580713158,0.0014312580593487,-0.0014312580594259,0.0014312580712386,-0.0014312580717777,0.0014312580587704,-0.0014312580596516,0.0014312580708965,-0.001379524794965,0.0013795247591214,-0.0013795247600033,0.0013795247940831,5.124646386747e-14,1.267422483319e-12,6.9094288481621e-13,6.9938556072179e-13,-0.0014065877006765,0.0014065877017614,-0.0014312580649113,0.0014312580656631,-0.0014312580648187,0.0014312580658125,-0.0014312580644206,0.0014312580662175,-0.0014312580645076,0.0014312580660738,-0.0013795247762283,0.0013795247778016,-0.0013795247762003,0.0013795247777053,-0.0013795247769609,0.0013795247769764,-0.001379524775903,0.0013795247779921,1.7784989739595e-11,-1.778541677802e-11,-0.001406587701248,0.0014065877012476,3.964231836615e-15,-4.4456288949712e-15,-0.0014312580594796,0.0014312580714784,-0.0014312580593135,0.0014312580713066,-0.0014312580714738,0.0014312580594798,-0.0014312580713114,0.0014312580593118,-0.0013795247942817,0.0013795247595611,-0.0013795247595605,0.0013795247942746,0.74747646684865,0.69001177420815,1368840,32768,0.0058436274546226,0.0058436274546226,0.0058436274547424,37.329965826429,37.34890780788,0.00021383972661143,0.00021383972661143,0.00021383972661143,248954.8348356,0.01768564691012
35942400,0.99999880682448,0.01691500703663,0.0056383356788379,0.0056383356788379,0.0056383356789544,-0.0014073409845273,0.0014073409840465,-1.8289768363072e-11,1.7810449667694e-11,3.5335366117056e-13,-8.4279342970983e-13,-0.0014319018564879,0.0014319018445211,-0.0014319018445971,0.0014319018564119,-0.0014319018569499,0.0014319018439425,-0.0014319018448226,0.0014319018560699,-0.0013803812841683,0.001380381248324,-0.0013803812492046,0.0013803812832877,5.1763918647817e-14,1.2679441842932e-12,6.915296389501e-13,6.9996877819901e-13,-0.0014073409837439,0.0014073409848299,-0.001431901850083,0.0014319018508361,-0.0014319018499902,0.0014319018509854,-0.001431901849592,0.0014319018513904,-0.0014319018496793,0.0014319018512467,-0.0013803812654309,0.001380381267005,-0.0013803812654027,0.0013803812669085,-0.0013803812661634,0.0013803812661795,-0.0013803812651053,0.0013803812671952,1.7786102735006e-11,-1.778652958226e-11,-0.001407340984316,0.0014073409843155,3.9605995946363e-15,-4.4454524297739e-15,-0.0014319018446516,0.001431901856651,-0.0014319018444854,0.0014319018564793,-0.0014319018566464,0.0014319018446517,-0.0014319018564841,0.0014319018444837,-0.0013803812834853,0.0013803812487627,-0.0013803812487621,0.0013803812834782,0.75328020600631,0.77570100980123,1368840,32768,0.0058467480115255,0.0058467480115255,0.0058467480116452,37.606452418273,37.625415306872,0.00021605161934618,0.00021605161934618,0.00021605161934618,242493.9787318,0.017695173588685
36028800,0.99999887673771,0.016915008199992,0.0056383360666252,0.0056383360666252,0.0056383360667418,-0.0014080846158268,0.0014080846153473,-1.8290908901759e-11,1.7812834477193e-11,3.5398099494712e-13,-8.4216991934588e-13,-0.0014325397023443,0.0014325396903774,-0.0014325396904522,0.0014325397022696,-0.0014325397028063,0.0014325396897986,-0.0014325396906774,0.0014325397019276,-0.0013812222660553,0.0013812222302089,-0.0013812222310884,0.0013812222651758,5.2287137957944e-14,1.2684481174278e-12,6.9208988837898e-13,7.0053368741201e-13,-0.0014080846150435,0.0014080846161306,-0.0014325396959388,0.0014325396966931,-0.0014325396958456,0.0014325396968423,-0.0014325396954475,0.0014325396972473,-0.0014325396955351,0.0014325396971037,-0.0013812222473165,0.0013812222488914,-0.0013812222472881,0.0013812222487948,-0.0013812222480489,0.0013812222480657,-0.0013812222469908,0.0013812222490814,1.7787840681912e-11,-1.7788265308646e-11,-0.0014080846156161,0.0014080846156157,3.9636877355899e-15,-4.4472759034798e-15,-0.0014325396905074,0.0014325397025079,-0.0014325396903413,0.0014325397023362,-0.0014325397025033,0.0014325396905075,-0.001432539702341,0.0014325396903396,-0.0013812222653727,0.0013812222306469,-0.0013812222306463,0.0013812222653656,0.75863259955389,0.83080222133202,1368840,32768,0.0058498285536764,0.0058498285536764,0.0058498285537959,37.882937134221,37.901922805864,0.00021826349707377,0.00021826349707377,0.00021826349707377,236224.62307259,0.01770457826655
36115200,0.99999894294217,0.016915009296441,0.0056383364321081,0.0056383364321081,0.0056383364322247,-0.001408435267542,0.0014084352670634,-1.8292334137631e-11,1.7815082790861e-11,3.5439695282812e-13,-8.4175357912361e-13,-0.0014328246726068,0.0014328246606394,-0.0014328246607133,0.0014328246725329,-0.0014328246730688,0.0014328246600604,-0.0014328246609384,0.0014328246721909,-0.0013816310725588,0.0013816310367098,-0.0013816310375884,0.0013816310716801,5.2671596801226e-14,1.2688166907269e-12,6.9247131606486e-13,7.0094914530829e-13,-0.0014084352667588,0.0014084352678466,-0.0014328246662007,0.0014328246669557,-0.0014328246661073,0.0014328246671049,-0.0014328246657091,0.0014328246675099,-0.0014328246657969,0.0014328246673664,-0.0013816310538184,0.0013816310553939,-0.0013816310537899,0.0013816310552973,-0.0013816310545507,0.0013816310545681,-0.0013816310534925,0.0013816310555838,1.7789647626712e-11,-1.779008455454e-11,-0.0014084352673317,0.0014084352673313,3.9770255634225e-15,-4.4662459121943e-15,-0.001432824660769,0.0014328246727707,-0.0014328246606029,0.001432824672599,-0.0014328246727661,0.0014328246607691,-0.0014328246726038,0.0014328246606012,-0.0013816310718765,0.0013816310371472,-0.0013816310371466,0.0013816310718693,0.75497882740872,0.75354661301225,1368840,32768,0.005851281131323,0.005851281131323,0.0058512811314425,37.994753570386,38.0028275768,0.00021915802856309,0.00021915802856309,0.00021915802856309,232024.16533785,0.017709012985439
36201600,0.99999900482104,0.016915010319519,0.0056383367731343,0.0056383367731343,0.0056383367732508,-0.0014080158285381,0.0014080158280585,-1.8295132140389e-11,1.7816915558401e-11,3.5389910039012e-13,-8.4223506441456e-13,-0.0014324932130082,0.0014324932010384,-0.0014324932011133,0.0014324932129333,-0.0014324932134701,0.0014324932004596,-0.0014324932013385,0.0014324932125912,-0.0013811301953389,0.0013811301594842,-0.0013811301603638,0.0013811301944593,5.2294990659226e-14,1.2684442241644e-12,6.9203443419071e-13,7.0051040871139e-13,-0.0014080158277548,0.0014080158288418,-0.0014324932066012,0.0014324932073554,-0.0014324932065081,0.0014324932075046,-0.00143249320611,0.0014324932079096,-0.0014324932061975,0.0014324932077661,-0.001381130176596,0.0013811301781709,-0.0013811301765676,0.0013811301780744,-0.0013811301773283,0.0013811301773453,-0.0013811301762703,0.001381130178361,1.7791969879298e-11,-1.7792405204234e-11,-0.0014080158283274,0.0014080158283269,3.9742609419974e-15,-4.4688634792883e-15,-0.0014324932011683,0.0014324932131717,-0.0014324932010023,0.0014324932129999,-0.0014324932131671,0.0014324932011685,-0.0014324932130047,0.0014324932010005,-0.0013811301946563,0.0013811301599223,-0.0013811301599218,0.0013811301946492,0.7536486507531,0.73045191308876,1368840,32768,0.0058495434843045,0.0058495434843045,0.0058495434844241,37.864837199203,37.856521077519,0.00021811869759363,0.00021811869759363,0.00021811869759363,236523.86120403,0.017703708403738
36288000,0.99999906263576,0.016915011273569,0.0056383370911509,0.0056383370911509,0.0056383370912674,-0.0014076833261782,0.0014076833256983,-1.8297562566141e-11,1.7819040522896e-11,3.5374117874392e-13,-8.4238638332128e-13,-0.0014321873025722,0.0014321872906006,-0.0014321872906758,0.001432187302497,-0.0014321873030342,0.0014321872900219,-0.0014321872909011,0.0014321873021549,-0.0013807730138274,0.0013807729779679,-0.0013807729788478,0.0013807730129475,5.2173023796995e-14,1.2683221323059e-12,6.9189573438378e-13,7.0037050122077e-13,-0.0014076833253949,0.0014076833264816,-0.0014321872961645,0.0014321872969184,-0.0014321872960715,0.0014321872970676,-0.0014321872956734,0.0014321872974726,-0.0014321872957608,0.001432187297329,-0.0013807729950822,0.0013807729966569,-0.0013807729950539,0.0013807729965604,-0.0013807729958146,0.0013807729958314,-0.0013807729947565,0.001380772996847,1.7794251515478e-11,-1.7794686825709e-11,-0.0014076833259673,0.0014076833259669,3.973805073571e-15,-4.4681576184989e-15,-0.0014321872907307,0.0014321873027356,-0.0014321872905646,0.0014321873025638,-0.001432187302731,0.0014321872907309,-0.0014321873025687,0.0014321872905629,-0.0013807730131448,0.0013807729784063,-0.0013807729784057,0.0013807730131377,0.75224739088016,0.71149841764089,1368840,32768,0.0058481660893886,0.0058481660893886,0.0058481660895083,37.720078168328,37.710214578237,0.00021696062534662,0.00021696062534662,0.00021696062534662,237780.101283,0.017699503245499
36374400,0.99999911667417,0.016915012163377,0.0056383373877535,0.0056383373877535,0.0056383373878701,-0.0014073555573029,0.0014073555568227,-1.829981767372e-11,1.7821027403375e-11,3.5360412410732e-13,-8.4252005570827e-13,-0.0014318823151646,0.0014318823031913,-0.0014318823032668,0.0014318823150891,-0.0014318823156265,0.0014318823026127,-0.0014318823034922,0.001431882314747,-0.0013804244646009,0.0013804244287369,-0.0013804244296171,0.0013804244637207,5.2060497822821e-14,1.2682111981949e-12,6.9177226572919e-13,7.0024619619467e-13,-0.0014073555565195,0.001407355557606,-0.0014318823087562,0.0014318823095098,-0.0014318823086632,0.001431882309659,-0.0014318823082651,0.001431882310064,-0.0014318823083524,0.0014318823099204,-0.0013804244458535,0.001380424447428,-0.0013804244458252,0.0013804244473316,-0.0013804244465859,0.0013804244466026,-0.0013804244455279,0.0013804244476182,1.7796377685819e-11,-1.7796813326922e-11,-0.0014073555570918,0.0014073555570914,3.9734153795935e-15,-4.4676576337731e-15,-0.0014318823033215,0.0014318823153278,-0.0014318823031554,0.0014318823151561,-0.0014318823153232,0.0014318823033217,-0.0014318823151609,0.0014318823031537,-0.0013804244639182,0.0013804244291754,-0.0013804244291749,0.0013804244639111,0.75063324181687,0.69254492219304,1368840,32768,0.0058468083150431,0.0058468083150431,0.0058468083151628,37.573923335379,37.563908078955,0.00021579138668303,0.00021579138668303,0.00021579138668303,238858.00505101,0.017695357954238
36460800,0.99999916720589,0.016915012993473,0.0056383376644521,0.0056383376644521,0.0056383376645686,-0.0014070259104842,0.0014070259100038,-1.8301937653074e-11,1.7822867700096e-11,3.5346199609629e-13,-8.4266069847056e-13,-0.0014315764973198,0.001431576485345,-0.0014315764854207,0.001431576497244,-0.0014315764977817,0.0014315764847664,-0.0014315764856461,0.0014315764969019,-0.0013800734525398,0.0013800734166716,-0.001380073417552,0.0013800734516593,5.1937178060744e-14,1.2680916577291e-12,6.9164111532398e-13,7.0011396494013e-13,-0.0014070259097009,0.0014070259107871,-0.0014315764909107,0.001431576491664,-0.0014315764908178,0.0014315764918133,-0.0014315764904197,0.0014315764922183,-0.001431576490507,0.0014315764920747,-0.0013800734337903,0.0013800734353647,-0.0013800734337621,0.0013800734352683,-0.0013800734345228,0.0013800734345393,-0.0013800734334648,0.0013800734355549,1.7798365242747e-11,-1.7798799288311e-11,-0.0014070259102731,0.0014070259102727,3.9732683252624e-15,-4.4669223621175e-15,-0.0014315764854753,0.0014315764974829,-0.0014315764853092,0.0014315764973112,-0.0014315764974783,0.0014315764854754,-0.001431576497316,0.0014315764853075,-0.001380073451857,0.0013800734171103,-0.0013800734171097,0.0013800734518499,0.74886371703854,0.67359142674518,1368840,32768,0.0058454427630775,0.0058454427630775,0.0058454427631972,37.427627853643,37.417601579673,0.00021462102282914,0.00021462102282914,0.00021462102282914,240009.83758232,0.017691188922401
36547200,0.99999921448014,0.016915013758301,0.0056383379193949,0.0056383379193949,0.0056383379195114,-0.0014066949075848,0.001406694907104,-1.8302791950505e-11,1.7823446623587e-11,3.5331375062509e-13,-8.4281460553351e-13,-0.0014312700427135,0.0014312700307379,-0.001431270030814,0.0014312700426373,-0.0014312700431753,0.0014312700301593,-0.0014312700310394,0.0014312700422953,-0.0013797206930903,0.0013797206572204,-0.001379720658101,0.0013797206922095,5.1788094379854e-14,1.2679533678361e-12,6.9149399849477e-13,6.9995480803755e-13,-0.0014066949068015,0.0014066949078874,-0.0014312700363043,0.0014312700370573,-0.0014312700362114,0.0014312700372065,-0.0014312700358133,0.0014312700376115,-0.0014312700359006,0.0014312700374679,-0.0013797206743401,0.0013797206759143,-0.001379720674312,0.0013797206758178,-0.0013797206750727,0.001379720675089,-0.0013797206740148,0.0013797206761045,1.7799083514922e-11,-1.7799529552767e-11,-0.0014066949073735,0.0014066949073731,3.9665920586295e-15,-4.4610401888726e-15,-0.0014312700308684,0.0014312700428766,-0.0014312700307023,0.0014312700427048,-0.001431270042872,0.0014312700308685,-0.0014312700427096,0.0014312700307006,-0.0013797206924075,0.0013797206576593,-0.0013797206576587,0.0013797206924004,0.73751417113601,0.51734844106458,1368840,32768,0.005844071593939,0.0058440715939391,0.0058440715940588,37.281316794557,37.271295080391,0.00021345053435645,0.00021345053435645,0.00021345053435645,241218.94063873,0.017687002750292
36633600,0.99999925872709,0.01691501447036,0.0056383381567477,0.0056383381567477,0.0056383381568642,-0.0014059953565822,0.001405995356099,-1.8305381003764e-11,1.7823632294386e-11,3.52090185063e-13,-8.4400348097888e-13,-0.0014307806765942,0.0014307806646157,-0.0014307806646941,0.0014307806765157,-0.0014307806770561,0.0014307806640376,-0.00143078066492,0.0014307806761737,-0.0013788300958895,0.0013788300600141,-0.0013788300608972,0.0013788300950064,5.0776831155604e-14,1.2669522366553e-12,6.9039083366629e-13,6.9884969473918e-13,-0.0014059953557987,0.0014059953568826,-0.0014307806701845,0.0014307806709352,-0.0014307806700923,0.0014307806710846,-0.0014307806696942,0.0014307806714896,-0.0014307806697808,0.0014307806713459,-0.0013788300771372,0.0013788300787098,-0.0013788300771094,0.0013788300786136,-0.0013788300778699,0.0013788300778848,-0.0013788300768121,0.0013788300789005,1.7800532264782e-11,-1.7800960486994e-11,-0.0014059953563698,0.0014059953563693,3.9661288374865e-15,-4.4599225759561e-15,-0.0014307806647471,0.0014307806767564,-0.001430780664581,0.0014307806765846,-0.0014307806767517,0.0014307806647473,-0.0014307806765894,0.0014307806645793,-0.0013788300952058,0.0013788300604545,-0.0013788300604539,0.0013788300951988,0.73361145416191,0.48156401590332,1368840,32768,0.0058411734941323,0.0058411734941323,0.0058411734942522,37.135005437447,37.124988581109,0.00021228004349957,0.00021228004349957,0.00021228004349957,253157.282534,0.01767815572433
36720000,0.99999930015936,0.016915015140812,0.0056383383802317,0.0056383383802317,0.0056383383803482,-0.001405602054531,0.0014056020540472,-1.8307531041023e-11,1.7825130307446e-11,3.5175131306237e-13,-8.4431335386542e-13,-0.0014304452510346,0.0014304452390543,-0.0014304452391334,0.0014304452509555,-0.0014304452514965,0.0014304452384763,-0.0014304452393594,0.0014304452506135,-0.0013783860582145,0.0013783860223348,-0.0013783860232185,0.0013783860573308,5.0493163350872e-14,1.2666510804143e-12,6.9007971633247e-13,6.9853313088058e-13,-0.0014056020537474,0.0014056020548307,-0.0014304452446243,0.0014304452453743,-0.0014304452445323,0.0014304452455238,-0.0014304452441342,0.0014304452459288,-0.0014304452442206,0.001430445245785,-0.0013783860394604,0.0013783860410325,-0.0013783860394326,0.0013783860409363,-0.0013783860401931,0.0013783860402076,-0.0013783860391354,0.0013783860412232,1.7802378384854e-11,-1.7802806298253e-11,-0.0014056020543182,0.0014056020543178,3.9664964733143e-15,-4.4540698135775e-15,-0.001430445239186,0.0014304452511965,-0.0014304452390198,0.0014304452510247,-0.0014304452511919,0.0014304452391862,-0.0014304452510295,0.0014304452390181,-0.0013783860575307,0.0013783860227757,-0.0013783860227751,0.0013783860575236,0.73780776441389,0.56834652841547,1368840,32768,0.0058395442312754,0.0058395442312754,0.0058395442313954,36.988694310967,36.978682081827,0.00021110955448774,0.00021110955448774,0.00021110955448774,256340.62937724,0.017673181710473
36806400,0.99999933897346,0.016915015760234,0.005638338586706,0.005638338586706,0.0056383385868225,-0.0014055549582517,0.0014055549577692,-1.8308090318055e-11,1.7826998397436e-11,3.5242274843283e-13,-8.436615208373e-13,-0.0014302817958469,0.0014302817838669,-0.0014302817839446,0.0014302817957691,-0.0014302817963088,0.0014302817832887,-0.0014302817841704,0.0014302817954271,-0.0013784487409343,0.0013784487050538,-0.0013784487059362,0.0013784487400519,5.1023294214562e-14,1.2671754283664e-12,6.9067686720757e-13,6.991321566984e-13,-0.0014055549574683,0.0014055549585526,-0.0014302817894362,0.0014302817901874,-0.0014302817893438,0.0014302817903368,-0.0014302817889456,0.0014302817907418,-0.0014302817890325,0.0014302817905981,-0.0013784487221794,0.0013784487237523,-0.0013784487221514,0.001378448723656,-0.001378448722912,0.0013784487229272,-0.0013784487218542,0.0013784487239428,1.7803566113276e-11,-1.7804003313155e-11,-0.0014055549580396,0.0014055549580391,3.9665994113461e-15,-4.4560109307483e-15,-0.001430281783998,0.0014302817960093,-0.0014302817838319,0.0014302817958375,-0.0014302817960046,0.0014302817839982,-0.0014302817958423,0.0014302817838302,-0.0013784487402509,0.0013784487054938,-0.0013784487054932,0.0013784487402438,0.72764537889755,0.43194025391056,1368840,32768,0.0058393493349765,0.0058393493349765,0.0058393493350964,36.842382829079,36.832375582545,0.00020993906263263,0.00020993906263263,0.00020993906263263,249437.35675224,0.017672586000299
36892800,0.99999937558064,0.016915016347975,0.0056383387826196,0.0056383387826196,0.0056383387827362,-0.0014051071700475,0.0014051071695628,-1.8310495700455e-11,1.7827160892472e-11,3.5128073920278e-13,-8.4477457506955e-13,-0.001430029842117,0.0014300298301342,-0.0014300298302142,0.0014300298420369,-0.0014300298425789,0.0014300298295564,-0.0014300298304404,0.0014300298416949,-0.0013778226724846,0.0013778226365989,-0.0013778226374836,0.0013778226715999,5.0048323999233e-14,1.2662091784729e-12,6.8960954135776e-13,6.9807226260685e-13,-0.001405107169264,0.0014051071703464,-0.0014300298357059,0.001430029836455,-0.0014300298356141,0.0014300298366045,-0.001430029835216,0.0014300298370095,-0.0014300298353022,0.0014300298368656,-0.0013778226537278,0.0013778226552991,-0.0013778226537001,0.001377822655203,-0.0013778226544605,0.0013778226544744,-0.0013778226534029,0.00137782265549,1.7804892631575e-11,-1.7805326258034e-11,-0.0014051071698343,0.0014051071698339,3.9704669402545e-15,-4.4573344197284e-15,-0.0014300298302663,0.0014300298422785,-0.0014300298301001,0.0014300298421067,-0.0014300298422739,0.0014300298302664,-0.0014300298421115,0.0014300298300984,-0.0013778226718004,0.0013778226370404,-0.0013778226370398,0.0013778226717933,0.7319988499289,0.52015280790738,1368840,32768,0.0058374941607768,0.0058374941607768,0.0058374941608967,36.814515137526,36.812326902646,0.0002097161211002,0.0002097161211002,0.0002097161211002,260763.84140008,0.017666923012626
36979200,0.99999941040321,0.01691501691053,0.0056383389701379,0.0056383389701379,0.0056383389702544,-0.0014056121774429,0.0014056121769596,-1.8311185561733e-11,1.7829242887692e-11,3.5198990871461e-13,-8.4409050773204e-13,-0.0014304060894402,0.0014304060774577,-0.0014304060775363,0.0014304060893616,-0.0014304060899022,0.0014304060768797,-0.0014304060777623,0.0014304060890196,-0.0013784479103466,0.0013784478744599,-0.0013784478753432,0.0013784479094634,5.0621865301469e-14,1.2667848300048e-12,6.9026208208485e-13,6.9871688997275e-13,-0.0014056121766594,0.001405612177743,-0.0014304060830287,0.0014304060837791,-0.0014304060829365,0.0014304060839285,-0.0014304060825384,0.0014304060843336,-0.001430406082625,0.0014304060841898,-0.0013784478915888,0.0013784478931611,-0.001378447891561,0.0013784478930649,-0.0013784478923215,0.0013784478923361,-0.0013784478912637,0.0013784478933518,1.7806267501339e-11,-1.7806697341149e-11,-0.0014056121772304,0.0014056121772299,3.9677464351288e-15,-4.4547756743669e-15,-0.0014304060775893,0.0014304060896023,-0.0014304060774231,0.0014304060894305,-0.0014304060895977,0.0014304060775894,-0.0014304060894353,0.0014304060774214,-0.0013784479096628,0.0013784478749004,-0.0013784478748998,0.0013784479096558,0.7366773745977,0.6083653619042,1368840,32768,0.0058395863202089,0.0058395863202089,0.0058395863203288,36.94634732583,36.954970510237,0.00021077077860664,0.00021077077860664,0.00021077077860664,253271.65107417,0.017673309636778
37065600,0.99999944353147,0.016915017449482,0.0056383391497886,0.0056383391497886,0.0056383391499051,-0.001406121790524,0.0014061217900419,-1.8311873467188e-11,1.7831238944361e-11,3.526616676046e-13,-8.4343605713682e-13,-0.0014307975527523,0.00143079754077,-0.0014307975408474,0.001430797552675,-0.0014307975532143,0.0014307975401917,-0.001430797541073,0.001430797552333,-0.0013790686387966,0.0013790686029087,-0.0013790686037907,0.0013790686379146,5.116296641826e-14,1.2673171630071e-12,6.9086761873318e-13,6.99320106839e-13,-0.0014061217897406,0.0014061217908253,-0.0014307975463403,0.001430797547092,-0.0014307975462478,0.0014307975472414,-0.0014307975458496,0.0014307975476464,-0.0014307975459366,0.0014307975475027,-0.0013790686200379,0.001379068621611,-0.0013790686200098,0.0013790686215146,-0.0013790686207705,0.0013790686207857,-0.0013790686197125,0.0013790686218014,1.7807583431726e-11,-1.7808015425882e-11,-0.001406121790312,0.0014061217903116,3.9692096257235e-15,-4.4504816878982e-15,-0.001430797540901,0.0014307975529149,-0.0014307975407349,0.0014307975527431,-0.0014307975529103,0.0014307975409012,-0.0014307975527479,0.0014307975407332,-0.0013790686381132,0.0013790686033483,-0.0013790686033478,0.0013790686381061,0.7417914474366,0.69657791590101,1368840,32768,0.0058416975289025,0.0058416975289025,0.0058416975290223,37.087964937259,37.097614117828,0.00021190371949807,0.00021190371949807,0.00021190371949807,246302.15583584,0.0176797545585
37152000,0.99999947503504,0.016915017966382,0.0056383393220885,0.0056383393220885,0.005638339322205,-0.0014066200325609,0.0014066200320801,-1.8312526211953e-11,1.7833180061531e-11,3.5331635348675e-13,-8.427885769169e-13,-0.0014311841842426,0.0014311841722605,-0.0014311841723366,0.0014311841841665,-0.0014311841847046,0.001431184171682,-0.001431184172562,0.0014311841838245,-0.0013796712235564,0.0013796711876676,-0.0013796711885483,0.0013796712226757,5.169947943992e-14,1.2678358015748e-12,6.9146190756336e-13,6.999073977212e-13,-0.0014066200317776,0.0014066200328634,-0.0014311841778301,0.0014311841785831,-0.0014311841777372,0.0014311841787323,-0.0014311841773391,0.0014311841791373,-0.0014311841774264,0.0014311841789937,-0.0013796712047968,0.0013796712063708,-0.0013796712047686,0.0013796712062743,-0.0013796712055294,0.0013796712055453,-0.0013796712044713,0.0013796712065609,1.7808861304453e-11,-1.7809283820957e-11,-0.0014066200323496,0.0014066200323491,3.9647171159077e-15,-4.4482464620652e-15,-0.001431184172391,0.0014311841844056,-0.0014311841722249,0.0014311841842339,-0.001431184184401,0.0014311841723912,-0.0014311841842387,0.0014311841722232,-0.0013796712228734,0.0013796711881063,-0.0013796711881058,0.0013796712228663,0.74806143896187,0.78479046989783,1368840,32768,0.0058437616130335,0.0058437616130335,0.0058437616131532,37.230498733634,37.240257725419,0.00021304398986907,0.00021304398986907,0.00021304398986907,239718.08382399,0.017686055704233
37238400,0.99999950497992,0.016915018463087,0.0056383394876567,0.0056383394876567,0.0056383394877732,-0.0014071085189826,0.0014071085185031,-1.831363770741e-11,1.7835543430509e-11,3.5395468692728e-13,-8.421596255427e-13,-0.001431564854266,0.0014315648422839,-0.0014315648423587,0.0014315648541912,-0.001431564854728,0.0014315648417051,-0.0014315648425839,0.0014315648538492,-0.0013802577332051,0.0013802576973144,-0.0013802576981938,0.0013802577323257,5.2237668880955e-14,1.2683595355751e-12,6.9204212697041e-13,7.0048923288771e-13,-0.0014071085181994,0.0014071085192864,-0.0014315648478529,0.0014315648486071,-0.0014315648477597,0.0014315648487563,-0.0014315648473616,0.0014315648491613,-0.0014315648474492,0.0014315648490177,-0.0013802577144442,0.001380257716019,-0.0013802577144158,0.0013802577159224,-0.0013802577151766,0.0013802577151933,-0.0013802577141185,0.0013802577162089,1.7810571722789e-11,-1.7810994489285e-11,-0.0014071085187719,0.0014071085187715,3.965937666856e-15,-4.4482170511989e-15,-0.0014315648424138,0.0014315648544295,-0.0014315648422477,0.0014315648542578,-0.0014315648544249,0.001431564842414,-0.0014315648542626,0.001431564842246,-0.0013802577325225,0.0013802576977523,-0.0013802576977517,0.0013802577325154,0.75619177494046,0.87300302389465,1368840,32768,0.0058457852547673,0.0058457852547673,0.0058457852548868,37.373122186745,37.38290133301,0.00021418497749396,0.00021418497749396,0.00021418497749396,233315.7713394,0.017692233504453
37324800,0.99999953343005,0.016915018932088,0.0056383396439906,0.0056383396439906,0.0056383396441071,-0.0014075896335257,0.0014075896330474,-1.8314512180695e-11,1.7837654689541e-11,3.5461354915243e-13,-8.4156408491252e-13,-0.0014319399760688,0.0014319399640868,-0.0014319399641603,0.0014319399759952,-0.0014319399765308,0.0014319399635077,-0.0014319399643853,0.0014319399756532,-0.0013808310696244,0.0013808310337322,-0.0013808310346104,0.0013808310687462,5.2818445256283e-14,1.2689787813634e-12,6.9265408805483e-13,7.0108099422157e-13,-0.0014075896327425,0.0014075896338306,-0.0014319399696552,0.0014319399704106,-0.0014319399695616,0.0014319399705597,-0.0014319399691635,0.0014319399709647,-0.0014319399692514,0.0014319399708212,-0.0013808310508624,0.0013808310524381,-0.0013808310508339,0.0013808310523414,-0.0013808310515946,0.0013808310516122,-0.0013808310505363,0.0013808310526279,1.781203344284e-11,-1.781245172418e-11,-0.0014075896333156,0.0014075896333151,3.9481661509401e-15,-4.4466288644228e-15,-0.0014319399642162,0.0014319399762328,-0.0014319399640501,0.001431939976061,-0.0014319399762281,0.0014319399642163,-0.0014319399760658,0.0014319399640484,-0.0013808310689423,0.0013808310341694,-0.0013808310341688,0.0013808310689352,0.75145807592688,0.76558456952602,1368840,32768,0.005847778319126,0.005847778319126,0.0058477783192455,37.515764415201,37.525544940601,0.0002153261153216,0.0002153261153216,0.0002153261153216,226935.75922158,0.017698318108819
37411200,0.99999956044741,0.016915019372532,0.0056383397908052,0.0056383397908052,0.0056383397909217,-0.0014076388678304,0.0014076388673508,-1.8316089206047e-11,1.7837918916763e-11,3.5391476167638e-13,-8.4221744730569e-13,-0.0014320977551163,0.0014320977431326,-0.0014320977432074,0.0014320977550415,-0.0014320977555784,0.0014320977425538,-0.0014320977434327,0.0014320977546994,-0.0013807768403687,0.0013807768044731,-0.0013807768053526,0.0013807768394891,5.2311637209509e-14,1.2684565252592e-12,6.9204859736098e-13,7.004416166953e-13,-0.0014076388670471,0.0014076388681341,-0.0014320977487025,0.0014320977494566,-0.0014320977486093,0.0014320977496058,-0.0014320977482111,0.0014320977500108,-0.0014320977482987,0.0014320977498674,-0.0013807768216054,0.0013807768231802,-0.0013807768215772,0.0013807768230835,-0.0013807768223376,0.0013807768223544,-0.0013807768212795,0.0013807768233702,1.7812972472977e-11,-1.7813368968217e-11,-0.0014076388676197,0.0014076388676192,3.936475331616e-15,-4.4242471952263e-15,-0.0014320977432626,0.0014320977552799,-0.0014320977430965,0.0014320977551082,-0.0014320977552752,0.0014320977432628,-0.001432097755113,0.0014320977430948,-0.001380776839686,0.0013807768049112,-0.0013807768049105,0.001380776839679,0.74304626649689,0.63706424169366,1368840,32768,0.0058479820402289,0.0058479820402289,0.0058479820403485,37.658406902343,37.668188548191,0.00021646725521874,0.00021646725521874,0.00021646725521874,232813.62815873,0.017698940889375
37497600,0.99999958609207,0.016915019788124,0.0056383399293358,0.0056383399293358,0.0056383399294523,-0.0014076057999774,0.0014076057994961,-1.8318335828591e-11,1.7838385873086e-11,3.5302017135844e-13,-8.4310465549621e-13,-0.0014322182976369,0.0014322182856507,-0.0014322182857273,0.0014322182975603,-0.0014322182980989,0.0014322182850723,-0.0014322182859529,0.0014322182972182,-0.0013806027619535,0.0013806027260531,-0.0013806027269344,0.0013806027610722,5.154463122925e-14,1.267715470692e-12,6.912668252877e-13,6.9966165522846e-13,-0.001407605799194,0.0014076058002795,-0.0014322182912226,0.001432218291975,-0.0014322182911299,0.0014322182921243,-0.0014322182907317,0.0014322182925294,-0.0014322182908189,0.0014322182923857,-0.0013806027431882,0.0013806027447621,-0.0013806027431602,0.0013806027446656,-0.0013806027439208,0.0013806027439367,-0.0013806027428628,0.0013806027449523,1.7814355871892e-11,-1.7814761322741e-11,-0.0014076057997658,0.0014076057997654,3.9485264340513e-15,-4.4138945703154e-15,-0.0014322182857814,0.0014322182977998,-0.0014322182856153,0.001432218297628,-0.0014322182977951,0.0014322182857816,-0.0014322182976328,0.0014322182856136,-0.0013806027612704,0.0013806027264924,-0.0013806027264918,0.0013806027612633,0.73870642399375,0.58517435017954,1368840,32768,0.0058478448267485,0.0058478448267485,0.0058478448268683,37.801047225888,37.810832155782,0.0002176083778071,0.0002176083778071,0.0002176083778071,241418.6994061,0.017698522797331
37584000,0.99999961042227,0.016915020180256,0.0056383400600464,0.0056383400600464,0.0056383400601629,-0.0014077426591369,0.0014077426586547,-1.8320336017487e-11,1.7839572042731e-11,3.5260878686713e-13,-8.4351673114288e-13,-0.0014324258918624,0.0014324258798744,-0.0014324258799519,0.001432425891785,-0.0014324258923244,0.0014324258792962,-0.0014324258801776,0.0014324258914429,-0.0013806757554624,0.0013806757195579,-0.00138067572044,0.0013806757545803,5.1191906710625e-14,1.2673790839095e-12,6.9089144704936e-13,6.9928951953813e-13,-0.0014077426583535,0.0014077426594382,-0.0014324258854476,0.0014324258861992,-0.0014324258853551,0.0014324258863486,-0.0014324258849569,0.0014324258867536,-0.0014324258850439,0.0014324258866099,-0.0013806757366953,0.0013806757382686,-0.0013806757366674,0.0013806757381722,-0.001380675737428,0.0013806757374434,-0.0013806757363701,0.001380675738459,1.7815968646152e-11,-1.7816375788126e-11,-0.0014077426589249,0.0014077426589245,3.9499087447639e-15,-4.4153651136266e-15,-0.0014324258800055,0.0014324258920249,-0.0014324258798393,0.0014324258918532,-0.0014324258920203,0.0014324258800056,-0.001432425891858,0.0014324258798377,-0.001380675754779,0.0013806757199977,-0.0013806757199971,0.001380675754772,0.73474886460461,0.54243370808786,1368840,32768,0.0058484116651387,0.0058484116651387,0.0058484116652585,37.943687177498,37.953475763373,0.00021874949741998,0.00021874949741998,0.00021874949741998,245313.4570881,0.01770025370648
37670400,0.99999963336523,0.016915020547966,0.0056383401826165,0.0056383401826165,0.005638340182733,-0.0014076910990985,0.0014076910986157,-1.8322473996291e-11,1.7841002351978e-11,3.5225409182047e-13,-8.438763378042e-13,-0.0014324391603573,0.0014324391483675,-0.0014324391484457,0.0014324391602791,-0.0014324391608192,0.0014324391477894,-0.0014324391486715,0.0014324391599371,-0.0013805669289229,0.0013805668930141,-0.001380566893897,0.0013805669280401,5.0873416440284e-14,1.2670785967657e-12,6.9055688190245e-13,6.9895857376594e-13,-0.0014076910983151,0.0014076910993992,-0.0014324391539419,0.0014324391546928,-0.0014324391538496,0.0014324391548422,-0.0014324391534514,0.0014324391552473,-0.0014324391535382,0.0014324391551035,-0.0013805669101539,0.0013805669117267,-0.0013805669101261,0.0013805669116304,-0.0013805669108866,0.0013805669109016,-0.0013805669098288,0.0013805669119173,1.7817771855771e-11,-1.7818180946215e-11,-0.0014076910988862,0.0014076910988858,3.9514013462248e-15,-4.4177179829245e-15,-0.0014324391484989,0.0014324391605196,-0.0014324391483327,0.0014324391603478,-0.0014324391605149,0.001432439148499,-0.0014324391603526,0.001432439148331,-0.0013805669282393,0.0013805668934544,-0.0013805668934538,0.0013805669282323,0.73067330424566,0.49969306599618,1368840,32768,0.0058481980128621,0.0058481980128621,0.005848198012982,37.979346745305,37.982050849136,0.00021903477396244,0.00021903477396244,0.00021903477396244,248790.70565806,0.017699601670935
37756800,0.99999965484726,0.016915020890294,0.0056383402967259,0.0056383402967259,0.0056383402968424,-0.0014073785480933,0.0014073785476097,-1.8324464920763e-11,1.7842263725208e-11,3.5188716185346e-13,-8.4424573828397e-13,-0.0014321947381472,0.0014321947261558,-0.0014321947262346,0.0014321947380684,-0.0014321947386092,0.0014321947255777,-0.0014321947264606,0.0014321947377263,-0.0013801946635432,0.0013801946276304,-0.0013801946285139,0.0013801946626596,5.0542132443136e-14,1.2667622351068e-12,6.9021094761757e-13,6.9861334901821e-13,-0.0014073785473097,0.0014073785483932,-0.0014321947317313,0.0014321947324815,-0.0014321947316392,0.001432194732631,-0.001432194731241,0.001432194733036,-0.0014321947313276,0.0014321947328922,-0.0013801946447724,0.0013801946463447,-0.0013801946447446,0.0013801946462484,-0.0013801946455052,0.0013801946455197,-0.0013801946444473,0.0013801946465353,1.7819420952451e-11,-1.781982732239e-11,-0.0014073785478806,0.0014073785478802,3.9520483852817e-15,-4.4175415177272e-15,-0.0014321947262874,0.0014321947383092,-0.0014321947261212,0.0014321947381374,-0.0014321947383046,0.0014321947262875,-0.0014321947381422,0.0014321947261196,-0.0013801946628593,0.0013801946280711,-0.0013801946280705,0.0013801946628523,0.72651025465521,0.4569524239045,1368840,32768,0.0058469032360858,0.0058469032360858,0.0058469032362057,37.882283131636,37.875956058269,0.00021825826505308,0.00021825826505308,0.00021825826505308,252450.61831343,0.017695648874777
37843200,0.99999967495903,0.01691502120942,0.005638340403101,0.005638340403101,0.0056383404032175,-0.0014070454829524,0.001407045482468,-1.8326834642488e-11,1.784387147021e-11,3.5151324680572e-13,-8.4463972624791e-13,-0.0014319289870187,0.0014319289750252,-0.0014319289751048,0.0014319289869391,-0.0014319289874807,0.0014319289744473,-0.001431928975331,0.001431928986597,-0.0013798021378002,0.0013798021018826,-0.001379802102767,0.0013798021369159,5.0199025277765e-14,1.2664526195653e-12,6.8986146380876e-13,6.9825918336714e-13,-0.0014070454821688,0.0014070454832516,-0.0014319289806021,0.0014319289813516,-0.0014319289805102,0.0014319289815011,-0.001431928980112,0.0014319289819061,-0.0014319289801984,0.0014319289817623,-0.0013798021190273,0.0013798021205991,-0.0013798021189996,0.0013798021205028,-0.0013798021197601,0.0013798021197741,-0.0013798021187023,0.0013798021207898,1.7821432743933e-11,-1.7821839040345e-11,-0.0014070454827394,0.0014070454827389,3.9504234349228e-15,-4.4148063071683e-15,-0.0014319289751572,0.0014319289871804,-0.001431928974991,0.0014319289870086,-0.0014319289871758,0.0014319289751573,-0.0014319289870134,0.0014319289749893,-0.0013798021371161,0.0013798021023238,-0.0013798021023232,0.0013798021371091,0.7234419265957,0.43132005729132,1368840,32768,0.0058455234873829,0.0058455234873829,0.0058455234875029,37.77704167584,37.769861267401,0.00021741633340672,0.00021741633340672,0.00021741633340672,256198.37559062,0.017691436629847
37929600,0.99999969379353,0.016915021510236,0.0056383405033731,0.0056383405033731,0.0056383405034896,-0.001406757778025,0.0014067577775401,-1.8328404638643e-11,1.784494979021e-11,3.5127412175788e-13,-8.4488986566515e-13,-0.0014316846819537,0.001431684669959,-0.0014316846700391,0.0014316846818736,-0.0014316846824157,0.0014316846693812,-0.0014316846702653,0.0014316846815316,-0.0013794770387826,0.0013794770028618,-0.0013794770037466,0.0013794770378978,4.9966679434595e-14,1.2662390746184e-12,6.8961933701439e-13,6.9802507287199e-13,-0.0014067577772414,0.0014067577783237,-0.0014316846755367,0.0014316846762857,-0.0014316846754449,0.0014316846764352,-0.0014316846750468,0.0014316846768403,-0.001431684675133,0.0014316846766964,-0.0013794770200082,0.0013794770215796,-0.0013794770199806,0.0013794770214834,-0.0013794770207411,0.0013794770207548,-0.0013794770196833,0.0013794770217705,1.7822771879494e-11,-1.782318444042e-11,-0.0014067577778117,0.0014067577778113,3.9529821802843e-15,-4.42001203049e-15,-0.0014316846700911,0.0014316846821153,-0.0014316846699249,0.0014316846819434,-0.0014316846821106,0.0014316846700913,-0.0014316846819482,0.0014316846699233,-0.0013794770380983,0.0013794770033033,-0.0013794770033027,0.0013794770380912,0.72823088075084,0.52548026821167,1368840,32768,0.0058443316706968,0.0058443316706968,0.0058443316708168,37.671030830758,37.663766476533,0.00021656824664606,0.00021656824664606,0.00021656824664606,258577.718822,0.017687798047687
38016000,0.99999971143777,0.016915021792635,0.0056383405975063,0.0056383405975063,0.0056383405976228,-0.0014068179565552,0.0014068179560718,-1.8329843932909e-11,1.7847854907343e-11,3.5202168715557e-13,-8.4416215260216e-13,-0.001431613027569,0.001431613015574,-0.0014316130156527,0.0014316130274903,-0.001431613028031,0.001431613014996,-0.0014316130158786,0.0014316130271483,-0.0013796611547758,0.0013796611188525,-0.0013796611197358,0.0013796611538924,5.0557043752311e-14,1.2668215421185e-12,6.9028641222394e-13,6.9869741997931e-13,-0.0014068179557717,0.0014068179568553,-0.0014316130211513,0.0014316130219017,-0.001431613021059,0.0014316130220511,-0.0014316130206609,0.0014316130224561,-0.0014316130207475,0.0014316130223123,-0.0013796611359997,0.001379661137572,-0.0013796611359719,0.0013796611374757,-0.0013796611367325,0.0013796611367469,-0.0013796611356746,0.0013796611377626,1.782491687279e-11,-1.7825326154404e-11,-0.0014068179563426,0.0014068179563422,3.9550188827703e-15,-4.4230119388449e-15,-0.0014316130157056,0.0014316130277311,-0.0014316130155394,0.0014316130275593,-0.0014316130277265,0.0014316130157058,-0.0014316130275641,0.0014316130155378,-0.0013796611540919,0.001379661119293,-0.0013796611192924,0.0013796611540848,0.72979385167423,0.56198697248515,1368840,32768,0.0058445811629361,0.0058445811629361,0.0058445811630559,37.564942566057,37.557671685665,0.00021571954052845,0.00021571954052845,0.00021571954052845,250749.11192922,0.017688559028015
38102400,0.99999972797254,0.016915022057454,0.0056383406857792,0.0056383406857792,0.0056383406858958,-0.001406710898399,0.0014067108979162,-1.8331679582713e-11,1.7850231158279e-11,3.5229889927516e-13,-8.4389280788928e-13,-0.0014314571738023,0.0014314571618064,-0.0014314571618845,0.0014314571737242,-0.0014314571742643,0.0014314571612282,-0.0014314571621103,0.0014314571733821,-0.0013796008827309,0.0013796008468042,-0.001379600847687,0.0013796008818481,5.0773654782052e-14,1.2670348995712e-12,6.9053026506852e-13,6.9894283895251e-13,-0.0014067108976156,0.0014067108986996,-0.0014314571673838,0.0014314571681347,-0.0014314571672915,0.0014314571682841,-0.0014314571668933,0.0014314571686892,-0.0014314571669801,0.0014314571685454,-0.001379600863953,0.0013796008655256,-0.0013796008639251,0.0013796008654293,-0.0013796008646858,0.0013796008647004,-0.0013796008636277,0.0013796008657161,1.7827012044078e-11,-1.7827423685914e-11,-0.0014067108981867,0.0014067108981863,3.9550703517862e-15,-4.4248942342832e-15,-0.0014314571619377,0.0014314571739646,-0.0014314571617715,0.0014314571737928,-0.0014314571739599,0.0014314571619379,-0.0014314571737975,0.0014314571617699,-0.0013796008820472,0.0013796008472443,-0.0013796008472437,0.0013796008820402,0.73019941945177,0.57718443256635,1368840,32768,0.0058441377667515,0.0058441377667515,0.0058441377668713,37.458846341389,37.451576894797,0.00021487077073111,0.00021487077073111,0.00021487077073111,247763.60833589,0.017687205029602
38188800,0.99999974347279,0.016915022305835,0.0056383407685727,0.0056383407685727,0.0056383407686892,-0.0014065462858988,0.0014065462854161,-1.8333635567077e-11,1.785240962114e-11,3.5241248404052e-13,-8.4378148776063e-13,-0.0014312722376516,0.0014312722256545,-0.0014312722257324,0.0014312722375737,-0.0014312722381136,0.0014312722250763,-0.0014312722259582,0.0014312722372317,-0.0013794564129594,0.0013794563770288,-0.0013794563779114,0.0013794564120768,5.0862946171908e-14,1.2671220108806e-12,6.9062888705568e-13,6.9904446820075e-13,-0.0014065462851153,0.0014065462861996,-0.0014312722312324,0.0014312722319836,-0.00143127223114,0.001431272232133,-0.0014312722307418,0.001431272232538,-0.0014312722308287,0.0014312722323943,-0.0013794563941795,0.0013794563957522,-0.0013794563941515,0.0013794563956559,-0.0013794563949122,0.0013794563949269,-0.0013794563938542,0.0013794563959427,1.78290750987e-11,-1.7829487064056e-11,-0.0014065462856865,0.0014065462856861,3.9562026701358e-15,-4.4267177079891e-15,-0.0014312722257857,0.0014312722378139,-0.0014312722256196,0.0014312722376422,-0.0014312722378093,0.0014312722257859,-0.0014312722376469,0.0014312722256179,-0.0013794564122757,0.0013794563774688,-0.0013794563774682,0.0013794564122686,0.73055192387053,0.59029928701812,1368840,32768,0.0058434559115897,0.0058434559115897,0.0058434559117094,37.352749311541,37.34548210393,0.00021402199449233,0.00021402199449233,0.00021402199449233,246426.56191799,0.01768512316704
38275200,0.99999975800811,0.01691502253889,0.0056383408462579,0.0056383408462579,0.0056383408463744,-0.0014063760770726,0.0014063760765901,-1.8335598139475e-11,1.7854563349463e-11,3.5250946637189e-13,-8.4368504953028e-13,-0.0014310844111355,0.0014310843991373,-0.0014310843992149,0.0014310844110578,-0.0014310844115976,0.001431084398559,-0.0014310843994407,0.0014310844107159,-0.0013793036050822,0.0013793035691478,-0.0013793035700302,0.0013793036041998,5.0941237897797e-14,1.2671966887463e-12,6.9071421165496e-13,6.991321566984e-13,-0.0014063760762892,0.0014063760773736,-0.0014310844047157,0.001431084405467,-0.0014310844046232,0.0014310844056164,-0.0014310844042251,0.0014310844060215,-0.001431084404312,0.0014310844058777,-0.0013793035863004,0.0013793035878732,-0.0013793035862723,0.0013793035877769,-0.0013793035870331,0.0013793035870479,-0.001379303585975,0.0013793035880636,1.7831128977132e-11,-1.7831542001279e-11,-0.0014063760768605,0.00140637607686,3.9569894108073e-15,-4.4283353056314e-15,-0.0014310843992684,0.001431084411298,-0.0014310843991023,0.0014310844111262,-0.0014310844112934,0.0014310843992686,-0.001431084411131,0.0014310843991006,-0.0013793036043986,0.0013793035695877,-0.0013793035695871,0.0013793036043915,0.73097102081584,0.60341414146988,1368840,32768,0.0058427508682469,0.0058427508682469,0.0058427508683666,37.246652217647,37.239387313062,0.00021317321774117,0.00021317321774117,0.00021317321774117,245244.57413191,0.017682970533297
38361600,0.99999977168397,0.0169150227596,0.0056383409198278,0.0056383409198278,0.0056383409199443,-0.0014063150612639,0.0014063150607816,-1.8336751810113e-11,1.7855907396639e-11,3.526109044495e-13,-8.4358714075662e-13,-0.0014310042406421,0.0014310042286432,-0.0014310042287207,0.0014310042405646,-0.0014310042411042,0.0014310042280649,-0.0014310042289464,0.0014310042402226,-0.001379260811419,0.0013792607754824,-0.0013792607763646,0.0013792608105367,5.1021382508257e-14,1.2672772009926e-12,6.9080017226422e-13,6.992227568718e-13,-0.0014063150604805,0.001406315061565,-0.0014310042342219,0.0014310042349734,-0.0014310042341294,0.0014310042351228,-0.0014310042337312,0.0014310042355278,-0.0014310042338182,0.0014310042353841,-0.001379260792636,0.0013792607942089,-0.0013792607926079,0.0013792607941126,-0.0013792607933687,0.0013792607933836,-0.0013792607923106,0.0013792607943993,1.7832375968449e-11,-1.7832784573613e-11,-0.0014063150610518,0.0014063150610514,3.9609084087317e-15,-4.4283058947652e-15,-0.0014310042287743,0.0014310042408047,-0.0014310042286081,0.0014310042406329,-0.0014310042408,0.0014310042287744,-0.0014310042406377,0.0014310042286065,-0.0013792608107354,0.0013792607759221,-0.0013792607759215,0.0013792608107284,0.73575591707201,0.68645999815632,1368840,32768,0.0058424981474703,0.0058424981474703,0.00584249814759,37.197134109288,37.19360843,0.00021277707287431,0.00021277707287431,0.00021277707287431,244024.08366577,0.017682198850089
38448000,0.99999978458477,0.016915022970026,0.0056383409899699,0.0056383409899699,0.0056383409900864,-0.0014065168067841,0.001406516806303,-1.8337396011022e-11,1.785773987007e-11,3.5321663594482e-13,-8.4298601206186e-13,-0.0014311007987787,0.00143110078678,-0.0014311007868563,0.0014311007987024,-0.0014311007992408,0.0014311007862014,-0.0014311007870818,0.0014311007983604,-0.0013795600518146,0.0013795600158769,-0.001379560016758,0.0013795600509335,5.1526308259593e-14,1.2677630060045e-12,6.9134786141504e-13,6.9977516646666e-13,-0.0014065168060008,0.0014065168070864,-0.0014311007923581,0.0014311007931107,-0.0014311007922652,0.00143110079326,-0.001431100791867,0.0014311007936651,-0.0014311007919543,0.0014311007935214,-0.0013795600330307,0.0013795600346044,-0.0013795600330025,0.0013795600345079,-0.0013795600337633,0.0013795600337788,-0.0013795600327051,0.0013795600347946,1.7833591725426e-11,-1.7834002536405e-11,-0.0014065168065726,0.0014065168065722,3.9595555088854e-15,-4.4348645179332e-15,-0.0014311007869106,0.0014311007989417,-0.0014311007867444,0.0014311007987699,-0.0014311007989371,0.0014311007869107,-0.0014311007987747,0.0014311007867428,-0.0013795600511314,0.0013795600163159,-0.0013795600163152,0.0013795600511243,0.74362262829662,0.79944244,1368840,32768,0.0058433340188795,0.0058433340188795,0.0058433340189991,37.193944838675,37.19360843,0.0002127515587094,0.0002127515587094,0.0002127515587094,237840.88176541,0.017684750225815
38534400,0.99999979675642,0.016915023169175,0.0056383410563529,0.0056383410563529,0.0056383410564694,-0.0014067831489476,0.0014067831484681,-1.8338134753159e-11,1.7860060005074e-11,3.540087882157e-13,-8.4219050695223e-13,-0.0014312326149684,0.00143123260297,-0.0014312326030447,0.0014312326148937,-0.0014312326154305,0.0014312326023912,-0.00143123260327,0.0014312326145517,-0.0013799482448405,0.0013799482089018,-0.0013799482097812,0.001379948243961,5.2201522926366e-14,1.2684050599196e-12,6.92075030377e-13,7.0050133545916e-13,-0.0014067831481644,0.0014067831492514,-0.0014312326085472,0.0014312326093014,-0.0014312326084539,0.0014312326094506,-0.0014312326080558,0.0014312326098556,-0.0014312326081435,0.0014312326097121,-0.0013799482260556,0.0013799482276304,-0.0013799482260272,0.0013799482275338,-0.0013799482267881,0.0013799482268045,-0.0013799482257298,0.0013799482278203,1.7835087356206e-11,-1.7835503549374e-11,-0.0014067831487369,0.0014067831487365,3.9598790284139e-15,-4.4338057267491e-15,-0.0014312326031,0.001431232615132,-0.0014312326029339,0.0014312326149602,-0.0014312326151274,0.0014312326031001,-0.001431232614965,0.0014312326029322,-0.0013799482441578,0.0013799482093396,-0.001379948209339,0.0013799482441507,0.7458701859443,0.79944244,1368840,32768,0.0058444374974101,0.0058444374974101,0.0058444374975296,37.193642424471,37.19360843,0.00021274913939576,0.00021274913939576,0.00021274913939576,229897.160381,0.017688118543389
38620800,0.99999980824032,0.016915023357579,0.0056383411191541,0.0056383411191541,0.0056383411192706,-0.0014067941602838,0.0014067941598044,-1.8339389450123e-11,1.786141699303e-11,3.5405461034528e-13,-8.4213618508232e-13,-0.0014312343023834,0.0014312342903842,-0.0014312342904588,0.0014312343023087,-0.0014312343028454,0.0014312342898054,-0.0014312342906841,0.0014312343019668,-0.0013799632469701,0.0013799632110289,-0.0013799632119082,0.0013799632460907,5.2288814377319e-14,1.2684830759186e-12,6.9213998795141e-13,7.0056964219597e-13,-0.0014067941595006,0.0014067941605877,-0.0014312342959617,0.0014312342967161,-0.0014312342958685,0.0014312342968652,-0.0014312342954703,0.0014312342972703,-0.001431234295558,0.0014312342971267,-0.0013799632281839,0.0013799632297588,-0.0013799632281554,0.0013799632296622,-0.0013799632289163,0.001379963228933,-0.0013799632278581,0.0013799632299487,1.7836377963838e-11,-1.7836795642254e-11,-0.0014067941600732,0.0014067941600727,3.9605922419198e-15,-4.4363350612444e-15,-0.0014312342905141,0.001431234302547,-0.001431234290348,0.0014312343023753,-0.0014312343025424,0.0014312342905143,-0.00143123430238,0.0014312342903463,-0.0013799632462874,0.0013799632114667,-0.0013799632114661,0.0013799632462804,0.74780418381303,0.79944244,1368840,32768,0.0058444830687107,0.0058444830687107,0.0058444830688301,37.193611914377,37.19360843,0.00021274889531501,0.00021274889531501,0.00021274889531501,229054.76675943,0.017688257817409
38707200,0.99999981907534,0.016915023535737,0.0056383411785403,0.0056383411785403,0.0056383411786568,-0.0014068030306284,0.0014068030301491,-1.8340645602925e-11,1.7862757981476e-11,3.5409182979648e-13,-8.4208909828549e-13,-0.0014312357031492,0.0014312356911492,-0.0014312356912238,0.0014312357030746,-0.0014312357036112,0.0014312356905704,-0.001431235691449,0.0014312357027327,-0.0013799750005085,0.0013799749645649,-0.0013799749654442,0.0013799749996293,5.2362988581936e-14,1.2685471033744e-12,6.9219262604924e-13,7.0062449346148e-13,-0.0014068030298452,0.0014068030309324,-0.0014312356967271,0.0014312356974815,-0.0014312356966338,0.0014312356976307,-0.0014312356962357,0.0014312356980357,-0.0014312356963234,0.0014312356978922,-0.0013799749817211,0.0013799749832961,-0.0013799749816927,0.0013799749831995,-0.0013799749824535,0.0013799749824704,-0.0013799749813953,0.001379974983486,1.7837665512739e-11,-1.7838082433826e-11,-0.0014068030304178,0.0014068030304174,3.9609745831807e-15,-4.4381879458165e-15,-0.0014312356912791,0.0014312357033128,-0.001431235691113,0.0014312357031411,-0.0014312357033082,0.0014312356912793,-0.0014312357031459,0.0014312356911113,-0.001379974999826,0.0013799749650027,-0.0013799749650021,0.0013799749998189,0.74948454171747,0.79944244,1368840,32768,0.005844519778572,0.005844519778572,0.0058445197786915,37.193608789179,37.19360843,0.00021274887031343,0.00021274887031343,0.00021274887031343,228329.93230057,0.017688370011703
38793600,0.99999982929815,0.01691502370416,0.0056383412346813,0.0056383412346813,0.0056383412347978,-0.0014068101181024,0.0014068101176232,-1.8342214422646e-11,1.7864397813733e-11,3.5412050539105e-13,-8.4204759955325e-13,-0.0014312368265996,0.0014312368145986,-0.0014312368146731,0.0014312368265251,-0.0014312368270616,0.0014312368140198,-0.0014312368148983,0.0014312368261831,-0.0013799840821046,0.0013799840461579,-0.0013799840470371,0.0013799840812254,5.2427016037706e-14,1.2685981496091e-12,6.9223691513741e-13,7.0067021265302e-13,-0.0014068101173192,0.0014068101184065,-0.0014312368201769,0.0014312368209314,-0.0014312368200836,0.0014312368210806,-0.0014312368196855,0.0014312368214856,-0.0014312368197732,0.0014312368213421,-0.0013799840633156,0.0013799840648907,-0.0013799840632871,0.0013799840647941,-0.0013799840640479,0.001379984064065,-0.0013799840629898,0.0013799840650806,1.7839260199317e-11,-1.7839677929203e-11,-0.0014068101178919,0.0014068101178914,3.9618201455846e-15,-4.4385408762112e-15,-0.0014312368147284,0.0014312368267632,-0.0014312368145623,0.0014312368265915,-0.0014312368267586,0.0014312368147286,-0.0014312368265963,0.0014312368145607,-0.0013799840814221,0.0013799840465957,-0.0013799840465951,0.001379984081415,0.75095690786259,0.79944244,1368840,32768,0.0058445491090157,0.0058445491090157,0.0058445491091353,37.193608467718,37.19360843,0.00021274886774175,0.00021274886774175,0.00021274886774175,227698.43056715,0.017688459656086
38880000,0.99999983894334,0.016915023863343,0.0056383412877421,0.0056383412877421,0.0056383412878586,-0.0014068157454897,0.0014068157450106,-1.8343780624799e-11,1.7866024293457e-11,3.5414381350253e-13,-8.4201163006386e-13,-0.0014312377223475,0.0014312377103455,-0.0014312377104199,0.001431237722273,-0.0014312377228095,0.0014312377097666,-0.0014312377106451,0.001431237721931,-0.0013799909772288,0.001379990941279,-0.0013799909421581,0.0013799909763497,5.2479749720846e-14,1.2686382660306e-12,6.9227248941829e-13,7.0070704976297e-13,-0.0014068157447064,0.0014068157457939,-0.0014312377159242,0.0014312377166788,-0.001431237715831,0.001431237716828,-0.0014312377154328,0.001431237717233,-0.0014312377155205,0.0014312377170895,-0.0013799909584382,0.0013799909600134,-0.0013799909584098,0.0013799909599168,-0.0013799909591706,0.0013799909591877,-0.0013799909581124,0.0013799909602033,1.7840849268419e-11,-1.7841266954188e-11,-0.0014068157452792,0.0014068157452788,3.9625995335396e-15,-4.4394526130641e-15,-0.0014312377104753,0.0014312377225111,-0.0014312377103092,0.0014312377223394,-0.0014312377225065,0.0014312377104754,-0.0014312377223442,0.0014312377103075,-0.0013799909765464,0.0013799909417168,-0.0013799909417162,0.0013799909765393,0.75225771818691,0.79944244,1368840,32768,0.0058445723960141,0.0058445723960141,0.0058445723961337,37.193608434602,37.19360843,0.00021274886747682,0.00021274886747682,0.00021274886747682,227141.84536678,0.017688530833296
