time,ASR_ext,ASR_strain,ASR_strain_xx,ASR_strain_yy,ASR_strain_zz,disp_x_101,disp_x_102,disp_x_103,disp_x_104,disp_x_105,disp_x_106,disp_x_p1_neg,disp_x_p1_pos,disp_x_p2_neg,disp_x_p2_pos,disp_x_p3_neg,disp_x_p3_pos,disp_x_p4_neg,disp_x_p4_pos,disp_x_p5_neg,disp_x_p5_pos,disp_x_p6_neg,disp_x_p6_pos,disp_y_101,disp_y_102,disp_y_103,disp_y_104,disp_y_105,disp_y_106,disp_y_p1_neg,disp_y_p1_pos,disp_y_p2_neg,disp_y_p2_pos,disp_y_p3_neg,disp_y_p3_pos,disp_y_p4_neg,disp_y_p4_pos,disp_y_p5_neg,disp_y_p5_pos,disp_y_p6_neg,disp_y_p6_pos,disp_y_p7_neg,disp_y_p7_pos,disp_y_p8_neg,disp_y_p8_pos,disp_z_101,disp_z_102,disp_z_103,disp_z_104,disp_z_105,disp_z_106,disp_z_p1_neg,disp_z_p1_pos,disp_z_p2_neg,disp_z_p2_pos,disp_z_p3_neg,disp_z_p3_pos,disp_z_p4_neg,disp_z_p4_pos,disp_z_p5_neg,disp_z_p5_pos,disp_z_p6_neg,disp_z_p6_pos,humidity,humidity_bc,ndof,nelem,strain_xx,strain_yy,strain_zz,temp,temp_bc,thermal_strain_xx,thermal_strain_yy,thermal_strain_zz,vonmises,vstrain
2419200,0,0,0,0,0,0,0,0,0,0,0,0,0,0,0,0,0,0,0,0,0,0,0,0,0,0,0,0,0,0,0,0,0,0,0,0,0,0,0,0,0,0,0,0,0,0,0,0,0,0,0,0,0,0,0,0,0,0,0,0,0,0,0,0,0,0,0,0,0,0,0,0,0,0,0,0,0
2505600,0.0094345,0.000167462,5.58E-05,5.58E-05,5.58E-05,-5.04E-05,5.04E-05,1.13E-11,-1.30E-11,-9.92E-13,-7.13E-13,-4.96E-05,4.96E-05,-4.96E-05,4.96E-05,-4.96E-05,4.96E-05,-4.96E-05,4.96E-05,-5.11E-05,5.11E-05,-5.11E-05,5.11E-05,-5.59E-12,-5.90E-12,-2.05E-12,-2.50E-12,-5.04E-05,5.04E-05,-4.96E-05,4.96E-05,-4.96E-05,4.96E-05,-4.96E-05,4.96E-05,-4.96E-05,4.96E-05,-5.11E-05,5.11E-05,-5.11E-05,5.11E-05,-5.11E-05,5.11E-05,-5.11E-05,5.11E-05,-1.26E-11,1.20E-11,-5.04E-05,5.04E-05,-5.37E-13,-1.15E-13,-4.96E-05,4.96E-05,-4.96E-05,4.96E-05,-4.96E-05,4.96E-05,-4.96E-05,4.96E-05,-5.11E-05,5.11E-05,-5.11E-05,5.11E-05,0.806083706,0.890001078,1368840,32768,0.000210116,0.000210116,0.000210116,29.8874203,31.13435877,0.000154299,0.000154299,0.000154299,279165.8964,0.000630548
2592000,0.020799359,0.000368928,0.000122976,0.000122976,0.000122976,-7.00E-05,7.00E-05,1.26E-11,-1.26E-11,-2.26E-13,7.43E-14,-6.94E-05,6.94E-05,-6.94E-05,6.94E-05,-6.94E-05,6.94E-05,-6.94E-05,6.94E-05,-7.05E-05,7.05E-05,-7.05E-05,7.05E-05,-1.82E-12,-2.12E-12,-6.61E-13,-1.00E-12,-7.00E-05,7.00E-05,-6.94E-05,6.94E-05,-6.94E-05,6.94E-05,-6.94E-05,6.94E-05,-6.94E-05,6.94E-05,-7.05E-05,7.05E-05,-7.05E-05,7.05E-05,-7.05E-05,7.05E-05,-7.05E-05,7.05E-05,-1.26E-11,1.25E-11,-7.00E-05,7.00E-05,-1.93E-13,1.42E-13,-6.94E-05,6.94E-05,-6.94E-05,6.94E-05,-6.94E-05,6.94E-05,-6.94E-05,6.94E-05,-7.05E-05,7.05E-05,-7.05E-05,7.05E-05,0.807821194,0.891563291,1368840,32768,0.000291612,0.000291612,0.000291612,31.68358674,31.84244011,0.000168669,0.000168669,0.000168669,149480.9706,0.00087522
2678400,0.033285763,0.000590928,0.000196976,0.000196976,0.000196976,-8.93E-05,8.93E-05,1.30E-11,-1.32E-11,-2.13E-13,6.76E-14,-8.87E-05,8.87E-05,-8.87E-05,8.87E-05,-8.87E-05,8.87E-05,-8.87E-05,8.87E-05,-8.99E-05,8.99E-05,-8.99E-05,8.99E-05,-1.33E-12,-1.61E-12,-5.61E-13,-9.09E-13,-8.93E-05,8.93E-05,-8.87E-05,8.87E-05,-8.87E-05,8.87E-05,-8.87E-05,8.87E-05,-8.87E-05,8.87E-05,-8.99E-05,8.99E-05,-8.99E-05,8.99E-05,-8.99E-05,8.99E-05,-8.99E-05,8.99E-05,-1.32E-11,1.31E-11,-8.93E-05,8.93E-05,-2.09E-13,1.32E-13,-8.87E-05,8.87E-05,-8.87E-05,8.87E-05,-8.87E-05,8.87E-05,-8.87E-05,8.87E-05,-8.99E-05,8.99E-05,-8.99E-05,8.99E-05,0.809253285,0.891278062,1368840,32768,0.000372067,0.000372067,0.000372067,32.49162158,32.55052145,0.000175133,0.000175133,0.000175133,148335.6573,0.001116824
2764800,0.046404009,0.000824501,0.000274834,0.000274834,0.000274834,-0.000108654,0.000108654,1.33E-11,-1.34E-11,-1.74E-13,1.02E-13,-0.000108007,0.000108007,-0.000108007,0.000108007,-0.000108007,0.000108007,-0.000108007,0.000108007,-0.000109316,0.000109316,-0.000109316,0.000109316,-1.09E-12,-1.36E-12,-4.12E-13,-8.09E-13,-0.000108654,0.000108654,-0.000108007,0.000108007,-0.000108007,0.000108007,-0.000108007,0.000108007,-0.000108007,0.000108007,-0.000109316,0.000109316,-0.000109316,0.000109316,-0.000109316,0.000109316,-0.000109316,0.000109316,-1.33E-11,1.33E-11,-0.000108654,0.000108654,-1.84E-13,2.05E-13,-0.000108007,0.000108007,-0.000108007,0.000108007,-0.000108007,0.000108007,-0.000108007,0.000108007,-0.000109316,0.000109316,-0.000109316,0.000109316,0.810510857,0.890992834,1368840,32768,0.000452621,0.000452621,0.000452621,32.8302475,32.85449205,0.000177842,0.000177842,0.000177842,158052.9361,0.001358786
2851200,0.059662516,0.001060849,0.000353616,0.000353616,0.000353616,-0.000127386,0.000127386,1.33E-11,-1.34E-11,-1.58E-13,7.54E-14,-0.00012668,0.00012668,-0.00012668,0.00012668,-0.00012668,0.00012668,-0.00012668,0.00012668,-0.000128155,0.000128155,-0.000128155,0.000128155,-9.74E-13,-1.20E-12,-3.14E-13,-7.17E-13,-0.000127386,0.000127386,-0.00012668,0.00012668,-0.00012668,0.00012668,-0.00012668,0.00012668,-0.00012668,0.00012668,-0.000128155,0.000128155,-0.000128155,0.000128155,-0.000128155,0.000128155,-0.000128155,0.000128155,-1.33E-11,1.33E-11,-0.000127386,0.000127386,-1.96E-13,1.99E-13,-0.00012668,0.00012668,-0.00012668,0.00012668,-0.00012668,0.00012668,-0.00012668,0.00012668,-0.000128155,0.000128155,-0.000128155,0.000128155,0.811622942,0.890707605,1368840,32768,0.000530633,0.000530633,0.000530633,32.73478286,32.72940788,0.000177078,0.000177078,0.000177078,167220.2214,0.001593166
2937600,0.073020927,0.001299232,0.000433077,0.000433077,0.000433077,-0.00014623,0.00014623,1.31E-11,-1.32E-11,-1.40E-13,4.86E-14,-0.000145454,0.000145454,-0.000145454,0.000145454,-0.000145454,0.000145454,-0.000145454,0.000145454,-0.000147115,0.000147115,-0.000147115,0.000147115,-8.88E-13,-1.07E-12,-2.30E-13,-6.40E-13,-0.00014623,0.00014623,-0.000145454,0.000145454,-0.000145454,0.000145454,-0.000145454,0.000145454,-0.000145454,0.000145454,-0.000147115,0.000147115,-0.000147115,0.000147115,-0.000147115,0.000147115,-0.000147115,0.000147115,-1.32E-11,1.32E-11,-0.00014623,0.00014623,-2.01E-13,2.01E-13,-0.000145454,0.000145454,-0.000145454,0.000145454,-0.000145454,0.000145454,-0.000145454,0.000145454,-0.000147115,0.000147115,-0.000147115,0.000147115,0.812622453,0.890422377,1368840,32768,0.000609106,0.000609106,0.000609106,32.61247584,32.60432371,0.0001761,0.0001761,0.0001761,180347.3097,0.001828989
3024000,0.086465709,0.001539109,0.000513036,0.000513036,0.000513036,-0.000165191,0.000165191,1.29E-11,-1.30E-11,-1.26E-13,3.44E-14,-0.000164349,0.000164349,-0.000164349,0.000164349,-0.000164349,0.000164349,-0.000164349,0.000164349,-0.000166182,0.000166182,-0.000166182,0.000166182,-8.79E-13,-1.03E-12,-1.62E-13,-5.71E-13,-0.000165191,0.000165191,-0.000164349,0.000164349,-0.000164349,0.000164349,-0.000164349,0.000164349,-0.000164349,0.000164349,-0.000166182,0.000166182,-0.000166182,0.000166182,-0.000166182,0.000166182,-0.000166182,0.000166182,-1.30E-11,1.30E-11,-0.000165191,0.000165191,-2.03E-13,1.98E-13,-0.000164349,0.000164349,-0.000164349,0.000164349,-0.000164349,0.000164349,-0.000164349,0.000164349,-0.000166182,0.000166182,-0.000166182,0.000166182,0.812597459,0.876774308,1368840,32768,0.00068806,0.00068806,0.00068806,32.48766539,32.47923954,0.000175101,0.000175101,0.000175101,191471.9857,0.002066311
3110400,0.099986127,0.001779921,0.000593307,0.000593307,0.000593307,-0.000184231,0.000184231,1.28E-11,-1.29E-11,-1.05E-13,1.39E-14,-0.000183338,0.000183338,-0.000183338,0.000183338,-0.000183338,0.000183338,-0.000183338,0.000183338,-0.0001853,0.0001853,-0.0001853,0.0001853,-8.98E-13,-1.01E-12,-1.73E-13,-5.65E-13,-0.000184231,0.000184231,-0.000183338,0.000183338,-0.000183338,0.000183338,-0.000183338,0.000183338,-0.000183338,0.000183338,-0.0001853,0.0001853,-0.0001853,0.0001853,-0.0001853,0.0001853,-0.0001853,0.0001853,-1.30E-11,1.29E-11,-0.000184231,0.000184231,-2.01E-13,1.85E-13,-0.000183338,0.000183338,-0.000183338,0.000183338,-0.000183338,0.000183338,-0.000183338,0.000183338,-0.0001853,0.0001853,-0.0001853,0.0001853,0.811279831,0.849585612,1368840,32768,0.000767335,0.000767335,0.000767335,32.36260476,32.35415537,0.000174101,0.000174101,0.000174101,197421.5323,0.002304657
3196800,0.113571725,0.002021434,0.000673811,0.000673811,0.000673811,-0.000203331,0.000203331,1.27E-11,-1.28E-11,-1.02E-13,-4.51E-15,-0.000202401,0.000202401,-0.000202401,0.000202401,-0.000202401,0.000202401,-0.000202401,0.000202401,-0.000204453,0.000204453,-0.000204453,0.000204453,-8.95E-13,-9.83E-13,-1.57E-13,-5.50E-13,-0.000203331,0.000203331,-0.000202401,0.000202401,-0.000202401,0.000202401,-0.000202401,0.000202401,-0.000202401,0.000202401,-0.000204453,0.000204453,-0.000204453,0.000204453,-0.000204453,0.000204453,-0.000204453,0.000204453,-1.28E-11,1.28E-11,-0.000203331,0.000203331,-2.01E-13,1.85E-13,-0.000202401,0.000202401,-0.000202401,0.000202401,-0.000202401,0.000202401,-0.000202401,0.000202401,-0.000204453,0.000204453,-0.000204453,0.000204453,0.809765224,0.826665679,1368840,32768,0.000846852,0.000846852,0.000846852,32.23751884,32.2290712,0.0001731,0.0001731,0.0001731,198452.857,0.002543786
3283200,0.127211892,0.002262516,0.000754172,0.000754172,0.000754172,-0.000222397,0.000222397,1.26E-11,-1.27E-11,-8.59E-14,-2.14E-14,-0.00022147,0.00022147,-0.00022147,0.00022147,-0.00022147,0.00022147,-0.00022147,0.00022147,-0.000223504,0.000223504,-0.000223504,0.000223504,-9.16E-13,-9.71E-13,-1.84E-13,-5.84E-13,-0.000222397,0.000222397,-0.00022147,0.00022147,-0.00022147,0.00022147,-0.00022147,0.00022147,-0.00022147,0.00022147,-0.000223504,0.000223504,-0.000223504,0.000223504,-0.000223504,0.000223504,-0.000223504,0.000223504,-1.28E-11,1.28E-11,-0.000222397,0.000222397,-2.09E-13,1.84E-13,-0.00022147,0.00022147,-0.00022147,0.00022147,-0.00022147,0.00022147,-0.00022147,0.00022147,-0.000223504,0.000223504,-0.000223504,0.000223504,0.805016626,0.764793389,1368840,32768,0.000926226,0.000926226,0.000926226,32.11242854,32.10398702,0.000172099,0.000172099,0.000172099,186740.9473,0.002782542
3369600,0.140896466,0.002503423,0.000834474,0.000834474,0.000834474,-0.000241452,0.000241452,1.26E-11,-1.27E-11,-9.77E-14,-6.10E-14,-0.000240554,0.000240554,-0.000240554,0.000240554,-0.000240554,0.000240554,-0.000240554,0.000240554,-0.0002425,0.0002425,-0.0002425,0.0002425,-8.77E-13,-9.04E-13,-1.58E-13,-5.57E-13,-0.000241452,0.000241452,-0.000240554,0.000240554,-0.000240554,0.000240554,-0.000240554,0.000240554,-0.000240554,0.000240554,-0.0002425,0.0002425,-0.0002425,0.0002425,-0.0002425,0.0002425,-0.0002425,0.0002425,-1.28E-11,1.28E-11,-0.000241452,0.000241452,-2.18E-13,1.75E-13,-0.000240554,0.000240554,-0.000240554,0.000240554,-0.000240554,0.000240554,-0.000240554,0.000240554,-0.0002425,0.0002425,-0.0002425,0.0002425,0.801702755,0.732612154,1368840,32768,0.001005545,0.001005545,0.001005545,31.98733918,31.97890285,0.000171099,0.000171099,0.000171099,168768.3697,0.003021189
3456000,0.154614687,0.002743921,0.00091464,0.00091464,0.00091464,-0.00026047,0.00026047,1.25E-11,-1.27E-11,-8.23E-14,-7.11E-14,-0.000259629,0.000259629,-0.000259629,0.000259629,-0.000259629,0.000259629,-0.000259629,0.000259629,-0.000261413,0.000261413,-0.000261413,0.000261413,-8.26E-13,-8.27E-13,-1.14E-13,-5.19E-13,-0.00026047,0.00026047,-0.000259629,0.000259629,-0.000259629,0.000259629,-0.000259629,0.000259629,-0.000259629,0.000259629,-0.000261413,0.000261413,-0.000261413,0.000261413,-0.000261413,0.000261413,-0.000261413,0.000261413,-1.27E-11,1.27E-11,-0.00026047,0.00026047,-2.09E-13,1.90E-13,-0.000259629,0.000259629,-0.000259629,0.000259629,-0.000259629,0.000259629,-0.000259629,0.000259629,-0.000261413,0.000261413,-0.000261413,0.000261413,0.798218372,0.700430919,1368840,32768,0.001084703,0.001084703,0.001084703,31.86225009,31.85381868,0.000170098,0.000170098,0.000170098,145792.9034,0.003259411
3542400,0.16849482,0.002986198,0.000995399,0.000995399,0.000995399,-0.000279876,0.000279876,1.25E-11,-1.26E-11,-5.60E-14,-6.23E-14,-0.000279114,0.000279114,-0.000279114,0.000279114,-0.000279114,0.000279114,-0.000279114,0.000279114,-0.00028067,0.00028067,-0.00028067,0.00028067,-7.66E-13,-7.50E-13,-7.42E-14,-4.76E-13,-0.000279876,0.000279876,-0.000279114,0.000279114,-0.000279114,0.000279114,-0.000279114,0.000279114,-0.000279114,0.000279114,-0.00028067,0.00028067,-0.00028067,0.00028067,-0.00028067,0.00028067,-0.00028067,0.00028067,-1.26E-11,1.26E-11,-0.000279876,0.000279876,-2.08E-13,1.86E-13,-0.000279114,0.000279114,-0.000279114,0.000279114,-0.000279114,0.000279114,-0.000279114,0.000279114,-0.00028067,0.00028067,-0.00028067,0.00028067,0.794621891,0.668249684,1368840,32768,0.00116547,0.00116547,0.00116547,31.86607798,31.86603709,0.000170129,0.000170129,0.000170129,126681.2395,0.00350253
3628800,0.182667567,0.003232611,0.001077537,0.001077537,0.001077537,-0.000299865,0.000299865,1.23E-11,-1.24E-11,-5.41E-14,-6.22E-14,-0.000299207,0.000299207,-0.000299207,0.000299207,-0.000299207,0.000299207,-0.000299207,0.000299207,-0.000300476,0.000300476,-0.000300476,0.000300476,-7.13E-13,-6.96E-13,-3.75E-14,-4.17E-13,-0.000299865,0.000299865,-0.000299207,0.000299207,-0.000299207,0.000299207,-0.000299207,0.000299207,-0.000299207,0.000299207,-0.000300476,0.000300476,-0.000300476,0.000300476,-0.000300476,0.000300476,-0.000300476,0.000300476,-1.25E-11,1.25E-11,-0.000299865,0.000299865,-1.89E-13,1.84E-13,-0.000299207,0.000299207,-0.000299207,0.000299207,-0.000299207,0.000299207,-0.000299207,0.000299207,-0.000300476,0.000300476,-0.000300476,0.000300476,0.791726214,0.647352145,1368840,32768,0.001248658,0.001248658,0.001248658,32.00303777,32.01194567,0.000171224,0.000171224,0.000171224,132451.4288,0.003753001
3715200,0.19713163,0.003483695,0.001161232,0.001161232,0.001161232,-0.000320245,0.000320245,1.24E-11,-1.26E-11,-4.34E-14,-8.26E-14,-0.000319705,0.000319705,-0.000319705,0.000319705,-0.000319705,0.000319705,-0.000319705,0.000319705,-0.00032066,0.00032066,-0.00032066,0.00032066,-7.69E-13,-7.22E-13,-6.91E-14,-4.61E-13,-0.000320245,0.000320245,-0.000319705,0.000319705,-0.000319705,0.000319705,-0.000319705,0.000319705,-0.000319705,0.000319705,-0.00032066,0.00032066,-0.00032066,0.00032066,-0.00032066,0.00032066,-0.00032066,0.00032066,-1.26E-11,1.26E-11,-0.000320245,0.000320245,-2.08E-13,1.77E-13,-0.000319705,0.000319705,-0.000319705,0.000319705,-0.000319705,0.000319705,-0.000319705,0.000319705,-0.00032066,0.00032066,-0.00032066,0.00032066,0.790758966,0.654463583,1368840,32768,0.001333463,0.001333463,0.001333463,32.14810739,32.15785424,0.000172385,0.000172385,0.000172385,154274.1693,0.004008401
3801600,0.211877177,0.00373933,0.001246443,0.001246443,0.001246443,-0.000340997,0.000340997,1.27E-11,-1.28E-11,-3.97E-14,-8.10E-14,-0.000340587,0.000340587,-0.000340587,0.000340587,-0.000340587,0.000340587,-0.000340587,0.000340587,-0.000341206,0.000341206,-0.000341206,0.000341206,-7.99E-13,-7.51E-13,-5.07E-14,-4.53E-13,-0.000340997,0.000340997,-0.000340587,0.000340587,-0.000340587,0.000340587,-0.000340587,0.000340587,-0.000340587,0.000340587,-0.000341206,0.000341206,-0.000341206,0.000341206,-0.000341206,0.000341206,-0.000341206,0.000341206,-1.28E-11,1.28E-11,-0.000340997,0.000340997,-2.07E-13,1.88E-13,-0.000340587,0.000340587,-0.000340587,0.000340587,-0.000340587,0.000340587,-0.000340587,0.000340587,-0.000341206,0.000341206,-0.000341206,0.000341206,0.789977328,0.66157502,1368840,32768,0.001419813,0.001419813,0.001419813,32.29392889,32.30376282,0.000173551,0.000173551,0.000173551,174849.4,0.004268524
3888000,0.22689231,0.003999348,0.001333116,0.001333116,0.001333116,-0.000362104,0.000362104,1.30E-11,-1.31E-11,-4.55E-14,-7.53E-14,-0.000361836,0.000361836,-0.000361836,0.000361836,-0.000361836,0.000361836,-0.000361836,0.000361836,-0.000362096,0.000362096,-0.000362096,0.000362096,-8.31E-13,-7.95E-13,-6.82E-14,-4.59E-13,-0.000362104,0.000362104,-0.000361836,0.000361836,-0.000361836,0.000361836,-0.000361836,0.000361836,-0.000361836,0.000361836,-0.000362096,0.000362096,-0.000362096,0.000362096,-0.000362096,0.000362096,-0.000362096,0.000362096,-1.31E-11,1.31E-11,-0.000362104,0.000362104,-2.03E-13,1.80E-13,-0.000361836,0.000361836,-0.000361836,0.000361836,-0.000361836,0.000361836,-0.000361836,0.000361836,-0.000362096,0.000362096,-0.000362096,0.000362096,0.789346929,0.668686458,1368840,32768,0.00150763,0.00150763,0.00150763,32.43982498,32.44967139,0.000174719,0.000174719,0.000174719,194750.0471,0.004533135
3974400,0.242163855,0.004263558,0.001421186,0.001421186,0.001421186,-0.00038355,0.00038355,1.34E-11,-1.35E-11,-5.06E-14,-5.75E-14,-0.000383436,0.000383436,-0.000383436,0.000383436,-0.000383436,0.000383436,-0.000383436,0.000383436,-0.000383312,0.000383312,-0.000383312,0.000383312,-8.68E-13,-8.56E-13,-7.47E-14,-4.55E-13,-0.00038355,0.00038355,-0.000383436,0.000383436,-0.000383436,0.000383436,-0.000383436,0.000383436,-0.000383436,0.000383436,-0.000383312,0.000383312,-0.000383312,0.000383312,-0.000383312,0.000383312,-0.000383312,0.000383312,-1.35E-11,1.35E-11,-0.00038355,0.00038355,-2.03E-13,1.70E-13,-0.000383436,0.000383436,-0.000383436,0.000383436,-0.000383436,0.000383436,-0.000383436,0.000383436,-0.000383312,0.000383312,-0.000383312,0.000383312,0.788842734,0.675797896,1368840,32768,0.001596849,0.001596849,0.001596849,32.58572855,32.59557997,0.000175886,0.000175886,0.000175886,214394.4215,0.004802039
4060800,0.25767744,0.004531747,0.001510582,0.001510582,0.001510582,-0.000405317,0.000405317,1.36E-11,-1.37E-11,-5.56E-14,-4.49E-14,-0.000405375,0.000405375,-0.000405375,0.000405375,-0.000405375,0.000405375,-0.000405375,0.000405375,-0.000404837,0.000404837,-0.000404837,0.000404837,-9.73E-13,-9.79E-13,-1.47E-13,-5.18E-13,-0.000405317,0.000405317,-0.000405375,0.000405375,-0.000405375,0.000405375,-0.000405375,0.000405375,-0.000405375,0.000405375,-0.000404837,0.000404837,-0.000404837,0.000404837,-0.000404837,0.000404837,-0.000404837,0.000404837,-1.38E-11,1.37E-11,-0.000405317,0.000405317,-2.01E-13,1.63E-13,-0.000405375,0.000405375,-0.000405375,0.000405375,-0.000405375,0.000405375,-0.000405375,0.000405375,-0.000404837,0.000404837,-0.000404837,0.000404837,0.788446935,0.682909333,1368840,32768,0.001687398,0.001687398,0.001687398,32.73163282,32.74148854,0.000177053,0.000177053,0.000177053,233708.1104,0.005075029
4147200,0.273417445,0.004803679,0.001601226,0.001601226,0.001601226,-0.000427388,0.000427388,1.38E-11,-1.39E-11,-6.31E-14,-3.45E-14,-0.000427633,0.000427633,-0.000427633,0.000427633,-0.000427633,0.000427633,-0.000427633,0.000427633,-0.000426653,0.000426653,-0.000426653,0.000426653,-1.03E-12,-1.06E-12,-2.00E-13,-5.69E-13,-0.000427388,0.000427388,-0.000427633,0.000427633,-0.000427633,0.000427633,-0.000427633,0.000427633,-0.000427633,0.000427633,-0.000426653,0.000426653,-0.000426653,0.000426653,-0.000426653,0.000426653,-0.000426653,0.000426653,-1.40E-11,1.39E-11,-0.000427388,0.000427388,-1.98E-13,1.64E-13,-0.000427633,0.000427633,-0.000427633,0.000427633,-0.000427633,0.000427633,-0.000427633,0.000427633,-0.000426653,0.000426653,-0.000426653,0.000426653,0.788147018,0.690020771,1368840,32768,0.001779199,0.001779199,0.001779199,32.87753711,32.88739712,0.00017822,0.00017822,0.00017822,252272.8503,0.005351868
4233600,0.28936704,0.005079096,0.001693032,0.001693032,0.001693032,-0.000449741,0.000449741,1.39E-11,-1.40E-11,-6.82E-14,-1.41E-14,-0.000450185,0.000450185,-0.000450185,0.000450185,-0.000450185,0.000450185,-0.000450185,0.000450185,-0.000448745,0.000448745,-0.000448745,0.000448745,-1.14E-12,-1.19E-12,-2.83E-13,-6.60E-13,-0.000449741,0.000449741,-0.000450185,0.000450185,-0.000450185,0.000450185,-0.000450185,0.000450185,-0.000450185,0.000450185,-0.000448745,0.000448745,-0.000448745,0.000448745,-0.000448745,0.000448745,-0.000448745,0.000448745,-1.40E-11,1.40E-11,-0.000449741,0.000449741,-2.02E-13,1.67E-13,-0.000450185,0.000450185,-0.000450185,0.000450185,-0.000450185,0.000450185,-0.000450185,0.000450185,-0.000448745,0.000448745,-0.000448745,0.000448745,0.787934291,0.697132209,1368840,32768,0.001872166,0.001872166,0.001872166,33.02344135,33.03330569,0.000179388,0.000179388,0.000179388,269568.0784,0.005632301
4320000,0.305595966,0.005359216,0.001786405,0.001786405,0.001786405,-0.000472623,0.000472623,1.38E-11,-1.39E-11,-8.52E-14,8.09E-15,-0.000473275,0.000473275,-0.000473275,0.000473275,-0.000473275,0.000473275,-0.000473275,0.000473275,-0.000471364,0.000471364,-0.000471364,0.000471364,-1.23E-12,-1.31E-12,-3.84E-13,-7.68E-13,-0.000472623,0.000472623,-0.000473275,0.000473275,-0.000473275,0.000473275,-0.000473275,0.000473275,-0.000473275,0.000473275,-0.000471364,0.000471364,-0.000471364,0.000471364,-0.000471364,0.000471364,-0.000471364,0.000471364,-1.40E-11,1.39E-11,-0.000472623,0.000472623,-2.03E-13,1.73E-13,-0.000473275,0.000473275,-0.000473275,0.000473275,-0.000473275,0.000473275,-0.000473275,0.000473275,-0.000471364,0.000471364,-0.000471364,0.000471364,0.787750724,0.703485145,1368840,32768,0.001967326,0.001967326,0.001967326,33.24706147,33.26200872,0.000181176,0.000181176,0.000181176,284924.0745,0.005919429
4406400,0.322169603,0.005645139,0.001881713,0.001881713,0.001881713,-0.000496115,0.000496115,1.36E-11,-1.36E-11,-7.38E-14,-9.07E-15,-0.000496986,0.000496986,-0.000496986,0.000496986,-0.000496986,0.000496986,-0.000496986,0.000496986,-0.000494587,0.000494587,-0.000494587,0.000494587,-1.31E-12,-1.36E-12,-4.73E-13,-8.32E-13,-0.000496115,0.000496115,-0.000496986,0.000496986,-0.000496986,0.000496986,-0.000496986,0.000496986,-0.000496986,0.000496986,-0.000494587,0.000494587,-0.000494587,0.000494587,-0.000494587,0.000494587,-0.000494587,0.000494587,-1.37E-11,1.37E-11,-0.000496115,0.000496115,-1.93E-13,1.59E-13,-0.000496986,0.000496986,-0.000496986,0.000496986,-0.000496986,0.000496986,-0.000496986,0.000496986,-0.000494587,0.000494587,-0.000494587,0.000494587,0.787470347,0.707390611,1368840,32768,0.002065012,0.002065012,0.002065012,33.54466667,33.56463601,0.000183557,0.000183557,0.000183557,298667.6438,0.006214267
4492800,0.33907319,0.005936623,0.001978874,0.001978874,0.001978874,-0.000520063,0.000520063,1.32E-11,-1.34E-11,7.72E-14,-3.28E-13,-0.000521167,0.000521167,-0.000521167,0.000521167,-0.000521167,0.000521167,-0.000521167,0.000521167,-0.000518258,0.000518258,-0.000518258,0.000518258,-1.54E-12,-1.13E-12,-5.04E-13,-8.11E-13,-0.000520063,0.000520063,-0.000521167,0.000521167,-0.000521167,0.000521167,-0.000521167,0.000521167,-0.000521167,0.000521167,-0.000518258,0.000518258,-0.000518258,0.000518258,-0.000518258,0.000518258,-0.000518258,0.000518258,-1.35E-11,1.34E-11,-0.000520063,0.000520063,-1.81E-13,1.20E-13,-0.000521167,0.000521167,-0.000521167,0.000521167,-0.000521167,0.000521167,-0.000521167,0.000521167,-0.000518258,0.000518258,-0.000518258,0.000518258,0.787231017,0.711296076,1368840,32768,0.002164586,0.002164586,0.002164586,33.84680588,33.86726329,0.000185974,0.000185974,0.000185974,310979.6629,0.006514888
4579200,0.356285019,0.00623331,0.00207777,0.00207777,0.00207777,-0.000544434,0.000544434,1.26E-11,-1.30E-11,2.97E-14,-4.02E-13,-0.000545769,0.000545769,-0.000545769,0.000545769,-0.000545769,0.000545769,-0.000545769,0.000545769,-0.000542355,0.000542355,-0.000542355,0.000542355,-1.36E-12,-9.16E-13,-3.40E-13,-6.67E-13,-0.000544434,0.000544434,-0.000545769,0.000545769,-0.000545769,0.000545769,-0.000545769,0.000545769,-0.000545769,0.000545769,-0.000542355,0.000542355,-0.000542355,0.000542355,-0.000542355,0.000542355,-0.000542355,0.000542355,-1.29E-11,1.31E-11,-0.000544434,0.000544434,-1.05E-13,2.14E-13,-0.000545769,0.000545769,-0.000545769,0.000545769,-0.000545769,0.000545769,-0.000545769,0.000545769,-0.000542355,0.000542355,-0.000542355,0.000542355,0.787032445,0.715201542,1368840,32768,0.002265904,0.002265904,0.002265904,34.1493673,34.16989058,0.000188395,0.000188395,0.000188395,319516.1301,0.006820872
4665600,0.373780673,0.006534797,0.002178266,0.002178266,0.002178266,-0.000569191,0.000569191,1.21E-11,-1.25E-11,2.94E-14,-4.23E-13,-0.000570777,0.000570777,-0.000570777,0.000570777,-0.000570777,0.000570777,-0.000570777,0.000570777,-0.00056683,0.00056683,-0.00056683,0.00056683,-1.38E-12,-9.08E-13,-4.32E-13,-7.47E-13,-0.000569191,0.000569191,-0.000570777,0.000570777,-0.000570777,0.000570777,-0.000570777,0.000570777,-0.000570777,0.000570777,-0.00056683,0.00056683,-0.00056683,0.00056683,-0.00056683,0.00056683,-0.00056683,0.00056683,-1.24E-11,1.26E-11,-0.000569191,0.000569191,-1.02E-13,2.06E-13,-0.000570777,0.000570777,-0.000570777,0.000570777,-0.000570777,0.000570777,-0.000570777,0.000570777,-0.00056683,0.00056683,-0.00056683,0.00056683,0.78687423,0.719107008,1368840,32768,0.002368822,0.002368822,0.002368822,34.45197078,34.47251786,0.000190816,0.000190816,0.000190816,328248.175,0.007131779
4752000,0.39153341,0.006840645,0.002280215,0.002280215,0.002280215,-0.000594301,0.000594301,1.17E-11,-1.18E-11,1.73E-13,-3.30E-13,-0.000596149,0.000596149,-0.000596149,0.000596149,-0.000596149,0.000596149,-0.000596149,0.000596149,-0.000591654,0.000591655,-0.000591655,0.000591654,-1.31E-12,-7.92E-13,-3.58E-13,-6.72E-13,-0.000594301,0.000594301,-0.000596149,0.000596149,-0.000596149,0.000596149,-0.000596149,0.000596149,-0.000596149,0.000596149,-0.000591655,0.000591655,-0.000591655,0.000591654,-0.000591655,0.000591655,-0.000591655,0.000591655,-1.20E-11,1.19E-11,-0.000594301,0.000594301,-2.04E-13,1.03E-13,-0.000596149,0.000596149,-0.000596149,0.000596149,-0.000596149,0.000596149,-0.000596149,0.000596149,-0.000591654,0.000591655,-0.000591655,0.000591654,0.786755971,0.723012474,1368840,32768,0.002473194,0.002473194,0.002473194,34.75457848,34.77514514,0.000193237,0.000193237,0.000193237,335593.9995,0.007447178
4838400,0.409514275,0.007150377,0.002383459,0.002383459,0.002383459,-0.000619726,0.000619726,1.10E-11,-1.15E-11,9.07E-14,-6.83E-13,-0.000621842,0.000621842,-0.000621842,0.000621842,-0.000621842,0.000621842,-0.000621842,0.000621842,-0.000616792,0.000616792,-0.000616792,0.000616792,-1.47E-12,-5.73E-13,-3.12E-13,-6.82E-13,-0.000619726,0.000619726,-0.000621842,0.000621842,-0.000621842,0.000621842,-0.000621842,0.000621842,-0.000621842,0.000621842,-0.000616792,0.000616792,-0.000616792,0.000616792,-0.000616792,0.000616792,-0.000616792,0.000616792,-1.13E-11,1.16E-11,-0.000619726,0.000619726,-1.24E-13,4.09E-13,-0.000621842,0.000621842,-0.000621842,0.000621842,-0.000621842,0.000621842,-0.000621842,0.000621842,-0.000616792,0.000616792,-0.000616792,0.000616792,0.786677314,0.726917939,1368840,32768,0.002578862,0.002578862,0.002578862,35.05718657,35.07777243,0.000195657,0.000195657,0.000195657,341592.6361,0.007766594
4924800,0.427692209,0.007463479,0.002487826,0.002487826,0.002487826,-0.000645424,0.000645424,1.03E-11,-1.10E-11,1.17E-13,-7.36E-13,-0.000647816,0.000647816,-0.000647816,0.000647816,-0.000647816,0.000647816,-0.000647816,0.000647816,-0.000642203,0.000642203,-0.000642203,0.000642203,-1.01E-12,-1.13E-13,1.80E-13,-1.90E-13,-0.000645424,0.000645424,-0.000647816,0.000647816,-0.000647816,0.000647816,-0.000647816,0.000647816,-0.000647816,0.000647816,-0.000642203,0.000642203,-0.000642203,0.000642203,-0.000642203,0.000642203,-0.000642203,0.000642203,-1.08E-11,1.10E-11,-0.000645424,0.000645424,-1.70E-13,2.28E-13,-0.000647816,0.000647816,-0.000647816,0.000647816,-0.000647816,0.000647816,-0.000647816,0.000647816,-0.000642203,0.000642203,-0.000642203,0.000642203,0.786637981,0.730823405,1368840,32768,0.002685655,0.002685655,0.002685655,35.35979465,35.38039971,0.000198078,0.000198078,0.000198078,346199.5319,0.008089511
5011200,0.446034193,0.00777924,0.00259308,0.00259308,0.00259308,-0.000671383,0.000671383,1.00E-11,-1.06E-11,1.41E-13,-7.02E-13,-0.000674057,0.000674057,-0.000674057,0.000674057,-0.000674057,0.000674057,-0.000674057,0.000674057,-0.00066787,0.00066787,-0.00066787,0.00066787,-1.02E-12,-1.38E-13,1.54E-13,-2.17E-13,-0.000671383,0.000671383,-0.000674057,0.000674057,-0.000674057,0.000674057,-0.000674057,0.000674057,-0.000674057,0.000674057,-0.00066787,0.00066787,-0.00066787,0.00066787,-0.00066787,0.00066787,-0.00066787,0.00066787,-1.05E-11,1.06E-11,-0.000671383,0.000671383,-1.87E-13,2.09E-13,-0.000674057,0.000674057,-0.000674057,0.000674057,-0.000674057,0.000674057,-0.000674057,0.000674057,-0.00066787,0.00066787,-0.00066787,0.00066787,0.786230791,0.728857574,1368840,32768,0.002793521,0.002793521,0.002793521,35.66240307,35.683027,0.000200499,0.000200499,0.000200499,350695.6921,0.008415781
5097600,0.464390282,0.008093806,0.002697935,0.002697935,0.002697935,-0.000696955,0.000696955,9.37E-12,-9.96E-12,1.25E-13,-7.04E-13,-0.000699981,0.000699981,-0.000699981,0.000699981,-0.000699981,0.000699981,-0.000699981,0.000699981,-0.000693068,0.000693068,-0.000693068,0.000693068,-1.07E-12,-1.97E-13,8.19E-14,-2.75E-13,-0.000696955,0.000696955,-0.000699981,0.000699981,-0.000699981,0.000699981,-0.000699981,0.000699981,-0.000699981,0.000699981,-0.000693068,0.000693068,-0.000693068,0.000693068,-0.000693068,0.000693068,-0.000693068,0.000693068,-9.89E-12,9.94E-12,-0.000696955,0.000696955,-1.82E-13,1.99E-13,-0.000699981,0.000699981,-0.000699981,0.000699981,-0.000699981,0.000699981,-0.000699981,0.000699981,-0.000693068,0.000693068,-0.000693068,0.000693068,0.782574594,0.680332191,1368840,32768,0.002899769,0.002899769,0.002899769,35.86478336,35.87882077,0.000202118,0.000202118,0.000202118,367626.3716,0.008737261
5184000,0.482626573,0.008406126,0.002802042,0.002802042,0.002802042,-0.000722195,0.000722195,8.86E-12,-9.45E-12,1.03E-13,-6.94E-13,-0.000725585,0.000725585,-0.000725585,0.000725585,-0.000725585,0.000725585,-0.000725585,0.000725585,-0.000717924,0.000717924,-0.000717924,0.000717924,-9.83E-13,-1.44E-13,1.59E-13,-2.17E-13,-0.000722195,0.000722195,-0.000725585,0.000725585,-0.000725585,0.000725585,-0.000725585,0.000725585,-0.000725585,0.000725585,-0.000717924,0.000717924,-0.000717924,0.000717924,-0.000717924,0.000717924,-0.000717924,0.000717924,-9.39E-12,9.44E-12,-0.000722195,0.000722195,-1.87E-13,2.13E-13,-0.000725585,0.000725585,-0.000725585,0.000725585,-0.000725585,0.000725585,-0.000725585,0.000725585,-0.000717924,0.000717924,-0.000717924,0.000717924,0.782334354,0.688616509,1368840,32768,0.003004625,0.003004625,0.003004625,35.97915884,35.98718216,0.000203033,0.000203033,0.000203033,386463.8143,0.009054628
5270400,0.500708643,0.008718571,0.00290619,0.00290619,0.00290619,-0.000747483,0.000747483,8.42E-12,-9.01E-12,7.89E-14,-6.65E-13,-0.000751138,0.000751138,-0.000751138,0.000751138,-0.000751138,0.000751138,-0.000751138,0.000751138,-0.000742996,0.000742996,-0.000742996,0.000742996,-9.54E-13,-1.68E-13,1.47E-13,-1.98E-13,-0.000747483,0.000747483,-0.000751138,0.000751138,-0.000751138,0.000751138,-0.000751138,0.000751138,-0.000751138,0.000751138,-0.000742996,0.000742996,-0.000742996,0.000742996,-0.000742996,0.000742996,-0.000742996,0.000742996,-8.96E-12,8.99E-12,-0.000747483,0.000747483,-1.80E-13,1.90E-13,-0.000751138,0.000751138,-0.000751138,0.000751138,-0.000751138,0.000751138,-0.000751138,0.000751138,-0.000742996,0.000742996,-0.000742996,0.000742996,0.789463518,0.80400171,1368840,32768,0.003109672,0.003109672,0.003109672,36.08808314,36.09554356,0.000203905,0.000203905,0.000203905,374292.0254,0.009372673
5356800,0.518609556,0.009026758,0.003008919,0.003008919,0.003008919,-0.000772503,0.000772503,8.16E-12,-8.65E-12,1.23E-13,-6.25E-13,-0.000776404,0.000776404,-0.000776404,0.000776404,-0.000776404,0.000776404,-0.000776404,0.000776404,-0.000767787,0.000767787,-0.000767787,0.000767787,-8.78E-13,-8.77E-14,2.27E-13,-9.34E-14,-0.000772503,0.000772503,-0.000776404,0.000776404,-0.000776404,0.000776404,-0.000776404,0.000776404,-0.000776404,0.000776404,-0.000767787,0.000767787,-0.000767787,0.000767787,-0.000767787,0.000767787,-0.000767787,0.000767787,-8.67E-12,8.66E-12,-0.000772503,0.000772503,-1.89E-13,1.55E-13,-0.000776404,0.000776404,-0.000776404,0.000776404,-0.000776404,0.000776404,-0.000776404,0.000776404,-0.000767787,0.000767787,-0.000767787,0.000767787,0.786379529,0.74770296,1368840,32768,0.003213591,0.003213591,0.003213591,36.19650058,36.20390495,0.000204772,0.000204772,0.000204772,359338.2758,0.009687401
5443200,0.536302394,0.009329459,0.00310982,0.00310982,0.00310982,-0.000796969,0.000796969,7.87E-12,-8.47E-12,7.54E-14,-6.77E-13,-0.000801231,0.000801231,-0.000801231,0.000801231,-0.000801231,0.000801231,-0.000801231,0.000801231,-0.000791878,0.000791878,-0.000791878,0.000791878,-8.97E-13,-1.01E-13,1.97E-13,-1.14E-13,-0.000796969,0.000796969,-0.000801231,0.000801231,-0.000801231,0.000801231,-0.000801231,0.000801231,-0.000801231,0.000801231,-0.000791878,0.000791878,-0.000791878,0.000791878,-0.000791878,0.000791878,-0.000791878,0.000791878,-8.42E-12,8.44E-12,-0.000796969,0.000796969,-1.74E-13,1.62E-13,-0.000801231,0.000801231,-0.000801231,0.000801231,-0.000801231,0.000801231,-0.000801231,0.000801231,-0.000791878,0.000791878,-0.000791878,0.000791878,0.781292233,0.676333928,1368840,32768,0.0033152,0.0033152,0.0033152,36.30486696,36.31226635,0.000205639,0.000205639,0.000205639,375831.0583,0.009995226
5529600,0.553760544,0.009625783,0.003208594,0.003208594,0.003208594,-0.000820898,0.000820898,7.64E-12,-8.25E-12,8.72E-14,-6.84E-13,-0.000825594,0.000825594,-0.000825594,0.000825594,-0.000825594,0.000825594,-0.000825594,0.000825594,-0.000815321,0.000815321,-0.000815321,0.000815321,-8.59E-13,-4.32E-14,2.36E-13,-9.36E-14,-0.000820898,0.000820898,-0.000825594,0.000825594,-0.000825594,0.000825594,-0.000825594,0.000825594,-0.000825594,0.000825594,-0.000815321,0.000815321,-0.000815321,0.000815321,-0.000815321,0.000815321,-0.000815321,0.000815321,-8.20E-12,8.21E-12,-0.000820898,0.000820898,-1.79E-13,1.76E-13,-0.000825594,0.000825594,-0.000825594,0.000825594,-0.000825594,0.000825594,-0.000825594,0.000825594,-0.000815321,0.000815321,-0.000815321,0.000815321,0.775299385,0.601414126,1368840,32768,0.003414572,0.003414572,0.003414572,36.41322767,36.42062774,0.000206506,0.000206506,0.000206506,407145.9318,0.010296369
5616000,0.570959273,0.009915705,0.003305235,0.003305235,0.003305235,-0.000844289,0.000844289,7.43E-12,-8.07E-12,8.46E-14,-6.88E-13,-0.00084949,0.00084949,-0.00084949,0.00084949,-0.00084949,0.00084949,-0.00084949,0.00084949,-0.000838128,0.000838128,-0.000838128,0.000838128,-8.87E-13,-7.01E-14,2.34E-13,-1.21E-13,-0.000844289,0.000844289,-0.00084949,0.00084949,-0.00084949,0.00084949,-0.00084949,0.00084949,-0.00084949,0.00084949,-0.000838128,0.000838128,-0.000838128,0.000838128,-0.000838128,0.000838128,-0.000838128,0.000838128,-8.00E-12,8.03E-12,-0.000844289,0.000844289,-1.91E-13,1.89E-13,-0.00084949,0.00084949,-0.00084949,0.00084949,-0.00084949,0.00084949,-0.00084949,0.00084949,-0.000838128,0.000838128,-0.000838128,0.000838128,0.770362124,0.547990385,1368840,32768,0.003511694,0.003511694,0.003511694,36.52158735,36.52898914,0.000207373,0.000207373,0.000207373,449158.9093,0.01059078
5702400,0.587875482,0.010199116,0.003399705,0.003399705,0.003399705,-0.000867155,0.000867155,7.29E-12,-7.95E-12,8.60E-14,-7.21E-13,-0.000872913,0.000872913,-0.000872913,0.000872913,-0.000872913,0.000872913,-0.000872913,0.000872913,-0.00086034,0.00086034,-0.00086034,0.00086034,-8.29E-13,2.37E-14,3.05E-13,-6.56E-14,-0.000867155,0.000867155,-0.000872913,0.000872913,-0.000872913,0.000872913,-0.000872913,0.000872913,-0.000872913,0.000872913,-0.00086034,0.00086034,-0.00086034,0.00086034,-0.00086034,0.00086034,-0.00086034,0.00086034,-7.87E-12,7.90E-12,-0.000867155,0.000867155,-2.13E-13,1.82E-13,-0.000872913,0.000872913,-0.000872913,0.000872913,-0.000872913,0.000872913,-0.000872913,0.000872913,-0.00086034,0.00086034,-0.00086034,0.00086034,0.766135117,0.507141103,1368840,32768,0.003606631,0.003606631,0.003606631,36.62994675,36.63735053,0.00020824,0.00020824,0.00020824,494928.4967,0.010878651
5788800,0.604487793,0.010475687,0.003491896,0.003491896,0.003491896,-0.000889467,0.000889467,7.15E-12,-7.81E-12,6.73E-14,-7.48E-13,-0.000895837,0.000895837,-0.000895837,0.000895837,-0.000895837,0.000895837,-0.000895837,0.000895837,-0.000881925,0.000881925,-0.000881925,0.000881925,-7.98E-13,6.26E-14,3.54E-13,-1.62E-14,-0.000889467,0.000889467,-0.000895837,0.000895837,-0.000895837,0.000895837,-0.000895837,0.000895837,-0.000895837,0.000895837,-0.000881925,0.000881925,-0.000881925,0.000881925,-0.000881925,0.000881925,-0.000881925,0.000881925,-7.74E-12,7.76E-12,-0.000889467,0.000889467,-1.87E-13,2.07E-13,-0.000895837,0.000895837,-0.000895837,0.000895837,-0.000895837,0.000895837,-0.000895837,0.000895837,-0.000881925,0.000881925,-0.000881925,0.000881925,0.761860941,0.466291821,1368840,32768,0.003699258,0.003699258,0.003699258,36.73830604,36.74571193,0.000209106,0.000209106,0.000209106,544198.5392,0.011159597
5875200,0.620717286,0.010745776,0.003581925,0.003581925,0.003581925,-0.00091113,0.00091113,7.04E-12,-7.72E-12,6.61E-14,-7.55E-13,-0.000918118,0.000918118,-0.000918118,0.000918118,-0.000918118,0.000918118,-0.000918118,0.000918118,-0.000902874,0.000902874,-0.000902874,0.000902874,-8.11E-13,5.63E-14,3.36E-13,-2.97E-14,-0.00091113,0.00091113,-0.000918118,0.000918118,-0.000918118,0.000918118,-0.000918118,0.000918118,-0.000918118,0.000918118,-0.000902874,0.000902874,-0.000902874,0.000902874,-0.000902874,0.000902874,-0.000902874,0.000902874,-7.63E-12,7.66E-12,-0.00091113,0.00091113,-1.85E-13,2.04E-13,-0.000918118,0.000918118,-0.000918118,0.000918118,-0.000918118,0.000918118,-0.000918118,0.000918118,-0.000902874,0.000902874,-0.000902874,0.000902874,0.762100788,0.491841961,1368840,32768,0.003789183,0.003789183,0.003789183,36.78458456,36.78789582,0.000209477,0.000209477,0.000209477,586485.1004,0.01143242
5961600,0.636504741,0.011006713,0.003668904,0.003668904,0.003668904,-0.000932065,0.000932065,6.94E-12,-7.64E-12,6.78E-14,-7.67E-13,-0.000939666,0.000939666,-0.000939666,0.000939666,-0.000939666,0.000939666,-0.000939666,0.000939666,-0.000923075,0.000923075,-0.000923075,0.000923075,-7.85E-13,9.62E-14,3.73E-13,6.78E-15,-0.000932065,0.000932065,-0.000939666,0.000939666,-0.000939666,0.000939666,-0.000939666,0.000939666,-0.000939666,0.000939666,-0.000923075,0.000923075,-0.000923075,0.000923075,-0.000923075,0.000923075,-0.000923075,0.000923075,-7.54E-12,7.57E-12,-0.000932065,0.000932065,-1.93E-13,1.97E-13,-0.000939666,0.000939666,-0.000939666,0.000939666,-0.000939666,0.000939666,-0.000939666,0.000939666,-0.000923075,0.000923075,-0.000923075,0.000923075,0.757370312,0.440771033,1368840,32768,0.003876075,0.003876075,0.003876075,36.7806184,36.78047505,0.000209445,0.000209445,0.000209445,618541.3488,0.011696116
6048000,0.65184055,0.011259328,0.003753109,0.003753109,0.003753109,-0.000952179,0.000952179,6.85E-12,-7.57E-12,6.78E-14,-7.83E-13,-0.000960481,0.000960481,-0.000960481,0.000960481,-0.000960481,0.000960481,-0.000960481,0.000960481,-0.000942375,0.000942375,-0.000942375,0.000942375,-7.30E-13,1.69E-13,4.36E-13,6.90E-14,-0.000952179,0.000952179,-0.000960481,0.000960481,-0.000960481,0.000960481,-0.000960481,0.000960481,-0.000960481,0.000960481,-0.000942375,0.000942375,-0.000942375,0.000942375,-0.000942375,0.000942375,-0.000942375,0.000942375,-7.46E-12,7.49E-12,-0.000952179,0.000952179,-1.92E-13,1.98E-13,-0.000960481,0.000960481,-0.000960481,0.000960481,-0.000960481,0.000960481,-0.000960481,0.000960481,-0.000942375,0.000942375,-0.000942375,0.000942375,0.755168934,0.428346577,1368840,32768,0.003959556,0.003959556,0.003959556,36.77352475,36.77305428,0.000209388,0.000209388,0.000209388,665948.4642,0.011949525
6134400,0.666719325,0.011504241,0.003834747,0.003834747,0.003834747,-0.000971747,0.000971747,6.79E-12,-7.52E-12,6.55E-14,-7.96E-13,-0.000980711,0.000980711,-0.000980711,0.000980711,-0.000980711,0.000980711,-0.000980711,0.000980711,-0.000961181,0.000961181,-0.000961181,0.000961181,-7.88E-13,1.21E-13,3.84E-13,1.87E-14,-0.000971747,0.000971747,-0.000980711,0.000980711,-0.000980711,0.000980711,-0.000980711,0.000980711,-0.000980711,0.000980711,-0.000961181,0.000961181,-0.000961181,0.000961181,-0.000961181,0.000961181,-0.000961181,0.000961181,-7.40E-12,7.43E-12,-0.000971747,0.000971747,-1.91E-13,1.98E-13,-0.000980711,0.000980711,-0.000980711,0.000980711,-0.000980711,0.000980711,-0.000980711,0.000980711,-0.000961181,0.000961181,-0.000961181,0.000961181,0.755147315,0.447133136,1368840,32768,0.004040765,0.004040765,0.004040765,36.76613691,36.76563351,0.000209329,0.000209329,0.000209329,697124.5942,0.012196096
6220800,0.681138257,0.011741524,0.003913841,0.003913841,0.003913841,-0.000990782,0.000990782,6.75E-12,-7.48E-12,6.48E-14,-8.04E-13,-0.001000356,0.001000356,-0.001000356,0.001000356,-0.001000356,0.001000356,-0.001000356,0.001000356,-0.000979515,0.000979515,-0.000979515,0.000979515,-7.63E-13,1.54E-13,4.12E-13,5.39E-14,-0.000990782,0.000990782,-0.001000356,0.001000356,-0.001000356,0.001000356,-0.001000356,0.001000356,-0.001000356,0.001000356,-0.000979515,0.000979515,-0.000979515,0.000979515,-0.000979515,0.000979515,-0.000979515,0.000979515,-7.37E-12,7.39E-12,-0.000990782,0.000990782,-1.89E-13,1.93E-13,-0.001000356,0.001000356,-0.001000356,0.001000356,-0.001000356,0.001000356,-0.001000356,0.001000356,-0.000979515,0.000979515,-0.000979515,0.000979515,0.755283265,0.465919695,1368840,32768,0.004119752,0.004119752,0.004119752,36.75871948,36.75821274,0.00020927,0.00020927,0.00020927,713003.9241,0.012435978
6307200,0.695096147,0.011971255,0.003990418,0.003990418,0.003990418,-0.001009221,0.001009221,6.72E-12,-7.46E-12,6.92E-14,-8.21E-13,-0.001019383,0.001019383,-0.001019383,0.001019383,-0.001019383,0.001019383,-0.001019383,0.001019383,-0.000997292,0.000997292,-0.000997292,0.000997292,-7.39E-13,2.00E-13,4.51E-13,9.14E-14,-0.001009221,0.001009221,-0.001019383,0.001019383,-0.001019383,0.001019383,-0.001019383,0.001019383,-0.001019383,0.001019383,-0.000997292,0.000997292,-0.000997292,0.000997292,-0.000997292,0.000997292,-0.000997292,0.000997292,-7.34E-12,7.36E-12,-0.001009221,0.001009221,-1.89E-13,1.93E-13,-0.001019383,0.001019383,-0.001019383,0.001019383,-0.001019383,0.001019383,-0.001019383,0.001019383,-0.000997292,0.000997292,-0.000997292,0.000997292,0.755546253,0.484706254,1368840,32768,0.004196262,0.004196262,0.004196262,36.75129904,36.75079198,0.00020921,0.00020921,0.00020921,722623.6574,0.012668395
6393600,0.708593201,0.012193133,0.004064378,0.004064378,0.004064378,-0.001027037,0.001027037,6.67E-12,-7.43E-12,7.29E-14,-8.39E-13,-0.001037772,0.001037772,-0.001037772,0.001037772,-0.001037772,0.001037772,-0.001037772,0.001037772,-0.001014466,0.001014466,-0.001014466,0.001014466,-7.07E-13,2.55E-13,4.94E-13,1.33E-13,-0.001027037,0.001027037,-0.001037772,0.001037772,-0.001037772,0.001037772,-0.001037772,0.001037772,-0.001037772,0.001037772,-0.001014466,0.001014466,-0.001014466,0.001014466,-0.001014466,0.001014466,-0.001014466,0.001014466,-7.30E-12,7.33E-12,-0.001027037,0.001027037,-1.89E-13,1.95E-13,-0.001037772,0.001037772,-0.001037772,0.001037772,-0.001037772,0.001037772,-0.001037772,0.001037772,-0.001014466,0.001014466,-0.001014466,0.001014466,0.754719742,0.485380897,1368840,32768,0.004270181,0.004270181,0.004270181,36.74387828,36.74337121,0.000209151,0.000209151,0.000209151,728954.1941,0.012892991
6480000,0.721631038,0.012408607,0.004136202,0.004136202,0.004136202,-0.001044307,0.001044307,6.64E-12,-7.42E-12,7.61E-14,-8.63E-13,-0.001055575,0.001055575,-0.001055575,0.001055575,-0.001055575,0.001055575,-0.001055575,0.001055575,-0.001031169,0.001031169,-0.001031169,0.001031169,-6.72E-13,3.17E-13,5.36E-13,1.84E-13,-0.001044307,0.001044307,-0.001055575,0.001055575,-0.001055575,0.001055575,-0.001055575,0.001055575,-0.001055575,0.001055575,-0.001031169,0.001031169,-0.001031169,0.001031169,-0.001031169,0.001031169,-0.001031169,0.001031169,-7.27E-12,7.31E-12,-0.001044307,0.001044307,-1.90E-13,1.85E-13,-0.001055575,0.001055575,-0.001055575,0.001055575,-0.001055575,0.001055575,-0.001055575,0.001055575,-0.001031169,0.001031169,-0.001031169,0.001031169,0.75876646,0.561350941,1368840,32768,0.004341829,0.004341829,0.004341829,36.73645751,36.73595044,0.000209092,0.000209092,0.000209092,729128.0831,0.013110733
6566400,0.734213099,0.012617449,0.004205816,0.004205816,0.004205816,-0.001061249,0.001061249,6.64E-12,-7.40E-12,8.48E-14,-8.55E-13,-0.00107291,0.00107291,-0.00107291,0.00107291,-0.00107291,0.00107291,-0.00107291,0.00107291,-0.001047707,0.001047707,-0.001047707,0.001047707,-6.38E-13,3.52E-13,5.75E-13,2.16E-13,-0.001061249,0.001061249,-0.00107291,0.00107291,-0.00107291,0.00107291,-0.00107291,0.00107291,-0.00107291,0.00107291,-0.001047707,0.001047707,-0.001047707,0.001047707,-0.001047707,0.001047707,-0.001047707,0.001047707,-7.25E-12,7.30E-12,-0.001061249,0.001061249,-1.86E-13,1.95E-13,-0.00107291,0.00107291,-0.00107291,0.00107291,-0.00107291,0.00107291,-0.00107291,0.00107291,-0.001047707,0.001047707,-0.001047707,0.001047707,0.761996204,0.619781363,1368840,32768,0.004412113,0.004412113,0.004412113,36.72962243,36.72915398,0.000209037,0.000209037,0.000209037,703201.3935,0.013324373
6652800,0.746652687,0.012824961,0.004274987,0.004274987,0.004274987,-0.001078905,0.001078905,6.62E-12,-7.39E-12,4.36E-14,-8.16E-13,-0.001090924,0.001090924,-0.001090924,0.001090924,-0.001090924,0.001090924,-0.001090924,0.001090924,-0.001065017,0.001065017,-0.001065017,0.001065017,-6.51E-13,2.60E-13,6.09E-13,1.63E-13,-0.001078905,0.001078905,-0.001090924,0.001090924,-0.001090924,0.001090924,-0.001090924,0.001090924,-0.001090924,0.001090924,-0.001065017,0.001065017,-0.001065017,0.001065017,-0.001065017,0.001065017,-0.001065017,0.001065017,-7.24E-12,7.29E-12,-0.001078905,0.001078905,-1.90E-13,2.78E-13,-0.001090924,0.001090924,-0.001090924,0.001090924,-0.001090924,0.001090924,-0.001090924,0.001090924,-0.001065017,0.001065017,-0.001065017,0.001065017,0.765505761,0.678211785,1368840,32768,0.004485352,0.004485352,0.004485352,37.16886917,37.19785955,0.000212551,0.000212551,0.000212551,675955.3192,0.013547045
6739200,0.758942859,0.013031162,0.004343721,0.004343721,0.004343721,-0.001096506,0.001096506,6.63E-12,-7.36E-12,4.01E-14,-7.75E-13,-0.001108847,0.001108847,-0.001108847,0.001108847,-0.001108847,0.001108847,-0.001108847,0.001108847,-0.001082337,0.001082337,-0.001082337,0.001082337,-7.41E-13,1.23E-13,4.93E-13,2.08E-14,-0.001096506,0.001096506,-0.001108847,0.001108847,-0.001108847,0.001108847,-0.001108847,0.001108847,-0.001108847,0.001108847,-0.001082337,0.001082337,-0.001082337,0.001082337,-0.001082337,0.001082337,-0.001082337,0.001082337,-7.21E-12,7.30E-12,-0.001096506,0.001096506,-2.19E-13,2.76E-13,-0.001108847,0.001108847,-0.001108847,0.001108847,-0.001108847,0.001108847,-0.001108847,0.001108847,-0.001082337,0.001082337,-0.001082337,0.001082337,0.76954158,0.736642208,1368840,32768,0.004558359,0.004558359,0.004558359,37.63475951,37.66656512,0.000216278,0.000216278,0.000216278,645307.6861,0.013769059
6825600,0.77105906,0.013237418,0.004412473,0.004412473,0.004412473,-0.001114114,0.001114114,6.79E-12,-7.22E-12,8.01E-14,-6.80E-13,-0.001126681,0.001126681,-0.001126681,0.001126681,-0.001126681,0.001126681,-0.001126681,0.001126681,-0.001099815,0.001099815,-0.001099815,0.001099815,-6.37E-13,1.72E-13,4.49E-13,2.70E-15,-0.001114114,0.001114114,-0.001126681,0.001126681,-0.001126681,0.001126681,-0.001126681,0.001126681,-0.001126681,0.001126681,-0.001099815,0.001099815,-0.001099815,0.001099815,-0.001099815,0.001099815,-0.001099815,0.001099815,-7.36E-12,7.16E-12,-0.001114114,0.001114114,-2.75E-13,1.93E-13,-0.001126681,0.001126681,-0.001126681,0.001126681,-0.001126681,0.001126681,-0.001126681,0.001126681,-0.001099815,0.001099815,-0.001099815,0.001099815,0.780344251,0.88014328,1368840,32768,0.004631388,0.004631388,0.004631388,38.10311736,38.13527069,0.000220025,0.000220025,0.000220025,604661.2289,0.013991188
6912000,0.782975803,0.013437212,0.004479071,0.004479071,0.004479071,-0.001131365,0.001131365,6.80E-12,-7.30E-12,1.01E-13,-6.51E-13,-0.001144148,0.001144148,-0.001144148,0.001144148,-0.001144148,0.001144148,-0.001144148,0.001144148,-0.001116862,0.001116862,-0.001116862,0.001116862,-6.11E-13,1.89E-13,4.43E-13,5.88E-16,-0.001131365,0.001131365,-0.001144148,0.001144148,-0.001144148,0.001144148,-0.001144148,0.001144148,-0.001144148,0.001144148,-0.001116862,0.001116862,-0.001116862,0.001116862,-0.001116862,0.001116862,-0.001116862,0.001116862,-7.33E-12,7.29E-12,-0.001131365,0.001131365,-2.25E-13,2.40E-13,-0.001144148,0.001144148,-0.001144148,0.001144148,-0.001144148,0.001144148,-0.001144148,0.001144148,-0.001116862,0.001116862,-0.001116862,0.001116862,0.768128257,0.669279501,1368840,32768,0.004702931,0.004702931,0.004702931,38.57177187,38.60397626,0.000223774,0.000223774,0.000223774,565362.2554,0.014208845
6998400,0.794668103,0.013632298,0.004544099,0.004544099,0.004544099,-0.001147529,0.001147529,6.71E-12,-7.41E-12,4.51E-14,-6.91E-13,-0.001160907,0.001160907,-0.001160907,0.001160907,-0.001160907,0.001160907,-0.001160907,0.001160907,-0.001132455,0.001132455,-0.001132455,0.001132455,-6.61E-13,1.23E-13,4.01E-13,-5.43E-14,-0.001147529,0.001147529,-0.001160907,0.001160907,-0.001160907,0.001160907,-0.001160907,0.001160907,-0.001160907,0.001160907,-0.001132455,0.001132455,-0.001132455,0.001132455,-0.001132455,0.001132455,-0.001132455,0.001132455,-7.29E-12,7.34E-12,-0.001147529,0.001147529,-2.17E-13,2.60E-13,-0.001160907,0.001160907,-0.001160907,0.001160907,-0.001160907,0.001160907,-0.001160907,0.001160907,-0.001132455,0.001132455,-0.001132455,0.001132455,0.764002463,0.613900261,1368840,32768,0.004769963,0.004769963,0.004769963,39.04043313,39.07268183,0.000227523,0.000227523,0.000227523,590395.8016,0.014412823
7084800,0.806111698,0.013822635,0.004607545,0.004607545,0.004607545,-0.001163596,0.001163596,6.71E-12,-7.41E-12,1.27E-14,-7.31E-13,-0.001177439,0.001177439,-0.001177439,0.001177439,-0.001177439,0.001177439,-0.001177439,0.001177439,-0.001148066,0.001148066,-0.001148066,0.001148066,-6.73E-13,1.19E-13,4.88E-13,4.80E-14,-0.001163596,0.001163596,-0.001177439,0.001177439,-0.001177439,0.001177439,-0.001177439,0.001177439,-0.001177439,0.001177439,-0.001148066,0.001148066,-0.001148066,0.001148066,-0.001148066,0.001148066,-0.001148066,0.001148066,-7.30E-12,7.35E-12,-0.001163596,0.001163596,-2.05E-13,2.58E-13,-0.001177439,0.001177439,-0.001177439,0.001177439,-0.001177439,0.001177439,-0.001177439,0.001177439,-0.001148066,0.001148066,-0.001148066,0.001148066,0.761876022,0.594198107,1368840,32768,0.004836586,0.004836586,0.004836586,39.50909428,39.5413874,0.000231273,0.000231273,0.000231273,591675.3088,0.014615597
7171200,0.817284175,0.014007243,0.004669081,0.004669081,0.004669081,-0.001179274,0.001179274,6.78E-12,-7.39E-12,8.12E-14,-7.75E-13,-0.001193557,0.001193557,-0.001193557,0.001193557,-0.001193557,0.001193557,-0.001193557,0.001193557,-0.001163286,0.001163286,-0.001163286,0.001163286,-6.12E-13,2.93E-13,5.73E-13,1.49E-13,-0.001179274,0.001179274,-0.001193557,0.001193557,-0.001193557,0.001193557,-0.001193557,0.001193557,-0.001193557,0.001193557,-0.001163286,0.001163286,-0.001163286,0.001163286,-0.001163286,0.001163286,-0.001163286,0.001163286,-7.38E-12,7.31E-12,-0.001179274,0.001179274,-2.35E-13,2.14E-13,-0.001193557,0.001193557,-0.001193557,0.001193557,-0.001193557,0.001193557,-0.001193557,0.001193557,-0.001163286,0.001163286,-0.001163286,0.001163286,0.756900796,0.533322397,1368840,32768,0.004901595,0.004901595,0.004901595,39.97775623,40.01009297,0.000235022,0.000235022,0.000235022,589368.4879,0.014813495
7257600,0.828164418,0.014185705,0.004728568,0.004728568,0.004728568,-0.001194341,0.001194341,6.59E-12,-7.54E-12,-7.32E-14,-1.01E-12,-0.001209156,0.001209156,-0.001209156,0.001209156,-0.001209156,0.001209156,-0.001209156,0.001209156,-0.00117779,0.00117779,-0.00117779,0.00117779,-6.43E-13,3.41E-13,5.79E-13,1.90E-13,-0.001194341,0.001194341,-0.001209156,0.001209156,-0.001209156,0.001209156,-0.001209156,0.001209156,-0.001209156,0.001209156,-0.00117779,0.00117779,-0.00117779,0.00117779,-0.00117779,0.00117779,-0.00117779,0.00117779,-7.27E-12,7.37E-12,-0.001194341,0.001194341,-1.67E-13,2.45E-13,-0.001209156,0.001209156,-0.001209156,0.001209156,-0.001209156,0.001209156,-0.001209156,0.001209156,-0.00117779,0.00117779,-0.00117779,0.00117779,0.751360275,0.468986383,1368840,32768,0.004964062,0.004964062,0.004964062,40.44641773,40.47879854,0.000238771,0.000238771,0.000238771,598901.7493,0.015003697
7344000,0.838634125,0.014356459,0.004785486,0.004785486,0.004785486,-0.001208409,0.001208409,6.64E-12,-7.42E-12,8.13E-14,-8.71E-13,-0.001223805,0.001223805,-0.001223805,0.001223805,-0.001223805,0.001223805,-0.001223805,0.001223805,-0.001191243,0.001191243,-0.001191243,0.001191243,-6.98E-13,3.04E-13,5.40E-13,1.29E-13,-0.001208409,0.001208409,-0.001223805,0.001223805,-0.001223805,0.001223805,-0.001223805,0.001223805,-0.001223805,0.001223805,-0.001191243,0.001191243,-0.001191243,0.001191243,-0.001191243,0.001191243,-0.001191243,0.001191243,-7.29E-12,7.29E-12,-0.001208409,0.001208409,-2.08E-13,2.28E-13,-0.001223805,0.001223805,-0.001223805,0.001223805,-0.001223805,0.001223805,-0.001223805,0.001223805,-0.001191243,0.001191243,-0.001191243,0.001191243,0.747192978,0.42818194,1368840,32768,0.005022385,0.005022385,0.005022385,40.73781672,40.75839948,0.000241103,0.000241103,0.000241103,612367.308,0.015181311
7430400,0.848560263,0.014517644,0.004839215,0.004839215,0.004839215,-0.001221281,0.001221281,6.62E-12,-7.42E-12,7.55E-14,-8.93E-13,-0.00123723,0.00123723,-0.00123723,0.00123723,-0.00123723,0.00123723,-0.00123723,0.00123723,-0.001203522,0.001203522,-0.001203522,0.001203522,-6.60E-13,3.60E-13,5.75E-13,1.58E-13,-0.001221281,0.001221281,-0.00123723,0.00123723,-0.00123723,0.00123723,-0.00123723,0.00123723,-0.00123723,0.00123723,-0.001203522,0.001203522,-0.001203522,0.001203522,-0.001203522,0.001203522,-0.001203522,0.001203522,-7.26E-12,7.30E-12,-0.001221281,0.001221281,-2.01E-13,2.39E-13,-0.00123723,0.00123723,-0.00123723,0.00123723,-0.00123723,0.00123723,-0.00123723,0.00123723,-0.001203522,0.001203522,-0.001203522,0.001203522,0.744052312,0.4031842,1368840,32768,0.00507575,0.00507575,0.00507575,40.78454923,40.78840152,0.000241476,0.000241476,0.000241476,621640.8752,0.015343853
7516800,0.857953585,0.014669559,0.004889853,0.004889853,0.004889853,-0.001233418,0.001233418,6.61E-12,-7.42E-12,7.65E-14,-9.08E-13,-0.001249886,0.001249886,-0.001249886,0.001249886,-0.001249886,0.001249886,-0.001249886,0.001249886,-0.001215093,0.001215093,-0.001215093,0.001215093,-6.53E-13,3.83E-13,6.04E-13,1.91E-13,-0.001233418,0.001233418,-0.001249886,0.001249886,-0.001249886,0.001249886,-0.001249886,0.001249886,-0.001249886,0.001249886,-0.001215093,0.001215093,-0.001215093,0.001215093,-0.001215093,0.001215093,-0.001215093,0.001215093,-7.26E-12,7.29E-12,-0.001233418,0.001233418,-2.02E-13,2.35E-13,-0.001249886,0.001249886,-0.001249886,0.001249886,-0.001249886,0.001249886,-0.001249886,0.001249886,-0.001215093,0.001215093,-0.001215093,0.001215093,0.741141806,0.381295825,1368840,32768,0.00512606,0.00512606,0.00512606,40.81614725,40.81840357,0.000241729,0.000241729,0.000241729,627132.4087,0.015497116
7603200,0.866833477,0.014812701,0.004937567,0.004937567,0.004937567,-0.00124485,0.00124485,6.60E-12,-7.42E-12,8.68E-14,-9.29E-13,-0.001261823,0.001261823,-0.001261823,0.001261823,-0.001261823,0.001261823,-0.001261823,0.001261823,-0.001225973,0.001225973,-0.001225973,0.001225973,-6.49E-13,4.19E-13,6.23E-13,2.12E-13,-0.00124485,0.00124485,-0.001261823,0.001261823,-0.001261823,0.001261823,-0.001261823,0.001261823,-0.001261823,0.001261823,-0.001225973,0.001225973,-0.001225973,0.001225973,-0.001225973,0.001225973,-0.001225973,0.001225973,-7.26E-12,7.28E-12,-0.00124485,0.00124485,-2.05E-13,2.30E-13,-0.001261823,0.001261823,-0.001261823,0.001261823,-0.001261823,0.001261823,-0.001261823,0.001261823,-0.001225973,0.001225973,-0.001225973,0.001225973,0.738781593,0.367167753,1368840,32768,0.005173447,0.005173447,0.005173447,40.84631158,40.84840561,0.00024197,0.00024197,0.00024197,631433.7061,0.015641495
7689600,0.875220289,0.014947616,0.004982539,0.004982539,0.004982539,-0.001255644,0.001255644,6.59E-12,-7.42E-12,9.23E-14,-9.40E-13,-0.001273094,0.001273094,-0.001273094,0.001273094,-0.001273094,0.001273094,-0.001273094,0.001273094,-0.001236248,0.001236248,-0.001236248,0.001236248,-6.36E-13,4.47E-13,6.41E-13,2.34E-13,-0.001255644,0.001255644,-0.001273094,0.001273094,-0.001273094,0.001273094,-0.001273094,0.001273094,-0.001273094,0.001273094,-0.001236248,0.001236248,-0.001236248,0.001236248,-0.001236248,0.001236248,-0.001236248,0.001236248,-7.25E-12,7.28E-12,-0.001255644,0.001255644,-2.02E-13,2.29E-13,-0.001273094,0.001273094,-0.001273094,0.001273094,-0.001273094,0.001273094,-0.001273094,0.001273094,-0.001236248,0.001236248,-0.001236248,0.001236248,0.737305245,0.365392034,1368840,32768,0.00521819,0.00521819,0.00521819,40.8763303,40.87840765,0.000242211,0.000242211,0.000242211,632895.1415,0.015777839
7776000,0.88313453,0.015074685,0.005024895,0.005024895,0.005024895,-0.001265855,0.001265855,6.58E-12,-7.43E-12,9.82E-14,-9.52E-13,-0.001283739,0.001283739,-0.001283739,0.001283739,-0.001283739,0.001283739,-0.001283739,0.001283739,-0.001245983,0.001245983,-0.001245983,0.001245983,-6.25E-13,4.77E-13,6.63E-13,2.55E-13,-0.001265855,0.001265855,-0.001283739,0.001283739,-0.001283739,0.001283739,-0.001283739,0.001283739,-0.001283739,0.001283739,-0.001245983,0.001245983,-0.001245983,0.001245983,-0.001245983,0.001245983,-0.001245983,0.001245983,-7.25E-12,7.28E-12,-0.001265855,0.001265855,-2.03E-13,2.28E-13,-0.001283739,0.001283739,-0.001283739,0.001283739,-0.001283739,0.001283739,-0.001283739,0.001283739,-0.001245983,0.001245983,-0.001245983,0.001245983,0.735906663,0.363616315,1368840,32768,0.005260512,0.005260512,0.005260512,40.90633396,40.90840969,0.000242451,0.000242451,0.000242451,630429.1736,0.015906821
7862400,0.890596672,0.015194282,0.005064761,0.005064761,0.005064761,-0.001275468,0.001275468,6.57E-12,-7.42E-12,1.03E-13,-9.69E-13,-0.001293768,0.001293768,-0.001293768,0.001293768,-0.001293768,0.001293768,-0.001293768,0.001293768,-0.001255142,0.001255142,-0.001255142,0.001255142,-6.13E-13,5.11E-13,6.83E-13,2.75E-13,-0.001275468,0.001275468,-0.001293768,0.001293768,-0.001293768,0.001293768,-0.001293768,0.001293768,-0.001293768,0.001293768,-0.001255142,0.001255142,-0.001255142,0.001255142,-0.001255142,0.001255142,-0.001255142,0.001255142,-7.24E-12,7.27E-12,-0.001275468,0.001275468,-2.02E-13,2.30E-13,-0.001293768,0.001293768,-0.001293768,0.001293768,-0.001293768,0.001293768,-0.001293768,0.001293768,-0.001255142,0.001255142,-0.001255142,0.001255142,0.734568265,0.361840595,1368840,32768,0.005300353,0.005300353,0.005300353,40.93633606,40.93841174,0.000242691,0.000242691,0.000242691,627093.7932,0.016028256
7948800,0.897627019,0.015306767,0.005102256,0.005102256,0.005102256,-0.001284511,0.001284511,6.57E-12,-7.43E-12,1.12E-13,-9.96E-13,-0.001303207,0.001303207,-0.001303207,0.001303207,-0.001303207,0.001303207,-0.001303207,0.001303207,-0.001263754,0.001263754,-0.001263754,0.001263754,-6.09E-13,5.52E-13,7.06E-13,3.03E-13,-0.001284511,0.001284511,-0.001303207,0.001303207,-0.001303207,0.001303207,-0.001303207,0.001303207,-0.001303207,0.001303207,-0.001263754,0.001263754,-0.001263754,0.001263754,-0.001263754,0.001263754,-0.001263754,0.001263754,-7.24E-12,7.27E-12,-0.001284511,0.001284511,-1.99E-13,2.27E-13,-0.001303207,0.001303207,-0.001303207,0.001303207,-0.001303207,0.001303207,-0.001303207,0.001303207,-0.001263754,0.001263754,-0.001263754,0.001263754,0.733277763,0.360064876,1368840,32768,0.005337831,0.005337831,0.005337831,40.96633798,40.96841378,0.000242931,0.000242931,0.000242931,623038.1529,0.016142506
8035200,0.904245613,0.01541249,0.005137497,0.005137497,0.005137497,-0.001293013,0.001293013,6.55E-12,-7.42E-12,1.13E-13,-1.01E-12,-0.001312086,0.001312086,-0.001312086,0.001312086,-0.001312086,0.001312086,-0.001312086,0.001312086,-0.001271845,0.001271845,-0.001271845,0.001271845,-5.98E-13,5.73E-13,7.29E-13,3.17E-13,-0.001293013,0.001293013,-0.001312086,0.001312086,-0.001312086,0.001312086,-0.001312086,0.001312086,-0.001312086,0.001312086,-0.001271845,0.001271845,-0.001271845,0.001271845,-0.001271845,0.001271845,-0.001271845,0.001271845,-7.22E-12,7.26E-12,-0.001293013,0.001293013,-2.03E-13,2.32E-13,-0.001312086,0.001312086,-0.001312086,0.001312086,-0.001312086,0.001312086,-0.001312086,0.001312086,-0.001271845,0.001271845,-0.001271845,0.001271845,0.732026322,0.358289156,1368840,32768,0.005373064,0.005373064,0.005373064,40.99633989,40.99841582,0.000243171,0.000243171,0.000243171,618391.9286,0.016249921
8121600,0.91048291,0.015511963,0.005170654,0.005170654,0.005170654,-0.001301078,0.001301078,6.54E-12,-7.43E-12,1.20E-13,-1.03E-12,-0.001320511,0.001320511,-0.001320511,0.001320511,-0.001320511,0.001320511,-0.001320511,0.001320511,-0.001279522,0.001279522,-0.001279522,0.001279522,-5.87E-13,6.13E-13,7.53E-13,3.42E-13,-0.001301078,0.001301078,-0.001320511,0.001320511,-0.001320511,0.001320511,-0.001320511,0.001320511,-0.001320511,0.001320511,-0.001279522,0.001279522,-0.001279522,0.001279522,-0.001279522,0.001279522,-0.001279522,0.001279522,-7.22E-12,7.26E-12,-0.001301078,0.001301078,-2.00E-13,2.35E-13,-0.001320511,0.001320511,-0.001320511,0.001320511,-0.001320511,0.001320511,-0.001320511,0.001320511,-0.001279522,0.001279522,-0.001279522,0.001279522,0.730805887,0.356513437,1368840,32768,0.005406487,0.005406487,0.005406487,41.05959392,41.0638902,0.000243677,0.000243677,0.000243677,613225.1619,0.016351829
8208000,0.916369067,0.015605689,0.005201896,0.005201896,0.005201896,-0.001308764,0.001308764,6.53E-12,-7.43E-12,1.29E-13,-1.04E-12,-0.001328539,0.001328539,-0.001328539,0.001328539,-0.001328539,0.001328539,-0.001328539,0.001328539,-0.001286839,0.001286839,-0.001286839,0.001286839,-5.80E-13,6.46E-13,7.62E-13,3.64E-13,-0.001308764,0.001308764,-0.001328539,0.001328539,-0.001328539,0.001328539,-0.001328539,0.001328539,-0.001328539,0.001328539,-0.001286839,0.001286839,-0.001286839,0.001286839,-0.001286839,0.001286839,-0.001286839,0.001286839,-7.22E-12,7.25E-12,-0.001308764,0.001308764,-1.97E-13,2.25E-13,-0.001328539,0.001328539,-0.001328539,0.001328539,-0.001328539,0.001328539,-0.001328539,0.001328539,-0.001286839,0.001286839,-0.001286839,0.001286839,0.72960979,0.354737718,1368840,32768,0.005438339,0.005438339,0.005438339,41.1650584,41.17225159,0.00024452,0.00024452,0.00024452,607658.7009,0.016448956
8294400,0.921919502,0.015693984,0.005231328,0.005231328,0.005231328,-0.001316021,0.001316021,6.52E-12,-7.42E-12,1.22E-13,-1.05E-12,-0.001336122,0.001336122,-0.001336122,0.001336122,-0.001336122,0.001336122,-0.001336122,0.001336122,-0.001293747,0.001293747,-0.001293747,0.001293747,-5.65E-13,6.56E-13,7.75E-13,3.94E-13,-0.001316021,0.001316021,-0.001336122,0.001336122,-0.001336122,0.001336122,-0.001336122,0.001336122,-0.001336122,0.001336122,-0.001293747,0.001293747,-0.001293747,0.001293747,-0.001293747,0.001293747,-0.001293747,0.001293747,-7.22E-12,7.24E-12,-0.001316021,0.001316021,-1.92E-13,2.12E-13,-0.001336122,0.001336122,-0.001336122,0.001336122,-0.001336122,0.001336122,-0.001336122,0.001336122,-0.001293747,0.001293747,-0.001293747,0.001293747,0.728845009,0.359074016,1368840,32768,0.00546841,0.00546841,0.00546841,41.27314104,41.28061299,0.000245385,0.000245385,0.000245385,601714.177,0.01654066
8380800,0.927148705,0.015777108,0.005259036,0.005259036,0.005259036,-0.001322892,0.001322892,6.50E-12,-7.40E-12,1.34E-13,-1.07E-12,-0.001343287,0.001343287,-0.001343287,0.001343287,-0.001343287,0.001343287,-0.001343287,0.001343287,-0.001300303,0.001300303,-0.001300303,0.001300303,-5.61E-13,6.93E-13,8.02E-13,4.02E-13,-0.001322892,0.001322892,-0.001343287,0.001343287,-0.001343287,0.001343287,-0.001343287,0.001343287,-0.001343287,0.001343287,-0.001300303,0.001300303,-0.001300303,0.001300303,-0.001300303,0.001300303,-0.001300303,0.001300303,-7.19E-12,7.22E-12,-0.001322892,0.001322892,-1.99E-13,2.25E-13,-0.001343287,0.001343287,-0.001343287,0.001343287,-0.001343287,0.001343287,-0.001343287,0.001343287,-0.001300303,0.001300303,-0.001300303,0.001300303,0.728227484,0.364945931,1368840,32768,0.005496882,0.005496882,0.005496882,41.38147197,41.38897438,0.000246252,0.000246252,0.000246252,594053.1291,0.016627498
8467200,0.93207094,0.015855299,0.0052851,0.0052851,0.0052851,-0.001329377,0.001329377,6.48E-12,-7.39E-12,1.41E-13,-1.08E-12,-0.001350044,0.001350044,-0.001350044,0.001350044,-0.001350044,0.001350044,-0.001350044,0.001350044,-0.001306497,0.001306497,-0.001306497,0.001306497,-5.51E-13,7.25E-13,8.14E-13,4.28E-13,-0.001329377,0.001329377,-0.001350044,0.001350044,-0.001350044,0.001350044,-0.001350044,0.001350044,-0.001350044,0.001350044,-0.001306497,0.001306497,-0.001306497,0.001306497,-0.001306497,0.001306497,-0.001306497,0.001306497,-7.18E-12,7.20E-12,-0.001329377,0.001329377,-1.96E-13,2.13E-13,-0.001350044,0.001350044,-0.001350044,0.001350044,-0.001350044,0.001350044,-0.001350044,0.001350044,-0.001306497,0.001306497,-0.001306497,0.001306497,0.727655863,0.370817845,1368840,32768,0.005523753,0.005523753,0.005523753,41.48982813,41.49733578,0.000247119,0.000247119,0.000247119,585814.5135,0.016709459
8553600,0.936700258,0.015928794,0.005309598,0.005309598,0.005309598,-0.001335487,0.001335487,6.47E-12,-7.40E-12,1.47E-13,-1.09E-12,-0.00135641,0.00135641,-0.00135641,0.00135641,-0.00135641,0.00135641,-0.00135641,0.00135641,-0.001312337,0.001312337,-0.001312337,0.001312337,-5.44E-13,7.51E-13,8.18E-13,4.61E-13,-0.001335487,0.001335487,-0.00135641,0.00135641,-0.00135641,0.00135641,-0.00135641,0.00135641,-0.00135641,0.00135641,-0.001312337,0.001312337,-0.001312337,0.001312337,-0.001312337,0.001312337,-0.001312337,0.001312337,-7.18E-12,7.20E-12,-0.001335487,0.001335487,-1.87E-13,1.94E-13,-0.00135641,0.00135641,-0.00135641,0.00135641,-0.00135641,0.00135641,-0.00135641,0.00135641,-0.001312337,0.001312337,-0.001312337,0.001312337,0.727125442,0.376689759,1368840,32768,0.005549071,0.005549071,0.005549071,41.59818689,41.60569717,0.000247985,0.000247985,0.000247985,577430.8153,0.016786689
8640000,0.941050458,0.01599782,0.005332607,0.005332607,0.005332607,-0.001341241,0.001341241,6.45E-12,-7.41E-12,1.66E-13,-1.14E-12,-0.001362403,0.001362403,-0.001362403,0.001362403,-0.001362403,0.001362403,-0.001362403,0.001362403,-0.001317839,0.001317839,-0.001317839,0.001317839,-5.52E-13,8.09E-13,8.40E-13,4.92E-13,-0.001341241,0.001341241,-0.001362403,0.001362403,-0.001362403,0.001362403,-0.001362403,0.001362403,-0.001362403,0.001362403,-0.001317839,0.001317839,-0.001317839,0.001317839,-0.001317839,0.001317839,-0.001317839,0.001317839,-7.18E-12,7.19E-12,-0.001341241,0.001341241,-1.83E-13,1.89E-13,-0.001362403,0.001362403,-0.001362403,0.001362403,-0.001362403,0.001362403,-0.001362403,0.001362403,-0.001317839,0.001317839,-0.001317839,0.001317839,0.726632632,0.382561673,1368840,32768,0.005572912,0.005572912,0.005572912,41.70654591,41.71405857,0.000248852,0.000248852,0.000248852,568979.9764,0.016859418
8726400,0.945135044,0.016062599,0.0053542,0.0053542,0.0053542,-0.001346656,0.001346656,6.44E-12,-7.40E-12,1.76E-13,-1.16E-12,-0.001368041,0.001368041,-0.001368041,0.001368041,-0.001368041,0.001368041,-0.001368041,0.001368041,-0.00132302,0.00132302,-0.00132302,0.00132302,-5.48E-13,8.44E-13,8.33E-13,5.24E-13,-0.001346656,0.001346656,-0.001368041,0.001368041,-0.001368041,0.001368041,-0.001368041,0.001368041,-0.001368041,0.001368041,-0.00132302,0.00132302,-0.00132302,0.00132302,-0.00132302,0.00132302,-0.00132302,0.00132302,-7.18E-12,7.18E-12,-0.001346656,0.001346656,-1.72E-13,1.61E-13,-0.001368041,0.001368041,-0.001368041,0.001368041,-0.001368041,0.001368041,-0.001368041,0.001368041,-0.00132302,0.00132302,-0.00132302,0.00132302,0.726174621,0.388433588,1368840,32768,0.005595348,0.005595348,0.005595348,41.81490495,41.82241997,0.000249719,0.000249719,0.000249719,560528.6452,0.016927866
8812800,0.94896719,0.016122833,0.005374278,0.005374278,0.005374278,-0.001351703,0.001351703,6.43E-12,-7.34E-12,2.09E-13,-1.12E-12,-0.00137331,0.00137331,-0.00137331,0.00137331,-0.00137331,0.00137331,-0.00137331,0.00137331,-0.001327827,0.001327827,-0.001327827,0.001327827,-5.46E-13,8.36E-13,8.38E-13,5.33E-13,-0.001351703,0.001351703,-0.00137331,0.00137331,-0.00137331,0.00137331,-0.00137331,0.00137331,-0.00137331,0.00137331,-0.001327827,0.001327827,-0.001327827,0.001327827,-0.001327827,0.001327827,-0.001327827,0.001327827,-7.13E-12,7.15E-12,-0.001351703,0.001351703,-1.61E-13,1.67E-13,-0.00137331,0.00137331,-0.00137331,0.00137331,-0.00137331,0.00137331,-0.00137331,0.00137331,-0.001327827,0.001327827,-0.001327827,0.001327827,0.719619281,0.303444395,1368840,32768,0.00561626,0.00561626,0.00561626,41.9232641,41.93078136,0.000250586,0.000250586,0.000250586,553254.241,0.01699167
8899200,0.95254037,0.016178784,0.005392928,0.005392928,0.005392928,-0.001355755,0.001355755,6.39E-12,-7.37E-12,1.77E-13,-1.17E-12,-0.00137781,0.00137781,-0.00137781,0.00137781,-0.00137781,0.00137781,-0.00137781,0.00137781,-0.001331432,0.001331432,-0.001331432,0.001331432,-5.20E-13,8.87E-13,8.71E-13,5.64E-13,-0.001355755,0.001355755,-0.00137781,0.00137781,-0.00137781,0.00137781,-0.00137781,0.00137781,-0.00137781,0.00137781,-0.001331432,0.001331432,-0.001331432,0.001331432,-0.001331432,0.001331432,-0.001331432,0.001331432,-7.14E-12,7.14E-12,-0.001355755,0.001355755,-1.68E-13,1.62E-13,-0.00137781,0.00137781,-0.00137781,0.00137781,-0.00137781,0.00137781,-0.00137781,0.00137781,-0.001331432,0.001331432,-0.001331432,0.001331432,0.716806173,0.279582624,1368840,32768,0.005633048,0.005633048,0.005633048,41.92566479,41.92609128,0.000250605,0.000250605,0.000250605,565498.619,0.017042894
8985600,0.955849958,0.016230676,0.005410225,0.005410225,0.005410225,-0.001359527,0.001359527,6.40E-12,-7.38E-12,1.71E-13,-1.17E-12,-0.001381866,0.001381866,-0.001381866,0.001381866,-0.001381866,0.001381866,-0.001381866,0.001381866,-0.001334915,0.001334915,-0.001334915,0.001334915,-1.05E-12,3.34E-13,3.15E-13,2.80E-14,-0.001359527,0.001359527,-0.001381866,0.001381866,-0.001381866,0.001381866,-0.001381866,0.001381866,-0.001381866,0.001381866,-0.001334915,0.001334915,-0.001334915,0.001334915,-0.001334915,0.001334915,-0.001334915,0.001334915,-7.15E-12,7.14E-12,-0.001359527,0.001359527,-1.63E-13,1.48E-13,-0.001381866,0.001381866,-0.001381866,0.001381866,-0.001381866,0.001381866,-0.001381866,0.001381866,-0.001334915,0.001334915,-0.001334915,0.001334915,0.717841377,0.313729103,1368840,32768,0.005648673,0.005648673,0.005648673,41.80421428,41.79610964,0.000249634,0.000249634,0.000249634,565121.0103,0.017090574
9072000,0.958914623,0.016278662,0.005426221,0.005426221,0.005426221,-0.001363273,0.001363273,6.42E-12,-7.39E-12,1.65E-13,-1.15E-12,-0.001385727,0.001385727,-0.001385727,0.001385727,-0.001385727,0.001385727,-0.001385727,0.001385727,-0.001338531,0.001338531,-0.001338531,0.001338531,-8.64E-13,5.06E-13,5.14E-13,1.84E-13,-0.001363273,0.001363273,-0.001385727,0.001385727,-0.001385727,0.001385727,-0.001385727,0.001385727,-0.001385727,0.001385727,-0.001338531,0.001338531,-0.001338531,0.001338531,-0.001338531,0.001338531,-0.001338531,0.001338531,-7.16E-12,7.16E-12,-0.001363273,0.001363273,-1.80E-13,1.74E-13,-0.001385727,0.001385727,-0.001385727,0.001385727,-0.001385727,0.001385727,-0.001385727,0.001385727,-0.001338531,0.001338531,-0.001338531,0.001338531,0.716838413,0.31420981,1368840,32768,0.005664195,0.005664195,0.005664195,41.67504594,41.66612801,0.0002486,0.0002486,0.0002486,552290.7328,0.017137937
9158400,0.96175293,0.016323031,0.00544101,0.00544101,0.00544101,-0.001366558,0.001366558,6.41E-12,-7.37E-12,1.66E-13,-1.16E-12,-0.001389198,0.001389198,-0.001389198,0.001389198,-0.001389198,0.001389198,-0.001389198,0.001389198,-0.00134162,0.00134162,-0.00134162,0.00134162,-8.65E-13,5.08E-13,5.12E-13,1.88E-13,-0.001366558,0.001366558,-0.001389198,0.001389198,-0.001389198,0.001389198,-0.001389198,0.001389198,-0.001389198,0.001389198,-0.00134162,0.00134162,-0.00134162,0.00134162,-0.00134162,0.00134162,-0.00134162,0.00134162,-7.14E-12,7.15E-12,-0.001366558,0.001366558,-1.76E-13,1.72E-13,-0.001389198,0.001389198,-0.001389198,0.001389198,-0.001389198,0.001389198,-0.001389198,0.001389198,-0.00134162,0.00134162,-0.00134162,0.00134162,0.715540359,0.309772469,1368840,32768,0.005677801,0.005677801,0.005677801,41.54514402,41.53614638,0.000247561,0.000247561,0.000247561,546754.7796,0.01717946
9244800,0.964382153,0.016364061,0.005454687,0.005454687,0.005454687,-0.001369549,0.001369549,6.40E-12,-7.38E-12,1.69E-13,-1.16E-12,-0.001392378,0.001392378,-0.001392378,0.001392378,-0.001392378,0.001392378,-0.001392378,0.001392378,-0.001344417,0.001344417,-0.001344417,0.001344417,-8.66E-13,5.14E-13,5.44E-13,1.59E-13,-0.001369549,0.001369549,-0.001392378,0.001392378,-0.001392378,0.001392378,-0.001392378,0.001392378,-0.001392378,0.001392378,-0.001344417,0.001344417,-0.001344417,0.001344417,-0.001344417,0.001344417,-0.001344417,0.001344417,-7.13E-12,7.17E-12,-0.001369549,0.001369549,-1.96E-13,2.13E-13,-0.001392378,0.001392378,-0.001392378,0.001392378,-0.001392378,0.001392378,-0.001392378,0.001392378,-0.001344417,0.001344417,-0.001344417,0.001344417,0.714249659,0.305335127,1368840,32768,0.005690194,0.005690194,0.005690194,41.41516742,41.40616474,0.000246521,0.000246521,0.000246521,542441.0059,0.01721728
9331200,0.966818262,0.016402012,0.005467337,0.005467337,0.005467337,-0.001372293,0.001372293,6.40E-12,-7.38E-12,1.61E-13,-1.15E-12,-0.0013953,0.0013953,-0.0013953,0.0013953,-0.0013953,0.0013953,-0.0013953,0.0013953,-0.001346979,0.001346979,-0.001346979,0.001346979,-8.60E-13,5.04E-13,5.24E-13,1.79E-13,-0.001372293,0.001372293,-0.0013953,0.0013953,-0.0013953,0.0013953,-0.0013953,0.0013953,-0.0013953,0.0013953,-0.001346979,0.001346979,-0.001346979,0.001346979,-0.001346979,0.001346979,-0.001346979,0.001346979,-7.14E-12,7.15E-12,-0.001372293,0.001372293,-1.82E-13,1.87E-13,-0.0013953,0.0013953,-0.0013953,0.0013953,-0.0013953,0.0013953,-0.0013953,0.0013953,-0.001346979,0.001346979,-0.001346979,0.001346979,0.712965975,0.300897786,1368840,32768,0.005701563,0.005701563,0.005701563,41.28518309,41.27618311,0.000245481,0.000245481,0.000245481,538346.4126,0.017251978
9417600,0.969076011,0.016437123,0.005479041,0.005479041,0.005479041,-0.00137481,0.00137481,6.41E-12,-7.38E-12,1.59E-13,-1.14E-12,-0.001397984,0.001397984,-0.001397984,0.001397984,-0.001397984,0.001397984,-0.001397984,0.001397984,-0.001349323,0.001349323,-0.001349323,0.001349323,-8.57E-13,4.94E-13,5.11E-13,1.90E-13,-0.00137481,0.00137481,-0.001397984,0.001397984,-0.001397984,0.001397984,-0.001397984,0.001397984,-0.001397984,0.001397984,-0.001349323,0.001349323,-0.001349323,0.001349323,-0.001349323,0.001349323,-0.001349323,0.001349323,-7.15E-12,7.15E-12,-0.00137481,0.00137481,-1.76E-13,1.69E-13,-0.001397984,0.001397984,-0.001397984,0.001397984,-0.001397984,0.001397984,-0.001397984,0.001397984,-0.001349323,0.001349323,-0.001349323,0.001349323,0.711688889,0.296460445,1368840,32768,0.005711989,0.005711989,0.005711989,41.15519796,41.14620148,0.000244442,0.000244442,0.000244442,534470.2644,0.017283797
9504000,0.971169017,0.016469616,0.005489872,0.005489872,0.005489872,-0.001377116,0.001377116,6.42E-12,-7.39E-12,1.61E-13,-1.16E-12,-0.00140045,0.00140045,-0.00140045,0.00140045,-0.00140045,0.00140045,-0.00140045,0.00140045,-0.001351468,0.001351468,-0.001351468,0.001351468,-8.62E-13,5.14E-13,5.02E-13,2.07E-13,-0.001377116,0.001377116,-0.00140045,0.00140045,-0.00140045,0.00140045,-0.00140045,0.00140045,-0.00140045,0.00140045,-0.001351468,0.001351468,-0.001351468,0.001351468,-0.001351468,0.001351468,-0.001351468,0.001351468,-7.17E-12,7.16E-12,-0.001377116,0.001377116,-1.66E-13,1.52E-13,-0.00140045,0.00140045,-0.00140045,0.00140045,-0.00140045,0.00140045,-0.00140045,0.00140045,-0.001351468,0.001351468,-0.001351468,0.001351468,0.710417962,0.292023103,1368840,32768,0.005721544,0.005721544,0.005721544,41.02521275,41.01621984,0.000243402,0.000243402,0.000243402,530809.8352,0.017312961
9590400,0.973109848,0.016499694,0.005499898,0.005499898,0.005499898,-0.001379229,0.001379229,6.42E-12,-7.40E-12,1.74E-13,-1.18E-12,-0.001402713,0.001402713,-0.001402713,0.001402713,-0.001402713,0.001402713,-0.001402713,0.001402713,-0.001353428,0.001353428,-0.001353428,0.001353428,-8.78E-13,5.30E-13,5.06E-13,2.13E-13,-0.001379229,0.001379229,-0.001402713,0.001402713,-0.001402713,0.001402713,-0.001402713,0.001402713,-0.001402713,0.001402713,-0.001353428,0.001353428,-0.001353428,0.001353428,-0.001353428,0.001353428,-0.001353428,0.001353428,-7.18E-12,7.16E-12,-0.001379229,0.001379229,-1.67E-13,1.51E-13,-0.001402713,0.001402713,-0.001402713,0.001402713,-0.001402713,0.001402713,-0.001402713,0.001402713,-0.001353428,0.001353428,-0.001353428,0.001353428,0.709152759,0.287585762,1368840,32768,0.005730297,0.005730297,0.005730297,40.89522754,40.88623821,0.000242362,0.000242362,0.000242362,527360.8496,0.017339676
9676800,0.974902602,0.016527431,0.005509144,0.005509144,0.005509144,-0.001380997,0.001380997,6.51E-12,-7.37E-12,2.03E-13,-1.10E-12,-0.001404617,0.001404617,-0.001404617,0.001404617,-0.001404617,0.001404617,-0.001404617,0.001404617,-0.001355055,0.001355055,-0.001355055,0.001355055,-1.07E-12,2.93E-13,3.90E-13,7.39E-14,-0.001380997,0.001380997,-0.001404617,0.001404617,-0.001404617,0.001404617,-0.001404617,0.001404617,-0.001404617,0.001404617,-0.001355055,0.001355055,-0.001355055,0.001355055,-0.001355055,0.001355055,-0.001355055,0.001355055,-7.11E-12,7.27E-12,-0.001380997,0.001380997,-1.38E-13,2.04E-13,-0.001404617,0.001404617,-0.001404617,0.001404617,-0.001404617,0.001404617,-0.001404617,0.001404617,-0.001355055,0.001355055,-0.001355055,0.001355055,0.707896578,0.283148421,1368840,32768,0.005737619,0.005737619,0.005737619,40.68402384,40.66962474,0.000240672,0.000240672,0.000240672,524060.3201,0.017362026
9763200,0.976552108,0.016552971,0.005517657,0.005517657,0.005517657,-0.001382421,0.001382421,6.49E-12,-7.44E-12,1.32E-13,-1.11E-12,-0.001406182,0.001406182,-0.001406182,0.001406182,-0.001406182,0.001406182,-0.001406182,0.001406182,-0.001356342,0.001356342,-0.001356342,0.001356342,-8.51E-13,4.39E-13,4.59E-13,2.23E-13,-0.001382421,0.001382421,-0.001406182,0.001406182,-0.001406182,0.001406182,-0.001406182,0.001406182,-0.001406182,0.001406182,-0.001356342,0.001356342,-0.001356342,0.001356342,-0.001356342,0.001356342,-0.001356342,0.001356342,-7.24E-12,7.20E-12,-0.001382421,0.001382421,-1.57E-13,1.04E-13,-0.001406182,0.001406182,-0.001406182,0.001406182,-0.001406182,0.001406182,-0.001406182,0.001406182,-0.001356342,0.001356342,-0.001356342,0.001356342,0.708396184,0.305150939,1368840,32768,0.005743519,0.005743519,0.005743519,40.38536665,40.36496705,0.000238283,0.000238283,0.000238283,521142.2293,0.017380035
9849600,0.97807073,0.016576502,0.005525501,0.005525501,0.005525501,-0.00138382,0.00138382,6.45E-12,-7.44E-12,1.46E-13,-1.14E-12,-0.001407629,0.001407629,-0.001407629,0.001407629,-0.001407629,0.001407629,-0.001407629,0.001407629,-0.001357689,0.001357689,-0.001357689,0.001357689,-8.68E-13,4.64E-13,5.05E-13,1.97E-13,-0.00138382,0.00138382,-0.001407629,0.001407629,-0.001407629,0.001407629,-0.001407629,0.001407629,-0.001407629,0.001407629,-0.001357689,0.001357689,-0.001357689,0.001357689,-0.001357689,0.001357689,-0.001357689,0.001357689,-7.21E-12,7.18E-12,-0.00138382,0.00138382,-1.74E-13,1.57E-13,-0.001407629,0.001407629,-0.001407629,0.001407629,-0.001407629,0.001407629,-0.001407629,0.001407629,-0.001357689,0.001357689,-0.001357689,0.001357689,0.708887423,0.325147771,1368840,32768,0.005749315,0.005749315,0.005749315,40.08126408,40.06030937,0.00023585,0.00023585,0.00023585,512921.0274,0.017397727
9936000,0.979470086,0.016598195,0.005532732,0.005532732,0.005532732,-0.001385062,0.001385062,6.46E-12,-7.43E-12,1.63E-13,-1.13E-12,-0.001408914,0.001408914,-0.001408914,0.001408914,-0.001408914,0.001408914,-0.001408914,0.001408914,-0.001358883,0.001358883,-0.001358883,0.001358883,-8.50E-13,4.97E-13,4.93E-13,2.03E-13,-0.001385062,0.001385062,-0.001408914,0.001408914,-0.001408914,0.001408914,-0.001408914,0.001408914,-0.001408914,0.001408914,-0.001358883,0.001358883,-0.001358883,0.001358883,-0.001358883,0.001358883,-0.001358883,0.001358883,-7.20E-12,7.20E-12,-0.001385062,0.001385062,-1.57E-13,1.57E-13,-0.001408914,0.001408914,-0.001408914,0.001408914,-0.001408914,0.001408914,-0.001408914,0.001408914,-0.001358883,0.001358883,-0.001358883,0.001358883,0.709143854,0.339963928,1368840,32768,0.005754458,0.005754458,0.005754458,39.7766456,39.75565169,0.000233413,0.000233413,0.000233413,505274.26,0.017413425
10022400,0.980760708,0.016618215,0.005539405,0.005539405,0.005539405,-0.001386142,0.001386142,6.72E-12,-7.17E-12,3.16E-13,-9.58E-13,-0.001410043,0.001410043,-0.001410043,0.001410043,-0.001410043,0.001410043,-0.001410043,0.001410043,-0.001359914,0.001359914,-0.001359914,0.001359914,-1.06E-12,2.65E-13,3.31E-13,-6.57E-14,-0.001386142,0.001386142,-0.001410043,0.001410043,-0.001410043,0.001410043,-0.001410043,0.001410043,-0.001410043,0.001410043,-0.001359914,0.001359914,-0.001359914,0.001359914,-0.001359914,0.001359914,-0.001359914,0.001359914,-7.23E-12,7.17E-12,-0.001386142,0.001386142,-2.77E-13,1.37E-13,-0.001410043,0.001410043,-0.001410043,0.001410043,-0.001410043,0.001410043,-0.001410043,0.001410043,-0.001359914,0.001359914,-0.001359914,0.001359914,0.709471603,0.354780085,1368840,32768,0.005758934,0.005758934,0.005758934,39.47197483,39.45099401,0.000230976,0.000230976,0.000230976,498735.3787,0.01742709
10108800,0.981952121,0.016636707,0.005545569,0.005545569,0.005545569,-0.001387101,0.001387101,6.38E-12,-7.45E-12,5.89E-14,-1.20E-12,-0.001411044,0.001411044,-0.001411044,0.001411044,-0.001411044,0.001411044,-0.001411044,0.001411044,-0.00136083,0.00136083,-0.00136083,0.00136083,-9.94E-13,3.01E-13,3.73E-13,6.17E-15,-0.001387101,0.001387101,-0.001411044,0.001411044,-0.001411044,0.001411044,-0.001411044,0.001411044,-0.001411044,0.001411044,-0.00136083,0.00136083,-0.00136083,0.00136083,-0.00136083,0.00136083,-0.00136083,0.00136083,-7.19E-12,7.14E-12,-0.001387101,0.001387101,-2.09E-13,1.81E-13,-0.001411044,0.001411044,-0.001411044,0.001411044,-0.001411044,0.001411044,-0.001411044,0.001411044,-0.00136083,0.00136083,-0.00136083,0.00136083,0.709865256,0.369596242,1368840,32768,0.005762908,0.005762908,0.005762908,39.16729869,39.14633632,0.000228538,0.000228538,0.000228538,492405.3118,0.01743922
10195200,0.983052941,0.016653805,0.005551268,0.005551268,0.005551268,-0.00138795,0.00138795,6.58E-12,-7.27E-12,2.43E-13,-1.03E-12,-0.001411928,0.001411928,-0.001411928,0.001411928,-0.001411928,0.001411928,-0.001411928,0.001411928,-0.001361642,0.001361642,-0.001361642,0.001361642,-5.79E-13,7.49E-13,7.66E-13,3.97E-13,-0.00138795,0.00138795,-0.001411928,0.001411928,-0.001411928,0.001411928,-0.001411928,0.001411928,-0.001411928,0.001411928,-0.001361642,0.001361642,-0.001361642,0.001361642,-0.001361642,0.001361642,-0.001361642,0.001361642,-7.34E-12,7.03E-12,-0.00138795,0.00138795,-2.76E-13,1.11E-13,-0.001411928,0.001411928,-0.001411928,0.001411928,-0.001411928,0.001411928,-0.001411928,0.001411928,-0.001361642,0.001361642,-0.001361642,0.001361642,0.710320178,0.384412399,1368840,32768,0.005766422,0.005766422,0.005766422,38.86262202,38.84167864,0.000226101,0.000226101,0.000226101,486248.7065,0.017449947
10281600,0.984070969,0.016669631,0.005556544,0.005556544,0.005556544,-0.001388696,0.001388696,6.54E-12,-7.27E-12,2.24E-13,-9.36E-13,-0.001412704,0.001412704,-0.001412704,0.001412704,-0.001412704,0.001412704,-0.001412704,0.001412704,-0.001362359,0.001362359,-0.001362359,0.001362359,-6.41E-13,5.65E-13,7.52E-13,3.61E-13,-0.001388696,0.001388696,-0.001412704,0.001412704,-0.001412704,0.001412704,-0.001412704,0.001412704,-0.001412704,0.001412704,-0.001362359,0.001362359,-0.001362359,0.001362359,-0.001362359,0.001362359,-0.001362359,0.001362359,-7.43E-12,6.89E-12,-0.001388696,0.001388696,-3.27E-13,8.50E-14,-0.001412704,0.001412704,-0.001412704,0.001412704,-0.001412704,0.001412704,-0.001412704,0.001412704,-0.001362359,0.001362359,-0.001362359,0.001362359,0.710832347,0.399228556,1368840,32768,0.005769515,0.005769515,0.005769515,38.55794532,38.53702096,0.000223664,0.000223664,0.000223664,480258.2,0.017459389
10368000,0.98501327,0.016684292,0.005561431,0.005561431,0.005561431,-0.00138935,0.00138935,6.43E-12,-7.35E-12,1.69E-13,-9.49E-13,-0.001413381,0.001413381,-0.001413381,0.001413381,-0.001413381,0.001413381,-0.001413381,0.001413381,-0.001362988,0.001362988,-0.001362988,0.001362988,-8.27E-13,3.34E-13,3.86E-13,5.83E-14,-0.00138935,0.00138935,-0.001413381,0.001413381,-0.001413381,0.001413381,-0.001413381,0.001413381,-0.001413381,0.001413381,-0.001362988,0.001362988,-0.001362988,0.001362988,-0.001362988,0.001362988,-0.001362988,0.001362988,-7.33E-12,6.98E-12,-0.00138935,0.00138935,-1.53E-13,2.05E-13,-0.001413381,0.001413381,-0.001413381,0.001413381,-0.001413381,0.001413381,-0.001413381,0.001413381,-0.001362988,0.001362988,-0.001362988,0.001362988,0.711398243,0.414044714,1368840,32768,0.005772223,0.005772223,0.005772223,38.25326863,38.23236328,0.000221226,0.000221226,0.000221226,474429.3169,0.017467655
10454400,0.985892533,0.016697984,0.005565995,0.005565995,0.005565995,-0.00139019,0.00139019,6.44E-12,-7.33E-12,1.12E-13,-9.97E-13,-0.001414237,0.001414237,-0.001414237,0.001414237,-0.001414237,0.001414237,-0.001414237,0.001414237,-0.001363812,0.001363812,-0.001363812,0.001363812,-7.97E-13,3.62E-13,5.08E-13,1.23E-13,-0.00139019,0.00139019,-0.001414237,0.001414237,-0.001414237,0.001414237,-0.001414237,0.001414237,-0.001414237,0.001414237,-0.001363812,0.001363812,-0.001363812,0.001363812,-0.001363812,0.001363812,-0.001363812,0.001363812,-7.15E-12,7.14E-12,-0.00139019,0.00139019,-1.84E-13,2.26E-13,-0.001414237,0.001414237,-0.001414237,0.001414237,-0.001414237,0.001414237,-0.001414237,0.001414237,-0.001363812,0.001363812,-0.001363812,0.001363812,0.712012742,0.428860871,1368840,32768,0.005775702,0.005775702,0.005775702,38.08491166,38.07303888,0.000219879,0.000219879,0.000219879,468648.8139,0.017478275
10540800,0.986719223,0.016710807,0.005570269,0.005570269,0.005570269,-0.001391221,0.001391221,6.44E-12,-7.33E-12,1.02E-13,-1.01E-12,-0.00141528,0.00141528,-0.00141528,0.00141528,-0.00141528,0.00141528,-0.00141528,0.00141528,-0.001364827,0.001364827,-0.001364827,0.001364827,-7.96E-13,3.65E-13,5.03E-13,1.11E-13,-0.001391221,0.001391221,-0.00141528,0.00141528,-0.00141528,0.00141528,-0.00141528,0.00141528,-0.00141528,0.00141528,-0.001364827,0.001364827,-0.001364827,0.001364827,-0.001364827,0.001364827,-0.001364827,0.001364827,-7.14E-12,7.14E-12,-0.001391221,0.001391221,-1.98E-13,2.17E-13,-0.00141528,0.00141528,-0.00141528,0.00141528,-0.00141528,0.00141528,-0.00141528,0.00141528,-0.001364827,0.001364827,-0.001364827,0.001364827,0.709130797,0.388226286,1368840,32768,0.005779972,0.005779972,0.005779972,38.05178235,38.04916887,0.000219614,0.000219614,0.000219614,463086.9001,0.017491309
10627200,0.987496858,0.016722851,0.005574284,0.005574284,0.005574284,-0.001391932,0.001391932,6.44E-12,-7.33E-12,9.90E-14,-1.01E-12,-0.001416143,0.001416143,-0.001416143,0.001416143,-0.001416143,0.001416143,-0.001416143,0.001416143,-0.001365397,0.001365397,-0.001365397,0.001365397,-7.94E-13,3.62E-13,5.10E-13,1.18E-13,-0.001391932,0.001391932,-0.001416143,0.001416143,-0.001416143,0.001416143,-0.001416143,0.001416143,-0.001416143,0.001416143,-0.001365397,0.001365397,-0.001365397,0.001365397,-0.001365397,0.001365397,-0.001365397,0.001365397,-7.13E-12,7.15E-12,-0.001391932,0.001391932,-1.97E-13,2.18E-13,-0.001416143,0.001416143,-0.001416143,0.001416143,-0.001416143,0.001416143,-0.001416143,0.001416143,-0.001365397,0.001365397,-0.001365397,0.001365397,0.708055607,0.378980766,1368840,32768,0.005782919,0.005782919,0.005782919,38.02703427,38.02529885,0.000219416,0.000219416,0.000219416,466680.6856,0.017500307
10713600,0.988228394,0.016734156,0.005578052,0.005578052,0.005578052,-0.001392737,0.001392737,6.44E-12,-7.33E-12,9.91E-14,-1.01E-12,-0.001417021,0.001417021,-0.001417021,0.001417021,-0.001417021,0.001417021,-0.001417021,0.001417021,-0.001366131,0.001366131,-0.001366131,0.001366131,-7.95E-13,3.63E-13,5.08E-13,1.21E-13,-0.001392737,0.001392737,-0.001417021,0.001417021,-0.001417021,0.001417021,-0.001417021,0.001417021,-0.001417021,0.001417021,-0.001366131,0.001366131,-0.001366131,0.001366131,-0.001366131,0.001366131,-0.001366131,0.001366131,-7.13E-12,7.15E-12,-0.001392737,0.001392737,-1.96E-13,2.15E-13,-0.001417021,0.001417021,-0.001417021,0.001417021,-0.001417021,0.001417021,-0.001417021,0.001417021,-0.001366131,0.001366131,-0.001366131,0.001366131,0.706576832,0.364165726,1368840,32768,0.005786252,0.005786252,0.005786252,38.00307547,38.00142884,0.000219225,0.000219225,0.000219225,465495.9716,0.017510479
10800000,0.988916579,0.016744769,0.00558159,0.00558159,0.00558159,-0.001393456,0.001393456,6.44E-12,-7.33E-12,9.93E-14,-1.01E-12,-0.001417827,0.001417827,-0.001417827,0.001417827,-0.001417827,0.001417827,-0.001417827,0.001417827,-0.001366769,0.001366769,-0.001366769,0.001366769,-7.95E-13,3.66E-13,5.07E-13,1.24E-13,-0.001393456,0.001393456,-0.001417827,0.001417827,-0.001417827,0.001417827,-0.001417827,0.001417827,-0.001417827,0.001417827,-0.001366769,0.001366769,-0.001366769,0.001366769,-0.001366769,0.001366769,-0.001366769,0.001366769,-7.13E-12,7.15E-12,-0.001393456,0.001393456,-1.94E-13,2.12E-13,-0.001417827,0.001417827,-0.001417827,0.001417827,-0.001417827,0.001417827,-0.001417827,0.001417827,-0.001366769,0.001366769,-0.001366769,0.001366769,0.705032478,0.349350685,1368840,32768,0.005789231,0.005789231,0.005789231,37.97919623,37.97755882,0.000219034,0.000219034,0.000219034,465400.9395,0.017519574
10886400,0.989563996,0.01675473,0.00558491,0.00558491,0.00558491,-0.00139412,0.00139412,6.44E-12,-7.33E-12,9.81E-14,-1.01E-12,-0.001418578,0.001418578,-0.001418578,0.001418578,-0.001418578,0.001418578,-0.001418578,0.001418578,-0.001367353,0.001367353,-0.001367353,0.001367353,-7.95E-13,3.64E-13,5.05E-13,1.26E-13,-0.00139412,0.00139412,-0.001418578,0.001418578,-0.001418578,0.001418578,-0.001418578,0.001418578,-0.001418578,0.001418578,-0.001367353,0.001367353,-0.001367353,0.001367353,-0.001367353,0.001367353,-0.001367353,0.001367353,-7.13E-12,7.15E-12,-0.00139412,0.00139412,-1.93E-13,2.09E-13,-0.001418578,0.001418578,-0.001418578,0.001418578,-0.001418578,0.001418578,-0.001418578,0.001418578,-0.001367353,0.001367353,-0.001367353,0.001367353,0.703428895,0.334535645,1368840,32768,0.005791984,0.005791984,0.005791984,37.95532515,37.95368881,0.000218843,0.000218843,0.000218843,465490.9499,0.017527979
10972800,0.990173077,0.01676408,0.005588027,0.005588027,0.005588027,-0.001394734,0.001394734,6.44E-12,-7.33E-12,9.68E-14,-1.01E-12,-0.001419277,0.001419277,-0.001419277,0.001419277,-0.001419277,0.001419277,-0.001419277,0.001419277,-0.001367886,0.001367886,-0.001367886,0.001367886,-7.94E-13,3.60E-13,5.07E-13,1.21E-13,-0.001394734,0.001394734,-0.001419277,0.001419277,-0.001419277,0.001419277,-0.001419277,0.001419277,-0.001419277,0.001419277,-0.001367886,0.001367886,-0.001367886,0.001367886,-0.001367886,0.001367886,-0.001367886,0.001367886,-7.13E-12,7.15E-12,-0.001394734,0.001394734,-1.96E-13,2.14E-13,-0.001419277,0.001419277,-0.001419277,0.001419277,-0.001419277,0.001419277,-0.001419277,0.001419277,-0.001367886,0.001367886,-0.001367886,0.001367886,0.701771345,0.319720604,1368840,32768,0.005794525,0.005794525,0.005794525,37.93145491,37.92981879,0.000218652,0.000218652,0.000218652,465756.8569,0.017535736
11059200,0.990746108,0.016772854,0.005590951,0.005590951,0.005590951,-0.001395299,0.001395299,6.44E-12,-7.33E-12,9.67E-14,-1.01E-12,-0.001419927,0.001419927,-0.001419927,0.001419927,-0.001419927,0.001419927,-0.001419927,0.001419927,-0.001368372,0.001368372,-0.001368372,0.001368372,-7.95E-13,3.60E-13,5.09E-13,1.18E-13,-0.001395299,0.001395299,-0.001419927,0.001419927,-0.001419927,0.001419927,-0.001419927,0.001419927,-0.001419927,0.001419927,-0.001368372,0.001368372,-0.001368372,0.001368372,-0.001368372,0.001368372,-0.001368372,0.001368372,-7.13E-12,7.15E-12,-0.001395299,0.001395299,-1.97E-13,2.17E-13,-0.001419927,0.001419927,-0.001419927,0.001419927,-0.001419927,0.001419927,-0.001419927,0.001419927,-0.001368372,0.001368372,-0.001368372,0.001368372,0.700064225,0.304905563,1368840,32768,0.005796866,0.005796866,0.005796866,37.90758476,37.90594878,0.000218461,0.000218461,0.000218461,466190.7763,0.017542883
11145600,0.99128524,0.016781092,0.005593697,0.005593697,0.005593697,-0.001395819,0.001395819,6.44E-12,-7.33E-12,9.47E-14,-1.00E-12,-0.001420531,0.001420531,-0.001420531,0.001420531,-0.001420531,0.001420531,-0.001420531,0.001420531,-0.001368814,0.001368814,-0.001368814,0.001368814,-7.93E-13,3.56E-13,5.06E-13,1.18E-13,-0.001395819,0.001395819,-0.001420531,0.001420531,-0.001420531,0.001420531,-0.001420531,0.001420531,-0.001420531,0.001420531,-0.001368814,0.001368814,-0.001368814,0.001368814,-0.001368814,0.001368814,-0.001368814,0.001368814,-7.13E-12,7.15E-12,-0.001395819,0.001395819,-1.96E-13,2.15E-13,-0.001420531,0.001420531,-0.001420531,0.001420531,-0.001420531,0.001420531,-0.001420531,0.001420531,-0.001368814,0.001368814,-0.001368814,0.001368814,0.698565888,0.293992285,1368840,32768,0.00579902,0.00579902,0.00579902,37.88371461,37.88207876,0.00021827,0.00021827,0.00021827,466780.5151,0.017549459
11232000,0.991791592,0.016788847,0.005596282,0.005596282,0.005596282,-0.001396255,0.001396255,6.44E-12,-7.32E-12,8.65E-14,-9.92E-13,-0.00142104,0.00142104,-0.00142104,0.00142104,-0.00142104,0.00142104,-0.00142104,0.00142104,-0.001369183,0.001369183,-0.001369183,0.001369183,-7.87E-13,3.41E-13,4.91E-13,1.19E-13,-0.001396255,0.001396255,-0.00142104,0.00142104,-0.00142104,0.00142104,-0.00142104,0.00142104,-0.00142104,0.00142104,-0.001369183,0.001369183,-0.001369183,0.001369183,-0.001369183,0.001369183,-0.001369183,0.001369183,-7.13E-12,7.15E-12,-0.001396255,0.001396255,-1.91E-13,2.04E-13,-0.00142104,0.00142104,-0.00142104,0.00142104,-0.00142104,0.00142104,-0.00142104,0.00142104,-0.001369183,0.001369183,-0.001369183,0.001369183,0.700179469,0.331611802,1368840,32768,0.005800824,0.005800824,0.005800824,37.82599143,37.82211725,0.000217808,0.000217808,0.000217808,466794.9579,0.017554967
11318400,0.992266451,0.016796122,0.005598707,0.005598707,0.005598707,-0.001396854,0.001396854,6.44E-12,-7.31E-12,8.65E-14,-9.82E-13,-0.001421577,0.001421577,-0.001421577,0.001421577,-0.001421577,0.001421577,-0.001421577,0.001421577,-0.00136984,0.00136984,-0.00136984,0.00136984,-7.81E-13,3.38E-13,4.99E-13,1.16E-13,-0.001396854,0.001396854,-0.001421577,0.001421577,-0.001421577,0.001421577,-0.001421577,0.001421577,-0.001421577,0.001421577,-0.00136984,0.00136984,-0.00136984,0.00136984,-0.00136984,0.00136984,-0.00136984,0.00136984,-7.12E-12,7.14E-12,-0.001396854,0.001396854,-1.95E-13,2.11E-13,-0.001421577,0.001421577,-0.001421577,0.001421577,-0.001421577,0.001421577,-0.001421577,0.001421577,-0.00136984,0.00136984,-0.00136984,0.00136984,0.700480227,0.34600423,1368840,32768,0.005803306,0.005803306,0.005803306,37.73731167,37.7313153,0.000217098,0.000217098,0.000217098,458531.6169,0.017562545
11404800,0.992711839,0.016802948,0.005600983,0.005600983,0.005600983,-0.00139729,0.00139729,6.41E-12,-7.34E-12,5.85E-14,-1.00E-12,-0.001422011,0.001422011,-0.001422011,0.001422011,-0.001422011,0.001422011,-0.001422011,0.001422011,-0.001370278,0.001370278,-0.001370278,0.001370278,-6.77E-13,4.35E-13,5.95E-13,1.81E-13,-0.00139729,0.00139729,-0.001422011,0.001422011,-0.001422011,0.001422011,-0.001422011,0.001422011,-0.001422011,0.001422011,-0.001370278,0.001370278,-0.001370278,0.001370278,-0.001370278,0.001370278,-0.001370278,0.001370278,-7.07E-12,7.19E-12,-0.00139729,0.00139729,-1.44E-13,2.94E-13,-0.001422011,0.001422011,-0.001422011,0.001422011,-0.001422011,0.001422011,-0.001422011,0.001422011,-0.001370278,0.001370278,-0.001370278,0.001370278,0.70057437,0.356104103,1368840,32768,0.005805114,0.005805114,0.005805114,37.64670935,37.64051336,0.000216374,0.000216374,0.000216374,454241.5368,0.017568064
11491200,0.993129688,0.016809354,0.005603118,0.005603118,0.005603118,-0.001397671,0.001397671,6.46E-12,-7.29E-12,1.16E-13,-9.37E-13,-0.001422397,0.001422397,-0.001422397,0.001422397,-0.001422397,0.001422397,-0.001422397,0.001422397,-0.001370654,0.001370654,-0.001370654,0.001370654,-7.45E-13,3.55E-13,5.35E-13,1.37E-13,-0.001397671,0.001397671,-0.001422397,0.001422397,-0.001422397,0.001422397,-0.001422397,0.001422397,-0.001422397,0.001422397,-0.001370654,0.001370654,-0.001370654,0.001370654,-0.001370654,0.001370654,-0.001370654,0.001370654,-7.16E-12,7.10E-12,-0.001397671,0.001397671,-2.38E-13,1.83E-13,-0.001422397,0.001422397,-0.001422397,0.001422397,-0.001422397,0.001422397,-0.001422397,0.001422397,-0.001370654,0.001370654,-0.001370654,0.001370654,0.700713497,0.366203976,1368840,32768,0.005806691,0.005806691,0.005806691,37.55592604,37.54971141,0.000215647,0.000215647,0.000215647,450695.164,0.017572878
11577600,0.993521798,0.016815367,0.005605122,0.005605122,0.005605122,-0.00139802,0.00139802,6.40E-12,-7.37E-12,3.17E-14,-1.03E-12,-0.00142275,0.00142275,-0.00142275,0.00142275,-0.00142275,0.00142275,-0.00142275,0.00142275,-0.001371001,0.001371001,-0.001371001,0.001371001,-7.76E-13,3.38E-13,5.04E-13,1.15E-13,-0.00139802,0.00139802,-0.00142275,0.00142275,-0.00142275,0.00142275,-0.00142275,0.00142275,-0.00142275,0.00142275,-0.001371001,0.001371001,-0.001371001,0.001371001,-0.001371001,0.001371001,-0.001371001,0.001371001,-7.16E-12,7.12E-12,-0.00139802,0.00139802,-1.99E-13,2.08E-13,-0.00142275,0.00142275,-0.00142275,0.00142275,-0.00142275,0.00142275,-0.00142275,0.00142275,-0.001371001,0.001371001,-0.001371001,0.001371001,0.700894822,0.376303849,1368840,32768,0.005808139,0.005808139,0.005808139,37.4651245,37.45890946,0.000214921,0.000214921,0.000214921,447212.0604,0.017577299
11664000,0.99388985,0.016821013,0.005607004,0.005607004,0.005607004,-0.001398341,0.001398341,6.45E-12,-7.33E-12,8.47E-14,-9.77E-13,-0.001423072,0.001423072,-0.001423072,0.001423072,-0.001423072,0.001423072,-0.001423072,0.001423072,-0.00137132,0.00137132,-0.00137132,0.00137132,-7.49E-13,3.61E-13,5.29E-13,1.12E-13,-0.001398341,0.001398341,-0.001423072,0.001423072,-0.001423072,0.001423072,-0.001423072,0.001423072,-0.001423072,0.001423072,-0.00137132,0.00137132,-0.00137132,0.00137132,-0.00137132,0.00137132,-0.00137132,0.00137132,-7.09E-12,7.19E-12,-0.001398341,0.001398341,-1.48E-13,2.93E-13,-0.001423072,0.001423072,-0.001423072,0.001423072,-0.001423072,0.001423072,-0.001423072,0.001423072,-0.00137132,0.00137132,-0.00137132,0.00137132,0.701115927,0.386403722,1368840,32768,0.005809467,0.005809467,0.005809467,37.37432109,37.36810751,0.000214195,0.000214195,0.000214195,443784.8726,0.017581352
11750400,0.994235409,0.016826316,0.005608772,0.005608772,0.005608772,-0.001398634,0.001398634,6.57E-12,-7.20E-12,1.83E-13,-8.74E-13,-0.001423365,0.001423365,-0.001423365,0.001423365,-0.001423365,0.001423365,-0.001423365,0.001423365,-0.001371614,0.001371614,-0.001371614,0.001371614,-7.35E-13,3.69E-13,5.55E-13,1.41E-13,-0.001398634,0.001398634,-0.001423365,0.001423365,-0.001423365,0.001423365,-0.001423365,0.001423365,-0.001423365,0.001423365,-0.001371614,0.001371614,-0.001371614,0.001371614,-0.001371614,0.001371614,-0.001371614,0.001371614,-7.15E-12,7.14E-12,-0.001398634,0.001398634,-2.09E-13,2.30E-13,-0.001423365,0.001423365,-0.001423365,0.001423365,-0.001423365,0.001423365,-0.001423365,0.001423365,-0.001371614,0.001371614,-0.001371614,0.001371614,0.701374699,0.396503595,1368840,32768,0.005810681,0.005810681,0.005810681,37.2835175,37.27730556,0.000213468,0.000213468,0.000213468,440411.8267,0.017585061
11836800,0.994559931,0.016831302,0.005610434,0.005610434,0.005610434,-0.001398902,0.001398902,6.45E-12,-7.32E-12,8.10E-14,-9.81E-13,-0.001423631,0.001423631,-0.001423631,0.001423631,-0.001423631,0.001423631,-0.001423631,0.001423631,-0.001371884,0.001371884,-0.001371884,0.001371884,-7.79E-13,3.33E-13,5.06E-13,1.13E-13,-0.001398902,0.001398902,-0.001423631,0.001423631,-0.001423631,0.001423631,-0.001423631,0.001423631,-0.001423631,0.001423631,-0.001371884,0.001371884,-0.001371884,0.001371884,-0.001371884,0.001371884,-0.001371884,0.001371884,-7.14E-12,7.14E-12,-0.001398902,0.001398902,-1.99E-13,2.17E-13,-0.001423631,0.001423631,-0.001423631,0.001423631,-0.001423631,0.001423631,-0.001423631,0.001423631,-0.001371884,0.001371884,-0.001371884,0.001371884,0.702157928,0.41440432,1368840,32768,0.005811792,0.005811792,0.005811792,37.19271391,37.18650361,0.000212742,0.000212742,0.000212742,437082.5407,0.017588451
11923200,0.994864777,0.016835999,0.005612,0.005612,0.005612,-0.001399185,0.001399185,6.46E-12,-7.34E-12,8.76E-14,-9.73E-13,-0.001423892,0.001423892,-0.001423892,0.001423892,-0.001423892,0.001423892,-0.001423892,0.001423892,-0.001372188,0.001372188,-0.001372188,0.001372188,-7.88E-13,3.22E-13,4.86E-13,1.03E-13,-0.001399185,0.001399185,-0.001423892,0.001423892,-0.001423892,0.001423892,-0.001423892,0.001423892,-0.001423892,0.001423892,-0.001372188,0.001372188,-0.001372188,0.001372188,-0.001372188,0.001372188,-0.001372188,0.001372188,-7.15E-12,7.16E-12,-0.001399185,0.001399185,-2.00E-13,2.07E-13,-0.001423892,0.001423892,-0.001423892,0.001423892,-0.001423892,0.001423892,-0.001423892,0.001423892,-0.001372188,0.001372188,-0.001372188,0.001372188,0.704193855,0.451574058,1368840,32768,0.005812964,0.005812964,0.005812964,37.10191037,37.09570167,0.000212015,0.000212015,0.000212015,432628.3074,0.01759203
12009600,0.995151553,0.016840432,0.005613477,0.005613477,0.005613477,-0.001399581,0.001399581,6.44E-12,-7.36E-12,6.47E-14,-1.00E-12,-0.001424218,0.001424218,-0.001424218,0.001424218,-0.001424218,0.001424218,-0.001424218,0.001424218,-0.001372648,0.001372648,-0.001372648,0.001372648,-8.09E-13,3.10E-13,4.70E-13,1.08E-13,-0.001399581,0.001399581,-0.001424218,0.001424218,-0.001424218,0.001424218,-0.001424218,0.001424218,-0.001424218,0.001424218,-0.001372648,0.001372648,-0.001372648,0.001372648,-0.001372648,0.001372648,-0.001372648,0.001372648,-7.15E-12,7.16E-12,-0.001399581,0.001399581,-1.93E-13,1.93E-13,-0.001424218,0.001424218,-0.001424218,0.001424218,-0.001424218,0.001424218,-0.001424218,0.001424218,-0.001372648,0.001372648,-0.001372648,0.001372648,0.706357403,0.488743795,1368840,32768,0.005814603,0.005814603,0.005814603,37.0334393,37.02870527,0.000211468,0.000211468,0.000211468,425444.591,0.017597031
12096000,0.99542165,0.016844621,0.005614874,0.005614874,0.005614874,-0.001399989,0.001399989,6.45E-12,-7.35E-12,7.39E-14,-9.80E-13,-0.001424556,0.001424556,-0.001424556,0.001424556,-0.001424556,0.001424556,-0.001424557,0.001424556,-0.001373121,0.001373121,-0.001373121,0.001373121,-7.83E-13,3.21E-13,4.74E-13,1.27E-13,-0.001399989,0.001399989,-0.001424556,0.001424556,-0.001424556,0.001424556,-0.001424556,0.001424556,-0.001424556,0.001424556,-0.001373121,0.001373121,-0.001373121,0.001373121,-0.001373121,0.001373121,-0.001373121,0.001373121,-7.17E-12,7.15E-12,-0.001399989,0.001399989,-2.04E-13,1.67E-13,-0.001424556,0.001424556,-0.001424556,0.001424556,-0.001424556,0.001424556,-0.001424556,0.001424556,-0.001373121,0.001373121,-0.001373121,0.001373121,0.708643252,0.525913533,1368840,32768,0.005816295,0.005816295,0.005816295,36.98378938,36.98034796,0.00021107,0.00021107,0.00021107,418423.7003,0.017602197
12182400,0.995676089,0.016848581,0.005616194,0.005616194,0.005616194,-0.001400378,0.001400378,6.47E-12,-7.33E-12,8.57E-14,-9.62E-13,-0.001424876,0.001424876,-0.001424876,0.001424876,-0.001424876,0.001424876,-0.001424876,0.001424876,-0.001373573,0.001373573,-0.001373573,0.001373573,-7.66E-13,3.32E-13,4.92E-13,1.33E-13,-0.001400378,0.001400378,-0.001424876,0.001424876,-0.001424876,0.001424876,-0.001424876,0.001424876,-0.001424876,0.001424876,-0.001373573,0.001373573,-0.001373573,0.001373573,-0.001373573,0.001373573,-0.001373573,0.001373573,-7.16E-12,7.15E-12,-0.001400378,0.001400378,-1.84E-13,1.99E-13,-0.001424876,0.001424876,-0.001424876,0.001424876,-0.001424876,0.001424876,-0.001424876,0.001424876,-0.001373573,0.001373573,-0.001373573,0.001373573,0.711052775,0.56308327,1368840,32768,0.005817904,0.005817904,0.005817904,36.93530938,36.93199065,0.000210682,0.000210682,0.000210682,411586.3184,0.01760711
12268800,0.99591581,0.016852324,0.005617441,0.005617441,0.005617441,-0.001400745,0.001400745,6.48E-12,-7.33E-12,8.13E-14,-9.56E-13,-0.001425173,0.001425173,-0.001425173,0.001425173,-0.001425173,0.001425173,-0.001425173,0.001425173,-0.001374004,0.001374004,-0.001374004,0.001374004,-7.67E-13,3.20E-13,4.86E-13,1.29E-13,-0.001400745,0.001400745,-0.001425173,0.001425173,-0.001425173,0.001425173,-0.001425173,0.001425173,-0.001425173,0.001425173,-0.001374004,0.001374004,-0.001374004,0.001374004,-0.001374004,0.001374004,-0.001374004,0.001374004,-7.16E-12,7.16E-12,-0.001400745,0.001400745,-1.87E-13,1.93E-13,-0.001425173,0.001425173,-0.001425173,0.001425173,-0.001425173,0.001425173,-0.001425173,0.001425173,-0.001374004,0.001374004,-0.001374004,0.001374004,0.713262704,0.594482943,1368840,32768,0.005819426,0.005819426,0.005819426,36.88693937,36.88363334,0.000210296,0.000210296,0.000210296,404901.3293,0.017611757
12355200,0.996141694,0.016855841,0.005618614,0.005618614,0.005618614,-0.001401067,0.001401067,6.48E-12,-7.33E-12,8.77E-14,-9.60E-13,-0.001425441,0.001425441,-0.001425441,0.001425441,-0.001425441,0.001425441,-0.001425441,0.001425441,-0.001374375,0.001374375,-0.001374375,0.001374375,-7.76E-13,3.22E-13,4.83E-13,1.20E-13,-0.001401067,0.001401067,-0.001425441,0.001425441,-0.001425441,0.001425441,-0.001425441,0.001425441,-0.001425441,0.001425441,-0.001374375,0.001374375,-0.001374375,0.001374375,-0.001374375,0.001374375,-0.001374375,0.001374375,-7.16E-12,7.17E-12,-0.001401067,0.001401067,-1.85E-13,2.01E-13,-0.001425441,0.001425441,-0.001425441,0.001425441,-0.001425441,0.001425441,-0.001425441,0.001425441,-0.001374375,0.001374375,-0.001374375,0.001374375,0.71122384,0.552861781,1368840,32768,0.005820761,0.005820761,0.005820761,36.83858027,36.83527603,0.000209909,0.000209909,0.000209909,399134.365,0.017615832
12441600,0.996354569,0.016859108,0.005619703,0.005619703,0.005619703,-0.001401069,0.001401069,6.48E-12,-7.34E-12,8.39E-14,-9.70E-13,-0.001425535,0.001425535,-0.001425535,0.001425535,-0.001425535,0.001425535,-0.001425535,0.001425535,-0.001374288,0.001374288,-0.001374288,0.001374288,-7.76E-13,3.28E-13,4.81E-13,1.43E-13,-0.001401069,0.001401069,-0.001425535,0.001425535,-0.001425535,0.001425535,-0.001425535,0.001425535,-0.001425535,0.001425535,-0.001374288,0.001374288,-0.001374288,0.001374288,-0.001374288,0.001374288,-0.001374288,0.001374288,-7.16E-12,7.17E-12,-0.001401069,0.001401069,-1.76E-13,1.86E-13,-0.001425535,0.001425535,-0.001425535,0.001425535,-0.001425535,0.001425535,-0.001425535,0.001425535,-0.001374288,0.001374288,-0.001374288,0.001374288,0.700802924,0.387661216,1368840,32768,0.005820766,0.005820766,0.005820766,36.79022212,36.78691872,0.000209522,0.000209522,0.000209522,402385.7768,0.017615848
12528000,0.996555209,0.016862199,0.005620733,0.005620733,0.005620733,-0.001400476,0.001400476,6.48E-12,-7.35E-12,8.15E-14,-9.83E-13,-0.00142532,0.00142532,-0.00142532,0.00142532,-0.00142532,0.00142532,-0.00142532,0.00142532,-0.00137335,0.00137335,-0.00137335,0.00137335,-7.83E-13,3.31E-13,4.67E-13,1.36E-13,-0.001400476,0.001400476,-0.00142532,0.00142532,-0.00142532,0.00142532,-0.00142532,0.00142532,-0.00142532,0.00142532,-0.00137335,0.00137335,-0.00137335,0.00137335,-0.00137335,0.00137335,-0.00137335,0.00137335,-7.18E-12,7.16E-12,-0.001400476,0.001400476,-1.85E-13,1.71E-13,-0.00142532,0.00142532,-0.00142532,0.00142532,-0.00142532,0.00142532,-0.00142532,0.00142532,-0.00137335,0.00137335,-0.00137335,0.00137335,0.703721098,0.444165683,1368840,32768,0.005818309,0.005818309,0.005818309,36.74186437,36.73856142,0.000209135,0.000209135,0.000209135,423246.8207,0.01760835
12614400,0.996744343,0.016865083,0.005621694,0.005621694,0.005621694,-0.001400871,0.001400871,6.49E-12,-7.35E-12,1.01E-13,-9.77E-13,-0.001425608,0.001425608,-0.001425608,0.001425608,-0.001425608,0.001425608,-0.001425608,0.001425608,-0.001373845,0.001373845,-0.001373845,0.001373845,-7.98E-13,3.30E-13,4.76E-13,1.38E-13,-0.001400871,0.001400871,-0.001425608,0.001425608,-0.001425608,0.001425608,-0.001425608,0.001425608,-0.001425608,0.001425608,-0.001373845,0.001373845,-0.001373845,0.001373845,-0.001373845,0.001373845,-0.001373845,0.001373845,-7.18E-12,7.17E-12,-0.001400871,0.001400871,-1.82E-13,1.79E-13,-0.001425608,0.001425608,-0.001425608,0.001425608,-0.001425608,0.001425608,-0.001425608,0.001425608,-0.001373845,0.001373845,-0.001373845,0.001373845,0.696746583,0.341347423,1368840,32768,0.005819946,0.005819946,0.005819946,36.69350647,36.69020411,0.000208748,0.000208748,0.000208748,414132.7969,0.017613346
12700800,0.996922655,0.016867806,0.005622602,0.005622602,0.005622602,-0.001400493,0.001400493,6.49E-12,-7.36E-12,8.16E-14,-9.75E-13,-0.001425492,0.001425492,-0.001425492,0.001425492,-0.001425492,0.001425492,-0.001425492,0.001425492,-0.001373229,0.001373229,-0.001373229,0.001373229,-7.78E-13,3.29E-13,4.74E-13,1.33E-13,-0.001400493,0.001400493,-0.001425492,0.001425492,-0.001425492,0.001425492,-0.001425492,0.001425492,-0.001425492,0.001425492,-0.001373229,0.001373229,-0.001373229,0.001373229,-0.001373229,0.001373229,-0.001373229,0.001373229,-7.17E-12,7.18E-12,-0.001400493,0.001400493,-1.82E-13,1.82E-13,-0.001425492,0.001425492,-0.001425492,0.001425492,-0.001425492,0.001425492,-0.001425492,0.001425492,-0.001373229,0.001373229,-0.001373229,0.001373229,0.697575014,0.366327881,1368840,32768,0.005818381,0.005818381,0.005818381,36.64514869,36.6418468,0.000208361,0.000208361,0.000208361,427930.9827,0.017608568
12787200,0.997089886,0.016870358,0.005623453,0.005623453,0.005623453,-0.001400521,0.001400521,6.47E-12,-7.33E-12,6.51E-14,-9.50E-13,-0.001425478,0.001425478,-0.001425478,0.001425478,-0.001425478,0.001425478,-0.001425478,0.001425478,-0.001373297,0.001373297,-0.001373297,0.001373297,-7.64E-13,3.01E-13,4.49E-13,1.36E-13,-0.001400521,0.001400521,-0.001425478,0.001425478,-0.001425478,0.001425478,-0.001425478,0.001425478,-0.001425478,0.001425478,-0.001373297,0.001373297,-0.001373297,0.001373297,-0.001373297,0.001373297,-0.001373297,0.001373297,-7.16E-12,7.16E-12,-0.001400521,0.001400521,-1.64E-13,1.74E-13,-0.001425478,0.001425478,-0.001425478,0.001425478,-0.001425478,0.001425478,-0.001425478,0.001425478,-0.001373297,0.001373297,-0.001373297,0.001373297,0.697470049,0.374491364,1368840,32768,0.005818499,0.005818499,0.005818499,36.4959776,36.48603599,0.000207168,0.000207168,0.000207168,423195.6014,0.017608928
12873600,0.997246139,0.016872743,0.005624248,0.005624248,0.005624248,-0.001400303,0.001400303,6.51E-12,-7.28E-12,9.06E-14,-9.24E-13,-0.001425258,0.001425258,-0.001425258,0.001425258,-0.001425258,0.001425258,-0.001425258,0.001425258,-0.001373083,0.001373083,-0.001373083,0.001373083,-8.16E-13,2.45E-13,3.68E-13,7.97E-14,-0.001400303,0.001400303,-0.001425258,0.001425258,-0.001425258,0.001425258,-0.001425258,0.001425258,-0.001425258,0.001425258,-0.001373083,0.001373083,-0.001373083,0.001373083,-0.001373083,0.001373083,-0.001373083,0.001373083,-7.24E-12,7.06E-12,-0.001400303,0.001400303,-2.93E-13,2.00E-14,-0.001425258,0.001425258,-0.001425258,0.001425258,-0.001425258,0.001425258,-0.001425258,0.001425258,-0.001373083,0.001373083,-0.001373083,0.001373083,0.697424268,0.382654846,1368840,32768,0.005817596,0.005817596,0.005817596,36.26852276,36.25320769,0.000205348,0.000205348,0.000205348,420967.0736,0.017606172
12960000,0.997392192,0.016874973,0.005624991,0.005624991,0.005624991,-0.001400064,0.001400064,6.14E-12,-7.66E-12,-3.18E-13,-1.35E-12,-0.001425014,0.001425014,-0.001425014,0.001425014,-0.001425014,0.001425014,-0.001425014,0.001425014,-0.001372851,0.001372851,-0.001372851,0.001372851,-5.50E-13,5.31E-13,6.44E-13,4.05E-13,-0.001400064,0.001400064,-0.001425014,0.001425014,-0.001425014,0.001425014,-0.001425014,0.001425014,-0.001425014,0.001425014,-0.001372851,0.001372851,-0.001372851,0.001372851,-0.001372851,0.001372851,-0.001372851,0.001372851,-7.31E-12,7.00E-12,-0.001400064,0.001400064,-3.18E-13,-5.41E-14,-0.001425014,0.001425014,-0.001425014,0.001425014,-0.001425014,0.001425014,-0.001425014,0.001425014,-0.001372851,0.001372851,-0.001372851,0.001372851,0.697431418,0.390818328,1368840,32768,0.005816606,0.005816606,0.005816606,36.03619232,36.02037938,0.00020349,0.00020349,0.00020349,418683.8319,0.01760315
13046400,0.997528798,0.016877059,0.005625686,0.005625686,0.005625686,-0.001399814,0.001399814,6.49E-12,-7.33E-12,-3.07E-14,-1.07E-12,-0.001424756,0.001424756,-0.001424756,0.001424756,-0.001424756,0.001424756,-0.001424756,0.001424756,-0.001372607,0.001372607,-0.001372607,0.001372607,-6.35E-13,4.50E-13,5.73E-13,3.13E-13,-0.001399814,0.001399814,-0.001424756,0.001424756,-0.001424756,0.001424756,-0.001424756,0.001424756,-0.001424756,0.001424756,-0.001372607,0.001372607,-0.001372607,0.001372607,-0.001372607,0.001372607,-0.001372607,0.001372607,-7.18E-12,7.15E-12,-0.001399814,0.001399814,-2.10E-13,8.16E-14,-0.001424756,0.001424756,-0.001424756,0.001424756,-0.001424756,0.001424756,-0.001424756,0.001424756,-0.001372607,0.001372607,-0.001372607,0.001372607,0.697486333,0.398981811,1368840,32768,0.005815567,0.005815567,0.005815567,35.80340405,35.78755108,0.000201627,0.000201627,0.000201627,416398.9848,0.017599977
13132800,0.997656651,0.016879011,0.005626337,0.005626337,0.005626337,-0.001399552,0.001399552,6.59E-12,-7.23E-12,1.31E-13,-9.13E-13,-0.001424487,0.001424487,-0.001424487,0.001424487,-0.001424487,0.001424487,-0.001424487,0.001424487,-0.001372355,0.001372355,-0.001372355,0.001372355,-5.45E-13,5.59E-13,6.18E-13,3.15E-13,-0.001399552,0.001399552,-0.001424487,0.001424487,-0.001424487,0.001424487,-0.001424487,0.001424487,-0.001424487,0.001424487,-0.001372355,0.001372355,-0.001372355,0.001372355,-0.001372355,0.001372355,-0.001372355,0.001372355,-7.32E-12,7.02E-12,-0.001399552,0.001399552,-3.36E-13,-1.59E-14,-0.001424487,0.001424487,-0.001424487,0.001424487,-0.001424487,0.001424487,-0.001424487,0.001424487,-0.001372355,0.001372355,-0.001372355,0.001372355,0.697584712,0.407145293,1368840,32768,0.005814485,0.005814485,0.005814485,35.57056986,35.55472277,0.000199765,0.000199765,0.000199765,414121.661,0.017596675
13219200,0.99777639,0.01688084,0.005626947,0.005626947,0.005626947,-0.001399282,0.001399282,6.58E-12,-7.29E-12,9.05E-14,-9.16E-13,-0.001424208,0.001424208,-0.001424208,0.001424208,-0.001424208,0.001424208,-0.001424208,0.001424208,-0.001372093,0.001372093,-0.001372093,0.001372093,-6.98E-13,3.61E-13,3.94E-13,1.22E-13,-0.001399282,0.001399282,-0.001424208,0.001424208,-0.001424208,0.001424208,-0.001424208,0.001424208,-0.001424208,0.001424208,-0.001372093,0.001372093,-0.001372093,0.001372093,-0.001372093,0.001372093,-0.001372093,0.001372093,-7.41E-12,6.97E-12,-0.001399282,0.001399282,-3.29E-13,-3.39E-14,-0.001424208,0.001424208,-0.001424208,0.001424208,-0.001424208,0.001424208,-0.001424208,0.001424208,-0.001372093,0.001372093,-0.001372093,0.001372093,0.697722939,0.415308775,1368840,32768,0.005813363,0.005813363,0.005813363,35.33773099,35.32189447,0.000197902,0.000197902,0.000197902,411855.0831,0.017593251
13305600,0.997888601,0.016882552,0.005627517,0.005627517,0.005627517,-0.001399002,0.001399002,6.46E-12,-7.43E-12,-1.83E-14,-9.76E-13,-0.001423918,0.001423918,-0.001423918,0.001423918,-0.001423918,0.001423918,-0.001423918,0.001423918,-0.001371823,0.001371823,-0.001371823,0.001371823,-8.01E-13,2.04E-13,4.06E-13,1.13E-13,-0.001399002,0.001399002,-0.001423918,0.001423918,-0.001423918,0.001423918,-0.001423918,0.001423918,-0.001423918,0.001423918,-0.001371823,0.001371823,-0.001371823,0.001371823,-0.001371823,0.001371823,-0.001371823,0.001371823,-7.26E-12,7.14E-12,-0.001399002,0.001399002,-2.17E-13,1.03E-13,-0.001423918,0.001423918,-0.001423918,0.001423918,-0.001423918,0.001423918,-0.001423918,0.001423918,-0.001371823,0.001371823,-0.001371823,0.001371823,0.697046044,0.409833483,1368840,32768,0.005812204,0.005812204,0.005812204,35.10489158,35.08906617,0.000196039,0.000196039,0.000196039,409604.5175,0.017589713
13392000,0.997993825,0.016884154,0.005628051,0.005628051,0.005628051,-0.00139865,0.00139865,6.51E-12,-7.35E-12,5.13E-14,-9.17E-13,-0.001423587,0.001423587,-0.001423587,0.001423587,-0.001423587,0.001423587,-0.001423587,0.001423587,-0.001371452,0.001371452,-0.001371452,0.001371452,-7.36E-13,2.83E-13,4.42E-13,1.43E-13,-0.00139865,0.00139865,-0.001423587,0.001423587,-0.001423587,0.001423587,-0.001423587,0.001423587,-0.001423587,0.001423587,-0.001371452,0.001371452,-0.001371452,0.001371452,-0.001371452,0.001371452,-0.001371452,0.001371452,-7.18E-12,7.20E-12,-0.00139865,0.00139865,-1.71E-13,1.51E-13,-0.001423587,0.001423587,-0.001423587,0.001423587,-0.001423587,0.001423587,-0.001423587,0.001423587,-0.001371452,0.001371452,-0.001371452,0.001371452,0.695338654,0.388371011,1368840,32768,0.005810746,0.005810746,0.005810746,34.87205203,34.85623786,0.000194176,0.000194176,0.000194176,409266.918,0.01758526
13478400,0.998092559,0.016885653,0.005628551,0.005628551,0.005628551,-0.001398213,0.001398213,6.46E-12,-7.31E-12,5.87E-14,-9.17E-13,-0.00142321,0.00142321,-0.00142321,0.00142321,-0.00142321,0.00142321,-0.00142321,0.00142321,-0.001370962,0.001370962,-0.001370962,0.001370962,-7.60E-13,2.66E-13,4.32E-13,1.41E-13,-0.001398213,0.001398213,-0.00142321,0.00142321,-0.00142321,0.00142321,-0.00142321,0.00142321,-0.00142321,0.00142321,-0.001370962,0.001370962,-0.001370962,0.001370962,-0.001370962,0.001370962,-0.001370962,0.001370962,-7.12E-12,7.15E-12,-0.001398213,0.001398213,-1.68E-13,1.47E-13,-0.00142321,0.00142321,-0.00142321,0.00142321,-0.00142321,0.00142321,-0.00142321,0.00142321,-0.001370962,0.001370962,-0.001370962,0.001370962,0.693541428,0.366908539,1368840,32768,0.005808938,0.005808938,0.005808938,34.63921247,34.62340956,0.000192314,0.000192314,0.000192314,411270.8249,0.017579741
13564800,0.998185495,0.016887061,0.00562902,0.00562902,0.00562902,-0.001397856,0.001397856,6.50E-12,-7.21E-12,1.68E-13,-7.89E-13,-0.001422909,0.001422909,-0.001422909,0.001422909,-0.001422909,0.001422909,-0.001422909,0.001422909,-0.001370553,0.001370553,-0.001370553,0.001370553,-8.23E-13,1.88E-13,4.11E-13,6.86E-14,-0.001397856,0.001397856,-0.001422909,0.001422909,-0.001422909,0.001422909,-0.001422909,0.001422909,-0.001422909,0.001422909,-0.001370553,0.001370553,-0.001370553,0.001370553,-0.001370553,0.001370553,-0.001370553,0.001370553,-7.09E-12,7.13E-12,-0.001397856,0.001397856,-1.26E-13,2.38E-13,-0.001422909,0.001422909,-0.001422909,0.001422909,-0.001422909,0.001422909,-0.001422909,0.001422909,-0.001370553,0.001370553,-0.001370553,0.001370553,0.692369869,0.356531663,1368840,32768,0.005807457,0.005807457,0.005807457,34.45265602,34.43989304,0.000190821,0.000190821,0.000190821,413335.2134,0.017575221
13651200,0.998273173,0.01688839,0.005629463,0.005629463,0.005629463,-0.001397607,0.001397607,6.36E-12,-7.28E-12,5.29E-14,-8.80E-13,-0.001422696,0.001422696,-0.001422696,0.001422696,-0.001422696,0.001422696,-0.001422696,0.001422696,-0.001370274,0.001370274,-0.001370274,0.001370274,-6.83E-13,3.05E-13,5.12E-13,1.59E-13,-0.001397607,0.001397607,-0.001422696,0.001422696,-0.001422696,0.001422696,-0.001422696,0.001422696,-0.001422696,0.001422696,-0.001370274,0.001370274,-0.001370274,0.001370274,-0.001370274,0.001370274,-0.001370274,0.001370274,-7.18E-12,6.96E-12,-0.001397607,0.001397607,-3.11E-13,6.27E-14,-0.001422696,0.001422696,-0.001422696,0.001422696,-0.001422696,0.001422696,-0.001422696,0.001422696,-0.001370274,0.001370274,-0.001370274,0.001370274,0.692097964,0.360765198,1368840,32768,0.005806427,0.005806427,0.005806427,34.29917812,34.28868908,0.000189593,0.000189593,0.000189593,413949.2625,0.017572077
13737600,0.998355935,0.016889643,0.005629881,0.005629881,0.005629881,-0.001397428,0.001397428,6.33E-12,-7.30E-12,-3.62E-14,-9.13E-13,-0.001422518,0.001422518,-0.001422518,0.001422518,-0.001422518,0.001422518,-0.001422518,0.001422518,-0.001370094,0.001370094,-0.001370094,0.001370094,-9.81E-13,-5.07E-14,2.62E-13,-1.33E-13,-0.001397428,0.001397428,-0.001422518,0.001422518,-0.001422518,0.001422518,-0.001422518,0.001422518,-0.001422518,0.001422518,-0.001370094,0.001370094,-0.001370094,0.001370094,-0.001370094,0.001370094,-0.001370094,0.001370094,-7.10E-12,7.06E-12,-0.001397428,0.001397428,-2.36E-13,1.84E-13,-0.001422518,0.001422518,-0.001422518,0.001422518,-0.001422518,0.001422518,-0.001422518,0.001422518,-0.001370094,0.001370094,-0.001370094,0.001370094,0.69185815,0.364998733,1368840,32768,0.005805682,0.005805682,0.005805682,34.147756,34.13748513,0.000188382,0.000188382,0.000188382,412485.2622,0.017569803
13824000,0.998434088,0.016890826,0.005630275,0.005630275,0.005630275,-0.001397243,0.001397243,6.37E-12,-7.26E-12,1.56E-14,-8.69E-13,-0.001422333,0.001422333,-0.001422333,0.001422333,-0.001422333,0.001422333,-0.001422333,0.001422333,-0.001369911,0.001369911,-0.001369911,0.001369911,-7.30E-13,2.04E-13,5.29E-13,1.51E-13,-0.001397243,0.001397243,-0.001422333,0.001422333,-0.001422333,0.001422333,-0.001422333,0.001422333,-0.001422333,0.001422333,-0.001369911,0.001369911,-0.001369911,0.001369911,-0.001369911,0.001369911,-0.001369911,0.001369911,-7.01E-12,7.13E-12,-0.001397243,0.001397243,-1.34E-13,2.70E-13,-0.001422333,0.001422333,-0.001422333,0.001422333,-0.001422333,0.001422333,-0.001422333,0.001422333,-0.001369911,0.001369911,-0.001369911,0.001369911,0.691647485,0.369232268,1368840,32768,0.005804917,0.005804917,0.005804917,33.99652601,33.98628117,0.000187172,0.000187172,0.000187172,410995.8401,0.017567468
13910400,0.998507918,0.016891944,0.005630648,0.005630648,0.005630648,-0.001397053,0.001397053,6.46E-12,-7.13E-12,1.09E-13,-7.32E-13,-0.001422142,0.001422142,-0.001422142,0.001422142,-0.001422142,0.001422142,-0.001422142,0.001422142,-0.001369724,0.001369724,-0.001369724,0.001369724,-7.69E-13,1.25E-13,4.33E-13,9.78E-14,-0.001397053,0.001397053,-0.001422142,0.001422142,-0.001422142,0.001422142,-0.001422142,0.001422142,-0.001422142,0.001422142,-0.001369724,0.001369724,-0.001369724,0.001369724,-0.001369724,0.001369724,-0.001369724,0.001369724,-7.04E-12,7.06E-12,-0.001397053,0.001397053,-1.30E-13,2.34E-13,-0.001422142,0.001422142,-0.001422142,0.001422142,-0.001422142,0.001422142,-0.001422142,0.001422142,-0.001369724,0.001369724,-0.001369724,0.001369724,0.69146351,0.373465803,1368840,32768,0.005804132,0.005804132,0.005804132,33.8453152,33.83507722,0.000185963,0.000185963,0.000185963,409503.8424,0.017565071
13996800,0.998577691,0.016893,0.005631,0.005631,0.005631,-0.001396859,0.001396859,6.44E-12,-7.13E-12,1.32E-13,-7.61E-13,-0.001421946,0.001421946,-0.001421946,0.001421946,-0.001421946,0.001421946,-0.001421946,0.001421946,-0.001369534,0.001369534,-0.001369534,0.001369534,-5.24E-13,4.19E-13,6.18E-13,2.80E-13,-0.001396859,0.001396859,-0.001421946,0.001421946,-0.001421946,0.001421946,-0.001421946,0.001421946,-0.001421946,0.001421946,-0.001369534,0.001369534,-0.001369534,0.001369534,-0.001369534,0.001369534,-0.001369534,0.001369534,-7.14E-12,6.94E-12,-0.001396859,0.001396859,-2.28E-13,1.40E-13,-0.001421946,0.001421946,-0.001421946,0.001421946,-0.001421946,0.001421946,-0.001421946,0.001421946,-0.001369534,0.001369534,-0.001369534,0.001369534,0.691304146,0.377699338,1368840,32768,0.005803328,0.005803328,0.005803328,33.69410635,33.68387327,0.000184753,0.000184753,0.000184753,408013.9307,0.017562616
14083200,0.998643657,0.016893996,0.005631332,0.005631332,0.005631332,-0.001396661,0.001396661,6.49E-12,-7.05E-12,1.09E-13,-7.28E-13,-0.001421744,0.001421744,-0.001421744,0.001421744,-0.001421744,0.001421744,-0.001421744,0.001421744,-0.001369338,0.001369338,-0.001369338,0.001369338,-7.60E-13,1.30E-13,3.72E-13,3.67E-14,-0.001396661,0.001396661,-0.001421744,0.001421744,-0.001421744,0.001421744,-0.001421744,0.001421744,-0.001421744,0.001421744,-0.001369338,0.001369338,-0.001369338,0.001369338,-0.001369338,0.001369338,-0.001369338,0.001369338,-7.09E-12,6.95E-12,-0.001396661,0.001396661,-2.18E-13,1.52E-13,-0.001421744,0.001421744,-0.001421744,0.001421744,-0.001421744,0.001421744,-0.001421744,0.001421744,-0.001369338,0.001369338,-0.001369338,0.001369338,0.690333539,0.368641245,1368840,32768,0.005802505,0.005802505,0.005802505,33.54289765,33.53266931,0.000183543,0.000183543,0.000183543,406529.7326,0.017560105
14169600,0.998706047,0.016894935,0.005631645,0.005631645,0.005631645,-0.001396394,0.001396394,6.33E-12,-7.17E-12,1.91E-14,-8.56E-13,-0.001421506,0.001421506,-0.001421506,0.001421506,-0.001421506,0.001421506,-0.001421506,0.001421506,-0.001369047,0.001369047,-0.001369047,0.001369047,-7.15E-13,2.11E-13,4.42E-13,1.31E-13,-0.001396394,0.001396394,-0.001421506,0.001421506,-0.001421506,0.001421506,-0.001421506,0.001421506,-0.001421506,0.001421506,-0.001369047,0.001369047,-0.001369047,0.001369047,-0.001369047,0.001369047,-0.001369047,0.001369047,-7.07E-12,6.94E-12,-0.001396394,0.001396394,-2.19E-13,1.15E-13,-0.001421506,0.001421506,-0.001421506,0.001421506,-0.001421506,0.001421506,-0.001421506,0.001421506,-0.001369047,0.001369047,-0.001369047,0.001369047,0.687097313,0.324468446,1368840,32768,0.005801401,0.005801401,0.005801401,33.39168887,33.38146536,0.000182334,0.000182334,0.000182334,406948.7743,0.017556736
14256000,0.998765077,0.016895818,0.005631939,0.005631939,0.005631939,-0.00139595,0.00139595,6.33E-12,-7.18E-12,1.82E-14,-8.76E-13,-0.001421179,0.001421179,-0.001421179,0.001421179,-0.001421179,0.001421179,-0.001421179,0.001421179,-0.001368498,0.001368498,-0.001368498,0.001368498,-7.24E-13,2.21E-13,4.28E-13,1.20E-13,-0.00139595,0.00139595,-0.001421179,0.001421179,-0.001421179,0.001421179,-0.001421179,0.001421179,-0.001421179,0.001421179,-0.001368498,0.001368498,-0.001368498,0.001368498,-0.001368498,0.001368498,-0.001368498,0.001368498,-7.01E-12,7.02E-12,-0.00139595,0.00139595,-1.71E-13,1.60E-13,-0.001421179,0.001421179,-0.001421179,0.001421179,-0.001421179,0.001421179,-0.001421179,0.001421179,-0.001368498,0.001368498,-0.001368498,0.001368498,0.683682261,0.280295647,1368840,32768,0.005799562,0.005799562,0.005799562,33.24048009,33.2302614,0.000181124,0.000181124,0.000181124,412644.1499,0.017551122
14342400,0.998820579,0.016896652,0.005632217,0.005632217,0.005632217,-0.001395256,0.001395256,6.30E-12,-7.24E-12,3.83E-14,-9.42E-13,-0.001420608,0.001420608,-0.001420608,0.001420608,-0.001420608,0.001420608,-0.001420608,0.001420608,-0.001367694,0.001367694,-0.001367694,0.001367694,-7.20E-13,3.12E-13,4.65E-13,1.26E-13,-0.001395256,0.001395256,-0.001420608,0.001420608,-0.001420608,0.001420608,-0.001420608,0.001420608,-0.001420608,0.001420608,-0.001367694,0.001367694,-0.001367694,0.001367694,-0.001367694,0.001367694,-0.001367694,0.001367694,-7.04E-12,7.01E-12,-0.001395256,0.001395256,-2.42E-13,1.20E-13,-0.001420608,0.001420608,-0.001420608,0.001420608,-0.001420608,0.001420608,-0.001420608,0.001420608,-0.001367694,0.001367694,-0.001367694,0.001367694,0.686098952,0.330165347,1368840,32768,0.005796685,0.005796685,0.005796685,32.96780683,32.94967694,0.000178942,0.000178942,0.000178942,418808.8941,0.01754234
14428800,0.998872568,0.016897433,0.005632478,0.005632478,0.005632478,-0.001394878,0.001394878,6.00E-12,-7.46E-12,-2.03E-13,-1.25E-12,-0.001420125,0.001420125,-0.001420125,0.001420125,-0.001420125,0.001420125,-0.001420125,0.001420125,-0.001367417,0.001367417,-0.001367417,0.001367417,-6.82E-13,4.03E-13,3.93E-13,1.03E-13,-0.001394878,0.001394878,-0.001420125,0.001420125,-0.001420125,0.001420125,-0.001420125,0.001420125,-0.001420125,0.001420125,-0.001367417,0.001367417,-0.001367417,0.001367417,-0.001367417,0.001367417,-0.001367417,0.001367417,-6.87E-12,7.10E-12,-0.001394878,0.001394878,-6.48E-14,2.51E-13,-0.001420125,0.001420125,-0.001420125,0.001420125,-0.001420125,0.001420125,-0.001420125,0.001420125,-0.001367417,0.001367417,-0.001367417,0.001367417,0.686239463,0.34057045,1368840,32768,0.005795121,0.005795121,0.005795121,32.61529541,32.59171727,0.000176122,0.000176122,0.000176122,410738.2108,0.017537564
14515200,0.998921294,0.016898165,0.005632722,0.005632722,0.005632722,-0.001394289,0.001394289,6.19E-12,-7.29E-12,8.80E-14,-1.02E-12,-0.001419513,0.001419513,-0.001419513,0.001419513,-0.001419513,0.001419513,-0.001419513,0.001419513,-0.001366849,0.001366849,-0.001366849,0.001366849,-8.28E-13,3.25E-13,4.80E-13,1.14E-13,-0.001394289,0.001394289,-0.001419513,0.001419513,-0.001419513,0.001419513,-0.001419513,0.001419513,-0.001419513,0.001419513,-0.001366849,0.001366849,-0.001366849,0.001366849,-0.001366849,0.001366849,-0.001366849,0.001366849,-6.88E-12,7.09E-12,-0.001394289,0.001394289,-2.49E-13,1.38E-13,-0.001419513,0.001419513,-0.001419513,0.001419513,-0.001419513,0.001419513,-0.001419513,0.001419513,-0.001366849,0.001366849,-0.001366849,0.001366849,0.68643189,0.350975554,1368840,32768,0.005792681,0.005792681,0.005792681,32.25782253,32.23375759,0.000173263,0.000173263,0.000173263,408396.2411,0.017530117
14601600,0.998966999,0.016898852,0.005632951,0.005632951,0.005632951,-0.001393696,0.001393696,5.60E-12,-7.95E-12,-4.02E-13,-1.59E-12,-0.001418901,0.001418901,-0.001418901,0.001418901,-0.001418901,0.001418901,-0.001418901,0.001418901,-0.001366275,0.001366275,-0.001366275,0.001366275,-9.41E-13,3.07E-13,3.56E-13,1.03E-13,-0.001393696,0.001393696,-0.001418901,0.001418901,-0.001418901,0.001418901,-0.001418901,0.001418901,-0.001418901,0.001418901,-0.001366275,0.001366275,-0.001366275,0.001366275,-0.001366275,0.001366275,-0.001366275,0.001366275,-7.36E-12,6.69E-12,-0.001393696,0.001393696,-5.34E-13,-2.47E-13,-0.001418901,0.001418901,-0.001418901,0.001418901,-0.001418901,0.001418901,-0.001418901,0.001418901,-0.001366275,0.001366275,-0.001366275,0.001366275,0.686672012,0.361380658,1368840,32768,0.005790224,0.005790224,0.005790224,31.89988763,31.87579791,0.000170399,0.000170399,0.000170399,406101.3869,0.017522618
14688000,0.999009905,0.016899497,0.005633166,0.005633166,0.005633166,-0.0013931,0.0013931,6.09E-12,-7.35E-12,3.12E-14,-1.21E-12,-0.001418285,0.001418285,-0.001418285,0.001418285,-0.001418285,0.001418285,-0.001418285,0.001418285,-0.001365698,0.001365698,-0.001365698,0.001365698,-7.86E-13,5.20E-13,2.57E-13,6.52E-14,-0.0013931,0.0013931,-0.001418285,0.001418285,-0.001418285,0.001418285,-0.001418285,0.001418285,-0.001418285,0.001418285,-0.001365698,0.001365698,-0.001365698,0.001365698,-0.001365698,0.001365698,-0.001365698,0.001365698,-6.60E-12,7.36E-12,-0.0013931,0.0013931,2.69E-13,4.94E-13,-0.001418285,0.001418285,-0.001418285,0.001418285,-0.001418285,0.001418285,-0.001418285,0.001418285,-0.001365698,0.001365698,-0.001365698,0.001365698,0.686956162,0.371785762,1368840,32768,0.005787754,0.005787754,0.005787754,31.54190683,31.51783823,0.000167535,0.000167535,0.000167535,403814.8301,0.017515077
14774400,0.999050216,0.016900104,0.005633368,0.005633368,0.005633368,-0.001392501,0.001392501,6.13E-12,-7.25E-12,1.93E-13,-1.12E-12,-0.001417667,0.001417667,-0.001417667,0.001417667,-0.001417667,0.001417667,-0.001417667,0.001417667,-0.001365117,0.001365117,-0.001365117,0.001365117,-7.08E-13,6.64E-13,5.97E-13,3.72E-13,-0.001392501,0.001392501,-0.001417667,0.001417667,-0.001417667,0.001417667,-0.001417667,0.001417667,-0.001417667,0.001417667,-0.001365117,0.001365117,-0.001365117,0.001365117,-0.001365117,0.001365117,-0.001365117,0.001365117,-6.97E-12,6.91E-12,-0.001392501,0.001392501,-1.44E-13,1.15E-13,-0.001417667,0.001417667,-0.001417667,0.001417667,-0.001417667,0.001417667,-0.001417667,0.001417667,-0.001365117,0.001365117,-0.001365117,0.001365117,0.687281124,0.382190866,1368840,32768,0.005785272,0.005785272,0.005785272,31.18392141,31.15987855,0.000164671,0.000164671,0.000164671,401533.1689,0.017507499
14860800,0.999088118,0.016900674,0.005633558,0.005633558,0.005633558,-0.001391899,0.001391899,6.32E-12,-7.00E-12,2.62E-13,-1.05E-12,-0.001417045,0.001417045,-0.001417045,0.001417045,-0.001417045,0.001417045,-0.001417045,0.001417045,-0.001364534,0.001364534,-0.001364534,0.001364534,-9.73E-13,3.72E-13,2.87E-13,-3.33E-14,-0.001391899,0.001391899,-0.001417045,0.001417045,-0.001417045,0.001417045,-0.001417045,0.001417045,-0.001417045,0.001417045,-0.001364534,0.001364534,-0.001364534,0.001364534,-0.001364534,0.001364534,-0.001364534,0.001364534,-6.79E-12,7.03E-12,-0.001391899,0.001391899,-1.38E-13,1.98E-13,-0.001417045,0.001417045,-0.001417045,0.001417045,-0.001417045,0.001417045,-0.001417045,0.001417045,-0.001364534,0.001364534,-0.001364534,0.001364534,0.687644057,0.39259597,1368840,32768,0.005782777,0.005782777,0.005782777,30.82593554,30.80191887,0.000161807,0.000161807,0.000161807,399257.5551,0.017499885
14947200,0.999123652,0.01690121,0.005633737,0.005633737,0.005633737,-0.001391165,0.001391165,6.18E-12,-7.14E-12,-7.47E-14,-1.19E-12,-0.001416294,0.001416294,-0.001416294,0.001416294,-0.001416294,0.001416294,-0.001416294,0.001416294,-0.001363818,0.001363818,-0.001363818,0.001363818,-8.95E-13,2.79E-13,3.41E-13,-1.02E-13,-0.001391165,0.001391165,-0.001416294,0.001416294,-0.001416294,0.001416294,-0.001416294,0.001416294,-0.001416294,0.001416294,-0.001363818,0.001363818,-0.001363818,0.001363818,-0.001363818,0.001363818,-0.001363818,0.001363818,-6.63E-12,7.18E-12,-0.001391165,0.001391165,-1.45E-13,3.10E-13,-0.001416294,0.001416294,-0.001416294,0.001416294,-0.001416294,0.001416294,-0.001416294,0.001416294,-0.001363818,0.001363818,-0.001363818,0.001363818,0.688043158,0.403001074,1368840,32768,0.00577974,0.00577974,0.00577974,30.40157121,30.3732901,0.000158413,0.000158413,0.000158413,397034.3504,0.017490613
15033600,0.999156665,0.016901706,0.005633902,0.005633902,0.005633902,-0.001390091,0.001390091,6.21E-12,-7.14E-12,1.46E-13,-1.06E-12,-0.001415203,0.001415203,-0.001415203,0.001415203,-0.001415203,0.001415203,-0.001415203,0.001415203,-0.001362761,0.001362761,-0.001362761,0.001362761,-7.69E-13,4.88E-13,4.26E-13,1.65E-13,-0.001390091,0.001390091,-0.001415203,0.001415203,-0.001415203,0.001415203,-0.001415203,0.001415203,-0.001415203,0.001415203,-0.001362761,0.001362761,-0.001362761,0.001362761,-0.001362761,0.001362761,-0.001362761,0.001362761,-6.98E-12,6.88E-12,-0.001390091,0.001390091,-1.68E-13,1.20E-13,-0.001415203,0.001415203,-0.001415203,0.001415203,-0.001415203,0.001415203,-0.001415203,0.001415203,-0.001362761,0.001362761,-0.001362761,0.001362761,0.686064538,0.374278769,1368840,32768,0.005775289,0.005775289,0.005775289,29.80244948,29.76278736,0.00015362,0.00015362,0.00015362,394868.312,0.017477028
15120000,0.999187355,0.016902164,0.005634055,0.005634055,0.005634055,-0.001388814,0.001388814,6.23E-12,-7.09E-12,1.23E-13,-1.11E-12,-0.001413995,0.001413995,-0.001413995,0.001413995,-0.001413995,0.001413995,-0.001413995,0.001413995,-0.001361421,0.001361421,-0.001361421,0.001361421,-6.96E-13,5.85E-13,6.22E-13,3.26E-13,-0.001388814,0.001388814,-0.001413995,0.001413995,-0.001413995,0.001413995,-0.001413995,0.001413995,-0.001413995,0.001413995,-0.001361421,0.001361421,-0.001361421,0.001361421,-0.001361421,0.001361421,-0.001361421,0.001361421,-6.74E-12,7.09E-12,-0.001388814,0.001388814,-1.55E-14,3.07E-13,-0.001413995,0.001413995,-0.001413995,0.001413995,-0.001413995,0.001413995,-0.001413995,0.001413995,-0.001361421,0.001361421,-0.001361421,0.001361421,0.682079783,0.315549133,1368840,32768,0.00577,0.00577,0.00577,29.19292796,29.15228461,0.000148743,0.000148743,0.000148743,398001.456,0.017460882
15206400,0.999215916,0.016902588,0.005634196,0.005634196,0.005634196,-0.001387382,0.001387382,6.18E-12,-7.04E-12,3.52E-14,-9.42E-13,-0.001412709,0.001412709,-0.001412709,0.001412709,-0.001412709,0.001412709,-0.001412709,0.001412709,-0.001359856,0.001359856,-0.001359856,0.001359856,-7.14E-13,3.12E-13,5.12E-13,1.45E-13,-0.001387382,0.001387382,-0.001412709,0.001412709,-0.001412709,0.001412709,-0.001412709,0.001412709,-0.001412709,0.001412709,-0.001359856,0.001359856,-0.001359856,0.001359856,-0.001359856,0.001359856,-0.001359856,0.001359856,-6.86E-12,6.87E-12,-0.001387382,0.001387382,-2.35E-13,1.58E-13,-0.001412709,0.001412709,-0.001412709,0.001412709,-0.001412709,0.001412709,-0.001412709,0.001412709,-0.001359856,0.001359856,-0.001359856,0.001359856,0.677746977,0.25467942,1368840,32768,0.005764065,0.005764065,0.005764065,28.58245234,28.54178186,0.00014386,0.00014386,0.00014386,405762.0932,0.017442767
15292800,0.999242524,0.01690299,0.00563433,0.00563433,0.00563433,-0.001385917,0.001385917,6.33E-12,-7.01E-12,8.88E-14,-8.64E-13,-0.001411404,0.001411404,-0.001411404,0.001411404,-0.001411404,0.001411404,-0.001411404,0.001411404,-0.001358248,0.001358248,-0.001358248,0.001358248,-8.63E-13,1.46E-13,2.68E-13,2.03E-13,-0.001385917,0.001385917,-0.001411404,0.001411404,-0.001411404,0.001411404,-0.001411404,0.001411404,-0.001411404,0.001411404,-0.001358248,0.001358248,-0.001358248,0.001358248,-0.001358248,0.001358248,-0.001358248,0.001358248,-6.99E-12,6.86E-12,-0.001385917,0.001385917,-4.67E-14,4.20E-14,-0.001411404,0.001411404,-0.001411404,0.001411404,-0.001411404,0.001411404,-0.001411404,0.001411404,-0.001358248,0.001358248,-0.001358248,0.001358248,0.689597632,0.465980602,1368840,32768,0.005757997,0.005757997,0.005757997,27.97188521,27.93127912,0.000138975,0.000138975,0.000138975,414480.3679,0.017424248
15379200,0.999267341,0.016903368,0.005634456,0.005634456,0.005634456,-0.001385752,0.001385752,6.36E-12,-6.96E-12,1.18E-13,-9.97E-13,-0.001410761,0.001410761,-0.001410761,0.001410761,-0.001410761,0.001410761,-0.001410761,0.001410761,-0.001358526,0.001358526,-0.001358526,0.001358526,-8.22E-13,3.41E-13,5.49E-13,2.87E-13,-0.001385752,0.001385752,-0.001410761,0.001410761,-0.001410761,0.001410761,-0.001410761,0.001410761,-0.001410761,0.001410761,-0.001358526,0.001358526,-0.001358526,0.001358526,-0.001358526,0.001358526,-0.001358526,0.001358526,-7.07E-12,6.76E-12,-0.001385752,0.001385752,-2.05E-13,8.15E-14,-0.001410761,0.001410761,-0.001410761,0.001410761,-0.001410761,0.001410761,-0.001410761,0.001410761,-0.001358526,0.001358526,-0.001358526,0.001358526,0.69611494,0.581184023,1368840,32768,0.005757316,0.005757316,0.005757316,27.36130868,27.32077637,0.00013409,0.00013409,0.00013409,384338.4468,0.017422166
15465600,0.999290509,0.016903723,0.005634574,0.005634574,0.005634574,-0.001385068,0.001385068,6.35E-12,-6.99E-12,1.34E-13,-1.02E-12,-0.001409841,0.001409841,-0.001409841,0.001409841,-0.001409841,0.001409841,-0.001409841,0.001409841,-0.001358057,0.001358057,-0.001358057,0.001358057,-7.80E-13,4.26E-13,3.96E-13,2.75E-13,-0.001385068,0.001385068,-0.001409841,0.001409841,-0.001409841,0.001409841,-0.001409841,0.001409841,-0.001409841,0.001409841,-0.001358057,0.001358057,-0.001358057,0.001358057,-0.001358057,0.001358057,-0.001358057,0.001358057,-7.14E-12,6.71E-12,-0.001385068,0.001385068,-2.92E-13,-1.46E-13,-0.001409841,0.001409841,-0.001409841,0.001409841,-0.001409841,0.001409841,-0.001409841,0.001409841,-0.001358057,0.001358057,-0.001358057,0.001358057,0.699583341,0.634790255,1368840,32768,0.005754482,0.005754482,0.005754482,26.7507307,26.71027363,0.000129206,0.000129206,0.000129206,369691.9816,0.017413515
15552000,0.999312161,0.016904055,0.005634685,0.005634685,0.005634685,-0.001384122,0.001384122,6.20E-12,-7.01E-12,1.15E-13,-9.05E-13,-0.001408787,0.001408787,-0.001408787,0.001408787,-0.001408787,0.001408787,-0.001408787,0.001408787,-0.001357207,0.001357207,-0.001357207,0.001357207,-8.07E-13,2.64E-13,3.09E-13,1.86E-13,-0.001384122,0.001384122,-0.001408787,0.001408787,-0.001408787,0.001408787,-0.001408787,0.001408787,-0.001408787,0.001408787,-0.001357207,0.001357207,-0.001357207,0.001357207,-0.001357207,0.001357207,-0.001357207,0.001357207,-6.95E-12,6.78E-12,-0.001384122,0.001384122,-1.93E-13,-4.57E-14,-0.001408787,0.001408787,-0.001408787,0.001408787,-0.001408787,0.001408787,-0.001408787,0.001408787,-0.001357207,0.001357207,-0.001357207,0.001357207,0.701329277,0.652710595,1368840,32768,0.005750563,0.005750563,0.005750563,26.14015203,26.09977088,0.000124321,0.000124321,0.000124321,362638.0189,0.017401551
15638400,0.999332877,0.016904374,0.005634791,0.005634791,0.005634791,-0.001383784,0.001383784,6.21E-12,-6.99E-12,1.17E-13,-9.32E-13,-0.001408402,0.001408402,-0.001408402,0.001408402,-0.001408402,0.001408402,-0.001408402,0.001408402,-0.001356907,0.001356907,-0.001356907,0.001356907,-7.86E-13,3.14E-13,3.93E-13,2.39E-13,-0.001383784,0.001383784,-0.001408402,0.001408402,-0.001408402,0.001408402,-0.001408402,0.001408402,-0.001408402,0.001408402,-0.001356907,0.001356907,-0.001356907,0.001356907,-0.001356907,0.001356907,-0.001356907,0.001356907,-6.89E-12,6.82E-12,-0.001383784,0.001383784,-1.36E-13,4.30E-14,-0.001408402,0.001408402,-0.001408402,0.001408402,-0.001408402,0.001408402,-0.001408402,0.001408402,-0.001356907,0.001356907,-0.001356907,0.001356907,0.703137323,0.670630936,1368840,32768,0.005749161,0.005749161,0.005749161,25.91417722,25.89838543,0.000122513,0.000122513,0.000122513,359254.6246,0.017397273
15724800,0.999352762,0.016904684,0.005634895,0.005634895,0.005634895,-0.001383539,0.001383539,6.16E-12,-6.97E-12,6.79E-14,-9.35E-13,-0.001408119,0.001408119,-0.001408119,0.001408119,-0.001408119,0.001408119,-0.001408119,0.001408119,-0.001356694,0.001356694,-0.001356694,0.001356694,-7.75E-13,2.79E-13,3.52E-13,2.25E-13,-0.001383539,0.001383539,-0.001408119,0.001408119,-0.001408119,0.001408119,-0.001408119,0.001408119,-0.001408119,0.001408119,-0.001356694,0.001356694,-0.001356694,0.001356694,-0.001356694,0.001356694,-0.001356694,0.001356694,-6.84E-12,6.80E-12,-0.001383539,0.001383539,-1.02E-13,5.00E-14,-0.001408119,0.001408119,-0.001408119,0.001408119,-0.001408119,0.001408119,-0.001408119,0.001408119,-0.001356694,0.001356694,-0.001356694,0.001356694,0.711376963,0.798049803,1368840,32768,0.005748147,0.005748147,0.005748147,25.73776831,25.72595916,0.000121102,0.000121102,0.000121102,356115.8103,0.017394179
15811200,0.99937186,0.016904985,0.005634995,0.005634995,0.005634995,-0.001383667,0.001383667,6.19E-12,-6.92E-12,5.42E-14,-8.55E-13,-0.001408032,0.001408032,-0.001408032,0.001408032,-0.001408032,0.001408032,-0.001408032,0.001408032,-0.001357016,0.001357016,-0.001357016,0.001357016,-6.46E-13,3.11E-13,3.65E-13,2.40E-13,-0.001383667,0.001383667,-0.001408032,0.001408032,-0.001408032,0.001408032,-0.001408032,0.001408032,-0.001408032,0.001408032,-0.001357016,0.001357016,-0.001357016,0.001357016,-0.001357016,0.001357016,-0.001357016,0.001357016,-6.89E-12,6.73E-12,-0.001383667,0.001383667,-9.66E-14,5.23E-14,-0.001408032,0.001408032,-0.001408032,0.001408032,-0.001408032,0.001408032,-0.001408032,0.001408032,-0.001357016,0.001357016,-0.001357016,0.001357016,0.717587034,0.842625324,1368840,32768,0.005748679,0.005748679,0.005748679,25.5649611,25.55353289,0.00011972,0.00011972,0.00011972,342519.3666,0.017395802
15897600,0.999390208,0.016905274,0.005635091,0.005635091,0.005635091,-0.00138352,0.00138352,6.15E-12,-6.97E-12,2.83E-14,-8.59E-13,-0.001407796,0.001407796,-0.001407796,0.001407796,-0.001407796,0.001407796,-0.001407796,0.001407796,-0.001356935,0.001356935,-0.001356935,0.001356935,-7.40E-13,1.98E-13,3.32E-13,2.04E-13,-0.00138352,0.00138352,-0.001407796,0.001407796,-0.001407796,0.001407796,-0.001407796,0.001407796,-0.001407796,0.001407796,-0.001356935,0.001356935,-0.001356935,0.001356935,-0.001356935,0.001356935,-0.001356935,0.001356935,-6.83E-12,6.80E-12,-0.00138352,0.00138352,-1.09E-13,4.39E-14,-0.001407796,0.001407796,-0.001407796,0.001407796,-0.001407796,0.001407796,-0.001407796,0.001407796,-0.001356935,0.001356935,-0.001356935,0.001356935,0.720507683,0.826280611,1368840,32768,0.00574807,0.00574807,0.00574807,25.39249155,25.38110662,0.00011834,0.00011834,0.00011834,336216.6636,0.017393941
15984000,0.999407841,0.016905553,0.005635184,0.005635184,0.005635184,-0.001383182,0.001383182,6.16E-12,-7.01E-12,1.22E-13,-8.00E-13,-0.001407464,0.001407464,-0.001407464,0.001407464,-0.001407464,0.001407464,-0.001407464,0.001407464,-0.001356577,0.001356577,-0.001356577,0.001356577,-6.92E-13,2.83E-13,3.50E-13,1.60E-13,-0.001383182,0.001383182,-0.001407464,0.001407464,-0.001407464,0.001407464,-0.001407464,0.001407464,-0.001407464,0.001407464,-0.001356577,0.001356577,-0.001356577,0.001356577,-0.001356577,0.001356577,-0.001356577,0.001356577,-6.84E-12,6.85E-12,-0.001383182,0.001383182,-1.12E-13,1.01E-13,-0.001407464,0.001407464,-0.001407464,0.001407464,-0.001407464,0.001407464,-0.001407464,0.001407464,-0.001356577,0.001356577,-0.001356577,0.001356577,0.722558377,0.809935899,1368840,32768,0.005746668,0.005746668,0.005746668,25.22005528,25.20868035,0.00011696,0.00011696,0.00011696,335349.485,0.017389665
16070400,0.99942479,0.016905822,0.005635274,0.005635274,0.005635274,-0.001382837,0.001382837,6.20E-12,-7.04E-12,5.06E-14,-8.47E-13,-0.00140713,0.00140713,-0.00140713,0.00140713,-0.00140713,0.00140713,-0.00140713,0.00140713,-0.001356212,0.001356212,-0.001356212,0.001356212,-6.63E-13,2.88E-13,3.83E-13,1.67E-13,-0.001382837,0.001382837,-0.00140713,0.00140713,-0.00140713,0.00140713,-0.00140713,0.00140713,-0.00140713,0.00140713,-0.001356212,0.001356212,-0.001356212,0.001356212,-0.001356212,0.001356212,-0.001356212,0.001356212,-6.87E-12,6.88E-12,-0.001382837,0.001382837,-1.39E-13,1.00E-13,-0.00140713,0.00140713,-0.00140713,0.00140713,-0.00140713,0.00140713,-0.00140713,0.00140713,-0.001356212,0.001356212,-0.001356212,0.001356212,0.723922007,0.793591187,1368840,32768,0.005745241,0.005745241,0.005745241,25.0476223,25.03625408,0.000115581,0.000115581,0.000115581,334858.7919,0.017385307
16156800,0.999441088,0.016906081,0.00563536,0.00563536,0.00563536,-0.001382487,0.001382487,6.18E-12,-7.05E-12,1.56E-14,-9.16E-13,-0.001406794,0.001406794,-0.001406794,0.001406794,-0.001406794,0.001406794,-0.001406794,0.001406794,-0.001355841,0.001355841,-0.001355841,0.001355841,-6.31E-13,3.52E-13,4.12E-13,2.22E-13,-0.001382487,0.001382487,-0.001406794,0.001406794,-0.001406794,0.001406794,-0.001406794,0.001406794,-0.001406794,0.001406794,-0.001355841,0.001355841,-0.001355841,0.001355841,-0.001355841,0.001355841,-0.001355841,0.001355841,-6.86E-12,6.89E-12,-0.001382487,0.001382487,-5.86E-14,1.56E-13,-0.001406794,0.001406794,-0.001406794,0.001406794,-0.001406794,0.001406794,-0.001406794,0.001406794,-0.001355841,0.001355841,-0.001355841,0.001355841,0.724739711,0.777246474,1368840,32768,0.005743791,0.005743791,0.005743791,24.87518965,24.86382782,0.000114202,0.000114202,0.000114202,334663.0936,0.017380882
16243200,0.999456764,0.01690633,0.005635443,0.005635443,0.005635443,-0.001382133,0.001382133,6.26E-12,-7.00E-12,-1.09E-14,-8.57E-13,-0.001406456,0.001406456,-0.001406456,0.001406456,-0.001406456,0.001406456,-0.001406456,0.001406456,-0.001355465,0.001355465,-0.001355465,0.001355465,-5.71E-13,3.25E-13,4.01E-13,2.58E-13,-0.001382133,0.001382133,-0.001406456,0.001406456,-0.001406456,0.001406456,-0.001406456,0.001406456,-0.001406456,0.001406456,-0.001355465,0.001355465,-0.001355465,0.001355465,-0.001355465,0.001355465,-0.001355465,0.001355465,-6.89E-12,6.88E-12,-0.001382133,0.001382133,-5.77E-14,1.11E-13,-0.001406456,0.001406456,-0.001406456,0.001406456,-0.001406456,0.001406456,-0.001406456,0.001406456,-0.001355465,0.001355465,-0.001355465,0.001355465,0.725122001,0.760901762,1368840,32768,0.005742321,0.005742321,0.005742321,24.70275702,24.69140155,0.000112822,0.000112822,0.000112822,334705.9073,0.017376397
16329600,0.999471845,0.01690657,0.005635523,0.005635523,0.005635523,-0.001381774,0.001381774,6.35E-12,-6.90E-12,4.10E-14,-7.54E-13,-0.001406117,0.001406117,-0.001406117,0.001406117,-0.001406117,0.001406117,-0.001406117,0.001406117,-0.001355084,0.001355084,-0.001355084,0.001355084,-7.09E-13,1.37E-13,2.33E-13,9.98E-14,-0.001381774,0.001381774,-0.001406117,0.001406117,-0.001406117,0.001406117,-0.001406117,0.001406117,-0.001406117,0.001406117,-0.001355084,0.001355084,-0.001355084,0.001355084,-0.001355084,0.001355084,-0.001355084,0.001355084,-6.86E-12,6.90E-12,-0.001381774,0.001381774,-1.00E-13,5.75E-14,-0.001406117,0.001406117,-0.001406117,0.001406117,-0.001406117,0.001406117,-0.001406117,0.001406117,-0.001355084,0.001355084,-0.001355084,0.001355084,0.72515657,0.74455705,1368840,32768,0.005740835,0.005740835,0.005740835,24.5303244,24.51897528,0.000111443,0.000111443,0.000111443,334941.9046,0.017371862
16416000,0.999486408,0.016906797,0.005635599,0.005635599,0.005635599,-0.001381522,0.001381522,6.22E-12,-7.05E-12,5.40E-15,-8.73E-13,-0.001405886,0.001405886,-0.001405886,0.001405886,-0.001405886,0.001405886,-0.001405886,0.001405886,-0.00135481,0.00135481,-0.00135481,0.00135481,-7.30E-13,1.98E-13,3.49E-13,2.15E-13,-0.001381522,0.001381522,-0.001405886,0.001405886,-0.001405886,0.001405886,-0.001405886,0.001405886,-0.001405886,0.001405886,-0.00135481,0.00135481,-0.00135481,0.00135481,-0.00135481,0.00135481,-0.00135481,0.00135481,-6.92E-12,6.87E-12,-0.001381522,0.001381522,-1.01E-13,5.76E-14,-0.001405886,0.001405886,-0.001405886,0.001405886,-0.001405886,0.001405886,-0.001405886,0.001405886,-0.00135481,0.00135481,-0.00135481,0.00135481,0.711574561,0.523075395,1368840,32768,0.005739791,0.005739791,0.005739791,24.41509119,24.40738463,0.000110521,0.000110521,0.000110521,335315.6894,0.017368675
16502400,0.999500478,0.016907019,0.005635673,0.005635673,0.005635673,-0.001380544,0.001380544,6.24E-12,-7.08E-12,1.75E-14,-8.93E-13,-0.001405294,0.001405294,-0.001405294,0.001405294,-0.001405294,0.001405294,-0.001405294,0.001405294,-0.00135348,0.00135348,-0.00135348,0.00135348,-7.26E-13,2.35E-13,3.42E-13,2.13E-13,-0.001380544,0.001380544,-0.001405294,0.001405294,-0.001405294,0.001405294,-0.001405294,0.001405294,-0.001405294,0.001405294,-0.00135348,0.00135348,-0.00135348,0.00135348,-0.00135348,0.00135348,-0.00135348,0.00135348,-6.95E-12,6.88E-12,-0.001380544,0.001380544,-1.13E-13,4.03E-14,-0.001405294,0.001405294,-0.001405294,0.001405294,-0.001405294,0.001405294,-0.001405294,0.001405294,-0.00135348,0.00135348,-0.00135348,0.00135348,0.72247547,0.732485611,1368840,32768,0.005735737,0.005735737,0.005735737,24.30583085,24.29862531,0.000109647,0.000109647,0.000109647,357292.251,0.017356303
16588800,0.999514075,0.016907238,0.005635746,0.005635746,0.005635746,-0.00138108,0.00138108,6.23E-12,-7.06E-12,5.19E-14,-9.22E-13,-0.001405477,0.001405477,-0.001405477,0.001405477,-0.001405477,0.001405477,-0.001405477,0.001405477,-0.001354342,0.001354342,-0.001354342,0.001354342,-7.40E-13,2.84E-13,3.38E-13,2.49E-13,-0.00138108,0.00138108,-0.001405477,0.001405477,-0.001405477,0.001405477,-0.001405477,0.001405477,-0.001405477,0.001405477,-0.001354342,0.001354342,-0.001354342,0.001354342,-0.001354342,0.001354342,-0.001354342,0.001354342,-6.94E-12,6.86E-12,-0.00138108,0.00138108,-9.64E-14,1.82E-14,-0.001405477,0.001405477,-0.001405477,0.001405477,-0.001405477,0.001405477,-0.001405477,0.001405477,-0.001354342,0.001354342,-0.001354342,0.001354342,0.733114975,0.905369568,1368840,32768,0.005737958,0.005737958,0.005737958,24.19702514,24.189866,0.000108776,0.000108776,0.000108776,335758.9011,0.017363082
16675200,0.999527217,0.016907451,0.005635817,0.005635817,0.005635817,-0.001381418,0.001381418,6.23E-12,-7.05E-12,5.12E-14,-9.23E-13,-0.001405555,0.001405555,-0.001405555,0.001405555,-0.001405555,0.001405555,-0.001405555,0.001405555,-0.001354914,0.001354914,-0.001354914,0.001354914,-7.46E-13,2.78E-13,3.39E-13,2.46E-13,-0.001381418,0.001381418,-0.001405555,0.001405555,-0.001405555,0.001405555,-0.001405555,0.001405555,-0.001405555,0.001405555,-0.001354914,0.001354914,-0.001354914,0.001354914,-0.001354914,0.001354914,-0.001354914,0.001354914,-6.95E-12,6.84E-12,-0.001381418,0.001381418,-1.09E-13,9.71E-15,-0.001405555,0.001405555,-0.001405555,0.001405555,-0.001405555,0.001405555,-0.001405555,0.001405555,-0.001354914,0.001354914,-0.001354914,0.001354914,0.738816364,0.930268659,1368840,32768,0.005739359,0.005739359,0.005739359,24.08826009,24.08110669,0.000107906,0.000107906,0.000107906,319855.9643,0.017367355
16761600,0.99953992,0.016907657,0.005635886,0.005635886,0.005635886,-0.001381317,0.001381317,6.26E-12,-7.06E-12,5.34E-14,-8.78E-13,-0.001405401,0.001405401,-0.001405401,0.001405401,-0.001405401,0.001405401,-0.001405401,0.001405401,-0.00135485,0.00135485,-0.00135485,0.00135485,-7.06E-13,2.76E-13,4.27E-13,1.76E-13,-0.001381317,0.001381317,-0.001405401,0.001405401,-0.001405401,0.001405401,-0.001405401,0.001405401,-0.001405401,0.001405401,-0.00135485,0.00135485,-0.00135485,0.00135485,-0.00135485,0.00135485,-0.00135485,0.00135485,-6.92E-12,6.91E-12,-0.001381317,0.001381317,-1.43E-13,1.32E-13,-0.001405401,0.001405401,-0.001405401,0.001405401,-0.001405401,0.001405401,-0.001405401,0.001405401,-0.00135485,0.00135485,-0.00135485,0.00135485,0.742279773,0.915092567,1368840,32768,0.005738943,0.005738943,0.005738943,23.97949837,23.97234737,0.000107036,0.000107036,0.000107036,315690.6317,0.017366087
16848000,0.999552203,0.016907858,0.005635953,0.005635953,0.005635953,-0.001381104,0.001381104,6.22E-12,-7.05E-12,6.70E-14,-8.65E-13,-0.001405189,0.001405189,-0.001405189,0.001405189,-0.001405189,0.001405189,-0.001405189,0.001405189,-0.001354624,0.001354624,-0.001354624,0.001354624,-7.45E-13,2.38E-13,4.06E-13,1.52E-13,-0.001381104,0.001381104,-0.001405189,0.001405189,-0.001405189,0.001405189,-0.001405189,0.001405189,-0.001405189,0.001405189,-0.001354624,0.001354624,-0.001354624,0.001354624,-0.001354624,0.001354624,-0.001354624,0.001354624,-6.90E-12,6.88E-12,-0.001381104,0.001381104,-1.24E-13,1.54E-13,-0.001405189,0.001405189,-0.001405189,0.001405189,-0.001405189,0.001405189,-0.001405189,0.001405189,-0.001354624,0.001354624,-0.001354624,0.001354624,0.744956057,0.899916476,1368840,32768,0.005738057,0.005738057,0.005738057,23.8707369,23.86358806,0.000106166,0.000106166,0.000106166,314711.3139,0.017363383
16934400,0.999564081,0.016908052,0.005636017,0.005636017,0.005636017,-0.001380884,0.001380884,6.21E-12,-7.06E-12,6.20E-14,-8.81E-13,-0.001404976,0.001404976,-0.001404976,0.001404976,-0.001404976,0.001404976,-0.001404976,0.001404976,-0.00135439,0.00135439,-0.00135439,0.00135439,-7.70E-13,2.22E-13,4.19E-13,1.62E-13,-0.001380884,0.001380884,-0.001404976,0.001404976,-0.001404976,0.001404976,-0.001404976,0.001404976,-0.001404976,0.001404976,-0.00135439,0.00135439,-0.00135439,0.00135439,-0.00135439,0.00135439,-0.00135439,0.00135439,-6.89E-12,6.89E-12,-0.001380884,0.001380884,-1.60E-13,1.21E-13,-0.001404976,0.001404976,-0.001404976,0.001404976,-0.001404976,0.001404976,-0.001404976,0.001404976,-0.00135439,0.00135439,-0.00135439,0.00135439,0.74697646,0.884740384,1368840,32768,0.005737148,0.005737148,0.005737148,23.76197533,23.75482874,0.000105296,0.000105296,0.000105296,314060.1797,0.017360607
17020800,0.999575569,0.01690824,0.00563608,0.00563608,0.00563608,-0.001380659,0.001380659,6.21E-12,-7.08E-12,4.54E-14,-9.28E-13,-0.001404761,0.001404761,-0.001404761,0.001404761,-0.001404761,0.001404761,-0.001404761,0.001404761,-0.001354149,0.001354149,-0.001354149,0.001354149,-7.18E-13,3.05E-13,4.77E-13,1.87E-13,-0.001380659,0.001380659,-0.001404761,0.001404761,-0.001404761,0.001404761,-0.001404761,0.001404761,-0.001404761,0.001404761,-0.001354149,0.001354149,-0.001354149,0.001354149,-0.001354149,0.001354149,-0.001354149,0.001354149,-6.93E-12,6.86E-12,-0.001380659,0.001380659,-1.99E-13,1.16E-13,-0.001404761,0.001404761,-0.001404761,0.001404761,-0.001404761,0.001404761,-0.001404761,0.001404761,-0.001354149,0.001354149,-0.001354149,0.001354149,0.744800682,0.816837359,1368840,32768,0.005736216,0.005736216,0.005736216,23.65321204,23.64606943,0.000104426,0.000104426,0.000104426,313682.5451,0.017357764
17107200,0.999586682,0.016908421,0.00563614,0.00563614,0.00563614,-0.001380273,0.001380273,6.23E-12,-7.10E-12,6.02E-14,-8.91E-13,-0.001404464,0.001404464,-0.001404464,0.001404464,-0.001404464,0.001404464,-0.001404464,0.001404464,-0.001353676,0.001353676,-0.001353676,0.001353676,-6.95E-13,3.08E-13,4.75E-13,2.19E-13,-0.001380273,0.001380273,-0.001404464,0.001404464,-0.001404464,0.001404464,-0.001404464,0.001404464,-0.001404464,0.001404464,-0.001353676,0.001353676,-0.001353676,0.001353676,-0.001353676,0.001353676,-0.001353676,0.001353676,-6.92E-12,6.93E-12,-0.001380273,0.001380273,-1.56E-13,1.24E-13,-0.001404464,0.001404464,-0.001404464,0.001404464,-0.001404464,0.001404464,-0.001404464,0.001404464,-0.001353676,0.001353676,-0.001353676,0.001353676,0.743707885,0.785181007,1368840,32768,0.005734615,0.005734615,0.005734615,23.54444952,23.53731012,0.000103556,0.000103556,0.000103556,318022.3491,0.017352879
17193600,0.999597241,0.016908592,0.005636197,0.005636197,0.005636197,-0.001379398,0.001379398,6.30E-12,-7.09E-12,1.60E-13,-8.99E-13,-0.001403645,0.001403645,-0.001403645,0.001403645,-0.001403645,0.001403645,-0.001403645,0.001403645,-0.00135275,0.00135275,-0.00135275,0.00135275,-7.58E-13,3.52E-13,3.40E-13,1.03E-13,-0.001379398,0.001379398,-0.001403645,0.001403645,-0.001403645,0.001403645,-0.001403645,0.001403645,-0.001403645,0.001403645,-0.00135275,0.00135275,-0.00135275,0.00135275,-0.00135275,0.00135275,-0.00135275,0.00135275,-7.00E-12,6.89E-12,-0.001379398,0.001379398,-2.53E-13,1.02E-14,-0.001403645,0.001403645,-0.001403645,0.001403645,-0.001403645,0.001403645,-0.001403645,0.001403645,-0.00135275,0.00135275,-0.00135275,0.00135275,0.740968173,0.736535009,1368840,32768,0.005730991,0.005730991,0.005730991,23.13400122,23.10775806,0.000100272,0.000100272,0.000100272,320087.7402,0.01734182
17280000,0.999607265,0.016908754,0.005636251,0.005636251,0.005636251,-0.001378416,0.001378416,6.10E-12,-7.22E-12,3.74E-14,-1.03E-12,-0.001402741,0.001402741,-0.001402741,0.001402741,-0.001402741,0.001402741,-0.001402741,0.001402741,-0.001351696,0.001351696,-0.001351696,0.001351696,-8.26E-13,2.92E-13,4.09E-13,8.14E-14,-0.001378416,0.001378416,-0.001402741,0.001402741,-0.001402741,0.001402741,-0.001402741,0.001402741,-0.001402741,0.001402741,-0.001351696,0.001351696,-0.001351696,0.001351696,-0.001351696,0.001351696,-0.001351696,0.001351696,-6.85E-12,6.99E-12,-0.001378416,0.001378416,-1.45E-13,2.07E-13,-0.001402741,0.001402741,-0.001402741,0.001402741,-0.001402741,0.001402741,-0.001402741,0.001402741,-0.001351696,0.001351696,-0.001351696,0.001351696,0.737183629,0.679314409,1368840,32768,0.005726925,0.005726925,0.005726925,22.6990884,22.67070892,9.68E-05,9.68E-05,9.68E-05,323777.1399,0.017329408
17366400,0.999616786,0.016908907,0.005636302,0.005636302,0.005636302,-0.001377393,0.001377393,6.26E-12,-7.14E-12,-1.05E-13,-1.22E-12,-0.001401815,0.001401815,-0.001401815,0.001401815,-0.001401815,0.001401815,-0.001401815,0.001401815,-0.001350583,0.001350583,-0.001350583,0.001350583,-8.88E-13,2.80E-13,3.44E-13,-1.06E-13,-0.001377393,0.001377393,-0.001401815,0.001401815,-0.001401815,0.001401815,-0.001401815,0.001401815,-0.001401815,0.001401815,-0.001350583,0.001350583,-0.001350583,0.001350583,-0.001350583,0.001350583,-0.001350583,0.001350583,-6.96E-12,6.96E-12,-0.001377393,0.001377393,-4.15E-13,5.56E-14,-0.001401815,0.001401815,-0.001401815,0.001401815,-0.001401815,0.001401815,-0.001401815,0.001401815,-0.001350583,0.001350583,-0.001350583,0.001350583,0.733029276,0.621918972,1368840,32768,0.005722685,0.005722685,0.005722685,22.26220548,22.23365977,9.33E-05,9.33E-05,9.33E-05,328622.9836,0.017316471
17452800,0.999625834,0.016909052,0.005636351,0.005636351,0.005636351,-0.001376358,0.001376358,6.42E-12,-7.02E-12,-1.14E-13,-8.68E-13,-0.001400882,0.001400882,-0.001400882,0.001400882,-0.001400882,0.001400882,-0.001400882,0.001400882,-0.001349453,0.001349453,-0.001349453,0.001349453,-7.94E-13,6.94E-15,5.04E-13,2.21E-13,-0.001376358,0.001376358,-0.001400882,0.001400882,-0.001400882,0.001400882,-0.001400882,0.001400882,-0.001400882,0.001400882,-0.001349453,0.001349453,-0.001349453,0.001349453,-0.001349453,0.001349453,-0.001349453,0.001349453,-6.86E-12,7.09E-12,-0.001376358,0.001376358,-1.21E-13,1.82E-13,-0.001400882,0.001400882,-0.001400882,0.001400882,-0.001400882,0.001400882,-0.001400882,0.001400882,-0.001349453,0.001349453,-0.001349453,0.001349453,0.728726949,0.566015479,1368840,32768,0.005718394,0.005718394,0.005718394,21.82513589,21.79661062,8.98E-05,8.98E-05,8.98E-05,333879.4959,0.017303375
17539200,0.999634437,0.016909188,0.005636396,0.005636396,0.005636396,-0.001375316,0.001375316,6.65E-12,-6.70E-12,2.90E-13,-8.31E-13,-0.001399947,0.001399947,-0.001399947,0.001399947,-0.001399947,0.001399947,-0.001399947,0.001399947,-0.001348313,0.001348313,-0.001348313,0.001348313,-9.78E-13,1.92E-13,4.53E-13,-1.19E-14,-0.001375316,0.001375316,-0.001399947,0.001399947,-0.001399947,0.001399947,-0.001399947,0.001399947,-0.001399947,0.001399947,-0.001348313,0.001348313,-0.001348313,0.001348313,-0.001348313,0.001348313,-0.001348313,0.001348313,-7.06E-12,6.80E-12,-0.001375316,0.001375316,-3.10E-13,1.77E-13,-0.001399947,0.001399947,-0.001399947,0.001399947,-0.001399947,0.001399947,-0.001399947,0.001399947,-0.001348313,0.001348313,-0.001348313,0.001348313,0.724568842,0.514846231,1368840,32768,0.005714078,0.005714078,0.005714078,21.38804857,21.35956148,8.63E-05,8.63E-05,8.63E-05,339364.4437,0.017290202
17625600,0.999642622,0.016909318,0.005636439,0.005636439,0.005636439,-0.00137428,0.00137428,6.31E-12,-7.10E-12,1.31E-13,-9.75E-13,-0.001399014,0.001399014,-0.001399014,0.001399014,-0.001399014,0.001399014,-0.001399014,0.001399014,-0.001347184,0.001347184,-0.001347184,0.001347184,-7.71E-13,3.82E-13,5.27E-13,9.10E-14,-0.00137428,0.00137428,-0.001399014,0.001399014,-0.001399014,0.001399014,-0.001399014,0.001399014,-0.001399014,0.001399014,-0.001347184,0.001347184,-0.001347184,0.001347184,-0.001347184,0.001347184,-0.001347184,0.001347184,-6.96E-12,6.96E-12,-0.00137428,0.00137428,-1.91E-13,2.71E-13,-0.001399014,0.001399014,-0.001399014,0.001399014,-0.001399014,0.001399014,-0.001399014,0.001399014,-0.001347184,0.001347184,-0.001347184,0.001347184,0.72133972,0.479205021,1368840,32768,0.005709789,0.005709789,0.005709789,20.9509598,20.92251233,8.28E-05,8.28E-05,8.28E-05,344682.1706,0.017277113
17712000,0.999650412,0.01690944,0.00563648,0.00563648,0.00563648,-0.001373298,0.001373298,6.13E-12,-7.28E-12,2.36E-15,-1.11E-12,-0.00139811,0.00139811,-0.00139811,0.00139811,-0.00139811,0.00139811,-0.00139811,0.00139811,-0.00134613,0.00134613,-0.00134613,0.00134613,-9.10E-13,2.55E-13,3.96E-13,7.82E-15,-0.001373298,0.001373298,-0.00139811,0.00139811,-0.00139811,0.00139811,-0.00139811,0.00139811,-0.00139811,0.00139811,-0.00134613,0.00134613,-0.00134613,0.00134613,-0.00134613,0.00134613,-0.00134613,0.00134613,-6.90E-12,7.02E-12,-0.001373298,0.001373298,-1.20E-13,2.91E-13,-0.00139811,0.00139811,-0.00139811,0.00139811,-0.00139811,0.00139811,-0.00139811,0.00139811,-0.00134613,0.00134613,-0.00134613,0.00134613,0.718092503,0.443563811,1368840,32768,0.005705717,0.005705717,0.005705717,20.51452265,20.4861557,7.93E-05,7.93E-05,7.93E-05,348530.1097,0.017264687
17798400,0.999657839,0.016909557,0.005636519,0.005636519,0.005636519,-0.001372341,0.001372341,6.21E-12,-7.12E-12,5.49E-14,-9.24E-13,-0.001397233,0.001397233,-0.001397233,0.001397233,-0.001397233,0.001397233,-0.001397233,0.001397233,-0.001345101,0.001345101,-0.001345101,0.001345101,-7.33E-13,2.96E-13,3.52E-13,1.52E-13,-0.001372341,0.001372341,-0.001397233,0.001397233,-0.001397233,0.001397233,-0.001397233,0.001397233,-0.001397233,0.001397233,-0.001345101,0.001345101,-0.001345101,0.001345101,-0.001345101,0.001345101,-0.001345101,0.001345101,-6.99E-12,6.85E-12,-0.001372341,0.001372341,-1.53E-13,7.29E-14,-0.001397233,0.001397233,-0.001397233,0.001397233,-0.001397233,0.001397233,-0.001397233,0.001397233,-0.001345101,0.001345101,-0.001345101,0.001345101,0.7148319,0.4079226,1368840,32768,0.005701754,0.005701754,0.005701754,20.09403828,20.06671178,7.60E-05,7.60E-05,7.60E-05,352501.9697,0.017252591
17884800,0.999664919,0.016909667,0.005636556,0.005636556,0.005636556,-0.001371365,0.001371365,6.16E-12,-7.11E-12,2.43E-15,-9.88E-13,-0.001396336,0.001396336,-0.001396336,0.001396336,-0.001396336,0.001396336,-0.001396336,0.001396336,-0.001344054,0.001344054,-0.001344054,0.001344054,-6.39E-13,4.03E-13,5.77E-13,3.55E-13,-0.001371365,0.001371365,-0.001396336,0.001396336,-0.001396336,0.001396336,-0.001396336,0.001396336,-0.001396336,0.001396336,-0.001344054,0.001344054,-0.001344054,0.001344054,-0.001344054,0.001344054,-0.001344054,0.001344054,-6.83E-12,6.95E-12,-0.001371365,0.001371365,-3.55E-14,2.13E-13,-0.001396336,0.001396336,-0.001396336,0.001396336,-0.001396336,0.001396336,-0.001396336,0.001396336,-0.001344054,0.001344054,-0.001344054,0.001344054,0.711561511,0.37228139,1368840,32768,0.005697711,0.005697711,0.005697711,19.66623551,19.64726786,7.25E-05,7.25E-05,7.25E-05,356553.45,0.017240256
17971200,0.999671674,0.016909772,0.005636591,0.005636591,0.005636591,-0.001370399,0.001370399,6.20E-12,-7.08E-12,-2.47E-15,-8.27E-13,-0.001395455,0.001395455,-0.001395455,0.001395455,-0.001395455,0.001395455,-0.001395455,0.001395455,-0.001343011,0.001343011,-0.001343011,0.001343011,-7.10E-13,1.65E-13,4.56E-13,1.65E-13,-0.001370399,0.001370399,-0.001395455,0.001395455,-0.001395455,0.001395455,-0.001395455,0.001395455,-0.001395455,0.001395455,-0.001343011,0.001343011,-0.001343011,0.001343011,-0.001343011,0.001343011,-0.001343011,0.001343011,-6.95E-12,6.84E-12,-0.001370399,0.001370399,-2.10E-13,1.03E-13,-0.001395455,0.001395455,-0.001395455,0.001395455,-0.001395455,0.001395455,-0.001395455,0.001395455,-0.001343011,0.001343011,-0.001343011,0.001343011,0.711457735,0.384455158,1368840,32768,0.005693709,0.005693709,0.005693709,19.24626696,19.22782393,6.92E-05,6.92E-05,6.92E-05,360841.2767,0.017228042
18057600,0.999678124,0.016909873,0.005636624,0.005636624,0.005636624,-0.001369635,0.001369635,6.23E-12,-6.96E-12,1.24E-13,-8.55E-13,-0.001394677,0.001394677,-0.001394677,0.001394677,-0.001394677,0.001394677,-0.001394677,0.001394677,-0.001342262,0.001342262,-0.001342262,0.001342262,-5.05E-13,5.22E-13,6.61E-13,4.55E-13,-0.001369635,0.001369635,-0.001394677,0.001394677,-0.001394677,0.001394677,-0.001394677,0.001394677,-0.001394677,0.001394677,-0.001342262,0.001342262,-0.001342262,0.001342262,-0.001342262,0.001342262,-0.001342262,0.001342262,-6.99E-12,6.70E-12,-0.001369635,0.001369635,-1.61E-13,6.83E-14,-0.001394677,0.001394677,-0.001394677,0.001394677,-0.001394677,0.001394677,-0.001394677,0.001394677,-0.001342262,0.001342262,-0.001342262,0.001342262,0.713811135,0.433433344,1368840,32768,0.005690544,0.005690544,0.005690544,18.82678779,18.80838001,6.58E-05,6.58E-05,6.58E-05,359160.3094,0.017218385
18144000,0.999684284,0.016909969,0.005636656,0.005636656,0.005636656,-0.001369024,0.001369024,6.52E-12,-6.62E-12,5.19E-13,-4.02E-13,-0.001393976,0.001393976,-0.001393976,0.001393976,-0.001393976,0.001393976,-0.001393976,0.001393976,-0.001341734,0.001341734,-0.001341734,0.001341734,-8.90E-13,8.27E-14,2.09E-13,-2.48E-14,-0.001369024,0.001369024,-0.001393976,0.001393976,-0.001393976,0.001393976,-0.001393976,0.001393976,-0.001393976,0.001393976,-0.001341734,0.001341734,-0.001341734,0.001341734,-0.001341734,0.001341734,-0.001341734,0.001341734,-6.98E-12,6.66E-12,-0.001369024,0.001369024,-1.98E-13,7.19E-14,-0.001393976,0.001393976,-0.001393976,0.001393976,-0.001393976,0.001393976,-0.001393976,0.001393976,-0.001341734,0.001341734,-0.001341734,0.001341734,0.715349875,0.467648764,1368840,32768,0.005688011,0.005688011,0.005688011,18.4073415,18.38893609,6.25E-05,6.25E-05,6.25E-05,352971.5205,0.017210654
18230400,0.99969017,0.016910062,0.005636687,0.005636687,0.005636687,-0.001368349,0.001368349,6.19E-12,-7.08E-12,4.46E-14,-8.30E-13,-0.001393235,0.001393235,-0.001393235,0.001393235,-0.001393235,0.001393235,-0.001393235,0.001393235,-0.00134112,0.001341121,-0.001341121,0.00134112,-7.11E-13,2.15E-13,4.86E-13,1.22E-13,-0.001368349,0.001368349,-0.001393235,0.001393235,-0.001393235,0.001393235,-0.001393235,0.001393235,-0.001393235,0.001393235,-0.001341121,0.001341121,-0.00134112,0.00134112,-0.001341121,0.00134112,-0.001341121,0.00134112,-6.90E-12,6.88E-12,-0.001368349,0.001368349,-2.02E-13,1.90E-13,-0.001393235,0.001393235,-0.001393235,0.001393235,-0.001393235,0.001393235,-0.001393235,0.001393235,-0.00134112,0.001341121,-0.001341121,0.00134112,0.715593169,0.479629166,1368840,32768,0.005685215,0.005685215,0.005685215,17.98789749,17.96949217,5.91E-05,5.91E-05,5.91E-05,348545.3085,0.017202121
18316800,0.999695808,0.01691015,0.005636717,0.005636717,0.005636717,-0.001367646,0.001367646,6.24E-12,-7.01E-12,-8.10E-15,-8.57E-13,-0.001392513,0.001392513,-0.001392513,0.001392513,-0.001392513,0.001392513,-0.001392513,0.001392513,-0.001340436,0.001340436,-0.001340436,0.001340436,-5.88E-13,3.10E-13,6.17E-13,1.10E-13,-0.001367646,0.001367646,-0.001392513,0.001392513,-0.001392513,0.001392513,-0.001392513,0.001392513,-0.001392513,0.001392513,-0.001340436,0.001340436,-0.001340436,0.001340436,-0.001340436,0.001340436,-0.001340436,0.001340436,-6.85E-12,6.91E-12,-0.001367646,0.001367646,-1.58E-13,3.73E-13,-0.001392513,0.001392513,-0.001392513,0.001392513,-0.001392513,0.001392513,-0.001392513,0.001392513,-0.001340436,0.001340436,-0.001340436,0.001340436,0.71588545,0.491609567,1368840,32768,0.005682304,0.005682304,0.005682304,17.59932952,17.58224809,5.60E-05,5.60E-05,5.60E-05,346730.0539,0.017193236
18403200,0.999701304,0.016910236,0.005636745,0.005636745,0.005636745,-0.001367474,0.001367474,6.21E-12,-7.02E-12,-1.54E-16,-8.65E-13,-0.001392316,0.001392316,-0.001392316,0.001392316,-0.001392316,0.001392316,-0.001392316,0.001392316,-0.001340286,0.001340286,-0.001340286,0.001340286,-7.07E-13,2.09E-13,5.52E-13,2.02E-14,-0.001367474,0.001367474,-0.001392316,0.001392316,-0.001392316,0.001392316,-0.001392316,0.001392316,-0.001392316,0.001392316,-0.001340286,0.001340286,-0.001340286,0.001340286,-0.001340286,0.001340286,-0.001340286,0.001340286,-6.83E-12,6.92E-12,-0.001367474,0.001367474,-2.33E-13,3.22E-13,-0.001392316,0.001392316,-0.001392316,0.001392316,-0.001392316,0.001392316,-0.001392316,0.001392316,-0.001340286,0.001340286,-0.001340286,0.001340286,0.716217732,0.503589969,1368840,32768,0.00568159,0.00568159,0.00568159,17.48529823,17.48001874,5.51E-05,5.51E-05,5.51E-05,344795.4577,0.017191057
18489600,0.999706665,0.016910321,0.005636774,0.005636774,0.005636774,-0.001367323,0.001367323,6.23E-12,-7.04E-12,3.66E-14,-8.46E-13,-0.001392145,0.001392145,-0.001392145,0.001392145,-0.001392145,0.001392145,-0.001392145,0.001392145,-0.001340154,0.001340154,-0.001340154,0.001340154,-7.13E-13,2.19E-13,5.47E-13,5.31E-15,-0.001367323,0.001367323,-0.001392145,0.001392145,-0.001392145,0.001392145,-0.001392145,0.001392145,-0.001392145,0.001392145,-0.001340154,0.001340154,-0.001340154,0.001340154,-0.001340154,0.001340154,-0.001340154,0.001340154,-6.86E-12,6.92E-12,-0.001367323,0.001367323,-2.47E-13,3.17E-13,-0.001392145,0.001392145,-0.001392145,0.001392145,-0.001392145,0.001392145,-0.001392145,0.001392145,-0.001340154,0.001340154,-0.001340154,0.001340154,0.716586817,0.51557037,1368840,32768,0.005680963,0.005680963,0.005680963,17.38232855,17.37778939,5.43E-05,5.43E-05,5.43E-05,342970.4218,0.017189145
18576000,0.999711897,0.016910402,0.005636801,0.005636801,0.005636801,-0.001367173,0.001367173,6.24E-12,-7.02E-12,5.74E-14,-8.20E-13,-0.001391976,0.001391976,-0.001391976,0.001391976,-0.001391976,0.001391976,-0.001391976,0.001391976,-0.001340023,0.001340023,-0.001340023,0.001340023,-6.88E-13,2.40E-13,5.65E-13,4.51E-14,-0.001367173,0.001367173,-0.001391976,0.001391976,-0.001391976,0.001391976,-0.001391976,0.001391976,-0.001391976,0.001391976,-0.001340023,0.001340023,-0.001340023,0.001340023,-0.001340023,0.001340023,-0.001340023,0.001340023,-6.84E-12,6.93E-12,-0.001367173,0.001367173,-2.31E-13,3.12E-13,-0.001391976,0.001391976,-0.001391976,0.001391976,-0.001391976,0.001391976,-0.001391976,0.001391976,-0.001340023,0.001340023,-0.001340023,0.001340023,0.711770833,0.444918185,1368840,32768,0.005680341,0.005680341,0.005680341,17.28004954,17.27556004,5.34E-05,5.34E-05,5.34E-05,341158.2341,0.017187247
18662400,0.999717002,0.016910482,0.005636827,0.005636827,0.005636827,-0.001366706,0.001366706,6.20E-12,-7.03E-12,3.55E-14,-8.83E-13,-0.001391647,0.001391647,-0.001391647,0.001391647,-0.001391647,0.001391647,-0.001391647,0.001391647,-0.001339432,0.001339432,-0.001339432,0.001339432,-7.34E-13,2.35E-13,5.43E-13,2.89E-14,-0.001366706,0.001366706,-0.001391647,0.001391647,-0.001391647,0.001391647,-0.001391647,0.001391647,-0.001391647,0.001391647,-0.001339432,0.001339432,-0.001339432,0.001339432,-0.001339432,0.001339432,-0.001339432,0.001339432,-6.84E-12,6.91E-12,-0.001366706,0.001366706,-2.38E-13,3.00E-13,-0.001391647,0.001391647,-0.001391647,0.001391647,-0.001391647,0.001391647,-0.001391647,0.001391647,-0.001339432,0.001339432,-0.001339432,0.001339432,0.717343145,0.545345544,1368840,32768,0.005678409,0.005678409,0.005678409,17.17781683,17.17333069,5.26E-05,5.26E-05,5.26E-05,348627.0779,0.01718135
18748800,0.999721985,0.016910561,0.005636854,0.005636854,0.005636854,-0.001366889,0.001366889,6.21E-12,-7.03E-12,4.11E-14,-8.88E-13,-0.001391645,0.001391645,-0.001391645,0.001391645,-0.001391645,0.001391645,-0.001391645,0.001391645,-0.001339786,0.001339786,-0.001339786,0.001339786,-7.40E-13,2.39E-13,5.32E-13,2.93E-14,-0.001366889,0.001366889,-0.001391645,0.001391645,-0.001391645,0.001391645,-0.001391645,0.001391645,-0.001391645,0.001391645,-0.001339786,0.001339786,-0.001339786,0.001339786,-0.001339786,0.001339786,-0.001339786,0.001339786,-6.85E-12,6.91E-12,-0.001366889,0.001366889,-2.34E-13,2.91E-13,-0.001391645,0.001391645,-0.001391645,0.001391645,-0.001391645,0.001391645,-0.001391645,0.001391645,-0.001339786,0.001339786,-0.001339786,0.001339786,0.722793061,0.644896929,1368840,32768,0.005679166,0.005679166,0.005679166,17.07558733,17.07110134,5.18E-05,5.18E-05,5.18E-05,337115.3741,0.017183659
18835200,0.999726849,0.016910638,0.005636879,0.005636879,0.005636879,-0.00136704,0.00136704,6.21E-12,-7.03E-12,2.58E-14,-9.15E-13,-0.001391627,0.001391627,-0.001391627,0.001391627,-0.001391627,0.001391627,-0.001391627,0.001391627,-0.001340094,0.001340094,-0.001340094,0.001340094,-7.43E-13,2.48E-13,5.19E-13,8.38E-14,-0.00136704,0.00136704,-0.001391627,0.001391627,-0.001391627,0.001391627,-0.001391627,0.001391627,-0.001391627,0.001391627,-0.001340094,0.001340094,-0.001340094,0.001340094,-0.001340094,0.001340094,-0.001340094,0.001340094,-6.86E-12,6.89E-12,-0.00136704,0.00136704,-2.14E-13,2.44E-13,-0.001391627,0.001391627,-0.001391627,0.001391627,-0.001391627,0.001391627,-0.001391627,0.001391627,-0.001340094,0.001340094,-0.001340094,0.001340094,0.724423974,0.671411213,1368840,32768,0.005679793,0.005679793,0.005679793,16.97335801,16.96887199,5.10E-05,5.10E-05,5.10E-05,326650.7022,0.017185574
18921600,0.999731596,0.016910714,0.005636905,0.005636905,0.005636905,-0.001366938,0.001366938,6.23E-12,-7.05E-12,3.21E-14,-8.81E-13,-0.00139148,0.00139148,-0.00139148,0.00139148,-0.00139148,0.00139148,-0.00139148,0.00139148,-0.001340033,0.001340033,-0.001340033,0.001340033,-7.23E-13,2.40E-13,4.90E-13,5.68E-14,-0.001366938,0.001366938,-0.00139148,0.00139148,-0.00139148,0.00139148,-0.00139148,0.00139148,-0.00139148,0.00139148,-0.001340033,0.001340033,-0.001340033,0.001340033,-0.001340033,0.001340033,-0.001340033,0.001340033,-6.88E-12,6.92E-12,-0.001366938,0.001366938,-2.07E-13,2.50E-13,-0.00139148,0.00139148,-0.00139148,0.00139148,-0.00139148,0.00139148,-0.00139148,0.00139148,-0.001340033,0.001340033,-0.001340033,0.001340033,0.726159611,0.697925496,1368840,32768,0.005679369,0.005679369,0.005679369,16.87112872,16.86664264,5.02E-05,5.02E-05,5.02E-05,323439.9274,0.017184278
19008000,0.999736232,0.016910788,0.005636929,0.005636929,0.005636929,-0.001366834,0.001366834,6.24E-12,-7.05E-12,4.66E-15,-8.63E-13,-0.001391333,0.001391333,-0.001391333,0.001391333,-0.001391333,0.001391333,-0.001391333,0.001391333,-0.001339969,0.001339969,-0.001339969,0.001339969,-7.38E-13,1.79E-13,4.53E-13,3.23E-14,-0.001366834,0.001366834,-0.001391333,0.001391333,-0.001391333,0.001391333,-0.001391333,0.001391333,-0.001391333,0.001391333,-0.001339969,0.001339969,-0.001339969,0.001339969,-0.001339969,0.001339969,-0.001339969,0.001339969,-6.87E-12,6.92E-12,-0.001366834,0.001366834,-2.09E-13,2.35E-13,-0.001391333,0.001391333,-0.001391333,0.001391333,-0.001391333,0.001391333,-0.001391333,0.001391333,-0.001339969,0.001339969,-0.001339969,0.001339969,0.730768417,0.772442473,1368840,32768,0.005678939,0.005678939,0.005678939,16.7688996,16.76441329,4.94E-05,4.94E-05,4.94E-05,320272.441,0.017182965
19094400,0.999740769,0.016910861,0.005636954,0.005636954,0.005636954,-0.00136695,0.00136695,6.23E-12,-7.07E-12,2.03E-14,-8.51E-13,-0.001391335,0.001391335,-0.001391335,0.001391335,-0.001391335,0.001391335,-0.001391335,0.001391335,-0.00134019,0.00134019,-0.00134019,0.00134019,-7.42E-13,1.80E-13,4.60E-13,2.90E-14,-0.00136695,0.00136695,-0.001391335,0.001391335,-0.001391335,0.001391335,-0.001391335,0.001391335,-0.001391335,0.001391335,-0.00134019,0.00134019,-0.00134019,0.00134019,-0.00134019,0.00134019,-0.00134019,0.00134019,-6.88E-12,6.93E-12,-0.00136695,0.00136695,-2.04E-13,2.51E-13,-0.001391335,0.001391335,-0.001391335,0.001391335,-0.001391335,0.001391335,-0.001391335,0.001391335,-0.00134019,0.00134019,-0.00134019,0.00134019,0.73185975,0.772337238,1368840,32768,0.005679421,0.005679421,0.005679421,16.70541539,16.70259061,4.88E-05,4.88E-05,4.88E-05,312976.6975,0.017184436
19180800,0.999745288,0.016910934,0.005636978,0.005636978,0.005636978,-0.001367377,0.001367377,6.10E-12,-7.20E-12,-4.76E-14,-9.59E-13,-0.001391749,0.001391749,-0.001391749,0.001391749,-0.001391749,0.001391749,-0.001391749,0.001391749,-0.001340624,0.001340624,-0.001340624,0.001340624,-6.93E-13,2.68E-13,4.97E-13,8.82E-15,-0.001367377,0.001367377,-0.001391749,0.001391749,-0.001391749,0.001391749,-0.001391749,0.001391749,-0.001391749,0.001391749,-0.001340624,0.001340624,-0.001340624,0.001340624,-0.001340624,0.001340624,-0.001340624,0.001340624,-6.82E-12,7.00E-12,-0.001367377,0.001367377,-2.28E-13,2.83E-13,-0.001391749,0.001391749,-0.001391749,0.001391749,-0.001391749,0.001391749,-0.001391749,0.001391749,-0.001340624,0.001340624,-0.001340624,0.001340624,0.740438685,0.914250687,1368840,32768,0.005681188,0.005681188,0.005681188,16.91937848,16.92849102,5.06E-05,5.06E-05,5.06E-05,311799.3846,0.017189827
19267200,0.999749793,0.016911008,0.005637003,0.005637003,0.005637003,-0.001368223,0.001368223,6.22E-12,-7.06E-12,5.15E-14,-9.28E-13,-0.001392395,0.001392395,-0.001392395,0.001392395,-0.001392395,0.001392395,-0.001392395,0.001392395,-0.001341653,0.001341653,-0.001341653,0.001341653,-7.47E-13,2.82E-13,5.25E-13,5.80E-14,-0.001368223,0.001368223,-0.001392395,0.001392395,-0.001392395,0.001392395,-0.001392395,0.001392395,-0.001392395,0.001392395,-0.001341653,0.001341653,-0.001341653,0.001341653,-0.001341653,0.001341653,-0.001341653,0.001341653,-6.88E-12,6.91E-12,-0.001368223,0.001368223,-2.37E-13,2.53E-13,-0.001392395,0.001392395,-0.001392395,0.001392395,-0.001392395,0.001392395,-0.001392395,0.001392395,-0.001341653,0.001341653,-0.001341653,0.001341653,0.741736956,0.875743105,1368840,32768,0.005684695,0.005684695,0.005684695,17.14453009,17.15439143,5.24E-05,5.24E-05,5.24E-05,299715.3416,0.01720053
19353600,0.999754281,0.01691108,0.005637027,0.005637027,0.005637027,-0.00136858,0.00136858,6.23E-12,-7.04E-12,4.88E-14,-9.32E-13,-0.001392787,0.001392787,-0.001392787,0.001392787,-0.001392787,0.001392787,-0.001392787,0.001392787,-0.001341969,0.001341969,-0.001341969,0.001341969,-7.48E-13,2.83E-13,5.30E-13,1.32E-14,-0.00136858,0.00136858,-0.001392787,0.001392787,-0.001392787,0.001392787,-0.001392787,0.001392787,-0.001392787,0.001392787,-0.001341969,0.001341969,-0.001341969,0.001341969,-0.001341969,0.001341969,-0.001341969,0.001341969,-6.87E-12,6.91E-12,-0.00136858,0.00136858,-2.32E-13,3.08E-13,-0.001392787,0.001392787,-0.001392787,0.001392787,-0.001392787,0.001392787,-0.001392787,0.001392787,-0.001341969,0.001341969,-0.001341969,0.001341969,0.74186865,0.837235523,1368840,32768,0.005686173,0.005686173,0.005686173,17.37038059,17.38029184,5.42E-05,5.42E-05,5.42E-05,300857.7016,0.017205039
19440000,0.999758751,0.016911153,0.005637051,0.005637051,0.005637051,-0.001368928,0.001368928,6.26E-12,-6.88E-12,1.63E-13,-8.49E-13,-0.001393175,0.001393175,-0.001393175,0.001393175,-0.001393175,0.001393175,-0.001393175,0.001393175,-0.001342274,0.001342274,-0.001342274,0.001342274,-9.36E-13,1.26E-13,4.76E-13,-6.68E-14,-0.001368928,0.001368928,-0.001393175,0.001393175,-0.001393175,0.001393175,-0.001393175,0.001393175,-0.001393175,0.001393175,-0.001342274,0.001342274,-0.001342274,0.001342274,-0.001342274,0.001342274,-0.001342274,0.001342274,-6.85E-12,6.79E-12,-0.001368928,0.001368928,-2.99E-13,2.67E-13,-0.001393175,0.001393175,-0.001393175,0.001393175,-0.001393175,0.001393175,-0.001393175,0.001393175,-0.001342274,0.001342274,-0.001342274,0.001342274,0.741059479,0.798727942,1368840,32768,0.005687615,0.005687615,0.005687615,17.59627798,17.60619225,5.60E-05,5.60E-05,5.60E-05,302460.0564,0.01720944
19526400,0.999763203,0.016911225,0.005637075,0.005637075,0.005637075,-0.001369268,0.001369268,6.09E-12,-7.00E-12,5.58E-14,-9.72E-13,-0.001393562,0.001393562,-0.001393562,0.001393562,-0.001393562,0.001393562,-0.001393562,0.001393562,-0.001342567,0.001342568,-0.001342568,0.001342567,-9.72E-13,1.04E-13,4.38E-13,-2.07E-13,-0.001369268,0.001369268,-0.001393562,0.001393562,-0.001393562,0.001393562,-0.001393562,0.001393562,-0.001393562,0.001393562,-0.001342568,0.001342568,-0.001342568,0.001342568,-0.001342568,0.001342568,-0.001342568,0.001342568,-6.89E-12,6.72E-12,-0.001369268,0.001369268,-3.46E-13,3.21E-13,-0.001393562,0.001393562,-0.001393562,0.001393562,-0.001393562,0.001393562,-0.001393562,0.001393562,-0.001342567,0.001342568,-0.001342568,0.001342567,0.739538619,0.76022036,1368840,32768,0.005689024,0.005689024,0.005689024,17.82217855,17.83209266,5.78E-05,5.78E-05,5.78E-05,304484.4053,0.017213741
19612800,0.999767635,0.016911297,0.005637099,0.005637099,0.005637099,-0.001369601,0.001369601,6.14E-12,-6.97E-12,7.48E-14,-9.39E-13,-0.001393948,0.001393948,-0.001393948,0.001393948,-0.001393948,0.001393948,-0.001393948,0.001393948,-0.00134285,0.00134285,-0.00134285,0.00134285,-8.08E-13,2.56E-13,5.51E-13,-3.63E-14,-0.001369601,0.001369601,-0.001393948,0.001393948,-0.001393948,0.001393948,-0.001393948,0.001393948,-0.001393948,0.001393948,-0.00134285,0.00134285,-0.00134285,0.00134285,-0.00134285,0.00134285,-0.00134285,0.00134285,-6.81E-12,6.81E-12,-0.001369601,0.001369601,-2.83E-13,3.26E-13,-0.001393948,0.001393948,-0.001393948,0.001393948,-0.001393948,0.001393948,-0.001393948,0.001393948,-0.00134285,0.00134285,-0.00134285,0.00134285,0.737517068,0.721712778,1368840,32768,0.005690403,0.005690403,0.005690403,18.04807928,18.05799307,5.96E-05,5.96E-05,5.96E-05,306867.552,0.017217951
19699200,0.999772045,0.016911368,0.005637123,0.005637123,0.005637123,-0.001369928,0.001369928,6.09E-12,-7.09E-12,-2.58E-14,-1.08E-12,-0.001394331,0.001394331,-0.001394331,0.001394331,-0.001394331,0.001394331,-0.001394331,0.001394331,-0.001343124,0.001343124,-0.001343124,0.001343124,-8.18E-13,2.83E-13,5.32E-13,-5.65E-14,-0.001369928,0.001369928,-0.001394331,0.001394331,-0.001394331,0.001394331,-0.001394331,0.001394331,-0.001394331,0.001394331,-0.001343124,0.001343124,-0.001343124,0.001343124,-0.001343124,0.001343124,-0.001343124,0.001343124,-6.80E-12,6.89E-12,-0.001369928,0.001369928,-2.55E-13,3.57E-13,-0.001394331,0.001394331,-0.001394331,0.001394331,-0.001394331,0.001394331,-0.001394331,0.001394331,-0.001343124,0.001343124,-0.001343124,0.001343124,0.735152175,0.683205196,1368840,32768,0.005691757,0.005691757,0.005691757,18.27397995,18.28389348,6.14E-05,6.14E-05,6.14E-05,309514.2461,0.017222081
19785600,0.999776434,0.016911438,0.005637146,0.005637146,0.005637146,-0.001370249,0.001370249,6.05E-12,-7.08E-12,6.22E-15,-1.08E-12,-0.001394712,0.001394712,-0.001394712,0.001394712,-0.001394712,0.001394712,-0.001394712,0.001394712,-0.00134339,0.00134339,-0.00134339,0.00134339,-8.41E-13,2.98E-13,5.98E-13,-2.94E-14,-0.001370249,0.001370249,-0.001394712,0.001394712,-0.001394712,0.001394712,-0.001394712,0.001394712,-0.001394712,0.001394712,-0.00134339,0.00134339,-0.00134339,0.00134339,-0.00134339,0.00134339,-0.00134339,0.00134339,-6.76E-12,6.88E-12,-0.001370249,0.001370249,-2.74E-13,3.76E-13,-0.001394712,0.001394712,-0.001394712,0.001394712,-0.001394712,0.001394712,-0.001394712,0.001394712,-0.00134339,0.00134339,-0.00134339,0.00134339,0.732543597,0.644697614,1368840,32768,0.005693086,0.005693086,0.005693086,18.49988057,18.50979389,6.32E-05,6.32E-05,6.32E-05,312391.838,0.017226139
19872000,0.999780789,0.016911508,0.005637169,0.005637169,0.005637169,-0.0013705,0.0013705,6.10E-12,-6.99E-12,9.06E-14,-1.00E-12,-0.001395026,0.001395026,-0.001395026,0.001395026,-0.001395026,0.001395026,-0.001395026,0.001395026,-0.001343583,0.001343583,-0.001343583,0.001343583,-8.47E-13,2.98E-13,6.64E-13,2.44E-14,-0.0013705,0.0013705,-0.001395026,0.001395026,-0.001395026,0.001395026,-0.001395026,0.001395026,-0.001395026,0.001395026,-0.001343583,0.001343583,-0.001343583,0.001343583,-0.001343583,0.001343583,-0.001343583,0.001343583,-6.74E-12,6.86E-12,-0.0013705,0.0013705,-2.86E-13,3.77E-13,-0.001395026,0.001395026,-0.001395026,0.001395026,-0.001395026,0.001395026,-0.001395026,0.001395026,-0.001343583,0.001343583,-0.001343583,0.001343583,0.728470294,0.586137538,1368840,32768,0.005694125,0.005694125,0.005694125,18.69224031,18.70071511,6.47E-05,6.47E-05,6.47E-05,315487.802,0.01722931
19958400,0.999785058,0.016911577,0.005637192,0.005637192,0.005637192,-0.001370292,0.001370292,6.13E-12,-6.97E-12,9.32E-14,-9.50E-13,-0.001394923,0.001394923,-0.001394923,0.001394923,-0.001394923,0.001394923,-0.001394923,0.001394923,-0.001343281,0.001343281,-0.001343281,0.001343281,-7.87E-13,3.06E-13,6.50E-13,-1.96E-14,-0.001370292,0.001370292,-0.001394923,0.001394923,-0.001394923,0.001394923,-0.001394923,0.001394923,-0.001394923,0.001394923,-0.001343281,0.001343281,-0.001343281,0.001343281,-0.001343281,0.001343281,-0.001343281,0.001343281,-6.75E-12,6.86E-12,-0.001370292,0.001370292,-2.92E-13,4.00E-13,-0.001394923,0.001394923,-0.001394923,0.001394923,-0.001394923,0.001394923,-0.001394923,0.001394923,-0.001343281,0.001343281,-0.001343281,0.001343281,0.734899683,0.706844128,1368840,32768,0.005693267,0.005693267,0.005693267,18.68511928,18.68500753,6.47E-05,6.47E-05,6.47E-05,320820.8169,0.01722669
20044800,0.99978924,0.016911644,0.005637215,0.005637215,0.005637215,-0.001370649,0.001370649,6.12E-12,-6.98E-12,8.28E-14,-9.68E-13,-0.001395096,0.001395096,-0.001395096,0.001395096,-0.001395096,0.001395096,-0.001395096,0.001395096,-0.001343809,0.001343809,-0.001343809,0.001343809,-7.75E-13,3.26E-13,6.42E-13,-2.16E-14,-0.001370649,0.001370649,-0.001395096,0.001395096,-0.001395096,0.001395096,-0.001395096,0.001395096,-0.001395096,0.001395096,-0.001343809,0.001343809,-0.001343809,0.001343809,-0.001343809,0.001343809,-0.001343809,0.001343809,-6.75E-12,6.86E-12,-0.001370649,0.001370649,-2.88E-13,3.98E-13,-0.001395096,0.001395096,-0.001395096,0.001395096,-0.001395096,0.001395096,-0.001395096,0.001395096,-0.001343809,0.001343809,-0.001343809,0.001343809,0.737111768,0.742877861,1368840,32768,0.005694746,0.005694746,0.005694746,18.6699505,18.66929994,6.46E-05,6.46E-05,6.46E-05,309475.6656,0.017231204
20131200,0.999793336,0.016911711,0.005637237,0.005637237,0.005637237,-0.001370733,0.001370733,6.12E-12,-6.97E-12,8.08E-14,-9.59E-13,-0.001395126,0.001395126,-0.001395126,0.001395126,-0.001395126,0.001395126,-0.001395126,0.001395126,-0.001343942,0.001343942,-0.001343942,0.001343942,-7.62E-13,3.28E-13,6.39E-13,-1.72E-14,-0.001370733,0.001370733,-0.001395126,0.001395126,-0.001395126,0.001395126,-0.001395126,0.001395126,-0.001395126,0.001395126,-0.001343942,0.001343942,-0.001343942,0.001343942,-0.001343942,0.001343942,-0.001343942,0.001343942,-6.75E-12,6.86E-12,-0.001370733,0.001370733,-2.89E-13,3.89E-13,-0.001395126,0.001395126,-0.001395126,0.001395126,-0.001395126,0.001395126,-0.001395126,0.001395126,-0.001343942,0.001343942,-0.001343942,0.001343942,0.73952441,0.776243901,1368840,32768,0.005695094,0.005695094,0.005695094,18.65427908,18.65359236,6.44E-05,6.44E-05,6.44E-05,305791.6175,0.017232266
20217600,0.999797349,0.016911776,0.005637259,0.005637259,0.005637259,-0.001370809,0.001370809,6.11E-12,-6.97E-12,7.27E-14,-9.59E-13,-0.001395152,0.001395152,-0.001395152,0.001395152,-0.001395152,0.001395152,-0.001395152,0.001395152,-0.001344062,0.001344062,-0.001344062,0.001344062,-7.58E-13,3.25E-13,6.21E-13,-2.39E-14,-0.001370809,0.001370809,-0.001395152,0.001395152,-0.001395152,0.001395152,-0.001395152,0.001395152,-0.001395152,0.001395152,-0.001344062,0.001344062,-0.001344062,0.001344062,-0.001344062,0.001344062,-0.001344062,0.001344062,-6.74E-12,6.85E-12,-0.001370809,0.001370809,-2.88E-13,3.80E-13,-0.001395152,0.001395152,-0.001395152,0.001395152,-0.001395152,0.001395152,-0.001395152,0.001395152,-0.001344062,0.001344062,-0.001344062,0.001344062,0.7422953,0.808681781,1368840,32768,0.005695406,0.005695406,0.005695406,18.63857399,18.63788478,6.43E-05,6.43E-05,6.43E-05,302317.2712,0.017233217
20304000,0.99980128,0.01691184,0.00563728,0.00563728,0.00563728,-0.001370881,0.001370881,6.11E-12,-6.96E-12,8.59E-14,-9.68E-13,-0.001395175,0.001395175,-0.001395175,0.001395175,-0.001395175,0.001395175,-0.001395175,0.001395175,-0.001344177,0.001344177,-0.001344177,0.001344177,-7.66E-13,3.39E-13,6.22E-13,-1.03E-14,-0.001370881,0.001370881,-0.001395175,0.001395175,-0.001395175,0.001395175,-0.001395175,0.001395175,-0.001395175,0.001395175,-0.001344177,0.001344177,-0.001344177,0.001344177,-0.001344177,0.001344177,-0.001344177,0.001344177,-6.74E-12,6.84E-12,-0.001370881,0.001370881,-2.86E-13,3.69E-13,-0.001395175,0.001395175,-0.001395175,0.001395175,-0.001395175,0.001395175,-0.001395175,0.001395175,-0.001344177,0.001344177,-0.001344177,0.001344177,0.745491625,0.841119662,1368840,32768,0.005695705,0.005695705,0.005695705,18.62286662,18.6221772,6.42E-05,6.42E-05,6.42E-05,298865.5154,0.017234131
20390400,0.999805132,0.016911903,0.005637301,0.005637301,0.005637301,-0.001370953,0.001370953,6.10E-12,-6.97E-12,9.41E-14,-9.65E-13,-0.001395198,0.001395198,-0.001395198,0.001395198,-0.001395198,0.001395198,-0.001395198,0.001395198,-0.001344291,0.001344291,-0.001344291,0.001344291,-7.61E-13,3.48E-13,6.41E-13,1.39E-14,-0.001370953,0.001370953,-0.001395198,0.001395198,-0.001395198,0.001395198,-0.001395198,0.001395198,-0.001395198,0.001395198,-0.001344291,0.001344291,-0.001344291,0.001344291,-0.001344291,0.001344291,-0.001344291,0.001344291,-6.75E-12,6.83E-12,-0.001370953,0.001370953,-2.80E-13,3.70E-13,-0.001395198,0.001395198,-0.001395198,0.001395198,-0.001395198,0.001395198,-0.001395198,0.001395198,-0.001344291,0.001344291,-0.001344291,0.001344291,0.745828306,0.821265984,1368840,32768,0.005696003,0.005696003,0.005696003,18.60715905,18.60646962,6.41E-05,6.41E-05,6.41E-05,295381.3824,0.017235038
20476800,0.999808905,0.016911964,0.005637321,0.005637321,0.005637321,-0.00137088,0.00137088,6.12E-12,-6.96E-12,1.07E-13,-9.98E-13,-0.001395144,0.001395144,-0.001395144,0.001395144,-0.001395144,0.001395144,-0.001395144,0.001395144,-0.001344197,0.001344197,-0.001344197,0.001344197,-7.81E-13,3.74E-13,6.23E-13,1.46E-14,-0.00137088,0.00137088,-0.001395144,0.001395144,-0.001395144,0.001395144,-0.001395144,0.001395144,-0.001395144,0.001395144,-0.001344197,0.001344197,-0.001344197,0.001344197,-0.001344197,0.001344197,-0.001344197,0.001344197,-6.76E-12,6.83E-12,-0.00137088,0.00137088,-2.54E-13,3.77E-13,-0.001395144,0.001395144,-0.001395144,0.001395144,-0.001395144,0.001395144,-0.001395144,0.001395144,-0.001344197,0.001344197,-0.001344197,0.001344197,0.739270617,0.705143588,1368840,32768,0.005695702,0.005695702,0.005695702,18.59145138,18.59076203,6.39E-05,6.39E-05,6.39E-05,295887.1119,0.017234121
20563200,0.999812601,0.016912023,0.005637341,0.005637341,0.005637341,-0.00137052,0.00137052,6.09E-12,-6.97E-12,1.07E-13,-9.82E-13,-0.001394948,0.001394948,-0.001394948,0.001394948,-0.001394948,0.001394948,-0.001394948,0.001394948,-0.001343686,0.001343686,-0.001343686,0.001343686,-7.86E-13,3.53E-13,5.91E-13,2.17E-14,-0.00137052,0.00137052,-0.001394948,0.001394948,-0.001394948,0.001394948,-0.001394948,0.001394948,-0.001394948,0.001394948,-0.001343686,0.001343686,-0.001343686,0.001343686,-0.001343686,0.001343686,-0.001343686,0.001343686,-6.75E-12,6.82E-12,-0.00137052,0.00137052,-2.49E-13,3.43E-13,-0.001394948,0.001394948,-0.001394948,0.001394948,-0.001394948,0.001394948,-0.001394948,0.001394948,-0.001343686,0.001343686,-0.001343686,0.001343686,0.729820463,0.562743911,1368840,32768,0.005694208,0.005694208,0.005694208,18.57574376,18.57505445,6.38E-05,6.38E-05,6.38E-05,304764.3834,0.017229563
20649600,0.999816208,0.01691208,0.00563736,0.00563736,0.00563736,-0.001369915,0.001369915,6.09E-12,-6.97E-12,9.40E-14,-1.00E-12,-0.001394574,0.001394574,-0.001394574,0.001394574,-0.001394574,0.001394574,-0.001394574,0.001394574,-0.00134287,0.00134287,-0.00134287,0.00134287,-7.87E-13,3.62E-13,6.03E-13,3.34E-14,-0.001369915,0.001369915,-0.001394574,0.001394574,-0.001394574,0.001394574,-0.001394574,0.001394574,-0.001394574,0.001394574,-0.00134287,0.00134287,-0.00134287,0.00134287,-0.00134287,0.00134287,-0.00134287,0.00134287,-6.75E-12,6.82E-12,-0.001369915,0.001369915,-2.54E-13,3.39E-13,-0.001394574,0.001394574,-0.001394574,0.001394574,-0.001394574,0.001394574,-0.001394574,0.001394574,-0.00134287,0.00134287,-0.00134287,0.00134287,0.719518604,0.420344233,1368840,32768,0.005691702,0.005691702,0.005691702,18.49960141,18.49632049,6.32E-05,6.32E-05,6.32E-05,317659.1115,0.017221915
20736000,0.999819663,0.016912135,0.005637378,0.005637378,0.005637378,-0.001368656,0.001368656,6.06E-12,-6.99E-12,1.44E-13,-1.14E-12,-0.001393585,0.001393585,-0.001393585,0.001393585,-0.001393585,0.001393585,-0.001393585,0.001393585,-0.001341368,0.001341368,-0.001341368,0.001341368,-8.96E-13,4.39E-13,8.15E-13,1.50E-13,-0.001368656,0.001368656,-0.001393585,0.001393585,-0.001393585,0.001393585,-0.001393585,0.001393585,-0.001393585,0.001393585,-0.001341368,0.001341368,-0.001341368,0.001341368,-0.001341368,0.001341368,-0.001341368,0.001341368,-6.62E-12,6.93E-12,-0.001368656,0.001368656,-2.64E-13,4.21E-13,-0.001393585,0.001393585,-0.001393585,0.001393585,-0.001393585,0.001393585,-0.001393585,0.001393585,-0.001341368,0.001341368,-0.001341368,0.001341368,0.72668645,0.551314836,1368840,32768,0.005686488,0.005686488,0.005686488,18.11830119,18.10187602,6.01E-05,6.01E-05,6.01E-05,332829.5189,0.017206006
20822400,0.999822971,0.016912189,0.005637396,0.005637396,0.005637396,-0.001368361,0.001368361,6.00E-12,-7.01E-12,1.87E-13,-1.18E-12,-0.001393067,0.001393067,-0.001393067,0.001393067,-0.001393067,0.001393067,-0.001393067,0.001393067,-0.00134128,0.00134128,-0.00134128,0.00134128,-8.82E-13,5.35E-13,7.59E-13,1.50E-14,-0.001368361,0.001368361,-0.001393067,0.001393067,-0.001393067,0.001393067,-0.001393067,0.001393067,-0.001393067,0.001393067,-0.00134128,0.00134128,-0.00134128,0.00134128,-0.00134128,0.00134128,-0.00134128,0.00134128,-6.66E-12,6.86E-12,-0.001368361,0.001368361,-2.72E-13,4.94E-13,-0.001393067,0.001393067,-0.001393067,0.001393067,-0.001393067,0.001393067,-0.001393067,0.001393067,-0.00134128,0.00134128,-0.00134128,0.00134128,0.7342441,0.692380887,1368840,32768,0.005685265,0.005685265,0.005685265,17.7246822,17.70743156,5.70E-05,5.70E-05,5.70E-05,318997.8542,0.017202273
20908800,0.999826139,0.016912239,0.005637413,0.005637413,0.005637413,-0.001368052,0.001368052,6.00E-12,-7.02E-12,2.41E-13,-1.16E-12,-0.001392541,0.001392541,-0.001392541,0.001392541,-0.001392541,0.001392541,-0.001392541,0.001392541,-0.001341172,0.001341172,-0.001341172,0.001341172,-8.36E-13,6.17E-13,8.06E-13,1.06E-13,-0.001368052,0.001368052,-0.001392541,0.001392541,-0.001392541,0.001392541,-0.001392541,0.001392541,-0.001392541,0.001392541,-0.001341172,0.001341172,-0.001341172,0.001341172,-0.001341172,0.001341172,-0.001341172,0.001341172,-6.69E-12,6.85E-12,-0.001368052,0.001368052,-3.70E-13,3.52E-13,-0.001392541,0.001392541,-0.001392541,0.001392541,-0.001392541,0.001392541,-0.001392541,0.001392541,-0.001341172,0.001341172,-0.001341172,0.001341172,0.730624663,0.63314123,1368840,32768,0.005683985,0.005683985,0.005683985,17.33029278,17.31298709,5.38E-05,5.38E-05,5.38E-05,305767.9583,0.017198364
20995200,0.999829173,0.016912288,0.005637429,0.005637429,0.005637429,-0.001367109,0.001367109,6.30E-12,-6.63E-12,5.25E-13,-1.03E-12,-0.001391683,0.001391683,-0.001391683,0.001391683,-0.001391683,0.001391683,-0.001391683,0.001391683,-0.00134015,0.00134015,-0.00134015,0.00134015,-8.09E-13,7.93E-13,8.92E-13,3.19E-13,-0.001367109,0.001367109,-0.001391683,0.001391683,-0.001391683,0.001391683,-0.001391683,0.001391683,-0.001391683,0.001391683,-0.00134015,0.00134015,-0.00134015,0.00134015,-0.00134015,0.00134015,-0.00134015,0.00134015,-6.45E-12,6.99E-12,-0.001367109,0.001367109,-2.35E-13,3.55E-13,-0.001391683,0.001391683,-0.001391683,0.001391683,-0.001391683,0.001391683,-0.001391683,0.001391683,-0.00134015,0.00134015,-0.00134015,0.00134015,0.727988849,0.594715856,1368840,32768,0.005680078,0.005680078,0.005680078,16.93585198,16.91854262,5.07E-05,5.07E-05,5.07E-05,310432.422,0.017186442
21081600,0.999832082,0.016912334,0.005637445,0.005637445,0.005637445,-0.001366224,0.001366224,5.95E-12,-7.10E-12,2.64E-13,-1.40E-12,-0.001390863,0.001390863,-0.001390863,0.001390863,-0.001390863,0.001390863,-0.001390863,0.001390863,-0.001339205,0.001339205,-0.001339205,0.001339205,-9.98E-13,7.19E-13,7.27E-13,1.19E-13,-0.001366224,0.001366224,-0.001390863,0.001390863,-0.001390863,0.001390863,-0.001390863,0.001390863,-0.001390863,0.001390863,-0.001339205,0.001339205,-0.001339205,0.001339205,-0.001339205,0.001339205,-0.001339205,0.001339205,-6.66E-12,6.89E-12,-0.001366224,0.001366224,-2.83E-13,3.45E-13,-0.001390863,0.001390863,-0.001390863,0.001390863,-0.001390863,0.001390863,-0.001390863,0.001390863,-0.001339205,0.001339205,-0.001339205,0.001339205,0.728161239,0.603895524,1368840,32768,0.005676411,0.005676411,0.005676411,16.54140784,16.52409815,4.75E-05,4.75E-05,4.75E-05,313622.6323,0.017175253
21168000,0.99983487,0.016912379,0.00563746,0.00563746,0.00563746,-0.001365492,0.001365492,5.98E-12,-7.06E-12,2.73E-13,-1.37E-12,-0.00139012,0.00139012,-0.00139012,0.00139012,-0.00139012,0.00139012,-0.00139012,0.00139012,-0.001338486,0.001338486,-0.001338486,0.001338486,-9.69E-13,7.20E-13,7.12E-13,1.11E-13,-0.001365492,0.001365492,-0.00139012,0.00139012,-0.00139012,0.00139012,-0.00139012,0.00139012,-0.00139012,0.00139012,-0.001338486,0.001338486,-0.001338486,0.001338486,-0.001338486,0.001338486,-0.001338486,0.001338486,-6.72E-12,6.83E-12,-0.001365492,0.001365492,-2.72E-13,3.51E-13,-0.00139012,0.00139012,-0.00139012,0.00139012,-0.00139012,0.00139012,-0.00139012,0.00139012,-0.001338486,0.001338486,-0.001338486,0.001338486,0.728384151,0.613075192,1368840,32768,0.00567338,0.00567338,0.00567338,16.14696347,16.12965368,4.44E-05,4.44E-05,4.44E-05,312378.3326,0.017166004
21254400,0.999837548,0.016912421,0.005637474,0.005637474,0.005637474,-0.001364807,0.001364807,5.99E-12,-7.05E-12,2.63E-13,-1.35E-12,-0.001389421,0.001389421,-0.001389421,0.001389421,-0.001389421,0.001389421,-0.001389421,0.001389421,-0.001337813,0.001337813,-0.001337813,0.001337813,-9.55E-13,7.08E-13,7.03E-13,1.08E-13,-0.001364807,0.001364807,-0.001389421,0.001389421,-0.001389421,0.001389421,-0.001389421,0.001389421,-0.001389421,0.001389421,-0.001337813,0.001337813,-0.001337813,0.001337813,-0.001337813,0.001337813,-0.001337813,0.001337813,-6.73E-12,6.82E-12,-0.001364807,0.001364807,-2.66E-13,3.51E-13,-0.001389421,0.001389421,-0.001389421,0.001389421,-0.001389421,0.001389421,-0.001389421,0.001389421,-0.001337813,0.001337813,-0.001337813,0.001337813,0.728652815,0.62225486,1368840,32768,0.005670539,0.005670539,0.005670539,15.776135,15.75983786,4.14E-05,4.14E-05,4.14E-05,311106.7256,0.017157334
21340800,0.999840134,0.016912463,0.005637488,0.005637488,0.005637488,-0.001364277,0.001364277,6.06E-12,-7.11E-12,2.06E-13,-1.27E-12,-0.001388876,0.001388876,-0.001388876,0.001388876,-0.001388876,0.001388876,-0.001388876,0.001388876,-0.001337296,0.001337296,-0.001337296,0.001337296,-8.39E-13,6.83E-13,6.33E-13,1.21E-13,-0.001364277,0.001364277,-0.001388876,0.001388876,-0.001388876,0.001388876,-0.001388876,0.001388876,-0.001388876,0.001388876,-0.001337296,0.001337296,-0.001337296,0.001337296,-0.001337296,0.001337296,-0.001337296,0.001337296,-6.80E-12,6.87E-12,-0.001364277,0.001364277,-2.46E-13,2.87E-13,-0.001388876,0.001388876,-0.001388876,0.001388876,-0.001388876,0.001388876,-0.001388876,0.001388876,-0.001337296,0.001337296,-0.001337296,0.001337296,0.728963289,0.631434528,1368840,32768,0.005668344,0.005668344,0.005668344,15.48595354,15.47313757,3.91E-05,3.91E-05,3.91E-05,309798.9193,0.017150635
21427200,0.999842633,0.016912503,0.005637501,0.005637501,0.005637501,-0.001363753,0.001363753,6.04E-12,-7.11E-12,2.52E-13,-1.24E-12,-0.00138834,0.00138834,-0.00138834,0.00138834,-0.00138834,0.00138834,-0.00138834,0.00138834,-0.001336785,0.001336785,-0.001336785,0.001336785,-9.19E-13,6.23E-13,6.61E-13,5.15E-14,-0.001363753,0.001363753,-0.00138834,0.00138834,-0.00138834,0.00138834,-0.00138834,0.00138834,-0.00138834,0.00138834,-0.001336785,0.001336785,-0.001336785,0.001336785,-0.001336785,0.001336785,-0.001336785,0.001336785,-6.76E-12,6.90E-12,-0.001363753,0.001363753,-2.73E-13,3.58E-13,-0.00138834,0.00138834,-0.00138834,0.00138834,-0.00138834,0.00138834,-0.00138834,0.00138834,-0.001336785,0.001336785,-0.001336785,0.001336785,0.729313362,0.640614196,1368840,32768,0.005666175,0.005666175,0.005666175,15.19903475,15.18643728,3.68E-05,3.68E-05,3.68E-05,308514.6897,0.017144018
21513600,0.999845049,0.016912542,0.005637514,0.005637514,0.005637514,-0.00136323,0.00136323,6.08E-12,-7.07E-12,1.89E-13,-1.13E-12,-0.001387803,0.001387803,-0.001387803,0.001387803,-0.001387803,0.001387803,-0.001387803,0.001387803,-0.001336275,0.001336275,-0.001336275,0.001336275,-8.86E-13,4.83E-13,6.63E-13,7.67E-14,-0.00136323,0.00136323,-0.001387803,0.001387803,-0.001387803,0.001387803,-0.001387803,0.001387803,-0.001387803,0.001387803,-0.001336275,0.001336275,-0.001336275,0.001336275,-0.001336275,0.001336275,-0.001336275,0.001336275,-6.75E-12,6.91E-12,-0.00136323,0.00136323,-2.47E-13,3.62E-13,-0.001387803,0.001387803,-0.001387803,0.001387803,-0.001387803,0.001387803,-0.001387803,0.001387803,-0.001336275,0.001336275,-0.001336275,0.001336275,0.736407855,0.77112383,1368840,32768,0.005664008,0.005664008,0.005664008,14.91232065,14.89973699,3.45E-05,3.45E-05,3.45E-05,307226.202,0.017137406
21600000,0.999847383,0.016912579,0.005637526,0.005637526,0.005637526,-0.001363067,0.001363067,5.98E-12,-7.31E-12,-7.30E-14,-1.41E-12,-0.001387453,0.001387453,-0.001387453,0.001387453,-0.001387453,0.001387453,-0.001387453,0.001387453,-0.001336287,0.001336287,-0.001336287,0.001336287,-7.39E-13,6.51E-13,6.95E-13,1.53E-13,-0.001363067,0.001363067,-0.001387453,0.001387453,-0.001387453,0.001387453,-0.001387453,0.001387453,-0.001387453,0.001387453,-0.001336287,0.001336287,-0.001336287,0.001336287,-0.001336287,0.001336287,-0.001336287,0.001336287,-6.70E-12,7.10E-12,-0.001363067,0.001363067,-7.15E-14,4.93E-13,-0.001387453,0.001387453,-0.001387453,0.001387453,-0.001387453,0.001387453,-0.001387453,0.001387453,-0.001336287,0.001336287,-0.001336287,0.001336287,0.730899142,0.66996006,1368840,32768,0.005663332,0.005663332,0.005663332,14.62561874,14.6130367,3.22E-05,3.22E-05,3.22E-05,295827.6006,0.017135341
21686400,0.999849641,0.016912615,0.005637538,0.005637538,0.005637538,-0.001362222,0.001362222,6.17E-12,-7.08E-12,1.61E-13,-1.15E-12,-0.001386749,0.001386749,-0.001386749,0.001386749,-0.001386749,0.001386749,-0.001386749,0.001386749,-0.00133531,0.00133531,-0.00133531,0.00133531,-8.83E-13,4.83E-13,5.94E-13,3.96E-14,-0.001362222,0.001362222,-0.001386749,0.001386749,-0.001386749,0.001386749,-0.001386749,0.001386749,-0.001386749,0.001386749,-0.00133531,0.00133531,-0.00133531,0.00133531,-0.00133531,0.00133531,-0.00133531,0.00133531,-6.83E-12,6.93E-12,-0.001362222,0.001362222,-2.26E-13,3.51E-13,-0.001386749,0.001386749,-0.001386749,0.001386749,-0.001386749,0.001386749,-0.001386749,0.001386749,-0.00133531,0.00133531,-0.00133531,0.00133531,0.729717394,0.650846789,1368840,32768,0.005659829,0.005659829,0.005659829,14.33891832,14.32633641,2.99E-05,2.99E-05,2.99E-05,303556.3909,0.017124655
21772800,0.999851825,0.01691265,0.00563755,0.00563755,0.00563755,-0.001361612,0.001361612,6.25E-12,-7.05E-12,2.95E-13,-1.16E-12,-0.001386167,0.001386167,-0.001386167,0.001386167,-0.001386167,0.001386167,-0.001386167,0.001386167,-0.001334674,0.001334674,-0.001334674,0.001334674,-8.69E-13,6.39E-13,7.14E-13,9.87E-14,-0.001361612,0.001361612,-0.001386167,0.001386167,-0.001386167,0.001386167,-0.001386167,0.001386167,-0.001386167,0.001386167,-0.001334674,0.001334674,-0.001334674,0.001334674,-0.001334674,0.001334674,-0.001334674,0.001334674,-6.86E-12,6.95E-12,-0.001361612,0.001361612,-2.99E-13,3.39E-13,-0.001386167,0.001386167,-0.001386167,0.001386167,-0.001386167,0.001386167,-0.001386167,0.001386167,-0.001334674,0.001334674,-0.001334674,0.001334674,0.728447617,0.631733518,1368840,32768,0.005657302,0.005657302,0.005657302,14.05221799,14.03963612,2.76E-05,2.76E-05,2.76E-05,304737.1393,0.017116943
21859200,0.999853954,0.016912684,0.005637561,0.005637561,0.005637561,-0.001361236,0.001361236,6.16E-12,-7.17E-12,2.40E-13,-1.24E-12,-0.001385819,0.001385819,-0.001385819,0.001385819,-0.001385819,0.001385819,-0.001385819,0.001385819,-0.001334272,0.001334272,-0.001334272,0.001334272,-8.82E-13,6.45E-13,7.10E-13,7.62E-14,-0.001361236,0.001361236,-0.001385819,0.001385819,-0.001385819,0.001385819,-0.001385819,0.001385819,-0.001385819,0.001385819,-0.001334272,0.001334272,-0.001334272,0.001334272,-0.001334272,0.001334272,-0.001334272,0.001334272,-6.89E-12,6.96E-12,-0.001361236,0.001361236,-3.06E-13,3.50E-13,-0.001385819,0.001385819,-0.001385819,0.001385819,-0.001385819,0.001385819,-0.001385819,0.001385819,-0.001334272,0.001334272,-0.001334272,0.001334272,0.727103921,0.612620247,1368840,32768,0.005655744,0.005655744,0.005655744,13.88749427,13.88014333,2.63E-05,2.63E-05,2.63E-05,305934.2857,0.017112189
21945600,0.999856071,0.016912718,0.005637573,0.005637573,0.005637573,-0.001361442,0.001361442,6.16E-12,-7.16E-12,1.96E-13,-1.22E-12,-0.001386052,0.001386052,-0.001386052,0.001386052,-0.001386052,0.001386052,-0.001386052,0.001386052,-0.001334454,0.001334454,-0.001334454,0.001334454,-8.81E-13,5.89E-13,6.80E-13,6.83E-14,-0.001361442,0.001361442,-0.001386052,0.001386052,-0.001386052,0.001386052,-0.001386052,0.001386052,-0.001386052,0.001386052,-0.001334454,0.001334454,-0.001334454,0.001334454,-0.001334454,0.001334454,-0.001334454,0.001334454,-6.86E-12,6.97E-12,-0.001361442,0.001361442,-2.75E-13,3.60E-13,-0.001386052,0.001386052,-0.001386052,0.001386052,-0.001386052,0.001386052,-0.001386052,0.001386052,-0.001334454,0.001334454,-0.001334454,0.001334454,0.725694441,0.593506976,1368840,32768,0.0056566,0.0056566,0.0056566,14.02521257,14.03094938,2.74E-05,2.74E-05,2.74E-05,307113.0061,0.0171148
22032000,0.999858178,0.016912751,0.005637584,0.005637584,0.005637584,-0.001361671,0.001361671,6.22E-12,-7.15E-12,1.96E-13,-1.20E-12,-0.001386312,0.001386312,-0.001386312,0.001386312,-0.001386312,0.001386312,-0.001386312,0.001386312,-0.001334653,0.001334654,-0.001334654,0.001334653,-8.86E-13,5.63E-13,6.38E-13,5.64E-14,-0.001361671,0.001361671,-0.001386312,0.001386312,-0.001386312,0.001386312,-0.001386312,0.001386312,-0.001386312,0.001386312,-0.001334654,0.001334654,-0.001334654,0.001334654,-0.001334654,0.001334653,-0.001334654,0.001334654,-6.90E-12,6.97E-12,-0.001361671,0.001361671,-2.57E-13,3.46E-13,-0.001386312,0.001386312,-0.001386312,0.001386312,-0.001386312,0.001386312,-0.001386312,0.001386312,-0.001334653,0.001334654,-0.001334654,0.001334653,0.724227328,0.574393706,1368840,32768,0.005657547,0.005657547,0.005657547,14.17519657,14.18175543,2.86E-05,2.86E-05,2.86E-05,308468.8016,0.01711769
22118400,0.999860274,0.016912784,0.005637595,0.005637595,0.005637595,-0.001361899,0.001361899,6.20E-12,-7.20E-12,2.20E-13,-1.20E-12,-0.001386573,0.001386573,-0.001386573,0.001386573,-0.001386573,0.001386573,-0.001386573,0.001386573,-0.001334852,0.001334853,-0.001334853,0.001334852,-8.61E-13,6.08E-13,6.87E-13,7.79E-14,-0.001361899,0.001361899,-0.001386573,0.001386573,-0.001386573,0.001386573,-0.001386573,0.001386573,-0.001386573,0.001386573,-0.001334852,0.001334853,-0.001334852,0.001334852,-0.001334853,0.001334852,-0.001334852,0.001334852,-6.91E-12,6.99E-12,-0.001361899,0.001361899,-2.87E-13,3.44E-13,-0.001386573,0.001386573,-0.001386573,0.001386573,-0.001386573,0.001386573,-0.001386573,0.001386573,-0.001334852,0.001334853,-0.001334853,0.001334852,0.722709277,0.555280435,1368840,32768,0.005658494,0.005658494,0.005658494,14.3259475,14.33256148,2.98E-05,2.98E-05,2.98E-05,309888.5815,0.01712058
22204800,0.999862359,0.016912817,0.005637606,0.005637606,0.005637606,-0.001362127,0.001362127,6.16E-12,-7.18E-12,2.22E-13,-1.21E-12,-0.001386834,0.001386834,-0.001386834,0.001386834,-0.001386834,0.001386834,-0.001386834,0.001386834,-0.001335049,0.001335049,-0.001335049,0.001335049,-9.09E-13,5.75E-13,6.75E-13,8.12E-14,-0.001362127,0.001362127,-0.001386834,0.001386834,-0.001386834,0.001386834,-0.001386834,0.001386834,-0.001386834,0.001386834,-0.001335049,0.001335049,-0.001335049,0.001335049,-0.001335049,0.001335049,-0.001335049,0.001335049,-6.89E-12,6.97E-12,-0.001362127,0.001362127,-2.67E-13,3.49E-13,-0.001386834,0.001386834,-0.001386834,0.001386834,-0.001386834,0.001386834,-0.001386834,0.001386834,-0.001335049,0.001335049,-0.001335049,0.001335049,0.721746363,0.545814346,1368840,32768,0.005659435,0.005659435,0.005659435,14.47674982,14.48336753,3.10E-05,3.10E-05,3.10E-05,311363.985,0.017123453
22291200,0.999864434,0.01691285,0.005637617,0.005637617,0.005637617,-0.001362385,0.001362385,6.18E-12,-7.18E-12,1.94E-13,-1.24E-12,-0.001387111,0.001387111,-0.001387111,0.001387111,-0.001387111,0.001387111,-0.001387111,0.001387111,-0.001335292,0.001335292,-0.001335292,0.001335292,-8.97E-13,5.86E-13,6.80E-13,9.94E-14,-0.001362385,0.001362385,-0.001387111,0.001387111,-0.001387111,0.001387111,-0.001387111,0.001387111,-0.001387111,0.001387111,-0.001335292,0.001335292,-0.001335292,0.001335292,-0.001335292,0.001335292,-0.001335292,0.001335292,-6.90E-12,6.97E-12,-0.001362385,0.001362385,-2.64E-13,3.39E-13,-0.001387111,0.001387111,-0.001387111,0.001387111,-0.001387111,0.001387111,-0.001387111,0.001387111,-0.001335292,0.001335292,-0.001335292,0.001335292,0.726926676,0.641581964,1368840,32768,0.005660506,0.005660506,0.005660506,14.62755554,14.63417358,3.22E-05,3.22E-05,3.22E-05,311942.212,0.017126721
22377600,0.999866497,0.016912883,0.005637628,0.005637628,0.005637628,-0.001362983,0.001362983,6.22E-12,-7.16E-12,1.75E-13,-1.23E-12,-0.00138756,0.00138756,-0.00138756,0.00138756,-0.00138756,0.00138756,-0.00138756,0.00138756,-0.001336029,0.001336029,-0.001336029,0.001336029,-8.93E-13,5.57E-13,6.62E-13,8.70E-14,-0.001362983,0.001362983,-0.00138756,0.00138756,-0.00138756,0.00138756,-0.00138756,0.00138756,-0.00138756,0.00138756,-0.001336029,0.001336029,-0.001336029,0.001336029,-0.001336029,0.001336029,-0.001336029,0.001336029,-6.88E-12,7.02E-12,-0.001362983,0.001362983,-2.41E-13,3.56E-13,-0.00138756,0.00138756,-0.00138756,0.00138756,-0.00138756,0.00138756,-0.00138756,0.00138756,-0.001336029,0.001336029,-0.001336029,0.001336029,0.728681863,0.673194709,1368840,32768,0.005662985,0.005662985,0.005662985,14.77836152,14.78497963,3.34E-05,3.34E-05,3.34E-05,302756.6584,0.017134284
22464000,0.999868548,0.016912916,0.005637639,0.005637639,0.005637639,-0.001363373,0.001363373,6.23E-12,-7.17E-12,1.66E-13,-1.18E-12,-0.001387902,0.001387902,-0.001387902,0.001387902,-0.001387902,0.001387902,-0.001387902,0.001387902,-0.001336463,0.001336463,-0.001336463,0.001336463,-8.85E-13,5.09E-13,6.57E-13,3.88E-14,-0.001363373,0.001363373,-0.001387902,0.001387902,-0.001387902,0.001387902,-0.001387902,0.001387902,-0.001387902,0.001387902,-0.001336463,0.001336463,-0.001336463,0.001336463,-0.001336463,0.001336463,-0.001336463,0.001336463,-6.90E-12,7.01E-12,-0.001363373,0.001363373,-2.71E-13,3.70E-13,-0.001387902,0.001387902,-0.001387902,0.001387902,-0.001387902,0.001387902,-0.001387902,0.001387902,-0.001336463,0.001336463,-0.001336463,0.001336463,0.730032451,0.695488111,1368840,32768,0.005664601,0.005664601,0.005664601,14.92916751,14.93578568,3.46E-05,3.46E-05,3.46E-05,299516.7228,0.017139216
22550400,0.999870587,0.016912949,0.00563765,0.00563765,0.00563765,-0.001363735,0.001363735,6.24E-12,-7.20E-12,1.63E-13,-1.19E-12,-0.00138823,0.00138823,-0.00138823,0.00138823,-0.00138823,0.00138823,-0.00138823,0.00138823,-0.001336855,0.001336856,-0.001336856,0.001336855,-8.81E-13,5.24E-13,6.44E-13,4.79E-14,-0.001363735,0.001363735,-0.00138823,0.00138823,-0.00138823,0.00138823,-0.00138823,0.00138823,-0.00138823,0.00138823,-0.001336855,0.001336855,-0.001336855,0.001336855,-0.001336855,0.001336855,-0.001336855,0.001336855,-6.93E-12,7.02E-12,-0.001363735,0.001363735,-2.67E-13,3.52E-13,-0.00138823,0.00138823,-0.00138823,0.00138823,-0.00138823,0.00138823,-0.00138823,0.00138823,-0.001336855,0.001336856,-0.001336856,0.001336855,0.73095547,0.708368334,1368840,32768,0.005666098,0.005666098,0.005666098,15.07997352,15.08659173,3.58E-05,3.58E-05,3.58E-05,297092.1932,0.017143783
22636800,0.99987261,0.016912981,0.00563766,0.00563766,0.00563766,-0.001364008,0.001364008,6.24E-12,-7.19E-12,1.75E-13,-1.15E-12,-0.001388484,0.001388484,-0.001388484,0.001388484,-0.001388484,0.001388484,-0.001388484,0.001388484,-0.001337147,0.001337147,-0.001337147,0.001337147,-8.88E-13,4.92E-13,5.98E-13,6.63E-14,-0.001364008,0.001364008,-0.001388484,0.001388484,-0.001388484,0.001388484,-0.001388484,0.001388484,-0.001388484,0.001388484,-0.001337147,0.001337147,-0.001337147,0.001337147,-0.001337147,0.001337147,-0.001337147,0.001337147,-6.91E-12,7.03E-12,-0.001364008,0.001364008,-2.44E-13,3.11E-13,-0.001388484,0.001388484,-0.001388484,0.001388484,-0.001388484,0.001388484,-0.001388484,0.001388484,-0.001337147,0.001337147,-0.001337147,0.001337147,0.731950767,0.721248557,1368840,32768,0.005667233,0.005667233,0.005667233,15.19997231,15.20526939,3.68E-05,3.68E-05,3.68E-05,295462.5408,0.017147245
22723200,0.999874608,0.016913013,0.005637671,0.005637671,0.005637671,-0.001364149,0.001364149,6.22E-12,-7.19E-12,1.67E-13,-1.16E-12,-0.001388606,0.001388606,-0.001388606,0.001388606,-0.001388606,0.001388606,-0.001388606,0.001388606,-0.001337305,0.001337305,-0.001337305,0.001337305,-8.58E-13,5.16E-13,6.28E-13,7.80E-14,-0.001364149,0.001364149,-0.001388606,0.001388606,-0.001388606,0.001388606,-0.001388606,0.001388606,-0.001388606,0.001388606,-0.001337305,0.001337305,-0.001337305,0.001337305,-0.001337305,0.001337305,-0.001337305,0.001337305,-6.93E-12,6.99E-12,-0.001364149,0.001364149,-2.52E-13,3.21E-13,-0.001388606,0.001388606,-0.001388606,0.001388606,-0.001388606,0.001388606,-0.001388606,0.001388606,-0.001337305,0.001337305,-0.001337305,0.001337305,0.73302834,0.734128781,1368840,32768,0.005667814,0.005667814,0.005667814,15.25092258,15.25322878,3.72E-05,3.72E-05,3.72E-05,293844.7493,0.017149019
22809600,0.999876581,0.016913045,0.005637682,0.005637682,0.005637682,-0.001364284,0.001364284,6.22E-12,-7.17E-12,1.62E-13,-1.13E-12,-0.001388721,0.001388721,-0.001388721,0.001388721,-0.001388721,0.001388721,-0.001388721,0.001388721,-0.001337458,0.001337458,-0.001337458,0.001337458,-8.50E-13,4.96E-13,6.26E-13,7.62E-14,-0.001364284,0.001364284,-0.001388721,0.001388721,-0.001388721,0.001388721,-0.001388721,0.001388721,-0.001388721,0.001388721,-0.001337458,0.001337458,-0.001337458,0.001337458,-0.001337458,0.001337458,-0.001337458,0.001337458,-6.91E-12,6.99E-12,-0.001364284,0.001364284,-2.47E-13,3.26E-13,-0.001388721,0.001388721,-0.001388721,0.001388721,-0.001388721,0.001388721,-0.001388721,0.001388721,-0.001337458,0.001337458,-0.001337458,0.001337458,0.734199595,0.747009004,1368840,32768,0.005668373,0.005668373,0.005668373,15.29906984,15.30118816,3.76E-05,3.76E-05,3.76E-05,292193.0654,0.017150726
22896000,0.999878529,0.016913076,0.005637692,0.005637692,0.005637692,-0.001364418,0.001364418,6.18E-12,-7.17E-12,1.22E-13,-1.14E-12,-0.001388835,0.001388835,-0.001388835,0.001388835,-0.001388835,0.001388835,-0.001388835,0.001388835,-0.00133761,0.00133761,-0.00133761,0.00133761,-8.45E-13,4.69E-13,6.35E-13,2.49E-14,-0.001364418,0.001364418,-0.001388835,0.001388835,-0.001388835,0.001388835,-0.001388835,0.001388835,-0.001388835,0.001388835,-0.00133761,0.00133761,-0.00133761,0.00133761,-0.00133761,0.00133761,-0.00133761,0.00133761,-6.90E-12,6.96E-12,-0.001364418,0.001364418,-2.78E-13,3.55E-13,-0.001388835,0.001388835,-0.001388835,0.001388835,-0.001388835,0.001388835,-0.001388835,0.001388835,-0.00133761,0.00133761,-0.00133761,0.00133761,0.717100875,0.478088034,1368840,32768,0.005668931,0.005668931,0.005668931,15.34704198,15.34914755,3.80E-05,3.80E-05,3.80E-05,290531.7356,0.017152426
22982400,0.999880452,0.016913106,0.005637702,0.005637702,0.005637702,-0.001363664,0.001363664,6.20E-12,-7.13E-12,1.37E-13,-1.09E-12,-0.001388501,0.001388501,-0.001388501,0.001388501,-0.001388501,0.001388501,-0.001388501,0.001388501,-0.001336472,0.001336472,-0.001336472,0.001336472,-8.31E-13,4.48E-13,6.37E-13,3.79E-14,-0.001363664,0.001363664,-0.001388501,0.001388501,-0.001388501,0.001388501,-0.001388501,0.001388501,-0.001388501,0.001388501,-0.001336472,0.001336472,-0.001336472,0.001336472,-0.001336472,0.001336472,-0.001336472,0.001336472,-6.88E-12,6.97E-12,-0.001363664,0.001363664,-2.65E-13,3.56E-13,-0.001388501,0.001388501,-0.001388501,0.001388501,-0.001388501,0.001388501,-0.001388501,0.001388501,-0.001336472,0.001336472,-0.001336472,0.001336472,0.721959326,0.567987748,1368840,32768,0.005665806,0.005665806,0.005665806,15.39500223,15.39710693,3.84E-05,3.84E-05,3.84E-05,314674.4929,0.017142892
23068800,0.99988235,0.016913136,0.005637712,0.005637712,0.005637712,-0.001364056,0.001364056,6.21E-12,-7.13E-12,1.33E-13,-1.08E-12,-0.001388747,0.001388747,-0.001388747,0.001388747,-0.001388747,0.001388747,-0.001388747,0.001388747,-0.001336998,0.001336998,-0.001336998,0.001336998,-8.28E-13,4.32E-13,6.31E-13,3.81E-14,-0.001364056,0.001364056,-0.001388747,0.001388747,-0.001388747,0.001388747,-0.001388747,0.001388747,-0.001388747,0.001388747,-0.001336998,0.001336998,-0.001336998,0.001336998,-0.001336998,0.001336998,-0.001336998,0.001336998,-6.88E-12,6.97E-12,-0.001364056,0.001364056,-2.62E-13,3.54E-13,-0.001388747,0.001388747,-0.001388747,0.001388747,-0.001388747,0.001388747,-0.001388747,0.001388747,-0.001336998,0.001336998,-0.001336998,0.001336998,0.721951543,0.57343655,1368840,32768,0.005667428,0.005667428,0.005667428,15.44296168,15.44506632,3.87E-05,3.87E-05,3.87E-05,305656.1525,0.017147843
23155200,0.999884224,0.016913166,0.005637722,0.005637722,0.005637722,-0.001364165,0.001364165,6.20E-12,-7.13E-12,1.25E-13,-1.08E-12,-0.00138885,0.00138885,-0.00138885,0.00138885,-0.00138885,0.00138885,-0.00138885,0.00138885,-0.001337114,0.001337114,-0.001337114,0.001337114,-8.27E-13,4.24E-13,6.30E-13,3.00E-14,-0.001364165,0.001364165,-0.00138885,0.00138885,-0.00138885,0.00138885,-0.00138885,0.00138885,-0.00138885,0.00138885,-0.001337114,0.001337114,-0.001337114,0.001337114,-0.001337114,0.001337114,-0.001337114,0.001337114,-6.87E-12,6.97E-12,-0.001364165,0.001364165,-2.61E-13,3.62E-13,-0.00138885,0.00138885,-0.00138885,0.00138885,-0.00138885,0.00138885,-0.00138885,0.00138885,-0.001337114,0.001337114,-0.001337114,0.001337114,0.722174418,0.582247889,1368840,32768,0.005667882,0.005667882,0.005667882,15.49092107,15.4930257,3.91E-05,3.91E-05,3.91E-05,304808.4057,0.017149227
23241600,0.999886073,0.016913195,0.005637732,0.005637732,0.005637732,-0.001364286,0.001364286,6.19E-12,-7.12E-12,1.13E-13,-1.07E-12,-0.001388959,0.001388959,-0.001388959,0.001388959,-0.001388959,0.001388959,-0.001388959,0.001388959,-0.001337247,0.001337247,-0.001337247,0.001337247,-7.88E-13,4.48E-13,6.41E-13,2.80E-14,-0.001364286,0.001364286,-0.001388959,0.001388959,-0.001388959,0.001388959,-0.001388959,0.001388959,-0.001388959,0.001388959,-0.001337247,0.001337247,-0.001337247,0.001337247,-0.001337247,0.001337247,-0.001337247,0.001337247,-6.86E-12,6.97E-12,-0.001364286,0.001364286,-2.51E-13,3.85E-13,-0.001388959,0.001388959,-0.001388959,0.001388959,-0.001388959,0.001388959,-0.001388959,0.001388959,-0.001337247,0.001337247,-0.001337247,0.001337247,0.725566585,0.645334733,1368840,32768,0.005668382,0.005668382,0.005668382,15.53888043,15.54098509,3.95E-05,3.95E-05,3.95E-05,303641.0874,0.017150752
23328000,0.999887899,0.016913224,0.005637741,0.005637741,0.005637741,-0.001364575,0.001364575,6.20E-12,-7.12E-12,1.29E-13,-1.06E-12,-0.001389154,0.001389154,-0.001389154,0.001389154,-0.001389154,0.001389154,-0.001389154,0.001389154,-0.001337623,0.001337623,-0.001337623,0.001337623,-8.16E-13,4.23E-13,6.29E-13,2.87E-14,-0.001364575,0.001364575,-0.001389154,0.001389154,-0.001389154,0.001389154,-0.001389154,0.001389154,-0.001389154,0.001389154,-0.001337623,0.001337623,-0.001337623,0.001337623,-0.001337623,0.001337623,-0.001337623,0.001337623,-6.86E-12,6.97E-12,-0.001364575,0.001364575,-2.64E-13,3.59E-13,-0.001389154,0.001389154,-0.001389154,0.001389154,-0.001389154,0.001389154,-0.001389154,0.001389154,-0.001337623,0.001337623,-0.001337623,0.001337623,0.728138011,0.691020814,1368840,32768,0.00566958,0.00566958,0.00566958,15.58683978,15.58894447,3.99E-05,3.99E-05,3.99E-05,297658.1483,0.017154408
23414400,0.999889707,0.016913253,0.005637751,0.005637751,0.005637751,-0.001364916,0.001364916,6.22E-12,-7.08E-12,1.44E-13,-1.04E-12,-0.001389427,0.001389427,-0.001389427,0.001389427,-0.001389427,0.001389427,-0.001389427,0.001389427,-0.001338027,0.001338027,-0.001338027,0.001338027,-8.24E-13,4.13E-13,6.33E-13,4.33E-14,-0.001364916,0.001364916,-0.001389427,0.001389427,-0.001389427,0.001389427,-0.001389427,0.001389427,-0.001389427,0.001389427,-0.001338027,0.001338027,-0.001338027,0.001338027,-0.001338027,0.001338027,-0.001338027,0.001338027,-6.83E-12,6.99E-12,-0.001364916,0.001364916,-2.48E-13,3.64E-13,-0.001389427,0.001389427,-0.001389427,0.001389427,-0.001389427,0.001389427,-0.001389427,0.001389427,-0.001338027,0.001338027,-0.001338027,0.001338027,0.723095761,0.60514741,1368840,32768,0.005670993,0.005670993,0.005670993,15.69179202,15.69634069,4.07E-05,4.07E-05,4.07E-05,293295.2848,0.017158719
23500800,0.999891512,0.016913281,0.00563776,0.00563776,0.00563776,-0.001365086,0.001365086,6.11E-12,-7.21E-12,6.93E-14,-1.09E-12,-0.001389718,0.001389718,-0.001389718,0.001389718,-0.001389718,0.001389718,-0.001389718,0.001389718,-0.001338084,0.001338084,-0.001338084,0.001338084,-8.10E-13,3.96E-13,6.33E-13,6.01E-14,-0.001365086,0.001365086,-0.001389718,0.001389718,-0.001389718,0.001389718,-0.001389718,0.001389718,-0.001389718,0.001389718,-0.001338084,0.001338084,-0.001338084,0.001338084,-0.001338084,0.001338084,-0.001338084,0.001338084,-6.93E-12,6.90E-12,-0.001365086,0.001365086,-3.22E-13,2.73E-13,-0.001389718,0.001389718,-0.001389718,0.001389718,-0.001389718,0.001389718,-0.001389718,0.001389718,-0.001338084,0.001338084,-0.001338084,0.001338084,0.717539045,0.519274007,1368840,32768,0.005671697,0.005671697,0.005671697,15.91266644,15.9222411,4.25E-05,4.25E-05,4.25E-05,300133.8494,0.017160867
23587200,0.999893312,0.01691331,0.00563777,0.00563777,0.00563777,-0.001365243,0.001365243,6.21E-12,-7.13E-12,1.11E-13,-1.03E-12,-0.001390017,0.001390017,-0.001390017,0.001390017,-0.001390017,0.001390017,-0.001390017,0.001390017,-0.001338112,0.001338112,-0.001338112,0.001338112,-7.95E-13,3.95E-13,5.93E-13,6.67E-14,-0.001365243,0.001365243,-0.001390017,0.001390017,-0.001390017,0.001390017,-0.001390017,0.001390017,-0.001390017,0.001390017,-0.001338112,0.001338112,-0.001338112,0.001338112,-0.001338112,0.001338112,-0.001338112,0.001338112,-6.88E-12,6.97E-12,-0.001365243,0.001365243,-2.53E-13,2.96E-13,-0.001390017,0.001390017,-0.001390017,0.001390017,-0.001390017,0.001390017,-0.001390017,0.001390017,-0.001338112,0.001338112,-0.001338112,0.001338112,0.723516514,0.629484551,1368840,32768,0.005672347,0.005672347,0.005672347,16.13825094,16.14814151,4.43E-05,4.43E-05,4.43E-05,307893.7018,0.017162854
23673600,0.999895108,0.016913339,0.00563778,0.00563778,0.00563778,-0.00136603,0.00136603,6.30E-12,-7.05E-12,1.57E-13,-9.39E-13,-0.001390635,0.001390635,-0.001390635,0.001390635,-0.001390635,0.001390635,-0.001390635,0.001390635,-0.001339056,0.001339056,-0.001339056,0.001339056,-8.35E-13,3.11E-13,5.40E-13,-2.32E-14,-0.00136603,0.00136603,-0.001390635,0.001390635,-0.001390635,0.001390635,-0.001390635,0.001390635,-0.001390635,0.001390635,-0.001339056,0.001339056,-0.001339056,0.001339056,-0.001339056,0.001339056,-0.001339056,0.001339056,-6.93E-12,6.94E-12,-0.00136603,0.00136603,-2.61E-13,3.26E-13,-0.001390635,0.001390635,-0.001390635,0.001390635,-0.001390635,0.001390635,-0.001390635,0.001390635,-0.001339056,0.001339056,-0.001339056,0.001339056,0.729320905,0.735282056,1368840,32768,0.005675608,0.005675608,0.005675608,16.36412977,16.37404192,4.61E-05,4.61E-05,4.61E-05,297494.0486,0.017172801
23760000,0.9998969,0.016913367,0.005637789,0.005637789,0.005637789,-0.001366778,0.001366778,6.22E-12,-7.15E-12,6.82E-14,-1.03E-12,-0.001391228,0.001391228,-0.001391228,0.001391228,-0.001391228,0.001391228,-0.001391228,0.001391228,-0.001339947,0.001339947,-0.001339947,0.001339947,-7.62E-13,3.83E-13,5.90E-13,3.65E-14,-0.001366778,0.001366778,-0.001391228,0.001391228,-0.001391228,0.001391228,-0.001391228,0.001391228,-0.001391228,0.001391228,-0.001339947,0.001339947,-0.001339947,0.001339947,-0.001339947,0.001339947,-0.001339947,0.001339947,-6.87E-12,7.02E-12,-0.001366778,0.001366778,-2.45E-13,3.31E-13,-0.001391228,0.001391228,-0.001391228,0.001391228,-0.001391228,0.001391228,-0.001391228,0.001391228,-0.001339947,0.001339947,-0.001339947,0.001339947,0.733087085,0.789165615,1368840,32768,0.005678705,0.005678705,0.005678705,16.59002826,16.59994233,4.79E-05,4.79E-05,4.79E-05,288244.1291,0.017182253
23846400,0.999898686,0.016913396,0.005637799,0.005637799,0.005637799,-0.001367369,0.001367369,6.24E-12,-7.19E-12,7.14E-14,-9.16E-13,-0.001391744,0.001391744,-0.001391744,0.001391744,-0.001391744,0.001391744,-0.001391744,0.001391744,-0.001340607,0.001340607,-0.001340607,0.001340607,-7.41E-13,2.97E-13,5.71E-13,3.43E-14,-0.001367369,0.001367369,-0.001391744,0.001391744,-0.001391744,0.001391744,-0.001391744,0.001391744,-0.001391744,0.001391744,-0.001340607,0.001340607,-0.001340607,0.001340607,-0.001340607,0.001340607,-0.001340607,0.001340607,-6.93E-12,7.01E-12,-0.001367369,0.001367369,-1.41E-13,4.20E-13,-0.001391744,0.001391744,-0.001391744,0.001391744,-0.001391744,0.001391744,-0.001391744,0.001391744,-0.001340607,0.001340607,-0.001340607,0.001340607,0.73721899,0.83677737,1368840,32768,0.005681156,0.005681156,0.005681156,16.81592791,16.82584274,4.97E-05,4.97E-05,4.97E-05,283368.9475,0.017189731
23932800,0.999900466,0.016913425,0.005637808,0.005637808,0.005637808,-0.001367941,0.001367941,6.25E-12,-7.15E-12,6.04E-14,-9.78E-13,-0.001392248,0.001392248,-0.001392248,0.001392248,-0.001392248,0.001392248,-0.001392248,0.001392248,-0.001341239,0.001341239,-0.001341239,0.001341239,-8.25E-13,2.63E-13,4.43E-13,6.89E-14,-0.001367941,0.001367941,-0.001392248,0.001392248,-0.001392248,0.001392248,-0.001392248,0.001392248,-0.001392248,0.001392248,-0.001341239,0.001341239,-0.001341239,0.001341239,-0.001341239,0.001341239,-0.001341239,0.001341239,-6.98E-12,6.94E-12,-0.001367941,0.001367941,-1.78E-13,2.20E-13,-0.001392248,0.001392248,-0.001392248,0.001392248,-0.001392248,0.001392248,-0.001392248,0.001392248,-0.001341239,0.001341239,-0.001341239,0.001341239,0.741946035,0.884389124,1368840,32768,0.005683527,0.005683527,0.005683527,17.0418275,17.05174315,5.15E-05,5.15E-05,5.15E-05,278914.9587,0.017196968
24019200,0.99990224,0.016913454,0.005637818,0.005637818,0.005637818,-0.001368512,0.001368512,6.28E-12,-7.16E-12,7.43E-14,-9.86E-13,-0.00139275,0.00139275,-0.00139275,0.00139275,-0.00139275,0.00139275,-0.00139275,0.00139275,-0.001341867,0.001341867,-0.001341867,0.001341867,-7.74E-13,3.36E-13,4.97E-13,1.66E-13,-0.001368512,0.001368512,-0.00139275,0.00139275,-0.00139275,0.00139275,-0.00139275,0.00139275,-0.00139275,0.00139275,-0.001341867,0.001341867,-0.001341867,0.001341867,-0.001341867,0.001341867,-0.001341867,0.001341867,-6.98E-12,6.97E-12,-0.001368512,0.001368512,-2.01E-13,1.54E-13,-0.00139275,0.00139275,-0.00139275,0.00139275,-0.00139275,0.00139275,-0.00139275,0.00139275,-0.001341867,0.001341867,-0.001341867,0.001341867,0.741967526,0.842081963,1368840,32768,0.00568589,0.00568589,0.00568589,17.26772823,17.27764356,5.33E-05,5.33E-05,5.33E-05,274468.555,0.017204176
24105600,0.999904008,0.016913482,0.005637827,0.005637827,0.005637827,-0.001368855,0.001368855,6.32E-12,-7.14E-12,5.85E-14,-1.03E-12,-0.001393136,0.001393136,-0.001393136,0.001393136,-0.001393136,0.001393136,-0.001393136,0.001393136,-0.001342167,0.001342167,-0.001342167,0.001342167,-7.65E-13,3.72E-13,5.74E-13,2.89E-13,-0.001368855,0.001368855,-0.001393136,0.001393136,-0.001393136,0.001393136,-0.001393136,0.001393136,-0.001393136,0.001393136,-0.001342167,0.001342167,-0.001342167,0.001342167,-0.001342167,0.001342167,-0.001342167,0.001342167,-7.00E-12,6.97E-12,-0.001368855,0.001368855,-1.45E-13,1.64E-13,-0.001393136,0.001393136,-0.001393136,0.001393136,-0.001393136,0.001393136,-0.001393136,0.001393136,-0.001342167,0.001342167,-0.001342167,0.001342167,0.731983086,0.666814761,1368840,32768,0.005687314,0.005687314,0.005687314,17.4936302,17.50354397,5.51E-05,5.51E-05,5.51E-05,276283.349,0.017208523
24192000,0.999905762,0.016913511,0.005637837,0.005637837,0.005637837,-0.001368721,0.001368721,6.31E-12,-7.16E-12,7.15E-14,-1.02E-12,-0.001393235,0.001393235,-0.001393235,0.001393235,-0.001393235,0.001393235,-0.001393235,0.001393235,-0.001341817,0.001341817,-0.001341817,0.001341817,-8.12E-13,3.33E-13,4.32E-13,1.96E-13,-0.001368721,0.001368721,-0.001393235,0.001393235,-0.001393235,0.001393235,-0.001393235,0.001393235,-0.001393235,0.001393235,-0.001341817,0.001341817,-0.001341817,0.001341817,-0.001341817,0.001341817,-0.001341817,0.001341817,-7.04E-12,6.94E-12,-0.001368721,0.001368721,-1.70E-13,9.02E-14,-0.001393235,0.001393235,-0.001393235,0.001393235,-0.001393235,0.001393235,-0.001393235,0.001393235,-0.001341817,0.001341817,-0.001341817,0.001341817,0.733053787,0.689060961,1368840,32768,0.005686755,0.005686755,0.005686755,17.66998129,17.67777012,5.66E-05,5.66E-05,5.66E-05,289336.8847,0.01720682
24278400,0.999907494,0.016913538,0.005637846,0.005637846,0.005637846,-0.001368948,0.001368948,6.34E-12,-7.12E-12,1.01E-13,-9.81E-13,-0.001393435,0.001393435,-0.001393435,0.001393435,-0.001393435,0.001393435,-0.001393435,0.001393435,-0.001342069,0.001342069,-0.001342069,0.001342069,-8.06E-13,3.27E-13,4.19E-13,1.73E-13,-0.001368948,0.001368948,-0.001393435,0.001393435,-0.001393435,0.001393435,-0.001393435,0.001393435,-0.001393435,0.001393435,-0.001342069,0.001342069,-0.001342069,0.001342069,-0.001342069,0.001342069,-0.001342069,0.001342069,-7.00E-12,6.98E-12,-0.001368948,0.001368948,-1.49E-13,1.21E-13,-0.001393435,0.001393435,-0.001393435,0.001393435,-0.001393435,0.001393435,-0.001393435,0.001393435,-0.001342069,0.001342069,-0.001342069,0.001342069,0.73426697,0.711307162,1368840,32768,0.005687696,0.005687696,0.005687696,17.7545733,17.75837926,5.72E-05,5.72E-05,5.72E-05,287245.6112,0.01720969
24364800,0.999909203,0.016913566,0.005637855,0.005637855,0.005637855,-0.001369168,0.001369168,6.29E-12,-7.17E-12,8.12E-14,-9.90E-13,-0.001393625,0.001393625,-0.001393625,0.001393625,-0.001393625,0.001393625,-0.001393625,0.001393625,-0.001342317,0.001342317,-0.001342317,0.001342317,-7.83E-13,3.39E-13,4.20E-13,1.73E-13,-0.001369168,0.001369168,-0.001393625,0.001393625,-0.001393625,0.001393625,-0.001393625,0.001393625,-0.001393625,0.001393625,-0.001342317,0.001342317,-0.001342317,0.001342317,-0.001342317,0.001342317,-0.001342317,0.001342317,-7.01E-12,6.97E-12,-0.001369168,0.001369168,-1.50E-13,1.20E-13,-0.001393625,0.001393625,-0.001393625,0.001393625,-0.001393625,0.001393625,-0.001393625,0.001393625,-0.001342317,0.001342317,-0.001342317,0.001342317,0.735644614,0.733476173,1368840,32768,0.005688608,0.005688608,0.005688608,17.8354327,17.83898839,5.79E-05,5.79E-05,5.79E-05,285074.4307,0.017212472
24451200,0.999910888,0.016913593,0.005637864,0.005637864,0.005637864,-0.001369387,0.001369387,6.27E-12,-7.20E-12,5.90E-14,-9.91E-13,-0.001393815,0.001393815,-0.001393815,0.001393815,-0.001393815,0.001393815,-0.001393815,0.001393815,-0.001342563,0.001342563,-0.001342563,0.001342563,-7.51E-13,3.50E-13,4.22E-13,1.79E-13,-0.001369387,0.001369387,-0.001393815,0.001393815,-0.001393815,0.001393815,-0.001393815,0.001393815,-0.001393815,0.001393815,-0.001342563,0.001342563,-0.001342563,0.001342563,-0.001342563,0.001342563,-0.001342563,0.001342563,-6.99E-12,6.99E-12,-0.001369387,0.001369387,-1.46E-13,1.21E-13,-0.001393815,0.001393815,-0.001393815,0.001393815,-0.001393815,0.001393815,-0.001393815,0.001393815,-0.001342563,0.001342563,-0.001342563,0.001342563,0.733858337,0.700889061,1368840,32768,0.005689517,0.005689517,0.005689517,17.9160587,17.91959753,5.85E-05,5.85E-05,5.85E-05,282896.5697,0.017215248
24537600,0.999912551,0.01691362,0.005637873,0.005637873,0.005637873,-0.001369454,0.001369454,6.29E-12,-7.18E-12,6.97E-14,-9.49E-13,-0.001393925,0.001393925,-0.001393925,0.001393925,-0.001393925,0.001393925,-0.001393925,0.001393925,-0.00134259,0.00134259,-0.00134259,0.00134259,-7.56E-13,3.14E-13,4.30E-13,1.90E-13,-0.001369454,0.001369454,-0.001393925,0.001393925,-0.001393925,0.001393925,-0.001393925,0.001393925,-0.001393925,0.001393925,-0.00134259,0.00134259,-0.00134259,0.00134259,-0.00134259,0.00134259,-0.00134259,0.00134259,-7.02E-12,6.97E-12,-0.001369454,0.001369454,-1.25E-13,1.39E-13,-0.001393925,0.001393925,-0.001393925,0.001393925,-0.001393925,0.001393925,-0.001393925,0.001393925,-0.00134259,0.00134259,-0.00134259,0.00134259,0.737632945,0.764974823,1368840,32768,0.005689795,0.005689795,0.005689795,17.99666881,18.00020666,5.92E-05,5.92E-05,5.92E-05,285011.7376,0.017216094
24624000,0.999914191,0.016913647,0.005637882,0.005637882,0.005637882,-0.001369789,0.001369789,6.30E-12,-7.17E-12,3.72E-14,-9.86E-13,-0.001394174,0.001394174,-0.001394174,0.001394174,-0.001394174,0.001394174,-0.001394174,0.001394174,-0.001343002,0.001343002,-0.001343002,0.001343002,-7.63E-13,3.11E-13,3.98E-13,1.56E-13,-0.001369789,0.001369789,-0.001394174,0.001394174,-0.001394174,0.001394174,-0.001394174,0.001394174,-0.001394174,0.001394174,-0.001343002,0.001343002,-0.001343002,0.001343002,-0.001343002,0.001343002,-0.001343002,0.001343002,-7.03E-12,6.96E-12,-0.001369789,0.001369789,-1.56E-13,1.10E-13,-0.001394174,0.001394174,-0.001394174,0.001394174,-0.001394174,0.001394174,-0.001394174,0.001394174,-0.001343002,0.001343002,-0.001343002,0.001343002,0.742121447,0.829060584,1368840,32768,0.00569118,0.00569118,0.00569118,18.07727772,18.0808158,5.98E-05,5.98E-05,5.98E-05,279609.2111,0.01722032
24710400,0.999915808,0.016913673,0.005637891,0.005637891,0.005637891,-0.001370118,0.001370118,6.29E-12,-7.15E-12,5.73E-14,-9.65E-13,-0.001394421,0.001394421,-0.001394421,0.001394421,-0.001394421,0.001394421,-0.001394421,0.001394421,-0.001343407,0.001343407,-0.001343407,0.001343407,-7.70E-13,3.03E-13,4.01E-13,1.66E-13,-0.001370118,0.001370118,-0.001394421,0.001394421,-0.001394421,0.001394421,-0.001394421,0.001394421,-0.001394421,0.001394421,-0.001343407,0.001343407,-0.001343407,0.001343407,-0.001343407,0.001343407,-0.001343407,0.001343407,-6.94E-12,7.01E-12,-0.001370118,0.001370118,-1.08E-13,1.52E-13,-0.001394421,0.001394421,-0.001394421,0.001394421,-0.001394421,0.001394421,-0.001394421,0.001394421,-0.001343407,0.001343407,-0.001343407,0.001343407,0.741948578,0.803380461,1368840,32768,0.005692546,0.005692546,0.005692546,18.15788692,18.16142493,6.05E-05,6.05E-05,6.05E-05,274266.3629,0.01722449
24796800,0.999917403,0.016913698,0.005637899,0.005637899,0.005637899,-0.001370216,0.001370216,6.28E-12,-7.14E-12,6.59E-14,-8.58E-13,-0.001394543,0.001394543,-0.001394543,0.001394543,-0.001394543,0.001394543,-0.001394543,0.001394543,-0.00134348,0.00134348,-0.00134348,0.00134348,-7.46E-13,2.28E-13,4.26E-13,1.71E-13,-0.001370216,0.001370216,-0.001394543,0.001394543,-0.001394543,0.001394543,-0.001394543,0.001394543,-0.001394543,0.001394543,-0.00134348,0.00134348,-0.00134348,0.00134348,-0.00134348,0.00134348,-0.00134348,0.00134348,-6.99E-12,6.94E-12,-0.001370216,0.001370216,-1.72E-13,1.07E-13,-0.001394543,0.001394543,-0.001394543,0.001394543,-0.001394543,0.001394543,-0.001394543,0.001394543,-0.00134348,0.00134348,-0.00134348,0.00134348,0.717822126,0.439276197,1368840,32768,0.005692952,0.005692952,0.005692952,18.2384966,18.24203407,6.11E-05,6.11E-05,6.11E-05,275275.4016,0.017225728
24883200,0.999918975,0.016913723,0.005637908,0.005637908,0.005637908,-0.001369266,0.001369266,6.30E-12,-7.12E-12,2.86E-14,-8.63E-13,-0.001394143,0.001394143,-0.001394143,0.001394143,-0.001394143,0.001394143,-0.001394143,0.001394143,-0.00134203,0.00134203,-0.00134203,0.00134203,-7.24E-13,2.18E-13,4.11E-13,1.47E-13,-0.001369266,0.001369266,-0.001394143,0.001394143,-0.001394143,0.001394143,-0.001394143,0.001394143,-0.001394143,0.001394143,-0.00134203,0.00134203,-0.00134203,0.00134203,-0.00134203,0.00134203,-0.00134203,0.00134203,-6.98E-12,6.95E-12,-0.001369266,0.001369266,-1.59E-13,1.29E-13,-0.001394143,0.001394143,-0.001394143,0.001394143,-0.001394143,0.001394143,-0.001394143,0.001394143,-0.00134203,0.00134203,-0.00134203,0.00134203,0.72017119,0.491071449,1368840,32768,0.005689016,0.005689016,0.005689016,18.31910579,18.3226432,6.18E-05,6.18E-05,6.18E-05,307091.2697,0.017213719
24969600,0.999920532,0.016913748,0.005637916,0.005637916,0.005637916,-0.001369729,0.001369729,6.32E-12,-7.13E-12,6.15E-14,-8.64E-13,-0.001394526,0.001394526,-0.001394526,0.001394526,-0.001394526,0.001394526,-0.001394526,0.001394526,-0.001342566,0.001342566,-0.001342566,0.001342566,-6.76E-13,3.00E-13,4.50E-13,2.03E-13,-0.001369729,0.001369729,-0.001394526,0.001394526,-0.001394526,0.001394526,-0.001394526,0.001394526,-0.001394526,0.001394526,-0.001342566,0.001342566,-0.001342566,0.001342566,-0.001342566,0.001342566,-0.001342566,0.001342566,-7.04E-12,6.91E-12,-0.001369729,0.001369729,-2.36E-13,3.58E-14,-0.001394526,0.001394526,-0.001394526,0.001394526,-0.001394526,0.001394526,-0.001394526,0.001394526,-0.001342566,0.001342566,-0.001342566,0.001342566,0.722246578,0.536358532,1368840,32768,0.005690932,0.005690932,0.005690932,18.47176846,18.47839569,6.30E-05,6.30E-05,6.30E-05,301923.5462,0.017219567
25056000,0.999922086,0.016913772,0.005637924,0.005637924,0.005637924,-0.001370402,0.001370402,6.40E-12,-7.08E-12,8.69E-14,-8.87E-13,-0.00139513,0.00139513,-0.00139513,0.00139513,-0.00139513,0.00139513,-0.00139513,0.00139513,-0.001343302,0.001343302,-0.001343302,0.001343302,-6.81E-13,3.49E-13,4.34E-13,1.61E-13,-0.001370402,0.001370402,-0.00139513,0.00139513,-0.00139513,0.00139513,-0.00139513,0.00139513,-0.00139513,0.00139513,-0.001343302,0.001343302,-0.001343302,0.001343302,-0.001343302,0.001343302,-0.001343302,0.001343302,-7.07E-12,6.92E-12,-0.001370402,0.001370402,-3.16E-13,-1.98E-14,-0.00139513,0.00139513,-0.00139513,0.00139513,-0.00139513,0.00139513,-0.00139513,0.00139513,-0.001343302,0.001343302,-0.001343302,0.001343302,0.724431991,0.581645615,1368840,32768,0.00569372,0.00569372,0.00569372,18.74624757,18.75816815,6.52E-05,6.52E-05,6.52E-05,297467.0185,0.017228073
25142400,0.999923636,0.016913797,0.005637932,0.005637932,0.005637932,-0.001371081,0.001371081,6.49E-12,-7.08E-12,2.07E-13,-8.36E-13,-0.001395742,0.001395742,-0.001395742,0.001395742,-0.001395742,0.001395742,-0.001395742,0.001395742,-0.001344044,0.001344044,-0.001344044,0.001344044,-6.72E-13,4.24E-13,5.48E-13,3.03E-13,-0.001371081,0.001371081,-0.001395742,0.001395742,-0.001395742,0.001395742,-0.001395742,0.001395742,-0.001395742,0.001395742,-0.001344044,0.001344044,-0.001344044,0.001344044,-0.001344044,0.001344044,-0.001344044,0.001344044,-6.93E-12,7.16E-12,-0.001371081,0.001371081,-8.73E-14,1.82E-13,-0.001395742,0.001395742,-0.001395742,0.001395742,-0.001395742,0.001395742,-0.001395742,0.001395742,-0.001344044,0.001344044,-0.001344044,0.001344044,0.726726614,0.626932697,1368840,32768,0.005696534,0.005696534,0.005696534,19.02568723,19.03794062,6.74E-05,6.74E-05,6.74E-05,293134.8934,0.017236661
25228800,0.999925182,0.016913822,0.005637941,0.005637941,0.005637941,-0.001371757,0.001371757,6.35E-12,-7.24E-12,8.29E-14,-9.88E-13,-0.001396352,0.001396352,-0.001396352,0.001396352,-0.001396352,0.001396352,-0.001396352,0.001396352,-0.001344782,0.001344782,-0.001344782,0.001344782,-9.93E-13,1.27E-13,2.65E-13,2.29E-15,-0.001371757,0.001371757,-0.001396352,0.001396352,-0.001396352,0.001396352,-0.001396352,0.001396352,-0.001396352,0.001396352,-0.001344782,0.001344782,-0.001344782,0.001344782,-0.001344782,0.001344782,-0.001344782,0.001344782,-6.98E-12,7.12E-12,-0.001371757,0.001371757,-1.48E-13,1.39E-13,-0.001396352,0.001396352,-0.001396352,0.001396352,-0.001396352,0.001396352,-0.001396352,0.001396352,-0.001344782,0.001344782,-0.001344782,0.001344782,0.729157249,0.67221978,1368840,32768,0.005699337,0.005699337,0.005699337,19.30543723,19.31771308,6.96E-05,6.96E-05,6.96E-05,288892.4476,0.017245214
25315200,0.999926722,0.016913846,0.005637949,0.005637949,0.005637949,-0.001372431,0.001372431,6.35E-12,-7.20E-12,8.72E-14,-9.56E-13,-0.00139696,0.00139696,-0.00139696,0.00139696,-0.00139696,0.00139696,-0.00139696,0.00139696,-0.001345516,0.001345516,-0.001345516,0.001345516,-7.18E-13,3.76E-13,5.35E-13,2.47E-13,-0.001372431,0.001372431,-0.00139696,0.00139696,-0.00139696,0.00139696,-0.00139696,0.00139696,-0.00139696,0.00139696,-0.001345516,0.001345516,-0.001345516,0.001345516,-0.001345516,0.001345516,-0.001345516,0.001345516,-6.96E-12,7.11E-12,-0.001372431,0.001372431,-1.71E-13,1.40E-13,-0.00139696,0.00139696,-0.00139696,0.00139696,-0.00139696,0.00139696,-0.00139696,0.00139696,-0.001345516,0.001345516,-0.001345516,0.001345516,0.731805456,0.717506862,1368840,32768,0.005702126,0.005702126,0.005702126,19.58520791,19.59748554,7.19E-05,7.19E-05,7.19E-05,284748.6682,0.017253726
25401600,0.999928258,0.016913871,0.005637957,0.005637957,0.005637957,-0.001373101,0.001373101,6.32E-12,-7.17E-12,-3.92E-15,-9.98E-13,-0.001397567,0.001397567,-0.001397567,0.001397567,-0.001397567,0.001397567,-0.001397567,0.001397567,-0.001346245,0.001346245,-0.001346245,0.001346245,-8.13E-13,2.31E-13,4.49E-13,1.62E-13,-0.001373101,0.001373101,-0.001397567,0.001397567,-0.001397567,0.001397567,-0.001397567,0.001397567,-0.001397567,0.001397567,-0.001346245,0.001346245,-0.001346245,0.001346245,-0.001346245,0.001346245,-0.001346245,0.001346245,-7.03E-12,6.98E-12,-0.001373101,0.001373101,-1.29E-13,1.81E-13,-0.001397567,0.001397567,-0.001397567,0.001397567,-0.001397567,0.001397567,-0.001397567,0.001397567,-0.001346245,0.001346245,-0.001346245,0.001346245,0.740415924,0.86167392,1368840,32768,0.005704904,0.005704904,0.005704904,19.86497826,19.87725801,7.41E-05,7.41E-05,7.41E-05,280683.0292,0.017262202
25488000,0.999929786,0.016913896,0.005637965,0.005637965,0.005637965,-0.001374013,0.001374013,6.37E-12,-7.17E-12,7.02E-14,-9.27E-13,-0.00139829,0.00139829,-0.00139829,0.00139829,-0.00139829,0.00139829,-0.00139829,0.00139829,-0.00134733,0.00134733,-0.00134733,0.00134733,-6.67E-13,3.80E-13,5.14E-13,1.59E-13,-0.001374013,0.001374013,-0.00139829,0.00139829,-0.00139829,0.00139829,-0.00139829,0.00139829,-0.00139829,0.00139829,-0.00134733,0.00134733,-0.00134733,0.00134733,-0.00134733,0.00134733,-0.00134733,0.00134733,-6.99E-12,7.06E-12,-0.001374013,0.001374013,-2.02E-13,1.76E-13,-0.00139829,0.00139829,-0.00139829,0.00139829,-0.00139829,0.00139829,-0.00139829,0.00139829,-0.00134733,0.00134733,-0.00134733,0.00134733,0.747556153,0.952502322,1368840,32768,0.005708683,0.005708683,0.005708683,20.13938688,20.15703047,7.63E-05,7.63E-05,7.63E-05,269465.1889,0.017273734
25574400,0.999931308,0.016913921,0.005637974,0.005637974,0.005637974,-0.001374783,0.001374783,6.48E-12,-7.05E-12,6.79E-14,-7.38E-13,-0.001398944,0.001398944,-0.001398944,0.001398944,-0.001398944,0.001398944,-0.001398944,0.001398944,-0.001348202,0.001348202,-0.001348202,0.001348202,-6.54E-13,2.01E-13,4.66E-13,1.33E-13,-0.001374783,0.001374783,-0.001398944,0.001398944,-0.001398944,0.001398944,-0.001398944,0.001398944,-0.001398944,0.001398944,-0.001348202,0.001348202,-0.001348202,0.001348202,-0.001348202,0.001348202,-0.001348202,0.001348202,-7.14E-12,6.89E-12,-0.001374783,0.001374783,-2.31E-13,1.27E-13,-0.001398944,0.001398944,-0.001398944,0.001398944,-0.001398944,0.001398944,-0.001398944,0.001398944,-0.001348202,0.001348202,-0.001348202,0.001348202,0.748429158,0.899215987,1368840,32768,0.00571187,0.00571187,0.00571187,20.41866466,20.43680293,7.85E-05,7.85E-05,7.85E-05,262404.7614,0.017283461
25660800,0.999932823,0.016913946,0.005637982,0.005637982,0.005637982,-0.001375217,0.001375217,6.42E-12,-7.19E-12,1.21E-13,-8.31E-13,-0.001399424,0.001399424,-0.001399424,0.001399424,-0.001399424,0.001399424,-0.001399424,0.001399424,-0.001348587,0.001348587,-0.001348587,0.001348587,-7.28E-13,2.75E-13,4.21E-13,1.36E-13,-0.001375217,0.001375217,-0.001399424,0.001399424,-0.001399424,0.001399424,-0.001399424,0.001399424,-0.001399424,0.001399424,-0.001348587,0.001348587,-0.001348587,0.001348587,-0.001348587,0.001348587,-0.001348587,0.001348587,-7.04E-12,7.08E-12,-0.001375217,0.001375217,-1.17E-13,1.92E-13,-0.001399424,0.001399424,-0.001399424,0.001399424,-0.001399424,0.001399424,-0.001399424,0.001399424,-0.001348587,0.001348587,-0.001348587,0.001348587,0.748975874,0.86523706,1368840,32768,0.005713672,0.005713672,0.005713672,20.69837574,20.7165754,8.08E-05,8.08E-05,8.08E-05,264363.8746,0.01728896
25747200,0.999934318,0.016913971,0.00563799,0.00563799,0.00563799,-0.001375443,0.001375443,6.37E-12,-7.21E-12,5.49E-14,-9.06E-13,-0.001399683,0.001399683,-0.001399683,0.001399683,-0.001399683,0.001399683,-0.001399683,0.001399683,-0.001348777,0.001348777,-0.001348777,0.001348777,-7.37E-13,2.74E-13,4.41E-13,1.52E-13,-0.001375443,0.001375443,-0.001399683,0.001399683,-0.001399683,0.001399683,-0.001399683,0.001399683,-0.001399683,0.001399683,-0.001348777,0.001348777,-0.001348777,0.001348777,-0.001348777,0.001348777,-0.001348777,0.001348777,-7.06E-12,7.03E-12,-0.001375443,0.001375443,-1.61E-13,1.51E-13,-0.001399683,0.001399683,-0.001399683,0.001399683,-0.001399683,0.001399683,-0.001399683,0.001399683,-0.001348777,0.001348777,-0.001348777,0.001348777,0.747716869,0.818275658,1368840,32768,0.005714604,0.005714604,0.005714604,20.85069742,20.86088852,8.20E-05,8.20E-05,8.20E-05,265655.9362,0.017291806
25833600,0.999935776,0.016913995,0.005637998,0.005637998,0.005637998,-0.001375243,0.001375243,6.37E-12,-7.22E-12,3.99E-14,-9.06E-13,-0.00139954,0.00139954,-0.00139954,0.00139954,-0.00139954,0.00139954,-0.00139954,0.00139954,-0.001348523,0.001348523,-0.001348523,0.001348523,-7.42E-13,2.55E-13,4.33E-13,1.47E-13,-0.001375243,0.001375243,-0.00139954,0.00139954,-0.00139954,0.00139954,-0.00139954,0.00139954,-0.00139954,0.00139954,-0.001348523,0.001348523,-0.001348523,0.001348523,-0.001348523,0.001348523,-0.001348523,0.001348523,-7.06E-12,7.03E-12,-0.001375243,0.001375243,-1.59E-13,1.51E-13,-0.00139954,0.00139954,-0.00139954,0.00139954,-0.00139954,0.00139954,-0.00139954,0.00139954,-0.001348523,0.001348523,-0.001348523,0.001348523,0.74742157,0.799605679,1368840,32768,0.005713777,0.005713777,0.005713777,20.80371654,20.80110379,8.16E-05,8.16E-05,8.16E-05,268266.7256,0.017289283
25920000,0.999937196,0.016914018,0.005638006,0.005638006,0.005638006,-0.001375086,0.001375086,6.38E-12,-7.21E-12,5.75E-14,-8.91E-13,-0.001399406,0.001399406,-0.001399406,0.001399406,-0.001399406,0.001399406,-0.001399406,0.001399406,-0.001348344,0.001348344,-0.001348344,0.001348344,-7.49E-13,2.50E-13,4.18E-13,1.35E-13,-0.001375086,0.001375086,-0.001399406,0.001399406,-0.001399406,0.001399406,-0.001399406,0.001399406,-0.001399406,0.001399406,-0.001348344,0.001348344,-0.001348344,0.001348344,-0.001348344,0.001348344,-0.001348344,0.001348344,-7.06E-12,7.04E-12,-0.001375086,0.001375086,-1.60E-13,1.47E-13,-0.001399406,0.001399406,-0.001399406,0.001399406,-0.001399406,0.001399406,-0.001399406,0.001399406,-0.001348344,0.001348344,-0.001348344,0.001348344,0.746792984,0.780935701,1368840,32768,0.005713128,0.005713128,0.005713128,20.74508625,20.74131907,8.12E-05,8.12E-05,8.12E-05,269070.2315,0.017287301
26006400,0.99993858,0.01691404,0.005638013,0.005638013,0.005638013,-0.001374925,0.001374925,6.34E-12,-7.20E-12,3.36E-14,-9.27E-13,-0.001399268,0.001399268,-0.001399268,0.001399268,-0.001399268,0.001399268,-0.001399268,0.001399268,-0.00134816,0.00134816,-0.00134816,0.00134816,-7.25E-13,2.86E-13,4.32E-13,1.46E-13,-0.001374925,0.001374925,-0.001399268,0.001399268,-0.001399268,0.001399268,-0.001399268,0.001399268,-0.001399268,0.001399268,-0.00134816,0.00134816,-0.00134816,0.00134816,-0.00134816,0.00134816,-0.00134816,0.00134816,-7.03E-12,7.03E-12,-0.001374925,0.001374925,-1.40E-13,1.71E-13,-0.001399268,0.001399268,-0.001399268,0.001399268,-0.001399268,0.001399268,-0.001399268,0.001399268,-0.00134816,0.00134816,-0.00134816,0.00134816,0.74152878,0.696521683,1368840,32768,0.00571246,0.00571246,0.00571246,20.6854113,20.68153435,8.07E-05,8.07E-05,8.07E-05,269975.9354,0.017285262
26092800,0.999939928,0.016914062,0.005638021,0.005638021,0.005638021,-0.001374583,0.001374583,6.35E-12,-7.20E-12,4.59E-14,-9.28E-13,-0.001399039,0.001399039,-0.001399039,0.001399039,-0.001399039,0.001399039,-0.001399039,0.001399039,-0.001347713,0.001347713,-0.001347713,0.001347713,-7.22E-13,3.03E-13,4.41E-13,1.53E-13,-0.001374583,0.001374583,-0.001399039,0.001399039,-0.001399039,0.001399039,-0.001399039,0.001399039,-0.001399039,0.001399039,-0.001347713,0.001347713,-0.001347713,0.001347713,-0.001347713,0.001347713,-0.001347713,0.001347713,-7.05E-12,7.00E-12,-0.001374583,0.001374583,-1.56E-13,1.56E-13,-0.001399039,0.001399039,-0.001399039,0.001399039,-0.001399039,0.001399039,-0.001399039,0.001399039,-0.001347713,0.001347713,-0.001347713,0.001347713,0.730548614,0.538396866,1368840,32768,0.005711041,0.005711041,0.005711041,20.62563616,20.62174963,8.02E-05,8.02E-05,8.02E-05,276113.2406,0.017280934
26179200,0.999941242,0.016914083,0.005638028,0.005638028,0.005638028,-0.001373994,0.001373994,6.36E-12,-7.20E-12,5.71E-14,-9.27E-13,-0.001398689,0.001398689,-0.001398689,0.001398689,-0.001398689,0.001398689,-0.001398689,0.001398689,-0.001346908,0.001346908,-0.001346908,0.001346908,-7.53E-13,2.81E-13,4.16E-13,1.61E-13,-0.001373994,0.001373994,-0.001398689,0.001398689,-0.001398689,0.001398689,-0.001398689,0.001398689,-0.001398689,0.001398689,-0.001346908,0.001346908,-0.001346908,0.001346908,-0.001346908,0.001346908,-0.001346908,0.001346908,-7.05E-12,7.02E-12,-0.001373994,0.001373994,-1.55E-13,1.23E-13,-0.001398689,0.001398689,-0.001398689,0.001398689,-0.001398689,0.001398689,-0.001398689,0.001398689,-0.001346908,0.001346908,-0.001346908,0.001346908,0.743244939,0.780021899,1368840,32768,0.005708604,0.005708604,0.005708604,20.56585255,20.56196491,7.97E-05,7.97E-05,7.97E-05,289578.5877,0.017273496
26265600,0.999942523,0.016914105,0.005638035,0.005638035,0.005638035,-0.001374556,0.001374556,6.33E-12,-7.15E-12,5.28E-14,-9.01E-13,-0.001398922,0.001398922,-0.001398922,0.001398922,-0.001398922,0.001398922,-0.001398922,0.001398922,-0.001347775,0.001347776,-0.001347776,0.001347775,-7.30E-13,2.74E-13,4.02E-13,1.63E-13,-0.001374556,0.001374556,-0.001398922,0.001398922,-0.001398922,0.001398922,-0.001398922,0.001398922,-0.001398922,0.001398922,-0.001347776,0.001347776,-0.001347776,0.001347776,-0.001347776,0.001347776,-0.001347776,0.001347776,-7.02E-12,6.96E-12,-0.001374556,0.001374556,-1.61E-13,1.02E-13,-0.001398922,0.001398922,-0.001398922,0.001398922,-0.001398922,0.001398922,-0.001398922,0.001398922,-0.001347775,0.001347776,-0.001347776,0.001347775,0.751940749,0.925600673,1368840,32768,0.00571093,0.00571093,0.00571093,20.50606905,20.50218018,7.92E-05,7.92E-05,7.92E-05,270180.2823,0.017280595
26352000,0.999943771,0.016914125,0.005638042,0.005638042,0.005638042,-0.001374801,0.001374801,6.32E-12,-7.17E-12,5.50E-14,-9.09E-13,-0.001398992,0.001398992,-0.001398992,0.001398992,-0.001398992,0.001398992,-0.001398992,0.001398992,-0.001348183,0.001348183,-0.001348183,0.001348183,-7.14E-13,3.01E-13,4.27E-13,1.91E-13,-0.001374801,0.001374801,-0.001398992,0.001398992,-0.001398992,0.001398992,-0.001398992,0.001398992,-0.001398992,0.001398992,-0.001348183,0.001348183,-0.001348183,0.001348183,-0.001348183,0.001348183,-0.001348183,0.001348183,-7.03E-12,6.98E-12,-0.001374801,0.001374801,-1.50E-13,1.10E-13,-0.001398992,0.001398992,-0.001398992,0.001398992,-0.001398992,0.001398992,-0.001398992,0.001398992,-0.001348183,0.001348183,-0.001348183,0.001348183,0.752724449,0.887401647,1368840,32768,0.005711947,0.005711947,0.005711947,20.44628357,20.44239546,7.88E-05,7.88E-05,7.88E-05,259724.4769,0.017283697
26438400,0.999944987,0.016914145,0.005638048,0.005638048,0.005638048,-0.001374611,0.001374611,6.34E-12,-7.18E-12,4.58E-14,-9.12E-13,-0.001398833,0.001398833,-0.001398833,0.001398833,-0.001398833,0.001398833,-0.001398833,0.001398833,-0.001347958,0.001347958,-0.001347958,0.001347958,-7.27E-13,2.81E-13,4.07E-13,1.87E-13,-0.001374611,0.001374611,-0.001398833,0.001398833,-0.001398833,0.001398833,-0.001398833,0.001398833,-0.001398833,0.001398833,-0.001347958,0.001347958,-0.001347958,0.001347958,-0.001347958,0.001347958,-0.001347958,0.001347958,-7.03E-12,6.99E-12,-0.001374611,0.001374611,-1.46E-13,9.77E-14,-0.001398833,0.001398833,-0.001398833,0.001398833,-0.001398833,0.001398833,-0.001398833,0.001398833,-0.001347958,0.001347958,-0.001347958,0.001347958,0.757346976,0.931364396,1368840,32768,0.00571116,0.00571116,0.00571116,20.386499,20.38261074,7.83E-05,7.83E-05,7.83E-05,260998.7455,0.017281295
26524800,0.99994618,0.016914165,0.005638055,0.005638055,0.005638055,-0.0013748,0.0013748,6.34E-12,-7.17E-12,5.40E-14,-9.02E-13,-0.001398962,0.001398962,-0.001398962,0.001398962,-0.001398962,0.001398962,-0.001398962,0.001398962,-0.001348197,0.001348197,-0.001348197,0.001348197,-7.35E-13,2.72E-13,4.09E-13,1.74E-13,-0.0013748,0.0013748,-0.001398962,0.001398962,-0.001398962,0.001398962,-0.001398962,0.001398962,-0.001398962,0.001398962,-0.001348197,0.001348197,-0.001348197,0.001348197,-0.001348197,0.001348197,-0.001348197,0.001348197,-7.02E-12,7.00E-12,-0.0013748,0.0013748,-1.49E-13,1.11E-13,-0.001398962,0.001398962,-0.001398962,0.001398962,-0.001398962,0.001398962,-0.001398962,0.001398962,-0.001348197,0.001348197,-0.001348197,0.001348197,0.759177781,0.916921493,1368840,32768,0.005711941,0.005711941,0.005711941,20.42554389,20.42787039,7.86E-05,7.86E-05,7.86E-05,257170.9,0.01728368
26611200,0.99994736,0.016914185,0.005638062,0.005638062,0.005638062,-0.001375128,0.001375128,6.34E-12,-7.16E-12,8.56E-14,-8.95E-13,-0.001399294,0.001399294,-0.001399294,0.001399294,-0.001399294,0.001399294,-0.001399294,0.001399294,-0.001348516,0.001348516,-0.001348516,0.001348516,-7.39E-13,2.92E-13,4.26E-13,1.98E-13,-0.001375128,0.001375128,-0.001399294,0.001399294,-0.001399294,0.001399294,-0.001399294,0.001399294,-0.001399294,0.001399294,-0.001348516,0.001348516,-0.001348516,0.001348516,-0.001348516,0.001348516,-0.001348516,0.001348516,-7.02E-12,6.98E-12,-0.001375128,0.001375128,-1.38E-13,1.15E-13,-0.001399294,0.001399294,-0.001399294,0.001399294,-0.001399294,0.001399294,-0.001399294,0.001399294,-0.001348516,0.001348516,-0.001348516,0.001348516,0.758886951,0.877267516,1368840,32768,0.005713301,0.005713301,0.005713301,20.60640344,20.6178561,8.01E-05,8.01E-05,8.01E-05,256964.1173,0.017287829
26697600,0.999948528,0.016914204,0.005638068,0.005638068,0.005638068,-0.001375409,0.001375409,6.39E-12,-7.14E-12,3.65E-14,-8.85E-13,-0.001399613,0.001399613,-0.001399613,0.001399613,-0.001399613,0.001399613,-0.001399613,0.001399613,-0.001348758,0.001348758,-0.001348758,0.001348758,-7.43E-13,2.28E-13,3.57E-13,1.52E-13,-0.001375409,0.001375409,-0.001399613,0.001399613,-0.001399613,0.001399613,-0.001399613,0.001399613,-0.001399613,0.001399613,-0.001348758,0.001348758,-0.001348758,0.001348758,-0.001348758,0.001348758,-0.001348758,0.001348758,-7.09E-12,6.95E-12,-0.001375409,0.001375409,-1.64E-13,6.47E-14,-0.001399613,0.001399613,-0.001399613,0.001399613,-0.001399613,0.001399613,-0.001399613,0.001399613,-0.001348758,0.001348758,-0.001348758,0.001348758,0.757684663,0.837613539,1368840,32768,0.005714464,0.005714464,0.005714464,20.79556043,20.80784181,8.16E-05,8.16E-05,8.16E-05,258693.469,0.017291379
26784000,0.999949683,0.016914223,0.005638074,0.005638074,0.005638074,-0.001375684,0.001375684,6.35E-12,-7.14E-12,7.02E-14,-8.68E-13,-0.001399933,0.001399933,-0.001399933,0.001399933,-0.001399933,0.001399933,-0.001399933,0.001399933,-0.001348989,0.001348989,-0.001348989,0.001348989,-7.49E-13,2.39E-13,3.02E-13,1.51E-13,-0.001375684,0.001375684,-0.001399933,0.001399933,-0.001399933,0.001399933,-0.001399933,0.001399933,-0.001399933,0.001399933,-0.001348989,0.001348989,-0.001348989,0.001348989,-0.001348989,0.001348989,-0.001348989,0.001348989,-7.06E-12,6.94E-12,-0.001375684,0.001375684,-1.08E-13,6.80E-14,-0.001399933,0.001399933,-0.001399933,0.001399933,-0.001399933,0.001399933,-0.001399933,0.001399933,-0.001348989,0.001348989,-0.001348989,0.001348989,0.755735983,0.797959562,1368840,32768,0.005715603,0.005715603,0.005715603,20.98546119,20.99782752,8.31E-05,8.31E-05,8.31E-05,260785.4253,0.017294855
26870400,0.999950825,0.016914242,0.005638081,0.005638081,0.005638081,-0.001375952,0.001375952,6.33E-12,-7.18E-12,9.69E-14,-8.88E-13,-0.001400251,0.001400251,-0.001400251,0.001400251,-0.001400251,0.001400251,-0.001400251,0.001400251,-0.001349211,0.001349211,-0.001349211,0.001349211,-7.36E-13,2.99E-13,3.54E-13,2.33E-13,-0.001375952,0.001375952,-0.001400251,0.001400251,-0.001400251,0.001400251,-0.001400251,0.001400251,-0.001400251,0.001400251,-0.001349211,0.001349211,-0.001349211,0.001349211,-0.001349211,0.001349211,-0.001349211,0.001349211,-7.06E-12,6.96E-12,-0.001375952,0.001375952,-1.46E-13,-2.26E-16,-0.001400251,0.001400251,-0.001400251,0.001400251,-0.001400251,0.001400251,-0.001400251,0.001400251,-0.001349211,0.001349211,-0.001349211,0.001349211,0.753216545,0.758305586,1368840,32768,0.005716716,0.005716716,0.005716716,21.17543336,21.18781323,8.46E-05,8.46E-05,8.46E-05,263176.2573,0.017298251
26956800,0.999951955,0.016914261,0.005638087,0.005638087,0.005638087,-0.001376215,0.001376215,6.33E-12,-7.19E-12,1.10E-13,-9.09E-13,-0.001400567,0.001400567,-0.001400567,0.001400567,-0.001400567,0.001400567,-0.001400567,0.001400567,-0.001349424,0.001349424,-0.001349424,0.001349424,-6.90E-13,3.80E-13,4.07E-13,2.88E-13,-0.001376215,0.001376215,-0.001400567,0.001400567,-0.001400567,0.001400567,-0.001400567,0.001400567,-0.001400567,0.001400567,-0.001349424,0.001349424,-0.001349424,0.001349424,-0.001349424,0.001349424,-0.001349424,0.001349424,-7.10E-12,6.93E-12,-0.001376215,0.001376215,-1.52E-13,-7.87E-15,-0.001400567,0.001400567,-0.001400567,0.001400567,-0.001400567,0.001400567,-0.001400567,0.001400567,-0.001349424,0.001349424,-0.001349424,0.001349424,0.75029979,0.718651609,1368840,32768,0.005717805,0.005717805,0.005717805,21.36541231,21.37779894,8.61E-05,8.61E-05,8.61E-05,265814.7224,0.017301575
27043200,0.999953071,0.016914279,0.005638093,0.005638093,0.005638093,-0.001376473,0.001376473,6.37E-12,-7.17E-12,1.24E-13,-8.58E-13,-0.001400882,0.001400882,-0.001400882,0.001400882,-0.001400882,0.001400882,-0.001400882,0.001400882,-0.00134963,0.00134963,-0.00134963,0.00134963,-7.45E-13,2.87E-13,3.34E-13,2.30E-13,-0.001376473,0.001376473,-0.001400882,0.001400882,-0.001400882,0.001400882,-0.001400882,0.001400882,-0.001400882,0.001400882,-0.00134963,0.00134963,-0.00134963,0.00134963,-0.00134963,0.00134963,-0.00134963,0.00134963,-7.16E-12,6.89E-12,-0.001376473,0.001376473,-2.09E-13,-8.00E-14,-0.001400882,0.001400882,-0.001400882,0.001400882,-0.001400882,0.001400882,-0.001400882,0.001400882,-0.00134963,0.00134963,-0.00134963,0.00134963,0.747118251,0.678997632,1368840,32768,0.005718873,0.005718873,0.005718873,21.55539167,21.56778465,8.76E-05,8.76E-05,8.76E-05,268660.2928,0.017304837
27129600,0.999954174,0.016914297,0.005638099,0.005638099,0.005638099,-0.001376727,0.001376727,6.43E-12,-7.11E-12,1.43E-13,-7.93E-13,-0.001401194,0.001401194,-0.001401194,0.001401194,-0.001401194,0.001401194,-0.001401194,0.001401194,-0.001349829,0.001349829,-0.001349829,0.001349829,-6.29E-13,3.57E-13,5.15E-13,2.96E-13,-0.001376727,0.001376727,-0.001401194,0.001401194,-0.001401194,0.001401194,-0.001401194,0.001401194,-0.001401194,0.001401194,-0.001349829,0.001349829,-0.001349829,0.001349829,-0.001349829,0.001349829,-0.001349829,0.001349829,-7.10E-12,6.95E-12,-0.001376727,0.001376727,-2.34E-13,1.07E-14,-0.001401194,0.001401194,-0.001401194,0.001401194,-0.001401194,0.001401194,-0.001401194,0.001401194,-0.001349829,0.001349829,-0.001349829,0.001349829,0.743755121,0.639343656,1368840,32768,0.005719924,0.005719924,0.005719924,21.74537085,21.75777036,8.92E-05,8.92E-05,8.92E-05,271671.1562,0.017308043
27216000,0.999955263,0.016914315,0.005638105,0.005638105,0.005638105,-0.001376976,0.001376976,6.33E-12,-7.19E-12,6.87E-14,-8.89E-13,-0.001401505,0.001401505,-0.001401505,0.001401505,-0.001401505,0.001401505,-0.001401505,0.001401505,-0.001350023,0.001350023,-0.001350023,0.001350023,-7.79E-13,2.29E-13,3.14E-13,2.25E-13,-0.001376976,0.001376976,-0.001401505,0.001401505,-0.001401505,0.001401505,-0.001401505,0.001401505,-0.001401505,0.001401505,-0.001350023,0.001350023,-0.001350023,0.001350023,-0.001350023,0.001350023,-0.001350023,0.001350023,-7.11E-12,6.93E-12,-0.001376976,0.001376976,-1.50E-13,-3.62E-14,-0.001401505,0.001401505,-0.001401505,0.001401505,-0.001401505,0.001401505,-0.001401505,0.001401505,-0.001350023,0.001350023,-0.001350023,0.001350023,0.740261445,0.599689679,1368840,32768,0.005720957,0.005720957,0.005720957,21.93534982,21.94775607,9.07E-05,9.07E-05,9.07E-05,274834.9259,0.017311196
27302400,0.999956337,0.016914332,0.005638111,0.005638111,0.005638111,-0.001377161,0.001377161,6.36E-12,-7.16E-12,6.12E-14,-8.71E-13,-0.001401754,0.001401754,-0.001401754,0.001401754,-0.001401754,0.001401754,-0.001401754,0.001401754,-0.001350151,0.001350151,-0.001350151,0.001350151,-7.86E-13,1.96E-13,2.81E-13,1.60E-13,-0.001377161,0.001377161,-0.001401754,0.001401754,-0.001401754,0.001401754,-0.001401754,0.001401754,-0.001401754,0.001401754,-0.001350151,0.001350151,-0.001350151,0.001350151,-0.001350151,0.001350151,-0.001350151,0.001350151,-7.06E-12,6.97E-12,-0.001377161,0.001377161,-1.38E-13,6.63E-15,-0.001401754,0.001401754,-0.001401754,0.001401754,-0.001401754,0.001401754,-0.001401754,0.001401754,-0.001350151,0.001350151,-0.001350151,0.001350151,0.739667708,0.605764598,1368840,32768,0.005721723,0.005721723,0.005721723,22.09409549,22.10453521,9.20E-05,9.20E-05,9.20E-05,278158.3906,0.017313534
27388800,0.999957393,0.016914349,0.005638116,0.005638116,0.005638116,-0.001377399,0.001377399,6.36E-12,-7.17E-12,1.55E-14,-8.79E-13,-0.001401992,0.001401992,-0.001401992,0.001401992,-0.001401992,0.001401992,-0.001401992,0.001401992,-0.00135039,0.00135039,-0.00135039,0.00135039,-6.86E-13,2.59E-13,3.53E-13,2.71E-13,-0.001377399,0.001377399,-0.001401992,0.001401992,-0.001401992,0.001401992,-0.001401992,0.001401992,-0.001401992,0.001401992,-0.00135039,0.00135039,-0.00135039,0.00135039,-0.00135039,0.00135039,-0.00135039,0.00135039,-7.09E-12,6.95E-12,-0.001377399,0.001377399,-9.99E-14,7.22E-15,-0.001401992,0.001401992,-0.001401992,0.001401992,-0.001401992,0.001401992,-0.001401992,0.001401992,-0.00135039,0.00135039,-0.00135039,0.00135039,0.744214473,0.693659678,1368840,32768,0.005722709,0.005722709,0.005722709,22.21164945,22.21942656,9.29E-05,9.29E-05,9.29E-05,277696.5209,0.017316542
27475200,0.99995843,0.016914366,0.005638122,0.005638122,0.005638122,-0.001377864,0.001377864,6.34E-12,-7.18E-12,2.45E-14,-8.79E-13,-0.00140234,0.00140234,-0.00140234,0.00140234,-0.00140234,0.00140234,-0.00140234,0.00140234,-0.001350965,0.001350965,-0.001350965,0.001350965,-7.24E-13,2.30E-13,3.16E-13,2.50E-13,-0.001377864,0.001377864,-0.00140234,0.00140234,-0.00140234,0.00140234,-0.00140234,0.00140234,-0.00140234,0.00140234,-0.001350965,0.001350965,-0.001350965,0.001350965,-0.001350965,0.001350965,-0.001350965,0.001350965,-7.05E-12,6.97E-12,-0.001377864,0.001377864,-8.95E-14,1.34E-15,-0.00140234,0.00140234,-0.00140234,0.00140234,-0.00140234,0.00140234,-0.00140234,0.00140234,-0.001350965,0.001350965,-0.001350965,0.001350965,0.745222785,0.714815643,1368840,32768,0.005724635,0.005724635,0.005724635,22.32677951,22.33431791,9.38E-05,9.38E-05,9.38E-05,270550.9685,0.017322422
27561600,0.999959449,0.016914383,0.005638128,0.005638128,0.005638128,-0.001378143,0.001378143,6.36E-12,-7.16E-12,4.17E-14,-8.55E-13,-0.001402592,0.001402592,-0.001402592,0.001402592,-0.001402592,0.001402592,-0.001402592,0.001402592,-0.001351269,0.001351269,-0.001351269,0.001351269,-7.30E-13,2.17E-13,3.16E-13,2.27E-13,-0.001378143,0.001378143,-0.001402592,0.001402592,-0.001402592,0.001402592,-0.001402592,0.001402592,-0.001402592,0.001402592,-0.001351269,0.001351269,-0.001351269,0.001351269,-0.001351269,0.001351269,-0.001351269,0.001351269,-7.05E-12,6.98E-12,-0.001378143,0.001378143,-9.69E-14,1.71E-14,-0.001402592,0.001402592,-0.001402592,0.001402592,-0.001402592,0.001402592,-0.001402592,0.001402592,-0.001351269,0.001351269,-0.001351269,0.001351269,0.746416179,0.735971608,1368840,32768,0.00572579,0.00572579,0.00572579,22.44169121,22.44920925,9.47E-05,9.47E-05,9.47E-05,268637.0726,0.017325946
27648000,0.99996045,0.016914399,0.005638133,0.005638133,0.005638133,-0.001378422,0.001378422,6.35E-12,-7.15E-12,4.20E-14,-8.95E-13,-0.001402843,0.001402843,-0.001402843,0.001402843,-0.001402843,0.001402843,-0.001402843,0.001402843,-0.001351574,0.001351574,-0.001351574,0.001351574,-7.34E-13,2.53E-13,3.46E-13,2.37E-13,-0.001378422,0.001378422,-0.001402843,0.001402843,-0.001402843,0.001402843,-0.001402843,0.001402843,-0.001402843,0.001402843,-0.001351574,0.001351574,-0.001351574,0.001351574,-0.001351574,0.001351574,-0.001351574,0.001351574,-7.04E-12,6.97E-12,-0.001378422,0.001378422,-1.08E-13,2.60E-14,-0.001402843,0.001402843,-0.001402843,0.001402843,-0.001402843,0.001402843,-0.001402843,0.001402843,-0.001351574,0.001351574,-0.001351574,0.001351574,0.747821262,0.757127573,1368840,32768,0.005726946,0.005726946,0.005726946,22.55658174,22.5641006,9.57E-05,9.57E-05,9.57E-05,266698.6901,0.017329472
27734400,0.999961433,0.016914416,0.005638139,0.005638139,0.005638139,-0.001378701,0.001378701,6.35E-12,-7.15E-12,3.87E-14,-9.05E-13,-0.001403095,0.001403095,-0.001403095,0.001403095,-0.001403095,0.001403095,-0.001403095,0.001403095,-0.001351879,0.001351879,-0.001351879,0.001351879,-7.39E-13,2.55E-13,3.29E-13,2.36E-13,-0.001378701,0.001378701,-0.001403095,0.001403095,-0.001403095,0.001403095,-0.001403095,0.001403095,-0.001403095,0.001403095,-0.001351879,0.001351879,-0.001351879,0.001351879,-0.001351879,0.001351879,-0.001351879,0.001351879,-7.04E-12,6.96E-12,-0.001378701,0.001378701,-1.04E-13,1.43E-14,-0.001403095,0.001403095,-0.001403095,0.001403095,-0.001403095,0.001403095,-0.001403095,0.001403095,-0.001351879,0.001351879,-0.001351879,0.001351879,0.749467053,0.778283539,1368840,32768,0.005728102,0.005728102,0.005728102,22.67147008,22.67899195,9.66E-05,9.66E-05,9.66E-05,264731.0702,0.017333001
27820800,0.999962398,0.016914432,0.005638144,0.005638144,0.005638144,-0.00137898,0.00137898,6.32E-12,-7.15E-12,4.21E-14,-9.20E-13,-0.001403346,0.001403346,-0.001403346,0.001403346,-0.001403346,0.001403346,-0.001403346,0.001403346,-0.001352183,0.001352183,-0.001352183,0.001352183,-7.65E-13,2.47E-13,3.38E-13,2.30E-13,-0.00137898,0.00137898,-0.001403346,0.001403346,-0.001403346,0.001403346,-0.001403346,0.001403346,-0.001403346,0.001403346,-0.001352183,0.001352183,-0.001352183,0.001352183,-0.001352183,0.001352183,-0.001352183,0.001352183,-7.05E-12,6.93E-12,-0.00137898,0.00137898,-1.38E-13,-5.84E-15,-0.001403346,0.001403346,-0.001403346,0.001403346,-0.001403346,0.001403346,-0.001403346,0.001403346,-0.001352183,0.001352183,-0.001352183,0.001352183,0.751376735,0.799439504,1368840,32768,0.005729259,0.005729259,0.005729259,22.78635808,22.7938833,9.75E-05,9.75E-05,9.75E-05,262736.4917,0.017336532
27907200,0.999963346,0.016914447,0.005638149,0.005638149,0.005638149,-0.001379259,0.001379259,6.25E-12,-7.23E-12,-4.28E-14,-9.60E-13,-0.001403598,0.001403598,-0.001403598,0.001403598,-0.001403598,0.001403598,-0.001403598,0.001403598,-0.001352487,0.001352487,-0.001352487,0.001352487,-6.92E-13,2.75E-13,3.76E-13,2.78E-13,-0.001379259,0.001379259,-0.001403598,0.001403598,-0.001403598,0.001403598,-0.001403598,0.001403598,-0.001403598,0.001403598,-0.001352487,0.001352487,-0.001352487,0.001352487,-0.001352487,0.001352487,-0.001352487,0.001352487,-7.10E-12,6.88E-12,-0.001379259,0.001379259,-1.87E-13,-6.31E-14,-0.001403598,0.001403598,-0.001403598,0.001403598,-0.001403598,0.001403598,-0.001403598,0.001403598,-0.001352487,0.001352487,-0.001352487,0.001352487,0.753559897,0.820595469,1368840,32768,0.005730416,0.005730416,0.005730416,22.90124591,22.90877464,9.84E-05,9.84E-05,9.84E-05,260710.8494,0.017340064
27993600,0.999964276,0.016914463,0.005638154,0.005638154,0.005638154,-0.001379539,0.001379539,6.31E-12,-7.18E-12,2.16E-14,-9.11E-13,-0.001403848,0.001403848,-0.001403848,0.001403848,-0.001403848,0.001403848,-0.001403848,0.001403848,-0.001352792,0.001352792,-0.001352792,0.001352792,-6.77E-13,3.06E-13,3.69E-13,2.75E-13,-0.001379539,0.001379539,-0.001403848,0.001403848,-0.001403848,0.001403848,-0.001403848,0.001403848,-0.001403848,0.001403848,-0.001352792,0.001352792,-0.001352792,0.001352792,-0.001352792,0.001352792,-0.001352792,0.001352792,-7.04E-12,6.96E-12,-0.001379539,0.001379539,-5.55E-14,6.25E-14,-0.001403848,0.001403848,-0.001403848,0.001403848,-0.001403848,0.001403848,-0.001403848,0.001403848,-0.001352792,0.001352792,-0.001352792,0.001352792,0.756009383,0.841751434,1368840,32768,0.005731574,0.005731574,0.005731574,23.0161336,23.02366599,9.93E-05,9.93E-05,9.93E-05,258644.1423,0.017343598
28080000,0.999965188,0.016914478,0.005638159,0.005638159,0.005638159,-0.001379791,0.001379791,6.33E-12,-7.16E-12,3.07E-14,-8.58E-13,-0.001404072,0.001404072,-0.001404072,0.001404072,-0.001404072,0.001404072,-0.001404072,0.001404072,-0.001353068,0.001353068,-0.001353068,0.001353068,-6.96E-13,2.43E-13,3.60E-13,2.36E-13,-0.001379791,0.001379791,-0.001404072,0.001404072,-0.001404072,0.001404072,-0.001404072,0.001404072,-0.001404072,0.001404072,-0.001353068,0.001353068,-0.001353068,0.001353068,-0.001353068,0.001353068,-0.001353068,0.001353068,-6.97E-12,7.02E-12,-0.001379791,0.001379791,-3.04E-14,1.19E-13,-0.001404072,0.001404072,-0.001404072,0.001404072,-0.001404072,0.001404072,-0.001404072,0.001404072,-0.001353068,0.001353068,-0.001353068,0.001353068,0.75870349,0.862907399,1368840,32768,0.005732618,0.005732618,0.005732618,23.1167803,23.1234133,0.000100134,0.000100134,0.000100134,256558.4609,0.017346783
28166400,0.999966081,0.016914493,0.005638164,0.005638164,0.005638164,-0.001380009,0.001380009,6.31E-12,-7.15E-12,2.54E-14,-8.61E-13,-0.001404261,0.001404261,-0.001404261,0.001404261,-0.001404261,0.001404261,-0.001404261,0.001404261,-0.001353311,0.001353311,-0.001353311,0.001353311,-7.56E-13,1.81E-13,3.17E-13,2.04E-13,-0.001380009,0.001380009,-0.001404261,0.001404261,-0.001404261,0.001404261,-0.001404261,0.001404261,-0.001404261,0.001404261,-0.001353311,0.001353311,-0.001353311,0.001353311,-0.001353311,0.001353311,-0.001353311,0.001353311,-6.98E-12,6.99E-12,-0.001380009,0.001380009,-4.60E-14,9.22E-14,-0.001404261,0.001404261,-0.001404261,0.001404261,-0.001404261,0.001404261,-0.001404261,0.001404261,-0.001353311,0.001353311,-0.001353311,0.001353311,0.761612665,0.884063365,1368840,32768,0.005733522,0.005733522,0.005733522,23.20014487,23.2056549,0.000100801,0.000100801,0.000100801,254457.4845,0.017349543
28252800,0.999966956,0.016914507,0.005638169,0.005638169,0.005638169,-0.001380225,0.001380225,6.32E-12,-7.13E-12,3.44E-15,-8.71E-13,-0.001404448,0.001404448,-0.001404448,0.001404448,-0.001404448,0.001404448,-0.001404448,0.001404448,-0.001353551,0.001353551,-0.001353551,0.001353551,-7.16E-13,2.06E-13,3.31E-13,2.18E-13,-0.001380225,0.001380225,-0.001404448,0.001404448,-0.001404448,0.001404448,-0.001404448,0.001404448,-0.001404448,0.001404448,-0.001353551,0.001353551,-0.001353551,0.001353551,-0.001353551,0.001353551,-0.001353551,0.001353551,-7.04E-12,6.92E-12,-0.001380225,0.001380225,-1.22E-13,1.64E-14,-0.001404448,0.001404448,-0.001404448,0.001404448,-0.001404448,0.001404448,-0.001404448,0.001404448,-0.001353551,0.001353551,-0.001353551,0.001353551,0.764706345,0.90521933,1368840,32768,0.005734417,0.005734417,0.005734417,23.2824865,23.28789651,0.00010146,0.00010146,0.00010146,252340.2462,0.017352273
28339200,0.999967812,0.016914522,0.005638174,0.005638174,0.005638174,-0.00138044,0.00138044,6.34E-12,-7.11E-12,2.10E-14,-8.55E-13,-0.001404633,0.001404633,-0.001404633,0.001404633,-0.001404633,0.001404633,-0.001404633,0.001404633,-0.001353791,0.001353791,-0.001353791,0.001353791,-7.17E-13,2.09E-13,3.14E-13,2.11E-13,-0.00138044,0.00138044,-0.001404633,0.001404633,-0.001404633,0.001404633,-0.001404633,0.001404633,-0.001404633,0.001404633,-0.001353791,0.001353791,-0.001353791,0.001353791,-0.001353791,0.001353791,-0.001353791,0.001353791,-7.03E-12,6.93E-12,-0.00138044,0.00138044,-1.00E-13,2.82E-14,-0.001404633,0.001404633,-0.001404633,0.001404633,-0.001404633,0.001404633,-0.001404633,0.001404633,-0.001353791,0.001353791,-0.001353791,0.001353791,0.767955003,0.926375295,1368840,32768,0.005735308,0.005735308,0.005735308,23.36473564,23.37013811,0.000102118,0.000102118,0.000102118,250213.7516,0.017354993
28425600,0.99996865,0.016914536,0.005638179,0.005638179,0.005638179,-0.001380654,0.001380654,6.29E-12,-7.14E-12,1.33E-14,-8.77E-13,-0.001404818,0.001404818,-0.001404818,0.001404818,-0.001404818,0.001404818,-0.001404818,0.001404818,-0.001354028,0.001354028,-0.001354028,0.001354028,-7.11E-13,2.30E-13,3.18E-13,2.05E-13,-0.001380654,0.001380654,-0.001404818,0.001404818,-0.001404818,0.001404818,-0.001404818,0.001404818,-0.001404818,0.001404818,-0.001354028,0.001354028,-0.001354028,0.001354028,-0.001354028,0.001354028,-0.001354028,0.001354028,-7.01E-12,6.94E-12,-0.001380654,0.001380654,-1.00E-13,3.81E-14,-0.001404818,0.001404818,-0.001404818,0.001404818,-0.001404818,0.001404818,-0.001404818,0.001404818,-0.001354028,0.001354028,-0.001354028,0.001354028,0.771331003,0.94753126,1368840,32768,0.005736196,0.005736196,0.005736196,23.44697576,23.45237971,0.000102776,0.000102776,0.000102776,248109.4068,0.017357703
28512000,0.999969471,0.01691455,0.005638183,0.005638183,0.005638183,-0.001380868,0.001380868,6.36E-12,-7.09E-12,5.68E-14,-8.16E-13,-0.001405004,0.001405004,-0.001405004,0.001405004,-0.001405004,0.001405004,-0.001405004,0.001405004,-0.001354265,0.001354265,-0.001354265,0.001354265,-6.67E-13,2.56E-13,3.70E-13,2.64E-13,-0.001380868,0.001380868,-0.001405004,0.001405004,-0.001405004,0.001405004,-0.001405004,0.001405004,-0.001405004,0.001405004,-0.001354265,0.001354265,-0.001354265,0.001354265,-0.001354265,0.001354265,-0.001354265,0.001354265,-7.02E-12,6.93E-12,-0.001380868,0.001380868,-1.14E-13,1.66E-14,-0.001405004,0.001405004,-0.001405004,0.001405004,-0.001405004,0.001405004,-0.001405004,0.001405004,-0.001354265,0.001354265,-0.001354265,0.001354265,0.774808556,0.968687225,1368840,32768,0.00573708,0.00573708,0.00573708,23.52921495,23.53462132,0.000103434,0.000103434,0.000103434,246024.9788,0.017360402
28598400,0.999970273,0.016914564,0.005638188,0.005638188,0.005638188,-0.00138108,0.00138108,6.31E-12,-7.15E-12,-1.19E-14,-8.69E-13,-0.001405188,0.001405188,-0.001405188,0.001405188,-0.001405188,0.001405188,-0.001405188,0.001405188,-0.001354499,0.001354499,-0.001354499,0.001354499,-7.01E-13,2.06E-13,3.35E-13,2.26E-13,-0.00138108,0.00138108,-0.001405188,0.001405188,-0.001405188,0.001405188,-0.001405188,0.001405188,-0.001405188,0.001405188,-0.001354499,0.001354499,-0.001354499,0.001354499,-0.001354499,0.001354499,-0.001354499,0.001354499,-7.01E-12,6.96E-12,-0.00138108,0.00138108,-9.67E-14,3.73E-14,-0.001405188,0.001405188,-0.001405188,0.001405188,-0.001405188,0.001405188,-0.001405188,0.001405188,-0.001354499,0.001354499,-0.001354499,0.001354499,0.776657512,0.958782312,1368840,32768,0.00573796,0.00573796,0.00573796,23.6114548,23.61686292,0.000104092,0.000104092,0.000104092,243966.1515,0.017363089
28684800,0.999971059,0.016914577,0.005638192,0.005638192,0.005638192,-0.001381225,0.001381225,6.31E-12,-7.14E-12,1.29E-14,-8.56E-13,-0.001405338,0.001405338,-0.001405338,0.001405338,-0.001405338,0.001405338,-0.001405338,0.001405338,-0.001354636,0.001354636,-0.001354636,0.001354636,-6.71E-13,2.48E-13,3.99E-13,2.39E-13,-0.001381225,0.001381225,-0.001405338,0.001405338,-0.001405338,0.001405338,-0.001405338,0.001405338,-0.001405338,0.001405338,-0.001354636,0.001354636,-0.001354636,0.001354636,-0.001354636,0.001354636,-0.001354636,0.001354636,-7.01E-12,6.95E-12,-0.001381225,0.001381225,-1.31E-13,5.46E-14,-0.001405338,0.001405338,-0.001405338,0.001405338,-0.001405338,0.001405338,-0.001405338,0.001405338,-0.001354636,0.001354636,-0.001354636,0.001354636,0.775897983,0.913612346,1368840,32768,0.005738561,0.005738561,0.005738561,23.6936957,23.69910453,0.00010475,0.00010475,0.00010475,243737.5676,0.017364921
28771200,0.999971827,0.01691459,0.005638197,0.005638197,0.005638197,-0.001381289,0.001381289,6.35E-12,-7.11E-12,6.33E-14,-8.31E-13,-0.001405447,0.001405447,-0.001405447,0.001405447,-0.001405447,0.001405447,-0.001405447,0.001405447,-0.001354655,0.001354655,-0.001354655,0.001354655,-6.99E-13,2.46E-13,3.65E-13,2.30E-13,-0.001381289,0.001381289,-0.001405447,0.001405447,-0.001405447,0.001405447,-0.001405447,0.001405447,-0.001405447,0.001405447,-0.001354655,0.001354655,-0.001354655,0.001354655,-0.001354655,0.001354655,-0.001354655,0.001354655,-7.01E-12,6.96E-12,-0.001381289,0.001381289,-1.08E-13,5.18E-14,-0.001405447,0.001405447,-0.001405447,0.001405447,-0.001405447,0.001405447,-0.001405447,0.001405447,-0.001354655,0.001354655,-0.001354655,0.001354655,0.774172876,0.868442381,1368840,32768,0.005738825,0.005738825,0.005738825,23.77593689,23.78134613,0.000105407,0.000105407,0.000105407,245817.3383,0.017365729
28857600,0.99997258,0.016914603,0.005638201,0.005638201,0.005638201,-0.001381394,0.001381394,6.31E-12,-7.16E-12,1.96E-14,-8.88E-13,-0.001405602,0.001405602,-0.001405602,0.001405602,-0.001405602,0.001405602,-0.001405602,0.001405602,-0.00135471,0.00135471,-0.00135471,0.00135471,-6.97E-13,2.62E-13,3.89E-13,2.37E-13,-0.001381394,0.001381394,-0.001405602,0.001405602,-0.001405602,0.001405602,-0.001405602,0.001405602,-0.001405602,0.001405602,-0.00135471,0.00135471,-0.00135471,0.00135471,-0.00135471,0.00135471,-0.00135471,0.00135471,-7.02E-12,6.96E-12,-0.001381394,0.001381394,-1.29E-13,4.73E-14,-0.001405602,0.001405602,-0.001405602,0.001405602,-0.001405602,0.001405602,-0.001405602,0.001405602,-0.00135471,0.00135471,-0.00135471,0.00135471,0.77679404,0.900212548,1368840,32768,0.00573926,0.00573926,0.00573926,23.88351032,23.89053339,0.000106268,0.000106268,0.000106268,248243.699,0.017367057
28944000,0.999973319,0.016914615,0.005638205,0.005638205,0.005638205,-0.001381727,0.001381727,6.30E-12,-7.14E-12,3.45E-14,-8.95E-13,-0.001405903,0.001405903,-0.001405903,0.001405903,-0.001405903,0.001405903,-0.001405903,0.001405903,-0.001355072,0.001355072,-0.001355072,0.001355072,-7.33E-13,2.46E-13,3.77E-13,2.05E-13,-0.001381727,0.001381727,-0.001405903,0.001405903,-0.001405903,0.001405903,-0.001405903,0.001405903,-0.001405903,0.001405903,-0.001355072,0.001355072,-0.001355072,0.001355072,-0.001355072,0.001355072,-0.001355072,0.001355072,-7.03E-12,6.93E-12,-0.001381727,0.001381727,-1.45E-13,5.12E-14,-0.001405903,0.001405903,-0.001405903,0.001405903,-0.001405903,0.001405903,-0.001405903,0.001405903,-0.001355072,0.001355072,-0.001355072,0.001355072,0.767969402,0.762054628,1368840,32768,0.005740641,0.005740641,0.005740641,24.0194042,24.02827954,0.000107355,0.000107355,0.000107355,245906.2819,0.017371273
29030400,0.999974044,0.016914627,0.005638209,0.005638209,0.005638209,-0.001381661,0.001381661,6.36E-12,-7.11E-12,1.21E-13,-8.55E-13,-0.001405999,0.001405999,-0.001405999,0.001405999,-0.001405999,0.001405999,-0.001405999,0.001405999,-0.001354854,0.001354854,-0.001354854,0.001354854,-8.78E-13,1.48E-13,3.25E-13,1.10E-13,-0.001381661,0.001381661,-0.001405999,0.001405999,-0.001405999,0.001405999,-0.001405999,0.001405999,-0.001405999,0.001405999,-0.001354854,0.001354854,-0.001354854,0.001354854,-0.001354854,0.001354854,-0.001354854,0.001354854,-6.98E-12,7.00E-12,-0.001381661,0.001381661,-1.05E-13,1.34E-13,-0.001405999,0.001405999,-0.001405999,0.001405999,-0.001405999,0.001405999,-0.001405999,0.001405999,-0.001354854,0.001354854,-0.001354854,0.001354854,0.758935563,0.643156944,1368840,32768,0.005740364,0.005740364,0.005740364,24.15698086,24.16602569,0.000108456,0.000108456,0.000108456,254906.4431,0.017370427
29116800,0.999974755,0.016914639,0.005638213,0.005638213,0.005638213,-0.001381604,0.001381604,6.29E-12,-7.16E-12,8.44E-14,-9.63E-13,-0.001406108,0.001406108,-0.001406108,0.001406108,-0.001406108,0.001406108,-0.001406108,0.001406108,-0.001354646,0.001354646,-0.001354646,0.001354646,-7.09E-13,3.88E-13,4.65E-13,2.86E-13,-0.001381604,0.001381604,-0.001406108,0.001406108,-0.001406108,0.001406108,-0.001406108,0.001406108,-0.001406108,0.001406108,-0.001354646,0.001354646,-0.001354646,0.001354646,-0.001354646,0.001354646,-0.001354646,0.001354646,-7.09E-12,6.87E-12,-0.001381604,0.001381604,-1.93E-13,1.05E-14,-0.001406108,0.001406108,-0.001406108,0.001406108,-0.001406108,0.001406108,-0.001406108,0.001406108,-0.001354646,0.001354646,-0.001354646,0.001354646,0.753025729,0.579256833,1368840,32768,0.005740129,0.005740129,0.005740129,24.29470825,24.30377184,0.000109558,0.000109558,0.000109558,263979.2674,0.01736971
29203200,0.999975452,0.016914651,0.005638217,0.005638217,0.005638217,-0.001381676,0.001381676,6.35E-12,-7.14E-12,5.94E-14,-1.01E-12,-0.001406283,0.001406283,-0.001406283,0.001406283,-0.001406283,0.001406283,-0.001406283,0.001406283,-0.001354626,0.001354626,-0.001354626,0.001354626,-8.13E-13,3.06E-13,3.34E-13,1.25E-13,-0.001381676,0.001381676,-0.001406283,0.001406283,-0.001406283,0.001406283,-0.001406283,0.001406283,-0.001406283,0.001406283,-0.001354626,0.001354626,-0.001354626,0.001354626,-0.001354626,0.001354626,-0.001354626,0.001354626,-7.09E-12,6.91E-12,-0.001381676,0.001381676,-1.85E-13,4.86E-14,-0.001406283,0.001406283,-0.001406283,0.001406283,-0.001406283,0.001406283,-0.001406283,0.001406283,-0.001354626,0.001354626,-0.001354626,0.001354626,0.753317412,0.608541153,1368840,32768,0.005740427,0.005740427,0.005740427,24.43244911,24.44151798,0.00011066,0.00011066,0.00011066,269491.0708,0.01737062
29289600,0.999976135,0.016914662,0.005638221,0.005638221,0.005638221,-0.001382013,0.001382013,6.37E-12,-7.16E-12,1.10E-13,-1.04E-12,-0.001406591,0.001406591,-0.001406591,0.001406591,-0.001406591,0.001406591,-0.001406591,0.001406591,-0.001354993,0.001354993,-0.001354993,0.001354993,-8.72E-13,3.28E-13,3.13E-13,1.52E-13,-0.001382013,0.001382013,-0.001406591,0.001406591,-0.001406591,0.001406591,-0.001406591,0.001406591,-0.001406591,0.001406591,-0.001354993,0.001354993,-0.001354993,0.001354993,-0.001354993,0.001354993,-0.001354993,0.001354993,-7.20E-12,6.85E-12,-0.001382013,0.001382013,-1.95E-13,-8.44E-15,-0.001406591,0.001406591,-0.001406591,0.001406591,-0.001406591,0.001406591,-0.001406591,0.001406591,-0.001354993,0.001354993,-0.001354993,0.001354993,0.745318104,0.511726046,1368840,32768,0.005741824,0.005741824,0.005741824,24.57019213,24.57926413,0.000111762,0.000111762,0.000111762,267376.483,0.017374883
29376000,0.999976805,0.016914673,0.005638224,0.005638224,0.005638224,-0.001381983,0.001381983,6.31E-12,-7.29E-12,4.67E-14,-1.14E-12,-0.00140671,0.00140671,-0.00140671,0.00140671,-0.00140671,0.00140671,-0.00140671,0.00140671,-0.001354828,0.001354828,-0.001354828,0.001354828,-8.18E-13,4.24E-13,3.46E-13,1.88E-13,-0.001381983,0.001381983,-0.00140671,0.00140671,-0.00140671,0.00140671,-0.00140671,0.00140671,-0.00140671,0.00140671,-0.001354828,0.001354828,-0.001354828,0.001354828,-0.001354828,0.001354828,-0.001354828,0.001354828,-7.14E-12,6.96E-12,-0.001381983,0.001381983,-1.15E-13,6.82E-14,-0.00140671,0.00140671,-0.00140671,0.00140671,-0.00140671,0.00140671,-0.00140671,0.00140671,-0.001354828,0.001354828,-0.001354828,0.001354828,0.740204032,0.460394001,1368840,32768,0.0057417,0.0057417,0.0057417,24.70793472,24.71701028,0.000112863,0.000112863,0.000112863,275786.4781,0.017374504
29462400,0.999977461,0.016914683,0.005638228,0.005638228,0.005638228,-0.001382076,0.001382076,6.33E-12,-7.20E-12,1.62E-13,-1.06E-12,-0.001406895,0.001406895,-0.001406895,0.001406895,-0.001406895,0.001406895,-0.001406895,0.001406895,-0.00135484,0.00135484,-0.00135484,0.00135484,-8.70E-13,3.99E-13,3.73E-13,2.02E-13,-0.001382076,0.001382076,-0.001406895,0.001406895,-0.001406895,0.001406895,-0.001406895,0.001406895,-0.001406895,0.001406895,-0.00135484,0.00135484,-0.00135484,0.00135484,-0.00135484,0.00135484,-0.00135484,0.00135484,-7.06E-12,6.99E-12,-0.001382076,0.001382076,-1.01E-13,9.39E-14,-0.001406895,0.001406895,-0.001406895,0.001406895,-0.001406895,0.001406895,-0.001406895,0.001406895,-0.00135484,0.00135484,-0.00135484,0.00135484,0.729391302,0.328671981,1368840,32768,0.005742084,0.005742084,0.005742084,24.84567667,24.85475643,0.000113965,0.000113965,0.000113965,280749.6054,0.017375677
29548800,0.999978104,0.016914693,0.005638231,0.005638231,0.005638231,-0.00138188,0.00138188,6.32E-12,-7.16E-12,1.80E-13,-1.06E-12,-0.001406933,0.001406933,-0.001406933,0.001406933,-0.001406933,0.001406933,-0.001406933,0.001406933,-0.00135443,0.00135443,-0.00135443,0.00135443,-8.55E-13,4.38E-13,3.78E-13,2.04E-13,-0.00138188,0.00138188,-0.001406933,0.001406933,-0.001406933,0.001406933,-0.001406933,0.001406933,-0.001406933,0.001406933,-0.00135443,0.00135443,-0.00135443,0.00135443,-0.00135443,0.00135443,-0.00135443,0.00135443,-7.08E-12,6.92E-12,-0.00138188,0.00138188,-1.54E-13,4.49E-14,-0.001406933,0.001406933,-0.001406933,0.001406933,-0.001406933,0.001406933,-0.001406933,0.001406933,-0.00135443,0.00135443,-0.00135443,0.00135443,0.726380154,0.310129968,1368840,32768,0.005741271,0.005741271,0.005741271,24.98341908,24.99250258,0.000115067,0.000115067,0.000115067,294270.4208,0.017373198
29635200,0.999978734,0.016914703,0.005638234,0.005638234,0.005638234,-0.001382036,0.001382036,6.28E-12,-7.21E-12,1.37E-13,-1.11E-12,-0.00140714,0.00140714,-0.00140714,0.00140714,-0.00140714,0.00140714,-0.00140714,0.00140714,-0.001354545,0.001354545,-0.001354545,0.001354545,-8.22E-13,4.72E-13,3.75E-13,3.05E-13,-0.001382036,0.001382036,-0.00140714,0.00140714,-0.00140714,0.00140714,-0.00140714,0.00140714,-0.00140714,0.00140714,-0.001354545,0.001354545,-0.001354545,0.001354545,-0.001354545,0.001354545,-0.001354545,0.001354545,-7.06E-12,6.94E-12,-0.001382036,0.001382036,-1.09E-13,-1.40E-14,-0.00140714,0.00140714,-0.00140714,0.00140714,-0.00140714,0.00140714,-0.00140714,0.00140714,-0.001354545,0.001354545,-0.001354545,0.001354545,0.730526755,0.39400692,1368840,32768,0.005741919,0.005741919,0.005741919,25.10715442,25.11534766,0.000116057,0.000116057,0.000116057,296692.5536,0.017375174
29721600,0.999979349,0.016914713,0.005638238,0.005638238,0.005638238,-0.001382532,0.001382532,6.27E-12,-7.19E-12,1.29E-13,-1.08E-12,-0.001407496,0.001407496,-0.001407496,0.001407496,-0.001407496,0.001407496,-0.001407496,0.001407496,-0.001355174,0.001355174,-0.001355174,0.001355174,-8.28E-13,4.30E-13,3.88E-13,2.77E-13,-0.001382532,0.001382532,-0.001407496,0.001407496,-0.001407496,0.001407496,-0.001407496,0.001407496,-0.001407496,0.001407496,-0.001355174,0.001355174,-0.001355174,0.001355174,-0.001355174,0.001355174,-0.001355174,0.001355174,-7.03E-12,6.94E-12,-0.001382532,0.001382532,-1.09E-13,2.72E-14,-0.001407496,0.001407496,-0.001407496,0.001407496,-0.001407496,0.001407496,-0.001407496,0.001407496,-0.001355174,0.001355174,-0.001355174,0.001355174,0.734900418,0.477883872,1368840,32768,0.005743974,0.005743974,0.005743974,25.21646285,25.22370906,0.000116932,0.000116932,0.000116932,288113.3236,0.017381446
29808000,0.99997995,0.016914723,0.005638241,0.005638241,0.005638241,-0.00138301,0.00138301,6.29E-12,-7.16E-12,1.15E-13,-1.04E-12,-0.001407843,0.001407843,-0.001407843,0.001407843,-0.001407843,0.001407843,-0.001407843,0.001407843,-0.001355778,0.001355778,-0.001355778,0.001355778,-8.23E-13,3.83E-13,3.81E-13,2.19E-13,-0.00138301,0.00138301,-0.001407843,0.001407843,-0.001407843,0.001407843,-0.001407843,0.001407843,-0.001407843,0.001407843,-0.001355778,0.001355778,-0.001355778,0.001355778,-0.001355778,0.001355778,-0.001355778,0.001355778,-7.00E-12,6.97E-12,-0.00138301,0.00138301,-9.89E-14,8.77E-14,-0.001407843,0.001407843,-0.001407843,0.001407843,-0.001407843,0.001407843,-0.001407843,0.001407843,-0.001355778,0.001355778,-0.001355778,0.001355778,0.739427314,0.561760824,1368840,32768,0.005745956,0.005745956,0.005745956,25.32490884,25.33207045,0.000117799,0.000117799,0.000117799,280061.7466,0.017387496
29894400,0.999980537,0.016914733,0.005638244,0.005638244,0.005638244,-0.001383473,0.001383473,6.23E-12,-7.19E-12,1.08E-13,-1.03E-12,-0.00140818,0.00140818,-0.00140818,0.00140818,-0.00140818,0.00140818,-0.00140818,0.00140818,-0.00135636,0.00135636,-0.00135636,0.00135636,-7.99E-13,3.86E-13,4.27E-13,3.15E-13,-0.001383473,0.001383473,-0.00140818,0.00140818,-0.00140818,0.00140818,-0.00140818,0.00140818,-0.00140818,0.00140818,-0.00135636,0.00135636,-0.00135636,0.00135636,-0.00135636,0.00135636,-0.00135636,0.00135636,-6.98E-12,6.96E-12,-0.001383473,0.001383473,-8.56E-14,5.01E-14,-0.00140818,0.00140818,-0.00140818,0.00140818,-0.00140818,0.00140818,-0.00140818,0.00140818,-0.00135636,0.00135636,-0.00135636,0.00135636,0.744081843,0.645637777,1368840,32768,0.005747873,0.005747873,0.005747873,25.43327608,25.44043184,0.000118666,0.000118666,0.000118666,272487.607,0.017393345
29980800,0.999981111,0.016914742,0.005638247,0.005638247,0.005638247,-0.001383921,0.001383921,6.28E-12,-7.17E-12,9.89E-14,-9.99E-13,-0.001408509,0.001408509,-0.001408509,0.001408509,-0.001408509,0.001408509,-0.001408509,0.001408509,-0.001356921,0.001356921,-0.001356921,0.001356921,-7.94E-13,3.54E-13,3.26E-13,2.44E-13,-0.001383921,0.001383921,-0.001408509,0.001408509,-0.001408509,0.001408509,-0.001408509,0.001408509,-0.001408509,0.001408509,-0.001356921,0.001356921,-0.001356921,0.001356921,-0.001356921,0.001356921,-0.001356921,0.001356921,-7.01E-12,6.95E-12,-0.001383921,0.001383921,-1.21E-13,-1.46E-14,-0.001408509,0.001408509,-0.001408509,0.001408509,-0.001408509,0.001408509,-0.001408509,0.001408509,-0.001356921,0.001356921,-0.001356921,0.001356921,0.751695966,0.774231369,1368840,32768,0.005749728,0.005749728,0.005749728,25.54163447,25.54879324,0.000119533,0.000119533,0.000119533,265384.2244,0.017399008
30067200,0.999981671,0.016914751,0.00563825,0.00563825,0.00563825,-0.001384469,0.001384469,6.27E-12,-7.14E-12,1.37E-13,-9.98E-13,-0.001408889,0.001408889,-0.001408889,0.001408889,-0.001408889,0.001408889,-0.001408889,0.001408889,-0.001357625,0.001357626,-0.001357626,0.001357625,-8.14E-13,3.71E-13,3.22E-13,2.84E-13,-0.001384469,0.001384469,-0.001408889,0.001408889,-0.001408889,0.001408889,-0.001408889,0.001408889,-0.001408889,0.001408889,-0.001357626,0.001357626,-0.001357626,0.001357626,-0.001357626,0.001357626,-0.001357626,0.001357626,-6.95E-12,6.97E-12,-0.001384469,0.001384469,-5.29E-14,9.63E-15,-0.001408889,0.001408889,-0.001408889,0.001408889,-0.001408889,0.001408889,-0.001408889,0.001408889,-0.001357625,0.001357626,-0.001357626,0.001357625,0.747781577,0.700274827,1368840,32768,0.005751998,0.005751998,0.005751998,25.64999437,25.65715463,0.0001204,0.0001204,0.0001204,255506.867,0.017405934
30153600,0.999982219,0.01691476,0.005638253,0.005638253,0.005638253,-0.001384496,0.001384496,6.27E-12,-7.13E-12,1.33E-13,-9.89E-13,-0.001409002,0.001409002,-0.001409002,0.001409002,-0.001409002,0.001409002,-0.001409002,0.001409002,-0.001357572,0.001357572,-0.001357572,0.001357572,-7.81E-13,3.91E-13,3.52E-13,3.08E-13,-0.001384496,0.001384496,-0.001409002,0.001409002,-0.001409002,0.001409002,-0.001409002,0.001409002,-0.001409002,0.001409002,-0.001357572,0.001357572,-0.001357572,0.001357572,-0.001357572,0.001357572,-0.001357572,0.001357572,-6.99E-12,6.91E-12,-0.001384496,0.001384496,-8.43E-14,-1.52E-14,-0.001409002,0.001409002,-0.001409002,0.001409002,-0.001409002,0.001409002,-0.001409002,0.001409002,-0.001357572,0.001357572,-0.001357572,0.001357572,0.736900642,0.536032226,1368840,32768,0.00575211,0.00575211,0.00575211,25.75835427,25.76551603,0.000121267,0.000121267,0.000121267,260192.335,0.017406278
30240000,0.999982753,0.016914769,0.005638256,0.005638256,0.005638256,-0.001384245,0.001384245,6.23E-12,-7.15E-12,9.20E-14,-1.04E-12,-0.001408977,0.001408977,-0.001408977,0.001408977,-0.001408977,0.001408977,-0.001408977,0.001408977,-0.001357114,0.001357114,-0.001357114,0.001357114,-8.04E-13,3.80E-13,3.32E-13,2.76E-13,-0.001384245,0.001384245,-0.001408977,0.001408977,-0.001408977,0.001408977,-0.001408977,0.001408977,-0.001408977,0.001408977,-0.001357114,0.001357114,-0.001357114,0.001357114,-0.001357114,0.001357114,-0.001357114,0.001357114,-7.00E-12,6.90E-12,-0.001384245,0.001384245,-8.70E-14,-5.90E-15,-0.001408977,0.001408977,-0.001408977,0.001408977,-0.001408977,0.001408977,-0.001408977,0.001408977,-0.001357114,0.001357114,-0.001357114,0.001357114,0.733194674,0.492515184,1368840,32768,0.005751072,0.005751072,0.005751072,25.86671344,25.87387742,0.000122134,0.000122134,0.000122134,273085.0901,0.017403109
30326400,0.999983274,0.016914777,0.005638259,0.005638259,0.005638259,-0.001384318,0.001384318,6.25E-12,-7.14E-12,8.84E-14,-1.03E-12,-0.001409122,0.001409122,-0.001409122,0.001409122,-0.001409122,0.001409122,-0.001409122,0.001409122,-0.001357122,0.001357122,-0.001357122,0.001357122,-7.80E-13,3.88E-13,3.50E-13,3.17E-13,-0.001384318,0.001384318,-0.001409122,0.001409122,-0.001409122,0.001409122,-0.001409122,0.001409122,-0.001409122,0.001409122,-0.001357122,0.001357122,-0.001357122,0.001357122,-0.001357122,0.001357122,-0.001357122,0.001357122,-7.04E-12,6.86E-12,-0.001384318,0.001384318,-1.05E-13,-4.76E-14,-0.001409122,0.001409122,-0.001409122,0.001409122,-0.001409122,0.001409122,-0.001409122,0.001409122,-0.001357122,0.001357122,-0.001357122,0.001357122,0.72936702,0.448998142,1368840,32768,0.005751371,0.005751371,0.005751371,25.97507252,25.98223881,0.000123001,0.000123001,0.000123001,276898.4356,0.017404024
30412800,0.999983784,0.016914785,0.005638262,0.005638262,0.005638262,-0.001384444,0.001384444,6.22E-12,-7.16E-12,8.50E-14,-1.02E-12,-0.001409322,0.001409322,-0.001409322,0.001409322,-0.001409322,0.001409322,-0.001409322,0.001409322,-0.001357184,0.001357184,-0.001357184,0.001357184,-8.08E-13,3.46E-13,3.02E-13,2.98E-13,-0.001384444,0.001384444,-0.001409322,0.001409322,-0.001409322,0.001409322,-0.001409322,0.001409322,-0.001409322,0.001409322,-0.001357184,0.001357184,-0.001357184,0.001357184,-0.001357184,0.001357184,-0.001357184,0.001357184,-7.02E-12,6.88E-12,-0.001384444,0.001384444,-7.33E-14,-4.43E-14,-0.001409322,0.001409322,-0.001409322,0.001409322,-0.001409322,0.001409322,-0.001409322,0.001409322,-0.001357184,0.001357184,-0.001357184,0.001357184,0.723684144,0.379728068,1368840,32768,0.005751897,0.005751897,0.005751897,26.11478301,26.12395666,0.000124118,0.000124118,0.000124118,280886.6276,0.017405628
30499200,0.999984284,0.016914793,0.005638264,0.005638264,0.005638264,-0.001384535,0.001384535,6.23E-12,-7.13E-12,9.27E-14,-9.90E-13,-0.001409535,0.001409535,-0.001409535,0.001409535,-0.001409535,0.001409535,-0.001409535,0.001409535,-0.001357164,0.001357164,-0.001357164,0.001357164,-7.81E-13,3.52E-13,3.19E-13,3.18E-13,-0.001384535,0.001384535,-0.001409535,0.001409535,-0.001409535,0.001409535,-0.001409535,0.001409535,-0.001409535,0.001409535,-0.001357164,0.001357164,-0.001357164,0.001357164,-0.001357164,0.001357164,-0.001357164,0.001357164,-7.02E-12,6.86E-12,-0.001384535,0.001384535,-8.64E-14,-5.98E-14,-0.001409535,0.001409535,-0.001409535,0.001409535,-0.001409535,0.001409535,-0.001409535,0.001409535,-0.001357164,0.001357164,-0.001357164,0.001357164,0.730651045,0.505419393,1368840,32768,0.005752272,0.005752272,0.005752272,26.284257,26.29540507,0.000125474,0.000125474,0.000125474,287701.1174,0.017406773
30585600,0.999984772,0.016914801,0.005638267,0.005638267,0.005638267,-0.001385266,0.001385266,6.22E-12,-7.15E-12,6.01E-14,-1.03E-12,-0.00141007,0.00141007,-0.00141007,0.00141007,-0.00141007,0.00141007,-0.00141007,0.00141007,-0.001358079,0.001358079,-0.001358079,0.001358079,-8.29E-13,3.12E-13,3.03E-13,2.38E-13,-0.001385266,0.001385266,-0.00141007,0.00141007,-0.00141007,0.00141007,-0.00141007,0.00141007,-0.00141007,0.00141007,-0.001358079,0.001358079,-0.001358079,0.001358079,-0.001358079,0.001358079,-0.001358079,0.001358079,-6.99E-12,6.89E-12,-0.001385266,0.001385266,-9.94E-14,-9.66E-15,-0.00141007,0.00141007,-0.00141007,0.00141007,-0.00141007,0.00141007,-0.00141007,0.00141007,-0.001358079,0.001358079,-0.001358079,0.001358079,0.732370771,0.542586441,1368840,32768,0.005755302,0.005755302,0.005755302,26.45551856,26.46685348,0.000126844,0.000126844,0.000126844,275850.3068,0.017416019
30672000,0.999985251,0.016914809,0.00563827,0.00563827,0.00563827,-0.001385708,0.001385708,6.28E-12,-7.13E-12,8.42E-14,-1.00E-12,-0.001410455,0.001410455,-0.001410455,0.001410455,-0.001410455,0.001410455,-0.001410455,0.001410455,-0.001358576,0.001358576,-0.001358576,0.001358576,-8.35E-13,3.05E-13,3.38E-13,2.32E-13,-0.001385708,0.001385708,-0.001410455,0.001410455,-0.001410455,0.001410455,-0.001410455,0.001410455,-0.001410455,0.001410455,-0.001358576,0.001358576,-0.001358576,0.001358576,-0.001358576,0.001358576,-0.001358576,0.001358576,-7.00E-12,6.92E-12,-0.001385708,0.001385708,-8.34E-14,4.78E-14,-0.001410455,0.001410455,-0.001410455,0.001410455,-0.001410455,0.001410455,-0.001410455,0.001410455,-0.001358576,0.001358576,-0.001358576,0.001358576,0.734007019,0.576653842,1368840,32768,0.005757131,0.005757131,0.005757131,26.62694317,26.63830189,0.000128216,0.000128216,0.000128216,272369.506,0.017421604
30758400,0.999985719,0.016914816,0.005638272,0.005638272,0.005638272,-0.001386138,0.001386138,6.23E-12,-7.19E-12,6.91E-14,-1.01E-12,-0.001410836,0.001410836,-0.001410836,0.001410836,-0.001410836,0.001410836,-0.001410836,0.001410836,-0.001359053,0.001359053,-0.001359053,0.001359053,-7.56E-13,3.70E-13,3.88E-13,2.89E-13,-0.001386138,0.001386138,-0.001410836,0.001410836,-0.001410836,0.001410836,-0.001410836,0.001410836,-0.001410836,0.001410836,-0.001359053,0.001359053,-0.001359053,0.001359053,-0.001359053,0.001359053,-0.001359053,0.001359053,-6.96E-12,6.97E-12,-0.001386138,0.001386138,-8.61E-14,3.72E-14,-0.001410836,0.001410836,-0.001410836,0.001410836,-0.001410836,0.001410836,-0.001410836,0.001410836,-0.001359053,0.001359053,-0.001359053,0.001359053,0.737045308,0.632373066,1368840,32768,0.005758915,0.005758915,0.005758915,26.79838347,26.8097503,0.000129587,0.000129587,0.000129587,269244.4779,0.017427048
30844800,0.999986176,0.016914824,0.005638275,0.005638275,0.005638275,-0.001386627,0.001386627,6.27E-12,-7.12E-12,9.77E-14,-9.88E-13,-0.001411246,0.001411246,-0.001411246,0.001411246,-0.001411246,0.001411246,-0.001411246,0.001411246,-0.001359616,0.001359616,-0.001359616,0.001359616,-7.99E-13,3.37E-13,3.30E-13,2.84E-13,-0.001386627,0.001386627,-0.001411246,0.001411246,-0.001411246,0.001411246,-0.001411246,0.001411246,-0.001411246,0.001411246,-0.001359616,0.001359616,-0.001359616,0.001359616,-0.001359616,0.001359616,-0.001359616,0.001359616,-7.02E-12,6.88E-12,-0.001386627,0.001386627,-9.62E-14,-2.38E-14,-0.001411246,0.001411246,-0.001411246,0.001411246,-0.001411246,0.001411246,-0.001411246,0.001411246,-0.001359616,0.001359616,-0.001359616,0.001359616,0.743527407,0.743077516,1368840,32768,0.005760939,0.005760939,0.005760939,26.96982407,26.9811987,0.000130959,0.000130959,0.000130959,264467.3563,0.017433226
30931200,0.999986624,0.016914831,0.005638277,0.005638277,0.005638277,-0.001387252,0.001387252,6.26E-12,-7.17E-12,7.38E-14,-9.76E-13,-0.001411726,0.001411726,-0.001411726,0.001411726,-0.001411726,0.001411726,-0.001411726,0.001411726,-0.001360376,0.001360376,-0.001360376,0.001360376,-7.49E-13,3.52E-13,4.07E-13,3.12E-13,-0.001387252,0.001387252,-0.001411726,0.001411726,-0.001411726,0.001411726,-0.001411726,0.001411726,-0.001411726,0.001411726,-0.001360376,0.001360376,-0.001360376,0.001360376,-0.001360376,0.001360376,-0.001360376,0.001360376,-6.93E-12,7.01E-12,-0.001387252,0.001387252,-7.88E-14,4.01E-14,-0.001411726,0.001411726,-0.001411726,0.001411726,-0.001411726,0.001411726,-0.001411726,0.001411726,-0.001360376,0.001360376,-0.001360376,0.001360376,0.74609165,0.770140889,1368840,32768,0.005763527,0.005763527,0.005763527,27.14126532,27.15264711,0.00013233,0.00013233,0.00013233,255848.9685,0.017441123
31017600,0.999987061,0.016914838,0.005638279,0.005638279,0.005638279,-0.001387658,0.001387658,6.31E-12,-7.09E-12,1.72E-13,-9.56E-13,-0.001412091,0.001412091,-0.001412091,0.001412091,-0.001412091,0.001412091,-0.001412091,0.001412091,-0.001360818,0.001360818,-0.001360818,0.001360818,-8.62E-13,3.16E-13,4.09E-13,2.86E-13,-0.001387658,0.001387658,-0.001412091,0.001412091,-0.001412091,0.001412091,-0.001412091,0.001412091,-0.001412091,0.001412091,-0.001360818,0.001360818,-0.001360818,0.001360818,-0.001360818,0.001360818,-0.001360818,0.001360818,-6.95E-12,6.96E-12,-0.001387658,0.001387658,-6.75E-14,7.94E-14,-0.001412091,0.001412091,-0.001412091,0.001412091,-0.001412091,0.001412091,-0.001412091,0.001412091,-0.001360818,0.001360818,-0.001360818,0.001360818,0.748360088,0.787702236,1368840,32768,0.005765209,0.005765209,0.005765209,27.31270665,27.32409552,0.000133702,0.000133702,0.000133702,253269.1948,0.017446257
31104000,0.99998749,0.016914845,0.005638282,0.005638282,0.005638282,-0.001388144,0.001388144,6.28E-12,-7.12E-12,3.52E-14,-9.82E-13,-0.001412549,0.001412549,-0.001412549,0.001412549,-0.001412549,0.001412549,-0.001412549,0.001412549,-0.001361328,0.001361328,-0.001361328,0.001361328,-8.16E-13,2.51E-13,4.74E-13,2.59E-13,-0.001388144,0.001388144,-0.001412549,0.001412549,-0.001412549,0.001412549,-0.001412549,0.001412549,-0.001412549,0.001412549,-0.001361328,0.001361328,-0.001361328,0.001361328,-0.001361328,0.001361328,-0.001361328,0.001361328,-7.10E-12,6.82E-12,-0.001388144,0.001388144,-1.92E-13,4.79E-14,-0.001412549,0.001412549,-0.001412549,0.001412549,-0.001412549,0.001412549,-0.001412549,0.001412549,-0.001361328,0.001361328,-0.001361328,0.001361328,0.754615426,0.863080567,1368840,32768,0.005767224,0.005767224,0.005767224,27.53815003,27.55302022,0.000135505,0.000135505,0.000135505,251316.5161,0.017452408
31190400,0.99998791,0.016914852,0.005638284,0.005638284,0.005638284,-0.001388803,0.001388803,6.28E-12,-7.01E-12,1.19E-13,-9.71E-13,-0.001413112,0.001413112,-0.001413112,0.001413112,-0.001413112,0.001413112,-0.001413112,0.001413112,-0.001362071,0.001362071,-0.001362071,0.001362071,-7.95E-13,3.44E-13,4.44E-13,1.21E-13,-0.001388803,0.001388803,-0.001413112,0.001413112,-0.001413112,0.001413112,-0.001413112,0.001413112,-0.001413112,0.001413112,-0.001362071,0.001362071,-0.001362071,0.001362071,-0.001362071,0.001362071,-0.001362071,0.001362071,-6.92E-12,6.88E-12,-0.001388803,0.001388803,-1.64E-13,1.83E-13,-0.001413112,0.001413112,-0.001413112,0.001413112,-0.001413112,0.001413112,-0.001413112,0.001413112,-0.001362071,0.001362071,-0.001362071,0.001362071,0.761196674,0.927449207,1368840,32768,0.005769953,0.005769953,0.005769953,27.78244527,27.79866085,0.00013746,0.00013746,0.00013746,245521.6091,0.017460739
31276800,0.999988322,0.016914859,0.005638286,0.005638286,0.005638286,-0.001389433,0.001389433,6.26E-12,-7.03E-12,1.64E-13,-9.55E-13,-0.001413662,0.001413662,-0.001413662,0.001413662,-0.001413662,0.001413662,-0.001413662,0.001413662,-0.001362771,0.001362771,-0.001362771,0.001362771,-8.79E-13,2.90E-13,5.17E-13,2.25E-14,-0.001389433,0.001389433,-0.001413662,0.001413662,-0.001413662,0.001413662,-0.001413662,0.001413662,-0.001413662,0.001413662,-0.001362771,0.001362771,-0.001362771,0.001362771,-0.001362771,0.001362771,-0.001362771,0.001362771,-6.95E-12,6.84E-12,-0.001389433,0.001389433,-2.53E-13,2.65E-13,-0.001413662,0.001413662,-0.001413662,0.001413662,-0.001413662,0.001413662,-0.001413662,0.001413662,-0.001362771,0.001362771,-0.001362771,0.001362771,0.760599343,0.864628261,1368840,32768,0.005772566,0.005772566,0.005772566,28.02795177,28.04430147,0.000139424,0.000139424,0.000139424,240498.4707,0.017468713
31363200,0.999988725,0.016914866,0.005638289,0.005638289,0.005638289,-0.001389782,0.001389782,6.21E-12,-7.07E-12,7.51E-14,-9.67E-13,-0.001414067,0.001414067,-0.001414067,0.001414067,-0.001414067,0.001414067,-0.001414067,0.001414067,-0.001363062,0.001363062,-0.001363062,0.001363062,-7.88E-13,3.04E-13,5.60E-13,7.12E-14,-0.001389782,0.001389782,-0.001414067,0.001414067,-0.001414067,0.001414067,-0.001414067,0.001414067,-0.001414067,0.001414067,-0.001363062,0.001363062,-0.001363062,0.001363062,-0.001363062,0.001363062,-0.001363062,0.001363062,-6.89E-12,6.90E-12,-0.001389782,0.001389782,-2.37E-13,2.75E-13,-0.001414067,0.001414067,-0.001414067,0.001414067,-0.001414067,0.001414067,-0.001414067,0.001414067,-0.001363062,0.001363062,-0.001363062,0.001363062,0.757878658,0.799059501,1368840,32768,0.005774011,0.005774011,0.005774011,28.27357159,28.28994209,0.000141389,0.000141389,0.000141389,243268.188,0.017473124
31449600,0.99998912,0.016914872,0.005638291,0.005638291,0.005638291,-0.00139011,0.00139011,6.30E-12,-7.03E-12,1.12E-13,-9.66E-13,-0.001414464,0.001414464,-0.001414464,0.001414464,-0.001414464,0.001414464,-0.001414464,0.001414464,-0.001363322,0.001363322,-0.001363322,0.001363322,-8.37E-13,2.90E-13,5.05E-13,2.71E-14,-0.00139011,0.00139011,-0.001414464,0.001414464,-0.001414464,0.001414464,-0.001414464,0.001414464,-0.001414464,0.001414464,-0.001363322,0.001363322,-0.001363322,0.001363322,-0.001363322,0.001363322,-0.001363322,0.001363322,-6.89E-12,6.95E-12,-0.00139011,0.00139011,-1.91E-13,3.09E-13,-0.001414464,0.001414464,-0.001414464,0.001414464,-0.001414464,0.001414464,-0.001414464,0.001414464,-0.001363322,0.001363322,-0.001363322,0.001363322,0.753843003,0.733490742,1368840,32768,0.005775367,0.005775367,0.005775367,28.51920215,28.53558271,0.000143354,0.000143354,0.000143354,246923.3923,0.017477263
31536000,0.999989507,0.016914879,0.005638293,0.005638293,0.005638293,-0.001390423,0.001390423,6.28E-12,-7.08E-12,1.29E-13,-9.38E-13,-0.001414858,0.001414858,-0.001414858,0.001414858,-0.001414858,0.001414858,-0.001414858,0.001414858,-0.001363562,0.001363562,-0.001363562,0.001363562,-6.98E-13,4.18E-13,6.47E-13,2.40E-13,-0.001390423,0.001390423,-0.001414858,0.001414858,-0.001414858,0.001414858,-0.001414858,0.001414858,-0.001414858,0.001414858,-0.001363562,0.001363562,-0.001363562,0.001363562,-0.001363562,0.001363562,-0.001363562,0.001363562,-6.90E-12,6.97E-12,-0.001390423,0.001390423,-1.74E-13,2.56E-13,-0.001414858,0.001414858,-0.001414858,0.001414858,-0.001414858,0.001414858,-0.001414858,0.001414858,-0.001363562,0.001363562,-0.001363562,0.001363562,0.749072493,0.667921983,1368840,32768,0.005776667,0.005776667,0.005776667,28.76483275,28.78122333,0.000145319,0.000145319,0.000145319,251177.1779,0.017481232
31622400,0.999989885,0.016914885,0.005638295,0.005638295,0.005638295,-0.001390726,0.001390726,6.31E-12,-7.06E-12,6.28E-14,-8.98E-13,-0.001415248,0.001415248,-0.001415248,0.001415248,-0.001415248,0.001415248,-0.001415248,0.001415248,-0.001363784,0.001363784,-0.001363784,0.001363784,-5.54E-13,4.55E-13,6.49E-13,2.46E-13,-0.001390726,0.001390726,-0.001415248,0.001415248,-0.001415248,0.001415248,-0.001415248,0.001415248,-0.001415248,0.001415248,-0.001363784,0.001363784,-0.001363784,0.001363784,-0.001363784,0.001363784,-0.001363784,0.001363784,-6.90E-12,6.99E-12,-0.001390726,0.001390726,-1.60E-13,2.66E-13,-0.001415248,0.001415248,-0.001415248,0.001415248,-0.001415248,0.001415248,-0.001415248,0.001415248,-0.001363784,0.001363784,-0.001363784,0.001363784,0.743860897,0.602353223,1368840,32768,0.005777918,0.005777918,0.005777918,29.0104626,29.02686396,0.000147284,0.000147284,0.000147284,255898.2063,0.017485053
31708800,0.999990254,0.016914891,0.005638297,0.005638297,0.005638297,-0.001391008,0.001391008,6.07E-12,-7.21E-12,-3.37E-14,-1.02E-12,-0.001415623,0.001415623,-0.001415623,0.001415623,-0.001415623,0.001415623,-0.001415623,0.001415623,-0.001363981,0.001363981,-0.001363981,0.001363981,-7.61E-13,2.80E-13,4.34E-13,4.24E-14,-0.001391008,0.001391008,-0.001415623,0.001415623,-0.001415623,0.001415623,-0.001415623,0.001415623,-0.001415623,0.001415623,-0.001363981,0.001363981,-0.001363981,0.001363981,-0.001363981,0.001363981,-0.001363981,0.001363981,-6.83E-12,6.96E-12,-0.001391008,0.001391008,-1.95E-13,2.21E-13,-0.001415623,0.001415623,-0.001415623,0.001415623,-0.001415623,0.001415623,-0.001415623,0.001415623,-0.001363981,0.001363981,-0.001363981,0.001363981,0.738351395,0.536784464,1368840,32768,0.005779086,0.005779086,0.005779086,29.25140203,29.26751187,0.000149211,0.000149211,0.000149211,261020.8253,0.017488618
31795200,0.999990611,0.016914897,0.005638299,0.005638299,0.005638299,-0.001390848,0.001390848,6.22E-12,-7.07E-12,6.84E-14,-9.20E-13,-0.00141557,0.00141557,-0.00141557,0.00141557,-0.00141557,0.00141557,-0.00141557,0.00141557,-0.001363727,0.001363727,-0.001363727,0.001363727,-7.62E-13,2.77E-13,4.52E-13,6.21E-14,-0.001390848,0.001390848,-0.00141557,0.00141557,-0.00141557,0.00141557,-0.00141557,0.00141557,-0.00141557,0.00141557,-0.001363727,0.001363727,-0.001363727,0.001363727,-0.001363727,0.001363727,-0.001363727,0.001363727,-6.89E-12,6.92E-12,-0.001390848,0.001390848,-2.13E-13,2.01E-13,-0.00141557,0.00141557,-0.00141557,0.00141557,-0.00141557,0.00141557,-0.00141557,0.00141557,-0.001363727,0.001363727,-0.001363727,0.001363727,0.731335747,0.452263588,1368840,32768,0.005778425,0.005778425,0.005778425,29.26966585,29.27139413,0.000149357,0.000149357,0.000149357,266675.5017,0.0174866
31881600,0.999990954,0.016914902,0.005638301,0.005638301,0.005638301,-0.001390592,0.001390592,6.22E-12,-7.08E-12,6.53E-14,-9.35E-13,-0.001415452,0.001415452,-0.001415452,0.001415452,-0.001415452,0.001415452,-0.001415452,0.001415452,-0.001363346,0.001363346,-0.001363346,0.001363346,-7.58E-13,2.93E-13,4.92E-13,8.52E-14,-0.001390592,0.001390592,-0.001415452,0.001415452,-0.001415452,0.001415452,-0.001415452,0.001415452,-0.001415452,0.001415452,-0.001363346,0.001363346,-0.001363346,0.001363346,-0.001363346,0.001363346,-0.001363346,0.001363346,-6.89E-12,6.92E-12,-0.001390592,0.001390592,-2.07E-13,2.24E-13,-0.001415452,0.001415452,-0.001415452,0.001415452,-0.001415452,0.001415452,-0.001415452,0.001415452,-0.001363346,0.001363346,-0.001363346,0.001363346,0.747896161,0.762264573,1368840,32768,0.005777365,0.005777365,0.005777365,29.27487197,29.27527638,0.000149399,0.000149399,0.000149399,274387.2642,0.017483365
31968000,0.999991285,0.016914908,0.005638303,0.005638303,0.005638303,-0.001391445,0.001391445,6.23E-12,-7.07E-12,6.30E-14,-9.37E-13,-0.001415893,0.001415893,-0.001415893,0.001415893,-0.001415893,0.001415893,-0.001415893,0.001415893,-0.001364587,0.001364587,-0.001364587,0.001364587,-7.57E-13,2.93E-13,4.94E-13,9.31E-14,-0.001391445,0.001391445,-0.001415893,0.001415893,-0.001415893,0.001415893,-0.001415893,0.001415893,-0.001415893,0.001415893,-0.001364587,0.001364587,-0.001364587,0.001364587,-0.001364587,0.001364587,-0.001364587,0.001364587,-6.89E-12,6.92E-12,-0.001391445,0.001391445,-2.01E-13,2.23E-13,-0.001415893,0.001415893,-0.001415893,0.001415893,-0.001415893,0.001415893,-0.001415893,0.001415893,-0.001364587,0.001364587,-0.001364587,0.001364587,0.750220573,0.783470411,1368840,32768,0.005780898,0.005780898,0.005780898,29.27888461,29.27915864,0.000149431,0.000149431,0.000149431,250276.1208,0.017494146
32054400,0.999991604,0.016914913,0.005638304,0.005638304,0.005638304,-0.001391511,0.001391511,6.22E-12,-7.07E-12,6.98E-14,-9.35E-13,-0.001415924,0.001415924,-0.001415924,0.001415924,-0.001415924,0.001415924,-0.001415924,0.001415924,-0.001364683,0.001364683,-0.001364683,0.001364683,-7.58E-13,2.97E-13,4.97E-13,9.71E-14,-0.001391511,0.001391511,-0.001415924,0.001415924,-0.001415924,0.001415924,-0.001415924,0.001415924,-0.001415924,0.001415924,-0.001364683,0.001364683,-0.001364683,0.001364683,-0.001364683,0.001364683,-0.001364683,0.001364683,-6.89E-12,6.92E-12,-0.001391511,0.001391511,-2.04E-13,2.20E-13,-0.001415924,0.001415924,-0.001415924,0.001415924,-0.001415924,0.001415924,-0.001415924,0.001415924,-0.001364683,0.001364683,-0.001364683,0.001364683,0.752826169,0.805239913,1368840,32768,0.005781172,0.005781172,0.005781172,29.28277989,29.28304089,0.000149462,0.000149462,0.000149462,248110.7565,0.017494984
32140800,0.999991912,0.016914918,0.005638306,0.005638306,0.005638306,-0.001391578,0.001391578,6.22E-12,-7.07E-12,6.23E-14,-9.28E-13,-0.001415959,0.001415959,-0.001415959,0.001415959,-0.001415959,0.001415959,-0.001415959,0.001415959,-0.001364777,0.001364777,-0.001364777,0.001364777,-7.50E-13,2.91E-13,4.98E-13,9.80E-14,-0.001391578,0.001391578,-0.001415959,0.001415959,-0.001415959,0.001415959,-0.001415959,0.001415959,-0.001415959,0.001415959,-0.001364777,0.001364777,-0.001364777,0.001364777,-0.001364777,0.001364777,-0.001364777,0.001364777,-6.89E-12,6.91E-12,-0.001391578,0.001391578,-2.02E-13,2.21E-13,-0.001415959,0.001415959,-0.001415959,0.001415959,-0.001415959,0.001415959,-0.001415959,0.001415959,-0.001364777,0.001364777,-0.001364777,0.001364777,0.756119824,0.833111574,1368840,32768,0.00578145,0.00578145,0.00578145,29.28666341,29.28692315,0.000149493,0.000149493,0.000149493,245959.4101,0.017495831
32227200,0.999992208,0.016914923,0.005638308,0.005638308,0.005638308,-0.001391659,0.001391659,6.22E-12,-7.07E-12,6.48E-14,-9.32E-13,-0.001416001,0.001416001,-0.001416001,0.001416001,-0.001416001,0.001416001,-0.001416001,0.001416001,-0.00136489,0.00136489,-0.00136489,0.00136489,-7.51E-13,2.96E-13,5.02E-13,9.96E-14,-0.001391659,0.001391659,-0.001416001,0.001416001,-0.001416001,0.001416001,-0.001416001,0.001416001,-0.001416001,0.001416001,-0.00136489,0.00136489,-0.00136489,0.00136489,-0.00136489,0.00136489,-0.00136489,0.00136489,-6.89E-12,6.91E-12,-0.001391659,0.001391659,-2.04E-13,2.22E-13,-0.001416001,0.001416001,-0.001416001,0.001416001,-0.001416001,0.001416001,-0.001416001,0.001416001,-0.00136489,0.00136489,-0.00136489,0.00136489,0.759775651,0.860983236,1368840,32768,0.005781784,0.005781784,0.005781784,29.29054574,29.2908054,0.000149524,0.000149524,0.000149524,243403.493,0.017496851
32313600,0.999992493,0.016914928,0.005638309,0.005638309,0.005638309,-0.001391738,0.001391738,6.22E-12,-7.07E-12,6.88E-14,-9.38E-13,-0.001416043,0.001416043,-0.001416043,0.001416043,-0.001416043,0.001416043,-0.001416043,0.001416043,-0.001365002,0.001365002,-0.001365002,0.001365002,-7.55E-13,3.02E-13,5.02E-13,1.01E-13,-0.001391738,0.001391738,-0.001416043,0.001416043,-0.001416043,0.001416043,-0.001416043,0.001416043,-0.001416043,0.001416043,-0.001365002,0.001365002,-0.001365002,0.001365002,-0.001365002,0.001365002,-0.001365002,0.001365002,-6.89E-12,6.91E-12,-0.001391738,0.001391738,-2.02E-13,2.22E-13,-0.001416043,0.001416043,-0.001416043,0.001416043,-0.001416043,0.001416043,-0.001416043,0.001416043,-0.001365002,0.001365002,-0.001365002,0.001365002,0.763735226,0.888854897,1368840,32768,0.005782115,0.005782115,0.005782115,29.29442794,29.29468766,0.000149555,0.000149555,0.000149555,240837.6831,0.01749786
32400000,0.999992768,0.016914932,0.005638311,0.005638311,0.005638311,-0.001391817,0.001391817,6.22E-12,-7.07E-12,6.71E-14,-9.41E-13,-0.001416083,0.001416083,-0.001416083,0.001416083,-0.001416083,0.001416083,-0.001416083,0.001416083,-0.001365112,0.001365112,-0.001365112,0.001365112,-7.54E-13,3.04E-13,5.02E-13,1.06E-13,-0.001391817,0.001391817,-0.001416083,0.001416083,-0.001416083,0.001416083,-0.001416083,0.001416083,-0.001416083,0.001416083,-0.001365112,0.001365112,-0.001365112,0.001365112,-0.001365112,0.001365112,-0.001365112,0.001365112,-6.89E-12,6.91E-12,-0.001391817,0.001391817,-2.00E-13,2.19E-13,-0.001416083,0.001416083,-0.001416083,0.001416083,-0.001416083,0.001416083,-0.001416083,0.001416083,-0.001365112,0.001365112,-0.001365112,0.001365112,0.767936707,0.916726559,1368840,32768,0.005782441,0.005782441,0.005782441,29.29831012,29.29856991,0.000149586,0.000149586,0.000149586,238279.4106,0.017498857
32486400,0.999993033,0.016914937,0.005638312,0.005638312,0.005638312,-0.001391892,0.001391892,6.22E-12,-7.06E-12,7.16E-14,-9.49E-13,-0.001416122,0.001416122,-0.001416122,0.001416122,-0.001416122,0.001416122,-0.001416122,0.001416122,-0.001365217,0.001365217,-0.001365217,0.001365217,-7.61E-13,3.09E-13,5.01E-13,1.11E-13,-0.001391892,0.001391892,-0.001416122,0.001416122,-0.001416122,0.001416122,-0.001416122,0.001416122,-0.001416122,0.001416122,-0.001365217,0.001365217,-0.001365217,0.001365217,-0.001365217,0.001365217,-0.001365217,0.001365217,-6.88E-12,6.91E-12,-0.001391892,0.001391892,-1.93E-13,2.21E-13,-0.001416122,0.001416122,-0.001416122,0.001416122,-0.001416122,0.001416122,-0.001416122,0.001416122,-0.001365217,0.001365217,-0.001365217,0.001365217,0.7632262,0.814810107,1368840,32768,0.005782752,0.005782752,0.005782752,29.30102533,29.3012096,0.000149608,0.000149608,0.000149608,235750.2398,0.017499808
32572800,0.999993288,0.016914941,0.005638314,0.005638314,0.005638314,-0.001391625,0.001391625,6.20E-12,-7.06E-12,7.82E-14,-9.64E-13,-0.001415961,0.001415961,-0.001415961,0.001415961,-0.001415961,0.001415961,-0.001415961,0.001415961,-0.001364848,0.001364848,-0.001364848,0.001364848,-7.77E-13,3.15E-13,4.80E-13,1.02E-13,-0.001391625,0.001391625,-0.001415961,0.001415961,-0.001415961,0.001415961,-0.001415961,0.001415961,-0.001415961,0.001415961,-0.001364848,0.001364848,-0.001364848,0.001364848,-0.001364848,0.001364848,-0.001364848,0.001364848,-6.87E-12,6.90E-12,-0.001391625,0.001391625,-1.85E-13,2.18E-13,-0.001415961,0.001415961,-0.001415961,0.001415961,-0.001415961,0.001415961,-0.001415961,0.001415961,-0.001364848,0.001364848,-0.001364848,0.001364848,0.756261025,0.710552282,1368840,32768,0.005781643,0.005781643,0.005781643,29.27723694,29.2757071,0.000149418,0.000149418,0.000149418,241477.4236,0.017496421
32659200,0.999993533,0.016914945,0.005638315,0.005638315,0.005638315,-0.001391321,0.001391321,6.21E-12,-7.04E-12,8.03E-14,-9.63E-13,-0.001415784,0.001415784,-0.001415784,0.001415784,-0.001415784,0.001415784,-0.001415784,0.001415784,-0.001364428,0.001364428,-0.001364428,0.001364428,-7.82E-13,3.12E-13,4.93E-13,9.90E-14,-0.001391321,0.001391321,-0.001415784,0.001415784,-0.001415784,0.001415784,-0.001415784,0.001415784,-0.001415784,0.001415784,-0.001364428,0.001364428,-0.001364428,0.001364428,-0.001364428,0.001364428,-0.001364428,0.001364428,-6.87E-12,6.89E-12,-0.001391321,0.001391321,-1.96E-13,2.22E-13,-0.001415784,0.001415784,-0.001415784,0.001415784,-0.001415784,0.001415784,-0.001415784,0.001415784,-0.001364428,0.001364428,-0.001364428,0.001364428,0.748297528,0.606294458,1368840,32768,0.005780385,0.005780385,0.005780385,29.25189182,29.2502046,0.000149215,0.000149215,0.000149215,248463.6824,0.017492583
32745600,0.999993769,0.016914949,0.005638316,0.005638316,0.005638316,-0.001390991,0.001390991,6.20E-12,-7.07E-12,7.87E-14,-9.70E-13,-0.001415599,0.001415599,-0.001415599,0.001415599,-0.001415599,0.001415599,-0.001415599,0.001415599,-0.001363966,0.001363966,-0.001363966,0.001363966,-7.73E-13,3.26E-13,5.04E-13,1.11E-13,-0.001390991,0.001390991,-0.001415599,0.001415599,-0.001415599,0.001415599,-0.001415599,0.001415599,-0.001415599,0.001415599,-0.001363966,0.001363966,-0.001363966,0.001363966,-0.001363966,0.001363966,-0.001363966,0.001363966,-6.89E-12,6.89E-12,-0.001390991,0.001390991,-2.01E-13,2.16E-13,-0.001415599,0.001415599,-0.001415599,0.001415599,-0.001415599,0.001415599,-0.001415599,0.001415599,-0.001363966,0.001363966,-0.001363966,0.001363966,0.739751118,0.502036633,1368840,32768,0.005779019,0.005779019,0.005779019,29.22640454,29.22470209,0.000149011,0.000149011,0.000149011,256419.8764,0.017488414
32832000,0.999993996,0.016914953,0.005638318,0.005638318,0.005638318,-0.001390634,0.001390634,6.17E-12,-7.09E-12,8.39E-14,-1.00E-12,-0.001415398,0.001415398,-0.001415398,0.001415398,-0.001415398,0.001415398,-0.001415398,0.001415398,-0.001363468,0.001363468,-0.001363468,0.001363468,-8.13E-13,3.22E-13,4.82E-13,1.06E-13,-0.001390634,0.001390634,-0.001415398,0.001415398,-0.001415398,0.001415398,-0.001415398,0.001415398,-0.001415398,0.001415398,-0.001363468,0.001363468,-0.001363468,0.001363468,-0.001363468,0.001363468,-0.001363468,0.001363468,-6.86E-12,6.91E-12,-0.001390634,0.001390634,-1.69E-13,2.31E-13,-0.001415398,0.001415398,-0.001415398,0.001415398,-0.001415398,0.001415398,-0.001415398,0.001415398,-0.001363468,0.001363468,-0.001363468,0.001363468,0.731352968,0.404609272,1368840,32768,0.00577754,0.00577754,0.00577754,29.20090342,29.19919959,0.000148807,0.000148807,0.000148807,265262.7553,0.0174839
32918400,0.999994214,0.016914956,0.005638319,0.005638319,0.005638319,-0.00139027,0.00139027,6.18E-12,-7.10E-12,8.93E-14,-1.00E-12,-0.001415197,0.001415197,-0.001415197,0.001415197,-0.001415197,0.001415197,-0.001415197,0.001415197,-0.001362956,0.001362956,-0.001362956,0.001362956,-7.95E-13,3.45E-13,4.79E-13,1.22E-13,-0.00139027,0.00139027,-0.001415197,0.001415197,-0.001415197,0.001415197,-0.001415197,0.001415197,-0.001415197,0.001415197,-0.001362956,0.001362956,-0.001362956,0.001362956,-0.001362956,0.001362956,-0.001362956,0.001362956,-6.90E-12,6.89E-12,-0.00139027,0.00139027,-2.03E-13,1.78E-13,-0.001415197,0.001415197,-0.001415197,0.001415197,-0.001415197,0.001415197,-0.001415197,0.001415197,-0.001362956,0.001362956,-0.001362956,0.001362956,0.74157912,0.591366933,1368840,32768,0.005776029,0.005776029,0.005776029,29.17540085,29.17369709,0.000148603,0.000148603,0.000148603,274498.789,0.017479289
33004800,0.999994425,0.01691496,0.00563832,0.00563832,0.00563832,-0.001390765,0.001390765,6.21E-12,-7.07E-12,9.44E-14,-9.89E-13,-0.001415427,0.001415427,-0.001415427,0.001415427,-0.001415427,0.001415427,-0.001415427,0.001415427,-0.001363699,0.001363699,-0.001363699,0.001363699,-7.93E-13,3.41E-13,4.76E-13,1.31E-13,-0.001390765,0.001390765,-0.001415427,0.001415427,-0.001415427,0.001415427,-0.001415427,0.001415427,-0.001415427,0.001415427,-0.001363699,0.001363699,-0.001363699,0.001363699,-0.001363699,0.001363699,-0.001363699,0.001363699,-6.89E-12,6.91E-12,-0.001390765,0.001390765,-1.78E-13,1.91E-13,-0.001415427,0.001415427,-0.001415427,0.001415427,-0.001415427,0.001415427,-0.001415427,0.001415427,-0.001363699,0.001363699,-0.001363699,0.001363699,0.742938162,0.625031857,1368840,32768,0.00577808,0.00577808,0.00577808,29.14989823,29.14819459,0.000148399,0.000148399,0.000148399,258678.2191,0.017485547
33091200,0.999994627,0.016914963,0.005638321,0.005638321,0.005638321,-0.001390804,0.001390804,6.22E-12,-7.07E-12,9.13E-14,-9.78E-13,-0.00141542,0.00141542,-0.00141542,0.00141542,-0.00141542,0.00141542,-0.00141542,0.00141542,-0.001363783,0.001363783,-0.001363783,0.001363783,-7.81E-13,3.39E-13,4.83E-13,1.64E-13,-0.001390804,0.001390804,-0.00141542,0.00141542,-0.00141542,0.00141542,-0.00141542,0.00141542,-0.00141542,0.00141542,-0.001363783,0.001363783,-0.001363783,0.001363783,-0.001363783,0.001363783,-0.001363783,0.001363783,-6.90E-12,6.90E-12,-0.001390804,0.001390804,-1.75E-13,1.67E-13,-0.00141542,0.00141542,-0.00141542,0.00141542,-0.00141542,0.00141542,-0.00141542,0.00141542,-0.001363783,0.001363783,-0.001363783,0.001363783,0.753027478,0.799780998,1368840,32768,0.005778244,0.005778244,0.005778244,29.12439614,29.12269208,0.000148195,0.000148195,0.000148195,255887.7507,0.017486047
33177600,0.999994821,0.016914966,0.005638322,0.005638322,0.005638322,-0.001391191,0.001391191,6.20E-12,-7.07E-12,8.97E-14,-9.75E-13,-0.001415591,0.001415591,-0.001415591,0.001415591,-0.001415591,0.001415591,-0.001415591,0.001415591,-0.001364372,0.001364372,-0.001364372,0.001364372,-7.74E-13,3.41E-13,4.75E-13,1.51E-13,-0.001391191,0.001391191,-0.001415591,0.001415591,-0.001415591,0.001415591,-0.001415591,0.001415591,-0.001415591,0.001415591,-0.001364372,0.001364372,-0.001364372,0.001364372,-0.001364372,0.001364372,-0.001364372,0.001364372,-6.90E-12,6.89E-12,-0.001391191,0.001391191,-1.79E-13,1.69E-13,-0.001415591,0.001415591,-0.001415591,0.001415591,-0.001415591,0.001415591,-0.001415591,0.001415591,-0.001364372,0.001364372,-0.001364372,0.001364372,0.755939561,0.821298089,1368840,32768,0.005779848,0.005779848,0.005779848,29.09889377,29.09718958,0.000147991,0.000147991,0.000147991,243311.0483,0.017490941
33264000,0.999995009,0.016914969,0.005638323,0.005638323,0.005638323,-0.001391219,0.001391219,6.20E-12,-7.07E-12,8.85E-14,-9.80E-13,-0.001415587,0.001415587,-0.001415587,0.001415587,-0.001415587,0.001415587,-0.001415587,0.001415587,-0.001364427,0.001364427,-0.001364427,0.001364427,-7.75E-13,3.45E-13,4.73E-13,1.53E-13,-0.001391219,0.001391219,-0.001415587,0.001415587,-0.001415587,0.001415587,-0.001415587,0.001415587,-0.001415587,0.001415587,-0.001364427,0.001364427,-0.001364427,0.001364427,-0.001364427,0.001364427,-0.001364427,0.001364427,-6.90E-12,6.89E-12,-0.001391219,0.001391219,-1.76E-13,1.67E-13,-0.001415587,0.001415587,-0.001415587,0.001415587,-0.001415587,0.001415587,-0.001415587,0.001415587,-0.001364427,0.001364427,-0.001364427,0.001364427,0.759054993,0.84281518,1368840,32768,0.005779963,0.005779963,0.005779963,29.08280147,29.08170456,0.000147862,0.000147862,0.000147862,241140.0399,0.017491295
33350400,0.999995191,0.016914972,0.005638324,0.005638324,0.005638324,-0.001391513,0.001391513,6.20E-12,-7.09E-12,1.06E-13,-1.01E-12,-0.001415846,0.001415846,-0.001415846,0.001415846,-0.001415846,0.001415846,-0.001415846,0.001415846,-0.00136475,0.00136475,-0.00136475,0.00136475,-8.04E-13,3.63E-13,4.52E-13,1.80E-13,-0.001391513,0.001391513,-0.001415846,0.001415846,-0.001415846,0.001415846,-0.001415846,0.001415846,-0.001415846,0.001415846,-0.00136475,0.00136475,-0.00136475,0.00136475,-0.00136475,0.00136475,-0.00136475,0.00136475,-6.92E-12,6.88E-12,-0.001391513,0.001391513,-1.60E-13,1.36E-13,-0.001415846,0.001415846,-0.001415846,0.001415846,-0.001415846,0.001415846,-0.001415846,0.001415846,-0.00136475,0.00136475,-0.00136475,0.00136475,0.762370382,0.864332271,1368840,32768,0.005781182,0.005781182,0.005781182,29.20506156,29.21292077,0.00014884,0.00014884,0.00014884,238910.1308,0.017495013
33436800,0.999995367,0.016914975,0.005638325,0.005638325,0.005638325,-0.001391822,0.001391822,6.25E-12,-7.04E-12,1.82E-13,-9.48E-13,-0.001416124,0.001416124,-0.001416124,0.001416124,-0.001416124,0.001416124,-0.001416124,0.001416124,-0.001365083,0.001365083,-0.001365083,0.001365083,-7.46E-13,4.34E-13,4.42E-13,1.47E-13,-0.001391822,0.001391822,-0.001416124,0.001416124,-0.001416124,0.001416124,-0.001416124,0.001416124,-0.001416124,0.001416124,-0.001365083,0.001365083,-0.001365083,0.001365083,-0.001365083,0.001365083,-0.001365083,0.001365083,-6.74E-12,7.06E-12,-0.001391822,0.001391822,-3.52E-14,2.83E-13,-0.001416124,0.001416124,-0.001416124,0.001416124,-0.001416124,0.001416124,-0.001416124,0.001416124,-0.001365083,0.001365083,-0.001365083,0.001365083,0.765861331,0.885849362,1368840,32768,0.005782461,0.005782461,0.005782461,29.33544789,29.34413698,0.000149884,0.000149884,0.000149884,236788.8908,0.017498917
33523200,0.999995539,0.016914978,0.005638326,0.005638326,0.005638326,-0.001392131,0.001392131,6.19E-12,-7.11E-12,1.13E-13,-1.02E-12,-0.001416403,0.001416403,-0.001416403,0.001416403,-0.001416403,0.001416403,-0.001416403,0.001416403,-0.001365416,0.001365416,-0.001365416,0.001365416,-7.05E-13,4.78E-13,4.62E-13,1.91E-13,-0.001392131,0.001392131,-0.001416403,0.001416403,-0.001416403,0.001416403,-0.001416403,0.001416403,-0.001416403,0.001416403,-0.001365416,0.001365416,-0.001365416,0.001365416,-0.001365416,0.001365416,-0.001365416,0.001365416,-6.91E-12,6.90E-12,-0.001392131,0.001392131,-1.34E-13,1.61E-13,-0.001416403,0.001416403,-0.001416403,0.001416403,-0.001416403,0.001416403,-0.001416403,0.001416403,-0.001365416,0.001365416,-0.001365416,0.001365416,0.769500749,0.907366454,1368840,32768,0.005783741,0.005783741,0.005783741,29.46657716,29.4753532,0.000150933,0.000150933,0.000150933,234688.8497,0.017502825
33609600,0.999995705,0.016914981,0.005638327,0.005638327,0.005638327,-0.001392439,0.001392439,6.20E-12,-7.09E-12,1.21E-13,-1.02E-12,-0.00141668,0.00141668,-0.00141668,0.00141668,-0.00141668,0.00141668,-0.00141668,0.00141668,-0.001365748,0.001365748,-0.001365748,0.001365748,-7.91E-13,4.02E-13,4.43E-13,1.91E-13,-0.001392439,0.001392439,-0.00141668,0.00141668,-0.00141668,0.00141668,-0.00141668,0.00141668,-0.00141668,0.00141668,-0.001365748,0.001365748,-0.001365748,0.001365748,-0.001365748,0.001365748,-0.001365748,0.001365748,-6.92E-12,6.88E-12,-0.001392439,0.001392439,-1.64E-13,1.13E-13,-0.00141668,0.00141668,-0.00141668,0.00141668,-0.00141668,0.00141668,-0.00141668,0.00141668,-0.001365748,0.001365748,-0.001365748,0.001365748,0.768433418,0.858129312,1368840,32768,0.005785017,0.005785017,0.005785017,29.59778295,29.60656941,0.000151982,0.000151982,0.000151982,232604.1861,0.01750672
33696000,0.999995866,0.016914984,0.005638328,0.005638328,0.005638328,-0.001392592,0.001392592,6.22E-12,-7.05E-12,1.56E-13,-1.02E-12,-0.00141688,0.00141688,-0.00141688,0.00141688,-0.00141688,0.00141688,-0.00141688,0.00141688,-0.001365854,0.001365854,-0.001365854,0.001365854,-7.80E-13,4.48E-13,4.58E-13,2.32E-13,-0.001392592,0.001392592,-0.00141688,0.00141688,-0.00141688,0.00141688,-0.00141688,0.00141688,-0.00141688,0.00141688,-0.001365854,0.001365854,-0.001365854,0.001365854,-0.001365854,0.001365854,-0.001365854,0.001365854,-6.87E-12,6.92E-12,-0.001392592,0.001392592,-1.20E-13,1.31E-13,-0.00141688,0.00141688,-0.00141688,0.00141688,-0.00141688,0.00141688,-0.00141688,0.00141688,-0.001365854,0.001365854,-0.001365854,0.001365854,0.774893809,0.941435666,1368840,32768,0.00578565,0.00578565,0.00578565,29.72899032,29.73778562,0.000153032,0.000153032,0.000153032,234904.0186,0.017508652
33782400,0.999996022,0.016914986,0.005638329,0.005638329,0.005638329,-0.001393026,0.001393026,6.20E-12,-7.09E-12,1.15E-13,-1.03E-12,-0.001417226,0.001417226,-0.001417226,0.001417226,-0.001417226,0.001417226,-0.001417226,0.001417226,-0.001366369,0.001366369,-0.001366369,0.001366369,-8.00E-13,3.91E-13,4.29E-13,2.20E-13,-0.001393026,0.001393026,-0.001417226,0.001417226,-0.001417226,0.001417226,-0.001417226,0.001417226,-0.001417226,0.001417226,-0.001366369,0.001366369,-0.001366369,0.001366369,-0.001366369,0.001366369,-0.001366369,0.001366369,-6.92E-12,6.88E-12,-0.001393026,0.001393026,-1.36E-13,9.75E-14,-0.001417226,0.001417226,-0.001417226,0.001417226,-0.001417226,0.001417226,-0.001417226,0.001417226,-0.001366369,0.001366369,-0.001366369,0.001366369,0.775682474,0.912361656,1368840,32768,0.00578745,0.00578745,0.00578745,29.86020285,29.86900184,0.000154082,0.000154082,0.000154082,229465.5004,0.017514148
33868800,0.999996174,0.016914989,0.00563833,0.00563833,0.00563833,-0.001393226,0.001393226,6.19E-12,-7.10E-12,9.94E-14,-1.03E-12,-0.001417449,0.001417449,-0.001417449,0.001417449,-0.001417449,0.001417449,-0.001417449,0.001417449,-0.001366543,0.001366543,-0.001366543,0.001366543,-7.79E-13,3.96E-13,4.21E-13,2.16E-13,-0.001393226,0.001393226,-0.001417449,0.001417449,-0.001417449,0.001417449,-0.001417449,0.001417449,-0.001417449,0.001417449,-0.001366543,0.001366543,-0.001366543,0.001366543,-0.001366543,0.001366543,-0.001366543,0.001366543,-6.92E-12,6.88E-12,-0.001393226,0.001393226,-1.51E-13,7.78E-14,-0.001417449,0.001417449,-0.001417449,0.001417449,-0.001417449,0.001417449,-0.001417449,0.001417449,-0.001366543,0.001366543,-0.001366543,0.001366543,0.76926648,0.799126064,1368840,32768,0.005788279,0.005788279,0.005788279,29.99142041,30.00021805,0.000155131,0.000155131,0.000155131,230381.2437,0.017516677
33955200,0.999996321,0.016914991,0.00563833,0.00563833,0.00563833,-0.00139323,0.00139323,6.22E-12,-7.08E-12,1.08E-13,-1.00E-12,-0.001417574,0.001417574,-0.001417574,0.001417574,-0.001417574,0.001417574,-0.001417574,0.001417574,-0.001366433,0.001366433,-0.001366433,0.001366433,-7.89E-13,3.68E-13,4.46E-13,1.99E-13,-0.00139323,0.00139323,-0.001417574,0.001417574,-0.001417574,0.001417574,-0.001417574,0.001417574,-0.001417574,0.001417574,-0.001366433,0.001366433,-0.001366433,0.001366433,-0.001366433,0.001366433,-0.001366433,0.001366433,-6.93E-12,6.88E-12,-0.00139323,0.00139323,-1.96E-13,7.60E-14,-0.001417574,0.001417574,-0.001417574,0.001417574,-0.001417574,0.001417574,-0.001417574,0.001417574,-0.001366433,0.001366433,-0.001366433,0.001366433,0.767289076,0.774343357,1368840,32768,0.005788294,0.005788294,0.005788294,30.12263462,30.13143426,0.000156181,0.000156181,0.000156181,237005.561,0.017516724
34041600,0.999996463,0.016914994,0.005638331,0.005638331,0.005638331,-0.001393443,0.001393443,6.21E-12,-7.06E-12,1.38E-13,-9.88E-13,-0.001417822,0.001417822,-0.001417822,0.001417822,-0.001417822,0.001417822,-0.001417822,0.001417822,-0.001366615,0.001366615,-0.001366615,0.001366615,-7.59E-13,4.17E-13,4.52E-13,1.90E-13,-0.001393443,0.001393443,-0.001417822,0.001417822,-0.001417822,0.001417822,-0.001417822,0.001417822,-0.001417822,0.001417822,-0.001366615,0.001366615,-0.001366615,0.001366615,-0.001366615,0.001366615,-0.001366615,0.001366615,-6.87E-12,6.92E-12,-0.001393443,0.001393443,-1.53E-13,1.34E-13,-0.001417822,0.001417822,-0.001417822,0.001417822,-0.001417822,0.001417822,-0.001417822,0.001417822,-0.001366615,0.001366615,-0.001366615,0.001366615,0.765153537,0.750986434,1368840,32768,0.005789177,0.005789177,0.005789177,30.26568471,30.27525387,0.000157325,0.000157325,0.000157325,238598.7315,0.017519418
34128000,0.999996602,0.016914996,0.005638332,0.005638332,0.005638332,-0.001393904,0.001393904,6.07E-12,-7.21E-12,5.27E-14,-1.17E-12,-0.001418312,0.001418312,-0.001418312,0.001418312,-0.001418312,0.001418312,-0.001418312,0.001418312,-0.001367048,0.001367048,-0.001367048,0.001367048,-7.55E-13,5.17E-13,4.49E-13,1.86E-13,-0.001393904,0.001393904,-0.001418312,0.001418312,-0.001418312,0.001418312,-0.001418312,0.001418312,-0.001418312,0.001418312,-0.001367048,0.001367048,-0.001367048,0.001367048,-0.001367048,0.001367048,-0.001367048,0.001367048,-7.02E-12,6.78E-12,-0.001393904,0.001393904,-2.83E-13,5.29E-15,-0.001418312,0.001418312,-0.001418312,0.001418312,-0.001418312,0.001418312,-0.001418312,0.001418312,-0.001367048,0.001367048,-0.001367048,0.001367048,0.762841194,0.72762951,1368840,32768,0.005791085,0.005791085,0.005791085,30.53593414,30.5537825,0.000159487,0.000159487,0.000159487,240088.7997,0.017525245
34214400,0.999996738,0.016914998,0.005638333,0.005638333,0.005638333,-0.001394378,0.001394378,5.98E-12,-7.25E-12,-1.74E-14,-1.32E-12,-0.00141882,0.00141882,-0.00141882,0.00141882,-0.00141882,0.00141882,-0.00141882,0.00141882,-0.001367492,0.001367492,-0.001367492,0.001367492,-8.64E-13,4.98E-13,3.50E-13,1.60E-13,-0.001394378,0.001394378,-0.00141882,0.00141882,-0.00141882,0.00141882,-0.00141882,0.00141882,-0.00141882,0.00141882,-0.001367492,0.001367492,-0.001367492,0.001367492,-0.001367492,0.001367492,-0.001367492,0.001367492,-7.05E-12,6.70E-12,-0.001394378,0.001394378,-2.66E-13,-5.09E-14,-0.00141882,0.00141882,-0.00141882,0.00141882,-0.00141882,0.00141882,-0.00141882,0.00141882,-0.001367492,0.001367492,-0.001367492,0.001367492,0.758349795,0.674316683,1368840,32768,0.00579305,0.00579305,0.00579305,30.81368585,30.83231114,0.000161709,0.000161709,0.000161709,241696.5567,0.017531242
34300800,0.99999687,0.016915001,0.005638334,0.005638334,0.005638334,-0.001394778,0.001394778,6.11E-12,-7.02E-12,1.98E-13,-1.17E-12,-0.00141929,0.00141929,-0.00141929,0.00141929,-0.00141929,0.00141929,-0.00141929,0.00141929,-0.001367828,0.001367828,-0.001367828,0.001367828,-7.91E-13,6.25E-13,5.74E-13,3.54E-13,-0.001394778,0.001394778,-0.00141929,0.00141929,-0.00141929,0.00141929,-0.00141929,0.00141929,-0.00141929,0.00141929,-0.001367828,0.001367828,-0.001367828,0.001367828,-0.001367828,0.001367828,-0.001367828,0.001367828,-6.77E-12,6.87E-12,-0.001394778,0.001394778,-8.74E-14,1.56E-13,-0.00141929,0.00141929,-0.00141929,0.00141929,-0.00141929,0.00141929,-0.00141929,0.00141929,-0.001367828,0.001367828,-0.001367828,0.001367828,0.75287686,0.611100287,1368840,32768,0.005794704,0.005794704,0.005794704,31.0921256,31.11083977,0.000163937,0.000163937,0.000163937,245498.2071,0.017536292
34387200,0.999996999,0.016915003,0.005638334,0.005638334,0.005638334,-0.001395144,0.001395144,6.19E-12,-6.94E-12,2.31E-13,-1.12E-12,-0.001419741,0.001419741,-0.001419741,0.001419741,-0.001419741,0.001419741,-0.001419741,0.001419741,-0.001368118,0.001368118,-0.001368118,0.001368118,-8.76E-13,5.22E-13,5.30E-13,3.21E-13,-0.001395144,0.001395144,-0.001419741,0.001419741,-0.001419741,0.001419741,-0.001419741,0.001419741,-0.001419741,0.001419741,-0.001368118,0.001368118,-0.001368118,0.001368118,-0.001368118,0.001368118,-0.001368118,0.001368118,-6.87E-12,6.77E-12,-0.001395144,0.001395144,-1.14E-13,1.19E-13,-0.001419741,0.001419741,-0.001419741,0.001419741,-0.001419741,0.001419741,-0.001419741,0.001419741,-0.001368118,0.001368118,-0.001368118,0.001368118,0.755098945,0.666903797,1368840,32768,0.00579622,0.00579622,0.00579622,31.37063023,31.3893684,0.000166165,0.000166165,0.000166165,250283.0464,0.017540921
34473600,0.999997124,0.016915005,0.005638335,0.005638335,0.005638335,-0.001395819,0.001395819,6.02E-12,-7.12E-12,7.91E-14,-1.29E-12,-0.001420356,0.001420356,-0.001420356,0.001420356,-0.001420356,0.001420356,-0.001420356,0.001420356,-0.001368851,0.001368851,-0.001368851,0.001368851,-1.03E-12,3.88E-13,3.61E-13,1.80E-13,-0.001395819,0.001395819,-0.001420356,0.001420356,-0.001420356,0.001420356,-0.001420356,0.001420356,-0.001420356,0.001420356,-0.001368851,0.001368851,-0.001368851,0.001368851,-0.001368851,0.001368851,-0.001368851,0.001368851,-6.88E-12,6.78E-12,-0.001395819,0.001395819,-1.73E-13,3.29E-14,-0.001420356,0.001420356,-0.001420356,0.001420356,-0.001420356,0.001420356,-0.001420356,0.001420356,-0.001368851,0.001368851,-0.001368851,0.001368851,0.757830687,0.722707306,1368840,32768,0.005799017,0.005799017,0.005799017,31.64914045,31.66789703,0.000168393,0.000168393,0.000168393,246345.4199,0.017549458
34560000,0.999997246,0.016915007,0.005638336,0.005638336,0.005638336,-0.001396492,0.001396492,6.05E-12,-7.03E-12,1.44E-13,-1.20E-12,-0.001420963,0.001420963,-0.001420963,0.001420963,-0.001420963,0.001420963,-0.001420963,0.001420963,-0.001369588,0.001369588,-0.001369588,0.001369588,-8.30E-13,5.59E-13,4.93E-13,3.23E-13,-0.001396492,0.001396492,-0.001420963,0.001420963,-0.001420963,0.001420963,-0.001420963,0.001420963,-0.001420963,0.001420963,-0.001369588,0.001369588,-0.001369588,0.001369588,-0.001369588,0.001369588,-0.001369588,0.001369588,-6.79E-12,6.80E-12,-0.001396492,0.001396492,-6.88E-14,1.25E-13,-0.001420963,0.001420963,-0.001420963,0.001420963,-0.001420963,0.001420963,-0.001420963,0.001420963,-0.001369588,0.001369588,-0.001369588,0.001369588,0.761277606,0.778510816,1368840,32768,0.005801806,0.005801806,0.005801806,31.92764949,31.94642566,0.000170621,0.000170621,0.000170621,242329.8439,0.01755797
34646400,0.999997365,0.016915009,0.005638336,0.005638336,0.005638336,-0.001397163,0.001397163,6.08E-12,-7.01E-12,2.07E-13,-1.18E-12,-0.001421568,0.001421568,-0.001421568,0.001421568,-0.001421568,0.001421568,-0.001421568,0.001421568,-0.001370321,0.001370321,-0.001370321,0.001370321,-8.91E-13,5.48E-13,4.83E-13,2.48E-13,-0.001397163,0.001397163,-0.001421568,0.001421568,-0.001421568,0.001421568,-0.001421568,0.001421568,-0.001421568,0.001421568,-0.001370321,0.001370321,-0.001370321,0.001370321,-0.001370321,0.001370321,-0.001370321,0.001370321,-6.83E-12,6.78E-12,-0.001397163,0.001397163,-1.51E-13,1.07E-13,-0.001421568,0.001421568,-0.001421568,0.001421568,-0.001421568,0.001421568,-0.001421568,0.001421568,-0.001370321,0.001370321,-0.001370321,0.001370321,0.765662621,0.834314326,1368840,32768,0.005804587,0.005804587,0.005804587,32.20615621,32.2249543,0.000172849,0.000172849,0.000172849,238298.141,0.017566459
34732800,0.999997481,0.016915011,0.005638337,0.005638337,0.005638337,-0.001398059,0.001398059,6.04E-12,-7.08E-12,1.63E-13,-1.23E-12,-0.001422393,0.001422393,-0.001422393,0.001422393,-0.001422393,0.001422393,-0.001422393,0.001422393,-0.001371279,0.001371279,-0.001371279,0.001371279,-8.36E-13,6.11E-13,6.07E-13,2.19E-13,-0.001398059,0.001398059,-0.001422393,0.001422393,-0.001422393,0.001422393,-0.001422393,0.001422393,-0.001422393,0.001422393,-0.001371279,0.001371279,-0.001371279,0.001371279,-0.001371279,0.001371279,-0.001371279,0.001371279,-6.78E-12,6.86E-12,-0.001398059,0.001398059,-1.62E-13,2.49E-13,-0.001422393,0.001422393,-0.001422393,0.001422393,-0.001422393,0.001422393,-0.001422393,0.001422393,-0.001371279,0.001371279,-0.001371279,0.001371279,0.770955847,0.890117835,1368840,32768,0.005808296,0.005808296,0.005808296,32.60161343,32.62807704,0.000176013,0.000176013,0.000176013,234127.1372,0.017577783
34819200,0.999997595,0.016915013,0.005638338,0.005638338,0.005638338,-0.001399045,0.001399045,6.07E-12,-7.02E-12,8.38E-14,-1.09E-12,-0.001423311,0.001423311,-0.001423311,0.001423311,-0.001423311,0.001423311,-0.001423311,0.001423311,-0.001372325,0.001372325,-0.001372325,0.001372325,-7.97E-13,4.27E-13,6.26E-13,6.04E-15,-0.001399045,0.001399045,-0.001423311,0.001423311,-0.001423311,0.001423311,-0.001423311,0.001423311,-0.001423311,0.001423311,-0.001372325,0.001372325,-0.001372325,0.001372325,-0.001372325,0.001372325,-0.001372325,0.001372325,-6.78E-12,6.82E-12,-0.001399045,0.001399045,-2.87E-13,3.55E-13,-0.001423311,0.001423311,-0.001423311,0.001423311,-0.001423311,0.001423311,-0.001423311,0.001423311,-0.001372325,0.001372325,-0.001372325,0.001372325,0.769495728,0.83758764,1368840,32768,0.005812381,0.005812381,0.005812381,33.04516737,33.07506279,0.000179561,0.000179561,0.000179561,229990.4374,0.017590251
34905600,0.999997706,0.016915015,0.005638338,0.005638338,0.005638338,-0.0013998,0.0013998,6.27E-12,-6.78E-12,2.90E-13,-9.30E-13,-0.001424115,0.001424115,-0.001424115,0.001424115,-0.001424115,0.001424115,-0.001424115,0.001424115,-0.001373032,0.001373032,-0.001373032,0.001373032,-6.06E-13,6.68E-13,7.24E-13,1.64E-13,-0.0013998,0.0013998,-0.001424115,0.001424115,-0.001424115,0.001424115,-0.001424115,0.001424115,-0.001424115,0.001424115,-0.001373032,0.001373032,-0.001373032,0.001373032,-0.001373032,0.001373032,-0.001373032,0.001373032,-6.70E-12,6.86E-12,-0.0013998,0.0013998,-2.25E-13,3.61E-13,-0.001424115,0.001424115,-0.001424115,0.001424115,-0.001424115,0.001424115,-0.001424115,0.001424115,-0.001373032,0.001373032,-0.001373032,0.001373032,0.768188876,0.806136881,1368840,32768,0.005815509,0.005815509,0.005815509,33.49179494,33.52204853,0.000183134,0.000183134,0.000183134,232471.7528,0.017599803
34992000,0.999997815,0.016915016,0.005638339,0.005638339,0.005638339,-0.001400594,0.001400594,6.03E-12,-7.10E-12,3.21E-14,-1.30E-12,-0.001424945,0.001424945,-0.001424945,0.001424945,-0.001424945,0.001424945,-0.001424945,0.001424945,-0.001373793,0.001373793,-0.001373793,0.001373793,-8.80E-13,5.04E-13,6.16E-13,3.03E-14,-0.001400594,0.001400594,-0.001424945,0.001424945,-0.001424945,0.001424945,-0.001424945,0.001424945,-0.001424945,0.001424945,-0.001373793,0.001373793,-0.001373793,0.001373793,-0.001373793,0.001373793,-0.001373793,0.001373793,-6.81E-12,6.83E-12,-0.001400594,0.001400594,-2.96E-13,3.13E-13,-0.001424945,0.001424945,-0.001424945,0.001424945,-0.001424945,0.001424945,-0.001424945,0.001424945,-0.001373793,0.001373793,-0.001373793,0.001373793,0.763993371,0.744650794,1368840,32768,0.005818799,0.005818799,0.005818799,33.93871545,33.96903427,0.00018671,0.00018671,0.00018671,234093.6079,0.017609846
35078400,0.999997921,0.016915018,0.005638339,0.005638339,0.005638339,-0.001401312,0.001401312,6.10E-12,-7.11E-12,1.31E-13,-1.29E-12,-0.001425735,0.001425735,-0.001425735,0.001425735,-0.001425735,0.001425735,-0.001425735,0.001425735,-0.001374445,0.001374445,-0.001374445,0.001374445,-1.00E-12,4.68E-13,6.60E-13,2.55E-14,-0.001401312,0.001401312,-0.001425735,0.001425735,-0.001425735,0.001425735,-0.001425735,0.001425735,-0.001425735,0.001425735,-0.001374445,0.001374445,-0.001374445,0.001374445,-0.001374445,0.001374445,-0.001374445,0.001374445,-6.71E-12,7.00E-12,-0.001401312,0.001401312,-2.46E-13,4.11E-13,-0.001425735,0.001425735,-0.001425735,0.001425735,-0.001425735,0.001425735,-0.001425735,0.001425735,-0.001374445,0.001374445,-0.001374445,0.001374445,0.760656296,0.706229669,1368840,32768,0.005821774,0.005821774,0.005821774,34.38566152,34.41602002,0.000190285,0.000190285,0.000190285,237961.3861,0.017618929
35164800,0.999998025,0.01691502,0.00563834,0.00563834,0.00563834,-0.001402078,0.001402078,6.07E-12,-7.12E-12,2.24E-13,-1.23E-12,-0.001426552,0.001426552,-0.001426552,0.001426552,-0.001426552,0.001426552,-0.001426552,0.001426552,-0.001375165,0.001375165,-0.001375165,0.001375165,-9.46E-13,5.58E-13,6.90E-13,1.00E-13,-0.001402078,0.001402078,-0.001426552,0.001426552,-0.001426552,0.001426552,-0.001426552,0.001426552,-0.001426552,0.001426552,-0.001375165,0.001375165,-0.001375165,0.001375165,-0.001375165,0.001375165,-0.001375165,0.001375165,-6.80E-12,6.89E-12,-0.001402078,0.001402078,-2.20E-13,3.94E-13,-0.001426552,0.001426552,-0.001426552,0.001426552,-0.001426552,0.001426552,-0.001426552,0.001426552,-0.001375165,0.001375165,-0.001375165,0.001375165,0.757049625,0.667808545,1368840,32768,0.005824945,0.005824945,0.005824945,34.83260956,34.86300576,0.000193861,0.000193861,0.000193861,240597.5279,0.017628609
35251200,0.999998126,0.016915022,0.005638341,0.005638341,0.005638341,-0.001402839,0.001402839,6.03E-12,-7.15E-12,2.69E-13,-1.13E-12,-0.001427366,0.001427366,-0.001427366,0.001427366,-0.001427366,0.001427366,-0.001427366,0.001427366,-0.00137588,0.00137588,-0.00137588,0.00137588,-9.43E-13,5.09E-13,6.73E-13,9.48E-14,-0.001402839,0.001402839,-0.001427366,0.001427366,-0.001427366,0.001427366,-0.001427366,0.001427366,-0.001427366,0.001427366,-0.00137588,0.00137588,-0.00137588,0.00137588,-0.00137588,0.00137588,-0.00137588,0.00137588,-6.80E-12,6.89E-12,-0.001402839,0.001402839,-2.09E-13,3.91E-13,-0.001427366,0.001427366,-0.001427366,0.001427366,-0.001427366,0.001427366,-0.001427366,0.001427366,-0.00137588,0.00137588,-0.00137588,0.00137588,0.753263757,0.62938742,1368840,32768,0.005828101,0.005828101,0.005828101,35.27955714,35.3099915,0.000197436,0.000197436,0.000197436,243372.0717,0.017638243
35337600,0.999998223,0.016915023,0.005638341,0.005638341,0.005638341,-0.001403476,0.001403476,6.04E-12,-7.06E-12,9.31E-14,-1.29E-12,-0.001428059,0.001428059,-0.001428059,0.001428059,-0.001428059,0.001428059,-0.001428059,0.001428059,-0.001376468,0.001376468,-0.001376468,0.001376468,-8.76E-13,5.58E-13,7.42E-13,1.67E-13,-0.001403476,0.001403476,-0.001428059,0.001428059,-0.001428059,0.001428059,-0.001428059,0.001428059,-0.001428059,0.001428059,-0.001376468,0.001376468,-0.001376468,0.001376468,-0.001376468,0.001376468,-0.001376468,0.001376468,-6.73E-12,6.89E-12,-0.001403476,0.001403476,-7.03E-14,5.27E-13,-0.001428059,0.001428059,-0.001428059,0.001428059,-0.001428059,0.001428059,-0.001428059,0.001428059,-0.001376468,0.001376468,-0.001376468,0.001376468,0.749355374,0.590966296,1368840,32768,0.005830738,0.005830738,0.005830738,35.66353836,35.6898627,0.000200508,0.000200508,0.000200508,246319.678,0.017646297
35424000,0.999998317,0.016915025,0.005638342,0.005638342,0.005638342,-0.001403915,0.001403915,6.00E-12,-7.00E-12,1.31E-13,-1.21E-12,-0.001428557,0.001428558,-0.001428558,0.001428557,-0.001428557,0.001428558,-0.001428558,0.001428557,-0.001376855,0.001376855,-0.001376855,0.001376855,-9.97E-13,3.94E-13,6.03E-13,-1.02E-14,-0.001403915,0.001403915,-0.001428558,0.001428558,-0.001428558,0.001428558,-0.001428557,0.001428558,-0.001428558,0.001428558,-0.001376855,0.001376855,-0.001376855,0.001376855,-0.001376855,0.001376855,-0.001376855,0.001376855,-6.70E-12,6.82E-12,-0.001403915,0.001403915,-2.39E-13,3.96E-13,-0.001428558,0.001428557,-0.001428558,0.001428557,-0.001428557,0.001428558,-0.001428557,0.001428558,-0.001376855,0.001376855,-0.001376855,0.001376855,0.745363869,0.552545171,1368840,32768,0.005832556,0.005832556,0.005832556,35.94679843,35.96637023,0.000202774,0.000202774,0.000202774,249410.345,0.017651847
35510400,0.999998408,0.016915026,0.005638342,0.005638342,0.005638342,-0.001404339,0.001404339,6.05E-12,-6.99E-12,1.67E-13,-1.15E-12,-0.001429041,0.001429041,-0.001429041,0.001429041,-0.001429041,0.001429041,-0.001429041,0.001429041,-0.001377227,0.001377227,-0.001377227,0.001377227,-8.86E-13,4.80E-13,6.62E-13,7.13E-14,-0.001404339,0.001404339,-0.001429041,0.001429041,-0.001429041,0.001429041,-0.001429041,0.001429041,-0.001429041,0.001429041,-0.001377227,0.001377227,-0.001377227,0.001377227,-0.001377227,0.001377227,-0.001377227,0.001377227,-6.73E-12,6.83E-12,-0.001404339,0.001404339,-2.55E-13,3.58E-13,-0.001429041,0.001429041,-0.001429041,0.001429041,-0.001429041,0.001429041,-0.001429041,0.001429041,-0.001377227,0.001377227,-0.001377227,0.001377227,0.750050252,0.647015851,1368840,32768,0.005834311,0.005834311,0.005834311,36.22392647,36.24287775,0.000204991,0.000204991,0.000204991,252577.3619,0.017657204
35596800,0.999998494,0.016915028,0.005638343,0.005638343,0.005638343,-0.001405118,0.001405118,6.02E-12,-7.06E-12,2.04E-13,-1.23E-12,-0.0014297,0.0014297,-0.0014297,0.0014297,-0.0014297,0.0014297,-0.0014297,0.0014297,-0.00137812,0.00137812,-0.00137812,0.00137812,-9.14E-13,5.68E-13,7.00E-13,1.48E-13,-0.001405118,0.001405118,-0.0014297,0.0014297,-0.0014297,0.0014297,-0.0014297,0.0014297,-0.0014297,0.0014297,-0.00137812,0.00137812,-0.00137812,0.00137812,-0.00137812,0.00137812,-0.00137812,0.00137812,-6.73E-12,6.87E-12,-0.001405118,0.001405118,-2.27E-13,3.47E-13,-0.0014297,0.0014297,-0.0014297,0.0014297,-0.0014297,0.0014297,-0.0014297,0.0014297,-0.00137812,0.00137812,-0.00137812,0.00137812,0.733908184,0.426196443,1368840,32768,0.005837538,0.005837538,0.005837538,36.50048439,36.51938528,0.000207204,0.000207204,0.000207204,245466.5502,0.017667055
35683200,0.999998578,0.016915029,0.005638343,0.005638343,0.005638343,-0.001405027,0.001405027,6.06E-12,-7.04E-12,1.60E-13,-1.19E-12,-0.001429924,0.001429924,-0.001429924,0.001429924,-0.001429924,0.001429924,-0.001429924,0.001429924,-0.001377743,0.001377743,-0.001377743,0.001377743,-8.91E-13,5.13E-13,6.36E-13,8.18E-14,-0.001405027,0.001405027,-0.001429924,0.001429924,-0.001429924,0.001429924,-0.001429924,0.001429924,-0.001429924,0.001429924,-0.001377743,0.001377743,-0.001377743,0.001377743,-0.001377743,0.001377743,-0.001377743,0.001377743,-6.78E-12,6.83E-12,-0.001405027,0.001405027,-2.59E-13,3.18E-13,-0.001429924,0.001429924,-0.001429924,0.001429924,-0.001429924,0.001429924,-0.001429924,0.001429924,-0.001377743,0.001377743,-0.001377743,0.001377743,0.738305047,0.518633303,1368840,32768,0.00583716,0.00583716,0.00583716,36.77698379,36.79589281,0.000209416,0.000209416,0.000209416,263534.0748,0.017665903
35769600,0.999998657,0.01691503,0.005638343,0.005638343,0.005638343,-0.001405825,0.001405825,6.08E-12,-7.04E-12,1.81E-13,-1.11E-12,-0.001430594,0.001430594,-0.001430594,0.001430594,-0.001430594,0.001430594,-0.001430594,0.001430594,-0.001378663,0.001378663,-0.001378663,0.001378663,-8.05E-13,5.38E-13,6.37E-13,7.53E-14,-0.001405825,0.001405825,-0.001430594,0.001430594,-0.001430594,0.001430594,-0.001430594,0.001430594,-0.001430594,0.001430594,-0.001378663,0.001378663,-0.001378663,0.001378663,-0.001378663,0.001378663,-0.001378663,0.001378663,-6.76E-12,6.87E-12,-0.001405825,0.001405825,-2.47E-13,3.38E-13,-0.001430594,0.001430594,-0.001430594,0.001430594,-0.001430594,0.001430594,-0.001430594,0.001430594,-0.001378663,0.001378663,-0.001378663,0.001378663,0.742674604,0.604322539,1368840,32768,0.005840467,0.005840467,0.005840467,37.05347595,37.07240034,0.000211628,0.000211628,0.000211628,255806.6213,0.017675998
35856000,0.999998734,0.016915031,0.005638344,0.005638344,0.005638344,-0.00140659,0.00140659,6.10E-12,-6.92E-12,1.70E-13,-1.09E-12,-0.001431243,0.001431243,-0.001431243,0.001431243,-0.001431243,0.001431243,-0.001431243,0.001431243,-0.001379538,0.001379538,-0.001379538,0.001379538,-7.34E-13,5.77E-13,7.65E-13,1.81E-13,-0.00140659,0.00140659,-0.001431243,0.001431243,-0.001431243,0.001431243,-0.001431243,0.001431243,-0.001431243,0.001431243,-0.001379538,0.001379538,-0.001379538,0.001379538,-0.001379538,0.001379538,-0.001379538,0.001379538,-6.83E-12,6.70E-12,-0.00140659,0.00140659,-4.11E-13,1.98E-13,-0.001431243,0.001431243,-0.001431243,0.001431243,-0.001431243,0.001431243,-0.001431243,0.001431243,-0.001379538,0.001379538,-0.001379538,0.001379538,0.747476467,0.690011774,1368840,32768,0.005843638,0.005843638,0.005843638,37.32996588,37.34890787,0.00021384,0.00021384,0.00021384,248988.8657,0.017685678
35942400,0.999998807,0.016915033,0.005638344,0.005638344,0.005638344,-0.001407343,0.001407343,6.06E-12,-6.93E-12,1.92E-13,-1.08E-12,-0.001431887,0.001431887,-0.001431887,0.001431887,-0.001431887,0.001431887,-0.001431887,0.001431887,-0.001380394,0.001380394,-0.001380394,0.001380394,-8.62E-13,4.62E-13,6.51E-13,5.89E-14,-0.001407343,0.001407343,-0.001431887,0.001431887,-0.001431887,0.001431887,-0.001431887,0.001431887,-0.001431887,0.001431887,-0.001380394,0.001380394,-0.001380394,0.001380394,-0.001380394,0.001380394,-0.001380394,0.001380394,-6.69E-12,6.82E-12,-0.001407343,0.001407343,-2.75E-13,3.39E-13,-0.001431887,0.001431887,-0.001431887,0.001431887,-0.001431887,0.001431887,-0.001431887,0.001431887,-0.001380394,0.001380394,-0.001380394,0.001380394,0.753280207,0.77570101,1368840,32768,0.005846758,0.005846758,0.005846758,37.60645251,37.6254154,0.000216052,0.000216052,0.000216052,242532.4731,0.017695205
36028800,0.999998877,0.016915034,0.005638345,0.005638345,0.005638345,-0.001408087,0.001408087,6.06E-12,-6.97E-12,2.22E-13,-1.04E-12,-0.001432524,0.001432524,-0.001432524,0.001432524,-0.001432524,0.001432524,-0.001432524,0.001432524,-0.001381236,0.001381236,-0.001381236,0.001381236,-8.31E-13,4.77E-13,6.82E-13,3.72E-14,-0.001408087,0.001408087,-0.001432524,0.001432524,-0.001432524,0.001432524,-0.001432524,0.001432524,-0.001432524,0.001432524,-0.001381236,0.001381236,-0.001381236,0.001381236,-0.001381236,0.001381236,-0.001381236,0.001381236,-6.70E-12,6.85E-12,-0.001408087,0.001408087,-2.76E-13,3.92E-13,-0.001432524,0.001432524,-0.001432524,0.001432524,-0.001432524,0.001432524,-0.001432524,0.001432524,-0.001381236,0.001381236,-0.001381236,0.001381236,0.7586326,0.830802221,1368840,32768,0.005849839,0.005849839,0.005849839,37.88293725,37.90192292,0.000218263,0.000218263,0.000218263,236254.3994,0.017704609
36115200,0.999998943,0.016915035,0.005638345,0.005638345,0.005638345,-0.001408438,0.001408438,6.06E-12,-6.98E-12,1.43E-13,-1.09E-12,-0.001432808,0.001432808,-0.001432808,0.001432808,-0.001432808,0.001432808,-0.001432808,0.001432808,-0.001381646,0.001381646,-0.001381646,0.001381646,-8.37E-13,4.43E-13,6.24E-13,3.47E-14,-0.001408438,0.001408438,-0.001432808,0.001432808,-0.001432808,0.001432808,-0.001432808,0.001432808,-0.001432808,0.001432808,-0.001381646,0.001381646,-0.001381646,0.001381646,-0.001381646,0.001381646,-0.001381646,0.001381646,-6.72E-12,6.83E-12,-0.001408438,0.001408438,-2.60E-13,3.53E-13,-0.001432808,0.001432808,-0.001432808,0.001432808,-0.001432808,0.001432808,-0.001432808,0.001432808,-0.001381646,0.001381646,-0.001381646,0.001381646,0.754978828,0.753546613,1368840,32768,0.005851291,0.005851291,0.005851291,37.99475357,38.00282757,0.000219158,0.000219158,0.000219158,232036.1642,0.017709044
36201600,0.999999005,0.016915036,0.005638345,0.005638345,0.005638345,-0.001408018,0.001408018,6.05E-12,-6.99E-12,1.44E-13,-1.08E-12,-0.001432476,0.001432476,-0.001432476,0.001432476,-0.001432476,0.001432476,-0.001432476,0.001432476,-0.001381145,0.001381145,-0.001381145,0.001381145,-8.20E-13,4.55E-13,6.31E-13,5.60E-14,-0.001408018,0.001408018,-0.001432476,0.001432476,-0.001432476,0.001432476,-0.001432476,0.001432476,-0.001432476,0.001432476,-0.001381145,0.001381145,-0.001381145,0.001381145,-0.001381145,0.001381145,-0.001381145,0.001381145,-6.74E-12,6.82E-12,-0.001408018,0.001408018,-2.58E-13,3.40E-13,-0.001432476,0.001432476,-0.001432476,0.001432476,-0.001432476,0.001432476,-0.001432476,0.001432476,-0.001381145,0.001381145,-0.001381145,0.001381145,0.753648651,0.730451913,1368840,32768,0.005849554,0.005849554,0.005849554,37.8648372,37.85652108,0.000218119,0.000218119,0.000218119,236533.7278,0.01770374
36288000,0.999999063,0.016915037,0.005638346,0.005638346,0.005638346,-0.001407686,0.001407686,6.06E-12,-7.01E-12,1.23E-13,-1.09E-12,-0.001432171,0.001432171,-0.001432171,0.001432171,-0.001432171,0.001432171,-0.001432171,0.001432171,-0.001380788,0.001380788,-0.001380788,0.001380788,-8.17E-13,4.46E-13,6.24E-13,5.23E-14,-0.001407686,0.001407686,-0.001432171,0.001432171,-0.001432171,0.001432171,-0.001432171,0.001432171,-0.001432171,0.001432171,-0.001380788,0.001380788,-0.001380788,0.001380788,-0.001380788,0.001380788,-0.001380788,0.001380788,-6.76E-12,6.83E-12,-0.001407686,0.001407686,-2.59E-13,3.36E-13,-0.001432171,0.001432171,-0.001432171,0.001432171,-0.001432171,0.001432171,-0.001432171,0.001432171,-0.001380788,0.001380788,-0.001380788,0.001380788,0.752247391,0.711498418,1368840,32768,0.005848176,0.005848176,0.005848176,37.72007817,37.71021458,0.000216961,0.000216961,0.000216961,237791.6877,0.017699534
36374400,0.999999117,0.016915038,0.005638346,0.005638346,0.005638346,-0.001407358,0.001407358,6.09E-12,-6.99E-12,1.30E-13,-1.06E-12,-0.001431866,0.001431866,-0.001431866,0.001431866,-0.001431866,0.001431866,-0.001431866,0.001431866,-0.001380439,0.001380439,-0.001380439,0.001380439,-8.20E-13,4.24E-13,6.08E-13,3.53E-14,-0.001407358,0.001407358,-0.001431866,0.001431866,-0.001431866,0.001431866,-0.001431866,0.001431866,-0.001431866,0.001431866,-0.001380439,0.001380439,-0.001380439,0.001380439,-0.001380439,0.001380439,-0.001380439,0.001380439,-6.75E-12,6.84E-12,-0.001407358,0.001407358,-2.56E-13,3.40E-13,-0.001431866,0.001431866,-0.001431866,0.001431866,-0.001431866,0.001431866,-0.001431866,0.001431866,-0.001380439,0.001380439,-0.001380439,0.001380439,0.750633242,0.692544922,1368840,32768,0.005846819,0.005846819,0.005846819,37.57392335,37.56390809,0.000215791,0.000215791,0.000215791,238870.1393,0.017695389
36460800,0.999999167,0.016915039,0.005638346,0.005638346,0.005638346,-0.001407028,0.001407028,6.07E-12,-7.00E-12,1.17E-13,-1.05E-12,-0.00143156,0.00143156,-0.00143156,0.00143156,-0.00143156,0.00143156,-0.00143156,0.00143156,-0.001380088,0.001380088,-0.001380088,0.001380088,-8.09E-13,4.09E-13,6.03E-13,2.29E-14,-0.001407028,0.001407028,-0.00143156,0.00143156,-0.00143156,0.00143156,-0.00143156,0.00143156,-0.00143156,0.00143156,-0.001380088,0.001380088,-0.001380088,0.001380088,-0.001380088,0.001380088,-0.001380088,0.001380088,-6.74E-12,6.84E-12,-0.001407028,0.001407028,-2.64E-13,3.39E-13,-0.00143156,0.00143156,-0.00143156,0.00143156,-0.00143156,0.00143156,-0.00143156,0.00143156,-0.001380088,0.001380088,-0.001380088,0.001380088,0.748863718,0.673591427,1368840,32768,0.005845453,0.005845453,0.005845453,37.42762787,37.4176016,0.000214621,0.000214621,0.000214621,240022.0178,0.01769122
36547200,0.999999214,0.016915039,0.005638346,0.005638346,0.005638346,-0.001406697,0.001406697,6.07E-12,-6.99E-12,1.02E-13,-1.03E-12,-0.001431254,0.001431254,-0.001431254,0.001431254,-0.001431254,0.001431254,-0.001431254,0.001431254,-0.001379735,0.001379735,-0.001379735,0.001379735,-7.82E-13,4.05E-13,6.24E-13,5.18E-14,-0.001406697,0.001406697,-0.001431254,0.001431254,-0.001431254,0.001431254,-0.001431254,0.001431254,-0.001431254,0.001431254,-0.001379735,0.001379735,-0.001379735,0.001379735,-0.001379735,0.001379735,-0.001379735,0.001379735,-6.72E-12,6.85E-12,-0.001406697,0.001406697,-2.42E-13,3.53E-13,-0.001431254,0.001431254,-0.001431254,0.001431254,-0.001431254,0.001431254,-0.001431254,0.001431254,-0.001379735,0.001379735,-0.001379735,0.001379735,0.737514172,0.517348441,1368840,32768,0.005844082,0.005844082,0.005844082,37.28131682,37.27129511,0.000213451,0.000213451,0.000213451,241232.7099,0.017687034
36633600,0.999999259,0.01691504,0.005638347,0.005638347,0.005638347,-0.001405998,0.001405998,6.09E-12,-6.99E-12,1.27E-13,-1.03E-12,-0.00143076,0.00143076,-0.00143076,0.00143076,-0.00143076,0.00143076,-0.00143076,0.00143076,-0.001378847,0.001378847,-0.001378847,0.001378847,-7.33E-13,4.72E-13,6.46E-13,4.72E-14,-0.001405998,0.001405998,-0.00143076,0.00143076,-0.00143076,0.00143076,-0.00143076,0.00143076,-0.00143076,0.00143076,-0.001378847,0.001378847,-0.001378847,0.001378847,-0.001378847,0.001378847,-0.001378847,0.001378847,-6.74E-12,6.85E-12,-0.001405998,0.001405998,-2.71E-13,3.50E-13,-0.00143076,0.00143076,-0.00143076,0.00143076,-0.00143076,0.00143076,-0.00143076,0.00143076,-0.001378847,0.001378847,-0.001378847,0.001378847,0.733611455,0.481564016,1368840,32768,0.005841184,0.005841184,0.005841184,37.13500547,37.12498861,0.00021228,0.00021228,0.00021228,253120.7641,0.017678186
36720000,0.9999993,0.016915041,0.005638347,0.005638347,0.005638347,-0.001405604,0.001405604,6.08E-12,-6.95E-12,6.42E-14,-9.47E-13,-0.001430429,0.001430429,-0.001430429,0.001430429,-0.001430429,0.001430429,-0.001430429,0.001430429,-0.001378401,0.001378401,-0.001378401,0.001378401,-7.30E-13,3.32E-13,6.43E-13,-5.46E-14,-0.001405604,0.001405604,-0.001430429,0.001430429,-0.001430429,0.001430429,-0.001430429,0.001430429,-0.001430429,0.001430429,-0.001378401,0.001378401,-0.001378401,0.001378401,-0.001378401,0.001378401,-0.001378401,0.001378401,-6.71E-12,6.83E-12,-0.001405604,0.001405604,-2.99E-13,4.21E-13,-0.001430429,0.001430429,-0.001430429,0.001430429,-0.001430429,0.001430429,-0.001430429,0.001430429,-0.001378401,0.001378401,-0.001378401,0.001378401,0.737807765,0.568346528,1368840,32768,0.005839554,0.005839554,0.005839554,36.98869435,36.97868212,0.00021111,0.00021111,0.00021111,256352.7786,0.017673212
36806400,0.999999339,0.016915041,0.005638347,0.005638347,0.005638347,-0.001405557,0.001405557,6.09E-12,-6.92E-12,5.72E-14,-9.29E-13,-0.001430265,0.001430265,-0.001430265,0.001430265,-0.001430265,0.001430265,-0.001430265,0.001430265,-0.001378463,0.001378463,-0.001378463,0.001378463,-7.42E-13,2.94E-13,6.34E-13,-8.87E-14,-0.001405557,0.001405557,-0.001430265,0.001430265,-0.001430265,0.001430265,-0.001430265,0.001430265,-0.001430265,0.001430265,-0.001378463,0.001378463,-0.001378463,0.001378463,-0.001378463,0.001378463,-0.001378463,0.001378463,-6.70E-12,6.82E-12,-0.001405557,0.001405557,-3.07E-13,4.38E-13,-0.001430265,0.001430265,-0.001430265,0.001430265,-0.001430265,0.001430265,-0.001430265,0.001430265,-0.001378463,0.001378463,-0.001378463,0.001378463,0.727645379,0.431940254,1368840,32768,0.005839359,0.005839359,0.005839359,36.84238287,36.83237563,0.000209939,0.000209939,0.000209939,249450.8001,0.017672617
36892800,0.999999376,0.016915042,0.005638347,0.005638347,0.005638347,-0.00140511,0.00140511,6.08E-12,-6.93E-12,5.86E-14,-9.18E-13,-0.001430013,0.001430013,-0.001430013,0.001430013,-0.001430013,0.001430013,-0.001430013,0.001430013,-0.001377837,0.001377837,-0.001377837,0.001377837,-7.55E-13,2.72E-13,6.44E-13,-6.07E-14,-0.00140511,0.00140511,-0.001430013,0.001430013,-0.001430013,0.001430013,-0.001430013,0.001430013,-0.001430013,0.001430013,-0.001377837,0.001377837,-0.001377837,0.001377837,-0.001377837,0.001377837,-0.001377837,0.001377837,-6.69E-12,6.83E-12,-0.00140511,0.00140511,-2.99E-13,4.28E-13,-0.001430013,0.001430013,-0.001430013,0.001430013,-0.001430013,0.001430013,-0.001430013,0.001430013,-0.001377837,0.001377837,-0.001377837,0.001377837,0.73199885,0.520152808,1368840,32768,0.005837504,0.005837504,0.005837504,36.81451518,36.81232695,0.000209716,0.000209716,0.000209716,260776.8515,0.017666954
36979200,0.99999941,0.016915043,0.005638348,0.005638348,0.005638348,-0.001405615,0.001405615,6.05E-12,-6.92E-12,7.22E-14,-8.81E-13,-0.001430391,0.001430391,-0.001430391,0.001430391,-0.001430391,0.001430391,-0.001430391,0.001430391,-0.001378461,0.001378461,-0.001378461,0.001378461,-7.44E-13,2.59E-13,6.81E-13,-3.48E-14,-0.001405615,0.001405615,-0.001430391,0.001430391,-0.001430391,0.001430391,-0.001430391,0.001430391,-0.001430391,0.001430391,-0.001378461,0.001378461,-0.001378461,0.001378461,-0.001378461,0.001378461,-0.001378461,0.001378461,-6.63E-12,6.85E-12,-0.001405615,0.001405615,-2.18E-13,5.19E-13,-0.001430391,0.001430391,-0.001430391,0.001430391,-0.001430391,0.001430391,-0.001430391,0.001430391,-0.001378461,0.001378461,-0.001378461,0.001378461,0.736677375,0.608365362,1368840,32768,0.005839596,0.005839596,0.005839596,36.94634736,36.95497055,0.000210771,0.000210771,0.000210771,253307.2126,0.017673341
37065600,0.999999444,0.016915043,0.005638348,0.005638348,0.005638348,-0.001406124,0.001406124,6.09E-12,-6.84E-12,4.76E-14,-9.21E-13,-0.001430783,0.001430783,-0.001430783,0.001430783,-0.001430783,0.001430783,-0.001430783,0.001430783,-0.001379082,0.001379082,-0.001379082,0.001379082,-7.28E-13,2.91E-13,6.75E-13,-9.74E-15,-0.001406124,0.001406124,-0.001430783,0.001430783,-0.001430783,0.001430783,-0.001430783,0.001430783,-0.001430783,0.001430783,-0.001379082,0.001379082,-0.001379082,0.001379082,-0.001379082,0.001379082,-0.001379082,0.001379082,-6.71E-12,6.73E-12,-0.001406124,0.001406124,-3.54E-13,3.52E-13,-0.001430783,0.001430783,-0.001430783,0.001430783,-0.001430783,0.001430783,-0.001430783,0.001430783,-0.001379082,0.001379082,-0.001379082,0.001379082,0.741791448,0.696577916,1368840,32768,0.005841708,0.005841708,0.005841708,37.08796497,37.09761415,0.000211904,0.000211904,0.000211904,246335.9155,0.017679786
37152000,0.999999475,0.016915044,0.005638348,0.005638348,0.005638348,-0.001406622,0.001406622,6.10E-12,-6.88E-12,5.62E-14,-9.10E-13,-0.001431169,0.001431169,-0.001431169,0.001431169,-0.001431169,0.001431169,-0.001431169,0.001431169,-0.001379685,0.001379685,-0.001379685,0.001379685,-7.47E-13,2.68E-13,6.90E-13,-3.89E-14,-0.001406622,0.001406622,-0.001431169,0.001431169,-0.001431169,0.001431169,-0.001431169,0.001431169,-0.001431169,0.001431169,-0.001379685,0.001379685,-0.001379685,0.001379685,-0.001379685,0.001379685,-0.001379685,0.001379685,-6.63E-12,6.86E-12,-0.001406622,0.001406622,-2.96E-13,4.55E-13,-0.001431169,0.001431169,-0.001431169,0.001431169,-0.001431169,0.001431169,-0.001431169,0.001431169,-0.001379685,0.001379685,-0.001379685,0.001379685,0.74806144,0.78479047,1368840,32768,0.005843772,0.005843772,0.005843772,37.23049875,37.24025774,0.000213044,0.000213044,0.000213044,239748.8568,0.017686087
37238400,0.999999505,0.016915044,0.005638348,0.005638348,0.005638348,-0.001407111,0.001407111,6.06E-12,-6.84E-12,7.69E-14,-8.58E-13,-0.001431549,0.001431549,-0.001431549,0.001431549,-0.001431549,0.001431549,-0.001431549,0.001431549,-0.001380272,0.001380272,-0.001380272,0.001380272,-7.41E-13,2.44E-13,6.99E-13,-1.15E-13,-0.001407111,0.001407111,-0.001431549,0.001431549,-0.001431549,0.001431549,-0.001431549,0.001431549,-0.001431549,0.001431549,-0.001380272,0.001380272,-0.001380272,0.001380272,-0.001380272,0.001380272,-0.001380272,0.001380272,-6.60E-12,6.81E-12,-0.001407111,0.001407111,-3.60E-13,4.76E-13,-0.001431549,0.001431549,-0.001431549,0.001431549,-0.001431549,0.001431549,-0.001431549,0.001431549,-0.001380272,0.001380272,-0.001380272,0.001380272,0.756191775,0.873003024,1368840,32768,0.005845795,0.005845795,0.005845795,37.3731222,37.38290134,0.000214185,0.000214185,0.000214185,233331.7168,0.017692265
37324800,0.999999533,0.016915045,0.005638348,0.005638348,0.005638348,-0.001407592,0.001407592,6.04E-12,-6.86E-12,4.56E-14,-8.88E-13,-0.001431924,0.001431924,-0.001431924,0.001431924,-0.001431924,0.001431924,-0.001431924,0.001431924,-0.001380845,0.001380845,-0.001380845,0.001380845,-7.15E-13,2.69E-13,7.21E-13,-5.61E-14,-0.001407592,0.001407592,-0.001431924,0.001431924,-0.001431924,0.001431924,-0.001431924,0.001431924,-0.001431924,0.001431924,-0.001380845,0.001380845,-0.001380845,0.001380845,-0.001380845,0.001380845,-0.001380845,0.001380845,-6.60E-12,6.80E-12,-0.001407592,0.001407592,-3.12E-13,4.87E-13,-0.001431924,0.001431924,-0.001431924,0.001431924,-0.001431924,0.001431924,-0.001431924,0.001431924,-0.001380845,0.001380845,-0.001380845,0.001380845,0.751458076,0.76558457,1368840,32768,0.005847789,0.005847789,0.005847789,37.51576442,37.52554494,0.000215326,0.000215326,0.000215326,226954.4684,0.017698349
37411200,0.99999956,0.016915045,0.005638348,0.005638348,0.005638348,-0.001407641,0.001407641,6.07E-12,-6.84E-12,1.07E-13,-9.15E-13,-0.00143208,0.00143208,-0.00143208,0.00143208,-0.00143208,0.00143208,-0.00143208,0.00143208,-0.001380793,0.001380793,-0.001380793,0.001380793,-7.68E-13,3.03E-13,6.50E-13,-1.01E-13,-0.001407641,0.001407641,-0.00143208,0.00143208,-0.00143208,0.00143208,-0.00143208,0.00143208,-0.00143208,0.00143208,-0.001380793,0.001380793,-0.001380793,0.001380793,-0.001380793,0.001380793,-0.001380793,0.001380793,-6.63E-12,6.79E-12,-0.001407641,0.001407641,-2.95E-13,4.79E-13,-0.00143208,0.00143208,-0.00143208,0.00143208,-0.00143208,0.00143208,-0.00143208,0.00143208,-0.001380793,0.001380793,-0.001380793,0.001380793,0.743046267,0.637064242,1368840,32768,0.005847992,0.005847992,0.005847992,37.6584069,37.66818854,0.000216467,0.000216467,0.000216467,232804.4676,0.017698972
37497600,0.999999586,0.016915045,0.005638348,0.005638348,0.005638348,-0.001407608,0.001407608,6.04E-12,-6.87E-12,6.67E-14,-9.29E-13,-0.001432199,0.001432199,-0.001432199,0.001432199,-0.001432199,0.001432199,-0.001432199,0.001432199,-0.001380619,0.001380619,-0.001380619,0.001380619,-7.43E-13,3.04E-13,6.31E-13,-8.90E-14,-0.001407608,0.001407608,-0.001432199,0.001432199,-0.001432199,0.001432199,-0.001432199,0.001432199,-0.001432199,0.001432199,-0.001380619,0.001380619,-0.001380619,0.001380619,-0.001380619,0.001380619,-0.001380619,0.001380619,-6.62E-12,6.80E-12,-0.001407608,0.001407608,-2.80E-13,4.62E-13,-0.001432199,0.001432199,-0.001432199,0.001432199,-0.001432199,0.001432199,-0.001432199,0.001432199,-0.001380619,0.001380619,-0.001380619,0.001380619,0.738706425,0.58517435,1368840,32768,0.005847855,0.005847855,0.005847855,37.80104721,37.81083214,0.000217608,0.000217608,0.000217608,241395.9732,0.017698554
37584000,0.99999961,0.016915046,0.005638349,0.005638349,0.005638349,-0.001407745,0.001407745,6.08E-12,-6.88E-12,1.23E-13,-9.23E-13,-0.001432408,0.001432408,-0.001432408,0.001432408,-0.001432408,0.001432408,-0.001432408,0.001432408,-0.001380691,0.001380691,-0.001380691,0.001380691,-7.61E-13,3.35E-13,6.41E-13,-4.14E-14,-0.001407745,0.001407745,-0.001432408,0.001432408,-0.001432408,0.001432408,-0.001432408,0.001432408,-0.001432408,0.001432408,-0.001380691,0.001380691,-0.001380691,0.001380691,-0.001380691,0.001380691,-0.001380691,0.001380691,-6.64E-12,6.83E-12,-0.001407745,0.001407745,-2.75E-13,4.28E-13,-0.001432408,0.001432408,-0.001432408,0.001432408,-0.001432408,0.001432408,-0.001432408,0.001432408,-0.001380691,0.001380691,-0.001380691,0.001380691,0.734748865,0.542433708,1368840,32768,0.005848422,0.005848422,0.005848422,37.94368715,37.95347574,0.000218749,0.000218749,0.000218749,245308.131,0.017700285
37670400,0.999999633,0.016915046,0.005638349,0.005638349,0.005638349,-0.001407694,0.001407694,6.05E-12,-6.92E-12,8.67E-14,-9.64E-13,-0.001432421,0.001432421,-0.001432421,0.001432421,-0.001432421,0.001432421,-0.001432421,0.001432421,-0.001380582,0.001380582,-0.001380582,0.001380582,-7.42E-13,3.59E-13,6.55E-13,-1.12E-14,-0.001407694,0.001407694,-0.001432421,0.001432421,-0.001432421,0.001432421,-0.001432421,0.001432421,-0.001432421,0.001432421,-0.001380582,0.001380582,-0.001380582,0.001380582,-0.001380582,0.001380582,-0.001380582,0.001380582,-6.68E-12,6.80E-12,-0.001407694,0.001407694,-2.74E-13,4.14E-13,-0.001432421,0.001432421,-0.001432421,0.001432421,-0.001432421,0.001432421,-0.001432421,0.001432421,-0.001380582,0.001380582,-0.001380582,0.001380582,0.730673305,0.499693066,1368840,32768,0.005848208,0.005848208,0.005848208,37.97934679,37.9820509,0.000219035,0.000219035,0.000219035,248787.868,0.017699632
37756800,0.999999655,0.016915047,0.005638349,0.005638349,0.005638349,-0.001407381,0.001407381,6.05E-12,-6.94E-12,7.07E-14,-9.78E-13,-0.001432177,0.001432177,-0.001432177,0.001432177,-0.001432177,0.001432177,-0.001432177,0.001432177,-0.00138021,0.00138021,-0.00138021,0.00138021,-7.49E-13,3.51E-13,6.15E-13,-4.08E-14,-0.001407381,0.001407381,-0.001432177,0.001432177,-0.001432177,0.001432177,-0.001432177,0.001432177,-0.001432177,0.001432177,-0.00138021,0.00138021,-0.00138021,0.00138021,-0.00138021,0.00138021,-0.00138021,0.00138021,-6.68E-12,6.82E-12,-0.001407381,0.001407381,-2.61E-13,4.17E-13,-0.001432177,0.001432177,-0.001432177,0.001432177,-0.001432177,0.001432177,-0.001432177,0.001432177,-0.00138021,0.00138021,-0.00138021,0.00138021,0.726510255,0.456952424,1368840,32768,0.005846913,0.005846913,0.005846913,37.88228318,37.87595611,0.000218258,0.000218258,0.000218258,252447.7196,0.01769568
37843200,0.999999675,0.016915047,0.005638349,0.005638349,0.005638349,-0.001407048,0.001407048,6.10E-12,-6.92E-12,6.86E-14,-9.82E-13,-0.001431911,0.001431911,-0.001431911,0.001431911,-0.001431911,0.001431911,-0.001431911,0.001431911,-0.001379818,0.001379818,-0.001379818,0.001379818,-7.15E-13,3.85E-13,6.91E-13,-5.31E-15,-0.001407048,0.001407048,-0.001431911,0.001431911,-0.001431911,0.001431911,-0.001431911,0.001431911,-0.001431911,0.001431911,-0.001379818,0.001379818,-0.001379818,0.001379818,-0.001379818,0.001379818,-0.001379818,0.001379818,-6.71E-12,6.83E-12,-0.001407048,0.001407048,-2.85E-13,4.34E-13,-0.001431911,0.001431911,-0.001431911,0.001431911,-0.001431911,0.001431911,-0.001431911,0.001431911,-0.001379818,0.001379818,-0.001379818,0.001379818,0.723441927,0.431320057,1368840,32768,0.005845534,0.005845534,0.005845534,37.77704172,37.76986131,0.000217416,0.000217416,0.000217416,256196.3419,0.017691467
37929600,0.999999694,0.016915047,0.005638349,0.005638349,0.005638349,-0.00140676,0.00140676,6.09E-12,-6.94E-12,7.96E-14,-9.57E-13,-0.001431668,0.001431668,-0.001431668,0.001431668,-0.001431668,0.001431668,-0.001431668,0.001431668,-0.001379492,0.001379492,-0.001379492,0.001379492,-7.67E-13,3.20E-13,6.43E-13,-3.49E-14,-0.00140676,0.00140676,-0.001431668,0.001431668,-0.001431668,0.001431668,-0.001431668,0.001431668,-0.001431668,0.001431668,-0.001379492,0.001379492,-0.001379492,0.001379492,-0.001379492,0.001379492,-0.001379492,0.001379492,-6.71E-12,6.83E-12,-0.00140676,0.00140676,-2.86E-13,4.14E-13,-0.001431668,0.001431668,-0.001431668,0.001431668,-0.001431668,0.001431668,-0.001431668,0.001431668,-0.001379492,0.001379492,-0.001379492,0.001379492,0.728230881,0.525480268,1368840,32768,0.005844342,0.005844342,0.005844342,37.67103087,37.66376651,0.000216568,0.000216568,0.000216568,258590.8361,0.017687829
38016000,0.999999711,0.016915047,0.005638349,0.005638349,0.005638349,-0.00140682,0.00140682,6.09E-12,-6.94E-12,7.93E-14,-9.58E-13,-0.001431599,0.001431599,-0.001431599,0.001431599,-0.001431599,0.001431599,-0.001431599,0.001431599,-0.001379674,0.001379674,-0.001379674,0.001379674,-7.72E-13,3.15E-13,6.16E-13,-5.52E-14,-0.00140682,0.00140682,-0.001431599,0.001431599,-0.001431599,0.001431599,-0.001431599,0.001431599,-0.001431599,0.001431599,-0.001379674,0.001379674,-0.001379674,0.001379674,-0.001379674,0.001379674,-0.001379674,0.001379674,-6.71E-12,6.83E-12,-0.00140682,0.00140682,-2.98E-13,3.96E-13,-0.001431599,0.001431599,-0.001431599,0.001431599,-0.001431599,0.001431599,-0.001431599,0.001431599,-0.001379674,0.001379674,-0.001379674,0.001379674,0.729793852,0.561986972,1368840,32768,0.005844591,0.005844591,0.005844591,37.5649426,37.55767171,0.00021572,0.00021572,0.00021572,250796.9467,0.01768859
38102400,0.999999728,0.016915048,0.005638349,0.005638349,0.005638349,-0.001406713,0.001406713,6.09E-12,-6.95E-12,7.44E-14,-9.66E-13,-0.001431441,0.001431441,-0.001431441,0.001431441,-0.001431441,0.001431441,-0.001431441,0.001431441,-0.001379615,0.001379615,-0.001379615,0.001379615,-7.76E-13,3.16E-13,6.17E-13,-4.35E-14,-0.001406713,0.001406713,-0.001431441,0.001431441,-0.001431441,0.001431441,-0.001431441,0.001431441,-0.001431441,0.001431441,-0.001379615,0.001379615,-0.001379615,0.001379615,-0.001379615,0.001379615,-0.001379615,0.001379615,-6.72E-12,6.83E-12,-0.001406713,0.001406713,-2.85E-13,3.97E-13,-0.001431441,0.001431441,-0.001431441,0.001431441,-0.001431441,0.001431441,-0.001431441,0.001431441,-0.001379615,0.001379615,-0.001379615,0.001379615,0.73019942,0.577184433,1368840,32768,0.005844148,0.005844148,0.005844148,37.45884636,37.45157692,0.000214871,0.000214871,0.000214871,247777.4109,0.017687236
38188800,0.999999743,0.016915048,0.005638349,0.005638349,0.005638349,-0.001406549,0.001406549,6.09E-12,-6.94E-12,8.12E-14,-9.75E-13,-0.001431256,0.001431256,-0.001431256,0.001431256,-0.001431256,0.001431256,-0.001431256,0.001431256,-0.001379471,0.001379471,-0.001379471,0.001379471,-7.73E-13,3.33E-13,6.42E-13,-2.03E-14,-0.001406549,0.001406549,-0.001431256,0.001431256,-0.001431256,0.001431256,-0.001431256,0.001431256,-0.001431256,0.001431256,-0.001379471,0.001379471,-0.001379471,0.001379471,-0.001379471,0.001379471,-0.001379471,0.001379471,-6.71E-12,6.83E-12,-0.001406549,0.001406549,-2.88E-13,3.97E-13,-0.001431256,0.001431256,-0.001431256,0.001431256,-0.001431256,0.001431256,-0.001431256,0.001431256,-0.001379471,0.001379471,-0.001379471,0.001379471,0.730551924,0.590299287,1368840,32768,0.005843466,0.005843466,0.005843466,37.35274933,37.34548212,0.000214022,0.000214022,0.000214022,246439.7441,0.017685154
38275200,0.999999758,0.016915048,0.005638349,0.005638349,0.005638349,-0.001406379,0.001406379,6.07E-12,-6.95E-12,7.88E-14,-1.00E-12,-0.001431068,0.001431068,-0.001431068,0.001431068,-0.001431068,0.001431068,-0.001431068,0.001431068,-0.001379318,0.001379318,-0.001379318,0.001379318,-7.81E-13,3.48E-13,6.36E-13,-2.01E-14,-0.001406379,0.001406379,-0.001431068,0.001431068,-0.001431068,0.001431068,-0.001431068,0.001431068,-0.001431068,0.001431068,-0.001379318,0.001379318,-0.001379318,0.001379318,-0.001379318,0.001379318,-0.001379318,0.001379318,-6.72E-12,6.81E-12,-0.001406379,0.001406379,-2.77E-13,4.01E-13,-0.001431068,0.001431068,-0.001431068,0.001431068,-0.001431068,0.001431068,-0.001431068,0.001431068,-0.001379318,0.001379318,-0.001379318,0.001379318,0.730971021,0.603414141,1368840,32768,0.005842761,0.005842761,0.005842761,37.24665223,37.23938732,0.000213173,0.000213173,0.000213173,245257.6296,0.017683001
38361600,0.999999772,0.016915048,0.005638349,0.005638349,0.005638349,-0.001406318,0.001406318,6.08E-12,-6.92E-12,1.06E-13,-9.91E-13,-0.001430988,0.001430988,-0.001430988,0.001430988,-0.001430988,0.001430988,-0.001430988,0.001430988,-0.001379275,0.001379275,-0.001379275,0.001379275,-7.80E-13,3.67E-13,6.49E-13,-1.08E-14,-0.001406318,0.001406318,-0.001430988,0.001430988,-0.001430988,0.001430988,-0.001430988,0.001430988,-0.001430988,0.001430988,-0.001379275,0.001379275,-0.001379275,0.001379275,-0.001379275,0.001379275,-0.001379275,0.001379275,-6.70E-12,6.81E-12,-0.001406318,0.001406318,-2.86E-13,3.97E-13,-0.001430988,0.001430988,-0.001430988,0.001430988,-0.001430988,0.001430988,-0.001430988,0.001430988,-0.001379275,0.001379275,-0.001379275,0.001379275,0.735755918,0.686459998,1368840,32768,0.005842508,0.005842508,0.005842508,37.19713408,37.1936084,0.000212777,0.000212777,0.000212777,244039.7491,0.01768223
38448000,0.999999785,0.016915049,0.00563835,0.00563835,0.00563835,-0.001406519,0.001406519,6.07E-12,-6.94E-12,8.93E-14,-9.93E-13,-0.001431084,0.001431084,-0.001431084,0.001431084,-0.001431084,0.001431084,-0.001431084,0.001431084,-0.001379575,0.001379575,-0.001379575,0.001379575,-7.82E-13,3.51E-13,6.38E-13,-4.92E-15,-0.001406519,0.001406519,-0.001431084,0.001431084,-0.001431084,0.001431084,-0.001431084,0.001431084,-0.001431084,0.001431084,-0.001379575,0.001379575,-0.001379575,0.001379575,-0.001379575,0.001379575,-0.001379575,0.001379575,-6.71E-12,6.81E-12,-0.001406519,0.001406519,-2.82E-13,3.84E-13,-0.001431084,0.001431084,-0.001431084,0.001431084,-0.001431084,0.001431084,-0.001431084,0.001431084,-0.001379575,0.001379575,-0.001379575,0.001379575,0.743622629,0.79944244,1368840,32768,0.005843344,0.005843344,0.005843344,37.19394481,37.1936084,0.000212752,0.000212752,0.000212752,237853.2899,0.017684781
38534400,0.999999797,0.016915049,0.00563835,0.00563835,0.00563835,-0.001406786,0.001406786,6.07E-12,-6.94E-12,9.21E-14,-9.89E-13,-0.001431216,0.001431216,-0.001431216,0.001431216,-0.001431216,0.001431216,-0.001431216,0.001431216,-0.001379963,0.001379963,-0.001379963,0.001379963,-7.80E-13,3.51E-13,6.29E-13,-4.01E-16,-0.001406786,0.001406786,-0.001431216,0.001431216,-0.001431216,0.001431216,-0.001431216,0.001431216,-0.001431216,0.001431216,-0.001379963,0.001379963,-0.001379963,0.001379963,-0.001379963,0.001379963,-0.001379963,0.001379963,-6.71E-12,6.81E-12,-0.001406786,0.001406786,-2.77E-13,3.75E-13,-0.001431216,0.001431216,-0.001431216,0.001431216,-0.001431216,0.001431216,-0.001431216,0.001431216,-0.001379963,0.001379963,-0.001379963,0.001379963,0.745870186,0.79944244,1368840,32768,0.005844448,0.005844448,0.005844448,37.19364239,37.1936084,0.000212749,0.000212749,0.000212749,229909.0635,0.01768815
38620800,0.999999808,0.016915049,0.00563835,0.00563835,0.00563835,-0.001406797,0.001406797,6.06E-12,-6.94E-12,9.26E-14,-9.89E-13,-0.001431218,0.001431218,-0.001431218,0.001431218,-0.001431218,0.001431218,-0.001431218,0.001431218,-0.001379978,0.001379978,-0.001379978,0.001379978,-7.79E-13,3.53E-13,6.24E-13,3.75E-15,-0.001406797,0.001406797,-0.001431218,0.001431218,-0.001431218,0.001431218,-0.001431218,0.001431218,-0.001431218,0.001431218,-0.001379978,0.001379978,-0.001379978,0.001379978,-0.001379978,0.001379978,-0.001379978,0.001379978,-6.71E-12,6.80E-12,-0.001406797,0.001406797,-2.74E-13,3.69E-13,-0.001431218,0.001431218,-0.001431218,0.001431218,-0.001431218,0.001431218,-0.001431218,0.001431218,-0.001379978,0.001379978,-0.001379978,0.001379978,0.747804184,0.79944244,1368840,32768,0.005844493,0.005844493,0.005844493,37.19361188,37.1936084,0.000212749,0.000212749,0.000212749,229066.6093,0.017688289
38707200,0.999999819,0.016915049,0.00563835,0.00563835,0.00563835,-0.001406806,0.001406806,6.06E-12,-6.94E-12,9.24E-14,-9.89E-13,-0.001431219,0.001431219,-0.001431219,0.001431219,-0.001431219,0.001431219,-0.001431219,0.001431219,-0.00137999,0.00137999,-0.00137999,0.00137999,-7.80E-13,3.52E-13,6.19E-13,8.83E-15,-0.001406806,0.001406806,-0.001431219,0.001431219,-0.001431219,0.001431219,-0.001431219,0.001431219,-0.001431219,0.001431219,-0.00137999,0.00137999,-0.00137999,0.00137999,-0.00137999,0.00137999,-0.00137999,0.00137999,-6.71E-12,6.80E-12,-0.001406806,0.001406806,-2.71E-13,3.62E-13,-0.001431219,0.001431219,-0.001431219,0.001431219,-0.001431219,0.001431219,-0.001431219,0.001431219,-0.00137999,0.00137999,-0.00137999,0.00137999,0.749484542,0.79944244,1368840,32768,0.00584453,0.00584453,0.00584453,37.19360876,37.1936084,0.000212749,0.000212749,0.000212749,228341.7143,0.017688401
38793600,0.999999829,0.016915049,0.00563835,0.00563835,0.00563835,-0.001406813,0.001406813,6.06E-12,-6.94E-12,9.19E-14,-9.90E-13,-0.00143122,0.001431221,-0.001431221,0.00143122,-0.00143122,0.001431221,-0.001431221,0.00143122,-0.001379998,0.001379998,-0.001379999,0.001379998,-7.79E-13,3.54E-13,6.17E-13,1.09E-14,-0.001406813,0.001406813,-0.00143122,0.00143122,-0.00143122,0.00143122,-0.00143122,0.00143122,-0.00143122,0.00143122,-0.001379998,0.001379998,-0.001379998,0.001379998,-0.001379998,0.001379998,-0.001379998,0.001379998,-6.71E-12,6.80E-12,-0.001406813,0.001406813,-2.71E-13,3.57E-13,-0.001431221,0.00143122,-0.001431221,0.00143122,-0.00143122,0.001431221,-0.00143122,0.001431221,-0.001379998,0.001379998,-0.001379998,0.001379998,0.750956908,0.79944244,1368840,32768,0.005844559,0.005844559,0.005844559,37.19360844,37.1936084,0.000212749,0.000212749,0.000212749,227713.198,0.017688491
38880000,0.999999839,0.01691505,0.00563835,0.00563835,0.00563835,-0.001406818,0.001406818,6.06E-12,-6.93E-12,9.25E-14,-9.87E-13,-0.001431221,0.001431221,-0.001431221,0.001431221,-0.001431221,0.001431221,-0.001431221,0.001431221,-0.001380005,0.001380005,-0.001380005,0.001380005,-7.80E-13,3.50E-13,6.13E-13,1.11E-14,-0.001406818,0.001406818,-0.001431221,0.001431221,-0.001431221,0.001431221,-0.001431221,0.001431221,-0.001431221,0.001431221,-0.001380005,0.001380005,-0.001380005,0.001380005,-0.001380005,0.001380005,-0.001380005,0.001380005,-6.71E-12,6.80E-12,-0.001406818,0.001406818,-2.67E-13,3.57E-13,-0.001431221,0.001431221,-0.001431221,0.001431221,-0.001431221,0.001431221,-0.001431221,0.001431221,-0.001380005,0.001380005,-0.001380005,0.001380005,0.752257719,0.79944244,1368840,32768,0.005844583,0.005844583,0.005844583,37.1936084,37.1936084,0.000212749,0.000212749,0.000212749,227156.3771,0.017688562