time,ASR_ext,ASR_strain,ASR_strain_xx,ASR_strain_yy,ASR_strain_zz,disp_x_101,disp_x_102,disp_x_103,disp_x_104,disp_x_105,disp_x_106,disp_x_p1_neg,disp_x_p1_pos,disp_x_p2_neg,disp_x_p2_pos,disp_x_p3_neg,disp_x_p3_pos,disp_x_p4_neg,disp_x_p4_pos,disp_x_p5_neg,disp_x_p5_pos,disp_x_p6_neg,disp_x_p6_pos,disp_y_101,disp_y_102,disp_y_103,disp_y_104,disp_y_105,disp_y_106,disp_y_p1_neg,disp_y_p1_pos,disp_y_p2_neg,disp_y_p2_pos,disp_y_p3_neg,disp_y_p3_pos,disp_y_p4_neg,disp_y_p4_pos,disp_y_p5_neg,disp_y_p5_pos,disp_y_p6_neg,disp_y_p6_pos,disp_y_p7_neg,disp_y_p7_pos,disp_y_p8_neg,disp_y_p8_pos,disp_z_101,disp_z_102,disp_z_103,disp_z_104,disp_z_105,disp_z_106,disp_z_p1_neg,disp_z_p1_pos,disp_z_p2_neg,disp_z_p2_pos,disp_z_p3_neg,disp_z_p3_pos,disp_z_p4_neg,disp_z_p4_pos,disp_z_p5_neg,disp_z_p5_pos,disp_z_p6_neg,disp_z_p6_pos,humidity,humidity_bc,ndof,nelem,strain_xx,strain_yy,strain_zz,temp,temp_bc,thermal_strain_xx,thermal_strain_yy,thermal_strain_zz,vonmises,vstrain
2419200,0,0,0,0,0,0,0,0,0,0,0,0,0,0,0,0,0,0,0,0,0,0,0,0,0,0,0,0,0,0,0,0,0,0,0,0,0,0,0,0,0,0,0,0,0,0,0,0,0,0,0,0,0,0,0,0,0,0,0,0,0,0,0,0,0,0,0,0,0,0,0,0,0,0,0,0,0
2505600,0.0094350757504544,0.00019292019385112,6.4306731283708e-05,6.4306731283708e-05,6.4306731283708e-05,-5.247145056086e-05,5.2471450560481e-05,-2.0845709685231e-16,-1.6924804650012e-16,3.8033350974882e-16,-7.6668889435703e-16,-5.1465291121429e-05,5.1465291121416e-05,-5.1465291121415e-05,5.1465291121429e-05,-5.1465291121803e-05,5.1465291121033e-05,-5.146529112179e-05,5.1465291121047e-05,-5.3205837838209e-05,5.320583783741e-05,-5.3205837838167e-05,5.3205837837452e-05,-3.8101317648547e-16,7.6626634292745e-16,1.674553622948e-16,2.0591328669632e-16,-5.2471450560482e-05,5.2471450560859e-05,-5.1465291121409e-05,5.1465291121392e-05,-5.1465291121396e-05,5.1465291121405e-05,-5.1465291121034e-05,5.1465291121775e-05,-5.1465291121021e-05,5.1465291121788e-05,-5.3205837837473e-05,5.3205837838188e-05,-5.3205837837426e-05,5.3205837838213e-05,-5.3205837838221e-05,5.320583783749e-05,-5.32058378371e-05,5.3205837838629e-05,1.2928832974204e-17,-2.6276770792101e-17,-5.2471450560677e-05,5.2471450560664e-05,1.3947643761998e-17,-2.4359090405332e-17,-5.1465291121397e-05,5.1465291121409e-05,-5.1465291121409e-05,5.1465291121397e-05,-5.1465291121409e-05,5.1465291121396e-05,-5.1465291121422e-05,5.1465291121384e-05,-5.3205837837885e-05,5.3205837837818e-05,-5.3205837837846e-05,5.3205837837864e-05,0.81632500510695,0.89000107803841,1270536,32768,0.00021860705956598,0.00021860705956598,0.00021860705956598,29.88804505053,31.134358786665,0.00015430436040424,0.00015430436040424,0.00015430436040424,314527.86005963,0.00065603663623056
2592000,0.0207974607292,0.0004262109450319,0.00014207031501063,0.00014207031501064,0.00014207031501064,-7.4577419934283e-05,7.4577419934267e-05,-2.8973149816632e-17,1.0255660961303e-17,5.1897771176362e-16,-5.5780832698557e-16,-7.3817978301631e-05,7.3817978301965e-05,-7.3817978301682e-05,7.3817978301917e-05,-7.3817978301971e-05,7.3817978301682e-05,-7.3817978301974e-05,7.3817978301675e-05,-7.5194138365279e-05,7.5194138364869e-05,-7.5194138365343e-05,7.5194138365021e-05,-4.9935790672343e-16,5.7790467996754e-16,2.5331027625082e-17,5.3400023077715e-17,-7.4577419934291e-05,7.4577419934378e-05,-7.3817978302017e-05,7.3817978301684e-05,-7.3817978301977e-05,7.3817978301722e-05,-7.3817978301638e-05,7.3817978302035e-05,-7.3817978301684e-05,7.3817978302098e-05,-7.5194138364571e-05,7.5194138364986e-05,-7.5194138364635e-05,7.5194138365012e-05,-7.5194138366008e-05,7.5194138365047e-05,-7.5194138365067e-05,7.5194138366191e-05,-6.9026613710804e-17,-1.0832573484081e-16,-7.4577419934414e-05,7.4577419934252e-05,-6.7116515812983e-17,-9.4305023458032e-17,-7.3817978301924e-05,7.3817978301642e-05,-7.3817978301894e-05,7.3817978301817e-05,-7.3817978301919e-05,7.3817978301789e-05,-7.3817978301966e-05,7.3817978301736e-05,-7.5194138365704e-05,7.5194138365457e-05,-7.5194138365686e-05,7.5194138365598e-05,0.823493973571,0.89156329086413,1270536,32768,0.00031069090998073,0.00031069090998097,0.00031069090998097,31.683708466874,31.842440124136,0.00016866966773499,0.00016866966773499,0.00016866966773499,203181.80019703,0.00093250750072976
2678400,0.033279230581081,0.0006842882262506,0.00022809607541681,0.0002280960754169,0.00022809607541689,-9.6778040623271e-05,9.6778040623002e-05,-1.5179844170592e-16,-1.1178243071171e-16,3.7258696331226e-16,-6.2945779255534e-16,-9.5874706253841e-05,9.5874706253952e-05,-9.5874706253814e-05,9.5874706253855e-05,-9.5874706254144e-05,9.5874706253579e-05,-9.5874706254191e-05,9.5874706253577e-05,-9.7541208458366e-05,9.7541208457664e-05,-9.7541208458348e-05,9.7541208457738e-05,-4.5650811281404e-16,5.4484043270466e-16,3.0239425471015e-17,4.90426194287e-17,-9.6778040623072e-05,9.6778040623169e-05,-9.5874706253956e-05,9.5874706253799e-05,-9.5874706254056e-05,9.5874706253716e-05,-9.5874706253697e-05,9.5874706254034e-05,-9.587470625372e-05,9.5874706254081e-05,-9.7541208458002e-05,9.7541208458316e-05,-9.754120845798e-05,9.7541208458388e-05,-9.7541208458556e-05,9.7541208457839e-05,-9.7541208457596e-05,9.754120845872e-05,3.8468493931563e-18,-3.4850957385998e-17,-9.6778040623155e-05,9.6778040623123e-05,-4.4410407998403e-18,-2.2345824703335e-17,-9.587470625386e-05,9.5874706253872e-05,-9.5874706253983e-05,9.5874706253932e-05,-9.5874706253911e-05,9.5874706253856e-05,-9.587470625389e-05,9.5874706253814e-05,-9.7541208458337e-05,9.7541208458245e-05,-9.7541208458187e-05,9.7541208458206e-05,0.82856962933399,0.89127806232602,1270536,32768,0.00040316045187675,0.00040316045187669,0.00040316045187676,32.491670326842,32.550521461607,0.00017513336261474,0.00017513336261474,0.00017513336261474,225640.87450529,0.0012102134718169
2764800,0.046390845321614,0.00095660871175485,0.00031886957058489,0.00031886957058497,0.00031886957058499,-0.00011921988340359,0.00011921988340344,-9.030192883806e-17,-5.0320153930309e-17,3.8323599460931e-16,-5.2992682580511e-16,-0.00011813998412862,0.00011813998412878,-0.00011813998412861,0.00011813998412877,-0.00011813998412892,0.00011813998412848,-0.00011813998412892,0.00011813998412849,-0.0001201447179902,0.0001201447179897,-0.00012014471799019,0.00012014471798976,-3.9367731166365e-16,5.2262741644412e-16,5.3005733652398e-17,7.2222977461144e-17,-0.00011921988340347,0.0001192198834036,-0.00011813998412879,0.00011813998412862,-0.0001181399841288,0.00011813998412861,-0.0001181399841285,0.0001181399841289,-0.0001181399841285,0.00011813998412893,-0.00012014471798975,0.00012014471799014,-0.00012014471798975,0.00012014471799017,-0.00012014471799043,0.00012014471798971,-0.00012014471798956,0.0001201447179906,1.0319997231169e-17,-2.8414573130766e-17,-0.00011921988340355,0.00011921988340353,8.7681144930621e-19,-1.772923779572e-17,-0.0001181399841287,0.00011813998412869,-0.00011813998412872,0.00011813998412872,-0.00011813998412872,0.00011813998412869,-0.00011813998412873,0.00011813998412868,-0.00012014471799013,0.00012014471799006,-0.00012014471799008,0.0001201447179901,0.83258672990354,0.89099283378791,1270536,32768,0.00049662602165972,0.00049662602165979,0.00049662602165981,32.83026939697,32.854492038584,0.00017784215517576,0.00017784215517576,0.00017784215517576,256335.68121845,0.0014909890946068
2851200,0.05964137042187,0.0012328144009526,0.00041093813365083,0.0004109381336509,0.00041093813365092,-0.00014114177108504,0.00014114177108493,-7.3920535896017e-17,-3.3870288815338e-17,3.8171811818528e-16,-4.9562640307125e-16,-0.00013989248962335,0.00013989248962352,-0.00013989248962333,0.00013989248962352,-0.00013989248962363,0.00013989248962323,-0.00013989248962363,0.00013989248962324,-0.00014221722685211,0.00014221722685164,-0.00014221722685209,0.00014221722685171,-3.9161671284883e-16,4.8908983805294e-16,3.836279863107e-17,5.5693151553626e-17,-0.00014114177108496,0.00014114177108506,-0.00013989248962353,0.00013989248962334,-0.00013989248962354,0.00013989248962333,-0.00013989248962325,0.00013989248962361,-0.00013989248962325,0.00013989248962364,-0.00014221722685169,0.00014221722685204,-0.00014221722685169,0.00014221722685207,-0.00014221722685235,0.00014221722685163,-0.00014221722685152,0.00014221722685248,1.1377869325667e-17,-2.7383354633783e-17,-0.00014114177108502,0.000141141771085,7.095371476566e-19,-1.593333677691e-17,-0.00013989248962343,0.00013989248962343,-0.00013989248962345,0.00013989248962345,-0.00013989248962345,0.00013989248962342,-0.00013989248962346,0.00013989248962341,-0.00014221722685205,0.00014221722685198,-0.000142217226852,0.00014221722685202,0.83593413265122,0.89070760524979,1270536,32768,0.00058791764161663,0.00058791764161671,0.00058791764161672,32.734779413275,32.729407863211,0.0001770782353062,0.0001770782353062,0.0001770782353062,282045.87254522,0.0017653101179591
2937600,0.072991080339183,0.001511971344249,0.00050399044808293,0.00050399044808301,0.00050399044808302,-0.00016325068245501,0.00016325068245492,-6.1252264814767e-17,-2.1274166265294e-17,3.8087163669176e-16,-4.6960330100033e-16,-0.00016182263680235,0.00016182263680254,-0.00016182263680233,0.00016182263680253,-0.00016182263680263,0.00016182263680226,-0.00016182263680262,0.00016182263680227,-0.0001644781369355,0.00016447813693507,-0.00016447813693548,0.00016447813693514,-3.9031160566013e-16,4.6347481175088e-16,2.6920133490754e-17,4.2818544864023e-17,-0.00016325068245495,0.00016325068245502,-0.00016182263680254,0.00016182263680234,-0.00016182263680256,0.00016182263680233,-0.00016182263680228,0.0001618226368026,-0.00016182263680228,0.00016182263680263,-0.00016447813693512,0.00016447813693543,-0.00016447813693512,0.00016447813693546,-0.00016447813693575,0.00016447813693504,-0.00016447813693495,0.00016447813693586,1.3455930842314e-17,-2.5297021311011e-17,-0.00016325068245499,0.00016325068245498,1.7168593158323e-18,-1.3363562340579e-17,-0.00016182263680243,0.00016182263680244,-0.00016182263680245,0.00016182263680246,-0.00016182263680245,0.00016182263680243,-0.00016182263680246,0.00016182263680242,-0.00016447813693545,0.00016447813693538,-0.0001644781369354,0.00016447813693542,0.8388111724683,0.89042237671169,1270536,32768,0.00067997964905303,0.00067997964905311,0.00067997964905312,32.612468298898,32.604323687838,0.00017609974639118,0.00017609974639118,0.00017609974639118,307843.68336059,0.0020420222235687
3024000,0.08642684825501,0.0017928995848087,0.00059763319493616,0.00059763319493624,0.00059763319493625,-0.0001854995838543,0.00018549958385423,-5.2580195181718e-17,-1.2556601698555e-17,3.8070895783796e-16,-4.5226927171949e-16,-0.00018391283835732,0.00018391283835753,-0.00018391283835731,0.00018391283835752,-0.0001839128383576,0.00018391283835725,-0.0001839128383576,0.00018391283835726,-0.00018685177362632,0.00018685177362592,-0.00018685177362631,0.00018685177362599,-3.8976934281413e-16,4.4666374443509e-16,1.9625319577605e-17,3.4239762822278e-17,-0.00018549958385426,0.00018549958385431,-0.00018391283835752,0.00018391283835731,-0.00018391283835754,0.00018391283835731,-0.00018391283835726,0.00018391283835757,-0.00018391283835726,0.0001839128383576,-0.00018685177362597,0.00018685177362626,-0.00018685177362597,0.00018685177362628,-0.00018685177362659,0.00018685177362588,-0.0001868517736258,0.00018685177362668,1.419350022184e-17,-2.4592998700771e-17,-0.00018549958385429,0.00018549958385428,1.630464896299e-18,-1.208418965983e-17,-0.00018391283835741,0.00018391283835742,-0.00018391283835743,0.00018391283835744,-0.00018391283835743,0.00018391283835741,-0.00018391283835744,0.0001839128383574,-0.00018685177362628,0.00018685177362622,-0.00018685177362623,0.00018685177362626,0.83891132534319,0.87677430802203,1270536,32768,0.0007726160177186,0.00077261601771868,0.00077261601771869,32.487657672971,32.479239512465,0.00017510126138377,0.00017510126138377,0.00017510126138377,325284.40314241,0.0023205378646843
3110400,0.0999384235579,0.002074154581131,0.00069138486037696,0.00069138486037703,0.00069138486037705,-0.00020777992902451,0.00020777992902446,-4.559970990134e-17,-5.5513009998003e-18,3.7856747914102e-16,-4.3581573024624e-16,-0.00020608017095532,0.00020608017095553,-0.0002060801709553,0.00020608017095552,-0.00020608017095558,0.00020608017095526,-0.00020608017095558,0.00020608017095527,-0.00020920427034713,0.00020920427034675,-0.00020920427034711,0.00020920427034681,-3.8673267087649e-16,4.3123958327969e-16,1.4359855433921e-17,2.7346591051003e-17,-0.00020777992902448,0.00020777992902453,-0.00020608017095552,0.00020608017095531,-0.00020608017095554,0.0002060801709553,-0.00020608017095527,0.00020608017095555,-0.00020608017095527,0.00020608017095558,-0.00020920427034679,0.00020920427034706,-0.0002092042703468,0.00020920427034709,-0.0002092042703474,0.00020920427034669,-0.00020920427034662,0.00020920427034747,1.4832267472645e-17,-2.3898166986226e-17,-0.00020777992902451,0.0002077799290245,1.3124599052508e-18,-1.0626513602598e-17,-0.00020608017095541,0.00020608017095541,-0.00020608017095543,0.00020608017095543,-0.00020608017095542,0.0002060801709554,-0.00020608017095543,0.00020608017095539,-0.00020920427034709,0.00020920427034703,-0.00020920427034704,0.00020920427034707,0.83525576244756,0.84958561210054,1270536,32768,0.00086537471703774,0.00086537471703781,0.00086537471703783,32.362598223499,32.354155337091,0.00017410078578799,0.00017410078578799,0.00017410078578799,328772.73069064,0.002599498820512
3196800,0.11351592583626,0.0023551399066126,0.00078504663553748,0.00078504663553755,0.00078504663553756,-0.00023004401862139,0.00023004401862134,-4.065868437569e-17,-5.8270278706513e-19,3.7774581306588e-16,-4.2517634938967e-16,-0.00022827968428279,0.000228279684283,-0.00022827968428277,0.000228279684283,-0.00022827968428305,0.00022827968428274,-0.00022827968428305,0.00022827968428275,-0.00023149194104321,0.00023149194104284,-0.00023149194104319,0.0002314919410429,-3.8495515164907e-16,4.2157535645636e-16,1.0970253101592e-17,2.2997459208113e-17,-0.00023004401862137,0.0002300440186214,-0.000228279684283,0.00022827968428278,-0.00022827968428301,0.00022827968428277,-0.00022827968428275,0.00022827968428302,-0.00022827968428275,0.00022827968428305,-0.00023149194104287,0.00023149194104314,-0.00023149194104288,0.00023149194104316,-0.00023149194104348,0.00023149194104277,-0.00023149194104272,0.00023149194104355,1.5465520186033e-17,-2.3241937033601e-17,-0.00023004401862139,0.00023004401862138,1.3418707714749e-18,-9.4886807155527e-18,-0.00022827968428288,0.00022827968428289,-0.0002282796842829,0.0002282796842829,-0.0002282796842829,0.00022827968428288,-0.00022827968428291,0.00022827968428287,-0.00023149194104317,0.00023149194104311,-0.00023149194104312,0.00023149194104315,0.83036995201464,0.82666567875123,1270536,32768,0.00095805716134008,0.00095805716134015,0.00095805716134017,32.237513609258,32.229071161718,0.00017310010887406,0.00017310010887406,0.00017310010887406,319610.94236517,0.0028783079209272
3283200,0.12714912151046,0.0026328608109546,0.00087762027031815,0.00087762027031822,0.00087762027031823,-0.00025204877640177,0.00025204877640173,-3.7150519488896e-17,3.0201283253881e-18,3.7440676065988e-16,-4.146968901182e-16,-0.00025032948216021,0.00025032948216043,-0.0002503294821602,0.00025032948216043,-0.00025032948216047,0.00025032948216017,-0.00025032948216047,0.00025032948216018,-0.00025340404563773,0.00025340404563737,-0.00025340404563771,0.00025340404563744,-3.8237618631704e-16,4.1035327281272e-16,7.2828657487447e-18,1.847002398874e-17,-0.00025204877640175,0.00025204877640178,-0.00025032948216042,0.0002503294821602,-0.00025032948216044,0.0002503294821602,-0.00025032948216018,0.00025032948216044,-0.00025032948216018,0.00025032948216047,-0.00025340404563741,0.00025340404563766,-0.00025340404563742,0.00025340404563769,-0.000253404045638,0.0002534040456373,-0.00025340404563725,0.00025340404563806,1.6485709608182e-17,-2.2234614865425e-17,-0.00025204877640177,0.00025204877640176,1.6617139416621e-18,-8.2350425427501e-18,-0.0002503294821603,0.00025032948216031,-0.00025032948216032,0.00025032948216033,-0.00025032948216032,0.0002503294821603,-0.00025032948216033,0.0002503294821603,-0.00025340404563769,0.00025340404563764,-0.00025340404563765,0.00025340404563768,0.81721011915912,0.76479338888033,1270536,32768,0.00104965164865,0.00104965164865,0.00104965164865,32.11242643997,32.103986986345,0.00017209941151976,0.00017209941151976,0.00017209941151976,285079.32065414,0.0031539201722108
3369600,0.14082829604634,0.002907595345755,0.00096919844858496,0.00096919844858503,0.00096919844858505,-0.00027381639443651,0.00027381639443648,-3.4068812162351e-17,6.1303274285874e-18,3.7203459048099e-16,-4.0602803729864e-16,-0.00027222837070241,0.00027222837070263,-0.0002722283707024,0.00027222837070263,-0.00027222837070267,0.00027222837070238,-0.00027222837070267,0.00027222837070239,-0.00027500640937875,0.0002750064093784,-0.00027500640937873,0.00027500640937847,-3.7961524125025e-16,4.0207779032891e-16,4.4428789789793e-18,1.580466423718e-17,-0.0002738163944365,0.00027381639443652,-0.00027222837070263,0.0002722283707024,-0.00027222837070264,0.0002722283707024,-0.00027222837070238,0.00027222837070264,-0.00027222837070238,0.00027222837070266,-0.00027500640937844,0.00027500640937868,-0.00027500640937845,0.00027500640937871,-0.00027500640937903,0.00027500640937833,-0.00027500640937829,0.00027500640937908,1.6624492133177e-17,-2.2054473309803e-17,-0.00027381639443652,0.00027381639443651,1.7867101231145e-18,-8.2240134679161e-18,-0.00027222837070251,0.00027222837070251,-0.00027222837070252,0.00027222837070253,-0.00027222837070252,0.0002722283707025,-0.00027222837070253,0.0002722283707025,-0.00027500640937872,0.00027500640937867,-0.00027500640937867,0.00027500640937871,0.80543206920969,0.73261215393987,1270536,32768,0.0011402508265919,0.001140250826592,0.001140250826592,31.987339011309,31.978902810972,0.00017109871209047,0.00017109871209047,0.00017109871209047,240581.89640805,0.0034266118445259
3456000,0.15454222588092,0.0031788212552017,0.0010596070850672,0.0010596070850673,0.0010596070850673,-0.00029529843881043,0.00029529843881041,-3.1244449915267e-17,8.9647996609358e-18,3.696743684665e-16,-3.9774520209828e-16,-0.00029393240845174,0.00029393240845197,-0.00029393240845173,0.00029393240845196,-0.000293932408452,0.00029393240845172,-0.000293932408452,0.00029393240845172,-0.00029625007446724,0.0002962500744669,-0.00029625007446722,0.00029625007446696,-3.7658040749175e-16,3.9461110666627e-16,3.1304190737285e-18,1.2981221079666e-17,-0.00029529843881043,0.00029529843881045,-0.00029393240845196,0.00029393240845173,-0.00029393240845198,0.00029393240845173,-0.00029393240845172,0.00029393240845197,-0.00029393240845172,0.00029393240845199,-0.00029625007446694,0.00029625007446717,-0.00029625007446695,0.0002962500744672,-0.00029625007446752,0.00029625007446683,-0.00029625007446679,0.00029625007446756,1.6929629870252e-17,-2.1639044824387e-17,-0.00029529843881045,0.00029529843881044,1.3859870708111e-18,-7.095371476566e-18,-0.00029393240845184,0.00029393240845185,-0.00029393240845186,0.00029393240845186,-0.00029393240845185,0.00029393240845184,-0.00029393240845187,0.00029393240845183,-0.00029625007446721,0.00029625007446716,-0.00029625007446716,0.0002962500744672,0.79287083888995,0.70043091899941,1270536,32768,0.0012296533997751,0.0012296533997752,0.0012296533997752,31.862251556598,31.853818635599,0.00017009801245278,0.00017009801245278,0.00017009801245278,209303.67376753,0.0036957744213875
3542400,0.1684175934358,0.0034486119758502,0.0011495373252834,0.0011495373252834,0.0011495373252834,-0.00031690833548063,0.00031690833548061,-2.9356639939507e-17,1.0942680414507e-17,3.6896115496057e-16,-3.9337401210572e-16,-0.00031585374688907,0.00031585374688929,-0.00031585374688906,0.00031585374688929,-0.00031585374688932,0.00031585374688904,-0.00031585374688932,0.00031585374688905,-0.00031755195008422,0.00031755195008388,-0.0003175519500842,0.00031755195008395,-3.7502346976101e-16,3.9104871549487e-16,2.2480930870052e-18,1.1731259265141e-17,-0.00031690833548063,0.00031690833548065,-0.00031585374688929,0.00031585374688906,-0.00031585374688931,0.00031585374688906,-0.00031585374688905,0.00031585374688929,-0.00031585374688905,0.00031585374688932,-0.00031755195008392,0.00031755195008415,-0.00031755195008393,0.00031755195008417,-0.0003175519500845,0.00031755195008381,-0.00031755195008378,0.00031755195008454,1.7093227813624e-17,-2.1396405178038e-17,-0.00031690833548064,0.00031690833548064,1.3455471297529e-18,-6.7608228732668e-18,-0.00031585374688917,0.00031585374688918,-0.00031585374688918,0.00031585374688919,-0.00031585374688918,0.00031585374688917,-0.00031585374688919,0.00031585374688916,-0.00031755195008419,0.00031755195008414,-0.00031755195008415,0.00031755195008418,0.77944564919747,0.66824968405895,1270536,32768,0.0013195800151671,0.0013195800151672,0.0013195800151672,31.866077898626,31.866037061444,0.00017012862318901,0.00017012862318901,0.00017012862318901,213492.578214,0.0039665874792393
3628800,0.18258708368004,0.0037197663445555,0.0012399221148518,0.0012399221148519,0.0012399221148519,-0.0003388775040301,0.00033887750403007,-3.0570757260821e-17,9.9114619175243e-18,3.6921298550261e-16,-3.960687827235e-16,-0.00033822451378937,0.0003382245137896,-0.00033822451378936,0.0003382245137896,-0.00033822451378963,0.00033822451378935,-0.00033822451378963,0.00033822451378936,-0.0003391496183591,0.00033914961835876,-0.00033914961835908,0.00033914961835883,-3.7569808150503e-16,3.932931322236e-16,2.7885177538732e-18,1.2940781138607e-17,-0.0003388775040301,0.00033887750403011,-0.0003382245137896,0.00033822451378937,-0.00033822451378961,0.00033822451378936,-0.00033822451378936,0.0003382245137896,-0.00033822451378936,0.00033822451378963,-0.0003391496183588,0.00033914961835903,-0.00033914961835881,0.00033914961835905,-0.00033914961835938,0.00033914961835869,-0.00033914961835865,0.00033914961835943,1.6833125465454e-17,-2.1690513840279e-17,-0.00033887750403011,0.00033887750403011,1.2904017555827e-18,-7.4777127374794e-18,-0.00033822451378947,0.00033822451378948,-0.00033822451378949,0.0003382245137895,-0.00033822451378949,0.00033822451378947,-0.0003382245137895,0.00033822451378947,-0.00033914961835907,0.00033914961835903,-0.00033914961835903,0.00033914961835906,0.76722953489703,0.64735214500615,1270536,32768,0.0014109934038476,0.0014109934038477,0.0014109934038477,32.003033557052,32.011945642157,0.00017122426845641,0.00017122426845641,0.00017122426845641,243008.08957478,0.0042419528277186
3715200,0.19704744300636,0.0039938075067562,0.0013312691689187,0.0013312691689187,0.0013312691689188,-0.00036109248908508,0.00036109248908506,-2.9762877529227e-17,1.0611808169486e-17,3.7074235054627e-16,-3.9621216069634e-16,-0.00036090153637074,0.00036090153637097,-0.00036090153637073,0.00036090153637097,-0.000360901536371,0.00036090153637072,-0.000360901536371,0.00036090153637073,-0.00036097637262124,0.0003609763726209,-0.00036097637262122,0.00036097637262097,-3.7589292849376e-16,3.9491256804507e-16,2.8730739942675e-18,1.4308386418028e-17,-0.00036109248908508,0.0003610924890851,-0.00036090153637097,0.00036090153637074,-0.00036090153637099,0.00036090153637074,-0.00036090153637073,0.00036090153637098,-0.00036090153637073,0.000360901536371,-0.00036097637262094,0.00036097637262117,-0.00036097637262094,0.0003609763726212,-0.00036097637262152,0.00036097637262083,-0.00036097637262079,0.00036097637262157,1.6571184938146e-17,-2.1844920887956e-17,-0.00036109248908509,0.00036109248908509,1.7021538827202e-18,-8.3195987831445e-18,-0.00036090153637085,0.00036090153637086,-0.00036090153637087,0.00036090153637087,-0.00036090153637086,0.00036090153637085,-0.00036090153637088,0.00036090153637084,-0.00036097637262122,0.00036097637262117,-0.00036097637262117,0.0003609763726212,0.76016952268346,0.65446358265355,1270536,32768,0.0015034211189861,0.0015034211189862,0.0015034211189862,32.148102199377,32.15785422287,0.00017238481759501,0.00017238481759501,0.00017238481759501,291690.48461597,0.0045204505073548
3801600,0.21178832713121,0.0042711618501616,0.0014237206167205,0.0014237206167206,0.0014237206167206,-0.00038358377485864,0.00038358377485862,-2.9997245369451e-17,1.0479459271477e-17,3.7130299518366e-16,-3.9706139945857e-16,-0.00038389782842236,0.00038389782842258,-0.00038389782842234,0.00038389782842258,-0.00038389782842261,0.00038389782842233,-0.00038389782842261,0.00038389782842234,-0.00038307695472373,0.00038307695472339,-0.00038307695472371,0.00038307695472345,-3.7709509765067e-16,3.9507065145102e-16,2.3161057151485e-18,1.3705463660434e-17,-0.00038358377485864,0.00038358377485866,-0.00038389782842259,0.00038389782842236,-0.0003838978284226,0.00038389782842235,-0.00038389782842235,0.00038389782842259,-0.00038389782842235,0.00038389782842262,-0.00038307695472342,0.00038307695472366,-0.00038307695472343,0.00038307695472368,-0.00038307695472401,0.00038307695472332,-0.00038307695472328,0.00038307695472406,1.622928361829e-17,-2.2227262148869e-17,-0.00038358377485866,0.00038358377485865,1.2977544721388e-18,-8.6578237447217e-18,-0.00038389782842246,0.00038389782842247,-0.00038389782842248,0.00038389782842249,-0.00038389782842248,0.00038389782842246,-0.00038389782842249,0.00038389782842245,-0.00038307695472371,0.00038307695472366,-0.00038307695472366,0.00038307695472369,0.75514537423976,0.66157502030094,1270536,32768,0.0015969896878845,0.0015969896878846,0.0015969896878846,32.293923186594,32.303762803583,0.00017355138549275,0.00017355138549275,0.00017355138549275,345624.19724298,0.0048024645149807
3888000,0.22679748233351,0.0045520198612468,0.0015173399537489,0.0015173399537489,0.001517339953749,-0.00040636094640895,0.00040636094640893,-3.147881775549e-17,9.0787667675542e-18,3.7446466330276e-16,-4.0318621234974e-16,-0.00040721272518686,0.00040721272518708,-0.00040721272518685,0.00040721272518708,-0.00040721272518712,0.00040721272518683,-0.00040721272518712,0.00040721272518684,-0.00040546257859147,0.00040546257859113,-0.00040546257859145,0.00040546257859119,-3.7951781775589e-16,4.0185720883223e-16,5.6762971812528e-18,1.4264270118692e-17,-0.00040636094640895,0.00040636094640897,-0.00040721272518709,0.00040721272518686,-0.00040721272518711,0.00040721272518686,-0.00040721272518685,0.0004072127251871,-0.00040721272518685,0.00040721272518713,-0.00040546257859116,0.0004054625785914,-0.00040546257859117,0.00040546257859142,-0.00040546257859175,0.00040546257859106,-0.00040546257859101,0.00040546257859181,1.7260502115273e-17,-2.1330230729034e-17,-0.00040636094640897,0.00040636094640896,9.4482407744946e-19,-6.2351036395108e-18,-0.00040721272518697,0.00040721272518698,-0.00040721272518698,0.000407212725187,-0.00040721272518698,0.00040721272518697,-0.00040721272518699,0.00040721272518696,-0.00040546257859144,0.0004054625785914,-0.0004054625785914,0.00040546257859143,0.75149665489676,0.66868645794834,1270536,32768,0.0016917386578554,0.0016917386578555,0.0016917386578555,32.439818897466,32.449671384295,0.00017471855117973,0.00017471855117973,0.00017471855117973,402230.6346923,0.0050881170227888
3974400,0.24206150248457,0.0048364568138515,0.0016121522712838,0.0016121522712838,0.0016121522712839,-0.00042942990313426,0.00042942990313423,-3.1641496609292e-17,8.9261978990167e-18,3.7254560428163e-16,-4.0171566903853e-16,-0.00043083696057554,0.00043083696057576,-0.00043083696057553,0.00043083696057576,-0.00043083696057579,0.00043083696057551,-0.00043083696057579,0.00043083696057552,-0.00042814517733628,0.00042814517733593,-0.00042814517733626,0.000428145177336,-3.7791860190495e-16,4.0013667315812e-16,4.5182443236785e-18,1.5411293901432e-17,-0.00042942990313425,0.00042942990313428,-0.00043083696057577,0.00043083696057554,-0.00043083696057578,0.00043083696057554,-0.00043083696057553,0.00043083696057578,-0.00043083696057553,0.0004308369605758,-0.00042814517733597,0.00042814517733621,-0.00042814517733597,0.00042814517733623,-0.00042814517733655,0.00042814517733586,-0.00042814517733582,0.00042814517733661,1.7034406081175e-17,-2.1631692107831e-17,-0.00042942990313427,0.00042942990313427,1.7867101231145e-18,-7.7277051003843e-18,-0.00043083696057564,0.00043083696057565,-0.00043083696057566,0.00043083696057567,-0.00043083696057566,0.00043083696057564,-0.00043083696057567,0.00043083696057564,-0.00042814517733625,0.0004281451773362,-0.0004281451773362,0.00042814517733624,0.74887652282743,0.67579789559573,1270536,32768,0.0017876922300993,0.0017876922300994,0.0017876922300994,32.585722157324,32.595579965008,0.00017588577725859,0.00017588577725859,0.00017588577725859,456250.00552285,0.0053774840809597
4060800,0.25756645446787,0.0051245194958645,0.0017081731652881,0.0017081731652882,0.0017081731652882,-0.00045279426768659,0.00045279426768656,-3.1958582510771e-17,8.3765823364537e-18,3.7182319988e-16,-4.0193625053521e-16,-0.00045476171613056,0.00045476171613078,-0.00045476171613055,0.00045476171613078,-0.00045476171613082,0.00045476171613053,-0.00045476171613081,0.00045476171613054,-0.00045113352482334,0.000451133524823,-0.00045113352482332,0.00045113352482306,-3.7766125682549e-16,3.9985543174986e-16,5.1469015892188e-18,1.5047334431909e-17,-0.00045279426768659,0.00045279426768661,-0.00045476171613079,0.00045476171613056,-0.0004547617161308,0.00045476171613056,-0.00045476171613054,0.0004547617161308,-0.00045476171613055,0.00045476171613082,-0.00045113352482303,0.00045113352482327,-0.00045113352482304,0.00045113352482329,-0.00045113352482362,0.00045113352482293,-0.00045113352482289,0.00045113352482368,1.7501303582483e-17,-2.083759871978e-17,-0.00045279426768661,0.0004527942676866,1.9852334701273e-18,-6.3821579706314e-18,-0.00045476171613066,0.00045476171613067,-0.00045476171613068,0.00045476171613069,-0.00045476171613068,0.00045476171613067,-0.00045476171613069,0.00045476171613066,-0.00045113352482332,0.00045113352482327,-0.00045113352482327,0.00045113352482331,0.74707193205324,0.68290933324313,1270536,32768,0.0018848651251476,0.0018848651251477,0.0018848651251477,32.731626183144,32.741488545721,0.00017705300946515,0.00017705300946515,0.00017705300946515,502104.99843699,0.0056706132531745
4147200,0.27329728153438,0.0054162039716547,0.0018054013238848,0.0018054013238849,0.0018054013238849,-0.00047645353710988,0.00047645353710974,-8.966362113204e-17,-4.906100122009e-17,3.1251802631823e-16,-4.6108150251189e-16,-0.00047897671426598,0.00047897671426611,-0.00047897671426598,0.00047897671426609,-0.00047897671426627,0.00047897671426589,-0.00047897671426624,0.00047897671426584,-0.00047443081691887,0.00047443081691844,-0.00047443081691882,0.00047443081691839,-2.9655344049596e-16,4.8255511121377e-16,8.4493742303583e-17,9.2971424492682e-17,-0.00047645353710972,0.0004764535371099,-0.0004789767142662,0.00047897671426607,-0.00047897671426616,0.00047897671426606,-0.00047897671426583,0.00047897671426637,-0.00047897671426595,0.00047897671426634,-0.00047443081691858,0.00047443081691898,-0.00047443081691859,0.00047443081691901,-0.00047443081691902,0.00047443081691847,-0.00047443081691827,0.00047443081691928,2.2137191371058e-17,-1.6308325321268e-17,-0.00047645353710981,0.00047645353710981,8.5512093546593e-18,1.2720199641927e-18,-0.00047897671426608,0.00047897671426615,-0.00047897671426613,0.00047897671426615,-0.00047897671426609,0.0004789767142661,-0.00047897671426613,0.00047897671426609,-0.00047443081691882,0.00047443081691875,-0.00047443081691876,0.00047443081691881,0.74593885387003,0.69002077089052,1270536,32768,0.0019832548979374,0.0019832548979374,0.0019832548979374,32.877530286371,32.887397126434,0.00017822024229096,0.00017822024229096,0.00017822024229096,538411.64643959,0.0059675003886427
4233600,0.28923764695433,0.0057114533839161,0.0019038177946386,0.0019038177946387,0.0019038177946387,-0.00050040295130237,0.00050040295130235,-2.9724275767308e-17,1.1102601999601e-17,3.7410805654979e-16,-4.0034806375911e-16,-0.00050346884823082,0.00050346884823098,-0.00050346884823075,0.00050346884823097,-0.00050346884823098,0.00050346884823071,-0.00050346884823097,0.00050346884823065,-0.00049803544530073,0.00049803544530037,-0.00049803544530057,0.00049803544530033,-3.6902181487216e-16,4.1002791510512e-16,5.0255817660444e-18,1.4422353524647e-17,-0.00050040295130235,0.0005004029513024,-0.00050346884823106,0.00050346884823089,-0.00050346884823096,0.00050346884823088,-0.00050346884823079,0.00050346884823112,-0.00050346884823076,0.00050346884823105,-0.00049803544530073,0.00049803544530093,-0.00049803544530062,0.00049803544530096,-0.00049803544530093,0.0004980354453002,-0.00049803544530019,0.00049803544530102,3.0089154326401e-17,-7.9776974632892e-18,-0.00050040295130237,0.00050040295130238,1.5367177602096e-17,6.6909720659845e-18,-0.00050346884823088,0.00050346884823093,-0.00050346884823095,0.00050346884823094,-0.00050346884823093,0.00050346884823087,-0.000503468848231,0.00050346884823092,-0.00049803544530066,0.00049803544530055,-0.00049803544530053,0.00049803544530062,0.74537356849621,0.69713220853792,1270536,32768,0.002082841398929,0.0020828413989291,0.0020828413989291,33.02343439698,33.033305707146,0.00017938747517584,0.00017938747517584,0.00017938747517584,565234.15541385,0.0062680879214945
4320000,0.30545766570952,0.0060117293711809,0.0020039097903936,0.0020039097903937,0.0020039097903937,-0.0005249090601377,0.00052490906013755,-9.5191025803033e-17,-5.3461602078872e-17,3.1731199751276e-16,-4.6255939853965e-16,-0.00052849806868218,0.00052849806868223,-0.0005284980686821,0.00052849806868231,-0.00052849806868247,0.00052849806868198,-0.00052849806868239,0.00052849806868204,-0.00052221576410197,0.0005222157641015,-0.00052221576410197,0.00052221576410171,-3.1257868622982e-16,4.7088635003935e-16,6.8247915073042e-17,7.7453516201188e-17,-0.00052490906013757,0.00052490906013773,-0.00052849806868228,0.00052849806868218,-0.00052849806868227,0.00052849806868217,-0.00052849806868194,0.00052849806868234,-0.00052849806868202,0.00052849806868239,-0.00052221576410154,0.00052221576410183,-0.00052221576410151,0.00052221576410179,-0.00052221576410206,0.00052221576410155,-0.00052221576410126,0.00052221576410217,6.0380508358093e-17,2.2227262148869e-17,-0.00052490906013762,0.0005249090601377,4.7204440289693e-17,3.8042955460883e-17,-0.00052849806868216,0.00052849806868229,-0.00052849806868215,0.00052849806868221,-0.00052849806868225,0.00052849806868229,-0.00052849806868215,0.00052849806868225,-0.00052221576410174,0.00052221576410188,-0.00052221576410168,0.00052221576410185,0.74516038402244,0.70348514477375,1270536,32768,0.0021847324738312,0.0021847324738313,0.0021847324738313,33.247050919845,33.262008750992,0.00018117640735876,0.00018117640735876,0.00018117640735876,582753.35447116,0.006575724485807
4406400,0.3220229973245,0.0063182427507418,0.0021060809169139,0.002106080916914,0.002106080916914,-0.00055006097014167,0.00055006097014158,-6.2009135075253e-17,-2.0547166415817e-17,3.454379765187e-16,-4.3556022334592e-16,-0.00055415725836224,0.00055415725836228,-0.00055415725836217,0.00055415725836233,-0.0005541572583625,0.00055415725836205,-0.0005541572583624,0.00055415725836205,-0.00054705461520746,0.00054705461520715,-0.00054705461520758,0.00054705461520728,-3.6288597290615e-16,4.2023348568488e-16,2.1205234547582e-17,3.1160812764442e-17,-0.00055006097014162,0.00055006097014169,-0.00055415725836276,0.00055415725836266,-0.0005541572583627,0.00055415725836246,-0.00055415725836244,0.00055415725836274,-0.00055415725836245,0.00055415725836277,-0.00054705461520739,0.00054705461520767,-0.00054705461520751,0.00054705461520771,-0.00054705461520792,0.00054705461520716,-0.00054705461520723,0.00054705461520793,4.4494964238797e-17,6.3380416712952e-18,-0.00055006097014163,0.00055006097014169,2.5499221016301e-17,1.6102449257699e-17,-0.00055415725836258,0.00055415725836265,-0.0005541572583627,0.00055415725836268,-0.0005541572583625,0.00055415725836254,-0.00055415725836256,0.00055415725836266,-0.00054705461520759,0.00054705461520767,-0.00054705461520762,0.00054705461520755,0.74487408674984,0.70739061052005,1270536,32768,0.0022892978459863,0.0022892978459865,0.0022892978459865,33.544652209022,33.564636033845,0.00018355721767217,0.00018355721767217,0.00018355721767217,593508.15797932,0.006891533300518
4492800,0.33891915406118,0.0066308076511622,0.002210269217054,0.0022102692170541,0.0022102692170541,-0.00057570883052327,0.00057570883052317,-7.4843301823798e-17,-3.2715912316042e-17,3.3628752076473e-16,-4.5085387378246e-16,-0.0005802977127824,0.00058029771278245,-0.00058029771278233,0.00058029771278254,-0.00058029771278257,0.00058029771278227,-0.00058029771278259,0.00058029771278224,-0.00057240021375599,0.00057240021375547,-0.00057240021375599,0.00057240021375557,-3.4108516831753e-16,4.4780984912826e-16,4.6153001822181e-17,5.1417546876296e-17,-0.0005757088305232,0.0005757088305233,-0.00058029771278246,0.00058029771278228,-0.00058029771278247,0.00058029771278234,-0.00058029771278217,0.0005802977127825,-0.00058029771278221,0.00058029771278253,-0.00057240021375593,0.00057240021375614,-0.00057240021375595,0.00057240021375625,-0.00057240021375618,0.00057240021375556,-0.00057240021375543,0.00057240021375629,-5.9483476938258e-18,-4.3866306973257e-17,-0.00057570883052329,0.00057570883052323,-2.6933000744727e-17,-2.9116757561867e-17,-0.00058029771278237,0.00058029771278234,-0.00058029771278245,0.00058029771278246,-0.00058029771278241,0.0005802977127823,-0.00058029771278241,0.00058029771278233,-0.00057240021375596,0.00057240021375587,-0.000572400213756,0.00057240021375585,0.7447385714248,0.71129607626636,1270536,32768,0.0023959137923111,0.0023959137923112,0.0023959137923113,33.846790614766,33.867263316698,0.00018597432491813,0.00018597432491813,0.00018597432491813,599343.4413636,0.0072136373241239
4579200,0.35612456968241,0.006949111810485,0.0023163706034949,0.002316370603495,0.002316370603495,-0.00060182094121163,0.00060182094121152,-7.0929818436853e-17,-2.8613096477779e-17,3.3819922706929e-16,-4.4594961183959e-16,-0.00060688334281909,0.00060688334281918,-0.00060688334281907,0.0006068833428192,-0.00060688334281939,0.0006068833428189,-0.00060688334281937,0.00060688334281894,-0.0005982233818385,0.00059822338183807,-0.00059822338183845,0.00059822338183819,-3.0213415236198e-16,4.8363963690578e-16,8.4034197518832e-17,9.2519232424487e-17,-0.00060182094121152,0.00060182094121171,-0.00060688334281907,0.00060688334281906,-0.0006068833428191,0.00060688334281902,-0.0006068833428188,0.00060688334281928,-0.00060688334281884,0.00060688334281927,-0.00059822338183822,0.00059822338183869,-0.00059822338183829,0.00059822338183869,-0.00059822338183883,0.00059822338183816,-0.00059822338183797,0.00059822338183902,1.9214486540037e-17,-1.8175915326499e-17,-0.00060182094121162,0.00060182094121163,1.0007047232753e-17,2.6543306767257e-18,-0.00060688334281903,0.0006068833428191,-0.00060688334281912,0.00060688334281909,-0.00060688334281906,0.00060688334281912,-0.00060688334281908,0.0006068833428191,-0.00059822338183862,0.00059822338183849,-0.00059822338183849,0.00059822338183855,0.74477366897677,0.71520154201266,1270536,32768,0.002504447904444,0.0025044479044442,0.0025044479044442,34.149351707617,34.169890599551,0.00018839481366093,0.00018839481366093,0.00018839481366093,600237.62817197,0.0075416423024548
4665600,0.37361489812053,0.0072727954334588,0.0024242651444862,0.0024242651444863,0.0024242651444863,-0.00062836787074986,0.00062836787074975,-7.3696278041058e-17,-3.0932878551205e-17,3.4462182498098e-16,-4.5396407288566e-16,-0.00063388222621966,0.00063388222621974,-0.00063388222621965,0.0006338822262198,-0.00063388222621988,0.00063388222621956,-0.00063388222621983,0.00063388222621955,-0.00062449603825298,0.00062449603825269,-0.00062449603825298,0.00062449603825256,-3.4437183261808e-16,4.5811468138154e-16,6.010845784552e-17,6.8983186728645e-17,-0.00062836787074979,0.00062836787074991,-0.00063388222621961,0.00063388222621936,-0.00063388222621955,0.00063388222621938,-0.00063388222621924,0.00063388222621967,-0.0006338822262193,0.00063388222621962,-0.00062449603825262,0.00062449603825309,-0.00062449603825274,0.00062449603825306,-0.00062449603825311,0.00062449603825243,-0.00062449603825246,0.00062449603825333,-1.086363871153e-18,-3.7675319633082e-17,-0.00062836787074986,0.00062836787074982,-2.1344936162146e-17,-2.953586240556e-17,-0.00063388222621951,0.00063388222621949,-0.00063388222621954,0.00063388222621944,-0.00063388222621949,0.00063388222621935,-0.00063388222621945,0.00063388222621948,-0.00062449603825289,0.0006244960382529,-0.000624496038253,0.00062449603825284,0.74497907735001,0.71910700775897,1270536,32768,0.0026147772474911,0.0026147772474913,0.0026147772474913,34.451954974893,34.472517882404,0.00019081563979914,0.00019081563979914,0.00019081563979914,596670.21745426,0.0078751822138935
4752000,0.39136343284255,0.0076014540807067,0.0025338180269021,0.0025338180269023,0.0025338180269023,-0.00065531718394558,0.00065531718394549,-6.1900682506052e-17,-1.956190239731e-17,3.5085325226221e-16,-4.4639812754951e-16,-0.00066125993496807,0.00066125993496824,-0.00066125993496811,0.00066125993496826,-0.0006612599349684,0.00066125993496802,-0.00066125993496835,0.00066125993496803,-0.00065118685484757,0.00065118685484724,-0.00065118685484759,0.00065118685484714,-2.9611595386087e-16,5.0723082797579e-16,1.0520266848363e-16,1.0893049577754e-16,-0.00065531718394547,0.00065531718394567,-0.0006612599349681,0.00066125993496809,-0.00066125993496817,0.00066125993496806,-0.00066125993496785,0.00066125993496827,-0.00066125993496789,0.00066125993496829,-0.00065118685484711,0.00065118685484753,-0.00065118685484716,0.00065118685484757,-0.00065118685484773,0.00065118685484712,-0.00065118685484695,0.00065118685484798,7.0383879232568e-18,-2.9271164609543e-17,-0.00065531718394559,0.00065531718394556,-1.6293619888156e-17,-1.9315586392683e-17,-0.00066125993496809,0.0006612599349681,-0.00066125993496813,0.00066125993496806,-0.00066125993496814,0.00066125993496805,-0.00066125993496812,0.00066125993496805,-0.00065118685484748,0.0006511868548474,-0.00065118685484752,0.0006511868548475,0.7453480769104,0.72301247350527,1270536,32768,0.0027267664491078,0.002726766449108,0.002726766449108,34.754562520179,34.775145165257,0.00019323650016143,0.00019323650016143,0.00019323650016143,589140.12961743,0.0082138530214301
4838400,0.40934122448869,0.0079346388022501,0.0026448796007499,0.0026448796007501,0.0026448796007501,-0.00068263291072012,0.0006826329107201,-3.523605591562e-17,7.646825218268e-18,3.8884473870721e-16,-4.151637876195e-16,-0.00068897873861296,0.0006889787386132,-0.00068897873861297,0.00068897873861319,-0.00068897873861324,0.00068897873861296,-0.0006889787386132,0.00068897873861299,-0.00067826082320678,0.00067826082320646,-0.00067826082320675,0.00067826082320644,-3.9038513282569e-16,4.2030333649217e-16,1.3429736789583e-17,1.9484698873471e-17,-0.00068263291072011,0.00068263291072016,-0.00068897873861316,0.00068897873861296,-0.00068897873861318,0.00068897873861291,-0.00068897873861287,0.00068897873861319,-0.00068897873861288,0.00068897873861314,-0.00067826082320658,0.00067826082320681,-0.00067826082320657,0.00067826082320682,-0.0006782608232069,0.00067826082320604,-0.00067826082320611,0.00067826082320686,-7.4188910050312e-18,-4.2631050591844e-17,-0.00068263291072016,0.0006826329107201,-2.5727155229538e-17,-3.0278486777719e-17,-0.00068897873861309,0.00068897873861306,-0.00068897873861309,0.00068897873861303,-0.00068897873861304,0.00068897873861302,-0.00068897873861312,0.00068897873861301,-0.00067826082320655,0.00067826082320651,-0.00067826082320652,0.0006782608232065,0.74587191833681,0.72691793925158,1270536,32768,0.0028402655018178,0.0028402655018179,0.0028402655018179,35.057170497762,35.07777244811,0.0001956573639821,0.0001956573639821,0.0001956573639821,578123.04384241,0.0085572059396294
4924800,0.42751719639025,0.0082718570502477,0.0027572856834158,0.002757285683416,0.002757285683416,-0.00071027557273955,0.00071027557273949,-5.0623453488245e-17,-8.1357808692438e-18,3.6504399521535e-16,-4.4280264915361e-16,-0.00071699754253931,0.00071699754253952,-0.00071699754253923,0.00071699754253949,-0.00071699754253957,0.00071699754253931,-0.00071699754253957,0.0007169975425392,-0.00070567930334641,0.00070567930334609,-0.00070567930334644,0.00070567930334617,-3.2457831964925e-16,4.8865418959699e-16,7.0089770570327e-17,7.478448009135e-17,-0.00071027557273949,0.00071027557273965,-0.00071699754253953,0.00071699754253937,-0.00071699754253951,0.00071699754253939,-0.00071699754253925,0.00071699754253965,-0.00071699754253921,0.00071699754253965,-0.00070567930334657,0.00070567930334684,-0.0007056793033465,0.00070567930334694,-0.00070567930334689,0.00070567930334634,-0.00070567930334609,0.00070567930334703,3.7307683805281e-17,4.7792657614175e-19,-0.00071027557273955,0.00071027557273959,1.8734721784757e-17,1.6425968786164e-17,-0.00071699754253939,0.00071699754253949,-0.00071699754253943,0.00071699754253952,-0.00071699754253942,0.00071699754253941,-0.00071699754253941,0.00071699754253945,-0.00070567930334655,0.00070567930334659,-0.0007056793033465,0.00070567930334665,0.74654145535096,0.73082340499788,1270536,32768,0.0029551098841964,0.0029551098841966,0.0029551098841966,35.359778515147,35.380399730963,0.00019807822812117,0.00019807822812117,0.00019807822812117,564071.11336622,0.0089047477053608
5011200,0.44585828787076,0.0086120856739209,0.0028706952246402,0.0028706952246403,0.0028706952246403,-0.0007381630000982,0.00073816300009812,-5.7880584729044e-17,-1.5701726205395e-17,3.5902947307252e-16,-4.5092004823146e-16,-0.00074524475741586,0.00074524475741601,-0.00074524475741582,0.00074524475741597,-0.00074524475741607,0.00074524475741575,-0.00074524475741605,0.00074524475741578,-0.00073334704168403,0.00073334704168369,-0.00073334704168399,0.00073334704168368,-3.60437518293e-16,4.5465522824192e-16,4.093624942568e-17,4.3204562483214e-17,-0.00073816300009816,0.00073816300009825,-0.0007452447574159,0.00074524475741574,-0.00074524475741597,0.00074524475741575,-0.00074524475741564,0.00074524475741591,-0.00074524475741564,0.000745244757416,-0.00073334704168396,0.00073334704168424,-0.00073334704168392,0.00073334704168425,-0.00073334704168451,0.00073334704168385,-0.00073334704168379,0.00073334704168472,-6.6174449004242e-20,-3.6337125219885e-17,-0.00073816300009822,0.00073816300009818,-2.4778654793811e-17,-2.5013941723604e-17,-0.00074524475741584,0.00074524475741584,-0.00074524475741582,0.00074524475741579,-0.00074524475741579,0.00074524475741575,-0.00074524475741584,0.00074524475741577,-0.00073334704168428,0.00073334704168416,-0.00073334704168418,0.00073334704168423,0.746282822191,0.72885757449027,1270536,32768,0.0030709578009211,0.0030709578009212,0.0030709578009212,35.662386532184,35.683027013817,0.00020049909225747,0.00020049909225747,0.00020049909225747,549784.10928947,0.0092554477188524
5097600,0.46421412892792,0.0089485111668874,0.0029828370556291,0.0029828370556292,0.0029828370556292,-0.00076555082759324,0.00076555082759314,-5.6027700156925e-17,-1.4179713878298e-17,3.585809573626e-16,-4.5049359067121e-16,-0.00077307818014922,0.00077307818014941,-0.00077307818014923,0.00077307818014937,-0.00077307818014955,0.00077307818014917,-0.00077307818014944,0.00077307818014913,-0.00076040519570043,0.00076040519570011,-0.00076040519570059,0.00076040519570019,-3.3246778451387e-16,4.8451093381767e-16,6.9769927400139e-17,7.8997586677953e-17,-0.00076555082759316,0.0007655508275933,-0.00077307818014961,0.00077307818014956,-0.00077307818014969,0.00077307818014957,-0.0007730781801494,0.00077307818014982,-0.00077307818014937,0.00077307818014973,-0.00076040519570023,0.00076040519570054,-0.00076040519570025,0.00076040519570066,-0.00076040519570084,0.00076040519570032,-0.00076040519570012,0.00076040519570117,3.5480533741108e-17,-1.8749427217869e-18,-0.00076555082759321,0.00076555082759325,2.4955119991155e-17,1.7374469221892e-17,-0.00077307818014954,0.00077307818014959,-0.00077307818014959,0.00077307818014962,-0.00077307818014955,0.0007730781801496,-0.0007730781801495,0.00077307818014955,-0.00076040519570063,0.00076040519570068,-0.00076040519570063,0.00076040519570071,0.73725814253934,0.68033219149736,1270536,32768,0.0031847171815028,0.0031847171815029,0.0031847171815029,35.864769846626,35.878820791791,0.00020211815877301,0.00020211815877301,0.00020211815877301,555986.21672198,0.0095999442089111
5184000,0.48245129021914,0.0092816131238059,0.0030938710412686,0.0030938710412687,0.0030938710412687,-0.0007924720203391,0.00079247202033903,-5.416746286825e-17,-1.1540088634684e-17,3.7132321515419e-16,-4.3687635960945e-16,-0.00080046343733172,0.00080046343733189,-0.0008004634373318,0.00080046343733196,-0.00080046343733204,0.00080046343733172,-0.00080046343733206,0.00080046343733168,-0.00078699336365606,0.00078699336365566,-0.00078699336365612,0.00078699336365581,-3.7659878928314e-16,4.3621829147769e-16,2.6528601334145e-17,3.1550506741912e-17,-0.00079247202033907,0.00079247202033912,-0.00080046343733212,0.00080046343733188,-0.00080046343733214,0.00080046343733195,-0.00080046343733186,0.00080046343733208,-0.00080046343733181,0.00080046343733212,-0.00078699336365596,0.0007869933636562,-0.00078699336365599,0.00078699336365623,-0.00078699336365642,0.00078699336365575,-0.00078699336365573,0.0007869933636565,-7.047211183124e-17,-1.0716584380409e-16,-0.00079247202033918,0.00079247202033901,-8.4519476811529e-17,-8.7159102055143e-17,-0.00080046343733208,0.00080046343733189,-0.00080046343733209,0.00080046343733198,-0.00080046343733208,0.00080046343733193,-0.00080046343733212,0.00080046343733188,-0.0007869933636562,0.00078699336365598,-0.00078699336365621,0.00078699336365609,0.73476987385438,0.68861650922473,1270536,32768,0.003296525691597,0.0032965256915971,0.0032965256915971,35.979150756502,35.987182183576,0.00020303320605201,0.00020303320605201,0.00020303320605201,568329.32949902,0.0099386475694185
5270400,0.50053480999346,0.0096202501499487,0.0032067500499828,0.003206750049983,0.003206750049983,-0.00081986782494902,0.00081986782494893,-5.9268409978994e-17,-1.6760517389463e-17,3.643491635008e-16,-4.4767750023025e-16,-0.00082808465941066,0.00082808465941084,-0.00082808465941066,0.00082808465941084,-0.00082808465941094,0.00082808465941059,-0.00082808465941092,0.00082808465941059,-0.00081433817487859,0.00081433817487819,-0.00081433817487859,0.00081433817487826,-3.5926108364403e-16,4.5822864848815e-16,4.5910362175832e-17,5.0961678449823e-17,-0.00081986782494896,0.00081986782494906,-0.00082808465941088,0.00082808465941071,-0.0008280846594109,0.00082808465941071,-0.00082808465941061,0.00082808465941096,-0.00082808465941062,0.00082808465941097,-0.00081433817487832,0.00081433817487864,-0.00081433817487834,0.00081433817487867,-0.00081433817487885,0.00081433817487817,-0.00081433817487808,0.00081433817487898,3.8712052667482e-18,-3.3138693518013e-17,-0.00081986782494902,0.000819867824949,-1.1933458970432e-17,-1.6992127960978e-17,-0.00082808465941079,0.00082808465941079,-0.00082808465941082,0.0008280846594108,-0.0008280846594108,0.00082808465941077,-0.00082808465941082,0.00082808465941076,-0.00081433817487858,0.00081433817487851,-0.00081433817487853,0.00081433817487855,0.75331616848491,0.80400170950033,1270536,32768,0.003410292676583,0.0034102926765831,0.0034102926765831,36.088078773434,36.095543575362,0.00020390463018747,0.00020390463018747,0.00020390463018747,530665.36561866,0.010283399626597
5356800,0.51843787839719,0.0099541253632475,0.0033180417877491,0.0033180417877492,0.0033180417877492,-0.00084695049566014,0.00084695049566006,-5.9827216437252e-17,-1.7172269516601e-17,3.6458077407232e-16,-4.4881717129644e-16,-0.00085539041919999,0.00085539041920016,-0.00085539041919999,0.00085539041920017,-0.00085539041920027,0.00085539041919992,-0.00085539041920025,0.00085539041919992,-0.00084131034976304,0.00084131034976264,-0.00084131034976303,0.00084131034976271,-3.6010664604797e-16,4.5893450927753e-16,4.4483935163963e-17,5.2593981525261e-17,-0.00084695049566008,0.00084695049566018,-0.00085539041920021,0.00085539041920004,-0.00085539041920023,0.00085539041920004,-0.00085539041919994,0.00085539041920028,-0.00085539041919995,0.0008553904192003,-0.00084131034976276,0.00084131034976308,-0.00084131034976278,0.00084131034976312,-0.00084131034976329,0.00084131034976262,-0.00084131034976252,0.00084131034976342,3.8123835343e-18,-3.3410744030586e-17,-0.00084695049566014,0.00084695049566012,-1.0330566761218e-17,-1.869060548542e-17,-0.00085539041920012,0.00085539041920011,-0.00085539041920015,0.00085539041920013,-0.00085539041920013,0.00085539041920009,-0.00085539041920015,0.00085539041920009,-0.00084131034976302,0.00084131034976295,-0.00084131034976298,0.000841310349763,0.74989212737385,0.74770296004574,1270536,32768,0.0035227465474286,0.0035227465474287,0.0035227465474287,36.196494955933,36.203904967147,0.00020477195964746,0.00020477195964746,0.00020477195964746,493105.25261751,0.010624288383127
5443200,0.53613353644303,0.010278688570814,0.0034262295236045,0.0034262295236047,0.0034262295236047,-0.00087319715287566,0.00087319715287555,-7.9413015163369e-17,-3.7248862072832e-17,3.4827244875105e-16,-4.6069180853442e-16,-0.00088200031146936,0.00088200031146957,-0.00088200031146943,0.00088200031146953,-0.00088200031146966,0.00088200031146925,-0.00088200031146968,0.00088200031146933,-0.00086726236936982,0.0008672623693694,-0.00086726236936986,0.00086726236936945,-3.4574679061405e-16,4.6876141495466e-16,5.8042344493276e-17,6.2836315687806e-17,-0.00087319715287558,0.00087319715287571,-0.00088200031146955,0.00088200031146946,-0.00088200031146957,0.00088200031146942,-0.00088200031146924,0.00088200031146961,-0.00088200031146927,0.00088200031146964,-0.00086726236936966,0.00086726236937001,-0.0008672623693697,0.00086726236937007,-0.00086726236937,0.00086726236936937,-0.00086726236936928,0.00086726236937017,-1.1165100090327e-17,-4.7829421196955e-17,-0.00087319715287567,0.00087319715287561,-3.1013758433322e-17,-3.4748938443783e-17,-0.0008820003114695,0.00088200031146943,-0.00088200031146947,0.00088200031146944,-0.0008820003114695,0.0008820003114694,-0.00088200031146949,0.00088200031146941,-0.00086726236936983,0.0008672623693697,-0.0008672623693697,0.00086726236936967,0.73725457188297,0.67633392771571,1270536,32768,0.0036317169070347,0.0036317169070349,0.0036317169070349,36.304859727727,36.312266358933,0.00020563887782182,0.00020563887782182,0.00020563887782182,497050.58847731,0.010954727565798
5529600,0.55359506081309,0.010590797053369,0.0035302656844562,0.0035302656844564,0.0035302656844564,-0.00089841360780065,0.00089841360780057,-6.0347421133591e-17,-1.8583991095358e-17,3.6082721227046e-16,-4.4536874723166e-16,-0.00090776964125288,0.00090776964125306,-0.00090776964125288,0.00090776964125306,-0.00090776964125316,0.00090776964125281,-0.00090776964125314,0.00090776964125281,-0.00089199091955341,0.00089199091955301,-0.00089199091955341,0.00089199091955308,-3.5737878820569e-16,4.5518462383396e-16,4.4969214456661e-17,5.1035205615383e-17,-0.00089841360780059,0.00089841360780069,-0.0009077696412531,0.00090776964125294,-0.00090776964125312,0.00090776964125294,-0.00090776964125284,0.00090776964125318,-0.00090776964125285,0.00090776964125319,-0.00089199091955314,0.00089199091955346,-0.00089199091955316,0.00089199091955349,-0.00089199091955366,0.00089199091955299,-0.00089199091955289,0.00089199091955379,3.6543001283454e-18,-3.340339131403e-17,-0.00089841360780066,0.00089841360780063,-1.1859931804871e-17,-1.7631814301353e-17,-0.00090776964125302,0.00090776964125301,-0.00090776964125304,0.00090776964125302,-0.00090776964125303,0.00090776964125299,-0.00090776964125304,0.00090776964125298,-0.00089199091955339,0.00089199091955332,-0.00089199091955334,0.00089199091955336,0.71857263251145,0.60141412576628,1270536,32768,0.003736398745758,0.0037363987457581,0.0037363987457581,36.413219248034,36.420627750718,0.00020650575398427,0.00020650575398427,0.00020650575398427,535141.88105711,0.011272264878968
5616000,0.57079734605524,0.010889935635282,0.0036299785450939,0.0036299785450941,0.0036299785450941,-0.00092255719833232,0.00092255719833223,-6.1051443743831e-17,-1.911706304567e-17,3.6060663077378e-16,-4.4648636014818e-16,-0.00093265571817747,0.00093265571817764,-0.00093265571817747,0.00093265571817765,-0.00093265571817775,0.00093265571817739,-0.00093265571817773,0.0009326557181774,-0.00091549132599557,0.00091549132599517,-0.00091549132599556,0.00091549132599524,-3.5829787777519e-16,4.5541991076375e-16,4.4108946619605e-17,5.1344019710736e-17,-0.00092255719833226,0.00092255719833236,-0.00093265571817769,0.00093265571817753,-0.00093265571817771,0.00093265571817753,-0.00093265571817743,0.00093265571817776,-0.00093265571817743,0.00093265571817778,-0.0009154913259953,0.00091549132599561,-0.00091549132599532,0.00091549132599565,-0.00091549132599582,0.00091549132599514,-0.00091549132599505,0.00091549132599594,4.2939864687197e-18,-3.2785763123324e-17,-0.00092255719833232,0.0009225571983323,-1.0367330343998e-17,-1.7675930600689e-17,-0.0009326557181776,0.0009326557181776,-0.00093265571817763,0.00093265571817761,-0.00093265571817762,0.00093265571817758,-0.00093265571817763,0.00093265571817757,-0.00091549132599555,0.00091549132599548,-0.0009154913259955,0.00091549132599552,0.69949358183578,0.54799038503428,1270536,32768,0.0038366163118193,0.0038366163118195,0.0038366163118195,36.521578229161,36.528989142504,0.00020737262583329,0.00020737262583329,0.00020737262583329,600081.71695268,0.011576354831096
5702400,0.58771703698109,0.011176078725724,0.0037253595752411,0.0037253595752413,0.0037253595752413,-0.00094564640168593,0.00094564640168585,-6.1571648440169e-17,-1.9815571118493e-17,3.6125366983071e-16,-4.482216012554e-16,-0.00095665402715924,0.00095665402715941,-0.00095665402715924,0.00095665402715942,-0.00095665402715952,0.00095665402715916,-0.0009566540271595,0.00095665402715917,-0.00093782230485297,0.00093782230485257,-0.00093782230485297,0.00093782230485264,-3.5923167277781e-16,4.5694192309085e-16,4.2998686419645e-17,5.3204256999411e-17,-0.00094564640168588,0.00094564640168598,-0.00095665402715946,0.00095665402715929,-0.00095665402715948,0.00095665402715929,-0.00095665402715919,0.00095665402715953,-0.0009566540271592,0.00095665402715955,-0.0009378223048527,0.00093782230485301,-0.00093782230485271,0.00093782230485305,-0.00093782230485322,0.00093782230485254,-0.00093782230485245,0.00093782230485334,4.5770660561268e-18,-3.2660766941872e-17,-0.00094564640168594,0.00094564640168591,-8.5291512049912e-18,-1.8587667453636e-17,-0.00095665402715937,0.00095665402715936,-0.0009566540271594,0.00095665402715937,-0.00095665402715938,0.00095665402715935,-0.0009566540271594,0.00095665402715934,-0.00093782230485295,0.00093782230485288,-0.0009378223048529,0.00093782230485292,0.68090202188525,0.50714110322116,1270536,32768,0.0039324476186029,0.0039324476186031,0.0039324476186031,36.629937154662,36.637350534289,0.00020823949723729,0.00020823949723729,0.00020823949723729,681111.7043215,0.011867222133925
5788800,0.60433261324299,0.011448799923251,0.0038162666410837,0.0038162666410839,0.0038162666410839,-0.00096764740170903,0.00096764740170894,-6.1154381775615e-17,-1.9558226039032e-17,3.6121322988966e-16,-4.4751574046602e-16,-0.00097972172883527,0.00097972172883544,-0.00097972172883526,0.00097972172883544,-0.00097972172883554,0.00097972172883519,-0.00097972172883553,0.00097972172883519,-0.00095896022585994,0.00095896022585953,-0.00095896022585993,0.0009589602258596,-3.5895226954868e-16,4.5647870194782e-16,4.1976658818358e-17,5.3858648772897e-17,-0.00096764740170897,0.00096764740170907,-0.00097972172883549,0.00097972172883532,-0.0009797217288355,0.00097972172883532,-0.00097972172883522,0.00097972172883556,-0.00097972172883523,0.00097972172883558,-0.00095896022585966,0.00095896022585998,-0.00095896022585968,0.00095896022586002,-0.00095896022586018,0.00095896022585951,-0.00095896022585941,0.00095896022586031,4.654269579965e-18,-3.2410774578967e-17,-0.00096764740170903,0.00096764740170901,-7.382127422251e-18,-1.954352060592e-17,-0.0009797217288354,0.00097972172883539,-0.00097972172883543,0.0009797217288354,-0.00097972172883541,0.00097972172883538,-0.00097972172883543,0.00097972172883537,-0.00095896022585992,0.00095896022585984,-0.00095896022585986,0.00095896022585989,0.66158207459865,0.46629182140805,1270536,32768,0.0040237535610297,0.0040237535610299,0.0040237535610299,36.738296074236,36.745711926074,0.00020910636859389,0.00020910636859389,0.00020910636859389,774326.77203381,0.012144433097328
5875200,0.62056511609918,0.0117116666063,0.0039038888687666,0.0039038888687668,0.0039038888687668,-0.00098872663906388,0.0009887266390638,-6.1990753283863e-17,-2.0322908560858e-17,3.6187865073798e-16,-4.4982449346461e-16,-0.0010018938215633,0.0010018938215634,-0.0010018938215632,0.0010018938215634,-0.0010018938215635,0.0010018938215632,-0.0010018938215635,0.0010018938215632,-0.00097921908274231,0.00097921908274191,-0.00097921908274231,0.00097921908274198,-3.6017282049698e-16,4.5811835773981e-16,4.0726697003833e-17,5.5373308383439e-17,-0.00098872663906383,0.00098872663906393,-0.0010018938215635,0.0010018938215633,-0.0010018938215635,0.0010018938215633,-0.0010018938215632,0.0010018938215635,-0.0010018938215632,0.0010018938215636,-0.00097921908274204,0.00097921908274235,-0.00097921908274205,0.00097921908274239,-0.00097921908274256,0.00097921908274189,-0.00097921908274179,0.00097921908274269,4.2535465276616e-18,-3.2690177808096e-17,-0.00098872663906389,0.00098872663906387,-6.2645145057349e-18,-2.1087591082685e-17,-0.0010018938215634,0.0010018938215634,-0.0010018938215634,0.0010018938215634,-0.0010018938215634,0.0010018938215634,-0.0010018938215634,0.0010018938215634,-0.00097921908274229,0.00097921908274222,-0.00097921908274224,0.00097921908274226,0.65346455814859,0.49184196051334,1270536,32768,0.0041112261782331,0.0041112261782333,0.0041112261782333,36.784579614672,36.787895818362,0.00020947663691738,0.00020947663691738,0.00020947663691738,857899.96920822,0.012410077649924
5961600,0.63635539222037,0.011960139664696,0.0039867132215654,0.0039867132215655,0.0039867132215655,-0.0010086494138474,0.0010086494138473,-6.1979724209029e-17,-2.0528784624427e-17,3.6229775558167e-16,-4.5049359067121e-16,-0.0010229738589486,0.0010229738589488,-0.0010229738589486,0.0010229738589488,-0.0010229738589489,0.0010229738589485,-0.0010229738589489,0.0010229738589486,-0.00099827220136053,0.00099827220136012,-0.00099827220136052,0.00099827220136019,-3.6074633238835e-16,4.5884627667886e-16,4.0888456768066e-17,5.5520362714559e-17,-0.0010086494138474,0.0010086494138475,-0.0010229738589488,0.0010229738589487,-0.0010229738589489,0.0010229738589487,-0.0010229738589486,0.0010229738589489,-0.0010229738589486,0.0010229738589489,-0.00099827220136025,0.00099827220136057,-0.00099827220136026,0.00099827220136061,-0.00099827220136077,0.0009982722013601,-0.00099827220136,0.0009982722013609,4.8417638521437e-18,-3.2278425680958e-17,-0.0010086494138474,0.0010086494138474,-5.735118913701e-18,-2.0484668325091e-17,-0.0010229738589488,0.0010229738589487,-0.0010229738589488,0.0010229738589488,-0.0010229738589488,0.0010229738589487,-0.0010229738589488,0.0010229738589487,-0.00099827220136051,0.00099827220136043,-0.00099827220136045,0.00099827220136048,0.6356868646691,0.44077103288462,1270536,32768,0.0041938925114748,0.004193892511475,0.004193892511475,36.780618277264,36.78047504981,0.00020944494621811,0.00020944494621811,0.00020944494621811,932496.48464589,0.012661191555902
6048000,0.65169384820764,0.012196053744966,0.004065351248322,0.0040653512483221,0.0040653512483221,-0.0010274337098731,0.001027433709873,-6.1821640803074e-17,-2.0308203127746e-17,3.6284553296509e-16,-4.5050094338777e-16,-0.0010430037936296,0.0010430037936298,-0.0010430037936296,0.0010430037936298,-0.0010430037936299,0.0010430037936296,-0.0010430037936299,0.0010430037936296,-0.001016134423346,0.0010161344233456,-0.001016134423346,0.0010161344233456,-3.6100367746781e-16,4.5883157124575e-16,4.0785518736281e-17,5.5233606768874e-17,-0.001027433709873,0.0010274337098731,-0.0010430037936299,0.0010430037936297,-0.0010430037936299,0.0010430037936297,-0.0010430037936296,0.0010430037936299,-0.0010430037936296,0.0010430037936299,-0.0010161344233457,0.001016134423346,-0.0010161344233457,0.0010161344233461,-0.0010161344233462,0.0010161344233455,-0.0010161344233454,0.0010161344233464,4.92264373426e-18,-3.2337247413406e-17,-0.0010274337098731,0.001027433709873,-5.7645297799251e-18,-2.0322908560858e-17,-0.0010430037936298,0.0010430037936298,-0.0010430037936298,0.0010430037936298,-0.0010430037936298,0.0010430037936297,-0.0010430037936298,0.0010430037936297,-0.001016134423346,0.0010161344233459,-0.0010161344233459,0.0010161344233459,0.62194257043869,0.42834657677503,1270536,32768,0.004271828420258,0.0042718284202582,0.0042718284202582,36.773525376704,36.773054281258,0.00020938820301363,0.00020938820301363,0.00020938820301363,1020341.3268854,0.012897994066701
6134400,0.66657523901337,0.012422050629762,0.0041406835432538,0.004140683543254,0.004140683543254,-0.0010454782844733,0.0010454782844732,-6.2448459889476e-17,-2.0786129703888e-17,3.6187129802142e-16,-4.5067740858511e-16,-0.0010622466421573,0.0010622466421575,-0.0010622466421573,0.0010622466421575,-0.0010622466421576,0.0010622466421572,-0.0010622466421575,0.0010622466421572,-0.001033337196564,0.0010333371965636,-0.001033337196564,0.0010333371965637,-3.6087868128636e-16,4.5845658270139e-16,4.0748755153501e-17,5.4939498106633e-17,-0.0010454782844733,0.0010454782844733,-0.0010622466421575,0.0010622466421573,-0.0010622466421575,0.0010622466421573,-0.0010622466421572,0.0010622466421576,-0.0010622466421572,0.0010622466421576,-0.0010333371965638,0.0010333371965641,-0.0010333371965638,0.0010333371965641,-0.0010333371965643,0.0010333371965636,-0.0010333371965635,0.0010333371965644,4.9447018839281e-18,-3.221960394851e-17,-0.0010454782844733,0.0010454782844733,-5.749824346813e-18,-2.0102327064178e-17,-0.0010622466421574,0.0010622466421574,-0.0010622466421574,0.0010622466421574,-0.0010622466421574,0.0010622466421574,-0.0010622466421574,0.0010622466421574,-0.001033337196564,0.0010333371965639,-0.001033337196564,0.001033337196564,0.61473971052951,0.44713313593456,1270536,32768,0.0043466894235428,0.004346689423543,0.004346689423543,36.766137658209,36.765633512706,0.00020932910126567,0.00020932910126567,0.00020932910126567,1087362.0285615,0.013125506373192
6220800,0.68099677182457,0.012639367389873,0.004213122463291,0.0042131224632911,0.0042131224632911,-0.0010629091175136,0.0010629091175135,-6.2170894839486e-17,-2.0683191672104e-17,3.6250363164524e-16,-4.5060388141955e-16,-0.0010807874723948,0.001080787472395,-0.0010807874723948,0.001080787472395,-0.0010807874723951,0.0010807874723947,-0.001080787472395,0.0010807874723947,-0.0010500222431887,0.0010500222431882,-0.0010500222431886,0.0010500222431883,-3.6161395294196e-16,4.5839040825239e-16,3.9741432985325e-17,5.527772306821e-17,-0.0010629091175136,0.0010629091175137,-0.001080787472395,0.0010807874723948,-0.001080787472395,0.0010807874723948,-0.0010807874723947,0.0010807874723951,-0.0010807874723947,0.0010807874723951,-0.0010500222431884,0.0010500222431887,-0.0010500222431884,0.0010500222431887,-0.0010500222431889,0.0010500222431882,-0.0010500222431881,0.001050022243189,4.7498548951934e-18,-3.2528418043863e-17,-0.0010629091175136,0.0010629091175136,-5.2204287547791e-18,-2.0881715019116e-17,-0.0010807874723949,0.0010807874723949,-0.0010807874723949,0.0010807874723949,-0.0010807874723949,0.0010807874723949,-0.0010807874723949,0.0010807874723949,-0.0010500222431886,0.0010500222431886,-0.0010500222431886,0.0010500222431886,0.61042739770734,0.46591969509408,1270536,32768,0.0044189988557741,0.0044189988557742,0.0044189988557742,36.758720262575,36.758212744154,0.0002092697621006,0.0002092697621006,0.0002092697621006,1129444.0718502,0.013345312927241
6307200,0.6949573160085,0.012848880122986,0.0042829600409951,0.0042829600409952,0.0042829600409952,-0.001079740290323,0.0010797402903229,-6.2270156512992e-17,-2.069054438866e-17,3.6233451916445e-16,-4.5075093575067e-16,-0.0010986437035987,0.0010986437035988,-0.0010986437035987,0.0010986437035989,-0.001098643703599,0.0010986437035986,-0.0010986437035989,0.0010986437035986,-0.0010661860685109,0.0010661860685105,-0.0010661860685109,0.0010661860685106,-3.6145954589428e-16,4.5811835773981e-16,3.938114987408e-17,5.5498304564891e-17,-0.0010797402903229,0.001079740290323,-0.0010986437035989,0.0010986437035987,-0.0010986437035989,0.0010986437035987,-0.0010986437035986,0.001098643703599,-0.0010986437035986,0.001098643703599,-0.0010661860685107,0.001066186068511,-0.0010661860685107,0.001066186068511,-0.0010661860685112,0.0010661860685105,-0.0010661860685104,0.0010661860685113,4.7167676706913e-18,-3.2587239776311e-17,-0.001079740290323,0.0010797402903229,-4.9998472580983e-18,-2.1205234547582e-17,-0.0010986437035988,0.0010986437035988,-0.0010986437035988,0.0010986437035988,-0.0010986437035988,0.0010986437035988,-0.0010986437035988,0.0010986437035988,-0.0010661860685109,0.0010661860685108,-0.0010661860685108,0.0010661860685109,0.60817730044645,0.4847062542536,1270536,32768,0.004488815708926,0.0044888157089262,0.0044888157089262,36.751299830316,36.750791975602,0.00020921039864253,0.00020921039864253,0.00020921039864253,1154914.6602803,0.013557587854607
6393600,0.70845715921986,0.013050128571934,0.0043500428573113,0.0043500428573115,0.0043500428573115,-0.0010959241151011,0.001095924115101,-6.2836315687806e-17,-2.1352288878702e-17,3.6204776321877e-16,-4.515156182725e-16,-0.0011157894010491,0.0011157894010493,-0.0011157894010491,0.0011157894010493,-0.0011157894010494,0.001115789401049,-0.0011157894010494,0.001115789401049,-0.0010817470322738,0.0010817470322733,-0.0010817470322737,0.0010817470322734,-3.6169483282408e-16,4.5863304789874e-16,3.9175273810511e-17,5.6071816456261e-17,-0.001095924115101,0.0010959241151011,-0.0011157894010493,0.0011157894010491,-0.0011157894010493,0.0011157894010491,-0.001115789401049,0.0011157894010494,-0.0011157894010491,0.0011157894010494,-0.0010817470322735,0.0010817470322738,-0.0010817470322735,0.0010817470322738,-0.001081747032274,0.0010817470322733,-0.0010817470322732,0.0010817470322741,4.4704516660644e-18,-3.2896053871664e-17,-0.0010959241151011,0.0010959241151011,-4.8969092263139e-18,-2.1896389903848e-17,-0.0011157894010492,0.0011157894010492,-0.0011157894010492,0.0011157894010492,-0.0011157894010492,0.0011157894010492,-0.0011157894010492,0.0011157894010492,-0.0010817470322737,0.0010817470322737,-0.0010817470322737,0.0010817470322737,0.60425497655563,0.48538089711844,1270536,32768,0.004555942675838,0.0045559426758382,0.0045559426758382,36.743879085966,36.743371207051,0.00020915103268773,0.00020915103268773,0.00020915103268773,1170127.6110613,0.013761726477241
6480000,0.72149795824589,0.013247674387175,0.0044158914623916,0.0044158914623918,0.0044158914623918,-0.0011117862562479,0.0011117862562478,-6.3339976771894e-17,-2.1719924706504e-17,3.6250363164524e-16,-4.528538126857e-16,-0.0011324595113,0.0011324595113002,-0.0011324595113,0.0011324595113002,-0.0011324595113003,0.0011324595112999,-0.0011324595113003,0.0011324595112999,-0.0010971388105086,0.0010971388105082,-0.0010971388105086,0.0010971388105082,-3.6213599581744e-16,4.5982418798081e-16,3.9263506409184e-17,5.677767724564e-17,-0.0011117862562479,0.001111786256248,-0.0011324595113002,0.0011324595113001,-0.0011324595113002,0.0011324595113001,-0.0011324595113,0.0011324595113003,-0.0011324595113,0.0011324595113003,-0.0010971388105083,0.0010971388105086,-0.0010971388105083,0.0010971388105087,-0.0010971388105088,0.0010971388105081,-0.001097138810508,0.0010971388105089,4.7866184779735e-18,-3.2763704973656e-17,-0.0011117862562479,0.0011117862562479,-4.4557462329523e-18,-2.2146382266753e-17,-0.0011324595113001,0.0011324595113001,-0.0011324595113002,0.0011324595113001,-0.0011324595113001,0.0011324595113001,-0.0011324595113002,0.0011324595113001,-0.0010971388105085,0.0010971388105085,-0.0010971388105085,0.0010971388105085,0.61393249003305,0.56135094059269,1270536,32768,0.0046217312361703,0.0046217312361704,0.0046217312361704,36.736458309501,36.735950438499,0.00020909166647601,0.00020909166647601,0.00020909166647601,1167662.6173545,0.013961833598099
6566400,0.73408319089917,0.01344223338509,0.0044807444616967,0.0044807444616968,0.0044807444616968,-0.0011275949041548,0.0011275949041547,-6.3240715098388e-17,-2.1639044824387e-17,3.6209923223466e-16,-4.5217736276254e-16,-0.0011488457393199,0.0011488457393201,-0.0011488457393199,0.0011488457393201,-0.0011488457393202,0.0011488457393198,-0.0011488457393202,0.0011488457393198,-0.001112673253196,0.0011126732531956,-0.001112673253196,0.0011126732531956,-3.6186394530486e-16,4.5905950545898e-16,3.9160568377399e-17,5.6248281653606e-17,-0.0011275949041548,0.0011275949041549,-0.0011488457393201,0.0011488457393199,-0.0011488457393201,0.0011488457393199,-0.0011488457393199,0.0011488457393202,-0.0011488457393199,0.0011488457393202,-0.0011126732531957,0.001112673253196,-0.0011126732531957,0.0011126732531961,-0.0011126732531962,0.0011126732531955,-0.0011126732531954,0.0011126732531963,4.7682366865835e-18,-3.2690177808096e-17,-0.0011275949041548,0.0011275949041548,-4.4851570991764e-18,-2.1778746438952e-17,-0.00114884573932,0.00114884573932,-0.0011488457393201,0.00114884573932,-0.00114884573932,0.00114884573932,-0.0011488457393201,0.00114884573932,-0.0011126732531959,0.0011126732531959,-0.0011126732531959,0.0011126732531959,0.62631025833527,0.61978136300686,1270536,32768,0.0046872938957191,0.0046872938957192,0.0046872938957192,36.729623143346,36.729153963061,0.00020903698514677,0.00020903698514677,0.00020903698514677,1126546.5972506,0.014161291723012
6652800,0.74652621553431,0.013639473058372,0.0045464910194574,0.0045464910194575,0.0045464910194575,-0.0011444674318334,0.0011444674318332,-8.2122491214265e-17,-3.9645847670097e-17,3.4276158769231e-16,-4.7058856501883e-16,-0.0011661266367097,0.0011661266367098,-0.0011661266367096,0.0011661266367098,-0.0011661266367099,0.0011661266367095,-0.0011661266367099,0.0011661266367095,-0.0011293992334271,0.0011293992334267,-0.0011293992334271,0.0011293992334268,-3.6155513120951e-16,4.5873598593052e-16,3.7822373964202e-17,5.8086460792613e-17,-0.0011444674318333,0.0011444674318334,-0.0011661266367099,0.0011661266367097,-0.0011661266367099,0.0011661266367097,-0.0011661266367096,0.0011661266367099,-0.0011661266367096,0.00116612663671,-0.0011293992334269,0.0011293992334272,-0.0011293992334269,0.0011293992334272,-0.0011293992334274,0.0011293992334267,-0.0011293992334266,0.0011293992334275,-3.9337033574744e-19,-3.8837048848934e-17,-0.0011444674318333,0.0011444674318333,-7.7497632500524e-18,-2.8543245670496e-17,-0.0011661266367098,0.0011661266367098,-0.0011661266367098,0.0011661266367098,-0.0011661266367098,0.0011661266367097,-0.0011661266367098,0.0011661266367097,-0.0011293992334271,0.001129399233427,-0.0011293992334271,0.0011293992334271,0.64171142327044,0.67821178542102,1270536,32768,0.0047572643560014,0.0047572643560015,0.0047572643560015,37.168829067482,37.197859537707,0.00021255063253985,0.00021255063253985,0.00021255063253985,1069883.2038316,0.014374200908412
6739200,0.75882018673156,0.013840001564429,0.0046133338548097,0.0046133338548098,0.0046133338548099,-0.0011616531921117,0.0011616531921116,-7.038020287429e-17,-2.8138846259915e-17,3.5504062434087e-16,-4.5916244349077e-16,-0.0011835714459987,0.0011835714459989,-0.0011835714459987,0.0011835714459989,-0.001183571445999,0.0011835714459986,-0.001183571445999,0.0011835714459986,-0.0011465521364101,0.0011465521364097,-0.0011465521364101,0.0011465521364097,-3.6207717408499e-16,4.5920655979011e-16,3.597684210864e-17,5.6660033780743e-17,-0.0011616531921117,0.0011616531921118,-0.001183571445999,0.0011835714459988,-0.001183571445999,0.0011835714459988,-0.0011835714459987,0.0011835714459991,-0.0011835714459987,0.0011835714459991,-0.0011465521364098,0.0011465521364101,-0.0011465521364098,0.0011465521364102,-0.0011465521364103,0.0011465521364096,-0.0011465521364095,0.0011465521364104,1.2433443696242e-17,-2.5763918812318e-17,-0.0011616531921117,0.0011616531921117,4.3233973349438e-18,-1.6631844849733e-17,-0.0011835714459989,0.0011835714459989,-0.0011835714459989,0.0011835714459989,-0.0011835714459989,0.0011835714459989,-0.0011835714459989,0.0011835714459989,-0.00114655213641,0.0011465521364099,-0.0011465521364099,0.00114655213641,0.65967566587509,0.73664220783519,1270536,32768,0.004828529035825,0.0048285290358252,0.0048285290358252,37.634716470876,37.666565112353,0.00021627773176701,0.00021627773176701,0.00021627773176701,1001779.3493728,0.014591092722118
6825600,0.77094055494038,0.014048629384884,0.0046828764616278,0.004682876461628,0.004682876461628,-0.0011794802681227,0.0011794802681227,-5.7358541853566e-17,-1.5205417837864e-17,3.6888578961587e-16,-4.4425113431515e-16,-0.0012013904035546,0.0012013904035548,-0.0012013904035546,0.0012013904035548,-0.0012013904035549,0.0012013904035546,-0.0012013904035549,0.0012013904035546,-0.0011645906948377,0.0011645906948372,-0.0011645906948377,0.0011645906948374,-3.5181278177278e-16,4.681033468229e-16,4.7755894031395e-17,6.7071480424078e-17,-0.0011794802681227,0.0011794802681228,-0.0012013904035548,0.0012013904035547,-0.0012013904035549,0.0012013904035547,-0.0012013904035546,0.0012013904035549,-0.0012013904035546,0.001201390403555,-0.0011645906948374,0.0011645906948378,-0.0011645906948374,0.0011645906948378,-0.0011645906948379,0.0011645906948373,-0.0011645906948371,0.0011645906948381,6.1762819070626e-18,-3.1499037726019e-17,-0.0011794802681228,0.0011794802681227,-1.8381791390067e-18,-2.0499373758203e-17,-0.0012013904035548,0.0012013904035548,-0.0012013904035548,0.0012013904035548,-0.0012013904035548,0.0012013904035548,-0.0012013904035548,0.0012013904035547,-0.0011645906948377,0.0011645906948376,-0.0011645906948376,0.0011645906948376,0.69529555197101,0.88014327974572,1270536,32768,0.0049024482744539,0.0049024482744541,0.0049024482744541,38.103096235434,38.135270687,0.00022002476988347,0.00022002476988347,0.00022002476988347,912406.85430526,0.014816109745756
6912000,0.78286177901711,0.014248026130342,0.0047493420434472,0.0047493420434474,0.0047493420434474,-0.0011966989011573,0.0011966989011573,-5.7762941264147e-17,-1.5595111815333e-17,3.6679761811396e-16,-4.4282470730328e-16,-0.0012187094725771,0.0012187094725772,-0.0012187094725771,0.0012187094725772,-0.0012187094725773,0.001218709472577,-0.0012187094725773,0.001218709472577,-0.0011817855314343,0.0011817855314339,-0.0011817855314343,0.001181785531434,-3.6327566688362e-16,4.5319939036383e-16,3.4778349310007e-17,5.4601273145056e-17,-0.0011966989011573,0.0011966989011574,-0.0012187094725772,0.001218709472577,-0.0012187094725772,0.001218709472577,-0.0012187094725769,0.0012187094725773,-0.0012187094725769,0.0012187094725773,-0.001181785531434,0.0011817855314343,-0.001181785531434,0.0011817855314343,-0.0011817855314345,0.0011817855314338,-0.0011817855314337,0.0011817855314346,2.6638892082486e-17,-1.1249656330721e-17,-0.0011966989011573,0.0011966989011573,1.6749488314629e-17,-3.0734355204193e-18,-0.0012187094725771,0.0012187094725771,-0.0012187094725771,0.0012187094725771,-0.0012187094725771,0.0012187094725771,-0.0012187094725771,0.0012187094725771,-0.0011817855314342,0.0011817855314342,-0.0011817855314341,0.0011817855314342,0.67511468573955,0.66927950108049,1270536,32768,0.0049738389687114,0.0049738389687116,0.0049738389687116,38.571726799629,38.603976261646,0.00022377381439703,0.00022377381439703,0.00022377381439703,835937.66631898,0.015033479421089
6998400,0.7945587877157,0.014440166279223,0.0048133887597408,0.004813388759741,0.004813388759741,-0.0012127807208962,0.0012127807208961,-5.5755649644352e-17,-1.4528967914709e-17,3.6741524630467e-16,-4.438246767549e-16,-0.0012351371967559,0.001235137196756,-0.0012351371967559,0.001235137196756,-0.0012351371967562,0.0012351371967558,-0.0012351371967561,0.0012351371967558,-0.0011975718972849,0.0011975718972845,-0.0011975718972849,0.0011975718972846,-3.6201835235254e-16,4.5628017860081e-16,3.7072396875488e-17,5.4189521017918e-17,-0.0012127807208962,0.0012127807208962,-0.0012351371967561,0.0012351371967559,-0.0012351371967561,0.0012351371967559,-0.0012351371967558,0.0012351371967561,-0.0012351371967558,0.0012351371967562,-0.0011975718972846,0.0011975718972849,-0.0011975718972846,0.0011975718972849,-0.0011975718972851,0.0011975718972844,-0.0011975718972843,0.0011975718972852,3.834441683968e-18,-3.3087224502121e-17,-0.0012127807208962,0.0012127807208962,-4.382219067392e-18,-2.1999327935633e-17,-0.001235137196756,0.001235137196756,-0.001235137196756,0.001235137196756,-0.001235137196756,0.001235137196756,-0.001235137196756,0.001235137196756,-0.0011975718972848,0.0011975718972848,-0.0011975718972848,0.0011975718972848,0.66252468836265,0.61390026052372,1270536,32768,0.005040511428822,0.0050405114288222,0.0050405114288222,39.040383075758,39.072681836293,0.00022752306460607,0.00022752306460607,0.00022752306460607,826269.66909474,0.015236525502271
7084800,0.80600734018918,0.014625805987772,0.0048752686625905,0.0048752686625906,0.0048752686625906,-0.0012284778151547,0.0012284778151546,-4.7663985074444e-17,-6.8894954129972e-18,3.7631938605401e-16,-4.3728075902003e-16,-0.001251180348548,0.0012511803485482,-0.001251180348548,0.0012511803485482,-0.0012511803485483,0.0012511803485479,-0.0012511803485483,0.001251180348548,-0.0012129983743746,0.0012129983743742,-0.0012129983743746,0.0012129983743743,-3.6192276703731e-16,4.5866981148152e-16,3.7520912585405e-17,5.3792474323893e-17,-0.0012284778151547,0.0012284778151548,-0.0012511803485482,0.001251180348548,-0.0012511803485482,0.001251180348548,-0.001251180348548,0.0012511803485483,-0.001251180348548,0.0012511803485483,-0.0012129983743743,0.0012129983743746,-0.0012129983743743,0.0012129983743747,-0.0012129983743749,0.0012129983743742,-0.0012129983743741,0.001212998374375,1.7918570247038e-17,-1.8705310918532e-17,-0.0012284778151547,0.0012284778151547,7.3380111229149e-18,-9.1908956950336e-18,-0.0012511803485481,0.0012511803485481,-0.0012511803485482,0.0012511803485482,-0.0012511803485481,0.0012511803485481,-0.0012511803485482,0.0012511803485481,-0.0012129983743746,0.0012129983743745,-0.0012129983743745,0.0012129983743746,0.6539693663662,0.59419810702723,1270536,32768,0.0051055845283308,0.005105584528331,0.005105584528331,39.509041989354,39.541387410939,0.00023127233591483,0.00023127233591483,0.00023127233591483,809940.85539477,0.015434740774848
7171200,0.8171848533529,0.014802692964776,0.0049342309882585,0.0049342309882587,0.0049342309882587,-0.0012435341246707,0.0012435341246706,-5.2774123080883e-17,-1.2323152947901e-17,3.6917989827811e-16,-4.4135416399207e-16,-0.0012666453729567,0.0012666453729569,-0.0012666453729567,0.0012666453729569,-0.001266645372957,0.0012666453729567,-0.001266645372957,0.0012666453729567,-0.0012277217175079,0.0012277217175075,-0.0012277217175079,0.0012277217175076,-3.6177571270619e-16,4.5549343792931e-16,3.8013544594659e-17,5.5483599131779e-17,-0.0012435341246707,0.0012435341246708,-0.0012666453729569,0.0012666453729567,-0.0012666453729569,0.0012666453729567,-0.0012666453729566,0.0012666453729569,-0.0012666453729566,0.001266645372957,-0.0012277217175076,0.0012277217175079,-0.0012277217175076,0.001227721717508,-0.0012277217175082,0.0012277217175075,-0.0012277217175074,0.0012277217175083,2.452130971435e-18,-3.3998961355068e-17,-0.0012435341246707,0.0012435341246707,-5.6174754488046e-18,-2.3396344081278e-17,-0.0012666453729568,0.0012666453729568,-0.0012666453729568,0.0012666453729568,-0.0012666453729568,0.0012666453729568,-0.0012666453729568,0.0012666453729568,-0.0012277217175079,0.0012277217175078,-0.0012277217175079,0.0012277217175079,0.63821023237163,0.53332239675741,1270536,32768,0.0051679970164214,0.0051679970164216,0.0051679970164216,39.977701159414,40.010092985586,0.00023502160927531,0.00023502160927531,0.00023502160927531,797312.7107154,0.015624889327371
7257600,0.82807014379724,0.014969613052974,0.004989871017658,0.0049898710176582,0.0049898710176582,-0.0012577080938123,0.0012577080938122,-4.8961739546583e-17,-8.7570854182281e-18,3.7590028121032e-16,-4.3603079720551e-16,-0.0012813527002006,0.0012813527002008,-0.0012813527002006,0.0012813527002008,-0.0012813527002009,0.0012813527002006,-0.0012813527002009,0.0012813527002006,-0.0012414468176198,0.0012414468176194,-0.0012414468176198,0.0012414468176195,-3.612389643976e-16,4.5753014041533e-16,4.0226712278023e-17,5.5454188265555e-17,-0.0012577080938122,0.0012577080938123,-0.0012813527002008,0.0012813527002006,-0.0012813527002008,0.0012813527002006,-0.0012813527002005,0.0012813527002008,-0.0012813527002005,0.0012813527002009,-0.0012414468176195,0.0012414468176199,-0.0012414468176195,0.0012414468176199,-0.00124144681762,0.0012414468176193,-0.0012414468176192,0.0012414468176201,1.8407525898013e-17,-1.7455349104008e-17,-0.0012577080938123,0.0012577080938123,9.837934751964e-18,-5.5439482832443e-18,-0.0012813527002007,0.0012813527002007,-0.0012813527002007,0.0012813527002007,-0.0012813527002007,0.0012813527002007,-0.0012813527002007,0.0012813527002007,-0.0012414468176197,0.0012414468176197,-0.0012414468176197,0.0012414468176197,0.61842693396385,0.46898638272369,1270536,32768,0.0052267481099419,0.005226748109942,0.005226748109942,40.446360339556,40.478798560232,0.00023877088271644,0.00023877088271644,0.00023877088271644,801054.64809688,0.015803916801776
7344000,0.83854484943527,0.015125417526967,0.0050418058423222,0.0050418058423224,0.0050418058423224,-0.0012706044449612,0.0012706044449611,-6.2303243737494e-17,-2.2359611046878e-17,3.5984194825196e-16,-4.4819219038918e-16,-0.0012948747872482,0.0012948747872483,-0.0012948747872482,0.0012948747872483,-0.0012948747872484,0.0012948747872481,-0.0012948747872484,0.0012948747872481,-0.0012538308175174,0.001253830817517,-0.0012538308175174,0.0012538308175171,-3.5726114474079e-16,4.5750808226566e-16,4.4226590084502e-17,5.9130546543568e-17,-0.0012706044449611,0.0012706044449612,-0.0012948747872484,0.0012948747872482,-0.0012948747872483,0.0012948747872482,-0.0012948747872481,0.0012948747872484,-0.0012948747872481,0.0012948747872484,-0.0012538308175171,0.0012538308175174,-0.0012538308175171,0.0012538308175175,-0.0012538308175177,0.001253830817517,-0.0012538308175169,0.0012538308175178,4.0072305230347e-18,-3.1866673553821e-17,-0.0012706044449612,0.0012706044449612,-6.3380416712952e-18,-2.119052911447e-17,-0.0012948747872482,0.0012948747872482,-0.0012948747872483,0.0012948747872482,-0.0012948747872482,0.0012948747872482,-0.0012948747872483,0.0012948747872482,-0.0012538308175174,0.0012538308175173,-0.0012538308175173,0.0012538308175174,0.59995525652199,0.42818194048028,1270536,32768,0.0052802002050326,0.0052802002050328,0.0052802002050328,40.737777711934,40.75839951913,0.00024110222169547,0.00024110222169547,0.00024110222169547,814680.21026982,0.015966825843298
7430400,0.8484758426236,0.015269100514706,0.0050897001715687,0.0050897001715689,0.0050897001715689,-0.0012820798621803,0.0012820798621802,-6.1314303360708e-17,-2.1403757894594e-17,3.6004047159897e-16,-4.473686861349e-16,-0.0013070082702726,0.0013070082702728,-0.0013070082702726,0.0013070082702728,-0.0013070082702729,0.0013070082702725,-0.0013070082702729,0.0013070082702725,-0.0012647896508952,0.0012647896508947,-0.0012647896508951,0.0012647896508948,-3.5819493974341e-16,4.5604489167101e-16,4.0513468223708e-17,5.5454188265555e-17,-0.0012820798621803,0.0012820798621803,-0.0013070082702728,0.0013070082702726,-0.0013070082702728,0.0013070082702726,-0.0013070082702725,0.0013070082702729,-0.0013070082702726,0.0013070082702729,-0.0012647896508949,0.0012647896508952,-0.0012647896508949,0.0012647896508952,-0.0012647896508954,0.0012647896508947,-0.0012647896508946,0.0012647896508955,7.4960945288694e-18,-2.8337369606928e-17,-0.0012820798621803,0.0012820798621803,-2.1616986674719e-18,-1.754358170268e-17,-0.0013070082702727,0.0013070082702727,-0.0013070082702727,0.0013070082702727,-0.0013070082702727,0.0013070082702727,-0.0013070082702727,0.0013070082702727,-0.0012647896508951,0.0012647896508951,-0.0012647896508951,0.0012647896508951,0.58368533830387,0.40318419993588,1270536,32768,0.0053277602596858,0.005327760259686,0.005327760259686,40.784539751005,40.788401559428,0.00024147631800804,0.00024147631800804,0.00024147631800804,829248.25866005,0.016111800580495
7516800,0.85787382737469,0.015401467188626,0.0051338223962086,0.0051338223962088,0.0051338223962088,-0.0012926489935153,0.0012926489935152,-6.0329039342201e-17,-2.0499373758203e-17,3.6032722754466e-16,-4.467510579442e-16,-0.0013182373043085,0.0013182373043087,-0.0013182373043085,0.0013182373043087,-0.0013182373043088,0.0013182373043085,-0.0013182373043088,0.0013182373043085,-0.0012748560617832,0.0012748560617828,-0.0012748560617832,0.0012748560617829,-3.5876845163478e-16,4.5507433308562e-16,3.9542909638313e-17,5.4733622043064e-17,-0.0012926489935152,0.0012926489935153,-0.0013182373043087,0.0013182373043086,-0.0013182373043088,0.0013182373043086,-0.0013182373043085,0.0013182373043088,-0.0013182373043085,0.0013182373043088,-0.0012748560617829,0.0012748560617833,-0.0012748560617829,0.0012748560617833,-0.0012748560617834,0.0012748560617828,-0.0012748560617827,0.0012748560617836,6.8894954129972e-18,-2.899911409697e-17,-0.0012926489935153,0.0012926489935153,-2.8528540237384e-18,-1.7955333829818e-17,-0.0013182373043087,0.0013182373043087,-0.0013182373043087,0.0013182373043087,-0.0013182373043087,0.0013182373043086,-0.0013182373043087,0.0013182373043086,-0.0012748560617832,0.0012748560617831,-0.0012748560617831,0.0012748560617831,0.56836289329143,0.38129582520854,1270536,32768,0.0053715620446168,0.005371562044617,0.005371562044617,40.816142556517,40.818403599726,0.00024172914045214,0.00024172914045214,0.00024172914045214,841972.87866636,0.016245338336848
7603200,0.86675818239279,0.015523567600021,0.0051745225333403,0.0051745225333405,0.0051745225333405,-0.0013023998114196,0.0013023998114196,-6.1953989701083e-17,-2.2021386085301e-17,3.5881256793411e-16,-4.4772161652959e-16,-0.0013286447952118,0.001328644795212,-0.0013286447952118,0.001328644795212,-0.0013286447952121,0.0013286447952117,-0.0013286447952121,0.0013286447952117,-0.0012841190489769,0.0012841190489765,-0.0012841190489769,0.0012841190489765,-3.5773907131693e-16,4.555449069452e-16,4.0484057357484e-17,5.5336544800659e-17,-0.0013023998114196,0.0013023998114197,-0.001328644795212,0.0013286447952119,-0.001328644795212,0.0013286447952118,-0.0013286447952118,0.0013286447952121,-0.0013286447952118,0.0013286447952121,-0.0012841190489766,0.0012841190489769,-0.0012841190489766,0.001284119048977,-0.0012841190489771,0.0012841190489764,-0.0012841190489763,0.0012841190489772,7.8049086242226e-18,-2.8057966377799e-17,-0.0013023998114197,0.0013023998114196,-1.8234737058947e-18,-1.704359697687e-17,-0.0013286447952119,0.0013286447952119,-0.0013286447952119,0.0013286447952119,-0.0013286447952119,0.0013286447952119,-0.001328644795212,0.0013286447952119,-0.0012841190489768,0.0012841190489768,-0.0012841190489768,0.0012841190489768,0.55472228490059,0.36716775327241,1270536,32768,0.0054119706495129,0.0054119706495131,0.0054119706495131,40.846307502584,40.848405640024,0.00024197046002067,0.00024197046002067,0.00024197046002067,853798.40791341,0.016368547628688
7689600,0.87514925919135,0.015636632079229,0.0052122106930762,0.0052122106930764,0.0052122106930764,-0.0013114486186635,0.0013114486186634,-6.1832669877908e-17,-2.2006680652189e-17,3.5853316470498e-16,-4.4738339156801e-16,-0.001338322386582,0.0013383223865822,-0.001338322386582,0.0013383223865822,-0.0013383223865823,0.0013383223865819,-0.0013383223865823,0.0013383223865819,-0.0012927152886878,0.0012927152886874,-0.0012927152886878,0.0012927152886875,-3.5834199407453e-16,4.5405965820089e-16,3.9476735189309e-17,5.4439513380823e-17,-0.0013114486186634,0.0013114486186635,-0.0013383223865822,0.001338322386582,-0.0013383223865822,0.001338322386582,-0.0013383223865819,0.0013383223865823,-0.0013383223865819,0.0013383223865823,-0.0012927152886876,0.0012927152886879,-0.0012927152886876,0.0012927152886879,-0.0012927152886881,0.0012927152886874,-0.0012927152886873,0.0012927152886882,6.7497937984327e-18,-2.885205976585e-17,-0.0013114486186635,0.0013114486186634,-2.6322725270576e-18,-1.7822984931809e-17,-0.0013383223865821,0.0013383223865821,-0.0013383223865821,0.0013383223865821,-0.0013383223865821,0.0013383223865821,-0.0013383223865821,0.0013383223865821,-0.0012927152886878,0.0012927152886877,-0.0012927152886878,0.0012927152886878,0.54397473329525,0.3653920339003,1270536,32768,0.0054494684967207,0.0054494684967209,0.0054494684967209,40.876326232517,40.878407680322,0.00024221060986013,0.00024221060986013,0.00024221060986013,862322.75015534,0.016482895584847
7776000,0.88306757165665,0.015741464369921,0.0052471547899737,0.0052471547899739,0.0052471547899739,-0.0013198806447277,0.0013198806447276,-6.1295921569318e-17,-2.1631692107831e-17,3.5879050978445e-16,-4.4704516660644e-16,-0.001347340571144,0.0013473405711442,-0.001347340571144,0.0013473405711442,-0.0013473405711443,0.001347340571144,-0.0013473405711443,0.001347340571144,-0.0013007367847701,0.0013007367847697,-0.0013007367847701,0.0013007367847697,-3.5845963753942e-16,4.5390525115321e-16,3.9469382472752e-17,5.4718916609952e-17,-0.0013198806447276,0.0013198806447277,-0.0013473405711442,0.0013473405711441,-0.0013473405711443,0.0013473405711441,-0.001347340571144,0.0013473405711443,-0.001347340571144,0.0013473405711443,-0.0013007367847698,0.0013007367847701,-0.0013007367847698,0.0013007367847701,-0.0013007367847703,0.0013007367847696,-0.0013007367847695,0.0013007367847704,6.9997861613376e-18,-2.8734416300953e-17,-0.0013198806447277,0.0013198806447276,-2.4116910303768e-18,-1.789651209737e-17,-0.0013473405711442,0.0013473405711442,-0.0013473405711442,0.0013473405711442,-0.0013473405711442,0.0013473405711441,-0.0013473405711442,0.0013473405711441,-0.00130073678477,0.00130073678477,-0.00130073678477,0.00130073678477,0.53455563850073,0.3636163145282,1270536,32768,0.0054844091088532,0.0054844091088533,0.0054844091088533,40.906329837199,40.908409720621,0.00024245063869759,0.00024245063869759,0.00024245063869759,865886.38241417,0.016589457309273
7862400,0.89053359622833,0.015838732161186,0.0052795773870619,0.005279577387062,0.0052795773870621,-0.0013277177105194,0.0013277177105193,-6.1795906295128e-17,-2.1866979037624e-17,3.5848169568909e-16,-4.4683929054287e-16,-0.0013557282496628,0.001355728249663,-0.0013557282496628,0.001355728249663,-0.0013557282496631,0.0013557282496627,-0.0013557282496631,0.0013557282496627,-0.0013081936878489,0.0013081936878485,-0.0013081936878489,0.0013081936878485,-3.5810670714474e-16,4.5403760005122e-16,3.923409554296e-17,5.4880676374185e-17,-0.0013277177105194,0.0013277177105195,-0.001355728249663,0.0013557282496628,-0.001355728249663,0.0013557282496628,-0.0013557282496627,0.0013557282496631,-0.0013557282496627,0.0013557282496631,-0.0013081936878486,0.0013081936878489,-0.0013081936878486,0.0013081936878489,-0.0013081936878491,0.0013081936878484,-0.0013081936878483,0.0013081936878492,7.0769896851759e-18,-2.8940292364522e-17,-0.0013277177105194,0.0013277177105194,-2.2940475654804e-18,-1.8072977294714e-17,-0.0013557282496629,0.0013557282496629,-0.0013557282496629,0.0013557282496629,-0.0013557282496629,0.0013557282496629,-0.0013557282496629,0.0013557282496629,-0.0013081936878488,0.0013081936878488,-0.0013081936878488,0.0013081936878488,0.52606272259481,0.36184059515609,1270536,32768,0.0055168831801877,0.0055168831801879,0.0055168831801879,40.936331869869,40.938411760919,0.00024269065495895,0.00024269065495895,0.00024269065495895,866864.62249807,0.016688506875372
7948800,0.89756764335069,0.015929012947078,0.0053096709823593,0.0053096709823594,0.0053096709823594,-0.0013350015233958,0.0013350015233958,-6.1953989701083e-17,-2.2146382266753e-17,3.5787142021494e-16,-4.4695693400776e-16,-0.0013635272895098,0.00136352728951,-0.0013635272895098,0.00136352728951,-0.0013635272895101,0.0013635272895097,-0.00136352728951,0.0013635272895097,-0.0013151256681823,0.0013151256681818,-0.0013151256681822,0.0013151256681819,-3.5763613328515e-16,4.5380231312143e-16,3.9903192749558e-17,5.4395397081487e-17,-0.0013350015233958,0.0013350015233959,-0.00136352728951,0.0013635272895098,-0.00136352728951,0.0013635272895098,-0.0013635272895097,0.0013635272895101,-0.0013635272895097,0.0013635272895101,-0.001315125668182,0.0013151256681823,-0.001315125668182,0.0013151256681823,-0.0013151256681825,0.0013151256681818,-0.0013151256681817,0.0013151256681826,7.0402261023958e-18,-2.8940292364522e-17,-0.0013350015233958,0.0013350015233958,-2.8234431575143e-18,-1.7484759970232e-17,-0.0013635272895099,0.0013635272895099,-0.0013635272895099,0.0013635272895099,-0.0013635272895099,0.0013635272895099,-0.0013635272895099,0.0013635272895099,-0.0013151256681822,0.0013151256681822,-0.0013151256681822,0.0013151256681822,0.51827076599334,0.36006487578398,1270536,32768,0.0055470637789214,0.0055470637789216,0.0055470637789216,40.966333738924,40.968413801217,0.00024293066991139,0.00024293066991139,0.00024293066991139,865750.30237915,0.016780569954382
8035200,0.90418976024487,0.016012821318611,0.0053376071062035,0.0053376071062036,0.0053376071062036,-0.00134177117563,0.00134177117563,-6.1490768558053e-17,-2.1594928525051e-17,3.5749643167058e-16,-4.4579520479191e-16,-0.001370777259548,0.0013707772595482,-0.001370777259548,0.0013707772595482,-0.0013707772595483,0.001370777259548,-0.0013707772595483,0.001370777259548,-0.0013215701862466,0.0013215701862462,-0.0013215701862466,0.0013215701862462,-3.5691556706266e-16,4.5294204528437e-16,4.0175243262131e-17,5.4571862278832e-17,-0.00134177117563,0.0013417711756301,-0.0013707772595483,0.0013707772595481,-0.0013707772595483,0.0013707772595481,-0.001370777259548,0.0013707772595483,-0.001370777259548,0.0013707772595483,-0.0013215701862463,0.0013215701862466,-0.0013215701862463,0.0013215701862467,-0.0013215701862468,0.0013215701862462,-0.001321570186246,0.0013215701862469,6.7056774990966e-18,-2.9190284727427e-17,-0.00134177117563,0.00134177117563,-3.1763735522036e-18,-1.7940628396706e-17,-0.0013707772595482,0.0013707772595482,-0.0013707772595482,0.0013707772595482,-0.0013707772595482,0.0013707772595481,-0.0013707772595482,0.0013707772595481,-0.0013215701862466,0.0013215701862465,-0.0013215701862465,0.0013215701862465,0.51103570360572,0.35828915641187,1270536,32768,0.0055751130968981,0.0055751130968983,0.0055751130968983,40.996335590938,40.998415841515,0.0002431706847275,0.0002431706847275,0.0002431706847275,862896.95944705,0.016866139399653
8121600,0.91043041173614,0.016090756350279,0.0053635854500927,0.0053635854500929,0.0053635854500929,-0.0013481377946115,0.0013481377946114,-6.0398890149483e-17,-2.0102327064178e-17,3.5839346309042e-16,-4.4479523534029e-16,-0.0013775900048077,0.0013775900048079,-0.0013775900048077,0.0013775900048079,-0.001377590004808,0.0013775900048076,-0.001377590004808,0.0013775900048076,-0.0013276369512025,0.0013276369512021,-0.0013276369512025,0.0013276369512022,-3.5795965281361e-16,4.5176561063541e-16,3.8837048848934e-17,5.3439543929204e-17,-0.0013481377946114,0.0013481377946115,-0.0013775900048079,0.0013775900048078,-0.001377590004808,0.0013775900048078,-0.0013775900048077,0.001377590004808,-0.0013775900048077,0.001377590004808,-0.0013276369512022,0.0013276369512025,-0.0013276369512022,0.0013276369512025,-0.0013276369512027,0.0013276369512021,-0.001327636951202,0.0013276369512029,1.0018076307587e-17,-2.6058027474559e-17,-0.0013481377946115,0.0013481377946115,4.8527929269778e-19,-1.432309185114e-17,-0.0013775900048078,0.0013775900048079,-0.0013775900048079,0.0013775900048079,-0.0013775900048079,0.0013775900048078,-0.0013775900048079,0.0013775900048078,-0.0013276369512025,0.0013276369512024,-0.0013276369512024,0.0013276369512024,0.50425769113015,0.35651343703977,1270536,32768,0.0056014917619647,0.0056014917619649,0.0056014917619649,41.059585236626,41.063890215266,0.00024367668189301,0.00024367668189301,0.00024367668189301,858521.83642454,0.016946618848873
8208000,0.91631976675408,0.016163374904631,0.0053877916348768,0.005387791634877,0.005387791634877,-0.0013541624552851,0.001354162455285,-5.7156342148275e-17,-1.6955364378198e-17,3.6069486337246e-16,-4.4141298572452e-16,-0.0013840291785162,0.0013840291785164,-0.0013840291785162,0.0013840291785164,-0.0013840291785165,0.0013840291785162,-0.0013840291785165,0.0013840291785162,-0.0013333845493061,0.0013333845493057,-0.0013333845493061,0.0013333845493058,-3.5666557469975e-16,4.5179502150163e-16,3.9557615071425e-17,5.4380691648375e-17,-0.001354162455285,0.0013541624552851,-0.0013840291785165,0.0013840291785163,-0.0013840291785165,0.0013840291785163,-0.0013840291785162,0.0013840291785165,-0.0013840291785162,0.0013840291785166,-0.0013333845493058,0.0013333845493062,-0.0013333845493059,0.0013333845493062,-0.0013333845493064,0.0013333845493057,-0.0013333845493056,0.0013333845493065,1.5881867761018e-18,-3.4528356947102e-17,-0.0013541624552851,0.0013541624552851,-8.6909109692238e-18,-2.3719863609743e-17,-0.0013840291785164,0.0013840291785164,-0.0013840291785164,0.0013840291785164,-0.0013840291785164,0.0013840291785164,-0.0013840291785164,0.0013840291785164,-0.0013333845493061,0.001333384549306,-0.0013333845493061,0.0013333845493061,0.4978637603611,0.35473771766766,1270536,32768,0.0056264529553212,0.0056264529553214,0.0056264529553214,41.165043575522,41.172251607191,0.00024452034860417,0.00024452034860417,0.00024452034860417,852913.71966009,0.017022779574789
8294400,0.92187324873896,0.016231176393348,0.0054103921311161,0.0054103921311162,0.0054103921311162,-0.0013598084734151,0.001359808473415,-6.0255512176641e-17,-2.0094974347622e-17,3.5804788541229e-16,-4.4372173872311e-16,-0.001390057211858,0.0013900572118581,-0.0013900572118579,0.0013900572118581,-0.0013900572118582,0.0013900572118579,-0.0013900572118582,0.0013900572118579,-0.001338778228608,0.0013387782286076,-0.001338778228608,0.0013387782286077,-3.5454799233162e-16,4.5390525115321e-16,4.1910484369353e-17,5.6468863150287e-17,-0.0013598084734151,0.0013598084734152,-0.0013900572118582,0.001390057211858,-0.0013900572118582,0.001390057211858,-0.0013900572118579,0.0013900572118582,-0.0013900572118579,0.0013900572118583,-0.0013387782286078,0.0013387782286081,-0.0013387782286078,0.0013387782286081,-0.0013387782286083,0.0013387782286076,-0.0013387782286075,0.0013387782286084,-7.3380111229149e-18,-4.3631020043464e-17,-0.0013598084734151,0.0013598084734151,-1.6984775244422e-17,-3.1307867095563e-17,-0.0013900572118581,0.0013900572118581,-0.0013900572118581,0.0013900572118581,-0.0013900572118581,0.001390057211858,-0.0013900572118581,0.001390057211858,-0.0013387782286081,0.0013387782286079,-0.001338778228608,0.001338778228608,0.4929071531126,0.35907401629265,1270536,32768,0.0056498448022444,0.0056498448022446,0.0056498448022446,41.273125031013,41.280612999116,0.0002453850002481,0.0002453850002481,0.0002453850002481,846136.4567146,0.017094157149582
8380800,0.9271053502386,0.016294552803266,0.0054315176010885,0.0054315176010887,0.0054315176010887,-0.0013651245271799,0.0013651245271798,-6.109004550575e-17,-2.1131707382021e-17,3.5662145840042e-16,-4.4441289407938e-16,-0.0013957142853281,0.0013957142853282,-0.0013957142853281,0.0013957142853282,-0.0013957142853283,0.001395714285328,-0.0013957142853283,0.001395714285328,-0.0013438734690935,0.0013438734690931,-0.0013438734690935,0.0013438734690931,-3.5076869602182e-16,4.5702280297297e-16,4.47118693772e-17,5.9321717174025e-17,-0.0013651245271798,0.0013651245271799,-0.0013957142853283,0.0013957142853281,-0.0013957142853283,0.0013957142853281,-0.001395714285328,0.0013957142853284,-0.001395714285328,0.0013957142853284,-0.0013438734690932,0.0013438734690935,-0.0013438734690932,0.0013438734690936,-0.0013438734690937,0.0013438734690931,-0.0013438734690929,0.0013438734690939,1.0440857509558e-18,-3.5101868838473e-17,-0.0013651245271799,0.0013651245271799,-9.0879576632493e-18,-2.4293375501113e-17,-0.0013957142853282,0.0013957142853282,-0.0013957142853282,0.0013957142853282,-0.0013957142853282,0.0013957142853282,-0.0013957142853282,0.0013957142853282,-0.0013438734690935,0.0013438734690934,-0.0013438734690934,0.0013438734690934,0.48898207988463,0.3649459305384,1270536,32768,0.0056718690968859,0.0056718690968861,0.0056718690968861,41.38145563842,41.388974391042,0.00024625164510736,0.00024625164510736,0.00024625164510736,836940.41095469,0.01716136633849
8467200,0.93203033931919,0.016353825503746,0.0054512751679152,0.0054512751679154,0.0054512751679154,-0.0013701237570462,0.0013701237570461,-5.9685676643548e-17,-1.9639105921148e-17,3.5688615619643e-16,-4.4244236604236e-16,-0.001401018951841,0.0014010189518412,-0.001401018951841,0.0014010189518412,-0.0014010189518413,0.0014010189518409,-0.0014010189518413,0.0014010189518409,-0.0013486770747995,0.0013486770747991,-0.0013486770747995,0.0013486770747992,-3.5751848982025e-16,4.4867011696532e-16,3.662388116557e-17,5.126313982862e-17,-0.0013701237570461,0.0013701237570462,-0.0014010189518412,0.0014010189518411,-0.0014010189518413,0.0014010189518411,-0.001401018951841,0.0014010189518413,-0.001401018951841,0.0014010189518413,-0.0013486770747993,0.0013486770747996,-0.0013486770747993,0.0013486770747996,-0.0013486770747998,0.0013486770747991,-0.001348677074799,0.0013486770747999,9.5879423890591e-18,-2.6631539365929e-17,-0.0013701237570462,0.0013701237570461,-6.0292275759421e-19,-1.5675991697449e-17,-0.0014010189518412,0.0014010189518412,-0.0014010189518412,0.0014010189518412,-0.0014010189518412,0.0014010189518411,-0.0014010189518412,0.0014010189518411,-0.0013486770747995,0.0013486770747994,-0.0013486770747994,0.0013486770747995,0.48576534093533,0.37081784478414,1270536,32768,0.0056925803672398,0.00569258036724,0.00569258036724,41.489811614172,41.497335782967,0.00024711849291338,0.00024711849291338,0.00024711849291338,826243.21353602,0.017224572700695
8553600,0.936662271231,0.016409277963589,0.0054697593211961,0.0054697593211963,0.0054697593211963,-0.0013748218806487,0.0013748218806487,-5.7829115713152e-17,-1.8131799027162e-17,3.5850375383876e-16,-4.3982479894842e-16,-0.0014059912403813,0.0014059912403815,-0.0014059912403813,0.0014059912403815,-0.0014059912403816,0.0014059912403812,-0.0014059912403816,0.0014059912403812,-0.0013532007991627,0.0013532007991623,-0.0013532007991627,0.0013532007991624,-3.5225394476614e-16,4.530376305996e-16,4.1270798028979e-17,5.6836498978088e-17,-0.0013748218806487,0.0013748218806488,-0.0014059912403815,0.0014059912403814,-0.0014059912403815,0.0014059912403814,-0.0014059912403813,0.0014059912403816,-0.0014059912403813,0.0014059912403816,-0.0013532007991624,0.0013532007991627,-0.0013532007991624,0.0013532007991628,-0.0013532007991629,0.0013532007991623,-0.0013532007991622,0.0013532007991631,3.5734202462291e-18,-3.2307836547182e-17,-0.0013748218806488,0.0013748218806487,-5.7645297799251e-18,-2.1425816044262e-17,-0.0014059912403814,0.0014059912403814,-0.0014059912403815,0.0014059912403814,-0.0014059912403814,0.0014059912403814,-0.0014059912403815,0.0014059912403814,-0.0013532007991627,0.0013532007991626,-0.0013532007991626,0.0013532007991626,0.48312848828669,0.37668975902989,1270536,32768,0.005712043810469,0.0057120438104692,0.0057120438104692,41.598170217623,41.605697174892,0.00024798536174098,0.00024798536174098,0.00024798536174098,814639.97541452,0.01728397445854
8640000,0.94101494766332,0.016461165651702,0.005487055217234,0.0054870552172342,0.0054870552172342,-0.0013792375092003,0.0013792375092003,-6.0373155641537e-17,-2.0639075372768e-17,3.5571707426403e-16,-4.4270706383838e-16,-0.0014106524638575,0.0014106524638576,-0.0014106524638575,0.0014106524638576,-0.0014106524638577,0.0014106524638574,-0.0014106524638577,0.0014106524638574,-0.0013574611780967,0.0013574611780963,-0.0013574611780967,0.0013574611780964,-3.55253853121e-16,4.5008919126063e-16,3.8572351052917e-17,5.3601303693436e-17,-0.0013792375092003,0.0013792375092004,-0.0014106524638577,0.0014106524638575,-0.0014106524638577,0.0014106524638575,-0.0014106524638574,0.0014106524638578,-0.0014106524638574,0.0014106524638578,-0.0013574611780965,0.0013574611780968,-0.0013574611780965,0.0013574611780968,-0.001357461178097,0.0013574611780963,-0.0013574611780962,0.0013574611780971,3.9116452078063e-18,-3.1940200719381e-17,-0.0013792375092003,0.0013792375092003,-5.3380722196755e-18,-2.0719955254884e-17,-0.0014106524638576,0.0014106524638576,-0.0014106524638576,0.0014106524638576,-0.0014106524638576,0.0014106524638576,-0.0014106524638576,0.0014106524638576,-0.0013574611780967,0.0013574611780966,-0.0013574611780966,0.0013574611780967,0.48098780890795,0.38256167327564,1270536,32768,0.005730336601282,0.0057303366012822,0.0057303366012822,41.706529094408,41.714058566817,0.00024885223275527,0.00024885223275527,0.00024885223275527,802409.44686391,0.017339806493324
8726400,0.94510187663352,0.016509721689743,0.0055032405632475,0.0055032405632476,0.0055032405632476,-0.0013833882496996,0.0013833882496995,-5.6608564764851e-17,-1.682301548019e-17,3.5890815324934e-16,-4.394424576875e-16,-0.0014150226627629,0.0014150226627631,-0.0014150226627629,0.0014150226627631,-0.0014150226627632,0.0014150226627629,-0.0014150226627632,0.0014150226627629,-0.0013614740256354,0.001361474025635,-0.0013614740256354,0.0013614740256351,-3.5535679115278e-16,4.4936862503814e-16,3.7976781011879e-17,5.3071908101402e-17,-0.0013833882496995,0.0013833882496996,-0.0014150226627632,0.001415022662763,-0.0014150226627632,0.001415022662763,-0.0014150226627629,0.0014150226627632,-0.0014150226627629,0.0014150226627633,-0.0013614740256351,0.0013614740256354,-0.0013614740256351,0.0013614740256354,-0.0013614740256356,0.001361474025635,-0.0013614740256349,0.0013614740256357,7.1688986421262e-18,-2.8793238033401e-17,-0.0013833882496996,0.0013833882496996,-2.8087377244023e-18,-1.8234737058947e-17,-0.0014150226627631,0.0014150226627631,-0.0014150226627631,0.0014150226627631,-0.0014150226627631,0.0014150226627631,-0.0014150226627631,0.0014150226627631,-0.0013614740256353,0.0013614740256353,-0.0013614740256353,0.0013614740256353,0.47928251025542,0.38843358752138,1270536,32768,0.005747531743348,0.0057475317433482,0.0057475317433482,41.814887999489,41.822419958742,0.00024971910399591,0.00024971910399591,0.00024971910399591,789763.91346862,0.017392291051327
8812800,0.94893623781841,0.016553589817087,0.0055178632723622,0.0055178632723623,0.0055178632723623,-0.0013871616712225,0.0013871616712224,-5.2399134536526e-17,-1.263931975981e-17,3.6288597290615e-16,-4.335749898758e-16,-0.0014190305371574,0.0014190305371576,-0.0014190305371574,0.0014190305371576,-0.0014190305371577,0.0014190305371573,-0.0014190305371577,0.0014190305371573,-0.0013650806966602,0.0013650806966598,-0.0013650806966602,0.0013650806966599,-3.5340096854888e-16,4.5005242767785e-16,4.0175243262131e-17,5.5189490469538e-17,-0.0013871616712224,0.0013871616712225,-0.0014190305371576,0.0014190305371575,-0.0014190305371576,0.0014190305371575,-0.0014190305371574,0.0014190305371577,-0.0014190305371574,0.0014190305371577,-0.0013650806966599,0.0013650806966603,-0.00136508069666,0.0013650806966603,-0.0013650806966604,0.0013650806966598,-0.0013650806966597,0.0013650806966606,7.5732980527077e-18,-2.8293253307592e-17,-0.0013871616712225,0.0013871616712224,-1.1764346489643e-18,-1.6558317684173e-17,-0.0014190305371575,0.0014190305371575,-0.0014190305371575,0.0014190305371575,-0.0014190305371575,0.0014190305371575,-0.0014190305371576,0.0014190305371575,-0.0013650806966602,0.0013650806966601,-0.0013650806966601,0.0013650806966602,0.46148460297074,0.303444394553,1270536,32768,0.0057631633831805,0.0057631633831806,0.0057631633831806,41.923246907318,41.930781350667,0.00025058597525854,0.00025058597525854,0.00025058597525854,779168.85467112,0.017440006367872
8899200,0.95251150052395,0.016593319955717,0.0055311066519056,0.0055311066519058,0.0055311066519058,-0.0013900558839243,0.0013900558839242,-6.0946667532907e-17,-2.137434702837e-17,3.5468769394618e-16,-4.4141298572452e-16,-0.0014222728909088,0.001422272890909,-0.0014222728909088,0.001422272890909,-0.0014222728909091,0.0014222728909087,-0.0014222728909091,0.0014222728909087,-0.0013677052072071,0.0013677052072067,-0.0013677052072071,0.0013677052072068,-3.5512150422299e-16,4.4770691109648e-16,3.777090494831e-17,5.2880737470946e-17,-0.0013900558839242,0.0013900558839243,-0.001422272890909,0.0014222728909088,-0.001422272890909,0.0014222728909088,-0.0014222728909088,0.0014222728909091,-0.0014222728909088,0.0014222728909091,-0.0013677052072069,0.0013677052072072,-0.0013677052072069,0.0013677052072072,-0.0013677052072074,0.0013677052072067,-0.0013677052072066,0.0013677052072075,5.470421117684e-18,-3.0352013943279e-17,-0.0013900558839243,0.0013900558839243,-3.9557615071425e-18,-1.9469993440359e-17,-0.0014222728909089,0.0014222728909089,-0.0014222728909089,0.0014222728909089,-0.0014222728909089,0.0014222728909089,-0.0014222728909089,0.0014222728909089,-0.0013677052072071,0.001367705207207,-0.001367705207207,0.0013677052072071,0.44817360637107,0.27958262364292,1270536,32768,0.0057751525284534,0.0057751525284535,0.0057751525284535,41.925662524305,41.926091268594,0.00025060530019444,0.00025060530019444,0.00025060530019444,787467.20859203,0.017476604799013
8985600,0.95582303659171,0.016629884481524,0.0055432948271747,0.0055432948271748,0.0055432948271748,-0.0013926127275335,0.0013926127275335,-5.7689414098587e-17,-1.804356642849e-17,3.5864345545332e-16,-4.3770721658028e-16,-0.0014250964400222,0.0014250964400223,-0.0014250964400222,0.0014250964400224,-0.0014250964400224,0.0014250964400221,-0.0014250964400224,0.0014250964400221,-0.001370084024739,0.0013700840247386,-0.001370084024739,0.0013700840247387,-3.4423948372007e-16,4.5881686581264e-16,4.8307347773097e-17,6.4027455769882e-17,-0.0013926127275335,0.0013926127275336,-0.0014250964400224,0.0014250964400222,-0.0014250964400224,0.0014250964400222,-0.0014250964400221,0.0014250964400224,-0.0014250964400221,0.0014250964400225,-0.0013700840247387,0.001370084024739,-0.0013700840247387,0.0013700840247391,-0.0013700840247392,0.0013700840247386,-0.0013700840247385,0.0013700840247394,9.4923570738308e-18,-2.6660950232154e-17,-0.0013926127275336,0.0013926127275335,5.8821732448215e-20,-1.6543612251061e-17,-0.0014250964400223,0.0014250964400223,-0.0014250964400223,0.0014250964400223,-0.0014250964400223,0.0014250964400223,-0.0014250964400223,0.0014250964400222,-0.001370084024739,0.0013700840247389,-0.0013700840247389,0.0013700840247389,0.44532477694223,0.31372910299747,1270536,32768,0.0057857440763882,0.0057857440763884,0.0057857440763884,41.80423135515,41.796109633982,0.0002496338508412,0.0002496338508412,0.0002496338508412,787745.36719018,0.017508938119775
9072000,0.95888951487024,0.016663373392804,0.0055544577976012,0.0055544577976014,0.0055544577976014,-0.001395153024318,0.0013951530243179,-6.0829024068011e-17,-2.1080238366129e-17,3.544671124495e-16,-4.4000126414576e-16,-0.0014277954377699,0.0014277954377701,-0.0014277954377699,0.0014277954377701,-0.0014277954377702,0.0014277954377698,-0.0014277954377701,0.0014277954377698,-0.0013725383173036,0.0013725383173032,-0.0013725383173036,0.0013725383173033,-3.5860669187054e-16,4.4222178454568e-16,3.3116635368345e-17,4.9307317224717e-17,-0.001395153024318,0.0013951530243181,-0.0014277954377701,0.0014277954377699,-0.0014277954377701,0.0014277954377699,-0.0014277954377698,0.0014277954377701,-0.0014277954377698,0.0014277954377702,-0.0013725383173033,0.0013725383173036,-0.0013725383173033,0.0013725383173037,-0.0013725383173038,0.0013725383173032,-0.0013725383173031,0.0013725383173039,-4.2131065866034e-18,-4.0292886727028e-17,-0.001395153024318,0.001395153024318,-1.3117246335952e-17,-2.9910850949918e-17,-0.00142779543777,0.00142779543777,-0.00142779543777,0.00142779543777,-0.00142779543777,0.00142779543777,-0.00142779543777,0.00142779543777,-0.0013725383173036,0.0013725383173035,-0.0013725383173035,0.0013725383173035,0.44045967503092,0.31420980998412,1270536,32768,0.0057962670095814,0.0057962670095816,0.0057962670095816,41.675066313043,41.666127999369,0.00024860053050434,0.00024860053050434,0.00024860053050434,775664.5863736,0.017541063169084
9158400,0.96172950841799,0.016694005127349,0.005564668375783,0.0055646683757831,0.0055646683757831,-0.0013973782922462,0.0013973782922461,-6.0446682807097e-17,-2.0330261277414e-17,3.5290833653962e-16,-4.3958951201863e-16,-0.0014301899930827,0.0014301899930829,-0.0014301899930827,0.0014301899930829,-0.001430189993083,0.0014301899930826,-0.0014301899930829,0.0014301899930826,-0.0013746536376811,0.0013746536376807,-0.001374653637681,0.0013746536376807,-3.5106280468406e-16,4.4805248877461e-16,3.9322328141632e-17,5.6395335984726e-17,-0.0013973782922461,0.0013973782922462,-0.0014301899930829,0.0014301899930827,-0.0014301899930829,0.0014301899930827,-0.0014301899930826,0.001430189993083,-0.0014301899930826,0.001430189993083,-0.0013746536376808,0.0013746536376811,-0.0013746536376808,0.0013746536376812,-0.0013746536376813,0.0013746536376806,-0.0013746536376805,0.0013746536376814,4.8160293441976e-18,-3.1749030088924e-17,-0.0013973782922462,0.0013973782922462,-4.4263353667282e-18,-2.1881684470736e-17,-0.0014301899930828,0.0014301899930828,-0.0014301899930829,0.0014301899930828,-0.0014301899930828,0.0014301899930828,-0.0014301899930829,0.0014301899930828,-0.001374653637681,0.001374653637681,-0.001374653637681,0.001374653637681,0.43494476560821,0.30977246867508,1270536,32768,0.0058054848183865,0.0058054848183867,0.0058054848183867,41.545164882879,41.536146364756,0.00024756131906303,0.00024756131906303,0.00024756131906303,767909.5445664,0.017569204730649
9244800,0.96436029951456,0.016722018132057,0.0055740060440191,0.0055740060440192,0.0055740060440192,-0.0013993717706173,0.0013993717706172,-5.7340160062176e-17,-1.6940658945086e-17,3.575773115527e-16,-4.3629549500153e-16,-0.0014323460613918,0.001432346061392,-0.0014323460613918,0.001432346061392,-0.0014323460613921,0.0014323460613918,-0.0014323460613921,0.0014323460613918,-0.0013765386792735,0.0013765386792731,-0.0013765386792735,0.0013765386792732,-3.5429799996871e-16,4.4636871668328e-16,3.5028341672912e-17,5.405717211991e-17,-0.0013993717706173,0.0013993717706174,-0.0014323460613921,0.0014323460613919,-0.0014323460613921,0.0014323460613919,-0.0014323460613918,0.0014323460613921,-0.0014323460613918,0.0014323460613922,-0.0013765386792733,0.0013765386792736,-0.0013765386792733,0.0013765386792736,-0.0013765386792738,0.0013765386792731,-0.001376538679273,0.0013765386792739,4.6836804461891e-18,-3.1881378986933e-17,-0.0013993717706173,0.0013993717706173,-2.4411018966009e-18,-2.1808157305176e-17,-0.001432346061392,0.001432346061392,-0.001432346061392,0.001432346061392,-0.001432346061392,0.001432346061392,-0.001432346061392,0.001432346061392,-0.0013765386792735,0.0013765386792734,-0.0013765386792735,0.0013765386792735,0.4293500918533,0.30533512736604,1270536,32768,0.0058137423880227,0.0058137423880228,0.0058137423880228,41.415188363967,41.406164730143,0.00024652150691173,0.00024652150691173,0.00024652150691173,761499.22308458,0.01759441542735
9331200,0.96679786840854,0.016747637819337,0.0055825459397788,0.005582545939779,0.005582545939779,-0.001401169844553,0.0014011698445529,-5.9457742430312e-17,-1.861707831986e-17,3.5443034886672e-16,-4.3738369705182e-16,-0.0014342948927155,0.0014342948927157,-0.0014342948927155,0.0014342948927157,-0.0014342948927158,0.0014342948927155,-0.0014342948927158,0.0014342948927155,-0.0013782361446979,0.0013782361446975,-0.0013782361446979,0.0013782361446976,-3.5554796178324e-16,4.4325116486353e-16,3.4109252103409e-17,5.2660155974265e-17,-0.0014011698445529,0.001401169844553,-0.0014342948927158,0.0014342948927156,-0.0014342948927158,0.0014342948927156,-0.0014342948927155,0.0014342948927158,-0.0014342948927155,0.0014342948927159,-0.0013782361446976,0.0013782361446979,-0.0013782361446976,0.001378236144698,-0.0013782361446981,0.0013782361446975,-0.0013782361446974,0.0013782361446982,2.8307958740704e-18,-3.3954845055732e-17,-0.001401169844553,0.001401169844553,-5.4998319839081e-18,-2.4263964634889e-17,-0.0014342948927157,0.0014342948927157,-0.0014342948927157,0.0014342948927157,-0.0014342948927157,0.0014342948927157,-0.0014342948927157,0.0014342948927157,-0.0013782361446979,0.0013782361446978,-0.0013782361446978,0.0013782361446978,0.42376095990168,0.30089778605699,1270536,32768,0.0058211904674396,0.0058211904674398,0.0058211904674398,41.285204061222,41.276183095531,0.00024548163248978,0.00024548163248978,0.00024548163248978,755567.36838793,0.017617155300596
9417600,0.96905697458038,0.016771072169967,0.005590357389989,0.0055903573899891,0.0055903573899891,-0.0014027915182048,0.0014027915182047,-6.270029043152e-17,-2.1859626321068e-17,3.5090104491983e-16,-4.4006008587821e-16,-0.001436055622219,0.0014360556222191,-0.0014360556222189,0.0014360556222191,-0.0014360556222192,0.0014360556222189,-0.0014360556222192,0.0014360556222189,-0.001379765118315,0.0013797651183146,-0.001379765118315,0.0013797651183147,-3.526951077595e-16,4.4477317719062e-16,3.5734202462291e-17,5.4321869915927e-17,-0.0014027915182047,0.0014027915182048,-0.0014360556222192,0.001436055622219,-0.0014360556222192,0.001436055622219,-0.0014360556222189,0.0014360556222192,-0.0014360556222189,0.0014360556222193,-0.0013797651183147,0.001379765118315,-0.0013797651183148,0.0013797651183151,-0.0013797651183152,0.0013797651183146,-0.0013797651183145,0.0013797651183154,4.102815838263e-18,-3.2940170171001e-17,-0.0014027915182048,0.0014027915182048,-4.0734049720389e-18,-2.2705188725011e-17,-0.0014360556222191,0.0014360556222191,-0.0014360556222191,0.0014360556222191,-0.0014360556222191,0.0014360556222191,-0.0014360556222191,0.0014360556222191,-0.001379765118315,0.0013797651183149,-0.0013797651183149,0.0013797651183149,0.41820466030945,0.29646044474795,1270536,32768,0.0058279077953233,0.0058279077953234,0.0058279077953234,41.155218948489,41.146201460918,0.00024444175158791,0.00024444175158791,0.00024444175158791,750008.86939374,0.017637664585726
9504000,0.97115124324934,0.016792511589509,0.0055975038631696,0.0055975038631697,0.0055975038631697,-0.0014042528189936,0.0014042528189935,-5.6902673427092e-17,-1.6153918273591e-17,3.5553325635013e-16,-4.3488377342277e-16,-0.0014376449830386,0.0014376449830388,-0.0014376449830386,0.0014376449830388,-0.0014376449830388,0.0014376449830385,-0.0014376449830388,0.0014376449830385,-0.0013811411457495,0.0013811411457491,-0.0013811411457495,0.0013811411457492,-3.5210689043502e-16,4.4497170053764e-16,3.6498884984118e-17,5.5218901335762e-17,-0.0014042528189935,0.0014042528189936,-0.0014376449830388,0.0014376449830386,-0.0014376449830388,0.0014376449830386,-0.0014376449830385,0.0014376449830389,-0.0014376449830385,0.0014376449830389,-0.0013811411457492,0.0013811411457495,-0.0013811411457492,0.0013811411457496,-0.0013811411457497,0.0013811411457491,-0.001381141145749,0.0013811411457499,4.4189826501722e-18,-3.2748999540544e-17,-0.0014042528189936,0.0014042528189936,-3.8822343415822e-18,-2.2793421323683e-17,-0.0014376449830387,0.0014376449830387,-0.0014376449830387,0.0014376449830387,-0.0014376449830387,0.0014376449830387,-0.0014376449830387,0.0014376449830387,-0.0013811411457495,0.0013811411457494,-0.0013811411457494,0.0013811411457495,0.41269003238502,0.29202310343891,1270536,32768,0.0058339607760916,0.0058339607760918,0.0058339607760918,41.025233751704,41.016219826305,0.00024340187001363,0.00024340187001363,0.00024340187001363,744791.03585966,0.017656145892745
9590400,0.9730932480514,0.016812129935168,0.0056040433117227,0.0056040433117228,0.0056040433117228,-0.001405567972283,0.0014055679722829,-5.7509272542965e-17,-1.6874484496082e-17,3.5553325635013e-16,-4.3539846358169e-16,-0.0014390780240033,0.0014390780240034,-0.0014390780240033,0.0014390780240035,-0.0014390780240035,0.0014390780240032,-0.0014390780240035,0.0014390780240032,-0.001382377870291,0.0013823778702906,-0.001382377870291,0.0013823778702906,-3.5310685988664e-16,4.4463347557606e-16,3.6101838290092e-17,5.420422645103e-17,-0.001405567972283,0.0014055679722831,-0.0014390780240035,0.0014390780240033,-0.0014390780240035,0.0014390780240033,-0.0014390780240032,0.0014390780240036,-0.0014390780240032,0.0014390780240036,-0.0013823778702907,0.001382377870291,-0.0013823778702907,0.0013823778702911,-0.0013823778702912,0.0013823778702906,-0.0013823778702905,0.0013823778702913,1.5146596105415e-18,-3.5293039468929e-17,-0.001405567972283,0.001405567972283,-7.0291970275617e-18,-2.5278639519621e-17,-0.0014390780240034,0.0014390780240034,-0.0014390780240034,0.0014390780240034,-0.0014390780240034,0.0014390780240034,-0.0014390780240034,0.0014390780240034,-0.0013823778702909,0.0013823778702909,-0.0013823778702909,0.0013823778702909,0.40721916063927,0.28758576212987,1270536,32768,0.0058394083466013,0.0058394083466015,0.0058394083466015,40.895248546513,40.886238191692,0.00024236198837211,0.00024236198837211,0.00024236198837211,739899.99690834,0.017672779058846
9676800,0.97488709245183,0.016830011821042,0.0056100039403473,0.0056100039403475,0.0056100039403475,-0.0014065868135068,0.0014065868135067,-6.0523886330936e-17,-2.0330261277414e-17,3.5207012685224e-16,-4.3804544154186e-16,-0.001440207240942,0.0014402072409421,-0.001440207240942,0.0014402072409421,-0.0014402072409422,0.0014402072409419,-0.0014402072409422,0.0014402072409419,-0.0013833233032683,0.0013833233032679,-0.0013833233032683,0.001383323303268,-3.4876875711858e-16,4.4828777570441e-16,4.0859045901842e-17,5.8218809690621e-17,-0.0014065868135067,0.0014065868135068,-0.0014402072409422,0.001440207240942,-0.0014402072409422,0.001440207240942,-0.0014402072409419,0.0014402072409422,-0.0014402072409419,0.0014402072409423,-0.0013833233032681,0.0013833233032684,-0.0013833233032681,0.0013833233032684,-0.0013833233032685,0.0013833233032679,-0.0013833233032678,0.0013833233032687,2.3602220144846e-18,-3.4013666788181e-17,-0.0014065868135068,0.0014065868135068,-5.4263048183479e-18,-2.3116940852149e-17,-0.0014402072409421,0.0014402072409421,-0.0014402072409421,0.0014402072409421,-0.0014402072409421,0.001440207240942,-0.0014402072409421,0.0014402072409421,-0.0013833233032683,0.0013833233032682,-0.0013833233032682,0.0013833233032682,0.4017914532568,0.28314842082083,1270536,32768,0.0058436284685204,0.0058436284685206,0.0058436284685206,40.684056417785,40.669624716922,0.00024067245134228,0.00024067245134228,0.00024067245134228,735464.15718729,0.017685664916098
9763200,0.97653760443866,0.0168464424468,0.0056154808155998,0.0056154808156,0.0056154808156,-0.0014073208514469,0.0014073208514468,-6.345762023679e-17,-2.2808126756795e-17,3.486143500709e-16,-4.4116299336162e-16,-0.0014410376915554,0.0014410376915556,-0.0014410376915554,0.0014410376915556,-0.0014410376915557,0.0014410376915553,-0.0014410376915557,0.0014410376915553,-0.0013839955974875,0.0013839955974871,-0.0013839955974875,0.0013839955974872,-3.5259216972771e-16,4.4410407998403e-16,3.6410652385445e-17,5.3116024400738e-17,-0.0014073208514469,0.001407320851447,-0.0014410376915556,0.0014410376915555,-0.0014410376915556,0.0014410376915555,-0.0014410376915554,0.0014410376915557,-0.0014410376915554,0.0014410376915557,-0.0013839955974873,0.0013839955974876,-0.0013839955974873,0.0013839955974877,-0.0013839955974878,0.0013839955974871,-0.001383995597487,0.0013839955974879,9.1247212460294e-18,-2.7881501180454e-17,-0.0014073208514469,0.0014073208514469,-1.911706304567e-19,-1.7352411072224e-17,-0.0014410376915555,0.0014410376915555,-0.0014410376915556,0.0014410376915555,-0.0014410376915555,0.0014410376915555,-0.0014410376915556,0.0014410376915555,-0.0013839955974875,0.0013839955974874,-0.0013839955974875,0.0013839955974875,0.40120108397712,0.30515093879817,1270536,32768,0.0058466688546088,0.0058466688546089,0.0058466688546089,40.385412686168,40.364967028842,0.00023828330148935,0.00023828330148935,0.00023828330148935,731143.46305499,0.017694948876385
9849600,0.9780571560094,0.016861612102838,0.0056205373676126,0.0056205373676128,0.0056205373676128,-0.0014080526041722,0.0014080526041721,-6.3718641674529e-17,-2.3190468017709e-17,3.4875405168547e-16,-4.4032478367423e-16,-0.0014418145743573,0.0014418145743575,-0.0014418145743573,0.0014418145743575,-0.0014418145743576,0.0014418145743572,-0.0014418145743576,0.0014418145743573,-0.001384709025924,0.0013847090259236,-0.001384709025924,0.0013847090259237,-3.4693057797957e-16,4.4916274897457e-16,4.1542848541552e-17,5.8321747722406e-17,-0.0014080526041722,0.0014080526041723,-0.0014418145743575,0.0014418145743574,-0.0014418145743575,0.0014418145743574,-0.0014418145743573,0.0014418145743576,-0.0014418145743573,0.0014418145743576,-0.0013847090259237,0.0013847090259241,-0.0013847090259237,0.0013847090259241,-0.0013847090259243,0.0013847090259236,-0.0013847090259235,0.0013847090259244,2.6837415429498e-18,-3.4116604819965e-17,-0.0014080526041722,0.0014080526041722,-6.2056927732867e-18,-2.3234584317045e-17,-0.0014418145743574,0.0014418145743574,-0.0014418145743575,0.0014418145743574,-0.0014418145743574,0.0014418145743574,-0.0014418145743575,0.0014418145743574,-0.001384709025924,0.0013847090259239,-0.0013847090259239,0.001384709025924,0.40230914814046,0.32514777092601,1270536,32768,0.0058496998003,0.0058496998003002,0.0058496998003002,40.08131200156,40.060309340762,0.00023585049601248,0.00023585049601248,0.00023585049601248,721861.70274239,0.017704204085704
9936000,0.97945736942281,0.016875645044386,0.0056252150147953,0.0056252150147955,0.0056252150147955,-0.0014087044118328,0.0014087044118327,-5.6630622914519e-17,-1.5690697130561e-17,3.5615088454083e-16,-4.3378086593936e-16,-0.0014424971553536,0.0014424971553538,-0.0014424971553536,0.0014424971553538,-0.0014424971553539,0.0014424971553535,-0.0014424971553539,0.0014424971553536,-0.0013853483606607,0.0013853483606603,-0.0013853483606607,0.0013853483606604,-3.5706262139378e-16,4.3947186855373e-16,3.2116665916726e-17,4.9513193288285e-17,-0.0014087044118327,0.0014087044118328,-0.0014424971553538,0.0014424971553536,-0.0014424971553538,0.0014424971553536,-0.0014424971553535,0.0014424971553539,-0.0014424971553535,0.0014424971553539,-0.0013853483606604,0.0013853483606607,-0.0013853483606604,0.0013853483606608,-0.0013853483606609,0.0013853483606603,-0.0013853483606602,0.001385348360661,6.8674372633291e-18,-3.0307897643943e-17,-0.0014087044118328,0.0014087044118328,-1.4852487443174e-18,-1.9175884778118e-17,-0.0014424971553537,0.0014424971553537,-0.0014424971553537,0.0014424971553537,-0.0014424971553537,0.0014424971553537,-0.0014424971553537,0.0014424971553537,-0.0013853483606607,0.0013853483606606,-0.0013853483606606,0.0013853483606606,0.40383252008833,0.33996392803986,1270536,32768,0.0058523995849298,0.00585239958493,0.00585239958493,39.776693366423,39.755651652682,0.00023341354693139,0.00023341354693139,0.00023341354693139,712019.74606847,0.01771244818235
10022400,0.98074878353648,0.016888660651288,0.0056295535504293,0.0056295535504295,0.0056295535504295,-0.0014092614610222,0.0014092614610221,-5.5516686356281e-17,-1.4720138545166e-17,3.5688615619643e-16,-4.330897105831e-16,-0.0014430814300478,0.001443081430048,-0.0014430814300478,0.001443081430048,-0.0014430814300481,0.0014430814300478,-0.0014430814300481,0.0014430814300478,-0.0013858915916649,0.0013858915916646,-0.0013858915916649,0.0013858915916646,-3.4994519176755e-16,4.4680252696009e-16,3.9197331960179e-17,5.5895351258917e-17,-0.0014092614610222,0.0014092614610223,-0.0014430814300481,0.0014430814300479,-0.0014430814300481,0.0014430814300479,-0.0014430814300478,0.0014430814300481,-0.0014430814300478,0.0014430814300482,-0.0013858915916647,0.001385891591665,-0.0013858915916647,0.0013858915916651,-0.0013858915916652,0.0013858915916646,-0.0013858915916645,0.0013858915916654,9.4776516407187e-18,-2.8205020708919e-17,-0.0014092614610222,0.0014092614610222,-1.102907483404e-18,-1.7661225167577e-17,-0.001443081430048,0.001443081430048,-0.001443081430048,0.001443081430048,-0.001443081430048,0.001443081430048,-0.001443081430048,0.001443081430048,-0.001385891591665,0.0013858915916649,-0.0013858915916649,0.0013858915916649,0.40605930420857,0.35478008515371,1270536,32768,0.0058547068558923,0.0058547068558925,0.0058547068558925,39.472022132433,39.450993964602,0.00023097617705947,0.00023097617705947,0.00023097617705947,702768.18902865,0.017719493780993
10108800,0.98194092898452,0.016900762229665,0.0056335874098881,0.0056335874098883,0.0056335874098883,-0.0014097446893959,0.0014097446893958,-5.8527623785974e-17,-1.7484759970232e-17,3.5497444989187e-16,-4.3548669618036e-16,-0.0014435853822369,0.0014435853822371,-0.0014435853822369,0.0014435853822371,-0.0014435853822372,0.0014435853822369,-0.0014435853822372,0.0014435853822369,-0.0013863645067377,0.0013863645067373,-0.0013863645067377,0.0013863645067374,-3.5797435824673e-16,4.3926599249016e-16,3.2300483830626e-17,4.7792657614175e-17,-0.0014097446893958,0.0014097446893959,-0.0014435853822371,0.001443585382237,-0.0014435853822372,0.001443585382237,-0.0014435853822369,0.0014435853822372,-0.0014435853822369,0.0014435853822372,-0.0013863645067374,0.0013863645067377,-0.0013863645067375,0.0013863645067378,-0.0013863645067379,0.0013863645067373,-0.0013863645067372,0.001386364506738,1.0823198770472e-17,-2.6396252436137e-17,-0.0014097446893959,0.0014097446893958,1.088202050292e-18,-1.4455440749149e-17,-0.0014435853822371,0.0014435853822371,-0.0014435853822371,0.0014435853822371,-0.0014435853822371,0.001443585382237,-0.0014435853822371,0.001443585382237,-0.0013863645067377,0.0013863645067376,-0.0013863645067376,0.0013863645067376,0.40893100784246,0.36959624226756,1270536,32768,0.0058567083504962,0.0058567083504964,0.0058567083504964,39.167345475267,39.146336276522,0.00022853876380213,0.00022853876380213,0.00022853876380213,693573.32342014,0.017725605714147
10195200,0.98304242736523,0.016912039498777,0.0056373464995923,0.0056373464995925,0.0056373464995925,-0.0014101611389577,0.0014101611389576,-6.3156158857993e-17,-2.2094913250861e-17,3.5012165696489e-16,-4.4014831847688e-16,-0.001444016893242,0.0014440168932421,-0.001444016893242,0.0014440168932421,-0.0014440168932422,0.0014440168932419,-0.0014440168932422,0.0014440168932419,-0.001386773941316,0.0013867739413156,-0.001386773941316,0.0013867739413157,-3.4847464845634e-16,4.4913333810835e-16,4.1498732242216e-17,5.6733560946304e-17,-0.0014101611389577,0.0014101611389578,-0.0014440168932422,0.001444016893242,-0.0014440168932422,0.001444016893242,-0.0014440168932419,0.0014440168932422,-0.0014440168932419,0.0014440168932422,-0.0013867739413158,0.0013867739413161,-0.0013867739413158,0.0013867739413161,-0.0013867739413163,0.0013867739413156,-0.0013867739413155,0.0013867739413164,1.4690727678942e-17,-2.2543428960779e-17,-0.0014101611389577,0.0014101611389577,4.102815838263e-18,-1.1264361763833e-17,-0.001444016893242,0.0014440168932421,-0.0014440168932421,0.0014440168932421,-0.0014440168932421,0.0014440168932421,-0.0014440168932421,0.0014440168932421,-0.001386773941316,0.0013867739413159,-0.0013867739413159,0.001386773941316,0.41238653499626,0.38441239938141,1270536,32768,0.0058584332395144,0.0058584332395145,0.0058584332395145,38.862668260928,38.841678588442,0.00022610134608742,0.00022610134608742,0.00022610134608742,684444.85174315,0.017730873042181
10281600,0.98406108293331,0.016922570681603,0.0056408568938674,0.0056408568938676,0.0056408568938676,-0.0014105165938859,0.0014105165938858,-5.7825439354874e-17,-1.6683313865625e-17,3.5495974445876e-16,-4.3507494405322e-16,-0.0014443826341593,0.0014443826341594,-0.0014443826341593,0.0014443826341594,-0.0014443826341595,0.0014443826341592,-0.0014443826341595,0.0014443826341592,-0.0013871252516587,0.0013871252516583,-0.0013871252516587,0.0013871252516584,-3.4838641585767e-16,4.4861864794943e-16,4.0145832395907e-17,5.5674769762236e-17,-0.0014105165938859,0.001410516593886,-0.0014443826341595,0.0014443826341593,-0.0014443826341595,0.0014443826341593,-0.0014443826341592,0.0014443826341595,-0.0014443826341592,0.0014443826341596,-0.0013871252516584,0.0013871252516587,-0.0013871252516584,0.0013871252516588,-0.0013871252516589,0.0013871252516583,-0.0013871252516582,0.0013871252516591,6.1983400567307e-18,-3.1160812764442e-17,-0.0014105165938859,0.0014105165938859,-3.8087071760219e-18,-1.9631753204592e-17,-0.0014443826341594,0.0014443826341594,-0.0014443826341594,0.0014443826341594,-0.0014443826341594,0.0014443826341594,-0.0014443826341594,0.0014443826341594,-0.0013871252516587,0.0013871252516586,-0.0013871252516586,0.0013871252516586,0.41637243071766,0.39922855649526,1270536,32768,0.0058599054828579,0.005859905482858,0.005859905482858,38.557990993387,38.537020900362,0.00022366392794709,0.00022366392794709,0.00022366392794709,675407.26160777,0.017735368917958
10368000,0.98500396500126,0.016932424324139,0.0056441414413797,0.0056441414413798,0.0056441414413798,-0.0014108161076933,0.0014108161076932,-5.5608595313232e-17,-1.410251035446e-17,3.5698174151166e-16,-4.3147211294077e-16,-0.0014446884430747,0.0014446884430749,-0.0014446884430747,0.0014446884430749,-0.001444688443075,0.0014446884430746,-0.001444688443075,0.0014446884430746,-0.001387423059974,0.0013874230599737,-0.001387423059974,0.0013874230599737,-3.5107751011717e-16,4.4455259569394e-16,3.7888548413207e-17,5.3542481960988e-17,-0.0014108161076933,0.0014108161076934,-0.0014446884430749,0.0014446884430748,-0.001444688443075,0.0014446884430748,-0.0014446884430747,0.001444688443075,-0.0014446884430747,0.001444688443075,-0.0013874230599738,0.0013874230599741,-0.0013874230599738,0.0013874230599741,-0.0013874230599743,0.0013874230599736,-0.0013874230599735,0.0013874230599744,7.2350730911305e-18,-3.0396130242615e-17,-0.0014108161076933,0.0014108161076933,-3.3087224502121e-18,-1.9352349975463e-17,-0.0014446884430748,0.0014446884430748,-0.0014446884430749,0.0014446884430749,-0.0014446884430748,0.0014446884430748,-0.0014446884430749,0.0014446884430748,-0.001387423059974,0.0013874230599739,-0.001387423059974,0.001387423059974,0.42084321751189,0.41404471360911,1270536,32768,0.0058611460134493,0.0058611460134495,0.0058611460134495,38.253313724866,38.232363212283,0.00022122650979893,0.00022122650979893,0.00022122650979893,666482.19175267,0.01773915725444
10454400,0.98588376980893,0.016941727062416,0.0056472423541385,0.0056472423541387,0.0056472423541387,-0.0014113329065177,0.0014113329065177,-5.9211426425685e-17,-1.7639167017909e-17,3.5307009630386e-16,-4.3566316137771e-16,-0.0014452046524069,0.001445204652407,-0.0014452046524068,0.001445204652407,-0.0014452046524071,0.0014452046524068,-0.0014452046524071,0.0014452046524068,-0.0013879426478293,0.0013879426478289,-0.0013879426478292,0.0013879426478289,-3.5182748720589e-16,4.4392761478668e-16,3.6829757229139e-17,5.3263078731859e-17,-0.0014113329065177,0.0014113329065178,-0.0014452046524071,0.0014452046524069,-0.0014452046524071,0.0014452046524069,-0.0014452046524068,0.0014452046524071,-0.0014452046524068,0.0014452046524072,-0.001387942647829,0.0013879426478293,-0.001387942647829,0.0013879426478293,-0.0013879426478295,0.0013879426478288,-0.0013879426478287,0.0013879426478296,4.8674983600898e-18,-3.2763704973656e-17,-0.0014113329065177,0.0014113329065177,-5.1321961561068e-18,-2.18375681714e-17,-0.001445204652407,0.001445204652407,-0.001445204652407,0.001445204652407,-0.001445204652407,0.0014452046524069,-0.001445204652407,0.0014452046524069,-0.0013879426478292,0.0013879426478291,-0.0013879426478292,0.0013879426478292,0.42576013988272,0.42886087072296,1270536,32768,0.005863286630436,0.0058632866304362,0.0058632866304362,38.084938764886,38.073038917348,0.00021987951011909,0.00021987951011909,0.00021987951011909,657487.48277625,0.017745693635146
10540800,0.98671096801776,0.01695037718174,0.0056501257272466,0.0056501257272468,0.0056501257272468,-0.0014120562696143,0.0014120562696142,-5.8512918352862e-17,-1.693330622853e-17,3.5420976737004e-16,-4.3458966476053e-16,-0.0014459296497126,0.0014459296497128,-0.0014459296497126,0.0014459296497128,-0.0014459296497129,0.0014459296497125,-0.0014459296497129,0.0014459296497125,-0.0013886647513748,0.0013886647513744,-0.0013886647513748,0.0013886647513745,-3.5076869602182e-16,4.4466288644228e-16,3.7881195696651e-17,5.4395397081487e-17,-0.0014120562696142,0.0014120562696143,-0.0014459296497128,0.0014459296497127,-0.0014459296497128,0.0014459296497127,-0.0014459296497126,0.0014459296497129,-0.0014459296497126,0.0014459296497129,-0.0013886647513745,0.0013886647513748,-0.0013886647513745,0.0013886647513749,-0.001388664751375,0.0013886647513744,-0.0013886647513743,0.0013886647513751,5.9557004103818e-18,-3.1734324655812e-17,-0.0014120562696143,0.0014120562696143,-3.7057691442376e-18,-2.033761399397e-17,-0.0014459296497127,0.0014459296497127,-0.0014459296497128,0.0014459296497127,-0.0014459296497127,0.0014459296497127,-0.0014459296497128,0.0014459296497127,-0.0013886647513748,0.0013886647513747,-0.0013886647513747,0.0013886647513747,0.42103184666373,0.38822628619046,1270536,32768,0.0058662828865747,0.0058662828865749,0.0058662828865749,38.051789853875,38.049168904199,0.000219614318831,0.000219614318831,0.000219614318831,648803.21634308,0.017754842570281
10627200,0.98748908239729,0.016958458939715,0.0056528196465716,0.0056528196465718,0.0056528196465718,-0.0014125506473799,0.0014125506473799,-5.9928316289897e-17,-1.8286206074839e-17,3.5265834417672e-16,-4.3591315374061e-16,-0.0014464949957243,0.0014464949957245,-0.0014464949957243,0.0014464949957245,-0.0014464949957246,0.0014464949957242,-0.0014464949957245,0.0014464949957242,-0.0013890962586999,0.0013890962586995,-0.0013890962586998,0.0013890962586995,-3.511069209834e-16,4.4448642124494e-16,3.7373858254285e-17,5.3777768890781e-17,-0.0014125506473799,0.00141255064738,-0.0014464949957245,0.0014464949957243,-0.0014464949957245,0.0014464949957243,-0.0014464949957242,0.0014464949957246,-0.0014464949957242,0.0014464949957246,-0.0013890962586996,0.0013890962586999,-0.0013890962586996,0.0013890962586999,-0.0013890962587001,0.0013890962586994,-0.0013890962586993,0.0013890962587002,6.1248128911704e-18,-3.1660797490252e-17,-0.00141255064738,0.0014125506473799,-3.6763582780135e-18,-2.0381730293307e-17,-0.0014464949957244,0.0014464949957244,-0.0014464949957244,0.0014464949957244,-0.0014464949957244,0.0014464949957244,-0.0014464949957244,0.0014464949957244,-0.0013890962586998,0.0013890962586998,-0.0013890962586998,0.0013890962586998,0.418138688676,0.37898076647405,1270536,32768,0.0058683306245108,0.005868330624511,0.005868330624511,38.027038393602,38.02529889105,0.00021941630714882,0.00021941630714882,0.00021941630714882,648801.09190361,0.017761095100926
10713600,0.98822106907264,0.0169659847174,0.0056553282391333,0.0056553282391334,0.0056553282391335,-0.001413071588246,0.001413071588246,-5.8803350656825e-17,-1.7175945874879e-17,3.5399653858992e-16,-4.3476612995787e-16,-0.0014470620999775,0.0014470620999777,-0.0014470620999775,0.0014470620999777,-0.0014470620999778,0.0014470620999774,-0.0014470620999778,0.0014470620999774,-0.0013895854526901,0.0013895854526897,-0.0013895854526901,0.0013895854526898,-3.509892775185e-16,4.4482464620652e-16,3.7785610381422e-17,5.4292459049703e-17,-0.001413071588246,0.0014130715882461,-0.0014470620999777,0.0014470620999775,-0.0014470620999777,0.0014470620999775,-0.0014470620999774,0.0014470620999778,-0.0014470620999774,0.0014470620999778,-0.0013895854526899,0.0013895854526902,-0.0013895854526899,0.0013895854526902,-0.0013895854526904,0.0013895854526897,-0.0013895854526896,0.0013895854526905,6.9042008461093e-18,-3.0749060637305e-17,-0.001413071588246,0.001413071588246,-2.9263811892987e-18,-1.969057493704e-17,-0.0014470620999776,0.0014470620999776,-0.0014470620999776,0.0014470620999776,-0.0014470620999776,0.0014470620999776,-0.0014470620999776,0.0014470620999776,-0.0013895854526901,0.00138958545269,-0.0013895854526901,0.0013895854526901,0.41390982573135,0.36416572583627,1270536,32768,0.0058704884292242,0.0058704884292243,0.0058704884292243,38.003079114303,38.001428877901,0.00021922463291442,0.00021922463291442,0.00021922463291442,646359.44434741,0.017767683820633
10800000,0.98890967863394,0.016972978502814,0.005657659500938,0.0056576595009382,0.0056576595009382,-0.0014135314414273,0.0014135314414272,-6.0365802924981e-17,-1.8903834265545e-17,3.5261422787738e-16,-4.3650137106509e-16,-0.001447571311283,0.0014475713112831,-0.0014475713112829,0.0014475713112831,-0.0014475713112832,0.0014475713112829,-0.0014475713112832,0.0014475713112829,-0.0013900109041452,0.0013900109041448,-0.0013900109041451,0.0013900109041448,-3.5022459499667e-16,4.455966814449e-16,3.8498823887357e-17,5.4571862278832e-17,-0.0014135314414272,0.0014135314414273,-0.0014475713112832,0.001447571311283,-0.0014475713112832,0.001447571311283,-0.0014475713112829,0.0014475713112832,-0.0014475713112829,0.0014475713112833,-0.0013900109041449,0.0013900109041452,-0.0013900109041449,0.0013900109041452,-0.0013900109041454,0.0013900109041447,-0.0013900109041446,0.0013900109041455,5.2792504872273e-18,-3.2484301744527e-17,-0.0014135314414273,0.0014135314414272,-4.5586842647367e-18,-2.1322878012478e-17,-0.0014475713112831,0.0014475713112831,-0.0014475713112831,0.0014475713112831,-0.0014475713112831,0.0014475713112831,-0.0014475713112831,0.0014475713112831,-0.0013900109041451,0.0013900109041451,-0.0013900109041451,0.0013900109041451,0.40887072067372,0.34935068519849,1270536,32768,0.0058723931984529,0.0058723931984531,0.0058723931984531,37.97919982476,37.977558864752,0.00021903359859808,0.00021903359859808,0.00021903359859808,645006.02619086,0.017773499924499
10886400,0.9895574962946,0.016979466143169,0.0056598220477229,0.0056598220477231,0.0056598220477231,-0.001413945398905,0.0014139453989049,-5.9428331564088e-17,-1.7742105049693e-17,3.5370978264423e-16,-4.3585433200816e-16,-0.0014480337367212,0.0014480337367214,-0.0014480337367212,0.0014480337367214,-0.0014480337367215,0.0014480337367211,-0.0014480337367215,0.0014480337367211,-0.0013903919469007,0.0013903919469003,-0.0013903919469006,0.0013903919469003,-3.5278334035817e-16,4.4338351376154e-16,3.5748907895403e-17,5.2424869044472e-17,-0.0014139453989049,0.001413945398905,-0.0014480337367214,0.0014480337367212,-0.0014480337367214,0.0014480337367212,-0.0014480337367211,0.0014480337367215,-0.0014480337367212,0.0014480337367215,-0.0013903919469004,0.0013903919469007,-0.0013903919469004,0.0013903919469007,-0.0013903919469009,0.0013903919469002,-0.0013903919469001,0.001390391946901,6.0806965918343e-18,-3.1837262687597e-17,-0.001413945398905,0.001413945398905,-3.8381180422461e-18,-2.0558195490651e-17,-0.0014480337367213,0.0014480337367213,-0.0014480337367213,0.0014480337367213,-0.0014480337367213,0.0014480337367213,-0.0014480337367213,0.0014480337367213,-0.0013903919469006,0.0013903919469005,-0.0013903919469006,0.0013903919469006,0.40315943386567,0.33453564456071,1270536,32768,0.0058741078645534,0.0058741078645536,0.0058741078645536,37.955328747153,37.953688851603,0.00021884262997722,0.00021884262997722,0.00021884262997722,644217.27565868,0.017778735576918
10972800,0.99016695408135,0.016985474456636,0.0056618248188785,0.0056618248188787,0.0056618248188787,-0.0014143172896344,0.0014143172896344,-5.9454066072034e-17,-1.8161209893386e-17,3.5330538323365e-16,-4.3645725476576e-16,-0.0014484527009715,0.0014484527009717,-0.0014484527009715,0.0014484527009717,-0.0014484527009718,0.0014484527009714,-0.0014484527009718,0.0014484527009714,-0.00139073238245,0.0013907323824496,-0.0013907323824499,0.0013907323824496,-3.5122456444829e-16,4.4517022388465e-16,3.7712083215862e-17,5.4233637317255e-17,-0.0014143172896344,0.0014143172896345,-0.0014484527009717,0.0014484527009716,-0.0014484527009717,0.0014484527009716,-0.0014484527009715,0.0014484527009718,-0.0014484527009715,0.0014484527009718,-0.0013907323824497,0.00139073238245,-0.0013907323824497,0.00139073238245,-0.0013907323824502,0.0013907323824495,-0.0013907323824494,0.0013907323824503,4.7057385958572e-18,-3.2910759304776e-17,-0.0014143172896344,0.0014143172896344,-5.0880798567706e-18,-2.2102265967417e-17,-0.0014484527009716,0.0014484527009716,-0.0014484527009717,0.0014484527009716,-0.0014484527009716,0.0014484527009716,-0.0014484527009717,0.0014484527009716,-0.0013907323824499,0.0013907323824499,-0.0013907323824499,0.0013907323824499,0.39687334320837,0.31972060392292,1270536,32768,0.0058756482865314,0.0058756482865316,0.0058756482865316,37.931458516371,37.929818838454,0.00021865166813096,0.00021865166813096,0.00021865166813096,643919.25577422,0.017783439198988
11059200,0.99074033984714,0.016991030435771,0.0056636768119235,0.0056636768119237,0.0056636768119237,-0.0014146502789802,0.0014146502789801,-6.0299628475977e-17,-1.865384190264e-17,3.5268040232639e-16,-4.3691312319223e-16,-0.0014488311634792,0.0014488311634794,-0.0014488311634792,0.0014488311634794,-0.0014488311634795,0.0014488311634791,-0.0014488311634794,0.0014488311634791,-0.0013910352659183,0.0013910352659179,-0.0013910352659183,0.001391035265918,-3.5020988956356e-16,4.4619225148594e-16,3.8528234753581e-17,5.513066873709e-17,-0.0014146502789801,0.0014146502789802,-0.0014488311634794,0.0014488311634792,-0.0014488311634794,0.0014488311634792,-0.0014488311634791,0.0014488311634795,-0.0014488311634791,0.0014488311634795,-0.001391035265918,0.0013910352659183,-0.001391035265918,0.0013910352659184,-0.0013910352659185,0.0013910352659179,-0.0013910352659178,0.0013910352659187,7.1468404924582e-18,-3.0616711739296e-17,-0.0014146502789802,0.0014146502789802,-2.7057996926179e-18,-1.9528815172807e-17,-0.0014488311634793,0.0014488311634793,-0.0014488311634793,0.0014488311634793,-0.0014488311634793,0.0014488311634793,-0.0014488311634793,0.0014488311634793,-0.0013910352659183,0.0013910352659182,-0.0013910352659182,0.0013910352659182,0.39008597762368,0.30490556328514,1270536,32768,0.0058770275751437,0.0058770275751438,0.0058770275751439,37.907588373022,37.905948825305,0.00021846070698417,0.00021846070698417,0.00021846070698417,644064.17802206,0.017787650819775
11145600,0.99127980558451,0.016996170248301,0.005665390082767,0.0056653900827672,0.0056653900827672,-0.0014149479373504,0.0014149479373504,-5.8711441699875e-17,-1.6992127960978e-17,3.5454799233162e-16,-4.3520729295123e-16,-0.0014491723906122,0.0014491723906124,-0.0014491723906122,0.0014491723906124,-0.0014491723906125,0.0014491723906121,-0.0014491723906125,0.0014491723906121,-0.001391304329252,0.0013913043292516,-0.001391304329252,0.0013913043292517,-3.4959226137286e-16,4.4739074428457e-16,3.9550262354869e-17,5.6042405590037e-17,-0.0014149479373504,0.0014149479373505,-0.0014491723906124,0.0014491723906122,-0.0014491723906124,0.0014491723906123,-0.0014491723906122,0.0014491723906125,-0.0014491723906122,0.0014491723906125,-0.0013913043292518,0.0013913043292521,-0.0013913043292518,0.0013913043292521,-0.0013913043292523,0.0013913043292516,-0.0013913043292515,0.0013913043292524,7.0512551772298e-18,-3.0616711739296e-17,-0.0014149479373505,0.0014149479373504,-2.8381485906264e-18,-1.954352060592e-17,-0.0014491723906123,0.0014491723906123,-0.0014491723906123,0.0014491723906123,-0.0014491723906123,0.0014491723906123,-0.0014491723906123,0.0014491723906123,-0.001391304329252,0.0013913043292519,-0.0013913043292519,0.001391304329252,0.38356279567438,0.29399228489918,1270536,32768,0.0058782605201809,0.005878260520181,0.005878260520181,37.883718238705,37.882078812156,0.00021826974590964,0.00021826974590964,0.00021826974590964,644606.40981818,0.017791415590602
11232000,0.99178647158367,0.017001025027698,0.005667008342566,0.0056670083425661,0.0056670083425661,-0.0014151714045169,0.0014151714045168,-5.7564417917135e-17,-1.6073038391475e-17,3.5584942316203e-16,-4.3417791263339e-16,-0.0014494305246378,0.001449430524638,-0.0014494305246378,0.001449430524638,-0.0014494305246381,0.0014494305246377,-0.0014494305246381,0.0014494305246377,-0.001391507715934,0.0013915077159336,-0.001391507715934,0.0013915077159337,-3.4782760939941e-16,4.4940538862092e-16,4.1447263226324e-17,5.7821762996596e-17,-0.0014151714045169,0.001415171404517,-0.001449430524638,0.0014494305246378,-0.001449430524638,0.0014494305246378,-0.0014494305246377,0.0014494305246381,-0.0014494305246378,0.0014494305246381,-0.0013915077159337,0.0013915077159341,-0.0013915077159337,0.0013915077159341,-0.0013915077159342,0.0013915077159336,-0.0013915077159335,0.0013915077159344,9.1026630963613e-18,-2.8690300001617e-17,-0.0014151714045169,0.0014151714045169,-9.1173685294734e-19,-1.747005453712e-17,-0.0014494305246379,0.0014494305246379,-0.0014494305246379,0.0014494305246379,-0.0014494305246379,0.0014494305246379,-0.0014494305246379,0.0014494305246379,-0.001391507715934,0.0013915077159339,-0.0013915077159339,0.001391507715934,0.3857443658603,0.33161180199135,1270536,32768,0.0058791861585715,0.0058791861585716,0.0058791861585716,37.825999504446,37.822117327325,0.00021780799603557,0.00021780799603557,0.00021780799603557,644797.16337788,0.017794242024422
11318400,0.99226162533495,0.017005596084325,0.0056685320281084,0.0056685320281085,0.0056685320281085,-0.0014155036216869,0.0014155036216868,-5.7773970338982e-17,-1.6315678037824e-17,3.5545237646801e-16,-4.3442790499629e-16,-0.0014497301771215,0.0014497301771217,-0.0014497301771215,0.0014497301771217,-0.0014497301771218,0.0014497301771214,-0.0014497301771218,0.0014497301771215,-0.0013918784913249,0.0013918784913245,-0.0013918784913249,0.0013918784913246,-3.4798936916364e-16,4.4853041535075e-16,4.0976689366738e-17,5.6542390315847e-17,-0.0014155036216868,0.0014155036216869,-0.0014497301771217,0.0014497301771216,-0.0014497301771218,0.0014497301771216,-0.0014497301771215,0.0014497301771218,-0.0014497301771215,0.0014497301771218,-0.0013918784913246,0.001391878491325,-0.0013918784913247,0.001391878491325,-0.0013918784913251,0.0013918784913245,-0.0013918784913244,0.0013918784913252,8.1321045109658e-18,-2.9513804255892e-17,-0.0014155036216869,0.0014155036216869,-1.9705280370152e-18,-1.8028860995378e-17,-0.0014497301771217,0.0014497301771217,-0.0014497301771217,0.0014497301771217,-0.0014497301771217,0.0014497301771216,-0.0014497301771217,0.0014497301771216,-0.0013918784913249,0.0013918784913248,-0.0013918784913248,0.0013918784913248,0.38728441747968,0.34600422993901,1270536,32768,0.0058805622501513,0.0058805622501514,0.0058805622501514,37.73732428149,37.731315367919,0.00021709859425192,0.00021709859425192,0.00021709859425192,637258.53301726,0.017798444256763
11404800,0.99270729053192,0.017009900821897,0.0056699669406323,0.0056699669406325,0.0056699669406325,-0.001415758442495,0.0014157584424949,-5.9329069890581e-17,-1.797003926293e-17,3.5332008866676e-16,-4.3657489823065e-16,-0.0014499684904197,0.0014499684904199,-0.0014499684904197,0.0014499684904199,-0.00144996849042,0.0014499684904196,-0.0014499684904199,0.0014499684904196,-0.0013921479033822,0.0013921479033818,-0.0013921479033821,0.0013921479033818,-3.5019518413045e-16,4.4633930581706e-16,3.8410591288685e-17,5.4865970941073e-17,-0.0014157584424949,0.001415758442495,-0.0014499684904199,0.0014499684904197,-0.0014499684904199,0.0014499684904197,-0.0014499684904196,0.00144996849042,-0.0014499684904196,0.00144996849042,-0.0013921479033819,0.0013921479033822,-0.0013921479033819,0.0013921479033822,-0.0013921479033824,0.0013921479033817,-0.0013921479033816,0.0013921479033825,7.5953562023758e-18,-2.9969672682366e-17,-0.001415758442495,0.001415758442495,-2.1028769350237e-18,-1.8955303281437e-17,-0.0014499684904198,0.0014499684904198,-0.0014499684904198,0.0014499684904198,-0.0014499684904198,0.0014499684904198,-0.0014499684904198,0.0014499684904198,-0.0013921479033821,0.0013921479033821,-0.0013921479033821,0.0013921479033821,0.38881650482658,0.35610410304841,1270536,32768,0.005881617714995,0.0058816177149952,0.0058816177149952,37.646722691764,37.640513408512,0.00021637378153411,0.00021637378153411,0.00021637378153411,631690.38618471,0.017801667413598
11491200,0.99312539878371,0.017013959588665,0.0056713198628884,0.0056713198628885,0.0056713198628885,-0.0014159771384229,0.0014159771384228,-6.129224521104e-17,-2.0006741748949e-17,3.5191571980456e-16,-4.3811896870742e-16,-0.0014501766868137,0.0014501766868139,-0.0014501766868137,0.0014501766868139,-0.001450176686814,0.0014501766868136,-0.0014501766868139,0.0014501766868136,-0.0013923739392997,0.0013923739392993,-0.0013923739392997,0.0013923739392993,-3.480628963292e-16,4.4864805881565e-16,4.0903162201178e-17,5.7630592366139e-17,-0.0014159771384228,0.0014159771384229,-0.0014501766868139,0.0014501766868137,-0.0014501766868139,0.0014501766868137,-0.0014501766868136,0.001450176686814,-0.0014501766868136,0.001450176686814,-0.0013923739392994,0.0013923739392997,-0.0013923739392994,0.0013923739392998,-0.0013923739392999,0.0013923739392993,-0.0013923739392991,0.0013923739393,8.1247517944097e-18,-2.9160873861203e-17,-0.0014159771384229,0.0014159771384229,-1.2058455151884e-18,-1.811709359405e-17,-0.0014501766868138,0.0014501766868138,-0.0014501766868138,0.0014501766868138,-0.0014501766868138,0.0014501766868138,-0.0014501766868138,0.0014501766868138,-0.0013923739392996,0.0013923739392996,-0.0013923739392996,0.0013923739392996,0.39073372237707,0.3662039761578,1270536,32768,0.0058825235365918,0.0058825235365919,0.0058825235365919,37.555939419892,37.549711449105,0.00021564751535913,0.00021564751535913,0.00021564751535913,626734.64966353,0.01780443361702
11577600,0.99351775338715,0.017017791140675,0.0056725970468915,0.0056725970468917,0.0056725970468917,-0.0014161751134419,0.0014161751134418,-6.1332685152099e-17,-1.9749396669488e-17,3.5212894858469e-16,-4.3842778280277e-16,-0.0014503653832135,0.0014503653832137,-0.0014503653832135,0.0014503653832137,-0.0014503653832138,0.0014503653832135,-0.0014503653832138,0.0014503653832135,-0.0013925779558349,0.0013925779558345,-0.0013925779558349,0.0013925779558346,-3.4793054743119e-16,4.4936862503814e-16,4.1189918146863e-17,5.8174693391285e-17,-0.0014161751134418,0.0014161751134419,-0.0014503653832137,0.0014503653832136,-0.0014503653832138,0.0014503653832136,-0.0014503653832135,0.0014503653832138,-0.0014503653832135,0.0014503653832138,-0.0013925779558346,0.0013925779558349,-0.0013925779558346,0.001392577955835,-0.0013925779558351,0.0013925779558345,-0.0013925779558344,0.0013925779558353,6.5071541520838e-18,-3.114610733133e-17,-0.0014161751134419,0.0014161751134419,-2.8675594568505e-18,-2.026408682841e-17,-0.0014503653832137,0.0014503653832137,-0.0014503653832137,0.0014503653832137,-0.0014503653832137,0.0014503653832136,-0.0014503653832137,0.0014503653832136,-0.0013925779558349,0.0013925779558348,-0.0013925779558348,0.0013925779558348,0.39304577768134,0.37630384926719,1270536,32768,0.0058833435268388,0.0058833435268389,0.0058833435268389,37.465137818177,37.458909489699,0.00021492110254541,0.00021492110254541,0.00021492110254541,621852.67571088,0.017806937730995
11664000,0.99388603463932,0.017021412398198,0.0056738041327325,0.0056738041327326,0.0056738041327327,-0.0014163549443212,0.0014163549443211,-5.9693029360105e-17,-1.8572962020524e-17,3.5356272831311e-16,-4.3706017752335e-16,-0.00145053652206,0.0014505365220602,-0.00145053652206,0.0014505365220602,-0.0014505365220603,0.0014505365220599,-0.0014505365220603,0.0014505365220599,-0.001392763298303,0.0013927632983026,-0.0013927632983029,0.0013927632983026,-3.5234217736481e-16,4.4517757660121e-16,3.6638586598682e-17,5.363071455966e-17,-0.0014163549443212,0.0014163549443213,-0.0014505365220602,0.00145053652206,-0.0014505365220602,0.00145053652206,-0.0014505365220599,0.0014505365220603,-0.00145053652206,0.0014505365220603,-0.0013927632983027,0.001392763298303,-0.0013927632983027,0.001392763298303,-0.0013927632983032,0.0013927632983025,-0.0013927632983024,0.0013927632983033,7.4630073043673e-18,-3.007261071415e-17,-0.0014163549443212,0.0014163549443212,-1.8234737058947e-18,-1.9205295644342e-17,-0.0014505365220601,0.0014505365220601,-0.0014505365220601,0.0014505365220601,-0.0014505365220601,0.0014505365220601,-0.0014505365220601,0.0014505365220601,-0.0013927632983029,0.0013927632983029,-0.0013927632983029,0.0013927632983029,0.39572992222903,0.38640372237658,1270536,32768,0.0058840883600302,0.0058840883600303,0.0058840883600303,37.3743343369,37.368107530292,0.0002141946746952,0.0002141946746952,0.0002141946746952,616993.48576515,0.017809212349412
11750400,0.99423180816137,0.017024838575718,0.0056749461919059,0.005674946191906,0.005674946191906,-0.0014165180340287,0.0014165180340286,-5.949818237137e-17,-1.8433260405959e-17,3.5434946898461e-16,-4.3654548736443e-16,-0.0014506913282501,0.0014506913282503,-0.0014506913282501,0.0014506913282503,-0.0014506913282504,0.0014506913282501,-0.0014506913282504,0.0014506913282501,-0.0013929316071049,0.0013929316071045,-0.0013929316071049,0.0013929316071045,-3.474452681385e-16,4.501112494103e-16,4.1836957203793e-17,5.9204073709129e-17,-0.0014165180340286,0.0014165180340287,-0.0014506913282504,0.0014506913282502,-0.0014506913282504,0.0014506913282502,-0.0014506913282501,0.0014506913282504,-0.0014506913282501,0.0014506913282505,-0.0013929316071046,0.0013929316071049,-0.0013929316071046,0.001392931607105,-0.0013929316071051,0.0013929316071045,-0.0013929316071043,0.0013929316071052,5.3454249362316e-18,-3.2057844184277e-17,-0.0014165180340287,0.0014165180340287,-4.0586995389269e-18,-2.1705219273391e-17,-0.0014506913282503,0.0014506913282503,-0.0014506913282503,0.0014506913282503,-0.0014506913282503,0.0014506913282503,-0.0014506913282503,0.0014506913282502,-0.0013929316071048,0.0013929316071048,-0.0013929316071048,0.0013929316071048,0.39875791962526,0.39650359548597,1270536,32768,0.0058847638481468,0.005884763848147,0.005884763848147,37.283530662178,37.277305570885,0.00021346824529743,0.00021346824529743,0.00021346824529743,612148.73269138,0.017811275217921
11836800,0.9945565329491,0.017028094801413,0.005676031600471,0.0056760316004712,0.0056760316004712,-0.0014166663424545,0.0014166663424544,-5.8049697209833e-17,-1.6565670400729e-17,3.5590824489448e-16,-4.3506023862011e-16,-0.001450831428867,0.0014508314288672,-0.001450831428867,0.0014508314288672,-0.0014508314288673,0.0014508314288669,-0.0014508314288673,0.0014508314288669,-0.0013930852506919,0.0013930852506915,-0.0013930852506919,0.0013930852506916,-3.5100398295161e-16,4.4682458510976e-16,3.8131188059556e-17,5.5733591494684e-17,-0.0014166663424545,0.0014166663424546,-0.0014508314288672,0.0014508314288671,-0.0014508314288672,0.0014508314288671,-0.001450831428867,0.0014508314288673,-0.001450831428867,0.0014508314288673,-0.0013930852506917,0.001393085250692,-0.0013930852506917,0.001393085250692,-0.0013930852506922,0.0013930852506915,-0.0013930852506914,0.0013930852506923,7.3233056898028e-18,-3.0043199847926e-17,-0.0014166663424545,0.0014166663424545,-1.7205356741103e-18,-1.9734691236376e-17,-0.0014508314288671,0.0014508314288671,-0.0014508314288672,0.0014508314288671,-0.0014508314288671,0.0014508314288671,-0.0014508314288672,0.0014508314288671,-0.0013930852506919,0.0013930852506918,-0.0013930852506918,0.0013930852506919,0.40351767013228,0.41440432049797,1270536,32768,0.0058853781110262,0.0058853781110264,0.0058853781110264,37.192726967634,37.186503611479,0.00021274181574107,0.00021274181574107,0.00021274181574107,607308.37259577,0.017813151123664
11923200,0.99486156887835,0.017031223108921,0.0056770743696401,0.0056770743696402,0.0056770743696402,-0.001416830175605,0.0014168301756049,-5.8240867840289e-17,-1.6992127960978e-17,3.5437887985083e-16,-4.3485436255654e-16,-0.001450977439871,0.0014509774398712,-0.001450977439871,0.0014509774398712,-0.0014509774398713,0.001450977439871,-0.0014509774398713,0.001450977439871,-0.0013932633169077,0.0013932633169073,-0.0013932633169077,0.0013932633169074,-3.4497475537567e-16,4.5085387378246e-16,4.2631050591844e-17,6.0748144185894e-17,-0.0014168301756049,0.001416830175605,-0.0014509774398712,0.0014509774398711,-0.0014509774398713,0.0014509774398711,-0.001450977439871,0.0014509774398713,-0.001450977439871,0.0014509774398713,-0.0013932633169074,0.0013932633169078,-0.0013932633169074,0.0013932633169078,-0.0013932633169079,0.0013932633169073,-0.0013932633169072,0.0013932633169081,7.382127422251e-18,-2.9984378115478e-17,-0.001416830175605,0.001416830175605,-1.0440857509558e-18,-1.9411171707911e-17,-0.0014509774398712,0.0014509774398712,-0.0014509774398712,0.0014509774398712,-0.0014509774398712,0.0014509774398711,-0.0014509774398712,0.0014509774398711,-0.0013932633169077,0.0013932633169076,-0.0013932633169076,0.0013932633169077,0.412661795596,0.45157405799106,1270536,32768,0.0058860566822809,0.0058860566822811,0.0058860566822811,37.101923271167,37.095701652072,0.00021201538616933,0.00021201538616933,0.00021201538616933,601356.51678772,0.017815223423784
12009600,0.99514852325248,0.017034246968122,0.0056780823227073,0.0056780823227074,0.0056780823227074,-0.0014170969239195,0.0014170969239194,-5.7946759178048e-17,-1.6867131779526e-17,3.5484945371041e-16,-4.3414850176717e-16,-0.0014512022683128,0.001451202268313,-0.0014512022683128,0.001451202268313,-0.0014512022683131,0.0014512022683127,-0.0014512022683131,0.0014512022683127,-0.0013935645929431,0.0013935645929427,-0.0013935645929431,0.0013935645929427,-3.4741585727227e-16,4.4833189200374e-16,4.0807576885949e-17,5.8630561817759e-17,-0.0014170969239194,0.0014170969239195,-0.001451202268313,0.0014512022683128,-0.001451202268313,0.0014512022683128,-0.0014512022683128,0.0014512022683131,-0.0014512022683128,0.0014512022683131,-0.0013935645929428,0.0013935645929431,-0.0013935645929428,0.0013935645929432,-0.0013935645929433,0.0013935645929427,-0.0013935645929425,0.0013935645929434,2.9043230396306e-18,-3.4425418915318e-17,-0.0014170969239195,0.0014170969239195,-6.3527471044073e-18,-2.4161026603104e-17,-0.0014512022683129,0.0014512022683129,-0.0014512022683129,0.0014512022683129,-0.0014512022683129,0.0014512022683129,-0.0014512022683129,0.0014512022683129,-0.001393564592943,0.001393564592943,-0.001393564592943,0.001393564592943,0.4239850608976,0.48874379548415,1270536,32768,0.0058871615413583,0.0058871615413585,0.0058871615413585,37.033449284937,37.028705240894,0.00021146759427949,0.00021146759427949,0.00021146759427949,592521.25718357,0.017818597503326
12096000,0.99541878905888,0.017037182579269,0.0056790608597563,0.0056790608597565,0.0056790608597565,-0.0014174029755155,0.0014174029755154,-5.4086582986134e-17,-1.2977544721388e-17,3.5846699025598e-16,-4.305309652216e-16,-0.0014514635116517,0.0014514635116519,-0.0014514635116517,0.0014514635116519,-0.001451463511652,0.0014514635116517,-0.001451463511652,0.0014514635116517,-0.001393904159483,0.0013939041594826,-0.001393904159483,0.0013939041594827,-3.4766584963518e-16,4.4788337629382e-16,4.0028188931011e-17,5.7880584729044e-17,-0.0014174029755155,0.0014174029755156,-0.0014514635116519,0.0014514635116518,-0.0014514635116519,0.0014514635116518,-0.0014514635116517,0.001451463511652,-0.0014514635116517,0.001451463511652,-0.0013939041594827,0.001393904159483,-0.0013939041594827,0.0013939041594831,-0.0013939041594832,0.0013939041594826,-0.0013939041594825,0.0013939041594833,1.8896481548989e-18,-3.5337155768265e-17,-0.0014174029755155,0.0014174029755155,-7.1909567917943e-18,-2.5646275347422e-17,-0.0014514635116518,0.0014514635116518,-0.0014514635116519,0.0014514635116519,-0.0014514635116519,0.0014514635116518,-0.0014514635116519,0.0014514635116518,-0.001393904159483,0.0013939041594829,-0.0013939041594829,0.0013939041594829,0.43697944550552,0.52591353297724,1270536,32768,0.0058884291829586,0.0058884291829588,0.0058884291829588,36.983796602161,36.980347930741,0.00021107037281729,0.00021107037281729,0.00021107037281729,583060.04612266,0.017822468679577
12182400,0.99567338670843,0.017040039326796,0.005680013108932,0.0056800131089322,0.0056800131089322,-0.0014177061127525,0.0014177061127524,-5.8689383550207e-17,-1.7484759970232e-17,3.5390095327469e-16,-4.3495730058833e-16,-0.0014517231242702,0.0014517231242704,-0.0014517231242702,0.0014517231242704,-0.0014517231242705,0.0014517231242701,-0.0014517231242705,0.0014517231242701,-0.0013942378613627,0.0013942378613623,-0.0013942378613627,0.0013942378613624,-3.4763643876895e-16,4.4807454692428e-16,3.9895840033002e-17,5.7909995595268e-17,-0.0014177061127524,0.0014177061127525,-0.0014517231242704,0.0014517231242703,-0.0014517231242704,0.0014517231242703,-0.0014517231242702,0.0014517231242705,-0.0014517231242702,0.0014517231242705,-0.0013942378613625,0.0013942378613628,-0.0013942378613625,0.0013942378613628,-0.001394237861363,0.0013942378613623,-0.0013942378613622,0.0013942378613631,5.4483629680159e-18,-3.1940200719381e-17,-0.0014177061127525,0.0014177061127525,-3.1910789853157e-18,-2.1219939980694e-17,-0.0014517231242703,0.0014517231242703,-0.0014517231242704,0.0014517231242703,-0.0014517231242703,0.0014517231242703,-0.0014517231242704,0.0014517231242703,-0.0013942378613627,0.0013942378613626,-0.0013942378613626,0.0013942378613627,0.45135804830608,0.56308327047033,1270536,32768,0.0058896847382668,0.005889684738267,0.005889684738267,36.935316035159,36.931990620589,0.00021068252828127,0.00021068252828127,0.00021068252828127,573344.43243135,0.017826302982373
12268800,0.9959132572774,0.01704281776812,0.0056809392560398,0.00568093925604,0.00568093925604,-0.0014180004177503,0.0014180004177502,-5.7807057563484e-17,-1.6653902999401e-17,3.5437887985083e-16,-4.3420732349961e-16,-0.0014519763581031,0.0014519763581033,-0.0014519763581031,0.0014519763581033,-0.0014519763581034,0.0014519763581031,-0.0014519763581034,0.0014519763581031,-0.0013945597683393,0.0013945597683389,-0.0013945597683393,0.001394559768339,-3.4962167223908e-16,4.4575108849258e-16,3.8292947823788e-17,5.6380630551614e-17,-0.0014180004177502,0.0014180004177503,-0.0014519763581033,0.0014519763581032,-0.0014519763581034,0.0014519763581032,-0.0014519763581031,0.0014519763581034,-0.0014519763581031,0.0014519763581034,-0.001394559768339,0.0013945597683393,-0.001394559768339,0.0013945597683394,-0.0013945597683395,0.0013945597683389,-0.0013945597683388,0.0013945597683396,6.4483324196356e-18,-3.0793176936641e-17,-0.0014180004177503,0.0014180004177503,-2.3528692979286e-18,-2.0675838955548e-17,-0.0014519763581033,0.0014519763581033,-0.0014519763581033,0.0014519763581033,-0.0014519763581033,0.0014519763581032,-0.0014519763581033,0.0014519763581032,-0.0013945597683392,0.0013945597683392,-0.0013945597683392,0.0013945597683392,0.4658844178647,0.59448294252411,1270536,32768,0.0058909037001226,0.0058909037001228,0.0058909037001228,36.886945848463,36.883633310436,0.00021029556678771,0.00021029556678771,0.00021029556678771,563524.39248759,0.017830025561215
12355200,0.99613928242029,0.017045446815549,0.0056818156051829,0.005681815605183,0.005681815605183,-0.0014182613475645,0.0014182613475644,-5.8759234357489e-17,-1.7874453947701e-17,3.5363625547867e-16,-4.3500141688766e-16,-0.0014522065935268,0.001452206593527,-0.0014522065935268,0.001452206593527,-0.0014522065935271,0.0014522065935267,-0.0014522065935271,0.0014522065935267,-0.0013948384820636,0.0013948384820632,-0.0013948384820636,0.0013948384820633,-3.4779819853319e-16,4.4776573282893e-16,3.9947309048894e-17,5.7792352130372e-17,-0.0014182613475645,0.0014182613475646,-0.001452206593527,0.0014522065935269,-0.001452206593527,0.0014522065935269,-0.0014522065935268,0.0014522065935271,-0.0014522065935268,0.0014522065935271,-0.0013948384820633,0.0013948384820636,-0.0013948384820633,0.0013948384820637,-0.0013948384820638,0.0013948384820632,-0.0013948384820631,0.0013948384820639,6.6395030500923e-18,-3.0469657408176e-17,-0.0014182613475645,0.0014182613475645,-2.2793421323683e-18,-2.0293497694634e-17,-0.0014522065935269,0.0014522065935269,-0.001452206593527,0.0014522065935269,-0.0014522065935269,0.0014522065935269,-0.001452206593527,0.0014522065935269,-0.0013948384820636,0.0013948384820635,-0.0013948384820635,0.0013948384820635,0.46778080709018,0.5528617812204,1270536,32768,0.0058919844053588,0.005891984405359,0.005891984405359,36.838586777537,36.835276000283,0.00020990869422029,0.00020990869422029,0.00020990869422029,554412.12266331,0.017833325975756
12441600,0.99635228940459,0.017047789821422,0.0056825966071407,0.0056825966071408,0.0056825966071408,-0.0014182790145577,0.0014182790145576,-5.886952510583e-17,-1.7734752333137e-17,3.5357743374622e-16,-4.3486906798966e-16,-0.0014522741763166,0.0014522741763168,-0.0014522741763166,0.0014522741763168,-0.0014522741763169,0.0014522741763165,-0.0014522741763169,0.0014522741763165,-0.0013948018505481,0.0013948018505477,-0.0013948018505481,0.0013948018505478,-3.4810701262854e-16,4.4745691873357e-16,3.9800254717774e-17,5.7454127168794e-17,-0.0014182790145576,0.0014182790145577,-0.0014522741763168,0.0014522741763166,-0.0014522741763168,0.0014522741763166,-0.0014522741763166,0.0014522741763169,-0.0014522741763166,0.0014522741763169,-0.0013948018505479,0.0013948018505482,-0.0013948018505479,0.0013948018505482,-0.0013948018505484,0.0013948018505477,-0.0013948018505476,0.0013948018505485,6.4850960024157e-18,-3.0881409535313e-17,-0.0014182790145577,0.0014182790145577,-2.6028616608335e-18,-2.0528784624427e-17,-0.0014522741763167,0.0014522741763167,-0.0014522741763167,0.0014522741763167,-0.0014522741763167,0.0014522741763167,-0.0014522741763168,0.0014522741763167,-0.0013948018505481,0.001394801850548,-0.0013948018505481,0.0013948018505481,0.44230413562357,0.38766121643206,1270536,32768,0.0058920574763046,0.0058920574763047,0.0058920574763047,36.790228844422,36.78691869013,0.00020952183075537,0.00020952183075537,0.00020952183075537,553862.58990902,0.017833549181984
12528000,0.9965530546363,0.017050007288716,0.0056833357629053,0.0056833357629055,0.0056833357629055,-0.0014178348994135,0.0014178348994134,-5.9729792942885e-17,-1.861707831986e-17,3.5291568925618e-16,-4.3583962657505e-16,-0.0014520321808131,0.0014520321808133,-0.0014520321808131,0.0014520321808133,-0.0014520321808133,0.001452032180813,-0.0014520321808133,0.001452032180813,-0.0013941782570245,0.0013941782570241,-0.0013941782570245,0.0013941782570241,-3.4943050160862e-16,4.4603784443826e-16,3.8903223297938e-17,5.5865940392693e-17,-0.0014178348994135,0.0014178348994136,-0.0014520321808133,0.0014520321808131,-0.0014520321808133,0.0014520321808131,-0.001452032180813,0.0014520321808134,-0.001452032180813,0.0014520321808134,-0.0013941782570242,0.0013941782570245,-0.0013941782570242,0.0013941782570246,-0.0013941782570247,0.0013941782570241,-0.001394178257024,0.0013941782570248,6.1395183242825e-18,-3.1351983394899e-17,-0.0014178348994135,0.0014178348994135,-4.0145832395907e-18,-2.0911125885341e-17,-0.0014520321808132,0.0014520321808132,-0.0014520321808132,0.0014520321808132,-0.0014520321808132,0.0014520321808132,-0.0014520321808132,0.0014520321808132,-0.0013941782570244,0.0013941782570244,-0.0013941782570244,0.0013941782570244,0.44413242668506,0.44416568327059,1270536,32768,0.0058902178565367,0.0058902178565369,0.0058902178565369,36.741871028294,36.738561379977,0.00020913496822635,0.00020913496822635,0.00020913496822635,571050.11105071,0.017827930917779
12614400,0.99674230686181,0.017052004740528,0.005684001580176,0.0056840015801762,0.0056840015801762,-0.001417979459816,0.0014179794598159,-5.9123193827012e-17,-1.8021508278822e-17,3.5368037177801e-16,-4.3526611468368e-16,-0.0014521632335523,0.0014521632335525,-0.0014521632335523,0.0014521632335525,-0.0014521632335526,0.0014521632335522,-0.0014521632335525,0.0014521632335522,-0.0013943644338518,0.0013943644338514,-0.0013943644338518,0.0013943644338515,-3.497687265702e-16,4.4594225912303e-16,3.8903223297938e-17,5.5218901335762e-17,-0.001417979459816,0.0014179794598161,-0.0014521632335525,0.0014521632335523,-0.0014521632335525,0.0014521632335523,-0.0014521632335522,0.0014521632335526,-0.0014521632335522,0.0014521632335526,-0.0013943644338516,0.0013943644338519,-0.0013943644338516,0.0013943644338519,-0.0013943644338521,0.0013943644338514,-0.0013943644338513,0.0013943644338522,6.6909720659845e-18,-3.057259543996e-17,-0.001417979459816,0.001417979459816,-2.7940322912902e-18,-1.961704777148e-17,-0.0014521632335524,0.0014521632335524,-0.0014521632335524,0.0014521632335524,-0.0014521632335524,0.0014521632335524,-0.0014521632335524,0.0014521632335524,-0.0013943644338518,0.0013943644338517,-0.0013943644338517,0.0013943644338518,0.42447728674109,0.34134742341345,1270536,32768,0.0058908167386166,0.0058908167386167,0.0058908167386167,36.693513224225,36.690204069824,0.0002087481057938,0.0002087481057938,0.0002087481057938,565901.66993943,0.017829759690777
12700800,0.9969207302095,0.0170538701843,0.0056846233947665,0.0056846233947667,0.0056846233947667,-0.0014176685045077,0.0014176685045076,-5.8384245813132e-17,-1.7249473040439e-17,3.5356272831311e-16,-4.3458966476053e-16,-0.001451984410832,0.0014519844108322,-0.001451984410832,0.0014519844108322,-0.0014519844108322,0.0014519844108319,-0.0014519844108322,0.0014519844108319,-0.0013939457171897,0.0013939457171893,-0.0013939457171897,0.0013939457171894,-3.5020988956356e-16,4.4463347557606e-16,3.7403269120509e-17,5.4174815584806e-17,-0.0014176685045076,0.0014176685045077,-0.0014519844108322,0.001451984410832,-0.0014519844108322,0.001451984410832,-0.0014519844108319,0.0014519844108323,-0.0014519844108319,0.0014519844108323,-0.0013939457171895,0.0013939457171898,-0.0013939457171895,0.0013939457171898,-0.00139394571719,0.0013939457171893,-0.0013939457171892,0.0013939457171901,6.7056774990966e-18,-3.0602006306184e-17,-0.0014176685045077,0.0014176685045077,-2.72050512573e-18,-1.9749396669488e-17,-0.0014519844108321,0.0014519844108321,-0.0014519844108321,0.0014519844108321,-0.0014519844108321,0.0014519844108321,-0.0014519844108321,0.0014519844108321,-0.0013939457171897,0.0013939457171896,-0.0013939457171897,0.0013939457171897,0.42046828823614,0.36632788116199,1270536,32768,0.0058895287499293,0.0058895287499295,0.0058895287499295,36.645155421416,36.641846759671,0.00020836124337132,0.00020836124337132,0.00020836124337132,577939.39082281,0.017825826060828
12787200,0.9970880663338,0.017055607979175,0.0056852026597249,0.0056852026597251,0.0056852026597251,-0.0014175250059559,0.0014175250059559,-5.5836529526468e-17,-1.4558378780933e-17,3.559891247766e-16,-4.3136917490899e-16,-0.0014518416033868,0.001451841603387,-0.0014518416033868,0.001451841603387,-0.0014518416033871,0.0014518416033867,-0.001451841603387,0.0014518416033867,-0.0013938259566053,0.0013938259566049,-0.0013938259566053,0.001393825956605,-3.4944520704174e-16,4.4446436309527e-16,3.8248831524452e-17,5.4924792673521e-17,-0.0014175250059559,0.001417525005956,-0.001451841603387,0.0014518416033868,-0.001451841603387,0.0014518416033868,-0.0014518416033867,0.0014518416033871,-0.0014518416033867,0.0014518416033871,-0.001393825956605,0.0013938259566054,-0.001393825956605,0.0013938259566054,-0.0013938259566055,0.0013938259566049,-0.0013938259566048,0.0013938259566057,5.5586537163564e-18,-3.1984317018717e-17,-0.001417525005956,0.0014175250059559,-3.823412609134e-18,-2.0955242184677e-17,-0.0014518416033869,0.0014518416033869,-0.0014518416033869,0.0014518416033869,-0.0014518416033869,0.0014518416033869,-0.0014518416033869,0.0014518416033869,-0.0013938259566053,0.0013938259566052,-0.0013938259566052,0.0013938259566052,0.41770830080179,0.37449136351002,1270536,32768,0.0058889344440824,0.0058889344440826,0.0058889344440826,36.495996582481,36.486035919083,0.00020716797265985,0.00020716797265985,0.00020716797265985,576400.07273644,0.017824011284743
12873600,0.99724441753626,0.017057226475883,0.0056857421586276,0.0056857421586277,0.0056857421586277,-0.0014172197335314,0.0014172197335313,-5.622254714566e-17,-1.4756902127946e-17,3.5526855855411e-16,-4.3132505860965e-16,-0.0014515327173472,0.0014515327173474,-0.0014515327173472,0.0014515327173474,-0.0014515327173475,0.0014515327173472,-0.0014515327173475,0.0014515327173472,-0.0013935350884141,0.0013935350884137,-0.0013935350884141,0.0013935350884138,-3.4651882585244e-16,4.4667017806208e-16,4.0645817121717e-17,5.7615886933027e-17,-0.0014172197335313,0.0014172197335314,-0.0014515327173474,0.0014515327173473,-0.0014515327173475,0.0014515327173473,-0.0014515327173472,0.0014515327173475,-0.0014515327173472,0.0014515327173475,-0.0013935350884138,0.0013935350884141,-0.0013935350884138,0.0013935350884142,-0.0013935350884143,0.0013935350884137,-0.0013935350884136,0.0013935350884144,5.9042313944896e-18,-3.1690208356476e-17,-0.0014172197335314,0.0014172197335314,-4.2939864687197e-18,-2.1425816044262e-17,-0.0014515327173474,0.0014515327173474,-0.0014515327173474,0.0014515327173474,-0.0014515327173474,0.0014515327173473,-0.0014515327173474,0.0014515327173473,-0.0013935350884141,0.001393535088414,-0.001393535088414,0.001393535088414,0.41636160152651,0.38265484585804,1270536,32768,0.0058876699902953,0.0058876699902955,0.0058876699902955,36.268552585907,36.25320763594,0.00020534842068726,0.00020534842068726,0.00020534842068726,574911.72661051,0.017820150287795
12960000,0.99739056215144,0.017058738106356,0.0056862460354518,0.005686246035452,0.005686246035452,-0.0014169118776839,0.0014169118776838,-5.8792321581991e-17,-1.7131829575543e-17,3.5366566634489e-16,-4.3372204420692e-16,-0.0014512134353741,0.0014512134353743,-0.0014512134353741,0.0014512134353743,-0.0014512134353743,0.001451213435374,-0.0014512134353743,0.001451213435374,-0.0013932421559354,0.001393242155935,-0.0013932421559354,0.0013932421559351,-3.4271011867641e-16,4.5114062972814e-16,4.4844218275208e-17,6.1630470172618e-17,-0.0014169118776838,0.0014169118776839,-0.0014512134353743,0.0014512134353741,-0.0014512134353743,0.0014512134353741,-0.001451213435374,0.0014512134353744,-0.001451213435374,0.0014512134353744,-0.0013932421559352,0.0013932421559355,-0.0013932421559352,0.0013932421559355,-0.0013932421559357,0.001393242155935,-0.0013932421559349,0.0013932421559358,7.3086002566908e-18,-3.0337308510167e-17,-0.0014169118776839,0.0014169118776839,-1.7793574065585e-18,-1.9234706510566e-17,-0.0014512134353742,0.0014512134353742,-0.0014512134353742,0.0014512134353742,-0.0014512134353742,0.0014512134353742,-0.0014512134353742,0.0014512134353742,-0.0013932421559354,0.0013932421559353,-0.0013932421559353,0.0013932421559354,0.41602604393231,0.39081832820607,1270536,32768,0.0058863948178198,0.00588639481782,0.00588639481782,36.036223816272,36.020379352797,0.00020348979053017,0.00020348979053017,0.00020348979053017,572803.64004561,0.017816256600842
13046400,0.99752725344753,0.017060153453915,0.0056867178179715,0.0056867178179716,0.0056867178179716,-0.0014166042055344,0.0014166042055344,-5.5700504270182e-17,-1.4168684803464e-17,3.5598177206004e-16,-4.3120741514475e-16,-0.0014508916582989,0.0014508916582991,-0.0014508916582989,0.0014508916582991,-0.0014508916582992,0.0014508916582989,-0.0014508916582992,0.0014508916582989,-0.0013929480533761,0.0013929480533757,-0.0013929480533761,0.0013929480533758,-3.4528356947102e-16,4.4850100448453e-16,4.1675197439561e-17,5.8968786779336e-17,-0.0014166042055344,0.0014166042055345,-0.0014508916582992,0.001450891658299,-0.0014508916582992,0.001450891658299,-0.0014508916582989,0.0014508916582992,-0.0014508916582989,0.0014508916582993,-0.0013929480533758,0.0013929480533761,-0.0013929480533758,0.0013929480533762,-0.0013929480533763,0.0013929480533757,-0.0013929480533756,0.0013929480533765,5.8086460792613e-18,-3.1837262687597e-17,-0.0014166042055344,0.0014166042055344,-3.0881409535313e-18,-2.1014063917125e-17,-0.0014508916582991,0.0014508916582991,-0.0014508916582991,0.0014508916582991,-0.0014508916582991,0.0014508916582991,-0.0014508916582991,0.001450891658299,-0.0013929480533761,0.001392948053376,-0.001392948053376,0.001392948053376,0.41646052644367,0.39898181055409,1270536,32768,0.0058851203888015,0.0058851203888016,0.0058851203888016,35.80343554932,35.787551069655,0.00020162748439456,0.00020162748439456,0.00020162748439456,570368.58739548,0.017812365236319
13132800,0.99765518647164,0.017061481475835,0.0056871604919451,0.0056871604919452,0.0056871604919452,-0.0014162946352313,0.0014162946352312,-5.3770416174225e-17,-1.1727582906863e-17,3.5793024194739e-16,-4.2853102631836e-16,-0.0014505672301525,0.0014505672301527,-0.0014505672301525,0.0014505672301527,-0.0014505672301528,0.0014505672301525,-0.0014505672301528,0.0014505672301525,-0.0013926505335171,0.0013926505335167,-0.0013926505335171,0.0013926505335168,-3.4713645404314e-16,4.4585402652436e-16,3.9314975425076e-17,5.6689444646968e-17,-0.0014162946352313,0.0014162946352314,-0.0014505672301528,0.0014505672301526,-0.0014505672301528,0.0014505672301526,-0.0014505672301525,0.0014505672301528,-0.0014505672301525,0.0014505672301529,-0.0013926505335168,0.0013926505335171,-0.0013926505335168,0.0013926505335172,-0.0013926505335173,0.0013926505335167,-0.0013926505335166,0.0013926505335174,6.2571617891789e-18,-3.1557859458468e-17,-0.0014162946352313,0.0014162946352313,-2.9704974886349e-18,-2.0631722656212e-17,-0.0014505672301527,0.0014505672301527,-0.0014505672301527,0.0014505672301527,-0.0014505672301527,0.0014505672301526,-0.0014505672301527,0.0014505672301527,-0.0013926505335171,0.001392650533517,-0.001392650533517,0.001392650533517,0.41750880666346,0.40714529290212,1270536,32768,0.0058838380834654,0.0058838380834656,0.0058838380834656,35.570601108496,35.554722786512,0.00019976480886797,0.00019976480886797,0.00019976480886797,567730.59957775,0.017808449866164
13219200,0.99777500013046,0.017062729873713,0.0056875766245708,0.0056875766245709,0.0056875766245709,-0.0014159817590394,0.0014159817590394,-5.8829085164771e-17,-1.7131829575543e-17,3.5265099146016e-16,-4.3381027680559e-16,-0.0014502396763958,0.001450239676396,-0.0014502396763958,0.001450239676396,-0.0014502396763961,0.0014502396763957,-0.0014502396763961,0.0014502396763958,-0.0013923483191444,0.001392348319144,-0.0013923483191444,0.0013923483191441,-3.4384243702604e-16,4.4903775279312e-16,4.2983980986533e-17,5.9968756230956e-17,-0.0014159817590394,0.0014159817590395,-0.001450239676396,0.0014502396763959,-0.001450239676396,0.0014502396763959,-0.0014502396763958,0.0014502396763961,-0.0014502396763958,0.0014502396763961,-0.0013923483191442,0.0013923483191445,-0.0013923483191442,0.0013923483191445,-0.0013923483191446,0.001392348319144,-0.0013923483191439,0.0013923483191448,4.1836957203793e-18,-3.3528387495483e-17,-0.0014159817590395,0.0014159817590394,-5.3380722196755e-18,-2.2866948489244e-17,-0.0014502396763959,0.0014502396763959,-0.001450239676396,0.0014502396763959,-0.0014502396763959,0.0014502396763959,-0.001450239676396,0.0014502396763959,-0.0013923483191444,0.0013923483191443,-0.0013923483191443,0.0013923483191444,0.41906317161689,0.41530877525015,1270536,32768,0.0058825420736678,0.005882542073668,0.005882542073668,35.337761956345,35.32189450337,0.00019790209565076,0.00019790209565076,0.00019790209565076,564956.7030143,0.017804492687343
13305600,0.99788728184379,0.017063898456212,0.0056879661520707,0.0056879661520709,0.0056879661520709,-0.0014156642589949,0.0014156642589949,-5.9623178552822e-17,-1.7852395798033e-17,3.5229806106547e-16,-4.3351616814335e-16,-0.0014499083253298,0.00144990832533,-0.0014499083253298,0.00144990832533,-0.00144990832533,0.0014499083253297,-0.00144990832533,0.0014499083253297,-0.0013920400749613,0.0013920400749609,-0.0013920400749612,0.0013920400749609,-3.4848935388945e-16,4.4415554899992e-16,3.7388563687397e-17,5.4983614405969e-17,-0.0014156642589949,0.001415664258995,-0.00144990832533,0.0014499083253298,-0.00144990832533,0.0014499083253298,-0.0014499083253297,0.0014499083253301,-0.0014499083253297,0.0014499083253301,-0.001392040074961,0.0013920400749613,-0.001392040074961,0.0013920400749613,-0.0013920400749615,0.0013920400749608,-0.0013920400749607,0.0013920400749616,4.095463121707e-18,-3.3704852692827e-17,-0.001415664258995,0.0014156642589949,-5.3233667865635e-18,-2.3352227781941e-17,-0.0014499083253299,0.0014499083253299,-0.0014499083253299,0.0014499083253299,-0.0014499083253299,0.0014499083253299,-0.0014499083253299,0.0014499083253299,-0.0013920400749612,0.0013920400749611,-0.0013920400749612,0.0013920400749612,0.41857179953886,0.40983348306016,1270536,32768,0.0058812269016223,0.0058812269016224,0.0058812269016224,35.104922323465,35.089066220227,0.00019603937858772,0.00019603937858772,0.00019603937858772,562094.62757619,0.017800477033174
13392000,0.99799257201947,0.017064983670701,0.0056883278902335,0.0056883278902337,0.0056883278902337,-0.0014152957825178,0.0014152957825178,-5.2755741289493e-17,-1.1595234008854e-17,3.5827581962552e-16,-4.2800163072633e-16,-0.0014495425216135,0.0014495425216137,-0.0014495425216135,0.0014495425216137,-0.0014495425216138,0.0014495425216134,-0.0014495425216138,0.0014495425216134,-0.0013916658242537,0.0013916658242533,-0.0013916658242537,0.0013916658242534,-3.459894302604e-16,4.4696428672432e-16,4.1484026809104e-17,5.8365864021742e-17,-0.0014152957825178,0.0014152957825179,-0.0014495425216137,0.0014495425216136,-0.0014495425216137,0.0014495425216136,-0.0014495425216135,0.0014495425216138,-0.0014495425216135,0.0014495425216138,-0.0013916658242535,0.0013916658242538,-0.0013916658242535,0.0013916658242538,-0.0013916658242539,0.0013916658242533,-0.0013916658242532,0.0013916658242541,3.264606150876e-18,-3.444012434843e-17,-0.0014152957825179,0.0014152957825178,-5.455715684572e-18,-2.2469901795218e-17,-0.0014495425216136,0.0014495425216136,-0.0014495425216137,0.0014495425216136,-0.0014495425216136,0.0014495425216136,-0.0014495425216137,0.0014495425216136,-0.0013916658242537,0.0013916658242536,-0.0013916658242536,0.0013916658242537,0.41450670286381,0.38837101080074,1270536,32768,0.0058797005695307,0.0058797005695309,0.0058797005695309,34.872082643312,34.856237937084,0.00019417666114649,0.00019417666114649,0.00019417666114649,560938.41853284,0.017795816559975
13478400,0.99809136813366,0.017065987909046,0.0056886626363484,0.0056886626363486,0.0056886626363486,-0.0014148584796393,0.0014148584796392,-5.6715179154914e-17,-1.5315708586204e-17,3.5508474064021e-16,-4.3167798900434e-16,-0.001449129739607,0.0014491297396071,-0.001449129739607,0.0014491297396071,-0.0014491297396072,0.0014491297396069,-0.0014491297396072,0.0014491297396069,-0.0013912053164735,0.0013912053164731,-0.0013912053164735,0.0013912053164732,-3.4535709663658e-16,4.4828777570441e-16,4.199136425147e-17,5.8204104257509e-17,-0.0014148584796392,0.0014148584796393,-0.0014491297396072,0.001449129739607,-0.0014491297396072,0.001449129739607,-0.0014491297396069,0.0014491297396072,-0.0014491297396069,0.0014491297396073,-0.0013912053164732,0.0013912053164736,-0.0013912053164732,0.0013912053164736,-0.0013912053164737,0.0013912053164731,-0.001391205316473,0.0013912053164739,7.2424258076865e-18,-3.0322603077055e-17,-0.0014148584796393,0.0014148584796393,-2.4411018966009e-18,-1.8984714147662e-17,-0.0014491297396071,0.0014491297396071,-0.0014491297396071,0.0014491297396071,-0.0014491297396071,0.0014491297396071,-0.0014491297396071,0.0014491297396071,-0.0013912053164735,0.0013912053164734,-0.0013912053164734,0.0013912053164734,0.40878378333568,0.36690853854131,1270536,32768,0.0058778891524171,0.0058778891524173,0.0058778891524173,34.639242960329,34.623409653942,0.00019231394368263,0.00019231394368263,0.00019231394368263,562274.18074773,0.017790285494409
13564800,0.99818436184458,0.017066921768612,0.0056889739228706,0.0056889739228708,0.0056889739228708,-0.0014144887928784,0.0014144887928783,-5.4016732178852e-17,-1.249226542869e-17,3.5809935442818e-16,-4.2885454584683e-16,-0.0014487879621947,0.0014487879621949,-0.0014487879621947,0.0014487879621949,-0.0014487879621949,0.0014487879621946,-0.0014487879621949,0.0014487879621946,-0.0013908130104749,0.0013908130104745,-0.0013908130104749,0.0013908130104746,-3.4734233010671e-16,4.4600843357204e-16,4.041788290848e-17,5.6410041417839e-17,-0.0014144887928783,0.0014144887928784,-0.0014487879621949,0.0014487879621947,-0.0014487879621949,0.0014487879621947,-0.0014487879621946,0.001448787962195,-0.0014487879621946,0.001448787962195,-0.0013908130104747,0.001390813010475,-0.0013908130104747,0.001390813010475,-0.0013908130104752,0.0013908130104745,-0.0013908130104744,0.0013908130104753,4.6616222965211e-18,-3.3131340801457e-17,-0.0014144887928784,0.0014144887928784,-5.5145374170202e-18,-2.1822862738288e-17,-0.0014487879621948,0.0014487879621948,-0.0014487879621948,0.0014487879621948,-0.0014487879621948,0.0014487879621948,-0.0014487879621948,0.0014487879621948,-0.0013908130104749,0.0013908130104748,-0.0013908130104749,0.0013908130104749,0.40386344252009,0.35653166287173,1270536,32768,0.0058763578407357,0.0058763578407358,0.0058763578407358,34.452681061769,34.439893091613,0.00019082144849415,0.00019082144849415,0.00019082144849415,564366.76866786,0.017785609631759
13651200,0.99827209517228,0.017067797568423,0.0056892658561409,0.005689265856141,0.005689265856141,-0.0014142082957973,0.0014142082957972,-5.8523947427696e-17,-1.7146535008655e-17,3.5356272831311e-16,-4.3342793554467e-16,-0.0014485236094798,0.0014485236094799,-0.0014485236094798,0.0014485236094799,-0.00144852360948,0.0014485236094797,-0.00144852360948,0.0014485236094797,-0.0013905228536387,0.0013905228536383,-0.0013905228536386,0.0013905228536383,-3.5029812216223e-16,4.4349380450988e-16,3.766061419997e-17,5.3145435266963e-17,-0.0014142082957973,0.0014142082957974,-0.00144852360948,0.0014485236094798,-0.00144852360948,0.0014485236094798,-0.0014485236094797,0.00144852360948,-0.0014485236094797,0.0014485236094801,-0.0013905228536384,0.0013905228536387,-0.0013905228536384,0.0013905228536387,-0.0013905228536389,0.0013905228536382,-0.0013905228536381,0.001390522853639,7.9924028964013e-18,-2.9557920555228e-17,-0.0014142082957973,0.0014142082957973,-2.455807329713e-18,-1.8396496823179e-17,-0.0014485236094799,0.0014485236094799,-0.0014485236094799,0.0014485236094799,-0.0014485236094799,0.0014485236094799,-0.0014485236094799,0.0014485236094799,-0.0013905228536386,0.0013905228536385,-0.0013905228536386,0.0013905228536386,0.40147864666091,0.36076519790321,1270536,32768,0.0058751959852271,0.0058751959852273,0.0058751959852273,34.299198612369,34.288689134044,0.00018959358889895,0.00018959358889895,0.00018959358889895,565499.37957441,0.017782061908333
13737600,0.99835490871992,0.017068621240346,0.0056895404134485,0.0056895404134487,0.0056895404134487,-0.0014139819430631,0.001413981943063,-5.4682153027172e-17,-1.3506940313421e-17,3.5734937733946e-16,-4.3008980222824e-16,-0.0014482942298017,0.0014482942298019,-0.0014482942298017,0.0014482942298019,-0.001448294229802,0.0014482942298017,-0.001448294229802,0.0014482942298017,-0.0013903036352664,0.001390303635266,-0.0013903036352664,0.0013903036352661,-3.4804819089609e-16,4.4598637542237e-16,4.049141007404e-17,5.627769251983e-17,-0.001413981943063,0.0014139819430631,-0.0014482942298019,0.0014482942298018,-0.001448294229802,0.0014482942298018,-0.0014482942298017,0.001448294229802,-0.0014482942298017,0.001448294229802,-0.0013903036352662,0.0013903036352665,-0.0013903036352662,0.0013903036352665,-0.0013903036352667,0.001390303635266,-0.0013903036352659,0.0013903036352668,3.8087071760219e-18,-3.386661245706e-17,-0.0014139819430631,0.001413981943063,-5.9557004103818e-18,-2.226402573165e-17,-0.0014482942298019,0.0014482942298019,-0.0014482942298019,0.0014482942298019,-0.0014482942298019,0.0014482942298018,-0.0014482942298019,0.0014482942298018,-0.0013903036352664,0.0013903036352663,-0.0013903036352663,0.0013903036352664,0.40002225375328,0.3649987329347,1270536,32768,0.005874258402242,0.0058742584022421,0.0058742584022421,34.147775596323,34.137485176475,0.00018838220477059,0.00018838220477059,0.00018838220477059,564674.32980118,0.017779199101972
13824000,0.9984331104073,0.017069397398121,0.0056897991327068,0.005689799132707,0.005689799132707,-0.0014137639066017,0.0014137639066017,-5.5597566238398e-17,-1.4403971733257e-17,3.5634940788784e-16,-4.3094271734874e-16,-0.0014480688316879,0.001448068831688,-0.0014480688316879,0.001448068831688,-0.0014480688316881,0.0014480688316878,-0.0014480688316881,0.0014480688316878,-0.0013900937848985,0.0013900937848981,-0.0013900937848985,0.0013900937848982,-3.4784231483252e-16,4.4619225148594e-16,4.0189948695243e-17,5.6071816456261e-17,-0.0014137639066017,0.0014137639066018,-0.0014480688316881,0.0014480688316879,-0.0014480688316881,0.0014480688316879,-0.0014480688316878,0.0014480688316881,-0.0014480688316878,0.0014480688316882,-0.0013900937848982,0.0013900937848985,-0.0013900937848982,0.0013900937848986,-0.0013900937848987,0.0013900937848981,-0.001390093784898,0.0013900937848989,2.5734507946094e-18,-3.4807760176231e-17,-0.0014137639066017,0.0014137639066017,-7.4703600209233e-18,-2.3763979909079e-17,-0.001448068831688,0.001448068831688,-0.001448068831688,0.001448068831688,-0.001448068831688,0.001448068831688,-0.001448068831688,0.001448068831688,-0.0013900937848985,0.0013900937848984,-0.0013900937848984,0.0013900937848984,0.39917545765037,0.36923226796619,1270536,32768,0.0058733552536239,0.0058733552536241,0.0058733552536241,33.996545378167,33.986281218906,0.00018717236302533,0.00018717236302533,0.00018717236302533,563418.44215972,0.017776441485164
13910400,0.99850698639761,0.017070129901268,0.0056900433004225,0.0056900433004226,0.0056900433004226,-0.0014135481171815,0.0014135481171814,-5.8303365931015e-17,-1.7168593158323e-17,3.5348184843099e-16,-4.3381027680559e-16,-0.0014478441472223,0.0014478441472224,-0.0014478441472223,0.0014478441472224,-0.0014478441472225,0.0014478441472222,-0.0014478441472225,0.0014478441472222,-0.0013898857318249,0.0013898857318245,-0.0013898857318249,0.0013898857318246,-3.4938638530929e-16,4.4482464620652e-16,3.8359122272792e-17,5.3910117788789e-17,-0.0014135481171814,0.0014135481171815,-0.0014478441472225,0.0014478441472223,-0.0014478441472225,0.0014478441472223,-0.0014478441472222,0.0014478441472226,-0.0014478441472222,0.0014478441472226,-0.0013898857318246,0.0013898857318249,-0.0013898857318247,0.001389885731825,-0.0013898857318251,0.0013898857318245,-0.0013898857318244,0.0013898857318253,8.5438566381033e-18,-2.8969703230746e-17,-0.0014135481171815,0.0014135481171815,-1.5587759098777e-18,-1.739652737156e-17,-0.0014478441472224,0.0014478441472224,-0.0014478441472224,0.0014478441472224,-0.0014478441472224,0.0014478441472224,-0.0014478441472224,0.0014478441472224,-0.0013898857318249,0.0013898857318248,-0.0013898857318248,0.0013898857318249,0.39877872846764,0.37346580299768,1270536,32768,0.005872461402768,0.0058724614027681,0.0058724614027681,33.845334436131,33.835077261337,0.00018596267548905,0.00018596267548905,0.00018596267548905,561945.0977568,0.017773712290503
13996800,0.99857680343039,0.0170708220964,0.0056902740321331,0.0056902740321333,0.0056902740321333,-0.0014133322029792,0.0014133322029791,-5.7182076656221e-17,-1.5690697130561e-17,3.5510679878988e-16,-4.3288383451953e-16,-0.0014476190010485,0.0014476190010487,-0.0014476190010485,0.0014476190010487,-0.0014476190010488,0.0014476190010485,-0.0014476190010488,0.0014476190010485,-0.0013896767870038,0.0013896767870034,-0.0013896767870038,0.0013896767870035,-3.4637177152132e-16,4.4830248113752e-16,4.1976658818358e-17,5.7660003232363e-17,-0.0014133322029792,0.0014133322029793,-0.0014476190010487,0.0014476190010486,-0.0014476190010488,0.0014476190010486,-0.0014476190010485,0.0014476190010488,-0.0014476190010485,0.0014476190010488,-0.0013896767870035,0.0013896767870038,-0.0013896767870035,0.0013896767870039,-0.001389676787004,0.0013896767870034,-0.0013896767870033,0.0013896767870041,8.0659300619615e-18,-2.9675564020125e-17,-0.0014133322029792,0.0014133322029792,-2.455807329713e-18,-1.8322969657619e-17,-0.0014476190010487,0.0014476190010487,-0.0014476190010487,0.0014476190010487,-0.0014476190010487,0.0014476190010486,-0.0014476190010487,0.0014476190010486,-0.0013896767870037,0.0013896767870037,-0.0013896767870037,0.0013896767870037,0.39873759342804,0.37769933802917,1270536,32768,0.0058715670274055,0.0058715670274056,0.0058715670274056,33.694125452416,33.683873303768,0.00018475300361933,0.00018475300361933,0.00018475300361933,560342.9571443,0.017770981519502
14083200,0.99864281030205,0.017071472984161,0.0056904909947203,0.0056904909947205,0.0056904909947205,-0.0014131147392667,0.0014131147392666,-5.6623270197963e-17,-1.52495341372e-17,3.55386202019e-16,-4.3261913672351e-16,-0.0014473926247605,0.0014473926247606,-0.0014473926247604,0.0014473926247606,-0.0014473926247607,0.0014473926247604,-0.0014473926247607,0.0014473926247604,-0.0013894654070822,0.0013894654070818,-0.0013894654070822,0.0013894654070819,-3.4766584963518e-16,4.4722898452034e-16,4.0594348105825e-17,5.6365925118502e-17,-0.0014131147392667,0.0014131147392668,-0.0014473926247607,0.0014473926247605,-0.0014473926247607,0.0014473926247605,-0.0014473926247604,0.0014473926247607,-0.0014473926247604,0.0014473926247608,-0.001389465407082,0.0013894654070823,-0.001389465407082,0.0013894654070823,-0.0013894654070825,0.0013894654070818,-0.0013894654070817,0.0013894654070826,6.1762819070626e-18,-3.121963449689e-17,-0.0014131147392667,0.0014131147392667,-3.6469474117894e-18,-1.9705280370152e-17,-0.0014473926247606,0.0014473926247606,-0.0014473926247606,0.0014473926247606,-0.0014473926247606,0.0014473926247605,-0.0014473926247606,0.0014473926247605,-0.0013894654070822,0.0013894654070821,-0.0013894654070821,0.0013894654070822,0.39657886259947,0.36864124454675,1270536,32768,0.0058706662272411,0.0058706662272413,0.0058706662272413,33.542916668938,33.532669346199,0.00018354333335151,0.00018354333335151,0.00018354333335151,558660.10444352,0.017768231153896
14169600,0.99870523916897,0.01707207417243,0.00569069139081,0.0056906913908101,0.0056906913908101,-0.0014128493081695,0.0014128493081694,-5.7321778270786e-17,-1.6006863942471e-17,3.5489357000975e-16,-4.3339852467845e-16,-0.0014471342269079,0.0014471342269081,-0.0014471342269079,0.0014471342269081,-0.0014471342269082,0.0014471342269078,-0.0014471342269082,0.0014471342269078,-0.0013891915198949,0.0013891915198945,-0.0013891915198949,0.0013891915198946,-3.4873934625236e-16,4.463319531005e-16,3.9859076450222e-17,5.6027700156925e-17,-0.0014128493081695,0.0014128493081695,-0.0014471342269081,0.001447134226908,-0.0014471342269081,0.001447134226908,-0.0014471342269079,0.0014471342269082,-0.0014471342269079,0.0014471342269082,-0.0013891915198947,0.001389191519895,-0.0013891915198947,0.001389191519895,-0.0013891915198952,0.0013891915198945,-0.0013891915198944,0.0013891915198953,5.6321808819166e-18,-3.1778440955148e-17,-0.0014128493081695,0.0014128493081695,-4.0145832395907e-18,-2.0087621631066e-17,-0.001447134226908,0.001447134226908,-0.0014471342269081,0.001447134226908,-0.001447134226908,0.001447134226908,-0.0014471342269081,0.001447134226908,-0.0013891915198949,0.0013891915198948,-0.0013891915198949,0.0013891915198949,0.3872831370627,0.32446844578257,1270536,32768,0.0058695667315621,0.0058695667315623,0.0058695667315623,33.391707906447,33.381465388631,0.00018233366325157,0.00018233366325157,0.00018233366325157,558692.47228278,0.017764874036098
14256000,0.99876430674428,0.017072624622184,0.0056908748740612,0.0056908748740613,0.0056908748740613,-0.0014124491757087,0.0014124491757087,-5.7501919826409e-17,-1.6198034572927e-17,3.5452593418195e-16,-4.3361910617513e-16,-0.0014467854777846,0.0014467854777848,-0.0014467854777846,0.0014467854777848,-0.0014467854777849,0.0014467854777846,-0.0014467854777849,0.0014467854777846,-0.0013887453144855,0.0013887453144851,-0.0013887453144855,0.0013887453144852,-3.4901874948149e-16,4.4589079010714e-16,3.9579673221093e-17,5.5248312201986e-17,-0.0014124491757087,0.0014124491757088,-0.0014467854777849,0.0014467854777847,-0.0014467854777849,0.0014467854777847,-0.0014467854777846,0.0014467854777849,-0.0014467854777846,0.0014467854777849,-0.0013887453144852,0.0013887453144856,-0.0013887453144853,0.0013887453144856,-0.0013887453144857,0.0013887453144851,-0.001388745314485,0.0013887453144859,3.9778196568106e-18,-3.3307805998802e-17,-0.0014124491757087,0.0014124491757087,-5.8086460792613e-18,-2.1808157305176e-17,-0.0014467854777848,0.0014467854777848,-0.0014467854777848,0.0014467854777848,-0.0014467854777848,0.0014467854777847,-0.0014467854777848,0.0014467854777847,-0.0013887453144855,0.0013887453144854,-0.0013887453144854,0.0013887453144855,0.37477772250492,0.28029564701839,1270536,32768,0.0058679092842971,0.0058679092842972,0.0058679092842972,33.240499146648,33.230261431062,0.00018112399317318,0.00018112399317318,0.00018112399317318,563933.40646175,0.017759813049484
14342400,0.9988198431683,0.01707314517298,0.0056910483909931,0.0056910483909933,0.0056910483909933,-0.0014117772562683,0.0014117772562682,-5.4788767417235e-17,-1.2984897437944e-17,3.575773115527e-16,-4.3107506624675e-16,-0.0014461771646133,0.0014461771646135,-0.0014461771646133,0.0014461771646135,-0.0014461771646136,0.0014461771646132,-0.0014461771646136,0.0014461771646133,-0.0013880241038786,0.0013880241038783,-0.0013880241038786,0.0013880241038783,-3.511069209834e-16,4.4425113431515e-16,3.8131188059556e-17,5.3277784164971e-17,-0.0014117772562683,0.0014117772562683,-0.0014461771646135,0.0014461771646134,-0.0014461771646135,0.0014461771646134,-0.0014461771646133,0.0014461771646136,-0.0014461771646133,0.0014461771646136,-0.0013880241038784,0.0013880241038787,-0.0013880241038784,0.0013880241038787,-0.0013880241038789,0.0013880241038782,-0.0013880241038781,0.001388024103879,4.7939711945296e-18,-3.3043108202785e-17,-0.0014117772562683,0.0014117772562683,-4.8233820607537e-18,-2.0455257458867e-17,-0.0014461771646134,0.0014461771646134,-0.0014461771646135,0.0014461771646134,-0.0014461771646134,0.0014461771646134,-0.0014461771646135,0.0014461771646134,-0.0013880241038786,0.0013880241038785,-0.0013880241038786,0.0013880241038786,0.37697613766621,0.33016534651402,1270536,32768,0.0058651260437471,0.0058651260437472,0.0058651260437472,32.967838884222,32.949677023916,0.00017894271107377,0.00017894271107377,0.00017894271107377,571022.46969532,0.017751314659029
14428800,0.99887186469754,0.017073633188016,0.0056912110626719,0.005691211062672,0.005691211062672,-0.0014112727543707,0.0014112727543706,-5.1796211778932e-17,-1.0352624910886e-17,3.6093015030225e-16,-4.2832515025479e-16,-0.0014456222826305,0.0014456222826307,-0.0014456222826305,0.0014456222826307,-0.0014456222826308,0.0014456222826305,-0.0014456222826308,0.0014456222826305,-0.0013875759953031,0.0013875759953027,-0.0013875759953031,0.0013875759953028,-3.51842192639e-16,4.4410407998403e-16,3.6565059433122e-17,5.3910117788789e-17,-0.0014112727543707,0.0014112727543707,-0.0014456222826308,0.0014456222826306,-0.0014456222826308,0.0014456222826306,-0.0014456222826305,0.0014456222826308,-0.0014456222826305,0.0014456222826309,-0.0013875759953029,0.0013875759953032,-0.0013875759953029,0.0013875759953032,-0.0013875759953034,0.0013875759953027,-0.0013875759953026,0.0013875759953035,-6.6615611997604e-18,-4.4380997132178e-17,-0.0014112727543707,0.0014112727543707,-1.4631905946494e-17,-3.236665827963e-17,-0.0014456222826307,0.0014456222826307,-0.0014456222826307,0.0014456222826307,-0.0014456222826307,0.0014456222826307,-0.0014456222826307,0.0014456222826306,-0.0013875759953031,0.001387575995303,-0.0013875759953031,0.0013875759953031,0.37732221315654,0.34057045049571,1270536,32768,0.0058630362911554,0.0058630362911555,0.0058630362911555,32.615337253285,32.591717354755,0.00017612269802628,0.00017612269802628,0.00017612269802628,565654.05362801,0.017744934358282
14515200,0.99892062121988,0.01707409177208,0.0056913639240264,0.0056913639240266,0.0056913639240266,-0.001410673081529,0.0014106730815289,-5.176312455443e-17,-1.0330566761218e-17,3.6081985955391e-16,-4.2767811119786e-16,-0.0014449985607572,0.0014449985607574,-0.0014449985607572,0.0014449985607574,-0.0014449985607575,0.0014449985607571,-0.0014449985607575,0.0014449985607572,-0.0013869956869659,0.0013869956869655,-0.0013869956869659,0.0013869956869656,-3.4657764758488e-16,4.4878776043022e-16,4.267516689118e-17,5.8336453155518e-17,-0.0014106730815289,0.001410673081529,-0.0014449985607574,0.0014449985607572,-0.0014449985607574,0.0014449985607572,-0.0014449985607571,0.0014449985607575,-0.0014449985607572,0.0014449985607575,-0.0013869956869656,0.001386995686966,-0.0013869956869656,0.001386995686966,-0.0013869956869661,0.0013869956869655,-0.0013869956869654,0.0013869956869663,5.2351341878912e-18,-3.2631356075647e-17,-0.001410673081529,0.001410673081529,-5.8968786779336e-18,-2.1499343209823e-17,-0.0014449985607573,0.0014449985607573,-0.0014449985607574,0.0014449985607573,-0.0014449985607573,0.0014449985607573,-0.0014449985607573,0.0014449985607573,-0.0013869956869659,0.0013869956869658,-0.0013869956869658,0.0013869956869658,0.37829066123826,0.3509755544774,1270536,32768,0.005860552258436,0.0058605522584362,0.0058605522584362,32.257865570039,32.233757685593,0.00017326292456031,0.00017326292456031,0.00017326292456031,563218.69707435,0.017737350150957
14601600,0.99896635463901,0.017074523721777,0.0056915079072588,0.005691507907259,0.005691507907259,-0.0014100698047374,0.0014100698047373,-5.5321839367547e-17,-1.3543703896202e-17,3.5681262903087e-16,-4.3075154671828e-16,-0.0014443735232935,0.0014443735232937,-0.0014443735232935,0.0014443735232937,-0.0014443735232937,0.0014443735232934,-0.0014443735232937,0.0014443735232934,-0.0013864078684362,0.0013864078684358,-0.0013864078684362,0.0013864078684359,-3.4844523759012e-16,4.4583196837469e-16,3.9439971606528e-17,5.4145404718582e-17,-0.0014100698047373,0.0014100698047374,-0.0014443735232937,0.0014443735232935,-0.0014443735232937,0.0014443735232935,-0.0014443735232934,0.0014443735232938,-0.0014443735232934,0.0014443735232938,-0.0013864078684359,0.0013864078684363,-0.0013864078684359,0.0013864078684363,-0.0013864078684364,0.0013864078684358,-0.0013864078684357,0.0013864078684366,8.6173838036635e-18,-2.9484393389668e-17,-0.0014100698047374,0.0014100698047374,-3.6028311124532e-18,-1.8925892415213e-17,-0.0014443735232936,0.0014443735232936,-0.0014443735232936,0.0014443735232936,-0.0014443735232936,0.0014443735232936,-0.0014443735232936,0.0014443735232936,-0.0013864078684362,0.0013864078684361,-0.0013864078684361,0.0013864078684362,0.37986548773988,0.36138065845909,1270536,32768,0.0058580532796026,0.0058580532796028,0.0058580532796028,31.89993031999,31.875798016432,0.00017039944255992,0.00017039944255992,0.00017039944255992,560723.89465073,0.017729720384538
14688000,0.99900928750438,0.017074931486819,0.0056916438289394,0.0056916438289396,0.0056916438289396,-0.0014094653628592,0.0014094653628591,-5.2152818531899e-17,-1.0580559124123e-17,3.5959195588905e-16,-4.2658990914757e-16,-0.0014437489927194,0.0014437489927196,-0.0014437489927194,0.0014437489927196,-0.0014437489927197,0.0014437489927194,-0.0014437489927197,0.0014437489927194,-0.0013858166474508,0.0013858166474504,-0.0013858166474508,0.0013858166474505,-3.4278364584197e-16,4.504788852381e-16,4.5851540443384e-17,5.9748174734275e-17,-0.0014094653628591,0.0014094653628592,-0.0014437489927196,0.0014437489927195,-0.0014437489927196,0.0014437489927195,-0.0014437489927194,0.0014437489927197,-0.0014437489927194,0.0014437489927197,-0.0013858166474505,0.0013858166474508,-0.0013858166474505,0.0013858166474509,-0.001385816647451,0.0013858166474504,-0.0013858166474502,0.0013858166474511,6.6247976169803e-18,-3.1043169299546e-17,-0.0014094653628592,0.0014094653628592,-4.6616222965211e-18,-1.919059021123e-17,-0.0014437489927195,0.0014437489927195,-0.0014437489927196,0.0014437489927196,-0.0014437489927196,0.0014437489927195,-0.0014437489927196,0.0014437489927195,-0.0013858166474507,0.0013858166474507,-0.0013858166474507,0.0013858166474507,0.38197963059437,0.37178576244078,1270536,32768,0.0058555494594856,0.0058555494594858,0.0058555494594858,31.541948953962,31.517838347271,0.0001675355916317,0.0001675355916317,0.0001675355916317,558109.34797888,0.0177220759143
14774400,0.9990496237807,0.017075317197549,0.005691772399183,0.0056917723991832,0.0056917723991832,-0.0014088596949879,0.0014088596949878,-5.3671154500718e-17,-1.2242273065785e-17,3.580625908454e-16,-4.2939864687197e-16,-0.0014431248501604,0.0014431248501606,-0.0014431248501604,0.0014431248501606,-0.0014431248501606,0.0014431248501603,-0.0014431248501606,0.0014431248501603,-0.0013852225389228,0.0013852225389224,-0.0013852225389228,0.0013852225389225,-3.4559238356638e-16,4.4851570991764e-16,4.4542756896411e-17,5.9468771505146e-17,-0.0014088596949878,0.001408859694988,-0.0014431248501606,0.0014431248501604,-0.0014431248501606,0.0014431248501604,-0.0014431248501603,0.0014431248501607,-0.0014431248501603,0.0014431248501607,-0.0013852225389226,0.0013852225389229,-0.0013852225389226,0.0013852225389229,-0.0013852225389231,0.0013852225389224,-0.0013852225389223,0.0013852225389232,3.7057691442376e-18,-3.3719558125939e-17,-0.0014088596949879,0.0014088596949879,-5.4410102514599e-18,-2.0587606356875e-17,-0.0014431248501605,0.0014431248501605,-0.0014431248501605,0.0014431248501605,-0.0014431248501605,0.0014431248501605,-0.0014431248501605,0.0014431248501605,-0.0013852225389228,0.0013852225389227,-0.0013852225389227,0.0013852225389227,0.38456911852127,0.38219086642248,1270536,32768,0.0058530405477838,0.0058530405477839,0.0058530405477839,31.183962937454,31.159878678109,0.00016467170349963,0.00016467170349963,0.00016467170349963,555382.76328804,0.017714415972735
14860800,0.99908755048167,0.017075682717492,0.0056918942391639,0.0056918942391641,0.0056918942391641,-0.001408252467905,0.0014082524679049,-5.7704119531699e-17,-1.6793604613965e-17,3.5486415914353e-16,-4.3311912144932e-16,-0.001442500753973,0.0014425007539731,-0.001442500753973,0.0014425007539732,-0.0014425007539732,0.0014425007539729,-0.0014425007539732,0.0014425007539729,-0.0013846255074291,0.0013846255074287,-0.0013846255074291,0.0013846255074288,-3.4600413569351e-16,4.4842747731897e-16,4.2329589213047e-17,5.6115932755597e-17,-0.0014082524679049,0.001408252467905,-0.0014425007539732,0.001442500753973,-0.0014425007539732,0.001442500753973,-0.0014425007539729,0.0014425007539733,-0.0014425007539729,0.0014425007539733,-0.0013846255074289,0.0013846255074292,-0.0013846255074289,0.0013846255074292,-0.0013846255074294,0.0013846255074287,-0.0013846255074286,0.0013846255074295,-2.455807329713e-18,-3.9601731370761e-17,-0.001408252467905,0.0014082524679049,-1.3220184367736e-17,-2.7528570785765e-17,-0.0014425007539731,0.0014425007539731,-0.0014425007539731,0.0014425007539731,-0.0014425007539731,0.0014425007539731,-0.0014425007539731,0.0014425007539731,-0.0013846255074291,0.001384625507429,-0.001384625507429,0.0013846255074291,0.38758033517797,0.39259597040417,1270536,32768,0.0058505251657292,0.0058505251657294,0.0058505251657294,30.825976456966,30.801919008948,0.00016180781165573,0.00016180781165573,0.00016180781165573,552561.2121759,0.017706736346882
14947200,0.99912310611959,0.017076028394034,0.0056920094646777,0.0056920094646779,0.0056920094646779,-0.0014075151012316,0.0014075151012315,-4.8763216199571e-17,-7.7424105334963e-18,3.6281244574059e-16,-4.2641344395023e-16,-0.0014417498192898,0.0014417498192899,-0.0014417498192897,0.0014417498192899,-0.00144174981929,0.0014417498192897,-0.00144174981929,0.0014417498192897,-0.001383895997503,0.0013838959975026,-0.001383895997503,0.0013838959975027,-3.3684265086471e-16,4.590742108921e-16,5.3866001489453e-17,6.7821457512792e-17,-0.0014075151012316,0.0014075151012317,-0.00144174981929,0.0014417498192898,-0.00144174981929,0.0014417498192898,-0.0014417498192897,0.0014417498192901,-0.0014417498192897,0.0014417498192901,-0.0013838959975027,0.001383895997503,-0.0013838959975027,0.0013838959975031,-0.0013838959975032,0.0013838959975026,-0.0013838959975025,0.0013838959975033,1.1984927986324e-18,-3.6028311124532e-17,-0.0014075151012316,0.0014075151012316,-1.0617322706903e-17,-2.4675716762026e-17,-0.0014417498192899,0.0014417498192899,-0.0014417498192899,0.0014417498192899,-0.0014417498192899,0.0014417498192899,-0.0014417498192899,0.0014417498192899,-0.0013838959975029,0.0013838959975029,-0.0013838959975029,0.0013838959975029,0.39096919454233,0.40300107438586,1270536,32768,0.0058474706806215,0.0058474706806217,0.0058474706806217,30.401618037066,30.373290336527,0.00015841294429653,0.00015841294429653,0.00015841294429653,549733.75363086,0.017697410887281
15033600,0.99915614030405,0.017076346807936,0.0056921156026453,0.0056921156026454,0.0056921156026454,-0.0014064374036374,0.0014064374036374,-5.3788797965615e-17,-1.3404002281637e-17,3.5995959171685e-16,-4.3081036845073e-16,-0.0014406630684731,0.0014406630684733,-0.0014406630684731,0.0014406630684733,-0.0014406630684734,0.0014406630684731,-0.0014406630684734,0.0014406630684731,-0.0013828230370395,0.0013828230370391,-0.0013828230370395,0.0013828230370392,-3.4310716537044e-16,4.5427288698101e-16,4.7138265840689e-17,6.0880493083903e-17,-0.0014064374036374,0.0014064374036375,-0.0014406630684734,0.0014406630684732,-0.0014406630684734,0.0014406630684732,-0.0014406630684731,0.0014406630684735,-0.0014406630684731,0.0014406630684735,-0.0013828230370392,0.0013828230370396,-0.0013828230370392,0.0013828230370396,-0.0013828230370397,0.0013828230370391,-0.001382823037039,0.0013828230370399,1.4396619016701e-17,-2.2087560534305e-17,-0.0014064374036374,0.0014064374036374,5.191017888555e-18,-8.6615001029997e-18,-0.0014406630684733,0.0014406630684733,-0.0014406630684733,0.0014406630684733,-0.0014406630684733,0.0014406630684733,-0.0014406630684733,0.0014406630684733,-0.0013828230370394,0.0013828230370394,-0.0013828230370394,0.0013828230370394,0.38760205030044,0.37427876945462,1270536,32768,0.0058430063893297,0.0058430063893299,0.0058430063893299,29.802513241535,29.762787601846,0.00015362010593228,0.00015362010593228,0.00015362010593228,546969.30200431,0.017683781355847
15120000,0.99918684937735,0.017076634053457,0.0056922113511523,0.0056922113511524,0.0056922113511524,-0.0014052088982953,0.0014052088982953,-4.9663923977684e-17,-8.3085697083104e-18,3.6346683751408e-16,-4.273545916694e-16,-0.0014394657009174,0.0014394657009176,-0.0014394657009174,0.0014394657009176,-0.0014394657009177,0.0014394657009174,-0.0014394657009177,0.0014394657009174,-0.0013815628196304,0.00138156281963,-0.0013815628196304,0.0013815628196301,-3.409895830023e-16,4.5599342265512e-16,5.0388166558452e-17,6.0733438752782e-17,-0.0014052088982953,0.0014052088982954,-0.0014394657009176,0.0014394657009175,-0.0014394657009177,0.0014394657009175,-0.0014394657009174,0.0014394657009177,-0.0014394657009174,0.0014394657009177,-0.0013815628196301,0.0013815628196305,-0.0013815628196301,0.0013815628196305,-0.0013815628196306,0.00138156281963,-0.0013815628196298,0.0013815628196308,1.4014277755787e-17,-2.3675747310407e-17,-0.0014052088982953,0.0014052088982953,7.2056622249064e-19,-9.8967564844122e-18,-0.0014394657009176,0.0014394657009176,-0.0014394657009176,0.0014394657009176,-0.0014394657009176,0.0014394657009175,-0.0014394657009176,0.0014394657009175,-0.0013815628196303,0.0013815628196303,-0.0013815628196303,0.0013815628196303,0.3761091956157,0.31554913324883,1270536,32768,0.005837917395918,0.0058379173959181,0.0058379173959181,29.192994101149,29.152284867166,0.00014874395280919,0.00014874395280919,0.00014874395280919,548994.47618367,0.017668244437398
15206400,0.99921542807358,0.017076889954666,0.0056922966515553,0.0056922966515555,0.0056922966515555,-0.0014038443626622,0.0014038443626621,-5.5472570056945e-17,-1.5036305357075e-17,3.5693027249577e-16,-4.3301618341754e-16,-0.0014381753705558,0.0014381753705559,-0.0014381753705558,0.001438175370556,-0.001438175370556,0.0014381753705557,-0.001438175370556,0.0014381753705557,-0.001380134149243,0.0013801341492426,-0.0013801341492429,0.0013801341492426,-3.3993079181824e-16,4.5708162470541e-16,5.1388136010072e-17,6.0439330090541e-17,-0.0014038443626622,0.0014038443626623,-0.001438175370556,0.0014381753705558,-0.001438175370556,0.0014381753705558,-0.0014381753705557,0.001438175370556,-0.0014381753705557,0.0014381753705561,-0.0013801341492427,0.001380134149243,-0.0013801341492427,0.001380134149243,-0.0013801341492432,0.0013801341492425,-0.0013801341492424,0.0013801341492433,1.3462824014085e-17,-2.3543398412398e-17,-0.0014038443626622,0.0014038443626622,-9.7055858539555e-19,-1.0602617273791e-17,-0.0014381753705559,0.0014381753705559,-0.0014381753705559,0.0014381753705559,-0.0014381753705559,0.0014381753705559,-0.0014381753705559,0.0014381753705559,-0.0013801341492429,0.0013801341492428,-0.0013801341492429,0.0013801341492429,0.36004014259886,0.25467942007145,1270536,32768,0.0058322649262835,0.0058322649262837,0.0058322649262837,28.582518076391,28.541782132486,0.00014386014461112,0.00014386014461112,0.00014386014461112,556380.14601903,0.017650987141443
15292800,0.99924205343674,0.017077148170526,0.0056923827235086,0.0056923827235087,0.0056923827235087,-0.0014024268818201,0.00140242688182,-6.3751728899031e-17,-2.2727246874679e-17,3.4791584199808e-16,-4.4160415635498e-16,-0.0014368448659631,0.0014368448659632,-0.0014368448659631,0.0014368448659632,-0.0014368448659633,0.001436844865963,-0.0014368448659633,0.001436844865963,-0.0013786499725132,0.0013786499725128,-0.0013786499725131,0.0013786499725128,-3.6022428951287e-16,4.3581021570883e-16,3.4087193953741e-17,4.4925098157324e-17,-0.00140242688182,0.0014024268818201,-0.0014368448659633,0.0014368448659631,-0.0014368448659633,0.0014368448659631,-0.001436844865963,0.0014368448659633,-0.001436844865963,0.0014368448659633,-0.0013786499725129,0.0013786499725132,-0.0013786499725129,0.0013786499725133,-0.0013786499725134,0.0013786499725127,-0.0013786499725127,0.0013786499725135,1.0646733573127e-17,-2.6955058894395e-17,-0.0014024268818201,0.0014024268818201,-3.9410560740304e-18,-1.4970130908071e-17,-0.0014368448659632,0.0014368448659632,-0.0014368448659632,0.0014368448659632,-0.0014368448659632,0.0014368448659631,-0.0014368448659632,0.0014368448659631,-0.0013786499725131,0.0013786499725131,-0.0013786499725131,0.0013786499725131,0.39002799219372,0.46598060193548,1270536,32768,0.0058263931611205,0.0058263931611206,0.0058263931611207,27.971947845115,27.931279397805,0.00013897558276092,0.00013897558276092,0.00013897558276092,566313.11083488,0.017633060429734
15379200,0.99926688541549,0.017077407913031,0.0056924693043435,0.0056924693043437,0.0056924693043437,-0.0014019220341396,0.0014019220341396,-5.2244727488849e-17,-1.1014369400928e-17,3.6143013502806e-16,-4.3104565538052e-16,-0.0014361141671424,0.0014361141671426,-0.0014361141671424,0.0014361141671426,-0.0014361141671427,0.0014361141671424,-0.0014361141671427,0.0014361141671424,-0.0013783621165821,0.0013783621165817,-0.0013783621165821,0.0013783621165818,-3.4468064671343e-16,4.5500815863661e-16,4.9888181832643e-17,5.8777616148879e-17,-0.0014019220341396,0.0014019220341397,-0.0014361141671426,0.0014361141671425,-0.0014361141671427,0.0014361141671425,-0.0014361141671424,0.0014361141671427,-0.0014361141671424,0.0014361141671427,-0.0013783621165819,0.0013783621165822,-0.0013783621165819,0.0013783621165822,-0.0013783621165823,0.0013783621165817,-0.0013783621165816,0.0013783621165824,-2.8234431575143e-18,-4.0028188931011e-17,-0.0014019220341397,0.0014019220341396,-1.7323000205999e-17,-2.6410957869249e-17,-0.0014361141671425,0.0014361141671426,-0.0014361141671426,0.0014361141671426,-0.0014361141671426,0.0014361141671425,-0.0014361141671426,0.0014361141671425,-0.0013783621165821,0.001378362116582,-0.001378362116582,0.0013783621165821,0.42073324127692,0.58118402251387,1270536,32768,0.0058243018656485,0.0058243018656487,0.0058243018656487,27.361368225314,27.320776663125,0.00013409094580251,0.00013409094580251,0.00013409094580251,540554.07997551,0.017626677230289
15465600,0.99929006862,0.017077664918404,0.0056925549728011,0.0056925549728013,0.0056925549728013,-0.0014012117376863,0.0014012117376863,-4.2811192147467e-17,-1.5367177602096e-18,3.7223862836542e-16,-4.1848721550283e-16,-0.0014352540140915,0.0014352540140917,-0.0014352540140916,0.0014352540140917,-0.0014352540140918,0.0014352540140915,-0.0014352540140918,0.0014352540140915,-0.0013777619136611,0.0013777619136607,-0.0013777619136611,0.0013777619136608,-3.3741616275608e-16,4.5976536624836e-16,5.402040853713e-17,6.186575710241e-17,-0.0014012117376863,0.0014012117376864,-0.0014352540140918,0.0014352540140917,-0.0014352540140918,0.0014352540140917,-0.0014352540140915,0.0014352540140919,-0.0014352540140915,0.0014352540140919,-0.0013777619136608,0.0013777619136611,-0.0013777619136608,0.0013777619136612,-0.0013777619136613,0.0013777619136607,-0.0013777619136605,0.0013777619136614,-6.1542237573945e-18,-4.382219067392e-17,-0.0014012117376864,0.0014012117376863,-1.811709359405e-17,-2.5940384009663e-17,-0.0014352540140917,0.0014352540140917,-0.0014352540140917,0.0014352540140917,-0.0014352540140917,0.0014352540140917,-0.0014352540140918,0.0014352540140917,-0.0013777619136611,0.001377761913661,-0.001377761913661,0.001377761913661,0.44579681249385,0.63479025455408,1270536,32768,0.0058213593107951,0.0058213593107953,0.0058213593107953,26.75078769955,26.710273928445,0.0001292063015964,0.0001292063015964,0.0001292063015964,521815.75424154,0.017617695183325
15552000,0.99931173397407,0.017077915205187,0.0056926384017289,0.0056926384017291,0.0056926384017291,-0.0014003173069272,0.0014003173069272,-5.1707979180259e-17,-1.0154101563873e-17,3.6203305778565e-16,-4.301633293938e-16,-0.0014342835458564,0.0014342835458566,-0.0014342835458564,0.0014342835458566,-0.0014342835458567,0.0014342835458563,-0.0014342835458566,0.0014342835458563,-0.0013769052004636,0.0013769052004632,-0.0013769052004636,0.0013769052004633,-3.4797466373053e-16,4.5101563354669e-16,4.654269579965e-17,5.7454127168794e-17,-0.0014003173069272,0.0014003173069273,-0.0014342835458566,0.0014342835458564,-0.0014342835458566,0.0014342835458564,-0.0014342835458563,0.0014342835458567,-0.0014342835458563,0.0014342835458567,-0.0013769052004633,0.0013769052004636,-0.0013769052004634,0.0013769052004637,-0.0013769052004638,0.0013769052004632,-0.0013769052004631,0.0013769052004639,1.360252562865e-18,-3.666064474835e-17,-0.0014003173069272,0.0014003173069272,-1.252902901147e-17,-2.3881623373975e-17,-0.0014342835458565,0.0014342835458565,-0.0014342835458565,0.0014342835458565,-0.0014342835458565,0.0014342835458565,-0.0014342835458566,0.0014342835458565,-0.0013769052004635,0.0013769052004635,-0.0013769052004635,0.0013769052004635,0.46446913682159,0.65271059529583,1270536,32768,0.0058176539310389,0.0058176539310391,0.0058176539310391,26.140207118985,26.099771193764,0.00012432165695188,0.00012432165695188,0.00012432165695188,509573.75690354,0.017606384165914
15638400,0.99933246246022,0.017078163341699,0.0056927211138995,0.0056927211138996,0.0056927211138996,-0.0014000352212285,0.0014000352212284,-5.7770293980703e-17,-1.639655791994e-17,3.5578324871303e-16,-4.3470730822542e-16,-0.0014339679841191,0.0014339679841193,-0.0014339679841191,0.0014339679841193,-0.0014339679841194,0.0014339679841191,-0.0014339679841194,0.0014339679841191,-0.0013766270773417,0.0013766270773413,-0.0013766270773417,0.0013766270773414,-3.4910698208016e-16,4.4812601594017e-16,4.2608992442176e-17,5.4101288419246e-17,-0.0014000352212284,0.0014000352212285,-0.0014339679841194,0.0014339679841192,-0.0014339679841194,0.0014339679841192,-0.0014339679841191,0.0014339679841194,-0.0014339679841191,0.0014339679841194,-0.0013766270773415,0.0013766270773418,-0.0013766270773415,0.0013766270773418,-0.0013766270773419,0.0013766270773413,-0.0013766270773412,0.0013766270773421,9.3379500261542e-19,-3.6557706716566e-17,-0.0014000352212285,0.0014000352212285,-1.0676144439351e-17,-2.2352258330322e-17,-0.0014339679841193,0.0014339679841193,-0.0014339679841193,0.0014339679841193,-0.0014339679841193,0.0014339679841192,-0.0014339679841193,0.0014339679841192,-0.0013766270773417,0.0013766270773416,-0.0013766270773416,0.0013766270773416,0.48114874870943,0.67063093603758,1270536,32768,0.0058164852353197,0.0058164852353199,0.0058164852353199,25.914201466228,25.898385522375,0.00012251361172983,0.00012251361172983,0.00012251361172983,501533.22704732,0.017602816806035
15724800,0.99935236016089,0.017078419131226,0.0056928063770751,0.0056928063770753,0.0056928063770753,-0.0013998141677333,0.0013998141677332,-6.0957696607741e-17,-1.9675869503928e-17,3.51842192639e-16,-4.3792779807696e-16,-0.0014337374274985,0.0014337374274987,-0.0014337374274985,0.0014337374274987,-0.0014337374274988,0.0014337374274984,-0.0014337374274988,0.0014337374274984,-0.0013763999764822,0.0013763999764818,-0.0013763999764822,0.0013763999764819,-3.5241570453037e-16,4.4379526588867e-16,3.9285564558852e-17,4.976318565119e-17,-0.0013998141677332,0.0013998141677333,-0.0014337374274987,0.0014337374274985,-0.0014337374274987,0.0014337374274985,-0.0014337374274984,0.0014337374274988,-0.0014337374274985,0.0014337374274988,-0.001376399976482,0.0013763999764823,-0.001376399976482,0.0013763999764823,-0.0013763999764825,0.0013763999764818,-0.0013763999764817,0.0013763999764826,9.2203065612578e-18,-2.8028555511575e-17,-0.0013998141677333,0.0013998141677333,-4.3233973349438e-18,-1.4940720041847e-17,-0.0014337374274986,0.0014337374274986,-0.0014337374274986,0.0014337374274986,-0.0014337374274986,0.0014337374274986,-0.0014337374274986,0.0014337374274986,-0.0013763999764822,0.0013763999764821,-0.0013763999764821,0.0013763999764822,0.51663374314828,0.79804980302726,1270536,32768,0.0058155693694509,0.0058155693694511,0.0058155693694511,25.737782411439,25.725959239622,0.00012110225929151,0.00012110225929151,0.00012110225929151,494969.8488305,0.017600021333614
15811200,0.99937147022505,0.017078678237468,0.0056928927458226,0.0056928927458227,0.0056928927458227,-0.0013998450426388,0.0013998450426387,-5.2079291366339e-17,-1.0859962353252e-17,3.6003311888241e-16,-4.2739870796873e-16,-0.00143367705588,0.0014336770558802,-0.00143367705588,0.0014336770558802,-0.0014336770558803,0.0014336770558799,-0.0014336770558803,0.0014336770558799,-0.0013765046694217,0.0013765046694213,-0.0013765046694217,0.0013765046694214,-3.4212190135193e-16,4.5192737039964e-16,4.9366138957165e-17,5.9954050797843e-17,-0.0013998450426387,0.0013998450426389,-0.0014336770558802,0.0014336770558801,-0.0014336770558802,0.0014336770558801,-0.0014336770558799,0.0014336770558803,-0.0014336770558799,0.0014336770558803,-0.0013765046694214,0.0013765046694217,-0.0013765046694214,0.0013765046694218,-0.0013765046694219,0.0013765046694213,-0.0013765046694212,0.001376504669422,6.8968481295533e-18,-3.0396130242615e-17,-0.0013998450426388,0.0013998450426388,-5.9115841110456e-18,-1.6793604613965e-17,-0.0014336770558801,0.0014336770558801,-0.0014336770558801,0.0014336770558801,-0.0014336770558801,0.0014336770558801,-0.0014336770558802,0.0014336770558801,-0.0013765046694216,0.0013765046694216,-0.0013765046694216,0.0013765046694216,0.54485477905654,0.84262532356392,1270536,32768,0.0058156971090912,0.0058156971090914,0.0058156971090914,25.564971973742,25.553532956869,0.00011971977578993,0.00011971977578993,0.00011971977578993,479136.20428847,0.017600412325143
15897600,0.99938982960014,0.01707893476866,0.0056929782562198,0.00569297825622,0.00569297825622,-0.0013997125529573,0.0013997125529572,-5.9773909242221e-17,-1.8572962020524e-17,3.5229070834892e-16,-4.3579551027572e-16,-0.001433513450608,0.0014335134506082,-0.001433513450608,0.0014335134506082,-0.0014335134506083,0.0014335134506079,-0.0014335134506083,0.0014335134506079,-0.0013763830235106,0.0013763830235102,-0.0013763830235106,0.0013763830235103,-3.4954814507352e-16,4.4514816573498e-16,4.2006069684582e-17,5.1601364790197e-17,-0.0013997125529573,0.0013997125529574,-0.0014335134506082,0.001433513450608,-0.0014335134506082,0.001433513450608,-0.0014335134506079,0.0014335134506083,-0.0014335134506079,0.0014335134506083,-0.0013763830235104,0.0013763830235107,-0.0013763830235104,0.0013763830235107,-0.0013763830235109,0.0013763830235102,-0.0013763830235101,0.001376383023511,4.9630836753182e-18,-3.2234309381622e-17,-0.0013997125529573,0.0013997125529573,-7.5732980527077e-18,-1.7558287135792e-17,-0.0014335134506081,0.0014335134506081,-0.0014335134506081,0.0014335134506081,-0.0014335134506081,0.0014335134506081,-0.0014335134506081,0.0014335134506081,-0.0013763830235106,0.0013763830235105,-0.0013763830235105,0.0013763830235106,0.56140722017266,0.82628061128145,1270536,32768,0.0058151480666553,0.0058151480666554,0.0058151480666554,25.392502263321,25.381106674116,0.00011834001810657,0.00011834001810657,0.00011834001810657,468915.02704513,0.017598736983037
15984000,0.99940747294125,0.017079186558726,0.005693062186242,0.0056930621862421,0.0056930621862421,-0.0013994169161529,0.0013994169161529,-5.8167340674729e-17,-1.7073007843095e-17,3.530627435873e-16,-4.3447202129563e-16,-0.0014332468281695,0.0014332468281697,-0.0014332468281695,0.0014332468281697,-0.0014332468281698,0.0014332468281694,-0.0014332468281698,0.0014332468281695,-0.0013760493800727,0.0013760493800723,-0.0013760493800727,0.0013760493800724,-3.4600413569351e-16,4.4845688818519e-16,4.5741249695043e-17,5.5557126297339e-17,-0.0013994169161529,0.001399416916153,-0.0014332468281697,0.0014332468281696,-0.0014332468281697,0.0014332468281696,-0.0014332468281695,0.0014332468281698,-0.0014332468281695,0.0014332468281698,-0.0013760493800724,0.0013760493800727,-0.0013760493800724,0.0013760493800728,-0.0013760493800729,0.0013760493800723,-0.0013760493800722,0.001376049380073,5.5439482832443e-18,-3.1969611585605e-17,-0.0013994169161529,0.0013994169161529,-7.911523014285e-18,-1.7661225167577e-17,-0.0014332468281696,0.0014332468281696,-0.0014332468281697,0.0014332468281697,-0.0014332468281696,0.0014332468281696,-0.0014332468281697,0.0014332468281696,-0.0013760493800726,0.0013760493800726,-0.0013760493800726,0.0013760493800726,0.57333206933823,0.80993589899898,1270536,32768,0.0058139232142435,0.0058139232142437,0.0058139232142437,25.220066078545,25.208680391364,0.00011696052862836,0.00011696052862836,0.00011696052862836,464447.94880283,0.017594998174627
16070400,0.99942443306368,0.017079432332461,0.0056931441108201,0.0056931441108203,0.0056931441108203,-0.0013990781371754,0.0013990781371754,-5.6836498978088e-17,-1.5558348232553e-17,3.5470239937929e-16,-4.3251619869173e-16,-0.001432951358999,0.0014329513589992,-0.001432951358999,0.0014329513589992,-0.0014329513589992,0.0014329513589989,-0.0014329513589992,0.0014329513589989,-0.0013756706933986,0.0013756706933982,-0.0013756706933986,0.0013756706933983,-3.4801878002987e-16,4.461481351866e-16,4.3682489059356e-17,5.3248373298747e-17,-0.0013990781371754,0.0013990781371755,-0.0014329513589992,0.001432951358999,-0.0014329513589992,0.001432951358999,-0.0014329513589989,0.0014329513589993,-0.0014329513589989,0.0014329513589993,-0.0013756706933983,0.0013756706933986,-0.0013756706933983,0.0013756706933987,-0.0013756706933988,0.0013756706933982,-0.0013756706933981,0.0013756706933989,6.6542084832044e-18,-3.0763766070417e-17,-0.0013990781371755,0.0013990781371754,-6.9850807282256e-18,-1.6720077448405e-17,-0.0014329513589991,0.0014329513589991,-0.0014329513589991,0.0014329513589991,-0.0014329513589991,0.0014329513589991,-0.0014329513589991,0.0014329513589991,-0.0013756706933986,0.0013756706933985,-0.0013756706933985,0.0013756706933985,0.58214308132466,0.79359118671651,1270536,32768,0.0058125196986072,0.0058125196986074,0.0058125196986074,25.047633225662,25.036254108611,0.00011558106580529,0.00011558106580529,0.00011558106580529,461543.75802998,0.017590713790816
16156800,0.99944074107895,0.017079671297174,0.0056932237657244,0.0056932237657246,0.0056932237657246,-0.0013987165624429,0.0013987165624428,-5.5711533345016e-17,-1.4293680984916e-17,3.559891247766e-16,-4.3110447711297e-16,-0.001432637369259,0.0014326373692592,-0.001432637369259,0.0014326373692592,-0.0014326373692592,0.0014326373692589,-0.0014326373692592,0.0014326373692589,-0.0013752721765238,0.0013752721765234,-0.0013752721765238,0.0013752721765235,-3.4556297270015e-16,4.4811866322362e-16,4.5447141032802e-17,5.4807149208625e-17,-0.0013987165624428,0.001398716562443,-0.0014326373692592,0.001432637369259,-0.0014326373692592,0.001432637369259,-0.0014326373692589,0.0014326373692593,-0.0014326373692589,0.0014326373692593,-0.0013752721765235,0.0013752721765239,-0.0013752721765236,0.0013752721765239,-0.001375272176524,0.0013752721765234,-0.0013752721765233,0.0013752721765242,5.8159987958173e-18,-3.1484332292907e-17,-0.0013987165624429,0.0013987165624429,-7.2497785242425e-18,-1.6837720913302e-17,-0.0014326373692591,0.0014326373692591,-0.0014326373692591,0.0014326373692591,-0.0014326373692591,0.0014326373692591,-0.0014326373692591,0.0014326373692591,-0.0013752721765238,0.0013752721765237,-0.0013752721765237,0.0013752721765238,0.58862440292033,0.77724647443404,1270536,32768,0.0058110217907756,0.0058110217907758,0.0058110217907758,24.87520070541,24.863827825858,0.00011420160564328,0.00011420160564328,0.00011420160564328,459506.26501227,0.017586141150698
16243200,0.99945642649518,0.017079902953211,0.0056933009844035,0.0056933009844036,0.0056933009844036,-0.0013983413549357,0.0013983413549356,-5.85901218767e-17,-1.7455349104008e-17,3.5314362346942e-16,-4.3411909090094e-16,-0.0014323097043246,0.0014323097043248,-0.0014323097043246,0.0014323097043248,-0.0014323097043249,0.0014323097043245,-0.0014323097043249,0.0014323097043246,-0.0013748638552482,0.0013748638552478,-0.0013748638552482,0.0013748638552478,-3.4535709663658e-16,4.4846424090175e-16,4.6086827373177e-17,5.5351250233771e-17,-0.0013983413549357,0.0013983413549358,-0.0014323097043248,0.0014323097043247,-0.0014323097043248,0.0014323097043247,-0.0014323097043246,0.0014323097043249,-0.0014323097043246,0.0014323097043249,-0.0013748638552479,0.0013748638552482,-0.0013748638552479,0.0013748638552483,-0.0013748638552484,0.0013748638552478,-0.0013748638552477,0.0013748638552485,7.4335964381432e-18,-2.9969672682366e-17,-0.0013983413549357,0.0013983413549357,-6.0733438752782e-18,-1.5631875398113e-17,-0.0014323097043247,0.0014323097043247,-0.0014323097043248,0.0014323097043248,-0.0014323097043247,0.0014323097043247,-0.0014323097043248,0.0014323097043247,-0.0013748638552481,0.0013748638552481,-0.0013748638552481,0.0013748638552481,0.59325369209353,0.76090176215158,1270536,32768,0.0058094674382924,0.0058094674382926,0.0058094674382926,24.702768219105,24.691401543106,0.00011282214575284,0.00011282214575284,0.00011282214575284,458038.98034538,0.017581396131555
16329600,0.99947151730854,0.017080126996501,0.0056933756655001,0.0056933756655002,0.0056933756655002,-0.0013979574039882,0.0013979574039881,-6.1244452553426e-17,-1.9984683599281e-17,3.5059223082448e-16,-4.3704547209024e-16,-0.0014319712378481,0.0014319712378483,-0.0014319712378481,0.0014319712378483,-0.0014319712378484,0.001431971237848,-0.0014319712378483,0.001431971237848,-0.0013744504737065,0.0013744504737061,-0.0013744504737065,0.0013744504737062,-3.4945991247485e-16,4.4488346793896e-16,4.1998716968026e-17,5.1366077860404e-17,-0.0013979574039882,0.0013979574039883,-0.0014319712378483,0.0014319712378481,-0.0014319712378483,0.0014319712378481,-0.001431971237848,0.0014319712378484,-0.001431971237848,0.0014319712378484,-0.0013744504737063,0.0013744504737066,-0.0013744504737063,0.0013744504737066,-0.0013744504737068,0.0013744504737061,-0.001374450473706,0.0013744504737069,5.191017888555e-18,-3.2278425680958e-17,-0.0013979574039882,0.0013979574039882,-8.470329472543e-18,-1.8131799027162e-17,-0.0014319712378482,0.0014319712378482,-0.0014319712378482,0.0014319712378482,-0.0014319712378482,0.0014319712378482,-0.0014319712378482,0.0014319712378482,-0.0013744504737065,0.0013744504737064,-0.0013744504737064,0.0013744504737065,0.59635258854611,0.74455704986911,1270536,32768,0.0058078768879624,0.0058078768879626,0.0058078768879626,24.530335736992,24.518975260353,0.00011144268589594,0.00011144268589594,0.00011144268589594,456989.99844455,0.017576540563048
16416000,0.99948608944088,0.017080330506627,0.0056934435022088,0.005693443502209,0.005693443502209,-0.0013976769396105,0.0013976769396105,-5.6270339803274e-17,-1.5117185239191e-17,3.5601118292627e-16,-4.3195739223347e-16,-0.001431732135476,0.0014317321354762,-0.001431732135476,0.0014317321354762,-0.0014317321354763,0.0014317321354759,-0.0014317321354763,0.0014317321354759,-0.0013741444945258,0.0013741444945254,-0.0013741444945258,0.0013741444945255,-3.4718057034248e-16,4.4753044589913e-16,4.4432466148071e-17,5.4218931884142e-17,-0.0013976769396105,0.0013976769396106,-0.0014317321354762,0.0014317321354761,-0.0014317321354762,0.001431732135476,-0.001431732135476,0.0014317321354763,-0.001431732135476,0.0014317321354763,-0.0013741444945255,0.0013741444945259,-0.0013741444945256,0.0013741444945259,-0.001374144494526,0.0013741444945254,-0.0013741444945253,0.0013741444945262,5.2351341878912e-18,-3.1954906152493e-17,-0.0013976769396105,0.0013976769396105,-7.4409491546992e-18,-1.7411232804672e-17,-0.0014317321354761,0.0014317321354761,-0.0014317321354761,0.0014317321354761,-0.0014317321354761,0.0014317321354761,-0.0014317321354762,0.0014317321354761,-0.0013741444945258,0.0013741444945257,-0.0013741444945257,0.0013741444945257,0.56094335060752,0.52307539463863,1270536,32768,0.0058067150560799,0.00580671505608,0.00580671505608,24.415100585428,24.407384604394,0.00011052080468343,0.00011052080468343,0.00011052080468343,456228.15956578,0.017572993697315
16502400,0.99950016835242,0.017080536213531,0.0056935120711769,0.0056935120711771,0.0056935120711771,-0.0013968776622498,0.0013968776622498,-5.6145343621822e-17,-1.4984836341183e-17,3.5545972918457e-16,-4.31501523807e-16,-0.0014311606459159,0.0014311606459161,-0.0014311606459159,0.0014311606459161,-0.0014311606459162,0.0014311606459159,-0.0014311606459162,0.0014311606459159,-0.0013731512647727,0.0013731512647723,-0.0013731512647727,0.0013731512647723,-3.4284246757442e-16,4.5087593193213e-16,4.8770568916127e-17,5.8071755359501e-17,-0.0013968776622498,0.0013968776622499,-0.0014311606459161,0.001431160645916,-0.0014311606459162,0.001431160645916,-0.0014311606459159,0.0014311606459162,-0.0014311606459159,0.0014311606459162,-0.0013731512647724,0.0013731512647727,-0.0013731512647724,0.0013731512647727,-0.0013731512647729,0.0013731512647723,-0.0013731512647721,0.001373151264773,2.2866948489244e-18,-3.486658190868e-17,-0.0013968776622499,0.0013968776622498,-1.0764377038023e-17,-2.0278792261522e-17,-0.0014311606459161,0.0014311606459161,-0.0014311606459161,0.0014311606459161,-0.0014311606459161,0.001431160645916,-0.0014311606459161,0.001431160645916,-0.0013731512647726,0.0013731512647726,-0.0013731512647726,0.0013731512647726,0.58687342824665,0.73248561102731,1270536,32768,0.0058034040465967,0.0058034040465968,0.0058034040465968,24.305838468714,24.298625293851,0.00010964670774971,0.00010964670774971,0.00010964670774971,474506.67337349,0.017562884938596
16588800,0.99951377350678,0.017080748464191,0.005693582821397,0.0056935828213971,0.0056935828213971,-0.0013970781615993,0.0013970781615993,-5.8321747722406e-17,-1.7190651307991e-17,3.5350390658066e-16,-4.3433967239762e-16,-0.0014312189225591,0.0014312189225593,-0.0014312189225591,0.0014312189225593,-0.0014312189225594,0.0014312189225591,-0.0014312189225594,0.0014312189225591,-0.0013735174902219,0.0013735174902215,-0.0013735174902219,0.0013735174902216,-3.4801878002987e-16,4.4641283298262e-16,4.4013361304377e-17,5.3718947158333e-17,-0.0013970781615993,0.0013970781615994,-0.0014312189225593,0.0014312189225592,-0.0014312189225594,0.0014312189225592,-0.0014312189225591,0.0014312189225594,-0.0014312189225591,0.0014312189225594,-0.0013735174902216,0.001373517490222,-0.0013735174902217,0.001373517490222,-0.0013735174902221,0.0013735174902215,-0.0013735174902214,0.0013735174902223,7.9482865970651e-18,-2.9190284727427e-17,-0.0013970781615994,0.0013970781615993,-4.5145679654005e-18,-1.4514262481597e-17,-0.0014312189225593,0.0014312189225593,-0.0014312189225593,0.0014312189225593,-0.0014312189225593,0.0014312189225592,-0.0014312189225593,0.0014312189225592,-0.0013735174902219,0.0013735174902218,-0.0013735174902218,0.0013735174902218,0.62674101721478,0.90536956812686,1270536,32768,0.0058042347804019,0.0058042347804021,0.0058042347804021,24.197029140324,24.189865983308,0.00010877623312259,0.00010877623312259,0.00010877623312259,458453.56840684,0.017565421458787
16675200,0.99952692317959,0.017080961560381,0.0056936538534602,0.0056936538534604,0.0056936538534604,-0.0013973026600719,0.0013973026600719,-5.3042497235178e-17,-1.2198156766449e-17,3.5827581962552e-16,-4.2947217403753e-16,-0.0014312921004476,0.0014312921004478,-0.0014312921004476,0.0014312921004478,-0.0014312921004479,0.0014312921004475,-0.0014312921004479,0.0014312921004475,-0.0013738741583198,0.0013738741583194,-0.0013738741583197,0.0013738741583194,-3.4662176388422e-16,4.4770691109648e-16,4.4630989495083e-17,5.4248342750367e-17,-0.0013973026600719,0.001397302660072,-0.0014312921004478,0.0014312921004477,-0.0014312921004478,0.0014312921004477,-0.0014312921004476,0.0014312921004479,-0.0014312921004476,0.0014312921004479,-0.0013738741583195,0.0013738741583198,-0.0013738741583195,0.0013738741583199,-0.00137387415832,0.0013738741583193,-0.0013738741583193,0.0013738741583201,9.3820663254903e-18,-2.7734446849334e-17,-0.0013973026600719,0.0013973026600719,-4.1763430038233e-18,-1.4455440749149e-17,-0.0014312921004477,0.0014312921004477,-0.0014312921004478,0.0014312921004478,-0.0014312921004477,0.0014312921004477,-0.0014312921004478,0.0014312921004477,-0.0013738741583197,0.0013738741583197,-0.0013738741583197,0.0013738741583197,0.650942432955,0.93026865924923,1270536,32768,0.0058051647322066,0.0058051647322067,0.0058051647322068,24.088262692149,24.081106672765,0.00010790610153719,0.00010790610153719,0.00010790610153719,440984.83172574,0.017568261221614
16761600,0.99953963483209,0.017081172110312,0.0056937240367704,0.0056937240367706,0.0056937240367706,-0.0013972383950729,0.0013972383950728,-5.8097489867447e-17,-1.6999480677534e-17,3.5386418969191e-16,-4.3369263334069e-16,-0.0014311886650938,0.001431188665094,-0.0014311886650938,0.001431188665094,-0.0014311886650941,0.0014311886650937,-0.001431188665094,0.0014311886650937,-0.001373823825388,0.0013738238253876,-0.001373823825388,0.0013738238253877,-3.4341597946579e-16,4.5076564118379e-16,4.7630897849942e-17,5.7674708665475e-17,-0.0013972383950729,0.001397238395073,-0.001431188665094,0.0014311886650938,-0.001431188665094,0.0014311886650938,-0.0014311886650937,0.0014311886650941,-0.0014311886650937,0.0014311886650941,-0.0013738238253877,0.0013738238253881,-0.0013738238253878,0.0013738238253881,-0.0013738238253882,0.0013738238253876,-0.0013738238253875,0.0013738238253884,5.7792352130372e-18,-3.1234339930002e-17,-0.0013972383950729,0.0013972383950729,-6.9556698620015e-18,-1.7278883906663e-17,-0.0014311886650939,0.0014311886650939,-0.0014311886650939,0.0014311886650939,-0.0014311886650939,0.0014311886650939,-0.0014311886650939,0.0014311886650939,-0.001373823825388,0.0013738238253879,-0.0013738238253879,0.0013738238253879,0.66522380652023,0.91509256745446,1270536,32768,0.0058048983804339,0.0058048983804341,0.0058048983804341,23.979500453808,23.972347362222,0.00010703600363047,0.00010703600363047,0.00010703600363047,433035.58592533,0.017567448605118
16848000,0.99955192517855,0.017081378789858,0.0056937929299527,0.0056937929299529,0.0056937929299529,-0.0013970474438531,0.001397047443853,-5.9292306307801e-17,-1.8315616941063e-17,3.5277598764162e-16,-4.3495730058833e-16,-0.0014310103492453,0.0014310103492454,-0.0014310103492453,0.0014310103492454,-0.0014310103492455,0.0014310103492452,-0.0014310103492455,0.0014310103492452,-0.0013736074649432,0.0013736074649428,-0.0013736074649431,0.0013736074649428,-3.4416595655451e-16,4.5000831137852e-16,4.750590166849e-17,5.7218840239001e-17,-0.001397047443853,0.0013970474438531,-0.0014310103492455,0.0014310103492453,-0.0014310103492455,0.0014310103492453,-0.0014310103492452,0.0014310103492455,-0.0014310103492452,0.0014310103492456,-0.0013736074649429,0.0013736074649432,-0.0013736074649429,0.0013736074649432,-0.0013736074649434,0.0013736074649427,-0.0013736074649426,0.0013736074649435,5.0366108408784e-18,-3.2043138751165e-17,-0.0013970474438531,0.0013970474438531,-8.3526860076466e-18,-1.8131799027162e-17,-0.0014310103492454,0.0014310103492454,-0.0014310103492454,0.0014310103492454,-0.0014310103492454,0.0014310103492454,-0.0014310103492454,0.0014310103492454,-0.0013736074649431,0.001373607464943,-0.0013736074649431,0.0013736074649431,0.67532882741139,0.89991647565968,1270536,32768,0.0058041072503004,0.0058041072503005,0.0058041072503006,23.870738632571,23.86358805168,0.00010616590906057,0.00010616590906057,0.00010616590906057,429317.54288166,0.017565033726829
16934400,0.99956381022395,0.017081580840275,0.0056938602800917,0.0056938602800919,0.0056938602800919,-0.0013968198694656,0.0013968198694655,-5.7792352130372e-17,-1.6948011661642e-17,3.5423917823626e-16,-4.3283971822019e-16,-0.0014308098494815,0.0014308098494816,-0.0014308098494815,0.0014308098494816,-0.0014308098494817,0.0014308098494814,-0.0014308098494817,0.0014308098494814,-0.0013733512398394,0.001373351239839,-0.0013733512398393,0.001373351239839,-3.4673940734912e-16,4.4714075192166e-16,4.4108946619605e-17,5.3571892827212e-17,-0.0013968198694655,0.0013968198694656,-0.0014308098494817,0.0014308098494815,-0.0014308098494817,0.0014308098494815,-0.0014308098494814,0.0014308098494818,-0.0014308098494814,0.0014308098494818,-0.0013733512398391,0.0013733512398394,-0.0013733512398391,0.0013733512398394,-0.0013733512398396,0.0013733512398389,-0.0013733512398388,0.0013733512398397,5.7204134805889e-18,-3.1631386624028e-17,-0.0013968198694656,0.0013968198694656,-7.646825218268e-18,-1.7514170836456e-17,-0.0014308098494816,0.0014308098494816,-0.0014308098494816,0.0014308098494816,-0.0014308098494816,0.0014308098494816,-0.0014308098494816,0.0014308098494816,-0.0013733512398393,0.0013733512398393,-0.0013733512398393,0.0013733512398393,0.68269027242777,0.88474038386491,1270536,32768,0.0058031644471567,0.0058031644471569,0.0058031644471569,23.761976852933,23.754828741137,0.00010529581482346,0.00010529581482346,0.00010529581482346,426870.10828497,0.017562155715333
17020800,0.99957530529702,0.017081775059044,0.0056939250196811,0.0056939250196813,0.0056939250196813,-0.0013965734875719,0.0013965734875718,-5.783279207143e-17,-1.6999480677534e-17,3.5363625547867e-16,-4.3276619105463e-16,-0.0014305957199674,0.0014305957199675,-0.0014305957199673,0.0014305957199675,-0.0014305957199676,0.0014305957199673,-0.0014305957199676,0.0014305957199673,-0.0013730777010957,0.0013730777010953,-0.0013730777010957,0.0013730777010954,-3.4716586490937e-16,4.4555256514556e-16,4.3425143979895e-17,5.2733683139825e-17,-0.0013965734875718,0.0013965734875719,-0.0014305957199676,0.0014305957199674,-0.0014305957199676,0.0014305957199674,-0.0014305957199673,0.0014305957199676,-0.0014305957199673,0.0014305957199676,-0.0013730777010955,0.0013730777010958,-0.0013730777010955,0.0013730777010958,-0.001373077701096,0.0013730777010953,-0.0013730777010952,0.0013730777010961,5.999816709718e-18,-3.1131401898218e-17,-0.0013965734875719,0.0013965734875719,-7.2203676580184e-18,-1.6837720913302e-17,-0.0014305957199675,0.0014305957199675,-0.0014305957199675,0.0014305957199675,-0.0014305957199675,0.0014305957199674,-0.0014305957199675,0.0014305957199675,-0.0013730777010957,0.0013730777010956,-0.0013730777010956,0.0013730777010957,0.67846847249695,0.8168373588107,1270536,32768,0.005802143762357,0.0058021437623572,0.0058021437623572,23.653215077627,23.646069430594,0.00010442572062102,0.00010442572062102,0.00010442572062102,425115.2640688,0.017559039879623
17107200,0.99958642508141,0.017081962034897,0.0056939873449657,0.0056939873449659,0.0056939873449659,-0.0013962010846818,0.0013962010846817,-5.4115993852358e-17,-1.3227537084292e-17,3.5737143548913e-16,-4.2954570120309e-16,-0.0014302983046873,0.0014302983046875,-0.0014302983046873,0.0014302983046875,-0.0014302983046876,0.0014302983046872,-0.0014302983046876,0.0014302983046873,-0.0013726432925814,0.001372643292581,-0.0013726432925813,0.001372643292581,-3.4862170278746e-16,4.4506728585287e-16,4.2836926655413e-17,5.1748419121317e-17,-0.0013962010846817,0.0013962010846818,-0.0014302983046875,0.0014302983046874,-0.0014302983046875,0.0014302983046874,-0.0014302983046873,0.0014302983046876,-0.0014302983046873,0.0014302983046876,-0.0013726432925811,0.0013726432925814,-0.0013726432925811,0.0013726432925814,-0.0013726432925816,0.0013726432925809,-0.0013726432925808,0.0013726432925817,6.6689139163164e-18,-3.0087316147262e-17,-0.0013962010846818,0.0013962010846818,-7.1909567917943e-18,-1.6249503588819e-17,-0.0014302983046874,0.0014302983046874,-0.0014302983046875,0.0014302983046875,-0.0014302983046874,0.0014302983046874,-0.0014302983046875,0.0014302983046874,-0.0013726432925813,0.0013726432925812,-0.0013726432925813,0.0013726432925813,0.67519680390905,0.78518100685759,1270536,32768,0.0058006010543282,0.0058006010543284,0.0058006010543284,23.544453302955,23.537310120051,0.00010355562642364,0.00010355562642364,0.00010355562642364,427694.45330313,0.017554330190671
17193600,0.99959699111097,0.017082137616372,0.0056940458721239,0.0056940458721241,0.0056940458721241,-0.0013952922171477,0.0013952922171476,-5.7615886933027e-17,-1.6367147053716e-17,3.5607000465872e-16,-4.318691596348e-16,-0.0014294504522287,0.0014294504522289,-0.0014294504522287,0.0014294504522289,-0.001429450452229,0.0014294504522286,-0.001429450452229,0.0014294504522286,-0.0013716945935847,0.0013716945935843,-0.0013716945935847,0.0013716945935844,-3.5773907131693e-16,4.3686165417634e-16,3.3153398951125e-17,4.3086919018318e-17,-0.0013952922171477,0.0013952922171477,-0.0014294504522289,0.0014294504522288,-0.001429450452229,0.0014294504522287,-0.0014294504522287,0.001429450452229,-0.0014294504522287,0.001429450452229,-0.0013716945935844,0.0013716945935847,-0.0013716945935845,0.0013716945935848,-0.001371694593585,0.0013716945935843,-0.0013716945935842,0.0013716945935851,3.9410560740304e-18,-3.3263689699466e-17,-0.0013952922171477,0.0013952922171477,-1.0176159713541e-17,-2.0867009586004e-17,-0.0014294504522289,0.0014294504522288,-0.0014294504522289,0.0014294504522289,-0.0014294504522289,0.0014294504522288,-0.0014294504522289,0.0014294504522288,-0.0013716945935847,0.0013716945935846,-0.0013716945935846,0.0013716945935846,0.66737341866259,0.73653500939555,1270536,32768,0.0057968360177912,0.0057968360177913,0.0057968360177914,23.134017043033,23.10775799277,0.00010027213634426,0.00010027213634426,0.00010027213634426,429310.42337988,0.017542836704844
17280000,0.99960702184959,0.017082301275374,0.0056941004251244,0.0056941004251246,0.0056941004251246,-0.0013942945806678,0.0013942945806677,-4.8204409741312e-17,-6.8600845467731e-18,3.6210658495121e-16,-4.2359000079271e-16,-0.0014285160938233,0.0014285160938235,-0.0014285160938233,0.0014285160938235,-0.0014285160938236,0.0014285160938232,-0.0014285160938236,0.0014285160938233,-0.0013706540063478,0.0013706540063474,-0.0013706540063478,0.0013706540063475,-3.441512511214e-16,4.4808925235739e-16,4.535890843413e-17,5.5968878424477e-17,-0.0013942945806677,0.0013942945806678,-0.0014285160938235,0.0014285160938234,-0.0014285160938235,0.0014285160938234,-0.0014285160938233,0.0014285160938236,-0.0014285160938233,0.0014285160938236,-0.0013706540063476,0.0013706540063479,-0.0013706540063476,0.0013706540063479,-0.0013706540063481,0.0013706540063474,-0.0013706540063473,0.0013706540063482,5.0660217071025e-18,-3.2263720247846e-17,-0.0013942945806678,0.0013942945806678,-7.4115382884751e-18,-1.789651209737e-17,-0.0014285160938234,0.0014285160938234,-0.0014285160938235,0.0014285160938234,-0.0014285160938234,0.0014285160938234,-0.0014285160938235,0.0014285160938234,-0.0013706540063478,0.0013706540063477,-0.0013706540063477,0.0013706540063478,0.65525533296421,0.67931440928827,1270536,32768,0.005792703276757,0.0057927032767572,0.0057927032767572,22.699109751355,22.670708850427,9.6792878010837e-05,9.6792878010837e-05,9.6792878010837e-05,432268.70821155,0.017530220645776
17366400,0.99961654880755,0.017082453138088,0.0056941510460293,0.0056941510460295,0.0056941510460295,-0.0013932587481206,0.0013932587481205,-5.8770263432323e-17,-1.7712694183469e-17,3.5241570453037e-16,-4.3183974876857e-16,-0.001427549265738,0.0014275492657381,-0.0014275492657379,0.0014275492657381,-0.0014275492657382,0.0014275492657379,-0.0014275492657382,0.0014275492657379,-0.0013695714915068,0.0013695714915064,-0.0013695714915068,0.0013695714915065,-3.5262158059394e-16,4.3836160835377e-16,3.7954722862211e-17,4.711620769102e-17,-0.0013932587481205,0.0013932587481206,-0.0014275492657382,0.001427549265738,-0.0014275492657382,0.001427549265738,-0.0014275492657379,0.0014275492657382,-0.0014275492657379,0.0014275492657382,-0.0013695714915066,0.0013695714915069,-0.0013695714915066,0.0013695714915069,-0.0013695714915071,0.0013695714915064,-0.0013695714915063,0.0013695714915072,6.6468557666483e-18,-3.0484362841288e-17,-0.0013932587481206,0.0013932587481205,-7.8674067149488e-18,-1.7558287135792e-17,-0.0014275492657381,0.0014275492657381,-0.0014275492657381,0.0014275492657381,-0.0014275492657381,0.0014275492657381,-0.0014275492657381,0.0014275492657381,-0.0013695714915068,0.0013695714915067,-0.0013695714915067,0.0013695714915068,0.64018039515228,0.62191897194069,1270536,32768,0.0057884123167244,0.0057884123167245,0.0057884123167245,22.262229141722,22.233659708085,9.3297833133777e-05,9.3297833133777e-05,9.3297833133777e-05,436639.79442736,0.01751712163031
17452800,0.99962560231791,0.017082593560926,0.0056941978536418,0.005694197853642,0.005694197853642,-0.0013922065370232,0.0013922065370231,-5.7527654334355e-17,-1.6418616069608e-17,3.5237158823103e-16,-4.3219267916326e-16,-0.0014265655265519,0.001426565526552,-0.0014265655265519,0.001426565526552,-0.0014265655265521,0.0014265655265518,-0.0014265655265521,0.0014265655265518,-0.0013684747219842,0.0013684747219838,-0.0013684747219842,0.0013684747219839,-3.4804819089609e-16,4.4303058336685e-16,4.2506054410392e-17,5.083668226837e-17,-0.0013922065370231,0.0013922065370232,-0.0014265655265521,0.0014265655265519,-0.0014265655265521,0.0014265655265519,-0.0014265655265518,0.0014265655265521,-0.0014265655265518,0.0014265655265522,-0.001368474721984,0.0013684747219843,-0.001368474721984,0.0013684747219843,-0.0013684747219844,0.0013684747219838,-0.0013684747219837,0.0013684747219846,5.3674830858997e-18,-3.1925495286269e-17,-0.0013922065370232,0.0013922065370232,-7.8232904156126e-18,-1.689654264575e-17,-0.001426565526552,0.001426565526552,-0.001426565526552,0.001426565526552,-0.001426565526552,0.001426565526552,-0.001426565526552,0.001426565526552,-0.0013684747219842,0.0013684747219841,-0.0013684747219841,0.0013684747219841,0.62292518927808,0.56601547915426,1270536,32768,0.0057840535154539,0.005784053515454,0.005784053515454,21.82516065387,21.796610565742,8.9801285230957e-05,8.9801285230957e-05,8.9801285230957e-05,441908.31133678,0.017503815605329
17539200,0.99963421065101,0.01708272312842,0.0056942410428065,0.0056942410428067,0.0056942410428067,-0.0013911462419958,0.0013911462419958,-5.4270400900035e-17,-1.3109893619396e-17,3.5487886457664e-16,-4.2981039899911e-16,-0.0014255702611196,0.0014255702611198,-0.0014255702611196,0.0014255702611198,-0.0014255702611199,0.0014255702611195,-0.0014255702611199,0.0014255702611196,-0.0013673736209878,0.0013673736209874,-0.0013673736209878,0.0013673736209875,-3.4393066962472e-16,4.4742750786735e-16,4.6873568044672e-17,5.4292459049703e-17,-0.0013911462419958,0.0013911462419959,-0.0014255702611198,0.0014255702611197,-0.0014255702611198,0.0014255702611196,-0.0014255702611196,0.0014255702611199,-0.0014255702611195,0.0014255702611199,-0.0013673736209876,0.0013673736209879,-0.0013673736209876,0.0013673736209879,-0.0013673736209881,0.0013673736209874,-0.0013673736209873,0.0013673736209882,8.5512093546593e-18,-2.8675594568505e-17,-0.0013911462419958,0.0013911462419958,-5.8380569454854e-18,-1.3573114762426e-17,-0.0014255702611197,0.0014255702611197,-0.0014255702611197,0.0014255702611197,-0.0014255702611197,0.0014255702611197,-0.0014255702611197,0.0014255702611197,-0.0013673736209878,0.0013673736209877,-0.0013673736209878,0.0013673736209878,0.6045182206287,0.51484623117264,1270536,32768,0.0057796612288942,0.0057796612288944,0.0057796612288944,21.388073787597,21.359561423399,8.6304590300775e-05,8.6304590300775e-05,8.6304590300775e-05,447847.74357997,0.017490407473312
17625600,0.99964240009324,0.017082842911542,0.0056942809705138,0.0056942809705139,0.0056942809705139,-0.0013900900771011,0.001390090077101,-6.2667203207017e-17,-2.1521401359491e-17,3.4819524522721e-16,-4.3726605358692e-16,-0.0014245716113632,0.0014245716113633,-0.0014245716113632,0.0014245716113633,-0.0014245716113634,0.0014245716113631,-0.0014245716113634,0.0014245716113631,-0.0013662831891279,0.0013662831891275,-0.0013662831891279,0.0013662831891276,-3.4235718828173e-16,4.4993478421296e-16,4.8932328680359e-17,5.6468863150287e-17,-0.0013900900771011,0.0013900900771012,-0.0014245716113634,0.0014245716113632,-0.0014245716113634,0.0014245716113632,-0.0014245716113631,0.0014245716113634,-0.0014245716113631,0.0014245716113635,-0.0013662831891277,0.001366283189128,-0.0013662831891277,0.001366283189128,-0.0013662831891281,0.0013662831891275,-0.0013662831891274,0.0013662831891283,6.4630378527477e-18,-3.0954936700873e-17,-0.0013900900771011,0.0013900900771011,-7.8968175811729e-18,-1.5867162327906e-17,-0.0014245716113633,0.0014245716113633,-0.0014245716113633,0.0014245716113633,-0.0014245716113633,0.0014245716113632,-0.0014245716113633,0.0014245716113633,-0.0013662831891279,0.0013662831891278,-0.0013662831891278,0.0013662831891279,0.58748811654318,0.47920502092113,1270536,32768,0.0057752860503906,0.0057752860503908,0.0057752860503908,20.950985124445,20.922512281056,8.2807880995557e-05,8.2807880995557e-05,8.2807880995557e-05,454070.88087973,0.017477051703425
17712000,0.9996501954092,0.017082953582406,0.0056943178608018,0.005694317860802,0.005694317860802,-0.0013890755813836,0.0013890755813835,-5.966361849388e-17,-1.8639136469528e-17,3.5163631657543e-16,-4.346778973592e-16,-0.0014235949440807,0.0014235949440809,-0.0014235949440807,0.0014235949440809,-0.001423594944081,0.0014235949440807,-0.001423594944081,0.0014235949440807,-0.0013652508452473,0.0013652508452469,-0.0013652508452473,0.001365250845247,-3.5223923933303e-16,4.4117769879473e-16,4.0601700822381e-17,4.8469107537329e-17,-0.0013890755813836,0.0013890755813836,-0.0014235949440809,0.0014235949440808,-0.001423594944081,0.0014235949440808,-0.0014235949440807,0.001423594944081,-0.0014235949440807,0.001423594944081,-0.001365250845247,0.0013652508452474,-0.0013652508452471,0.0013652508452474,-0.0013652508452475,0.0013652508452469,-0.0013652508452468,0.0013652508452476,8.0879882116296e-19,-3.6351830652997e-17,-0.0013890755813836,0.0013890755813836,-1.3220184367736e-17,-2.126405628003e-17,-0.0014235949440809,0.0014235949440809,-0.0014235949440809,0.0014235949440809,-0.0014235949440809,0.0014235949440808,-0.0014235949440809,0.0014235949440808,-0.0013652508452473,0.0013652508452472,-0.0013652508452472,0.0013652508452472,0.57027813485952,0.44356381066962,1270536,32768,0.0057710834846797,0.0057710834846799,0.0057710834846799,20.514547890647,20.486155652505,7.9316383125175e-05,7.9316383125175e-05,7.9316383125175e-05,459331.58927175,0.017464223041546
17798400,0.99965762661219,0.017083055816775,0.0056943519389248,0.005694351938925,0.005694351938925,-0.0013880984596575,0.0013880984596574,-5.7994551835662e-17,-1.6874484496082e-17,3.5429799996871e-16,-4.3332499751289e-16,-0.0014226489758724,0.0014226489758725,-0.0014226489758723,0.0014226489758725,-0.0014226489758726,0.0014226489758723,-0.0014226489758726,0.0014226489758723,-0.0013642585531363,0.0013642585531359,-0.0013642585531363,0.0013642585531359,-3.459894302604e-16,4.4847159361831e-16,4.6822099028779e-17,5.4527745979496e-17,-0.0013880984596575,0.0013880984596576,-0.0014226489758726,0.0014226489758724,-0.0014226489758726,0.0014226489758724,-0.0014226489758723,0.0014226489758726,-0.0014226489758723,0.0014226489758727,-0.001364258553136,0.0013642585531363,-0.001364258553136,0.0013642585531364,-0.0013642585531365,0.0013642585531358,-0.0013642585531357,0.0013642585531366,7.6027089189318e-18,-2.9763796618797e-17,-0.0013880984596575,0.0013880984596575,-6.6468557666483e-18,-1.5043658073631e-17,-0.0014226489758725,0.0014226489758725,-0.0014226489758725,0.0014226489758725,-0.0014226489758725,0.0014226489758725,-0.0014226489758725,0.0014226489758725,-0.0013642585531362,0.0013642585531362,-0.0013642585531362,0.0013642585531362,0.55265296882269,0.40792260041811,1270536,32768,0.0057670357299269,0.0057670357299271,0.0057670357299271,20.094062596151,20.066711756922,7.5952500769208e-05,7.5952500769208e-05,7.5952500769208e-05,464698.64410463,0.017451867077632
17884800,0.99966471451232,0.017083150123257,0.0056943833744189,0.0056943833744191,0.0056943833744191,-0.0013871253153,0.0013871253152999,-5.8075431717779e-17,-1.7028891543758e-17,3.5353331744689e-16,-4.3407497460161e-16,-0.0014217037286557,0.0014217037286559,-0.0014217037286557,0.0014217037286559,-0.001421703728656,0.0014217037286556,-0.001421703728656,0.0014217037286556,-0.0013632708975282,0.0013632708975278,-0.0013632708975282,0.0013632708975278,-3.4681293451468e-16,4.4764808936403e-16,4.4998625322885e-17,5.2924853770282e-17,-0.0013871253152999,0.0013871253153,-0.0014217037286559,0.0014217037286558,-0.0014217037286559,0.0014217037286557,-0.0014217037286556,0.001421703728656,-0.0014217037286557,0.001421703728656,-0.0013632708975279,0.0013632708975282,-0.0013632708975279,0.0013632708975283,-0.0013632708975284,0.0013632708975277,-0.0013632708975276,0.0013632708975285,7.5071236037035e-18,-2.9690269453237e-17,-0.0013871253153,0.0013871253153,-6.5880340342001e-18,-1.5087774372967e-17,-0.0014217037286558,0.0014217037286558,-0.0014217037286558,0.0014217037286558,-0.0014217037286558,0.0014217037286558,-0.0014217037286558,0.0014217037286558,-0.0013632708975281,0.0013632708975281,-0.0013632708975281,0.0013632708975281,0.53452523417127,0.37228139016661,1270536,32768,0.0057630044335845,0.0057630044335847,0.0057630044335847,19.674516809992,19.647267861338,7.2596134479934e-05,7.2596134479934e-05,7.2596134479934e-05,470347.0151391,0.017439561504753
17971200,0.99967147815047,0.017083238426051,0.0056944128086837,0.0056944128086838,0.0056944128086838,-0.0013861526722525,0.0013861526722525,-5.9340098965415e-17,-1.8175915326499e-17,3.526951077595e-16,-4.3582492114194e-16,-0.0014207566554205,0.0014207566554206,-0.0014207566554204,0.0014207566554206,-0.0014207566554207,0.0014207566554204,-0.0014207566554207,0.0014207566554204,-0.0013622841990202,0.0013622841990198,-0.0013622841990202,0.0013622841990199,-3.461070737253e-16,4.4887599302889e-16,4.6373583318862e-17,5.4218931884142e-17,-0.0013861526722525,0.0013861526722526,-0.0014207566554207,0.0014207566554205,-0.0014207566554207,0.0014207566554205,-0.0014207566554204,0.0014207566554207,-0.0014207566554204,0.0014207566554208,-0.00136228419902,0.0013622841990203,-0.00136228419902,0.0013622841990203,-0.0013622841990204,0.0013622841990198,-0.0013622841990197,0.0013622841990206,6.5292123017519e-18,-3.0984347567097e-17,-0.0013861526722525,0.0013861526722525,-7.6174143520439e-18,-1.5984805792803e-17,-0.0014207566554206,0.0014207566554206,-0.0014207566554206,0.0014207566554206,-0.0014207566554206,0.0014207566554205,-0.0014207566554206,0.0014207566554206,-0.0013622841990202,0.0013622841990201,-0.0013622841990201,0.0013622841990202,0.52453685717938,0.38445515783111,1270536,32768,0.0057589751977572,0.0057589751977574,0.0057589751977574,19.255063162207,19.227823965754,6.9240505297657e-05,6.9240505297657e-05,6.9240505297657e-05,476331.66795287,0.017427262364597
18057600,0.99967793528262,0.017083322687712,0.0056944408959039,0.0056944408959041,0.0056944408959041,-0.0013853339027129,0.0013853339027128,-5.9093782960788e-17,-1.7786221349029e-17,3.534303794151e-16,-4.3517788208501e-16,-0.00141990882209,0.0014199088220901,-0.00141990882209,0.0014199088220901,-0.0014199088220902,0.0014199088220899,-0.0014199088220902,0.0014199088220899,-0.0013614985072505,0.0013614985072501,-0.0013614985072505,0.0013614985072502,-3.4813642349476e-16,4.4704516660644e-16,4.47118693772e-17,5.2660155974265e-17,-0.0013853339027128,0.0013853339027129,-0.0014199088220902,0.00141990882209,-0.0014199088220902,0.00141990882209,-0.0014199088220899,0.0014199088220902,-0.0014199088220899,0.0014199088220903,-0.0013614985072503,0.0013614985072506,-0.0013614985072503,0.0013614985072506,-0.0013614985072508,0.0013614985072501,-0.00136149850725,0.0013614985072509,6.815968247437e-18,-3.0602006306184e-17,-0.0013853339027129,0.0013853339027129,-6.823320963993e-18,-1.532306130276e-17,-0.0014199088220901,0.0014199088220901,-0.0014199088220901,0.0014199088220901,-0.0014199088220901,0.0014199088220901,-0.0014199088220901,0.0014199088220901,-0.0013614985072505,0.0013614985072504,-0.0013614985072504,0.0013614985072505,0.52434282438387,0.43343334366343,1270536,32768,0.0057555833934494,0.0057555833934496,0.0057555833934496,18.835618315531,18.808380070171,6.5884946524248e-05,6.5884946524248e-05,6.5884946524248e-05,477237.34897768,0.017416909296953
18144000,0.99968410250933,0.017083403481475,0.0056944678271583,0.0056944678271585,0.0056944678271585,-0.0013846608191861,0.001384660819186,-5.8847466956161e-17,-1.7595050718572e-17,3.538494842588e-16,-4.3498671145455e-16,-0.0014191583370001,0.0014191583370003,-0.0014191583370001,0.0014191583370003,-0.0014191583370004,0.001419158337,-0.0014191583370004,0.001419158337,-0.0013608933853446,0.0013608933853442,-0.0013608933853446,0.0013608933853443,-3.4738644640605e-16,4.4811866322362e-16,4.5336850284462e-17,5.3704241725221e-17,-0.0013846608191861,0.0013846608191862,-0.0014191583370003,0.0014191583370002,-0.0014191583370003,0.0014191583370001,-0.0014191583370001,0.0014191583370004,-0.0014191583370001,0.0014191583370004,-0.0013608933853444,0.0013608933853447,-0.0013608933853444,0.0013608933853447,-0.0013608933853449,0.0013608933853442,-0.0013608933853441,0.001360893385345,6.8968481295533e-18,-3.057259543996e-17,-0.0013846608191861,0.0013846608191861,-6.9556698620015e-18,-1.5367177602096e-17,-0.0014191583370002,0.0014191583370002,-0.0014191583370002,0.0014191583370002,-0.0014191583370002,0.0014191583370002,-0.0014191583370003,0.0014191583370002,-0.0013608933853446,0.0013608933853445,-0.0013608933853445,0.0013608933853446,0.52641398209298,0.46764876411549,1270536,32768,0.0057527950671793,0.0057527950671795,0.0057527950671795,18.41617432673,18.388936174587,6.2529394613836e-05,6.2529394613836e-05,6.2529394613836e-05,473016.43589153,0.01740839866577
18230400,0.99968999536453,0.017083480765982,0.0056944935886607,0.0056944935886609,0.0056944935886609,-0.0013839766686157,0.0013839766686156,-5.4976261689413e-17,-1.367605279421e-17,3.5763613328515e-16,-4.3108977167986e-16,-0.0014184059160001,0.0014184059160003,-0.0014184059160001,0.0014184059160003,-0.0014184059160004,0.001418405916,-0.0014184059160004,0.0014184059160001,-0.0013602594794987,0.0013602594794983,-0.0013602594794987,0.0013602594794984,-3.4832759412522e-16,4.4743486058391e-16,4.4520698746743e-17,5.2704272273601e-17,-0.0013839766686156,0.0013839766686157,-0.0014184059160003,0.0014184059160002,-0.0014184059160003,0.0014184059160002,-0.0014184059160001,0.0014184059160004,-0.0014184059160001,0.0014184059160004,-0.0013602594794984,0.0013602594794987,-0.0013602594794984,0.0013602594794988,-0.0013602594794989,0.0013602594794982,-0.0013602594794981,0.001360259479499,7.110076909678e-18,-3.0160843312822e-17,-0.0013839766686157,0.0013839766686156,-6.6468557666483e-18,-1.5337766735872e-17,-0.0014184059160002,0.0014184059160002,-0.0014184059160003,0.0014184059160002,-0.0014184059160002,0.0014184059160002,-0.0014184059160003,0.0014184059160002,-0.0013602594794986,0.0013602594794986,-0.0013602594794986,0.0013602594794986,0.52697668113137,0.47962916559167,1270536,32768,0.0057499608254074,0.0057499608254076,0.0057499608254076,17.996730421997,17.969492279003,5.9173843375978e-05,5.9173843375978e-05,5.9173843375978e-05,468953.34112207,0.017399748047065
18316800,0.99969563910696,0.017083554920794,0.0056945183069312,0.0056945183069314,0.0056945183069314,-0.00138329423444,0.00138329423444,-5.8909965046888e-17,-1.7624461584797e-17,3.5406271303892e-16,-4.3528082011679e-16,-0.0014176798801147,0.0014176798801148,-0.0014176798801146,0.0014176798801148,-0.0014176798801149,0.0014176798801146,-0.0014176798801149,0.0014176798801146,-0.0013596017655392,0.0013596017655388,-0.0013596017655392,0.0013596017655389,-3.4710704317692e-16,4.4880246586333e-16,4.5814776860604e-17,5.4410102514599e-17,-0.00138329423444,0.0013832942344401,-0.0014176798801149,0.0014176798801147,-0.0014176798801149,0.0014176798801147,-0.0014176798801146,0.0014176798801149,-0.0014176798801146,0.001417679880115,-0.0013596017655389,0.0013596017655393,-0.001359601765539,0.0013596017655393,-0.0013596017655394,0.0013596017655388,-0.0013596017655387,0.0013596017655396,6.8821426964412e-18,-3.0631417172408e-17,-0.0013832942344401,0.00138329423444,-6.9556698620015e-18,-1.5631875398113e-17,-0.0014176798801148,0.0014176798801148,-0.0014176798801148,0.0014176798801148,-0.0014176798801148,0.0014176798801148,-0.0014176798801148,0.0014176798801148,-0.0013596017655392,0.0013596017655391,-0.0013596017655391,0.0013596017655392,0.52793783384439,0.49160956706785,1270536,32768,0.0057471336609382,0.0057471336609384,0.0057471336609384,17.607584095351,17.582248155016,5.6060672762811e-05,5.6060672762811e-05,5.6060672762811e-05,466662.09095353,0.017391119036257
18403200,0.99970113881003,0.017083627388894,0.0056945424629646,0.0056945424629647,0.0056945424629647,-0.0013831264853119,0.0013831264853118,-5.8568063727032e-17,-1.7389174655004e-17,3.5447446516606e-16,-4.3483965712343e-16,-0.0014174698509762,0.0014174698509764,-0.0014174698509762,0.0014174698509764,-0.0014174698509765,0.0014174698509761,-0.0014174698509765,0.0014174698509761,-0.0013594578628523,0.0013594578628519,-0.0013594578628523,0.001359457862852,-3.4673940734912e-16,4.493245087388e-16,4.6160354538737e-17,5.4660094877504e-17,-0.0013831264853118,0.0013831264853119,-0.0014174698509764,0.0014174698509763,-0.0014174698509764,0.0014174698509762,-0.0014174698509762,0.0014174698509765,-0.0014174698509762,0.0014174698509765,-0.0013594578628521,0.0013594578628524,-0.0013594578628521,0.0013594578628524,-0.0013594578628525,0.0013594578628519,-0.0013594578628518,0.0013594578628527,7.5144763202595e-18,-2.9984378115478e-17,-0.0013831264853119,0.0013831264853119,-6.4998014355278e-18,-1.5234828704088e-17,-0.0014174698509763,0.0014174698509763,-0.0014174698509763,0.0014174698509763,-0.0014174698509763,0.0014174698509763,-0.0014174698509764,0.0014174698509763,-0.0013594578628523,0.0013594578628522,-0.0013594578628522,0.0013594578628523,0.52944556179733,0.50358996854403,1270536,32768,0.0057464387364276,0.0057464387364278,0.0057464387364278,17.488346827887,17.480018791454,5.5106774623095e-05,5.5106774623095e-05,5.5106774623095e-05,464269.36480553,0.017388997937135
18489600,0.99970650408428,0.017083698363026,0.0056945661210085,0.0056945661210087,0.0056945661210087,-0.001382986051394,0.0013829860513939,-5.9446713355478e-17,-1.8161209893386e-17,3.5351861201377e-16,-4.3603079720551e-16,-0.0014172983171204,0.0014172983171205,-0.0014172983171204,0.0014172983171205,-0.0014172983171206,0.0014172983171203,-0.0014172983171206,0.0014172983171203,-0.0013593341271923,0.0013593341271919,-0.0013593341271923,0.0013593341271919,-3.4688646168024e-16,4.4934656688847e-16,4.5998594774504e-17,5.4748327476176e-17,-0.0013829860513939,0.001382986051394,-0.0014172983171206,0.0014172983171204,-0.0014172983171206,0.0014172983171204,-0.0014172983171203,0.0014172983171207,-0.0014172983171203,0.0014172983171207,-0.001359334127192,0.0013593341271923,-0.001359334127192,0.0013593341271924,-0.0013593341271925,0.0013593341271918,-0.0013593341271917,0.0013593341271926,7.2791893904666e-18,-3.0013788981702e-17,-0.001382986051394,0.001382986051394,-6.3674525375193e-18,-1.5293650436536e-17,-0.0014172983171205,0.0014172983171205,-0.0014172983171205,0.0014172983171205,-0.0014172983171205,0.0014172983171205,-0.0014172983171205,0.0014172983171205,-0.0013593341271922,0.0013593341271922,-0.0013593341271922,0.0013593341271922,0.53150944183777,0.51557037002021,1270536,32768,0.0057458569432865,0.0057458569432867,0.0057458569432867,17.384590540697,17.377789427893,5.4276724325573e-05,5.4276724325573e-05,5.4276724325573e-05,462094.82999173,0.017387222269874
18576000,0.9997117392677,0.017083766001925,0.0056945886673081,0.0056945886673082,0.0056945886673082,-0.0013828468782767,0.0013828468782766,-5.9009226720394e-17,-1.7668577884133e-17,3.5406271303892e-16,-4.3558963421215e-16,-0.0014171326278426,0.0014171326278428,-0.0014171326278426,0.0014171326278428,-0.0014171326278428,0.0014171326278425,-0.0014171326278428,0.0014171326278425,-0.0013592090643858,0.0013592090643854,-0.0013592090643858,0.0013592090643855,-3.4700410514513e-16,4.4947891578648e-16,4.5866245876496e-17,5.463068401128e-17,-0.0013828468782767,0.0013828468782768,-0.0014171326278428,0.0014171326278426,-0.0014171326278428,0.0014171326278426,-0.0014171326278425,0.0014171326278429,-0.0014171326278425,0.0014171326278429,-0.0013592090643856,0.0013592090643859,-0.0013592090643856,0.0013592090643859,-0.0013592090643861,0.0013592090643854,-0.0013592090643853,0.0013592090643862,6.5218595851959e-18,-3.0969642133985e-17,-0.0013828468782767,0.0013828468782767,-7.3086002566908e-18,-1.6337736187492e-17,-0.0014171326278427,0.0014171326278427,-0.0014171326278427,0.0014171326278427,-0.0014171326278427,0.0014171326278427,-0.0014171326278427,0.0014171326278427,-0.0013592090643858,0.0013592090643857,-0.0013592090643857,0.0013592090643858,0.51911282509141,0.44491818485885,1270536,32768,0.0057452803640194,0.0057452803640196,0.0057452803640196,17.2822145703,17.275560064332,5.34577165624e-05,5.34577165624e-05,5.34577165624e-05,459893.34455965,0.01738546255167
18662400,0.99971684812826,0.017083833638973,0.0056946112129909,0.005694611212991,0.005694611212991,-0.0013824720002864,0.0013824720002863,-5.8972463137614e-17,-1.7595050718572e-17,3.5415094563759e-16,-4.3570727767704e-16,-0.0014168133832724,0.0014168133832725,-0.0014168133832724,0.0014168133832725,-0.0014168133832726,0.0014168133832723,-0.0014168133832726,0.0014168133832723,-0.0013587763174798,0.0013587763174794,-0.0013587763174798,0.0013587763174794,-3.4670999648289e-16,4.4971420271627e-16,4.6263292570521e-17,5.5174785036426e-17,-0.0013824720002864,0.0013824720002865,-0.0014168133832726,0.0014168133832724,-0.0014168133832726,0.0014168133832724,-0.0014168133832723,0.0014168133832727,-0.0014168133832723,0.0014168133832727,-0.0013587763174795,0.0013587763174798,-0.0013587763174795,0.0013587763174799,-0.00135877631748,0.0013587763174794,-0.0013587763174792,0.0013587763174801,7.6247670685999e-18,-2.9778502051909e-17,-0.0013824720002864,0.0013824720002864,-6.1174601746144e-18,-1.5102479806079e-17,-0.0014168133832725,0.0014168133832725,-0.0014168133832725,0.0014168133832725,-0.0014168133832725,0.0014168133832725,-0.0014168133832725,0.0014168133832725,-0.0013587763174797,0.0013587763174797,-0.0013587763174797,0.0013587763174797,0.53191617332912,0.54534554436908,1270536,32768,0.0057437273257357,0.0057437273257359,0.0057437273257359,17.179970898247,17.17333070077,5.2639767185977e-05,5.2639767185977e-05,5.2639767185977e-05,465966.82403013,0.017380722035924
18748800,0.99972183427141,0.0170839023273,0.0056946341090998,0.0056946341090999,0.0056946341090999,-0.001382535968421,0.001382535968421,-5.8270278706513e-17,-1.7021538827202e-17,3.544009380005e-16,-4.354131690148e-16,-0.0014167840587165,0.0014167840587166,-0.0014167840587165,0.0014167840587166,-0.0014167840587167,0.0014167840587164,-0.0014167840587167,0.0014167840587164,-0.0013589264089334,0.001358926408933,-0.0013589264089334,0.0013589264089331,-3.4588649222862e-16,4.5049359067121e-16,4.6520637649982e-17,5.5954172991365e-17,-0.001382535968421,0.0013825359684211,-0.0014167840587167,0.0014167840587165,-0.0014167840587167,0.0014167840587165,-0.0014167840587164,0.0014167840587168,-0.0014167840587164,0.0014167840587168,-0.0013589264089332,0.0013589264089335,-0.0013589264089332,0.0013589264089335,-0.0013589264089337,0.001358926408933,-0.0013589264089329,0.0013589264089338,7.5071236037035e-18,-2.9763796618797e-17,-0.0013825359684211,0.001382535968421,-5.8968786779336e-18,-1.5411293901432e-17,-0.0014167840587166,0.0014167840587166,-0.0014167840587166,0.0014167840587166,-0.0014167840587166,0.0014167840587166,-0.0014167840587166,0.0014167840587166,-0.0013589264089334,0.0013589264089333,-0.0013589264089333,0.0013589264089334,0.55350340941735,0.64489692877595,1270536,32768,0.0057439923483493,0.0057439923483495,0.0057439923483495,17.077740132017,17.071101337209,5.1821921056133e-05,5.1821921056133e-05,5.1821921056133e-05,456790.64181657,0.017381531396035
18835200,0.99972670118207,0.01708397114118,0.0056946570470598,0.00569465704706,0.00569465704706,-0.0013826497859549,0.0013826497859548,-6.3759081615587e-17,-2.248460722833e-17,3.4938638530929e-16,-4.407806521007e-16,-0.0014167910098987,0.0014167910098988,-0.0014167910098987,0.0014167910098988,-0.0014167910098989,0.0014167910098986,-0.0014167910098989,0.0014167910098986,-0.0013591232867756,0.0013591232867752,-0.0013591232867756,0.0013591232867753,-3.426954132433e-16,4.5424347611479e-16,5.0770507819366e-17,5.9777585600499e-17,-0.0013826497859549,0.001382649785955,-0.0014167910098989,0.0014167910098987,-0.0014167910098989,0.0014167910098987,-0.0014167910098986,0.001416791009899,-0.0014167910098986,0.001416791009899,-0.0013591232867753,0.0013591232867757,-0.0013591232867753,0.0013591232867757,-0.0013591232867758,0.0013591232867752,-0.0013591232867751,0.001359123286776,6.9703752951135e-18,-3.0263781344607e-17,-0.0013826497859549,0.0013826497859549,-6.1321656077264e-18,-1.5705402563673e-17,-0.0014167910098988,0.0014167910098988,-0.0014167910098988,0.0014167910098988,-0.0014167910098988,0.0014167910098988,-0.0014167910098988,0.0014167910098988,-0.0013591232867756,0.0013591232867755,-0.0013591232867755,0.0013591232867755,0.56803532056645,0.67141121253251,1270536,32768,0.0057444637956374,0.0057444637956376,0.0057444637956376,16.975510630779,16.968871973648,5.1004085046231e-05,5.1004085046231e-05,5.1004085046231e-05,445420.30118409,0.017382971049555
18921600,0.99973145223232,0.017084039957866,0.0056946799859553,0.0056946799859554,0.0056946799859554,-0.0013825982285184,0.0013825982285183,-5.897981585417e-17,-1.7646519734465e-17,3.5413624020448e-16,-4.3579551027572e-16,-0.001416695531179,0.0014166955311792,-0.001416695531179,0.0014166955311792,-0.0014166955311792,0.0014166955311789,-0.0014166955311792,0.0014166955311789,-0.0013590908495497,0.0013590908495493,-0.0013590908495496,0.0013590908495493,-3.4665117475045e-16,4.5043476893877e-16,4.6292703436745e-17,5.5586537163563e-17,-0.0013825982285183,0.0013825982285184,-0.0014166955311792,0.001416695531179,-0.0014166955311792,0.001416695531179,-0.0014166955311789,0.0014166955311793,-0.0014166955311789,0.0014166955311793,-0.0013590908495494,0.0013590908495497,-0.0013590908495494,0.0013590908495497,-0.0013590908495499,0.0013590908495492,-0.0013590908495491,0.00135909084955,7.4409491546992e-18,-2.9866734650581e-17,-0.0013825982285184,0.0013825982285184,-5.9262895441577e-18,-1.539658846832e-17,-0.0014166955311791,0.0014166955311791,-0.0014166955311791,0.0014166955311791,-0.0014166955311791,0.0014166955311791,-0.0014166955311791,0.0014166955311791,-0.0013590908495496,0.0013590908495495,-0.0013590908495496,0.0013590908495496,0.58183347061537,0.69792549628906,1270536,32768,0.0057442500871633,0.0057442500871635,0.0057442500871635,16.8732812537,16.866642610087,5.0186250029597e-05,5.0186250029597e-05,5.0186250029597e-05,439399.50848423,0.017382319249922
19008000,0.99973609068577,0.017084109744582,0.0056947032481937,0.0056947032481939,0.0056947032481939,-0.0013825207246339,0.0013825207246338,-6.121871804548e-17,-1.9808218401937e-17,3.5213630130124e-16,-4.3788368177763e-16,-0.0014165885493964,0.0014165885493965,-0.0014165885493964,0.0014165885493965,-0.0014165885493966,0.0014165885493963,-0.0014165885493966,0.0014165885493963,-0.0013590245743032,0.0013590245743028,-0.0013590245743032,0.0013590245743029,-3.4706292687758e-16,4.4976567173217e-16,4.5792718710936e-17,5.5013025272193e-17,-0.0013825207246338,0.0013825207246339,-0.0014165885493966,0.0014165885493964,-0.0014165885493966,0.0014165885493964,-0.0014165885493963,0.0014165885493966,-0.0014165885493963,0.0014165885493967,-0.0013590245743029,0.0013590245743032,-0.0013590245743029,0.0013590245743033,-0.0013590245743034,0.0013590245743028,-0.0013590245743027,0.0013590245743035,7.6247670685999e-18,-2.9793207485021e-17,-0.0013825207246339,0.0013825207246339,-5.9851112766059e-18,-1.5205417837864e-17,-0.0014165885493965,0.0014165885493965,-0.0014165885493965,0.0014165885493965,-0.0014165885493965,0.0014165885493965,-0.0014165885493965,0.0014165885493965,-0.0013590245743031,0.0013590245743031,-0.0013590245743031,0.0013590245743031,0.60430968524453,0.77244247275956,1270536,32768,0.0057439288971264,0.0057439288971266,0.0057439288971266,16.771051888811,16.764413246525,4.9368415110488e-05,4.9368415110488e-05,4.9368415110488e-05,434088.71535663,0.017381339352575
19094400,0.99974063059158,0.017084179505149,0.0056947265017163,0.0056947265017165,0.0056947265017165,-0.001382613862675,0.0013826138626749,-5.9340098965415e-17,-1.8124446310606e-17,3.5400389130647e-16,-4.3650137106509e-16,-0.0014166213155751,0.0014166213155752,-0.0014166213155751,0.0014166213155752,-0.0014166213155753,0.001416621315575,-0.0014166213155753,0.001416621315575,-0.0013591600122525,0.0013591600122521,-0.0013591600122525,0.0013591600122522,-3.4722468664182e-16,4.4986125704739e-16,4.6145649105625e-17,5.4895381807297e-17,-0.001382613862675,0.0013826138626751,-0.0014166213155753,0.0014166213155751,-0.0014166213155753,0.0014166213155751,-0.001416621315575,0.0014166213155754,-0.001416621315575,0.0014166213155754,-0.0013591600122522,0.0013591600122525,-0.0013591600122522,0.0013591600122526,-0.0013591600122527,0.0013591600122521,-0.001359160012252,0.0013591600122529,7.0512551772298e-18,-3.0307897643943e-17,-0.001382613862675,0.001382613862675,-6.4703905693037e-18,-1.5573053665665e-17,-0.0014166213155752,0.0014166213155752,-0.0014166213155752,0.0014166213155752,-0.0014166213155752,0.0014166213155752,-0.0014166213155752,0.0014166213155752,-0.0013591600122525,0.0013591600122524,-0.0013591600122524,0.0013591600122524,0.61714714123453,0.77233723771011,1270536,32768,0.0057443146402059,0.0057443146402061,0.0057443146402061,16.706842212133,16.702590596921,4.8854737697059e-05,4.8854737697059e-05,4.8854737697059e-05,425200.69695435,0.017382517322474
19180800,0.99974515156374,0.017084253030579,0.0056947510101928,0.0056947510101929,0.0056947510101929,-0.0013830769347233,0.0013830769347233,-5.8832761523049e-17,-1.7675930600689e-17,3.5461416678062e-16,-4.3613373523729e-16,-0.0014170752560719,0.0014170752560721,-0.0014170752560719,0.0014170752560721,-0.0014170752560722,0.0014170752560719,-0.0014170752560722,0.0014170752560719,-0.001359615933311,0.0013596159333106,-0.001359615933311,0.0013596159333107,-3.4715115947625e-16,4.5000095866196e-16,4.6086827373177e-17,5.4983614405969e-17,-0.0013830769347233,0.0013830769347234,-0.0014170752560721,0.001417075256072,-0.0014170752560722,0.001417075256072,-0.0014170752560719,0.0014170752560722,-0.0014170752560719,0.0014170752560722,-0.0013596159333108,0.0013596159333111,-0.0013596159333108,0.0013596159333111,-0.0013596159333112,0.0013596159333106,-0.0013596159333105,0.0013596159333114,7.654177934824e-18,-2.9704974886349e-17,-0.0013830769347233,0.0013830769347233,-6.0733438752782e-18,-1.5058363506743e-17,-0.0014170752560721,0.0014170752560721,-0.0014170752560721,0.0014170752560721,-0.0014170752560721,0.001417075256072,-0.0014170752560721,0.001417075256072,-0.001359615933311,0.0013596159333109,-0.0013596159333109,0.001359615933311,0.653033251774,0.91425068683464,1270536,32768,0.005746232956244,0.0057462329562442,0.0057462329562442,16.915531236747,16.928491014325,5.0524249893977e-05,5.0524249893977e-05,5.0524249893977e-05,421182.22555434,0.017388372542791
19267200,0.99974965698953,0.017084327696572,0.0056947758988571,0.0056947758988573,0.0056947758988573,-0.0013838442108854,0.0013838442108853,-5.8847466956161e-17,-1.7602403435128e-17,3.5445975973295e-16,-4.3617785153663e-16,-0.0014177476175396,0.0014177476175398,-0.0014177476175396,0.0014177476175398,-0.0014177476175399,0.0014177476175395,-0.0014177476175399,0.0014177476175395,-0.0013604610869316,0.0013604610869312,-0.0013604610869316,0.0013604610869312,-3.4697469427891e-16,4.4984655161428e-16,4.6873568044672e-17,5.520419590265e-17,-0.0013838442108853,0.0013838442108854,-0.0014177476175398,0.0014177476175396,-0.0014177476175398,0.0014177476175396,-0.0014177476175395,0.0014177476175399,-0.0014177476175395,0.0014177476175399,-0.0013604610869313,0.0013604610869316,-0.0013604610869313,0.0013604610869317,-0.0013604610869318,0.0013604610869312,-0.0013604610869311,0.0013604610869319,7.9850501798452e-18,-2.9381455357884e-17,-0.0013838442108854,0.0013838442108854,-5.5733591494684e-18,-1.4146626653796e-17,-0.0014177476175397,0.0014177476175397,-0.0014177476175397,0.0014177476175397,-0.0014177476175397,0.0014177476175397,-0.0014177476175397,0.0014177476175397,-0.0013604610869315,0.0013604610869315,-0.0013604610869315,0.0013604610869315,0.66540955902663,0.87574310507145,1270536,32768,0.0057494114963909,0.0057494114963911,0.0057494114963911,17.13988620138,17.154391431729,5.2319089611036e-05,5.2319089611036e-05,5.2319089611036e-05,408003.22701437,0.017398074923758
19353600,0.99975414606909,0.017084402697238,0.0056948008990793,0.0056948008990794,0.0056948008990794,-0.0013842802192253,0.0013842802192253,-5.9310688099191e-17,-1.8139151743718e-17,3.5375389894357e-16,-4.3656019279754e-16,-0.0014182082473989,0.001418208247399,-0.0014182082473989,0.001418208247399,-0.0014182082473991,0.0014182082473988,-0.0014182082473991,0.0014182082473988,-0.0013608581173665,0.0013608581173661,-0.0013608581173665,0.0013608581173662,-3.4521004230546e-16,4.5189060681686e-16,4.8483812970441e-17,5.677767724564e-17,-0.0013842802192253,0.0013842802192254,-0.0014182082473991,0.0014182082473989,-0.0014182082473991,0.0014182082473989,-0.0014182082473988,0.0014182082473992,-0.0014182082473988,0.0014182082473992,-0.0013608581173663,0.0013608581173666,-0.0013608581173663,0.0013608581173666,-0.0013608581173668,0.0013608581173661,-0.001360858117366,0.0013608581173669,7.646825218268e-18,-2.9587331421452e-17,-0.0013842802192254,0.0013842802192253,-6.2203982063988e-18,-1.4602495080269e-17,-0.001418208247399,0.001418208247399,-0.001418208247399,0.001418208247399,-0.001418208247399,0.001418208247399,-0.001418208247399,0.001418208247399,-0.0013608581173665,0.0013608581173664,-0.0013608581173664,0.0013608581173665,0.67074246962283,0.83723552330826,1270536,32768,0.005751217626186,0.0057512176261862,0.0057512176261862,17.365638226537,17.380291849132,5.4125105812295e-05,5.4125105812295e-05,5.4125105812295e-05,405661.25017193,0.017403587893276
19440000,0.99975861763281,0.017084477491215,0.005694825830405,0.0056948258304051,0.0056948258304051,-0.0013846556552826,0.0013846556552825,-5.8641590892593e-17,-1.7697988750357e-17,3.5442299615017e-16,-4.3595727003995e-16,-0.0014186311723191,0.0014186311723192,-0.001418631172319,0.0014186311723192,-0.0014186311723193,0.001418631172319,-0.0014186311723193,0.001418631172319,-0.0013611872020226,0.0013611872020222,-0.0013611872020226,0.0013611872020223,-3.4773937680074e-16,4.4931715602225e-16,4.5814776860604e-17,5.398364495435e-17,-0.0013846556552825,0.0013846556552826,-0.0014186311723193,0.0014186311723191,-0.0014186311723193,0.0014186311723191,-0.001418631172319,0.0014186311723193,-0.001418631172319,0.0014186311723194,-0.0013611872020224,0.0013611872020227,-0.0013611872020224,0.0013611872020227,-0.0013611872020228,0.0013611872020222,-0.0013611872020221,0.001361187202023,7.3012475401347e-18,-3.0160843312822e-17,-0.0013846556552826,0.0013846556552826,-6.7644992315448e-18,-1.517600697164e-17,-0.0014186311723192,0.0014186311723192,-0.0014186311723192,0.0014186311723192,-0.0014186311723192,0.0014186311723192,-0.0014186311723192,0.0014186311723192,-0.0013611872020226,0.0013611872020225,-0.0013611872020225,0.0013611872020226,0.67150101838779,0.79872794154507,1270536,32768,0.0057527728800986,0.0057527728800988,0.0057527728800988,17.591524161027,17.606192266536,5.5932193288217e-05,5.5932193288217e-05,5.5932193288217e-05,405410.94245265,0.017408334948518
19526400,0.99976307047607,0.017084551680773,0.0056948505602574,0.0056948505602576,0.0056948505602576,-0.0013850007209059,0.0013850007209058,-5.7718824964811e-17,-1.6448026935832e-17,3.5577589599647e-16,-4.3510435491945e-16,-0.0014190313911282,0.0014190313911283,-0.0014190313911281,0.0014190313911283,-0.0014190313911284,0.0014190313911281,-0.0014190313911284,0.0014190313911281,-0.0013614876769644,0.001361487676964,-0.0013614876769644,0.0013614876769641,-3.4885698971725e-16,4.4871423326465e-16,4.4910392724212e-17,5.2895442904058e-17,-0.0013850007209058,0.0013850007209059,-0.0014190313911284,0.0014190313911282,-0.0014190313911284,0.0014190313911282,-0.0014190313911281,0.0014190313911284,-0.0014190313911281,0.0014190313911285,-0.0013614876769641,0.0013614876769644,-0.0013614876769641,0.0013614876769645,-0.0013614876769646,0.001361487676964,-0.0013614876769639,0.0013614876769647,6.6027394673122e-18,-3.0778471503529e-17,-0.0013850007209059,0.0013850007209059,-7.4850654540354e-18,-1.5867162327906e-17,-0.0014190313911283,0.0014190313911283,-0.0014190313911283,0.0014190313911283,-0.0014190313911283,0.0014190313911282,-0.0014190313911283,0.0014190313911283,-0.0013614876769644,0.0013614876769643,-0.0013614876769643,0.0013614876769643,0.66887871722077,0.76022035978189,1270536,32768,0.0057542023626557,0.0057542023626559,0.0057542023626559,17.817423158659,17.83209268394,5.7739385269267e-05,5.7739385269267e-05,5.7739385269267e-05,406285.82811692,0.017412697999407
19612800,0.99976750339202,0.017084624950929,0.0056948749836427,0.0056948749836429,0.0056948749836429,-0.00138532787904,0.0013853278790399,-6.0159926861412e-17,-1.8977361431105e-17,3.5401859673958e-16,-4.3744251878427e-16,-0.0014194152960375,0.0014194152960377,-0.0014194152960375,0.0014194152960377,-0.0014194152960378,0.0014194152960374,-0.0014194152960378,0.0014194152960374,-0.0013617738639978,0.0013617738639974,-0.0013617738639977,0.0013617738639974,-3.4735703553982e-16,4.5064064500233e-16,4.6513284933426e-17,5.5365955666883e-17,-0.0013853278790399,0.00138532787904,-0.0014194152960377,0.0014194152960375,-0.0014194152960377,0.0014194152960375,-0.0014194152960374,0.0014194152960378,-0.0014194152960375,0.0014194152960378,-0.0013617738639975,0.0013617738639978,-0.0013617738639975,0.0013617738639978,-0.001361773863998,0.0013617738639973,-0.0013617738639972,0.0013617738639981,7.9776974632892e-18,-2.9410866224108e-17,-0.00138532787904,0.00138532787904,-5.5586537163563e-18,-1.4646611379606e-17,-0.0014194152960376,0.0014194152960376,-0.0014194152960376,0.0014194152960376,-0.0014194152960376,0.0014194152960376,-0.0014194152960377,0.0014194152960376,-0.0013617738639977,0.0013617738639976,-0.0013617738639977,0.0013617738639977,0.66357351748803,0.7217127780187,1270536,32768,0.0057555576938634,0.0057555576938635,0.0057555576938635,18.043323436707,18.057993101344,5.9546587493657e-05,5.9546587493657e-05,5.9546587493657e-05,407916.51478532,0.017416834634412
19699200,0.9997719151757,0.017084697042006,0.0056948990140019,0.0056948990140021,0.0056948990140021,-0.0013856433737404,0.0013856433737403,-5.5251988560264e-17,-1.4014277755787e-17,3.5820229245996e-16,-4.3303088885065e-16,-0.0014197863386636,0.0014197863386638,-0.0014197863386636,0.0014197863386638,-0.0014197863386639,0.0014197863386635,-0.0014197863386639,0.0014197863386635,-0.0013620521257886,0.0013620521257882,-0.0013620521257885,0.0013620521257882,-3.5066575799004e-16,4.4719957365411e-16,4.3079566301762e-17,5.1807240853766e-17,-0.0013856433737403,0.0013856433737404,-0.0014197863386638,0.0014197863386637,-0.0014197863386638,0.0014197863386637,-0.0014197863386636,0.0014197863386639,-0.0014197863386636,0.0014197863386639,-0.0013620521257883,0.0013620521257886,-0.0013620521257883,0.0013620521257886,-0.0013620521257888,0.0013620521257881,-0.001362052125788,0.0013620521257889,7.6762360844921e-18,-2.9528509689004e-17,-0.0013856433737404,0.0013856433737404,-5.9115841110456e-18,-1.4764254844502e-17,-0.0014197863386637,0.0014197863386637,-0.0014197863386638,0.0014197863386637,-0.0014197863386637,0.0014197863386637,-0.0014197863386638,0.0014197863386637,-0.0013620521257885,0.0013620521257884,-0.0013620521257885,0.0013620521257885,0.65604456074454,0.68320519625551,1270536,32768,0.005756864733411,0.0057568647334111,0.0057568647334111,18.269223840428,18.283893518748,6.1353790723423e-05,6.1353790723423e-05,6.1353790723423e-05,410130.9071016,0.017420823803598
19785600,0.99977630462542,0.01708476773441,0.0056949225781367,0.0056949225781368,0.0056949225781368,-0.0013859506962334,0.0013859506962333,-5.7935730103214e-17,-1.6543612251061e-17,3.5576119056336e-16,-4.35045533187e-16,-0.0014201466899282,0.0014201466899284,-0.0014201466899282,0.0014201466899284,-0.0014201466899285,0.0014201466899282,-0.0014201466899285,0.0014201466899282,-0.0013623256165672,0.0013623256165668,-0.0013623256165671,0.0013623256165668,-3.4872464081924e-16,4.48824524013e-16,4.4719222093756e-17,5.3248373298747e-17,-0.0013859506962333,0.0013859506962334,-0.0014201466899284,0.0014201466899283,-0.0014201466899285,0.0014201466899283,-0.0014201466899282,0.0014201466899285,-0.0014201466899282,0.0014201466899285,-0.0013623256165669,0.0013623256165672,-0.0013623256165669,0.0013623256165672,-0.0013623256165674,0.0013623256165667,-0.0013623256165666,0.0013623256165675,7.5806507692638e-18,-2.9793207485021e-17,-0.0013859506962334,0.0013859506962334,-6.279219938847e-18,-1.52495341372e-17,-0.0014201466899283,0.0014201466899284,-0.0014201466899284,0.0014201466899284,-0.0014201466899284,0.0014201466899283,-0.0014201466899284,0.0014201466899283,-0.0013623256165671,0.0013623256165671,-0.0013623256165671,0.0013623256165671,0.64661785292591,0.64469761449232,1270536,32768,0.0057581379387959,0.0057581379387961,0.0057581379387961,18.495124256488,18.509793936152,6.3160994051905e-05,6.3160994051905e-05,6.3160994051905e-05,412838.94072602,0.017424709648848
19872000,0.99978066162198,0.017084836302816,0.0056949454342721,0.0056949454342722,0.0056949454342722,-0.001386188410945,0.0013861884109449,-5.9693029360105e-17,-1.8484729421852e-17,3.5385683697535e-16,-4.3698665035779e-16,-0.0014204353286425,0.0014204353286427,-0.0014204353286425,0.0014204353286427,-0.0014204353286428,0.0014204353286424,-0.0014204353286428,0.0014204353286424,-0.0013625318686366,0.0013625318686362,-0.0013625318686366,0.0013625318686363,-3.4819524522721e-16,4.4945685763681e-16,4.5461846465914e-17,5.4086582986134e-17,-0.0013861884109449,0.001386188410945,-0.0014204353286427,0.0014204353286425,-0.0014204353286427,0.0014204353286425,-0.0014204353286424,0.0014204353286428,-0.0014204353286424,0.0014204353286428,-0.0013625318686364,0.0013625318686367,-0.0013625318686364,0.0013625318686367,-0.0013625318686369,0.0013625318686362,-0.0013625318686361,0.001362531868637,6.9262589957774e-18,-3.0337308510167e-17,-0.001386188410945,0.0013861884109449,-6.6762666328724e-18,-1.582304602857e-17,-0.0014204353286426,0.0014204353286426,-0.0014204353286426,0.0014204353286426,-0.0014204353286426,0.0014204353286426,-0.0014204353286426,0.0014204353286426,-0.0013625318686366,0.0013625318686365,-0.0013625318686365,0.0013625318686366,0.63190015970538,0.58613753799082,1270536,32768,0.0057591227912157,0.0057591227912158,0.0057591227912158,18.688111774966,18.700715052263,6.4704894199728e-05,6.4704894199728e-05,6.4704894199728e-05,416020.67719734,0.017427715332474
19958400,0.99978493289929,0.01708490509234,0.0056949683641134,0.0056949683641135,0.0056949683641135,-0.0013859919858429,0.0013859919858428,-5.9384215264751e-17,-1.7992097412598e-17,3.5420976737004e-16,-4.3666313082933e-16,-0.0014203084148212,0.0014203084148214,-0.0014203084148212,0.0014203084148214,-0.0014203084148215,0.0014203084148211,-0.0014203084148215,0.0014203084148211,-0.0013622879352409,0.0013622879352405,-0.0013622879352408,0.0013622879352405,-3.4795995829742e-16,4.4950832665271e-16,4.5403024733466e-17,5.4542451412608e-17,-0.0013859919858428,0.0013859919858429,-0.0014203084148214,0.0014203084148213,-0.0014203084148214,0.0014203084148213,-0.0014203084148212,0.0014203084148215,-0.0014203084148212,0.0014203084148215,-0.0013622879352406,0.0013622879352409,-0.0013622879352406,0.0013622879352409,-0.0013622879352411,0.0013622879352404,-0.0013622879352403,0.0013622879352412,7.1247823427901e-18,-3.0278486777719e-17,-0.0013859919858429,0.0013859919858429,-6.2203982063988e-18,-1.5411293901432e-17,-0.0014203084148213,0.0014203084148213,-0.0014203084148214,0.0014203084148213,-0.0014203084148213,0.0014203084148213,-0.0014203084148214,0.0014203084148213,-0.0013622879352408,0.0013622879352407,-0.0013622879352407,0.0013622879352408,0.64670104716804,0.70684412759495,1270536,32768,0.0057583091185536,0.0057583091185537,0.0057583091185538,18.684796171784,18.685007471449,6.4678369374274e-05,6.4678369374274e-05,6.4678369374274e-05,421462.02098224,0.017425231335492
20044800,0.99978911721739,0.017084973595095,0.005694991198365,0.0056949911983651,0.0056949911983652,-0.0013862034305323,0.0013862034305323,-5.9248190008465e-17,-1.797003926293e-17,3.5429064725216e-16,-4.3650137106509e-16,-0.0014204299536119,0.0014204299536121,-0.0014204299536119,0.0014204299536121,-0.0014204299536122,0.0014204299536118,-0.0014204299536122,0.0014204299536119,-0.001362594907682,0.0013625949076816,-0.001362594907682,0.0013625949076816,-3.4763643876895e-16,4.4985390433084e-16,4.5528020914919e-17,5.4821854641737e-17,-0.0013862034305323,0.0013862034305324,-0.0014204299536121,0.001420429953612,-0.0014204299536121,0.001420429953612,-0.0014204299536119,0.0014204299536122,-0.0014204299536119,0.0014204299536122,-0.0013625949076817,0.001362594907682,-0.0013625949076817,0.0013625949076821,-0.0013625949076822,0.0013625949076816,-0.0013625949076814,0.0013625949076823,5.742471630257e-18,-3.1601975757804e-17,-0.0013862034305324,0.0013862034305323,-7.5291817533716e-18,-1.7131829575543e-17,-0.001420429953612,0.001420429953612,-0.0014204299536121,0.001420429953612,-0.001420429953612,0.001420429953612,-0.0014204299536121,0.001420429953612,-0.0013625949076819,0.0013625949076819,-0.0013625949076819,0.0013625949076819,0.65743077277705,0.74287786107422,1270536,32768,0.0057591851537097,0.0057591851537099,0.0057591851537099,18.670201492782,18.669299890635,6.4561611942258e-05,6.4561611942258e-05,6.4561611942258e-05,412685.83007645,0.017427905579658
20131200,0.99979321616221,0.017085041896616,0.0056950139655387,0.0056950139655389,0.0056950139655389,-0.0013862844876534,0.0013862844876533,-5.9689353001827e-17,-1.8572962020524e-17,3.5369507721112e-16,-4.371189992558e-16,-0.0014204674089945,0.0014204674089946,-0.0014204674089945,0.0014204674089947,-0.0014204674089947,0.0014204674089944,-0.0014204674089947,0.0014204674089944,-0.0013627097772849,0.0013627097772845,-0.0013627097772849,0.0013627097772846,-3.4878346255169e-16,4.4885393487922e-16,4.4572167762635e-17,5.3924823221901e-17,-0.0013862844876534,0.0013862844876535,-0.0014204674089947,0.0014204674089945,-0.0014204674089947,0.0014204674089945,-0.0014204674089944,0.0014204674089948,-0.0014204674089944,0.0014204674089948,-0.0013627097772846,0.0013627097772849,-0.0013627097772846,0.001362709777285,-0.0013627097772851,0.0013627097772845,-0.0013627097772844,0.0013627097772852,5.9483476938258e-18,-3.1675502923364e-17,-0.0013862844876534,0.0013862844876534,-7.2497785242425e-18,-1.6955364378198e-17,-0.0014204674089946,0.0014204674089946,-0.0014204674089946,0.0014204674089946,-0.0014204674089946,0.0014204674089946,-0.0014204674089946,0.0014204674089946,-0.0013627097772848,0.0013627097772848,-0.0013627097772848,0.0013627097772848,0.66909434795128,0.77624390056034,1270536,32768,0.0057595209381628,0.005759520938163,0.005759520938163,18.654600776042,18.65359230982,6.4436806208334e-05,6.4436806208334e-05,6.4436806208334e-05,407810.21053164,0.017428930704175
20217600,0.99979723152767,0.017085110080934,0.0056950366936445,0.0056950366936446,0.0056950366936446,-0.0013863547562521,0.001386354756252,-5.9402597056141e-17,-1.8161209893386e-17,3.5410682933826e-16,-4.3645725476576e-16,-0.0014205019646678,0.001420501964668,-0.0014205019646678,0.001420501964668,-0.0014205019646681,0.0014205019646677,-0.0014205019646681,0.0014205019646678,-0.0013628042267378,0.0013628042267374,-0.0013628042267378,0.0013628042267375,-3.4798936916364e-16,4.493245087388e-16,4.5035388905665e-17,5.4351280782151e-17,-0.0013863547562521,0.0013863547562522,-0.001420501964668,0.0014205019646679,-0.001420501964668,0.0014205019646679,-0.0014205019646678,0.0014205019646681,-0.0014205019646678,0.0014205019646681,-0.0013628042267375,0.0013628042267378,-0.0013628042267375,0.0013628042267379,-0.001362804226738,0.0013628042267374,-0.0013628042267372,0.0013628042267381,5.7939406461492e-18,-3.1543154025355e-17,-0.0013863547562521,0.0013863547562521,-7.4703600209233e-18,-1.7161240441767e-17,-0.0014205019646679,0.0014205019646679,-0.001420501964668,0.001420501964668,-0.001420501964668,0.0014205019646679,-0.001420501964668,0.0014205019646679,-0.0013628042267377,0.0013628042267377,-0.0013628042267377,0.0013628042267377,0.68181568613066,0.80868178139082,1270536,32768,0.0057598120096359,0.005759812009636,0.005759812009636,18.638903625166,18.637884729006,6.4311229001328e-05,6.4311229001328e-05,6.4311229001328e-05,403156.49708503,0.017429819371082
20304000,0.99980116509071,0.017085178231074,0.0056950594103578,0.005695059410358,0.005695059410358,-0.0013864204201599,0.0013864204201598,-5.886952510583e-17,-1.7697988750357e-17,3.5408477118859e-16,-4.362660841353e-16,-0.0014205369586492,0.0014205369586493,-0.0014205369586492,0.0014205369586493,-0.0014205369586494,0.0014205369586491,-0.0014205369586494,0.0014205369586491,-0.0013628890165362,0.0013628890165358,-0.0013628890165362,0.0013628890165359,-3.4900404404837e-16,4.4805248877461e-16,4.3888365122925e-17,5.3218962432523e-17,-0.0013864204201599,0.00138642042016,-0.0014205369586494,0.0014205369586492,-0.0014205369586494,0.0014205369586492,-0.0014205369586491,0.0014205369586494,-0.0014205369586491,0.0014205369586495,-0.0013628890165359,0.0013628890165362,-0.0013628890165359,0.0013628890165363,-0.0013628890165364,0.0013628890165358,-0.0013628890165357,0.0013628890165366,5.9409949772698e-18,-3.1366688828011e-17,-0.0013864204201599,0.0013864204201599,-7.1909567917943e-18,-1.6837720913302e-17,-0.0014205369586493,0.0014205369586493,-0.0014205369586493,0.0014205369586493,-0.0014205369586493,0.0014205369586493,-0.0014205369586493,0.0014205369586493,-0.0013628890165362,0.0013628890165361,-0.0013628890165361,0.0013628890165361,0.69561281871662,0.84111966222131,1270536,32768,0.0057600839927881,0.0057600839927882,0.0057600839927882,18.623197066811,18.622177148191,6.4185576534489e-05,6.4185576534489e-05,6.4185576534489e-05,398527.37657879,0.017430649796226
20390400,0.99980501859114,0.017085245505672,0.0056950818352238,0.0056950818352239,0.0056950818352239,-0.001386483667311,0.0013864836673109,-5.9112164752178e-17,-1.7903864813926e-17,3.5417300378726e-16,-4.3632490586775e-16,-0.0014205732674906,0.0014205732674908,-0.0014205732674906,0.0014205732674908,-0.0014205732674909,0.0014205732674905,-0.0014205732674909,0.0014205732674905,-0.0013629682772592,0.0013629682772588,-0.0013629682772592,0.0013629682772589,-3.481805397941e-16,4.4894952019445e-16,4.4535404179855e-17,5.4042466686798e-17,-0.0013864836673109,0.001386483667311,-0.0014205732674908,0.0014205732674907,-0.0014205732674908,0.0014205732674907,-0.0014205732674906,0.0014205732674909,-0.0014205732674906,0.0014205732674909,-0.0013629682772589,0.0013629682772593,-0.001362968277259,0.0013629682772593,-0.0013629682772594,0.0013629682772588,-0.0013629682772587,0.0013629682772596,6.6027394673122e-18,-3.0837293235977e-17,-0.001386483667311,0.0013864836673109,-6.7497937984327e-18,-1.6484790518612e-17,-0.0014205732674907,0.0014205732674907,-0.0014205732674908,0.0014205732674907,-0.0014205732674907,0.0014205732674907,-0.0014205732674908,0.0014205732674907,-0.0013629682772592,0.0013629682772591,-0.0013629682772591,0.0013629682772592,0.70090955979346,0.82126598431432,1270536,32768,0.0057603459552324,0.0057603459552325,0.0057603459552325,18.607489586355,18.606469567377,6.4059916690835e-05,6.4059916690835e-05,6.4059916690835e-05,393853.94190902,0.017431449654472
20476800,0.99980879373049,0.017085309979241,0.0056951033264136,0.0056951033264138,0.0056951033264138,-0.0013864350348138,0.0013864350348137,-5.9023932153506e-17,-1.7940628396706e-17,3.5412153477137e-16,-4.3623667326908e-16,-0.001420539175856,0.0014205391758561,-0.001420539175856,0.0014205391758561,-0.0014205391758562,0.0014205391758559,-0.0014205391758562,0.0014205391758559,-0.0013628991957334,0.001362899195733,-0.0013628991957333,0.001362899195733,-3.48430532157e-16,4.4864070609909e-16,4.4314822683174e-17,5.4115993852358e-17,-0.0013864350348137,0.0013864350348138,-0.0014205391758562,0.001420539175856,-0.0014205391758562,0.001420539175856,-0.0014205391758559,0.0014205391758563,-0.0014205391758559,0.0014205391758563,-0.0013628991957331,0.0013628991957334,-0.0013628991957331,0.0013628991957334,-0.0013628991957336,0.0013628991957329,-0.0013628991957328,0.0013628991957337,5.6321808819166e-18,-3.1763735522036e-17,-0.0013864350348138,0.0013864350348138,-7.4997708871475e-18,-1.7514170836456e-17,-0.0014205391758561,0.0014205391758561,-0.0014205391758561,0.0014205391758561,-0.0014205391758561,0.0014205391758561,-0.0014205391758561,0.0014205391758561,-0.0013628991957333,0.0013628991957332,-0.0013628991957333,0.0013628991957333,0.68563583005834,0.7051435878032,1270536,32768,0.0057601444327742,0.0057601444327743,0.0057601444327743,18.591782015394,18.590761986563,6.3934256123151e-05,6.3934256123151e-05,6.3934256123151e-05,392709.97160789,0.017430834599141
20563200,0.99981249217267,0.017085370425609,0.0056951234752028,0.0056951234752029,0.0056951234752029,-0.0013861486998662,0.0013861486998661,-5.9380538906473e-17,-1.8072977294714e-17,3.5396712772369e-16,-4.3667783626244e-16,-0.0014203507935048,0.001420350793505,-0.0014203507935048,0.001420350793505,-0.0014203507935051,0.0014203507935048,-0.0014203507935051,0.0014203507935048,-0.0013625236492937,0.0013625236492933,-0.0013625236492937,0.0013625236492934,-3.4909227664705e-16,4.4808189964084e-16,4.3528082011679e-17,5.3248373298747e-17,-0.0013861486998661,0.0013861486998662,-0.001420350793505,0.0014203507935049,-0.0014203507935051,0.0014203507935049,-0.0014203507935048,0.0014203507935051,-0.0014203507935048,0.0014203507935051,-0.0013625236492934,0.0013625236492938,-0.0013625236492935,0.0013625236492938,-0.0013625236492939,0.0013625236492933,-0.0013625236492932,0.0013625236492941,6.1983400567307e-18,-3.1101991031994e-17,-0.0013861486998662,0.0013861486998661,-6.8527318302171e-18,-1.6911248078862e-17,-0.001420350793505,0.001420350793505,-0.001420350793505,0.001420350793505,-0.001420350793505,0.0014203507935049,-0.001420350793505,0.0014203507935049,-0.0013625236492937,0.0013625236492936,-0.0013625236492936,0.0013625236492937,0.6561306206994,0.5627439105104,1270536,32768,0.0057589582147861,0.0057589582147863,0.0057589582147863,18.576074435547,18.575054405748,6.3808595484377e-05,6.3808595484377e-05,6.3808595484377e-05,399374.96060137,0.017427213427335
20649600,0.99981610219597,0.017085425964436,0.0056951419881453,0.0056951419881455,0.0056951419881455,-0.0013856032568763,0.0013856032568762,-5.9667294852158e-17,-1.8609725603304e-17,3.5345243756477e-16,-4.3707488295646e-16,-0.0014199503971753,0.0014199503971755,-0.0014199503971753,0.0014199503971755,-0.0014199503971756,0.0014199503971753,-0.0014199503971756,0.0014199503971753,-0.0013618612305897,0.0013618612305893,-0.0013618612305897,0.0013618612305894,-3.4825406695966e-16,4.4892746204478e-16,4.4417760714959e-17,5.4307164482815e-17,-0.0013856032568762,0.0013856032568763,-0.0014199503971755,0.0014199503971754,-0.0014199503971756,0.0014199503971754,-0.0014199503971753,0.0014199503971756,-0.0014199503971753,0.0014199503971756,-0.0013618612305895,0.0013618612305898,-0.0013618612305895,0.0013618612305898,-0.0013618612305899,0.0013618612305893,-0.0013618612305892,0.0013618612305901,5.9851112766059e-18,-3.1249045363114e-17,-0.0013856032568763,0.0013856032568763,-6.9115535626653e-18,-1.704359697687e-17,-0.0014199503971755,0.0014199503971755,-0.0014199503971755,0.0014199503971755,-0.0014199503971755,0.0014199503971754,-0.0014199503971755,0.0014199503971754,-0.0013618612305897,0.0013618612305896,-0.0013618612305896,0.0013618612305897,0.61767074231795,0.4203442332176,1270536,32768,0.0057566986593744,0.0057566986593745,0.0057566986593746,18.501063888917,18.496320583305,6.3208511111338e-05,6.3208511111338e-05,6.3208511111338e-05,411331.54496612,0.017420315745877
20736000,0.99981956080849,0.017085479519694,0.005695159839898,0.0056951598398982,0.0056951598398982,-0.0013843909840549,0.0013843909840548,-5.8832761523049e-17,-1.7639167017909e-17,3.5523914768788e-16,-4.3606020807173e-16,-0.0014189091453991,0.0014189091453993,-0.0014189091453991,0.0014189091453993,-0.0014189091453994,0.001418909145399,-0.0014189091453994,0.001418909145399,-0.0013605226118187,0.0013605226118183,-0.0013605226118187,0.0013605226118184,-3.5078340145493e-16,4.47118693772e-16,4.2513407126948e-17,5.1130790930611e-17,-0.0013843909840548,0.0013843909840549,-0.0014189091453993,0.0014189091453991,-0.0014189091453993,0.0014189091453991,-0.001418909145399,0.0014189091453994,-0.0014189091453991,0.0014189091453994,-0.0013605226118184,0.0013605226118187,-0.0013605226118184,0.0013605226118188,-0.0013605226118189,0.0013605226118183,-0.0013605226118182,0.0013605226118191,6.2424563560669e-18,-3.1307867095563e-17,-0.0013843909840549,0.0013843909840549,-7.1615459255702e-18,-1.6249503588819e-17,-0.0014189091453992,0.0014189091453992,-0.0014189091453992,0.0014189091453992,-0.0014189091453992,0.0014189091453992,-0.0014189091453992,0.0014189091453992,-0.0013605226118187,0.0013605226118186,-0.0013605226118186,0.0013605226118186,0.62177294970636,0.55131483595069,1270536,32768,0.0057516766479673,0.0057516766479674,0.0057516766479674,18.125604081961,18.101876137917,6.020483265569e-05,6.020483265569e-05,6.020483265569e-05,427203.22532406,0.017404986237727
20822400,0.99982287203261,0.017085532512985,0.0056951775043283,0.0056951775043284,0.0056951775043284,-0.0013838634855231,0.001383863485523,-5.9472447863424e-17,-1.8146504460274e-17,3.5393036414091e-16,-4.3692782862534e-16,-0.0014182835568212,0.0014182835568214,-0.0014182835568212,0.0014182835568214,-0.0014182835568215,0.0014182835568211,-0.0014182835568215,0.0014182835568212,-0.0013601162692585,0.0013601162692581,-0.0013601162692585,0.0013601162692582,-3.4901874948149e-16,4.4885393487922e-16,4.4439818864627e-17,5.35571873941e-17,-0.0013838634855231,0.0013838634855231,-0.0014182835568214,0.0014182835568213,-0.0014182835568214,0.0014182835568213,-0.0014182835568212,0.0014182835568215,-0.0014182835568212,0.0014182835568215,-0.0013601162692582,0.0013601162692586,-0.0013601162692583,0.0013601162692586,-0.0013601162692587,0.0013601162692581,-0.001360116269258,0.0013601162692589,6.4703905693037e-18,-3.0940231267761e-17,-0.0013838634855231,0.0013838634855231,-7.0144915944497e-18,-1.6440674219276e-17,-0.0014182835568213,0.0014182835568213,-0.0014182835568214,0.0014182835568214,-0.0014182835568213,0.0014182835568213,-0.0014182835568214,0.0014182835568213,-0.0013601162692585,0.0013601162692584,-0.0013601162692584,0.0013601162692585,0.64277781458436,0.69238088739836,1270536,32768,0.0057494915326707,0.0057494915326709,0.0057494915326709,17.732864927979,17.70743169253,5.7062919423834e-05,5.7062919423834e-05,5.7062919423834e-05,419721.21423979,0.017398316929396
20908800,0.99982604306829,0.017085582921308,0.0056951943071026,0.0056951943071027,0.0056951943071027,-0.0013834558878658,0.0013834558878657,-5.9700382076661e-17,-1.8587667453636e-17,3.5349655386411e-16,-4.3729546445314e-16,-0.0014177347005592,0.0014177347005593,-0.0014177347005591,0.0014177347005593,-0.0014177347005594,0.0014177347005591,-0.0014177347005594,0.0014177347005591,-0.0013598362710747,0.0013598362710743,-0.0013598362710747,0.0013598362710744,-3.4875405168547e-16,4.4873629141432e-16,4.4704516660644e-17,5.3513071094764e-17,-0.0013834558878657,0.0013834558878658,-0.0014177347005594,0.0014177347005592,-0.0014177347005594,0.0014177347005592,-0.0014177347005591,0.0014177347005594,-0.0014177347005591,0.0014177347005594,-0.0013598362710744,0.0013598362710748,-0.0013598362710745,0.0013598362710748,-0.0013598362710749,0.0013598362710743,-0.0013598362710742,0.0013598362710751,5.6468863150287e-18,-3.1675502923364e-17,-0.0013834558878658,0.0013834558878657,-7.8674067149488e-18,-1.7190651307991e-17,-0.0014177347005593,0.0014177347005593,-0.0014177347005593,0.0014177347005593,-0.0014177347005593,0.0014177347005592,-0.0014177347005593,0.0014177347005593,-0.0013598362710747,0.0013598362710746,-0.0013598362710746,0.0013598362710746,0.63840250328209,0.63314123000179,1270536,32768,0.0057478029820548,0.0057478029820549,0.0057478029820549,17.338584237293,17.312987247142,5.3908673898345e-05,5.3908673898345e-05,5.3908673898345e-05,407723.82148301,0.01739316374393
20995200,0.99982908097083,0.017085630642506,0.0056952102141686,0.0056952102141688,0.0056952102141688,-0.001382617755394,0.0013826177553939,-5.897981585417e-17,-1.7845043081477e-17,3.5427594181904e-16,-4.3628078956841e-16,-0.0014169115132639,0.0014169115132641,-0.0014169115132639,0.0014169115132641,-0.0014169115132642,0.0014169115132639,-0.0014169115132642,0.0014169115132639,-0.0013589684902639,0.0013589684902635,-0.0013589684902639,0.0013589684902636,-3.4847464845634e-16,4.4880246586333e-16,4.4726574810312e-17,5.3777768890781e-17,-0.0013826177553939,0.001382617755394,-0.0014169115132642,0.001416911513264,-0.0014169115132642,0.001416911513264,-0.0014169115132639,0.0014169115132642,-0.0014169115132639,0.0014169115132642,-0.0013589684902636,0.0013589684902639,-0.0013589684902636,0.001358968490264,-0.0013589684902641,0.0013589684902635,-0.0013589684902634,0.0013589684902642,5.9115841110456e-18,-3.1337277961787e-17,-0.001382617755394,0.001382617755394,-7.4703600209233e-18,-1.6955364378198e-17,-0.0014169115132641,0.0014169115132641,-0.0014169115132641,0.0014169115132641,-0.0014169115132641,0.001416911513264,-0.0014169115132641,0.001416911513264,-0.0013589684902638,0.0013589684902638,-0.0013589684902638,0.0013589684902638,0.63077075839541,0.59471585585635,1270536,32768,0.005744330745364,0.0057443307453642,0.0057443307453642,16.944155774576,16.918542801755,5.0753246196611e-05,5.0753246196611e-05,5.0753246196611e-05,409503.32364897,0.017382565742747
21081600,0.99983199239879,0.017085676242763,0.0056952254142544,0.0056952254142545,0.0056952254142545,-0.0013817617585364,0.0013817617585364,-5.7803381205206e-17,-1.6595081266953e-17,3.544671124495e-16,-4.346778973592e-16,-0.0014160804777546,0.0014160804777548,-0.0014160804777546,0.0014160804777548,-0.0014160804777549,0.0014160804777545,-0.0014160804777549,0.0014160804777545,-0.0013580855509972,0.0013580855509968,-0.0013580855509972,0.0013580855509968,-3.480628963292e-16,4.4739809700113e-16,4.4395702565291e-17,5.3866001489453e-17,-0.0013817617585364,0.0013817617585365,-0.0014160804777548,0.0014160804777547,-0.0014160804777548,0.0014160804777547,-0.0014160804777546,0.0014160804777549,-0.0014160804777546,0.0014160804777549,-0.0013580855509969,0.0013580855509972,-0.0013580855509969,0.0013580855509972,-0.0013580855509974,0.0013580855509967,-0.0013580855509966,0.0013580855509975,5.7204134805889e-18,-3.1778440955148e-17,-0.0013817617585365,0.0013817617585364,-7.0733133268979e-18,-1.6955364378198e-17,-0.0014160804777547,0.0014160804777547,-0.0014160804777548,0.0014160804777547,-0.0014160804777547,0.0014160804777547,-0.0014160804777548,0.0014160804777547,-0.0013580855509971,0.0013580855509971,-0.0013580855509971,0.0013580855509971,0.62893415930621,0.60389552379455,1270536,32768,0.0057407845380003,0.0057407845380005,0.0057407845380005,16.549712895995,16.524098356367,4.759770316796e-05,4.759770316796e-05,4.759770316796e-05,412061.20493249,0.017371741984018
21168000,0.99983478361729,0.017085719938816,0.0056952399796051,0.0056952399796053,0.0056952399796053,-0.0013810053807734,0.0013810053807733,-6.1965018775917e-17,-2.0514079191315e-17,3.5093045578605e-16,-4.3886894579613e-16,-0.0014153144195192,0.0014153144195193,-0.0014153144195192,0.0014153144195193,-0.0014153144195194,0.0014153144195191,-0.0014153144195194,0.0014153144195191,-0.0013573387266931,0.0013573387266927,-0.001357338726693,0.0013573387266927,-3.4676881821534e-16,4.495597956686e-16,4.5961831191724e-17,5.513066873709e-17,-0.0013810053807734,0.0013810053807735,-0.0014153144195194,0.0014153144195192,-0.0014153144195194,0.0014153144195192,-0.0014153144195191,0.0014153144195195,-0.0014153144195191,0.0014153144195195,-0.0013573387266928,0.0013573387266931,-0.0013573387266928,0.0013573387266931,-0.0013573387266933,0.0013573387266926,-0.0013573387266925,0.0013573387266934,1.1587881292298e-17,-2.570509707987e-17,-0.0013810053807734,0.0013810053807734,-1.7205356741103e-18,-1.1249656330721e-17,-0.0014153144195193,0.0014153144195193,-0.0014153144195193,0.0014153144195193,-0.0014153144195193,0.0014153144195193,-0.0014153144195193,0.0014153144195193,-0.001357338726693,0.0013573387266929,-0.0013573387266929,0.001357338726693,0.62864712193457,0.61307519173276,1270536,32768,0.0057376510385964,0.0057376510385965,0.0057376510385965,16.155268604395,16.12965391098,4.4442148835157e-05,4.4442148835157e-05,4.4442148835157e-05,411459.37784085,0.017362178140136
21254400,0.99983746447268,0.017085761953644,0.0056952539845479,0.0056952539845481,0.0056952539845481,-0.001380308188379,0.0013803081883789,-5.8259249631679e-17,-1.6955364378198e-17,3.544671124495e-16,-4.3520729295123e-16,-0.0014146022098848,0.001414602209885,-0.0014146022098848,0.001414602209885,-0.0014146022098851,0.0014146022098848,-0.0014146022098851,0.0014146022098848,-0.0013566535849792,0.0013566535849788,-0.0013566535849792,0.0013566535849789,-3.5319509248531e-16,4.4296440891784e-16,3.9410560740304e-17,4.868968903401e-17,-0.001380308188379,0.0013803081883791,-0.001414602209885,0.0014146022098849,-0.0014146022098851,0.0014146022098849,-0.0014146022098848,0.0014146022098851,-0.0014146022098848,0.0014146022098851,-0.0013566535849789,0.0013566535849792,-0.001356653584979,0.0013566535849793,-0.0013566535849794,0.0013566535849788,-0.0013566535849787,0.0013566535849795,1.306577732006e-17,-2.4249259201777e-17,-0.001380308188379,0.001380308188379,-1.6175976423259e-19,-9.5291206566109e-18,-0.0014146022098849,0.001414602209885,-0.001414602209885,0.001414602209885,-0.001414602209885,0.0014146022098849,-0.001414602209885,0.0014146022098849,-0.0013566535849792,0.0013566535849791,-0.0013566535849791,0.0013566535849792,0.62934321493694,0.62225485967096,1270536,32768,0.0057347627125824,0.0057347627125825,0.0057347627125825,15.783997811008,15.75983803545,4.1471982488064e-05,4.1471982488064e-05,4.1471982488064e-05,410335.85232011,0.017353362712245
21340800,0.9998400532637,0.01708580261758,0.0056952675391933,0.0056952675391935,0.0056952675391935,-0.0013797710571996,0.0013797710571995,-5.9079077527676e-17,-1.758034528546e-17,3.5362155004556e-16,-4.3575139397638e-16,-0.0014140474264052,0.0014140474264053,-0.0014140474264052,0.0014140474264053,-0.0014140474264054,0.0014140474264051,-0.0014140474264054,0.0014140474264051,-0.0013561290808381,0.0013561290808377,-0.0013561290808381,0.0013561290808377,-3.4820995066032e-16,4.4808189964084e-16,4.435893898251e-17,5.3880706922565e-17,-0.0013797710571996,0.0013797710571997,-0.0014140474264054,0.0014140474264052,-0.0014140474264054,0.0014140474264052,-0.0014140474264051,0.0014140474264054,-0.0014140474264051,0.0014140474264055,-0.0013561290808378,0.0013561290808381,-0.0013561290808378,0.0013561290808382,-0.0013561290808383,0.0013561290808376,-0.0013561290808375,0.0013561290808384,5.9336422607137e-18,-3.164609205714e-17,-0.0013797710571996,0.0013797710571996,-7.3233056898028e-18,-1.7220062174215e-17,-0.0014140474264053,0.0014140474264053,-0.0014140474264053,0.0014140474264053,-0.0014140474264053,0.0014140474264053,-0.0014140474264053,0.0014140474264053,-0.001356129080838,0.001356129080838,-0.001356129080838,0.001356129080838,0.63076438456229,0.63143452760917,1270536,32768,0.0057325374820208,0.0057325374820209,0.0057325374820209,15.492256896441,15.473137698729,3.9138055171526e-05,3.9138055171526e-05,3.9138055171526e-05,408923.11912043,0.017346571159317
21427200,0.99984255453887,0.017085842031833,0.0056952806772775,0.0056952806772777,0.0056952806772777,-0.0013792458391579,0.0013792458391578,-5.8564387368754e-17,-1.7411232804672e-17,3.539818331568e-16,-4.3517788208501e-16,-0.0014135068564677,0.0014135068564679,-0.0014135068564677,0.0014135068564679,-0.001413506856468,0.0014135068564677,-0.001413506856468,0.0014135068564677,-0.0013556140835157,0.0013556140835153,-0.0013556140835157,0.0013556140835154,-3.4731291924049e-16,4.4820689582229e-16,4.4616284061971e-17,5.4468924247047e-17,-0.0013792458391579,0.001379245839158,-0.0014135068564679,0.0014135068564678,-0.001413506856468,0.0014135068564678,-0.0014135068564677,0.001413506856468,-0.0014135068564677,0.001413506856468,-0.0013556140835154,0.0013556140835158,-0.0013556140835155,0.0013556140835158,-0.0013556140835159,0.0013556140835153,-0.0013556140835152,0.0013556140835161,5.8086460792613e-18,-3.1469626859795e-17,-0.0013792458391579,0.0013792458391579,-7.1321350593461e-18,-1.739652737156e-17,-0.0014135068564678,0.0014135068564679,-0.0014135068564679,0.0014135068564679,-0.0014135068564679,0.0014135068564678,-0.0014135068564679,0.0014135068564678,-0.0013556140835157,0.0013556140835156,-0.0013556140835156,0.0013556140835156,0.63276389062286,0.64061419554737,1270536,32768,0.0057303615859452,0.0057303615859453,0.0057303615859453,15.205103527933,15.186437362008,3.6840828223459e-05,3.6840828223459e-05,3.6840828223459e-05,407433.20517623,0.017339930278916
21513600,0.99984497192956,0.017085881598277,0.0056952938660923,0.0056952938660925,0.0056952938660925,-0.0013787231488863,0.0013787231488862,-5.8689383550207e-17,-1.743329095434e-17,3.5375389894357e-16,-4.3506023862011e-16,-0.0014129698818485,0.0014129698818487,-0.0014129698818485,0.0014129698818487,-0.0014129698818488,0.0014129698818484,-0.0014129698818487,0.0014129698818484,-0.0013551004006925,0.0013551004006921,-0.0013551004006925,0.0013551004006922,-3.4753350073717e-16,4.4837600830308e-16,4.4594225912303e-17,5.4689505743728e-17,-0.0013787231488862,0.0013787231488863,-0.0014129698818487,0.0014129698818485,-0.0014129698818487,0.0014129698818485,-0.0014129698818484,0.0014129698818488,-0.0014129698818484,0.0014129698818488,-0.0013551004006923,0.0013551004006926,-0.0013551004006923,0.0013551004006926,-0.0013551004006928,0.0013551004006921,-0.001355100400692,0.0013551004006929,5.8674678117095e-18,-3.1675502923364e-17,-0.0013787231488863,0.0013787231488862,-6.8527318302171e-18,-1.7661225167577e-17,-0.0014129698818486,0.0014129698818486,-0.0014129698818486,0.0014129698818486,-0.0014129698818486,0.0014129698818486,-0.0014129698818486,0.0014129698818486,-0.0013551004006925,0.0013551004006924,-0.0013551004006924,0.0013551004006925,0.65725350109846,0.77112383032438,1270536,32768,0.0057281961502337,0.0057281961502338,0.0057281961502338,14.918359681346,14.899737025288,3.4546877450769e-05,3.4546877450769e-05,3.4546877450769e-05,405852.53484431,0.017333321388217
21600000,0.99984730883187,0.017085919392463,0.0056953064641541,0.0056953064641543,0.0056953064641543,-0.0013784786031911,0.0013784786031911,-6.1909873401747e-17,-2.069054438866e-17,3.5094516121916e-16,-4.3754545681605e-16,-0.0014126177819665,0.0014126177819666,-0.0014126177819665,0.0014126177819666,-0.0014126177819667,0.0014126177819664,-0.0014126177819667,0.0014126177819664,-0.0013549474270384,0.001354947427038,-0.0013549474270384,0.001354947427038,-3.464747095531e-16,4.4905981094279e-16,4.5704486112263e-17,5.5321839367547e-17,-0.0013784786031911,0.0013784786031912,-0.0014126177819667,0.0014126177819665,-0.0014126177819667,0.0014126177819665,-0.0014126177819664,0.0014126177819667,-0.0014126177819664,0.0014126177819668,-0.0013549474270381,0.0013549474270384,-0.0013549474270381,0.0013549474270384,-0.0013549474270386,0.0013549474270379,-0.0013549474270378,0.0013549474270387,5.8895259613776e-18,-3.17196192227e-17,-0.0013784786031912,0.0013784786031911,-7.4262437215872e-18,-1.7587698002016e-17,-0.0014126177819666,0.0014126177819666,-0.0014126177819666,0.0014126177819666,-0.0014126177819666,0.0014126177819666,-0.0014126177819666,0.0014126177819666,-0.0013549474270383,0.0013549474270382,-0.0013549474270382,0.0013549474270383,0.64941714346141,0.66996005977474,1270536,32768,0.0057271829920685,0.0057271829920687,0.0057271829920687,14.631655097835,14.613036688567,3.2253240782681e-05,3.2253240782681e-05,3.2253240782681e-05,394983.46039083,0.017330229905039
21686400,0.99984956847341,0.017085955740949,0.0056953185803162,0.0056953185803164,0.0056953185803164,-0.0013777632195663,0.0013777632195662,-6.3376740354674e-17,-2.2102265967417e-17,3.4888640058348e-16,-4.393101087895e-16,-0.0014119611116844,0.0014119611116846,-0.0014119611116844,0.0014119611116846,-0.0014119611116847,0.0014119611116843,-0.0014119611116847,0.0014119611116843,-0.0013541631447757,0.0013541631447753,-0.0013541631447757,0.0013541631447754,-3.511069209834e-16,4.4397908380257e-16,4.0814929602505e-17,5.1027852898827e-17,-0.0013777632195662,0.0013777632195663,-0.0014119611116846,0.0014119611116844,-0.0014119611116846,0.0014119611116844,-0.0014119611116843,0.0014119611116847,-0.0014119611116843,0.0014119611116847,-0.0013541631447754,0.0013541631447758,-0.0013541631447755,0.0013541631447758,-0.0013541631447759,0.0013541631447753,-0.0013541631447752,0.0013541631447761,-1.0293803178438e-18,-3.8381180422461e-17,-0.0013777632195663,0.0013777632195663,-1.3631936494874e-17,-2.4322786367337e-17,-0.0014119611116845,0.0014119611116845,-0.0014119611116845,0.0014119611116845,-0.0014119611116845,0.0014119611116845,-0.0014119611116845,0.0014119611116845,-0.0013541631447757,0.0013541631447756,-0.0013541631447756,0.0013541631447756,0.64585282437233,0.65084678893061,1270536,32768,0.0057242191785086,0.0057242191785087,0.0057242191785087,14.344954344791,14.326336351846,2.9959634758323e-05,2.9959634758323e-05,2.9959634758323e-05,399224.27678176,0.017321184183241
21772800,0.99985175392752,0.017085990651978,0.0056953302173259,0.0056953302173261,0.0056953302173261,-0.0013771495519824,0.0013771495519823,-5.8932023196556e-17,-1.7771515915917e-17,3.531803870522e-16,-4.3500141688766e-16,-0.0014113718706293,0.0014113718706294,-0.0014113718706293,0.0014113718706294,-0.0014113718706295,0.0014113718706292,-0.0014113718706295,0.0014113718706292,-0.00135352851317,0.0013535285131697,-0.00135352851317,0.0013535285131697,-3.4762173333584e-16,4.4725839538656e-16,4.382219067392e-17,5.4307164482815e-17,-0.0013771495519823,0.0013771495519824,-0.0014113718706295,0.0014113718706293,-0.0014113718706295,0.0014113718706293,-0.0014113718706292,0.0014113718706295,-0.0014113718706292,0.0014113718706296,-0.0013535285131698,0.0013535285131701,-0.0013535285131698,0.0013535285131701,-0.0013535285131703,0.0013535285131696,-0.0013535285131695,0.0013535285131704,5.5880645825805e-18,-3.1822557254485e-17,-0.0013771495519824,0.0013771495519824,-6.823320963993e-18,-1.7558287135792e-17,-0.0014113718706294,0.0014113718706294,-0.0014113718706294,0.0014113718706294,-0.0014113718706294,0.0014113718706294,-0.0014113718706294,0.0014113718706294,-0.00135352851317,0.0013535285131699,-0.0013535285131699,0.00135352851317,0.64139422963071,0.63173351808648,1270536,32768,0.0057216768272768,0.005721676827277,0.005721676827277,14.058253967206,14.039636015125,2.7666031737646e-05,2.7666031737646e-05,2.7666031737646e-05,400405.67826765,0.017313424919853
21859200,0.99985388453732,0.017086024401664,0.0056953414672211,0.0056953414672212,0.0056953414672212,-0.0013767671459964,0.0013767671459963,-5.9376862548195e-17,-1.8271500641727e-17,3.5268775504294e-16,-4.3551610704659e-16,-0.0014110086085269,0.001411008608527,-0.0014110086085268,0.001411008608527,-0.0014110086085271,0.0014110086085268,-0.0014110086085271,0.0014110086085268,-0.0013531316475588,0.0013531316475584,-0.0013531316475588,0.0013531316475585,-3.4748938443783e-16,4.4742750786735e-16,4.3704547209024e-17,5.4586567711944e-17,-0.0013767671459963,0.0013767671459964,-0.001411008608527,0.0014110086085269,-0.0014110086085271,0.0014110086085269,-0.0014110086085268,0.0014110086085271,-0.0014110086085268,0.0014110086085271,-0.0013531316475585,0.0013531316475588,-0.0013531316475586,0.0013531316475589,-0.001353131647559,0.0013531316475584,-0.0013531316475583,0.0013531316475592,5.5513009998003e-18,-3.1778440955148e-17,-0.0013767671459964,0.0013767671459963,-6.9115535626653e-18,-1.8146504460274e-17,-0.001411008608527,0.001411008608527,-0.001411008608527,0.001411008608527,-0.001411008608527,0.0014110086085269,-0.001411008608527,0.0014110086085269,-0.0013531316475588,0.0013531316475587,-0.0013531316475587,0.0013531316475587,0.63602349960495,0.61262024724234,1270536,32768,0.0057200925881882,0.0057200925881883,0.0057200925881883,13.891246495584,13.880143341192,2.6329971964669e-05,2.6329971964669e-05,2.6329971964669e-05,401564.70270581,0.017308589718491
21945600,0.99985600246966,0.017086057623495,0.0056953525411648,0.005695352541165,0.005695352541165,-0.0013769598543545,0.0013769598543544,-5.9376862548195e-17,-1.8095035444382e-17,3.5286422024029e-16,-4.3538375814858e-16,-0.0014112143958739,0.0014112143958741,-0.0014112143958739,0.0014112143958741,-0.0014112143958742,0.0014112143958739,-0.0014112143958742,0.0014112143958739,-0.0013533153490842,0.0013533153490838,-0.0013533153490842,0.0013533153490839,-3.4737174097294e-16,4.475525040488e-16,4.3682489059356e-17,5.4880676374185e-17,-0.0013769598543544,0.0013769598543545,-0.0014112143958741,0.001411214395874,-0.0014112143958742,0.001411214395874,-0.0014112143958739,0.0014112143958742,-0.0014112143958739,0.0014112143958742,-0.0013533153490839,0.0013533153490842,-0.0013533153490839,0.0013533153490843,-0.0013533153490844,0.0013533153490838,-0.0013533153490837,0.0013533153490845,5.7130607640329e-18,-3.1513743159131e-17,-0.0013769598543545,0.0013769598543545,-6.6615611997604e-18,-1.8058271861602e-17,-0.0014112143958741,0.0014112143958741,-0.0014112143958741,0.0014112143958741,-0.0014112143958741,0.001411214395874,-0.0014112143958741,0.001411214395874,-0.0013533153490841,0.0013533153490841,-0.0013533153490841,0.0013533153490841,0.62983407304738,0.59350697639821,1270536,32768,0.0057208910160087,0.0057208910160089,0.0057208910160089,14.023047452066,14.030949381117,2.7384379616528e-05,2.7384379616528e-05,2.7384379616528e-05,402723.93974309,0.017311026143524
22032000,0.99985810987334,0.017086090316519,0.0056953634388397,0.0056953634388398,0.0056953634388398,-0.001377184282571,0.0013771842825709,-5.9273924516411e-17,-1.811709359405e-17,3.533642049661e-16,-4.360160917724e-16,-0.0014114576419085,0.0014114576419087,-0.0014114576419085,0.0014114576419087,-0.0014114576419088,0.0014114576419084,-0.0014114576419088,0.0014114576419084,-0.0013535275783343,0.0013535275783339,-0.0013535275783343,0.001353527578334,-3.4790113656497e-16,4.4808189964084e-16,4.3682489059356e-17,5.4998319839081e-17,-0.0013771842825709,0.001377184282571,-0.0014114576419087,0.0014114576419086,-0.0014114576419087,0.0014114576419085,-0.0014114576419084,0.0014114576419088,-0.0014114576419085,0.0014114576419088,-0.0013535275783341,0.0013535275783344,-0.0013535275783341,0.0013535275783344,-0.0013535275783345,0.0013535275783339,-0.0013535275783338,0.0013535275783347,4.8380874938657e-18,-3.2513712610751e-17,-0.001377184282571,0.001377184282571,-7.2938948235787e-18,-1.8734721784757e-17,-0.0014114576419086,0.0014114576419086,-0.0014114576419086,0.0014114576419086,-0.0014114576419086,0.0014114576419086,-0.0014114576419087,0.0014114576419086,-0.0013535275783343,0.0013535275783342,-0.0013535275783342,0.0013535275783343,0.62292144661894,0.57439370555408,1270536,32768,0.005721820838289,0.0057218208382892,0.0057218208382892,14.172144229142,14.181755421043,2.8577153833133e-05,2.8577153833133e-05,2.8577153833133e-05,404298.33294173,0.017313863686987
22118400,0.99986020668798,0.017086122449761,0.0056953741499201,0.0056953741499203,0.0056953741499203,-0.0013774103954348,0.0013774103954347,-5.9803320108445e-17,-1.847002398874e-17,3.5323185606809e-16,-4.3632490586775e-16,-0.0014117020082899,0.0014117020082901,-0.0014117020082899,0.0014117020082901,-0.0014117020082902,0.0014117020082899,-0.0014117020082902,0.0014117020082899,-0.0013537422813904,0.00135374228139,-0.0013537422813904,0.0013537422813901,-3.4772467136763e-16,4.4826571755474e-16,4.3542787444791e-17,5.4836560074849e-17,-0.0013774103954347,0.0013774103954348,-0.0014117020082901,0.00141170200829,-0.0014117020082901,0.00141170200829,-0.0014117020082899,0.0014117020082902,-0.0014117020082899,0.0014117020082902,-0.0013537422813901,0.0013537422813905,-0.0013537422813902,0.0013537422813905,-0.0013537422813906,0.00135374228139,-0.0013537422813899,0.0013537422813908,5.4924792673521e-18,-3.1807851821372e-17,-0.0013774103954348,0.0013774103954348,-6.8527318302171e-18,-1.8440613122516e-17,-0.00141170200829,0.00141170200829,-0.0014117020082901,0.0014117020082901,-0.0014117020082901,0.00141170200829,-0.0014117020082901,0.00141170200829,-0.0013537422813904,0.0013537422813903,-0.0013537422813903,0.0013537422813904,0.61536673530373,0.55528043470995,1270536,32768,0.0057227576426362,0.0057227576426363,0.0057227576426363,14.322786081016,14.332561460968,2.9782288648129e-05,2.9782288648129e-05,2.9782288648129e-05,406061.34037761,0.017316722542929
22204800,0.99986229266032,0.017086154084406,0.005695384694802,0.0056953846948022,0.0056953846948022,-0.0013776358894645,0.0013776358894645,-5.912687018529e-17,-1.800680284571e-17,3.5373919351045e-16,-4.3569257224393e-16,-0.0014119445105468,0.0014119445105469,-0.0014119445105467,0.0014119445105469,-0.001411944510547,0.0014119445105467,-0.001411944510547,0.0014119445105467,-0.0013539573664033,0.0013539573664029,-0.0013539573664033,0.001353957366403,-3.4797466373053e-16,4.4808189964084e-16,4.3476612995787e-17,5.4748327476176e-17,-0.0013776358894645,0.0013776358894646,-0.001411944510547,0.0014119445105468,-0.001411944510547,0.0014119445105468,-0.0014119445105467,0.001411944510547,-0.0014119445105467,0.0014119445105471,-0.001353957366403,0.0013539573664033,-0.001353957366403,0.0013539573664034,-0.0013539573664035,0.0013539573664029,-0.0013539573664028,0.0013539573664036,4.8748510766458e-18,-3.2440185445191e-17,-0.0013776358894646,0.0013776358894645,-7.367421989139e-18,-1.9293528243015e-17,-0.0014119445105469,0.0014119445105469,-0.0014119445105469,0.0014119445105469,-0.0014119445105469,0.0014119445105468,-0.0014119445105469,0.0014119445105469,-0.0013539573664032,0.0013539573664032,-0.0013539573664032,0.0013539573664032,0.60898661763153,0.54581434588776,1270536,32768,0.0057236918870784,0.0057236918870786,0.0057236918870786,14.473576094589,14.483367500893,3.0988608756709e-05,3.0988608756709e-05,3.0988608756709e-05,407979.50241753,0.017319573580742
22291200,0.99986436752078,0.017086186218265,0.0056953954060884,0.0056953954060885,0.0056953954060885,-0.0013778856084056,0.0013778856084056,-6.0582708063384e-17,-1.9514109739695e-17,3.5248187897937e-16,-4.3716311555514e-16,-0.0014122016174922,0.0014122016174924,-0.0014122016174922,0.0014122016174924,-0.0014122016174925,0.0014122016174922,-0.0014122016174925,0.0014122016174922,-0.0013542050838307,0.0013542050838303,-0.0013542050838307,0.0013542050838303,-3.4762173333584e-16,4.4887599302889e-16,4.3910423272593e-17,5.5307133934434e-17,-0.0013778856084056,0.0013778856084057,-0.0014122016174924,0.0014122016174923,-0.0014122016174924,0.0014122016174923,-0.0014122016174922,0.0014122016174925,-0.0014122016174922,0.0014122016174925,-0.0013542050838304,0.0013542050838307,-0.0013542050838304,0.0013542050838307,-0.0013542050838309,0.0013542050838302,-0.0013542050838301,0.001354205083831,5.6542390315847e-18,-3.1675502923364e-17,-0.0013778856084057,0.0013778856084056,-6.5145068686398e-18,-1.8322969657619e-17,-0.0014122016174923,0.0014122016174923,-0.0014122016174924,0.0014122016174924,-0.0014122016174924,0.0014122016174923,-0.0014122016174924,0.0014122016174923,-0.0013542050838306,0.0013542050838306,-0.0013542050838306,0.0013542050838306,0.62191243344957,0.6415819639154,1270536,32768,0.0057247264933402,0.0057247264933403,0.0057247264933403,14.624380563387,14.634173540819,3.2195044507097e-05,3.2195044507097e-05,3.2195044507097e-05,409213.37216023,0.017322730969354
22377600,0.99986643100028,0.017086218658987,0.0056954062196624,0.0056954062196625,0.0056954062196625,-0.0013784005828459,0.0013784005828458,-5.9483476938258e-17,-1.8109740877494e-17,3.526951077595e-16,-4.3536905271547e-16,-0.0014126332838153,0.0014126332838155,-0.0014126332838153,0.0014126332838155,-0.0014126332838156,0.0014126332838152,-0.0014126332838156,0.0014126332838152,-0.0013547970991128,0.0013547970991124,-0.0013547970991128,0.0013547970991125,-3.4770996593451e-16,4.4735398070179e-16,4.2704577757404e-17,5.5160079603314e-17,-0.0013784005828458,0.0013784005828459,-0.0014126332838155,0.0014126332838154,-0.0014126332838155,0.0014126332838154,-0.0014126332838153,0.0014126332838156,-0.0014126332838153,0.0014126332838156,-0.0013547970991125,0.0013547970991128,-0.0013547970991125,0.0013547970991129,-0.001354797099113,0.0013547970991124,-0.0013547970991123,0.0013547970991132,5.5513009998003e-18,-3.2043138751165e-17,-0.0013784005828459,0.0013784005828459,-6.8086155308809e-18,-1.9293528243015e-17,-0.0014126332838154,0.0014126332838154,-0.0014126332838155,0.0014126332838154,-0.0014126332838154,0.0014126332838154,-0.0014126332838155,0.0014126332838154,-0.0013547970991128,0.0013547970991127,-0.0013547970991127,0.0013547970991127,0.63131506093414,0.67319470915953,1270536,32768,0.0057268599869292,0.0057268599869294,0.0057268599869294,14.7751864491,14.784979580744,3.3401491592801e-05,3.3401491592801e-05,3.3401491592801e-05,401615.29236516,0.017329242741809
22464000,0.99986848283208,0.017086251361759,0.0056954171205862,0.0056954171205864,0.0056954171205864,-0.0013788077341375,0.0013788077341374,-6.0692998811724e-17,-1.9234706510566e-17,3.5199659968668e-16,-4.3697194492468e-16,-0.0014129974022484,0.0014129974022485,-0.0014129974022483,0.0014129974022485,-0.0014129974022486,0.0014129974022483,-0.0014129974022486,0.0014129974022483,-0.0013552327227499,0.0013552327227495,-0.0013552327227498,0.0013552327227495,-3.4850405932256e-16,4.4682458510976e-16,4.2285472913711e-17,5.4792443775513e-17,-0.0013788077341375,0.0013788077341376,-0.0014129974022486,0.0014129974022484,-0.0014129974022486,0.0014129974022484,-0.0014129974022483,0.0014129974022486,-0.0014129974022483,0.0014129974022487,-0.0013552327227496,0.0013552327227499,-0.0013552327227496,0.0013552327227499,-0.0013552327227501,0.0013552327227494,-0.0013552327227493,0.0013552327227502,4.646916863409e-18,-3.264606150876e-17,-0.0013788077341375,0.0013788077341375,-7.2350730911305e-18,-1.9896451000609e-17,-0.0014129974022485,0.0014129974022485,-0.0014129974022485,0.0014129974022485,-0.0014129974022485,0.0014129974022485,-0.0014129974022485,0.0014129974022485,-0.0013552327227498,0.0013552327227497,-0.0013552327227498,0.0013552327227498,0.63996843314283,0.69548811134313,1270536,32768,0.0057285467194142,0.0057285467194144,0.0057285467194144,14.925992473884,14.93578562067,3.460793979107e-05,3.460793979107e-05,3.460793979107e-05,397273.33056059,0.017334390920606
22550400,0.99987052275202,0.01708628424755,0.0056954280825164,0.0056954280825166,0.0056954280825166,-0.0013791856592525,0.0013791856592524,-5.9689353001827e-17,-1.8286206074839e-17,3.5301127457141e-16,-4.3611902980418e-16,-0.0014133466800442,0.0014133466800444,-0.0014133466800442,0.0014133466800444,-0.0014133466800445,0.0014133466800441,-0.0014133466800445,0.0014133466800441,-0.00135562608105,0.0013556260810496,-0.00135562608105,0.0013556260810497,-3.4857758648812e-16,4.473686861349e-16,4.199136425147e-17,5.4895381807297e-17,-0.0013791856592524,0.0013791856592525,-0.0014133466800444,0.0014133466800442,-0.0014133466800444,0.0014133466800442,-0.0014133466800441,0.0014133466800445,-0.0014133466800441,0.0014133466800445,-0.0013556260810497,0.0013556260810501,-0.0013556260810498,0.0013556260810501,-0.0013556260810502,0.0013556260810496,-0.0013556260810495,0.0013556260810504,4.5439788316246e-18,-3.3043108202785e-17,-0.0013791856592525,0.0013791856592525,-6.8674372633291e-18,-2.0278792261522e-17,-0.0014133466800443,0.0014133466800443,-0.0014133466800443,0.0014133466800443,-0.0014133466800443,0.0014133466800443,-0.0014133466800443,0.0014133466800443,-0.00135562608105,0.0013556260810499,-0.0013556260810499,0.0013556260810499,0.64727199165991,0.70836833440602,1270536,32768,0.0057301123599632,0.0057301123599634,0.0057301123599634,15.076798512322,15.086591660595,3.5814388098578e-05,3.5814388098578e-05,3.5814388098578e-05,393747.68319864,0.017339169518412
22636800,0.99987254658442,0.017086317232657,0.0056954390775523,0.0056954390775525,0.0056954390775525,-0.0013794769521588,0.0013794769521587,-5.9204073709129e-17,-1.8021508278822e-17,3.533642049661e-16,-4.3531023098302e-16,-0.0014136228456829,0.001413622845683,-0.0014136228456829,0.001413622845683,-0.0014136228456831,0.0014136228456828,-0.0014136228456831,0.0014136228456828,-0.0013559224616837,0.0013559224616833,-0.0013559224616837,0.0013559224616834,-3.4895992774904e-16,4.4657459274685e-16,4.1366383344207e-17,5.463068401128e-17,-0.0013794769521587,0.0013794769521588,-0.0014136228456831,0.0014136228456829,-0.0014136228456831,0.0014136228456829,-0.0014136228456828,0.0014136228456831,-0.0014136228456828,0.0014136228456832,-0.0013559224616834,0.0013559224616837,-0.0013559224616834,0.0013559224616838,-0.0013559224616839,0.0013559224616833,-0.0013559224616832,0.001355922461684,4.2939864687197e-18,-3.3116635368345e-17,-0.0013794769521588,0.0013794769521588,-7.1321350593461e-18,-2.0617017223099e-17,-0.001413622845683,0.001413622845683,-0.001413622845683,0.001413622845683,-0.001413622845683,0.001413622845683,-0.001413622845683,0.001413622845683,-0.0013559224616836,0.0013559224616836,-0.0013559224616836,0.0013559224616836,0.65436000716913,0.72124855746891,1270536,32768,0.0057313190905679,0.0057313190905681,0.0057313190905681,15.197374193365,15.205269359804,3.6778993546915e-05,3.6778993546915e-05,3.6778993546915e-05,391063.396846,0.01734285270195
22723200,0.99987454545969,0.017086350165013,0.0056954500550043,0.0056954500550044,0.0056954500550044,-0.001379628655638,0.001379628655638,-5.9432007922366e-17,-1.8234737058947e-17,3.5276863492506e-16,-4.3576609940949e-16,-0.0014137650233988,0.001413765023399,-0.0014137650233988,0.001413765023399,-0.0014137650233991,0.0014137650233988,-0.0014137650233991,0.0014137650233988,-0.0013560767942337,0.0013560767942333,-0.0013560767942337,0.0013560767942334,-3.4913639294638e-16,4.4633930581706e-16,4.0895809484622e-17,5.4321869915927e-17,-0.001379628655638,0.0013796286556381,-0.001413765023399,0.0014137650233989,-0.0014137650233991,0.0014137650233989,-0.0014137650233988,0.0014137650233991,-0.0014137650233988,0.0014137650233991,-0.0013560767942334,0.0013560767942337,-0.0013560767942334,0.0013560767942338,-0.0013560767942339,0.0013560767942333,-0.0013560767942332,0.001356076794234,4.5733896978487e-18,-3.2896053871664e-17,-0.0013796286556381,0.001379628655638,-6.5880340342001e-18,-2.0352319427083e-17,-0.001413765023399,0.001413765023399,-0.001413765023399,0.001413765023399,-0.001413765023399,0.0014137650233989,-0.001413765023399,0.0014137650233989,-0.0013560767942336,0.0013560767942336,-0.0013560767942336,0.0013560767942336,0.66145355557354,0.73412878053179,1270536,32768,0.0057319475220261,0.0057319475220263,0.0057319475220263,15.249681545368,15.253228751199,3.7197452362945e-05,3.7197452362945e-05,3.7197452362945e-05,388586.26283947,0.017344770912163
22809600,0.99987651907762,0.017086383035746,0.0056954610119152,0.0056954610119154,0.0056954610119154,-0.0013797684478656,0.0013797684478655,-6.0990783832243e-17,-1.9668516787372e-17,3.5142308779531e-16,-4.3716311555514e-16,-0.0014138964724014,0.0014138964724015,-0.0014138964724014,0.0014138964724015,-0.0014138964724016,0.0014138964724013,-0.0014138964724016,0.0014138964724013,-0.0013562194479103,0.0013562194479099,-0.0013562194479103,0.00135621944791,-3.4887169515037e-16,4.4652312373096e-16,4.0903162201178e-17,5.4674800310616e-17,-0.0013797684478656,0.0013797684478657,-0.0014138964724016,0.0014138964724014,-0.0014138964724016,0.0014138964724014,-0.0014138964724013,0.0014138964724016,-0.0014138964724013,0.0014138964724017,-0.00135621944791,0.0013562194479104,-0.0013562194479101,0.0013562194479104,-0.0013562194479105,0.0013562194479099,-0.0013562194479098,0.0013562194479106,5.463068401128e-18,-3.1984317018717e-17,-0.0013797684478656,0.0013797684478656,-5.5145374170202e-18,-1.9469993440359e-17,-0.0014138964724015,0.0014138964724015,-0.0014138964724015,0.0014138964724015,-0.0014138964724015,0.0014138964724015,-0.0014138964724015,0.0014138964724015,-0.0013562194479103,0.0013562194479102,-0.0013562194479102,0.0013562194479102,0.6686447524556,0.74700900359468,1270536,32768,0.0057325266148203,0.0057325266148205,0.0057325266148205,15.298032080667,15.301188142595,3.7584256645337e-05,3.7584256645337e-05,3.7584256645337e-05,386124.46622434,0.017346538505831
22896000,0.99987846761474,0.017086413363906,0.005695471121302,0.0056954711213022,0.0056954711213022,-0.0013799041930701,0.00137990419307,-5.9251866366743e-17,-1.804356642849e-17,3.529965691383e-16,-4.3547199074725e-16,-0.0014140253909409,0.0014140253909411,-0.0014140253909409,0.0014140253909411,-0.0014140253909412,0.0014140253909409,-0.0014140253909412,0.0014140253909409,-0.0013563578133097,0.0013563578133093,-0.0013563578133097,0.0013563578133094,-3.494010907424e-16,4.4586873195747e-16,4.0550231806488e-17,5.4042466686798e-17,-0.00137990419307,0.0013799041930701,-0.0014140253909411,0.001414025390941,-0.0014140253909411,0.001414025390941,-0.0014140253909409,0.0014140253909412,-0.0014140253909409,0.0014140253909412,-0.0013563578133094,0.0013563578133097,-0.0013563578133094,0.0013563578133098,-0.0013563578133099,0.0013563578133093,-0.0013563578133091,0.00135635781331,4.4189826501722e-18,-3.2954875604113e-17,-0.0013799041930701,0.0013799041930701,-6.558623167976e-18,-2.0587606356875e-17,-0.001414025390941,0.001414025390941,-0.0014140253909411,0.0014140253909411,-0.0014140253909411,0.001414025390941,-0.0014140253909411,0.001414025390941,-0.0013563578133096,0.0013563578133096,-0.0013563578133096,0.0013563578133096,0.62486028984309,0.47808803407847,1270536,32768,0.0057330889436148,0.0057330889436149,0.0057330889436149,15.346029046941,15.34914753399,3.7968232375528e-05,3.7968232375528e-05,3.7968232375528e-05,383684.81491914,0.017348254929317
22982400,0.99988039128883,0.017086443300914,0.0056954811003046,0.0056954811003048,0.0056954811003048,-0.0013793742775924,0.0013793742775923,-5.9766556525665e-17,-1.8462671272184e-17,3.5257011157805e-16,-4.3588374287439e-16,-0.001413717043869,0.0014137170438691,-0.001413717043869,0.0014137170438691,-0.0014137170438692,0.0014137170438689,-0.0014137170438692,0.0014137170438689,-0.0013556256867666,0.0013556256867663,-0.0013556256867666,0.0013556256867663,-3.4929815271061e-16,4.4586873195747e-16,4.0542879089932e-17,5.4439513380823e-17,-0.0013793742775923,0.0013793742775924,-0.0014137170438692,0.001413717043869,-0.0014137170438692,0.001413717043869,-0.0014137170438689,0.0014137170438692,-0.0014137170438689,0.0014137170438693,-0.0013556256867664,0.0013556256867667,-0.0013556256867664,0.0013556256867667,-0.0013556256867669,0.0013556256867662,-0.0013556256867661,0.001355625686767,4.1836957203793e-18,-3.3234278833242e-17,-0.0013793742775924,0.0013793742775924,-6.8674372633291e-18,-2.1072885649573e-17,-0.0014137170438691,0.0014137170438691,-0.0014137170438691,0.0014137170438691,-0.0014137170438691,0.0014137170438691,-0.0014137170438691,0.0014137170438691,-0.0013556256867666,0.0013556256867665,-0.0013556256867665,0.0013556256867666,0.62475989176926,0.56798774821511,1270536,32768,0.0057308935973624,0.0057308935973626,0.0057308935973626,15.393992106076,15.397106925386,3.8351936848608e-05,3.8351936848608e-05,3.8351936848608e-05,403208.87680638,0.01734155338371
23068800,0.99988229032105,0.017086472683227,0.0056954908944088,0.0056954908944089,0.0056954908944089,-0.0013795712097158,0.0013795712097157,-5.7726177681367e-17,-1.635979433716e-17,3.5432741083494e-16,-4.3378086593936e-16,-0.0014138765788818,0.001413876578882,-0.0014138765788818,0.001413876578882,-0.0014138765788821,0.0014138765788818,-0.0014138765788821,0.0014138765788818,-0.0013558860248583,0.0013558860248579,-0.0013558860248583,0.001355886024858,-3.4813642349476e-16,4.4658929817996e-16,4.1660492006449e-17,5.5557126297339e-17,-0.0013795712097157,0.0013795712097158,-0.001413876578882,0.0014138765788819,-0.0014138765788821,0.0014138765788819,-0.0014138765788818,0.0014138765788821,-0.0014138765788818,0.0014138765788821,-0.001355886024858,0.0013558860248584,-0.0013558860248581,0.0013558860248584,-0.0013558860248585,0.0013558860248579,-0.0013558860248578,0.0013558860248587,3.7278272939056e-18,-3.3748968992164e-17,-0.0013795712097158,0.0013795712097158,-7.3968328553631e-18,-2.1587575808495e-17,-0.0014138765788819,0.001413876578882,-0.001413876578882,0.001413876578882,-0.001413876578882,0.0014138765788819,-0.001413876578882,0.0014138765788819,-0.0013558860248583,0.0013558860248582,-0.0013558860248582,0.0013558860248582,0.62127853541426,0.57343655006176,1270536,32768,0.0057317095948515,0.0057317095948516,0.0057317095948517,15.441951857037,15.445066316781,3.8735614856294e-05,3.8735614856294e-05,3.8735614856294e-05,399712.8405887,0.017344043824573
23155200,0.99988416493229,0.017086501607546,0.0056955005358486,0.0056955005358487,0.0056955005358487,-0.001379663638824,0.0013796636388239,-5.890628868861e-17,-1.7771515915917e-17,3.5295245283896e-16,-4.3495730058833e-16,-0.0014139625443601,0.0014139625443603,-0.0014139625443601,0.0014139625443603,-0.0014139625443604,0.00141396254436,-0.0014139625443603,0.00141396254436,-0.0013559923068944,0.001355992306894,-0.0013559923068943,0.001355992306894,-3.4900404404837e-16,4.4569961947668e-16,4.0439941058148e-17,5.4189521017918e-17,-0.0013796636388239,0.001379663638824,-0.0014139625443603,0.0014139625443601,-0.0014139625443603,0.0014139625443601,-0.00141396254436,0.0014139625443604,-0.00141396254436,0.0014139625443604,-0.0013559923068941,0.0013559923068944,-0.0013559923068941,0.0013559923068944,-0.0013559923068946,0.0013559923068939,-0.0013559923068938,0.0013559923068947,3.8601761919141e-18,-3.3646030960379e-17,-0.001379663638824,0.001379663638824,-7.2056622249064e-18,-2.1690513840279e-17,-0.0014139625443602,0.0014139625443602,-0.0014139625443602,0.0014139625443602,-0.0014139625443602,0.0014139625443602,-0.0014139625443602,0.0014139625443602,-0.0013559923068943,0.0013559923068942,-0.0013559923068943,0.0013559923068943,0.61954260315022,0.5822478885742,1270536,32768,0.005732092567411,0.0057320925674112,0.0057320925674112,15.489911283725,15.493025708177,3.9119290269798e-05,3.9119290269798e-05,3.9119290269798e-05,399485.06640873,0.017345212563928
23241600,0.99988601534287,0.017086530584928,0.005695510194976,0.0056955101949762,0.0056955101949762,-0.0013797717621856,0.0013797717621855,-5.9178339201183e-17,-1.789651209737e-17,3.5317303433564e-16,-4.3508964948634e-16,-0.001414058834043,0.0014140588340432,-0.001414058834043,0.0014140588340432,-0.0014140588340433,0.0014140588340429,-0.0014140588340433,0.0014140588340429,-0.001356114360922,0.0013561143609216,-0.0013561143609219,0.0013561143609216,-3.4884228428414e-16,4.4617019333627e-16,4.0623758972049e-17,5.4733622043064e-17,-0.0013797717621856,0.0013797717621857,-0.0014140588340432,0.001414058834043,-0.0014140588340432,0.001414058834043,-0.0014140588340429,0.0014140588340433,-0.0014140588340429,0.0014140588340433,-0.0013561143609217,0.001356114360922,-0.0013561143609217,0.001356114360922,-0.0013561143609222,0.0013561143609215,-0.0013561143609214,0.0013561143609223,4.1322267044871e-18,-3.3190162533906e-17,-0.0013797717621856,0.0013797717621856,-6.5292123017519e-18,-2.1058180216461e-17,-0.0014140588340431,0.0014140588340431,-0.0014140588340431,0.0014140588340431,-0.0014140588340431,0.0014140588340431,-0.0014140588340431,0.0014140588340431,-0.0013561143609219,0.0013561143609218,-0.0013561143609219,0.0013561143609219,0.62879352310557,0.64533473333085,1270536,32768,0.0057325405412449,0.0057325405412451,0.0057325405412451,15.537870678586,15.540985099572,3.9502965428685e-05,3.9502965428685e-05,3.9502965428685e-05,398756.15560662,0.017346579746637
23328000,0.99988784177243,0.017086559692919,0.0056955198976396,0.0056955198976398,0.0056955198976398,-0.001380015931158,0.0013800159311579,-6.0336392058757e-17,-1.900677229733e-17,3.5198924697012e-16,-4.3678077429422e-16,-0.0014142457432351,0.0014142457432353,-0.0014142457432351,0.0014142457432353,-0.0014142457432354,0.0014142457432351,-0.0014142457432354,0.0014142457432351,-0.0013564096912757,0.0013564096912753,-0.0013564096912757,0.0013564096912754,-3.4901874948149e-16,4.4604519715482e-16,4.0006130781342e-17,5.4733622043064e-17,-0.0013800159311579,0.001380015931158,-0.0014142457432353,0.0014142457432352,-0.0014142457432353,0.0014142457432352,-0.0014142457432351,0.0014142457432354,-0.0014142457432351,0.0014142457432354,-0.0013564096912754,0.0013564096912757,-0.0013564096912754,0.0013564096912758,-0.0013564096912759,0.0013564096912753,-0.0013564096912752,0.001356409691276,4.0292886727028e-18,-3.3646030960379e-17,-0.001380015931158,0.001380015931158,-6.9850807282256e-18,-2.2072855101193e-17,-0.0014142457432352,0.0014142457432352,-0.0014142457432353,0.0014142457432352,-0.0014142457432353,0.0014142457432352,-0.0014142457432353,0.0014142457432352,-0.0013564096912756,0.0013564096912756,-0.0013564096912756,0.0013564096912756,0.63991206299163,0.69102081424216,1270536,32768,0.0057335521025447,0.0057335521025449,0.0057335521025449,15.585830070322,15.588944490968,3.9886640562571e-05,3.9886640562571e-05,3.9886640562571e-05,393468.13290968,0.017349667349462
23414400,0.99988965087208,0.017086588059284,0.0056955293530945,0.0056955293530947,0.0056955293530947,-0.001380351833842,0.001380351833842,-5.8314395005849e-17,-1.7065655126538e-17,3.5395242229058e-16,-4.3435437783073e-16,-0.0014145316418166,0.0014145316418167,-0.0014145316418165,0.0014145316418167,-0.0014145316418168,0.0014145316418165,-0.0014145316418168,0.0014145316418165,-0.001356782273838,0.0013567822738376,-0.001356782273838,0.0013567822738377,-3.4835700499144e-16,4.4660400361308e-16,4.0432588341592e-17,5.5645358896012e-17,-0.001380351833842,0.0013803518338421,-0.0014145316418167,0.0014145316418166,-0.0014145316418168,0.0014145316418166,-0.0014145316418165,0.0014145316418168,-0.0014145316418165,0.0014145316418168,-0.0013567822738378,0.0013567822738381,-0.0013567822738378,0.0013567822738381,-0.0013567822738383,0.0013567822738376,-0.0013567822738375,0.0013567822738384,1.904353588011e-18,-3.5322450335153e-17,-0.0013803518338421,0.001380351833842,-8.4262131732068e-18,-2.3793390775303e-17,-0.0014145316418167,0.0014145316418167,-0.0014145316418167,0.0014145316418167,-0.0014145316418167,0.0014145316418166,-0.0014145316418167,0.0014145316418166,-0.001356782273838,0.0013567822738379,-0.0013567822738379,0.001356782273838,0.6295496938145,0.60514741048134,1270536,32768,0.0057349436626771,0.0057349436626773,0.0057349436626773,15.689715044904,15.696340695733,4.0717720359233e-05,4.0717720359233e-05,4.0717720359233e-05,388437.98940841,0.01735391475823
23500800,0.99989145572025,0.01708661553218,0.0056955385107265,0.0056955385107267,0.0056955385107267,-0.0013806129125077,0.0013806129125076,-5.7976170044272e-17,-1.6558317684173e-17,3.5433476355149e-16,-4.3389850940426e-16,-0.0014148457519718,0.0014148457519719,-0.0014148457519718,0.001414845751972,-0.001414845751972,0.0014148457519717,-0.001414845751972,0.0014148457519717,-0.0013569855751322,0.0013569855751318,-0.0013569855751321,0.0013569855751318,-3.4913639294638e-16,4.4589079010714e-16,3.9785549284662e-17,5.4939498106633e-17,-0.0013806129125077,0.0013806129125078,-0.001414845751972,0.0014148457519718,-0.001414845751972,0.0014148457519718,-0.0014148457519717,0.0014148457519721,-0.0014148457519717,0.0014148457519721,-0.0013569855751319,0.0013569855751322,-0.0013569855751319,0.0013569855751322,-0.0013569855751324,0.0013569855751317,-0.0013569855751316,0.0013569855751325,2.4263964634889e-18,-3.4837171042456e-17,-0.0013806129125077,0.0013806129125077,-7.9850501798452e-18,-2.3499282113062e-17,-0.0014148457519719,0.0014148457519719,-0.0014148457519719,0.0014148457519719,-0.0014148457519719,0.0014148457519719,-0.0014148457519719,0.0014148457519719,-0.0013569855751321,0.001356985575132,-0.0013569855751321,0.0013569855751321,0.61113905437765,0.51927400672051,1270536,32768,0.0057360252519285,0.0057360252519286,0.0057360252519286,15.908299818676,15.922241114251,4.2466398549404e-05,4.2466398549404e-05,4.2466398549404e-05,393008.70245973,0.017357215494183
23587200,0.99989325663226,0.017086643463377,0.0056955478211255,0.0056955478211257,0.0056955478211257,-0.0013808164334722,0.0013808164334721,-5.8818056089937e-17,-1.754358170268e-17,3.5366566634489e-16,-4.3473671909165e-16,-0.0014151282215415,0.0014151282215416,-0.0014151282215414,0.0014151282215416,-0.0014151282215417,0.0014151282215414,-0.0014151282215417,0.0014151282215414,-0.0013571217496323,0.0013571217496319,-0.0013571217496323,0.001357121749632,-3.4872464081924e-16,4.4636136396673e-16,4.0109068813127e-17,5.5615948029788e-17,-0.0013808164334721,0.0013808164334722,-0.0014151282215417,0.0014151282215415,-0.0014151282215417,0.0014151282215415,-0.0014151282215414,0.0014151282215417,-0.0014151282215414,0.0014151282215417,-0.001357121749632,0.0013571217496323,-0.001357121749632,0.0013571217496324,-0.0013571217496325,0.0013571217496318,-0.0013571217496317,0.0013571217496326,2.5440399283853e-18,-3.4778349310007e-17,-0.0013808164334722,0.0013808164334722,-7.6762360844921e-18,-2.355810384551e-17,-0.0014151282215416,0.0014151282215416,-0.0014151282215416,0.0014151282215416,-0.0014151282215416,0.0014151282215415,-0.0014151282215416,0.0014151282215415,-0.0013571217496322,0.0013571217496322,-0.0013571217496322,0.0013571217496322,0.62271354980485,0.62948455144777,1270536,32768,0.0057368684490329,0.0057368684490331,0.0057368684490331,16.133541940358,16.148141532768,4.4268335522863e-05,4.4268335522863e-05,4.4268335522863e-05,400352.7114488,0.017359788444822
23673600,0.99989505320782,0.017086672285662,0.0056955574285537,0.0056955574285539,0.0056955574285539,-0.0013814717812129,0.0013814717812128,-6.1244452553426e-17,-1.9668516787372e-17,3.5085692862049e-16,-4.3710429382269e-16,-0.0014157050718981,0.0014157050718982,-0.0014157050718981,0.0014157050718982,-0.0014157050718983,0.001415705071898,-0.0014157050718983,0.001415705071898,-0.0013578589329758,0.0013578589329754,-0.0013578589329758,0.0013578589329755,-3.4690116711335e-16,4.4775102739582e-16,4.1050216532298e-17,5.7865879295932e-17,-0.0013814717812129,0.001381471781213,-0.0014157050718983,0.0014157050718981,-0.0014157050718983,0.0014157050718981,-0.001415705071898,0.0014157050718984,-0.001415705071898,0.0014157050718984,-0.0013578589329755,0.0013578589329758,-0.0013578589329755,0.0013578589329759,-0.001357858932976,0.0013578589329753,-0.0013578589329752,0.0013578589329761,1.7131829575543e-18,-3.5881256793411e-17,-0.0013814717812129,0.0013814717812129,-8.3232751414225e-18,-2.5234523220284e-17,-0.0014157050718982,0.0014157050718982,-0.0014157050718982,0.0014157050718982,-0.0014157050718982,0.0014157050718982,-0.0014157050718982,0.0014157050718982,-0.0013578589329757,0.0013578589329757,-0.0013578589329757,0.0013578589329757,0.64416218409515,0.7352820555999,1270536,32768,0.0057395834895174,0.0057395834895176,0.0057395834895176,16.359379115843,16.374041951286,4.6075032926741e-05,4.6075032926741e-05,4.6075032926741e-05,392995.85985055,0.01736807535061
23760000,0.99989684498146,0.017086701883619,0.0056955672945396,0.0056955672945397,0.0056955672945397,-0.0013821771804189,0.0013821771804188,-5.7086491340993e-17,-1.578628244579e-17,3.5503327162432e-16,-4.3195739223347e-16,-0.0014163164791653,0.0014163164791655,-0.0014163164791653,0.0014163164791655,-0.0014163164791656,0.0014163164791652,-0.0014163164791656,0.0014163164791653,-0.001358642320739,0.0013586423207386,-0.001358642320739,0.0013586423207387,-3.4823936152655e-16,4.4531727821577e-16,3.9035572195947e-17,5.5880645825805e-17,-0.0013821771804188,0.0013821771804189,-0.0014163164791655,0.0014163164791654,-0.0014163164791655,0.0014163164791654,-0.0014163164791653,0.0014163164791656,-0.0014163164791653,0.0014163164791656,-0.0013586423207387,0.001358642320739,-0.0013586423207387,0.0013586423207391,-0.0013586423207392,0.0013586423207386,-0.0013586423207385,0.0013586423207393,3.7204745773496e-18,-3.3807790724612e-17,-0.0013821771804189,0.0013821771804189,-5.8380569454854e-18,-2.298459195414e-17,-0.0014163164791654,0.0014163164791654,-0.0014163164791655,0.0014163164791654,-0.0014163164791654,0.0014163164791654,-0.0014163164791655,0.0014163164791654,-0.0013586423207389,0.0013586423207389,-0.0013586423207389,0.0013586423207389,0.66320363578332,0.7891656146954,1270536,32768,0.005742505781406,0.0057425057814062,0.0057425057814062,16.585273360998,16.599942369804,4.7882186887983e-05,4.7882186887983e-05,4.7882186887983e-05,383621.00712716,0.017376995134683
23846400,0.99989863147997,0.017086732259693,0.0056955774198976,0.0056955774198978,0.0056955774198978,-0.001382789613451,0.0013827896134509,-6.0277570326309e-17,-1.9021477730442e-17,3.5164366929199e-16,-4.3506023862011e-16,-0.0014168724995705,0.0014168724995707,-0.0014168724995705,0.0014168724995707,-0.0014168724995708,0.0014168724995704,-0.0014168724995708,0.0014168724995704,-0.0013592899230164,0.001359289923016,-0.0013592899230164,0.0013592899230161,-3.5129809161385e-16,4.4246442419203e-16,3.6043016557644e-17,5.3160140700075e-17,-0.0013827896134509,0.001382789613451,-0.0014168724995707,0.0014168724995705,-0.0014168724995707,0.0014168724995705,-0.0014168724995704,0.0014168724995707,-0.0014168724995704,0.0014168724995708,-0.0013592899230161,0.0013592899230164,-0.0013592899230161,0.0013592899230165,-0.0013592899230166,0.001359289923016,-0.0013592899230159,0.0013592899230167,-4.1395794210432e-18,-4.1513437675328e-17,-0.001382789613451,0.001382789613451,-1.2984897437944e-17,-3.0484362841288e-17,-0.0014168724995706,0.0014168724995706,-0.0014168724995706,0.0014168724995706,-0.0014168724995706,0.0014168724995706,-0.0014168724995706,0.0014168724995706,-0.0013592899230164,0.0013592899230163,-0.0013592899230163,0.0013592899230163,0.68256795928882,0.83677736959159,1270536,32768,0.005745042874887,0.0057450428748872,0.0057450428748872,16.81117317431,16.825842788321,4.9689385394483e-05,4.9689385394483e-05,4.9689385394483e-05,376958.58210573,0.017384739214526
23932800,0.99990041222825,0.017086763448737,0.0056955878162456,0.0056955878162458,0.0056955878162458,-0.0013833761440524,0.0013833761440523,-5.8237191482011e-17,-1.6756841031185e-17,3.5366566634489e-16,-4.3245737695928e-16,-0.0014174170720671,0.0014174170720672,-0.0014174170720671,0.0014174170720672,-0.0014174170720673,0.001417417072067,-0.0014174170720673,0.001417417072067,-0.0013598994675892,0.0013598994675888,-0.0013598994675892,0.0013598994675889,-3.4826877239277e-16,4.4494228967141e-16,3.8763521683374e-17,5.5571831730451e-17,-0.0013833761440524,0.0013833761440525,-0.0014174170720672,0.0014174170720671,-0.0014174170720673,0.0014174170720671,-0.001417417072067,0.0014174170720673,-0.001417417072067,0.0014174170720673,-0.0013598994675889,0.0013598994675892,-0.001359899467589,0.0013598994675893,-0.0013598994675894,0.0013598994675888,-0.0013598994675887,0.0013598994675896,-4.90426194287e-18,-4.2278120197155e-17,-0.0013833761440525,0.0013833761440524,-1.467602224583e-17,-3.1734324655812e-17,-0.0014174170720672,0.0014174170720671,-0.0014174170720672,0.0014174170720672,-0.0014174170720672,0.0014174170720671,-0.0014174170720672,0.0014174170720671,-0.0013598994675892,0.0013598994675891,-0.0013598994675891,0.0013598994675891,0.70303737557096,0.88438912448778,1270536,32768,0.0057474726438526,0.0057474726438527,0.0057474726438528,17.037073533424,17.051743206839,5.1496588267394e-05,5.1496588267394e-05,5.1496588267394e-05,370920.79750117,0.017392155760224
24019200,0.99990218675018,0.017086794766094,0.0056955982553647,0.0056955982553648,0.0056955982553648,-0.0013839522763282,0.0013839522763281,-5.5972554782755e-17,-1.4801018427282e-17,3.5519503138855e-16,-4.3082507388384e-16,-0.001417958722436,0.0014179587224362,-0.001417958722436,0.0014179587224362,-0.0014179587224363,0.0014179587224359,-0.0014179587224363,0.0014179587224359,-0.001360493817777,0.0013604938177766,-0.001360493817777,0.0013604938177767,-3.424454208804e-16,4.5065535043545e-16,4.3851601540145e-17,6.0630500720998e-17,-0.0013839522763282,0.0013839522763283,-0.0014179587224362,0.001417958722436,-0.0014179587224362,0.001417958722436,-0.0014179587224359,0.0014179587224363,-0.0014179587224359,0.0014179587224363,-0.0013604938177767,0.0013604938177771,-0.0013604938177767,0.0013604938177771,-0.0013604938177772,0.0013604938177766,-0.0013604938177765,0.0013604938177774,1.2418738263129e-17,-2.4881592825595e-17,-0.0013839522763282,0.0013839522763282,1.7499465403344e-18,-1.532306130276e-17,-0.0014179587224361,0.0014179587224361,-0.0014179587224361,0.0014179587224361,-0.0014179587224361,0.0014179587224361,-0.0014179587224361,0.0014179587224361,-0.0013604938177769,0.0013604938177769,-0.0013604938177769,0.0013604938177769,0.70836062121925,0.84208196311467,1270536,32768,0.0057498593246835,0.0057498593246837,0.0057498593246837,17.262973946109,17.277643625356,5.3303791568874e-05,5.3303791568874e-05,5.3303791568874e-05,365020.62718438,0.017399440845941
24105600,0.99990395456911,0.017086824885205,0.0056956082950681,0.0056956082950683,0.0056956082950683,-0.0013843485096555,0.0013843485096554,-5.3788797965615e-17,-1.2381974680349e-17,3.5695968336199e-16,-4.2847220458591e-16,-0.0014183852982102,0.0014183852982104,-0.0014183852982102,0.0014183852982104,-0.0014183852982105,0.0014183852982102,-0.0014183852982105,0.0014183852982102,-0.001360852171028,0.0013608521710276,-0.0013608521710279,0.0013608521710276,-3.4793054743119e-16,4.4428789789793e-16,3.827088967412e-17,5.5660064329124e-17,-0.0013843485096555,0.0013843485096556,-0.0014183852982104,0.0014183852982103,-0.0014183852982105,0.0014183852982103,-0.0014183852982102,0.0014183852982105,-0.0014183852982102,0.0014183852982105,-0.0013608521710277,0.001360852171028,-0.0013608521710277,0.001360852171028,-0.0013608521710282,0.0013608521710275,-0.0013608521710274,0.0013608521710283,3.1543154025355e-18,-3.4396008049094e-17,-0.0013843485096555,0.0013843485096555,-5.7645297799251e-18,-2.348457667995e-17,-0.0014183852982104,0.0014183852982104,-0.0014183852982104,0.0014183852982104,-0.0014183852982104,0.0014183852982103,-0.0014183852982104,0.0014183852982103,-0.0013608521710279,0.0013608521710279,-0.0013608521710279,0.0013608521710279,0.68381265222822,0.6668147606019,1270536,32768,0.0057515007344691,0.0057515007344693,0.0057515007344693,17.488874364054,17.503544043874,5.5110994912433e-05,5.5110994912433e-05,5.5110994912433e-05,364761.56387802,0.017404450876374
24192000,0.9999057098522,0.017086854666555,0.0056956182221847,0.0056956182221849,0.0056956182221849,-0.0013843288651463,0.0013843288651463,-5.7321778270786e-17,-1.6124507407367e-17,3.5340832126543e-16,-4.322367954626e-16,-0.0014185081160553,0.0014185081160554,-0.0014185081160552,0.0014185081160554,-0.0014185081160555,0.0014185081160552,-0.0014185081160555,0.0014185081160552,-0.0013607038990594,0.0013607038990591,-0.0013607038990594,0.0013607038990591,-3.4588649222862e-16,4.4617019333627e-16,4.0403177475368e-17,5.7718824964811e-17,-0.0013843288651463,0.0013843288651464,-0.0014185081160554,0.0014185081160553,-0.0014185081160555,0.0014185081160553,-0.0014185081160552,0.0014185081160555,-0.0014185081160552,0.0014185081160555,-0.0013607038990592,0.0013607038990595,-0.0013607038990592,0.0013607038990595,-0.0013607038990597,0.001360703899059,-0.0013607038990589,0.0013607038990598,1.64700850855e-18,-3.5895962226523e-17,-0.0013843288651464,0.0013843288651463,-7.8232904156126e-18,-2.5528631882525e-17,-0.0014185081160554,0.0014185081160554,-0.0014185081160554,0.0014185081160554,-0.0014185081160554,0.0014185081160553,-0.0014185081160554,0.0014185081160553,-0.0013607038990594,0.0013607038990593,-0.0013607038990593,0.0013607038990594,0.68097734752987,0.68906096147582,1270536,32768,0.0057514193244285,0.0057514193244287,0.0057514193244287,17.666153145728,17.677770166148,5.6529225165822e-05,5.6529225165822e-05,5.6529225165822e-05,375082.24485758,0.017404201761811
24278400,0.99990744241681,0.017086884139726,0.0056956280465753,0.0056956280465755,0.0056956280465755,-0.0013844689407582,0.0013844689407581,-5.8468802053526e-17,-1.7073007843095e-17,3.525112898456e-16,-4.3317794318177e-16,-0.0014186686071867,0.0014186686071869,-0.0014186686071867,0.0014186686071869,-0.001418668607187,0.0014186686071866,-0.001418668607187,0.0014186686071866,-0.001360845912487,0.0013608459124866,-0.001360845912487,0.0013608459124867,-3.4722468664182e-16,4.4524375105021e-16,3.9263506409184e-17,5.6586506615183e-17,-0.0013844689407581,0.0013844689407582,-0.0014186686071869,0.0014186686071867,-0.0014186686071869,0.0014186686071867,-0.0014186686071866,0.001418668607187,-0.0014186686071867,0.001418668607187,-0.0013608459124867,0.001360845912487,-0.0013608459124867,0.0013608459124871,-0.0013608459124872,0.0013608459124866,-0.0013608459124865,0.0013608459124873,3.1543154025355e-18,-3.4204837418637e-17,-0.0013844689407582,0.0013844689407582,-6.2351036395108e-18,-2.3940445106424e-17,-0.0014186686071868,0.0014186686071868,-0.0014186686071868,0.0014186686071868,-0.0014186686071868,0.0014186686071868,-0.0014186686071869,0.0014186686071868,-0.0013608459124869,0.0013608459124869,-0.0013608459124869,0.0013608459124869,0.68284951978973,0.71130716234974,1270536,32768,0.0057519996822417,0.0057519996822418,0.0057519996822418,17.752566558617,17.758379286882,5.7220532468932e-05,5.7220532468932e-05,5.7220532468932e-05,375165.91855903,0.017405973052123
24364800,0.99990915181095,0.017086913410223,0.0056956378034076,0.0056956378034077,0.0056956378034077,-0.0013846463527229,0.0013846463527229,-5.7307072837674e-17,-1.6264209021932e-17,3.5371713536079e-16,-4.3198680309969e-16,-0.0014188421253886,0.0014188421253887,-0.0014188421253886,0.0014188421253887,-0.0014188421253888,0.0014188421253885,-0.0014188421253888,0.0014188421253885,-0.0013610377794934,0.001361037779493,-0.0013610377794934,0.0013610377794931,-3.4743056270538e-16,4.4518492931776e-16,3.9079688495283e-17,5.6571801182071e-17,-0.0013846463527229,0.001384646352723,-0.0014188421253888,0.0014188421253886,-0.0014188421253888,0.0014188421253886,-0.0014188421253885,0.0014188421253888,-0.0014188421253885,0.0014188421253889,-0.0013610377794931,0.0013610377794934,-0.0013610377794931,0.0013610377794935,-0.0013610377794936,0.001361037779493,-0.0013610377794929,0.0013610377794937,3.0219665045271e-18,-3.4307775450422e-17,-0.001384646352723,0.0013846463527229,-6.1909873401747e-18,-2.398456140576e-17,-0.0014188421253887,0.0014188421253887,-0.0014188421253887,0.0014188421253887,-0.0014188421253887,0.0014188421253887,-0.0014188421253887,0.0014188421253887,-0.0013610377794933,0.0013610377794933,-0.0013610377794933,0.0013610377794933,0.68734968521589,0.73347617344896,1270536,32768,0.0057527346911813,0.0057527346911815,0.0057527346911815,17.833698127828,17.838988407616,5.786958502262e-05,5.786958502262e-05,5.786958502262e-05,373645.93745121,0.017408216464746
24451200,0.99991083812803,0.017086942131659,0.0056956473772197,0.0056956473772199,0.0056956473772199,-0.0013848423713604,0.0013848423713603,-5.7884261087322e-17,-1.6653902999401e-17,3.5344508484821e-16,-4.3264854758974e-16,-0.0014190260669624,0.0014190260669625,-0.0014190260669624,0.0014190260669625,-0.0014190260669626,0.0014190260669623,-0.0014190260669626,0.0014190260669623,-0.0013612494575763,0.001361249457576,-0.0013612494575763,0.001361249457576,-3.464747095531e-16,4.4615548790316e-16,3.999142534823e-17,5.7645297799251e-17,-0.0013848423713604,0.0013848423713605,-0.0014190260669626,0.0014190260669624,-0.0014190260669626,0.0014190260669624,-0.0014190260669623,0.0014190260669626,-0.0014190260669623,0.0014190260669627,-0.0013612494575761,0.0013612494575764,-0.0013612494575761,0.0013612494575764,-0.0013612494575766,0.0013612494575759,-0.0013612494575758,0.0013612494575767,3.4410713482206e-18,-3.3822496157724e-17,-0.0013848423713604,0.0013848423713604,-5.7792352130372e-18,-2.3646336444183e-17,-0.0014190260669625,0.0014190260669625,-0.0014190260669625,0.0014190260669625,-0.0014190260669625,0.0014190260669625,-0.0014190260669625,0.0014190260669625,-0.0013612494575763,0.0013612494575762,-0.0013612494575762,0.0013612494575763,0.68367771997932,0.70088906137732,1270536,32768,0.0057535467602647,0.0057535467602649,0.0057535467602649,17.914357444204,17.91959752835,5.8514859553633e-05,5.8514859553633e-05,5.8514859553633e-05,371453.52691486,0.017410695153121
24537600,0.99991250151096,0.017086970918071,0.0056956569726901,0.0056956569726903,0.0056956569726903,-0.0013849310196452,0.0013849310196451,-5.796146461116e-17,-1.6808310047078e-17,3.5332008866676e-16,-4.3291324538575e-16,-0.001419139567592,0.0014191395675921,-0.0014191395675919,0.0014191395675921,-0.0014191395675922,0.0014191395675919,-0.0014191395675922,0.0014191395675919,-0.0013613167512607,0.0013613167512603,-0.0013613167512607,0.0013613167512604,-3.4670999648289e-16,4.4610401888727e-16,4.0050247080679e-17,5.7939406461492e-17,-0.0013849310196452,0.0013849310196453,-0.0014191395675921,0.001419139567592,-0.0014191395675922,0.001419139567592,-0.0014191395675919,0.0014191395675922,-0.0014191395675919,0.0014191395675922,-0.0013613167512604,0.0013613167512607,-0.0013613167512604,0.0013613167512608,-0.0013613167512609,0.0013613167512603,-0.0013613167512602,0.0013613167512611,3.1469626859795e-18,-3.4013666788181e-17,-0.0013849310196452,0.0013849310196452,-5.749824346813e-18,-2.4278670068001e-17,-0.0014191395675921,0.0014191395675921,-0.0014191395675921,0.0014191395675921,-0.0014191395675921,0.001419139567592,-0.0014191395675921,0.001419139567592,-0.0013613167512607,0.0013613167512606,-0.0013613167512606,0.0013613167512606,0.69465718883939,0.76497482251868,1270536,32768,0.0057539140128838,0.005753914012884,0.005753914012884,17.994971464799,18.000206649084,5.9159771718389e-05,5.9159771718389e-05,5.9159771718389e-05,372702.06794266,0.01741181595127
24624000,0.99991414210888,0.017086999978589,0.0056956666595296,0.0056956666595298,0.0056956666595298,-0.0013852076592952,0.0013852076592951,-5.8435714829024e-17,-1.7227414890771e-17,3.528127512244e-16,-4.3338381924534e-16,-0.0014193753673463,0.0014193753673465,-0.0014193753673463,0.0014193753673465,-0.0014193753673466,0.0014193753673462,-0.0014193753673465,0.0014193753673462,-0.0013616339040056,0.0013616339040052,-0.0013616339040055,0.0013616339040052,-3.4675411278223e-16,4.460819607376e-16,3.9712022119101e-17,5.7571770633691e-17,-0.0013852076592951,0.0013852076592952,-0.0014193753673465,0.0014193753673463,-0.0014193753673465,0.0014193753673463,-0.0014193753673462,0.0014193753673466,-0.0014193753673462,0.0014193753673466,-0.0013616339040053,0.0013616339040056,-0.0013616339040053,0.0013616339040056,-0.0013616339040058,0.0013616339040051,-0.001361633904005,0.0013616339040059,3.4190131985525e-18,-3.3969550488844e-17,-0.0013852076592952,0.0013852076592951,-5.735118913701e-18,-2.3734569042855e-17,-0.0014193753673464,0.0014193753673464,-0.0014193753673464,0.0014193753673464,-0.0014193753673464,0.0014193753673464,-0.0014193753673464,0.0014193753673464,-0.0013616339040055,0.0013616339040054,-0.0013616339040055,0.0013616339040055,0.71101976522491,0.82906058366005,1270536,32768,0.0057550600711682,0.0057550600711684,0.0057550600711684,18.075581065893,18.080815769818,5.9804648527144e-05,5.9804648527144e-05,5.9804648527144e-05,367973.58318029,0.01741531422893
24710400,0.99991576007313,0.017087028795954,0.0056956762653179,0.005695676265318,0.005695676265318,-0.0013855117639614,0.0013855117639614,-5.081830047698e-17,-9.8011711691839e-18,3.6057721990756e-16,-4.2561935056217e-16,-0.001419630362464,0.0014196303624642,-0.001419630362464,0.0014196303624642,-0.0014196303624643,0.001419630362464,-0.0014196303624643,0.001419630362464,-0.0013619780077659,0.0013619780077655,-0.0013619780077658,0.0013619780077656,-3.4515122057302e-16,4.4765544208059e-16,4.1013452949518e-17,5.8895259613776e-17,-0.0013855117639614,0.0013855117639615,-0.0014196303624642,0.0014196303624641,-0.0014196303624643,0.0014196303624641,-0.001419630362464,0.0014196303624643,-0.001419630362464,0.0014196303624643,-0.0013619780077656,0.0013619780077659,-0.0013619780077656,0.0013619780077659,-0.0013619780077661,0.0013619780077655,-0.0013619780077653,0.0013619780077662,1.4705433112054e-18,-3.5851845927187e-17,-0.0013855117639614,0.0013855117639614,-7.5144763202595e-18,-2.5808035111654e-17,-0.0014196303624642,0.0014196303624641,-0.0014196303624642,0.0014196303624642,-0.0014196303624642,0.0014196303624641,-0.0014196303624642,0.0014196303624641,-0.0013619780077658,0.0013619780077658,-0.0013619780077658,0.0013619780077658,0.71489871230959,0.80338046085544,1270536,32768,0.0057563198651839,0.0057563198651841,0.0057563198651841,18.156190233777,18.161424890552,6.0449521870212e-05,6.0449521870212e-05,6.0449521870212e-05,362176.42463084,0.017419159796551
24796800,0.99991735555677,0.017087054774208,0.0056956849247359,0.0056956849247361,0.0056956849247361,-0.0013856486242227,0.0013856486242226,-5.7215163880723e-17,-1.6087743824587e-17,3.5394506957402e-16,-4.3228091176193e-16,-0.0014197789461727,0.0014197789461729,-0.0014197789461727,0.0014197789461729,-0.001419778946173,0.0014197789461726,-0.001419778946173,0.0014197789461726,-0.0013620960943928,0.0013620960943924,-0.0013620960943928,0.0013620960943925,-3.4706292687758e-16,4.4577314664224e-16,3.9520851488645e-17,5.7645297799251e-17,-0.0013856486242226,0.0013856486242227,-0.0014197789461729,0.0014197789461728,-0.0014197789461729,0.0014197789461727,-0.0014197789461727,0.001419778946173,-0.0014197789461727,0.001419778946173,-0.0013620960943925,0.0013620960943928,-0.0013620960943925,0.0013620960943929,-0.001362096094393,0.0013620960943924,-0.0013620960943922,0.0013620960943931,4.088110405151e-18,-3.3351922298138e-17,-0.0013856486242227,0.0013856486242227,-4.911614659426e-18,-2.3322816915717e-17,-0.0014197789461728,0.0014197789461728,-0.0014197789461728,0.0014197789461728,-0.0014197789461728,0.0014197789461728,-0.0014197789461729,0.0014197789461728,-0.0013620960943927,0.0013620960943927,-0.0013620960943927,0.0013620960943927,0.65350626417734,0.43927619685029,1270536,32768,0.0057568867918801,0.0057568867918803,0.0057568867918803,18.23679935914,18.242034011286,6.109439487312e-05,6.109439487312e-05,6.109439487312e-05,361549.5659011,0.017420890254892
24883200,0.99991892871451,0.01708707982594,0.0056956932753132,0.0056956932753134,0.0056956932753134,-0.0013849774124008,0.0013849774124007,-5.7248251105226e-17,-1.6065685674919e-17,3.5405536032236e-16,-4.3213385743081e-16,-0.0014193998230955,0.0014193998230957,-0.0014193998230955,0.0014193998230957,-0.0014193998230957,0.0014193998230954,-0.0014193998230957,0.0014193998230954,-0.0013611591766841,0.0013611591766837,-0.0013611591766841,0.0013611591766838,-3.4591590309484e-16,4.4701575574021e-16,4.0601700822381e-17,5.8792321581991e-17,-0.0013849774124008,0.0013849774124009,-0.0014193998230957,0.0014193998230955,-0.0014193998230957,0.0014193998230955,-0.0014193998230954,0.0014193998230958,-0.0014193998230954,0.0014193998230958,-0.0013611591766838,0.0013611591766841,-0.0013611591766838,0.0013611591766842,-0.0013611591766843,0.0013611591766837,-0.0013611591766836,0.0013611591766844,3.8675289084702e-18,-3.3410744030586e-17,-0.0013849774124008,0.0013849774124008,-5.1616070223309e-18,-2.3455165813726e-17,-0.0014193998230956,0.0014193998230956,-0.0014193998230956,0.0014193998230956,-0.0014193998230956,0.0014193998230956,-0.0014193998230956,0.0014193998230956,-0.001361159176684,0.001361159176684,-0.001361159176684,0.001361159176684,0.63914347466284,0.49107144933571,1270536,32768,0.0057541061596695,0.0057541061596697,0.0057541061596697,18.317408480329,18.32264313202,6.173926784263e-05,6.173926784263e-05,6.173926784263e-05,387154.10620765,0.017412401356623
24969600,0.99992048654819,0.017087104454513,0.0056957014848376,0.0056957014848377,0.0056957014848377,-0.0013852309071234,0.0013852309071233,-5.8421009395912e-17,-1.7286236623219e-17,3.5265834417672e-16,-4.3348675727712e-16,-0.0014196573729978,0.001419657372998,-0.0014196573729978,0.001419657372998,-0.0014196573729981,0.0014196573729977,-0.0014196573729981,0.0014196573729977,-0.0013614488044427,0.0013614488044423,-0.0013614488044427,0.0013614488044424,-3.4475417387899e-16,4.479716088925e-16,4.163843385678e-17,5.9777585600499e-17,-0.0013852309071234,0.0013852309071235,-0.001419657372998,0.0014196573729979,-0.001419657372998,0.0014196573729979,-0.0014196573729978,0.0014196573729981,-0.0014196573729978,0.0014196573729981,-0.0013614488044424,0.0013614488044428,-0.0013614488044425,0.0013614488044428,-0.0013614488044429,0.0013614488044423,-0.0013614488044422,0.0013614488044431,5.2277814713351e-18,-3.2101960483614e-17,-0.0013852309071234,0.0013852309071234,-4.1910484369353e-18,-2.2602250693227e-17,-0.0014196573729979,0.0014196573729979,-0.001419657372998,0.0014196573729979,-0.0014196573729979,0.0014196573729979,-0.001419657372998,0.0014196573729979,-0.0013614488044427,0.0013614488044426,-0.0013614488044426,0.0013614488044426,0.6347244374683,0.53635853196325,1270536,32768,0.0057551565471334,0.0057551565471335,0.0057551565471335,18.468721762077,18.478395501747,6.2949774096615e-05,6.2949774096615e-05,6.2949774096615e-05,388573.5403859,0.017415606927906
25056000,0.99992204052608,0.01708712908642,0.0056957096954732,0.0056957096954734,0.0056957096954734,-0.0013858126557032,0.0013858126557031,-5.8428362112468e-17,-1.7234767607327e-17,3.5291568925618e-16,-4.3306029971687e-16,-0.0014202004466763,0.0014202004466765,-0.0014202004466763,0.0014202004466765,-0.0014202004466766,0.0014202004466762,-0.0014202004466766,0.0014202004466762,-0.001362082813357,0.0013620828133566,-0.0013620828133569,0.0013620828133566,-3.3997490811757e-16,4.5307439418238e-16,4.596918390828e-17,6.401275033677e-17,-0.0013858126557031,0.0013858126557032,-0.0014202004466765,0.0014202004466763,-0.0014202004466765,0.0014202004466763,-0.0014202004466762,0.0014202004466766,-0.0014202004466762,0.0014202004466766,-0.0013620828133567,0.001362082813357,-0.0013620828133567,0.0013620828133571,-0.0013620828133572,0.0013620828133566,-0.0013620828133564,0.0013620828133573,4.7130913124133e-18,-3.2543123476975e-17,-0.0013858126557032,0.0013858126557032,-4.5145679654005e-18,-2.291106478858e-17,-0.0014202004466764,0.0014202004466764,-0.0014202004466764,0.0014202004466764,-0.0014202004466764,0.0014202004466764,-0.0014202004466764,0.0014202004466764,-0.0013620828133569,0.0013620828133569,-0.0013620828133569,0.0013620828133569,0.6364084649321,0.58164561459079,1270536,32768,0.0057575667217879,0.005757566721788,0.005757566721788,18.740769496036,18.758167973673,6.5126155968284e-05,6.5126155968284e-05,6.5126155968284e-05,386817.26268513,0.017422963215984
25142400,0.99992359075875,0.01708715388818,0.0056957179627266,0.0056957179627268,0.0056957179627268,-0.0013864520653593,0.0013864520653592,-5.8909965046888e-17,-1.7911217530482e-17,3.5201130511979e-16,-4.3320735404799e-16,-0.0014207892224996,0.0014207892224997,-0.0014207892224996,0.0014207892224997,-0.0014207892224998,0.0014207892224995,-0.0014207892224998,0.0014207892224995,-0.0013627716602165,0.0013627716602161,-0.0013627716602165,0.0013627716602162,-3.4718057034248e-16,4.4494964238797e-16,3.8542940186693e-17,5.7130607640329e-17,-0.0013864520653593,0.0013864520653594,-0.0014207892224998,0.0014207892224996,-0.0014207892224998,0.0014207892224996,-0.0014207892224995,0.0014207892224998,-0.0014207892224995,0.0014207892224999,-0.0013627716602162,0.0013627716602165,-0.0013627716602162,0.0013627716602166,-0.0013627716602167,0.0013627716602161,-0.001362771660216,0.0013627716602168,3.6984164276815e-18,-3.3425449463698e-17,-0.0013864520653593,0.0013864520653593,-5.470421117684e-18,-2.4190437469329e-17,-0.0014207892224997,0.0014207892224997,-0.0014207892224997,0.0014207892224997,-0.0014207892224997,0.0014207892224997,-0.0014207892224997,0.0014207892224997,-0.0013627716602164,0.0013627716602164,-0.0013627716602164,0.0013627716602164,0.64233080143736,0.62693269721833,1270536,32768,0.0057602156915239,0.0057602156915241,0.0057602156915241,19.019846446612,19.037940445599,6.7358771572892e-05,6.7358771572892e-05,6.7358771572892e-05,383625.50907532,0.017431048663787
25228800,0.99992513671629,0.017087178974842,0.0056957263249471,0.0056957263249472,0.0056957263249473,-0.0013871130697184,0.0013871130697183,-5.6998258742321e-17,-1.6124507407367e-17,3.5315832890253e-16,-4.3086919018318e-16,-0.0014213961911446,0.0014213961911448,-0.0014213961911446,0.0014213961911448,-0.0014213961911449,0.0014213961911445,-0.0014213961911449,0.0014213961911445,-0.0013634766381251,0.0013634766381247,-0.0013634766381251,0.0013634766381248,-3.4494534450945e-16,4.4602313900515e-16,4.0175243262131e-17,5.8762910715767e-17,-0.0013871130697184,0.0013871130697185,-0.0014213961911448,0.0014213961911446,-0.0014213961911448,0.0014213961911446,-0.0014213961911445,0.0014213961911449,-0.0014213961911445,0.0014213961911449,-0.0013634766381248,0.0013634766381251,-0.0013634766381248,0.0013634766381252,-0.0013634766381253,0.0013634766381247,-0.0013634766381245,0.0013634766381254,4.382219067392e-18,-3.2910759304776e-17,-0.0013871130697184,0.0013871130697184,-4.6028005640728e-18,-2.3837507074639e-17,-0.0014213961911447,0.0014213961911447,-0.0014213961911447,0.0014213961911447,-0.0014213961911447,0.0014213961911447,-0.0014213961911447,0.0014213961911447,-0.001363476638125,0.001363476638125,-0.001363476638125,0.001363476638125,0.6514770039711,0.67221977984587,1270536,32768,0.0057629540675871,0.0057629540675872,0.0057629540675872,19.299552089298,19.317712917525,6.9596416714383e-05,6.9596416714383e-05,6.9596416714383e-05,379626.89327012,0.017439407198418
25315200,0.99992667780911,0.017087204434671,0.005695734811557,0.0056957348115572,0.0056957348115572,-0.0013877834405728,0.0013877834405728,-5.7660003232363e-17,-1.6580375833841e-17,3.5285686752373e-16,-4.3154564010633e-16,-0.0014220138476835,0.0014220138476837,-0.0014220138476835,0.0014220138476837,-0.0014220138476837,0.0014220138476834,-0.0014220138476837,0.0014220138476834,-0.0013641850835268,0.0013641850835264,-0.0013641850835268,0.0013641850835265,-3.4526886403791e-16,4.4598637542237e-16,4.0079657946903e-17,5.8645267250871e-17,-0.0013877834405728,0.0013877834405729,-0.0014220138476837,0.0014220138476835,-0.0014220138476837,0.0014220138476835,-0.0014220138476834,0.0014220138476838,-0.0014220138476834,0.0014220138476838,-0.0013641850835265,0.0013641850835269,-0.0013641850835266,0.0013641850835269,-0.001364185083527,0.0013641850835264,-0.0013641850835263,0.0013641850835272,3.6395946952333e-18,-3.344015489681e-17,-0.0013877834405728,0.0013877834405728,-5.2204287547791e-18,-2.3881623373975e-17,-0.0014220138476836,0.0014220138476836,-0.0014220138476836,0.0014220138476836,-0.0014220138476836,0.0014220138476836,-0.0014220138476836,0.0014220138476836,-0.0013641850835268,0.0013641850835267,-0.0013641850835267,0.0013641850835267,0.66321778511003,0.71750686247341,1270536,32768,0.0057657312048773,0.0057657312048774,0.0057657312048774,19.579318037533,19.597485389451,7.1834544300265e-05,7.1834544300265e-05,7.1834544300265e-05,375149.08624724,0.0174478841989
25401600,0.99992821343952,0.017087231024471,0.0056957436748235,0.0056957436748237,0.0056957436748237,-0.00138845715264,0.0013884571526399,-6.3509089252682e-17,-2.241108006277e-17,3.4659970573455e-16,-4.3810426327431e-16,-0.0014226384555895,0.0014226384555896,-0.0014226384555895,0.0014226384555896,-0.0014226384555897,0.0014226384555894,-0.0014226384555897,0.0014226384555894,-0.001364891454251,0.0013648914542505,-0.001364891454251,0.0013648914542506,-3.4456300324853e-16,4.4708928290577e-16,4.1601670274e-17,5.9983461664068e-17,-0.0013884571526399,0.00138845715264,-0.0014226384555897,0.0014226384555895,-0.0014226384555897,0.0014226384555895,-0.0014226384555894,0.0014226384555897,-0.0014226384555894,0.0014226384555898,-0.0013648914542507,0.001364891454251,-0.0013648914542507,0.001364891454251,-0.0013648914542512,0.0013648914542505,-0.0013648914542504,0.0013648914542513,1.0080574398313e-17,-2.7234462123524e-17,-0.00138845715264,0.0013884571526399,8.0879882116296e-19,-1.797003926293e-17,-0.0014226384555896,0.0014226384555896,-0.0014226384555896,0.0014226384555896,-0.0014226384555896,0.0014226384555896,-0.0014226384555896,0.0014226384555896,-0.0013648914542509,0.0013648914542509,-0.0013648914542509,0.0013648914542509,0.69506220313716,0.8616739196317,1270536,32768,0.0057685221513446,0.0057685221513448,0.0057685221513448,19.859089869902,19.877257861378,7.4072718959216e-05,7.4072718959216e-05,7.4072718959216e-05,370373.1189713,0.017456403480444
25488000,0.99992974300663,0.01708725871525,0.0056957529050832,0.0056957529050834,0.0056957529050834,-0.0013893286087039,0.0013893286087038,-4.7311054679755e-17,-6.4556851361916e-18,3.6300361637105e-16,-4.2119301519545e-16,-0.0014233981387695,0.0014233981387696,-0.0014233981387695,0.0014233981387697,-0.0014233981387697,0.0014233981387694,-0.0014233981387697,0.0014233981387694,-0.0013658500471341,0.0013658500471337,-0.0013658500471341,0.0013658500471338,-3.4422477828696e-16,4.4684664325942e-16,4.1961953385246e-17,5.9601120403154e-17,-0.0013893286087038,0.0013893286087039,-0.0014233981387697,0.0014233981387695,-0.0014233981387697,0.0014233981387695,-0.0014233981387694,0.0014233981387697,-0.0014233981387694,0.0014233981387697,-0.0013658500471338,0.0013658500471341,-0.0013658500471338,0.0013658500471342,-0.0013658500471343,0.0013658500471336,-0.0013658500471335,0.0013658500471344,1.6911248078862e-18,-3.5572442698058e-17,-0.0013893286087039,0.0013893286087038,-6.6909720659845e-18,-2.4602189596466e-17,-0.0014233981387696,0.0014233981387696,-0.0014233981387696,0.0014233981387696,-0.0014233981387696,0.0014233981387695,-0.0014233981387696,0.0014233981387695,-0.001365850047134,0.0013658500471339,-0.001365850047134,0.001365850047134,0.72665707748005,0.95250232212385,1270536,32768,0.0057721322395385,0.0057721322395387,0.0057721322395387,20.138855350266,20.157030333304,7.6310842802124e-05,7.6310842802124e-05,7.6310842802124e-05,358965.71597676,0.017467423665953
25574400,0.99993126590812,0.017087286611345,0.0056957622037815,0.0056957622037816,0.0056957622037816,-0.0013901171605444,0.0013901171605443,-5.7671032307197e-17,-1.6675961149069e-17,3.5058487810792e-16,-4.31501523807e-16,-0.0014241100280833,0.0014241100280834,-0.0014241100280833,0.0014241100280834,-0.0014241100280835,0.0014241100280832,-0.0014241100280835,0.0014241100280832,-0.0013666856403629,0.0013666856403626,-0.0013666856403629,0.0013666856403626,-3.4860699735435e-16,4.4032478367423e-16,3.8116482626444e-17,5.5571831730451e-17,-0.0013901171605444,0.0013901171605445,-0.0014241100280835,0.0014241100280833,-0.0014241100280835,0.0014241100280833,-0.0014241100280832,0.0014241100280835,-0.0014241100280832,0.0014241100280836,-0.0013666856403627,0.001366685640363,-0.0013666856403627,0.001366685640363,-0.0013666856403632,0.0013666856403626,-0.0013666856403625,0.0013666856403633,-1.8087682727826e-18,-3.9028219479391e-17,-0.0013901171605444,0.0013901171605444,-9.4261826248265e-18,-2.7366811021532e-17,-0.0014241100280834,0.0014241100280834,-0.0014241100280834,0.0014241100280834,-0.0014241100280834,0.0014241100280834,-0.0014241100280834,0.0014241100280834,-0.0013666856403629,0.0013666856403629,-0.0013666856403629,0.0013666856403629,0.73516077903677,0.89921598704722,1270536,32768,0.0057753988120183,0.0057753988120185,0.0057753988120185,20.418612416436,20.43680280523,7.8548899331484e-05,7.8548899331484e-05,7.8548899331484e-05,349804.43552667,0.017477395354049
25660800,0.99993278154182,0.017087314522587,0.0056957715075288,0.005695771507529,0.005695771507529,-0.0013906329709481,0.001390632970948,-5.4255695466923e-17,-1.3521645746534e-17,3.5651116765208e-16,-4.2839867742035e-16,-0.0014246495125883,0.0014246495125885,-0.0014246495125883,0.0014246495125885,-0.0014246495125886,0.0014246495125882,-0.0014246495125886,0.0014246495125882,-0.0013671600609664,0.001367160060966,-0.0013671600609663,0.001367160060966,-3.4993048633443e-16,4.419350286e-16,3.6006252974864e-17,5.4174815584806e-17,-0.001390632970948,0.0013906329709481,-0.0014246495125885,0.0014246495125884,-0.0014246495125886,0.0014246495125884,-0.0014246495125883,0.0014246495125886,-0.0014246495125883,0.0014246495125886,-0.0013671600609661,0.0013671600609664,-0.0013671600609661,0.0013671600609664,-0.0013671600609666,0.0013671600609659,-0.0013671600609658,0.0013671600609667,2.4263964634889e-19,-3.6748877347023e-17,-0.0013906329709481,0.0013906329709481,-8.9261978990167e-18,-2.7587392518213e-17,-0.0014246495125884,0.0014246495125884,-0.0014246495125885,0.0014246495125884,-0.0014246495125885,0.0014246495125884,-0.0014246495125885,0.0014246495125884,-0.0013671600609663,0.0013671600609662,-0.0013671600609662,0.0013671600609663,0.73901814156321,0.86523706048209,1270536,32768,0.0057775355093121,0.0057775355093123,0.0057775355093123,20.698368711153,20.716575277156,8.0786949689223e-05,8.0786949689223e-05,8.0786949689223e-05,349051.23902419,0.017483917691379
25747200,0.99993427762289,0.017087341983277,0.0056957806610923,0.0056957806610925,0.0056957806610925,-0.0013908784720438,0.0013908784720438,-5.5807118660244e-17,-1.4874545592842e-17,3.5473181024552e-16,-4.308986010494e-16,-0.0014249323339865,0.0014249323339867,-0.0014249323339865,0.0014249323339867,-0.0014249323339868,0.0014249323339865,-0.0014249323339868,0.0014249323339865,-0.0013673670215078,0.0013673670215074,-0.0013673670215078,0.0013673670215075,-3.4418066198762e-16,4.4822895397196e-16,4.2072244133586e-17,6.0498151822989e-17,-0.0013908784720438,0.0013908784720439,-0.0014249323339867,0.0014249323339866,-0.0014249323339868,0.0014249323339866,-0.0014249323339865,0.0014249323339868,-0.0014249323339865,0.0014249323339868,-0.0013673670215075,0.0013673670215078,-0.0013673670215075,0.0013673670215079,-0.001367367021508,0.0013673670215074,-0.0013673670215072,0.0013673670215081,5.2130760382231e-18,-3.1881378986933e-17,-0.0013908784720439,0.0013908784720438,-3.6763582780135e-18,-2.2455196362106e-17,-0.0014249323339867,0.0014249323339867,-0.0014249323339867,0.0014249323339867,-0.0014249323339867,0.0014249323339866,-0.0014249323339867,0.0014249323339866,-0.0013673670215077,0.0013673670215077,-0.0013673670215077,0.0013673670215077,0.73660575289846,0.81827565817244,1270536,32768,0.0057785524538809,0.0057785524538811,0.0057785524538811,20.85069420235,20.860888483298,8.2005553618798e-05,8.2005553618798e-05,8.2005553618798e-05,349239.72708163,0.017487021987279
25833600,0.99993573621825,0.017087368710582,0.0056957895701938,0.005695789570194,0.005695789570194,-0.001390691804361,0.0013906918043609,-5.3241020582191e-17,-1.2330505664457e-17,3.5834199407453e-16,-4.2807515789189e-16,-0.0014247994015894,0.0014247994015895,-0.0014247994015894,0.0014247994015896,-0.0014247994015896,0.0014247994015893,-0.0014247994015896,0.0014247994015893,-0.0013671350486426,0.0013671350486423,-0.0013671350486426,0.0013671350486423,-3.4634236065509e-16,4.4669223621175e-16,4.0160537829019e-17,5.8733499849543e-17,-0.001390691804361,0.0013906918043611,-0.0014247994015896,0.0014247994015894,-0.0014247994015896,0.0014247994015894,-0.0014247994015893,0.0014247994015896,-0.0014247994015893,0.0014247994015897,-0.0013671350486424,0.0013671350486427,-0.0013671350486424,0.0013671350486427,-0.0013671350486429,0.0013671350486422,-0.0013671350486421,0.001367135048643,4.5439788316246e-18,-3.2601945209423e-17,-0.001390691804361,0.001390691804361,-4.7498548951934e-18,-2.355810384551e-17,-0.0014247994015895,0.0014247994015895,-0.0014247994015895,0.0014247994015895,-0.0014247994015895,0.0014247994015895,-0.0014247994015895,0.0014247994015895,-0.0013671350486426,0.0013671350486425,-0.0013671350486425,0.0013671350486426,0.73538818345801,0.79960567941862,1270536,32768,0.0057777791028694,0.0057777791028696,0.0057777791028696,20.803716501523,20.801103767876,8.162973201218e-05,8.162973201218e-05,8.162973201218e-05,351069.55037765,0.017484661358598
25920000,0.99993715734287,0.017087394675828,0.0056957982252758,0.005695798225276,0.005695798225276,-0.0013905185994934,0.0013905185994933,-6.2034869583199e-17,-2.1072885649573e-17,3.4917315652916e-16,-4.3697194492468e-16,-0.0014246590956982,0.0014246590956983,-0.0014246590956982,0.0014246590956983,-0.0014246590956984,0.0014246590956981,-0.0014246590956984,0.0014246590956981,-0.0013669398870851,0.0013669398870847,-0.0013669398870851,0.0013669398870847,-3.4321010340222e-16,4.4946421035337e-16,4.2726635907072e-17,6.1512826707721e-17,-0.0013905185994933,0.0013905185994934,-0.0014246590956984,0.0014246590956982,-0.0014246590956984,0.0014246590956982,-0.0014246590956981,0.0014246590956985,-0.0014246590956981,0.0014246590956985,-0.0013669398870848,0.0013669398870851,-0.0013669398870848,0.0013669398870852,-0.0013669398870853,0.0013669398870846,-0.0013669398870845,0.0013669398870854,1.102907483404e-18,-3.5954783958972e-17,-0.0013905185994934,0.0013905185994933,-6.8674372633291e-18,-2.6160965506344e-17,-0.0014246590956983,0.0014246590956983,-0.0014246590956983,0.0014246590956983,-0.0014246590956983,0.0014246590956983,-0.0014246590956983,0.0014246590956983,-0.001366939887085,0.0013669398870849,-0.001366939887085,0.001366939887085,0.73326899363219,0.7809357006648,1270536,32768,0.0057770615719621,0.0057770615719622,0.0057770615719622,20.745087313709,20.741319052455,8.1160698509669e-05,8.1160698509669e-05,8.1160698509669e-05,351742.73121231,0.017482471052162
26006400,0.99993854198049,0.017087419457547,0.005695806485849,0.0056958064858492,0.0056958064858492,-0.0013903445670855,0.0013903445670854,-5.5115963303978e-17,-1.4264270118692e-17,3.5594500847726e-16,-4.3054567065471e-16,-0.0014245134454974,0.0014245134454975,-0.0014245134454974,0.0014245134454975,-0.0014245134454976,0.0014245134454973,-0.0014245134454976,0.0014245134454973,-0.0013667482132953,0.0013667482132949,-0.0013667482132953,0.001366748213295,-3.4950402877418e-16,4.4343498277743e-16,3.5763613328515e-17,5.5160079603314e-17,-0.0013903445670855,0.0013903445670856,-0.0014245134454976,0.0014245134454974,-0.0014245134454976,0.0014245134454974,-0.0014245134454973,0.0014245134454976,-0.0014245134454973,0.0014245134454977,-0.0013667482132951,0.0013667482132954,-0.0013667482132951,0.0013667482132954,-0.0013667482132955,0.0013667482132949,-0.0013667482132948,0.0013667482132957,3.823412609134e-18,-3.3204867967018e-17,-0.0013903445670855,0.0013903445670855,-4.2939864687197e-18,-2.4043383138208e-17,-0.0014245134454975,0.0014245134454975,-0.0014245134454975,0.0014245134454975,-0.0014245134454975,0.0014245134454975,-0.0014245134454975,0.0014245134454975,-0.0013667482132953,0.0013667482132952,-0.0013667482132952,0.0013667482132952,0.71828083753599,0.69652168285282,1270536,32768,0.0057763406255906,0.0057763406255908,0.0057763406255908,20.685413208127,20.681534337034,8.0683305665014e-05,8.0683305665014e-05,8.0683305665014e-05,352452.50463648,0.017480270289799
26092800,0.99993989116822,0.017087442453342,0.0056958141511139,0.0056958141511141,0.0056958141511141,-0.001390033355457,0.001390033355457,-5.5226254052318e-17,-1.42128011028e-17,3.5559943079913e-16,-4.3120741514475e-16,-0.0014242749952486,0.0014242749952488,-0.0014242749952486,0.0014242749952488,-0.0014242749952489,0.0014242749952485,-0.0014242749952489,0.0014242749952485,-0.0013663793280565,0.0013663793280562,-0.0013663793280565,0.0013663793280562,-3.4887169515037e-16,4.4490552608863e-16,3.7719435932418e-17,5.7204134805889e-17,-0.001390033355457,0.0013900333554571,-0.0014242749952488,0.0014242749952487,-0.0014242749952488,0.0014242749952487,-0.0014242749952486,0.0014242749952489,-0.0014242749952486,0.0014242749952489,-0.0013663793280563,0.0013663793280566,-0.0013663793280563,0.0013663793280566,-0.0013663793280568,0.0013663793280561,-0.001366379328056,0.0013663793280569,2.1616986674719e-18,-3.4793054743119e-17,-0.0013900333554571,0.001390033355457,-6.3968634037434e-18,-2.6043322041447e-17,-0.0014242749952487,0.0014242749952487,-0.0014242749952488,0.0014242749952487,-0.0014242749952487,0.0014242749952487,-0.0014242749952488,0.0014242749952487,-0.0013663793280565,0.0013663793280564,-0.0013663793280564,0.0013663793280565,0.68401330461703,0.53839686589601,1270536,32768,0.0057750514101519,0.0057750514101521,0.0057750514101521,20.625638642151,20.621749621612,8.020510913721e-05,8.020510913721e-05,8.020510913721e-05,357617.64287732,0.017476334610944
26179200,0.99994120591856,0.017087465782003,0.0056958219273343,0.0056958219273345,0.0056958219273345,-0.0013895120975583,0.0013895120975582,-6.4799491008265e-17,-2.4072794004432e-17,3.4704086872791e-16,-4.405306597378e-16,-0.0014238941981624,0.0014238941981625,-0.0014238941981624,0.0014238941981625,-0.0014238941981626,0.0014238941981623,-0.0014238941981626,0.0014238941981623,-0.0013657456259617,0.0013657456259613,-0.0013657456259617,0.0013657456259614,-3.4869522995302e-16,4.4540551081444e-16,3.8895870581382e-17,5.8101166225725e-17,-0.0013895120975582,0.0013895120975583,-0.0014238941981626,0.0014238941981624,-0.0014238941981626,0.0014238941981624,-0.0014238941981623,0.0014238941981626,-0.0014238941981623,0.0014238941981627,-0.0013657456259614,0.0013657456259617,-0.0013657456259614,0.0013657456259618,-0.0013657456259619,0.0013657456259613,-0.0013657456259612,0.0013657456259621,4.1910484369353e-19,-3.6543001283454e-17,-0.0013895120975583,0.0013895120975583,-8.5879729374394e-18,-2.8234431575143e-17,-0.0014238941981625,0.0014238941981625,-0.0014238941981625,0.0014238941981625,-0.0014238941981625,0.0014238941981625,-0.0014238941981625,0.0014238941981624,-0.0013657456259616,0.0013657456259616,-0.0013657456259616,0.0013657456259616,0.71215860360885,0.78002189925125,1270536,32768,0.0057728920985954,0.0057728920985956,0.0057728920985956,20.565854253874,20.561964906191,7.9726834030992e-05,7.9726834030992e-05,7.9726834030992e-05,369885.35533723,0.01746974252136
26265600,0.99994248721313,0.017087489584628,0.0056958298615426,0.0056958298615427,0.0056958298615427,-0.0013898320499597,0.0013898320499596,-5.5115963303978e-17,-1.4595142363713e-17,3.5659940025075e-16,-4.3044273262293e-16,-0.0014240550417223,0.0014240550417225,-0.0014240550417223,0.0014240550417225,-0.0014240550417226,0.0014240550417223,-0.0014240550417226,0.0014240550417223,-0.0013662326177754,0.001366232617775,-0.0013662326177754,0.0013662326177751,-3.4701881057825e-16,4.4675841066075e-16,3.9645847670097e-17,5.9307011740913e-17,-0.0013898320499596,0.0013898320499597,-0.0014240550417225,0.0014240550417224,-0.0014240550417225,0.0014240550417224,-0.0014240550417223,0.0014240550417226,-0.0014240550417223,0.0014240550417226,-0.0013662326177751,0.0013662326177755,-0.0013662326177752,0.0013662326177755,-0.0013662326177757,0.001366232617775,-0.0013662326177749,0.0013662326177758,1.1470237827402e-18,-3.5748907895403e-17,-0.0013898320499597,0.0013898320499597,-7.4409491546992e-18,-2.7763857715558e-17,-0.0014240550417224,0.0014240550417224,-0.0014240550417225,0.0014240550417224,-0.0014240550417224,0.0014240550417224,-0.0014240550417225,0.0014240550417224,-0.0013662326177754,0.0013662326177753,-0.0013662326177753,0.0013662326177754,0.74571601289118,0.92560067273982,1270536,32768,0.0057742176633917,0.0057742176633919,0.0057742176633919,20.506068901011,20.50218019077,7.924855120809e-05,7.924855120809e-05,7.924855120809e-05,355836.40493756,0.017473789387552
26352000,0.999943736003,0.017087513058051,0.005695837686017,0.0056958376860172,0.0056958376860172,-0.0013900508091856,0.0013900508091855,-5.4160110151694e-17,-1.3617231061762e-17,3.5653322580175e-16,-4.3156034553944e-16,-0.0014241528588351,0.0014241528588353,-0.0014241528588351,0.0014241528588353,-0.0014241528588354,0.0014241528588351,-0.0014241528588354,0.0014241528588351,-0.0013665489107213,0.001366548910721,-0.0013665489107213,0.001366548910721,-3.5018047869734e-16,4.4459671199328e-16,3.719739305694e-17,5.620416535427e-17,-0.0013900508091855,0.0013900508091856,-0.0014241528588353,0.0014241528588352,-0.0014241528588353,0.0014241528588352,-0.0014241528588351,0.0014241528588354,-0.0014241528588351,0.0014241528588354,-0.0013665489107211,0.0013665489107214,-0.0013665489107211,0.0013665489107214,-0.0013665489107216,0.0013665489107209,-0.0013665489107208,0.0013665489107217,1.904353588011e-18,-3.4910698208016e-17,-0.0013900508091856,0.0013900508091856,-7.0291970275617e-18,-2.6175670939456e-17,-0.0014241528588352,0.0014241528588352,-0.0014241528588353,0.0014241528588352,-0.0014241528588353,0.0014241528588352,-0.0014241528588353,0.0014241528588352,-0.0013665489107213,0.0013665489107212,-0.0013665489107212,0.0013665489107213,0.75443782940221,0.8874016471762,1270536,32768,0.0057751238473331,0.0057751238473333,0.0057751238473333,20.446283453347,20.442395475348,7.8770267626773e-05,7.8770267626773e-05,7.8770267626773e-05,344408.199237,0.017476556203633
26438400,0.99994495320969,0.017087536441119,0.0056958454803728,0.005695845480373,0.005695845480373,-0.0013899413442662,0.0013899413442661,-5.7193105731055e-17,-1.6411263353052e-17,3.5534943843622e-16,-4.3300147798443e-16,-0.0014240445612218,0.001424044561222,-0.0014240445612218,0.001424044561222,-0.0014240445612221,0.0014240445612218,-0.0014240445612221,0.0014240445612218,-0.0013664185190655,0.0013664185190651,-0.0013664185190654,0.0013664185190651,-3.4600413569351e-16,4.4878040771366e-16,4.0998747516406e-17,5.999816709718e-17,-0.0013899413442662,0.0013899413442663,-0.001424044561222,0.0014240445612219,-0.0014240445612221,0.0014240445612219,-0.0014240445612218,0.0014240445612221,-0.0014240445612218,0.0014240445612221,-0.0013664185190652,0.0013664185190655,-0.0013664185190652,0.0013664185190655,-0.0013664185190657,0.001366418519065,-0.0013664185190649,0.0013664185190658,4.0660522554829e-18,-3.2690177808096e-17,-0.0013899413442662,0.0013899413442662,-4.4998625322885e-18,-2.3719863609743e-17,-0.0014240445612219,0.0014240445612219,-0.001424044561222,0.001424044561222,-0.001424044561222,0.0014240445612219,-0.001424044561222,0.0014240445612219,-0.0013664185190654,0.0013664185190653,-0.0013664185190654,0.0013664185190654,0.77095090946464,0.93136439565299,1270536,32768,0.0057746702701732,0.0057746702701734,0.0057746702701734,20.386497996393,20.382610759927,7.8291983971143e-05,7.8291983971143e-05,7.8291983971143e-05,342920.26348133,0.017475171858798
26524800,0.99994614693757,0.017087559607181,0.0056958532023936,0.0056958532023938,0.0056958532023938,-0.0013901161759919,0.0013901161759918,-5.9295982666079e-17,-1.8367085956955e-17,3.5273187134228e-16,-4.3514847121879e-16,-0.0014241900283353,0.0014241900283354,-0.0014241900283353,0.0014241900283354,-0.0014241900283355,0.0014241900283352,-0.0014241900283355,0.0014241900283352,-0.001366610650262,0.0013666106502616,-0.001366610650262,0.0013666106502617,-3.4797466373053e-16,4.4649371286473e-16,3.9094393928395e-17,5.7571770633691e-17,-0.0013901161759918,0.0013901161759919,-0.0014241900283355,0.0014241900283353,-0.0014241900283355,0.0014241900283353,-0.0014241900283352,0.0014241900283355,-0.0014241900283352,0.0014241900283356,-0.0013666106502618,0.0013666106502621,-0.0013666106502618,0.0013666106502621,-0.0013666106502622,0.0013666106502616,-0.0013666106502615,0.0013666106502624,1.1837873655203e-18,-3.5631264430506e-17,-0.0013901161759919,0.0013901161759919,-7.4115382884751e-18,-2.6072732907671e-17,-0.0014241900283354,0.0014241900283354,-0.0014241900283354,0.0014241900283354,-0.0014241900283354,0.0014241900283354,-0.0014241900283354,0.0014241900283354,-0.001366610650262,0.0013666106502619,-0.0013666106502619,0.0013666106502619,0.77878330413508,0.91692149253239,1270536,32768,0.0057753944859351,0.0057753944859352,0.0057753944859352,20.425544850666,20.427870439668,7.8604358805329e-05,7.8604358805329e-05,7.8604358805329e-05,338443.75147282,0.017477382747324
26611200,0.99994732778732,0.017087582532515,0.0056958608441715,0.0056958608441717,0.0056958608441717,-0.0013904636756461,0.001390463675646,-5.7773970338982e-17,-1.7264178473551e-17,3.5484945371041e-16,-4.3473671909165e-16,-0.0014245439514413,0.0014245439514415,-0.0014245439514413,0.0014245439514415,-0.0014245439514416,0.0014245439514412,-0.0014245439514415,0.0014245439514412,-0.0013669437476669,0.0013669437476665,-0.0013669437476669,0.0013669437476666,-3.5453328689851e-16,4.4162621450464e-16,3.3579856511375e-17,5.183665171999e-17,-0.001390463675646,0.0013904636756461,-0.0014245439514415,0.0014245439514413,-0.0014245439514415,0.0014245439514413,-0.0014245439514412,0.0014245439514416,-0.0014245439514412,0.0014245439514416,-0.0013669437476666,0.0013669437476669,-0.0013669437476666,0.001366943747667,-0.0013669437476671,0.0013669437476665,-0.0013669437476664,0.0013669437476672,3.8822343415822e-18,-3.2851937572328e-17,-0.0013904636756461,0.0013904636756461,-4.6910331627452e-18,-2.341104951439e-17,-0.0014245439514414,0.0014245439514414,-0.0014245439514414,0.0014245439514414,-0.0014245439514414,0.0014245439514414,-0.0014245439514414,0.0014245439514414,-0.0013669437476668,0.0013669437476668,-0.0013669437476668,0.0013669437476668,0.7790281869533,0.87726751581883,1270536,32768,0.0057768340125578,0.005776834012558,0.005776834012558,20.606406351692,20.617856155914,8.0051250813538e-05,8.0051250813538e-05,8.0051250813538e-05,336938.68063077,0.017481776863631
26697600,0.99994849618393,0.017087605108826,0.0056958683696085,0.0056958683696086,0.0056958683696086,-0.0013907599502656,0.0013907599502655,-5.9623178552822e-17,-1.8970008714549e-17,3.5329803051709e-16,-4.3583962657505e-16,-0.0014248739130425,0.0014248739130427,-0.0014248739130425,0.0014248739130427,-0.0014248739130428,0.0014248739130424,-0.0014248739130428,0.0014248739130424,-0.0013672075417241,0.0013672075417237,-0.0013672075417241,0.0013672075417237,-3.4985695916887e-16,4.4615548790316e-16,3.7175334907272e-17,5.7042375041657e-17,-0.0013907599502655,0.0013907599502656,-0.0014248739130427,0.0014248739130425,-0.0014248739130427,0.0014248739130425,-0.0014248739130424,0.0014248739130428,-0.0014248739130424,0.0014248739130428,-0.0013672075417238,0.0013672075417241,-0.0013672075417238,0.0013672075417242,-0.0013672075417243,0.0013672075417236,-0.0013672075417235,0.0013672075417244,-1.8161209893386e-18,-3.8469413021133e-17,-0.0013907599502656,0.0013907599502655,-9.6320586883953e-18,-2.9763796618797e-17,-0.0014248739130426,0.0014248739130426,-0.0014248739130426,0.0014248739130426,-0.0014248739130426,0.0014248739130426,-0.0014248739130426,0.0014248739130426,-0.001367207541724,0.001367207541724,-0.001367207541724,0.001367207541724,0.775329054725,0.83761353910526,1270536,32768,0.0057780613460016,0.0057780613460018,0.0057780613460018,20.795561851465,20.807841872159,8.156449481172e-05,8.156449481172e-05,8.156449481172e-05,337652.52665635,0.017485523170978
26784000,0.99994965198901,0.017087627251403,0.0056958757504675,0.0056958757504676,0.0056958757504676,-0.0013910357651352,0.0013910357651351,-6.2806904821582e-17,-2.226402573165e-17,3.4924668369472e-16,-4.40295372808e-16,-0.0014251895865569,0.001425189586557,-0.0014251895865569,0.001425189586557,-0.0014251895865571,0.0014251895865568,-0.0014251895865571,0.0014251895865568,-0.0013674512866519,0.0013674512866515,-0.0013674512866519,0.0013674512866516,-3.4587178679551e-16,4.504127107891e-16,4.0550231806488e-17,6.0556973555438e-17,-0.0013910357651351,0.0013910357651352,-0.0014251895865571,0.0014251895865569,-0.0014251895865571,0.0014251895865569,-0.0014251895865568,0.0014251895865571,-0.0014251895865568,0.0014251895865572,-0.0013674512866517,0.001367451286652,-0.0013674512866517,0.001367451286652,-0.0013674512866522,0.0013674512866515,-0.0013674512866514,0.0013674512866523,5.1616070223309e-18,-3.1763735522036e-17,-0.0013910357651352,0.0013910357651352,-2.1322878012478e-18,-2.2587545260115e-17,-0.001425189586557,0.001425189586557,-0.001425189586557,0.001425189586557,-0.001425189586557,0.001425189586557,-0.001425189586557,0.001425189586557,-0.0013674512866519,0.0013674512866518,-0.0013674512866518,0.0013674512866519,0.76872272092407,0.7979595623917,1270536,32768,0.0057792039516336,0.0057792039516338,0.0057792039516338,20.985460833696,20.997827588404,8.3083686669564e-05,8.3083686669564e-05,8.3083686669564e-05,339170.25928863,0.017489010770763
26870400,0.99995079502006,0.017087648894675,0.0056958829648915,0.0056958829648917,0.0056958829648917,-0.0013912991285831,0.001391299128583,-6.5751667802271e-17,-2.5197759637504e-17,3.4764379148551e-16,-4.4298646706751e-16,-0.0014254941093592,0.0014254941093594,-0.0014254941093592,0.0014254941093594,-0.0014254941093595,0.0014254941093592,-0.0014254941093595,0.0014254941093592,-0.0013676849079209,0.0013676849079205,-0.0013676849079209,0.0013676849079206,-3.5091575035294e-16,4.4639812754951e-16,3.8006191878103e-17,5.7336483703898e-17,-0.001391299128583,0.0013912991285831,-0.0014254941093595,0.0014254941093593,-0.0014254941093595,0.0014254941093593,-0.0014254941093592,0.0014254941093595,-0.0014254941093592,0.0014254941093596,-0.0013676849079207,0.001367684907921,-0.0013676849079207,0.001367684907921,-0.0013676849079211,0.0013676849079205,-0.0013676849079204,0.0013676849079213,5.6174754488046e-18,-3.1087285598882e-17,-0.0013912991285831,0.0013912991285831,-1.7793574065585e-18,-2.133758344559e-17,-0.0014254941093594,0.0014254941093594,-0.0014254941093594,0.0014254941093594,-0.0014254941093594,0.0014254941093594,-0.0014254941093594,0.0014254941093594,-0.0013676849079209,0.0013676849079208,-0.0013676849079208,0.0013676849079208,0.75979839130996,0.75830558567814,1270536,32768,0.0057802949990974,0.0057802949990976,0.0057802949990976,21.175431292611,21.18781330465,8.4603450340884e-05,8.4603450340884e-05,8.4603450340884e-05,341225.89015869,0.017492340929814
26956800,0.99995192509601,0.017087669986315,0.0056958899954382,0.0056958899954384,0.0056958899954384,-0.0013915543530008,0.0013915543530008,-5.6737237304582e-17,-1.6153918273591e-17,3.5573913241369e-16,-4.3483965712343e-16,-0.0014257897512154,0.0014257897512156,-0.0014257897512154,0.0014257897512156,-0.0014257897512157,0.0014257897512153,-0.0014257897512157,0.0014257897512154,-0.001367912916469,0.0013679129164686,-0.001367912916469,0.0013679129164686,-3.4409242938895e-16,4.5269205292147e-16,4.3292795081886e-17,6.2806904821582e-17,-0.0013915543530008,0.0013915543530009,-0.0014257897512156,0.0014257897512155,-0.0014257897512157,0.0014257897512155,-0.0014257897512154,0.0014257897512157,-0.0014257897512154,0.0014257897512157,-0.0013679129164687,0.001367912916469,-0.0013679129164687,0.001367912916469,-0.0013679129164692,0.0013679129164685,-0.0013679129164684,0.0013679129164693,-4.9777891084302e-18,-4.1601670274e-17,-0.0013915543530009,0.0013915543530008,-1.252902901147e-17,-3.2307836547182e-17,-0.0014257897512156,0.0014257897512155,-0.0014257897512156,0.0014257897512155,-0.0014257897512156,0.0014257897512155,-0.0014257897512156,0.0014257897512155,-0.0013679129164689,0.0013679129164688,-0.0013679129164689,0.0013679129164689,0.74893987396955,0.71865160896458,1270536,32768,0.0057813523479468,0.0057813523479469,0.0057813523479469,21.365408743263,21.377799020895,8.6123269946102e-05,8.6123269946102e-05,8.6123269946102e-05,343706.13760592,0.01749556817734
27043200,0.99995304204163,0.017087690483741,0.0056958968279134,0.0056958968279136,0.0056958968279136,-0.0013918038507016,0.0013918038507016,-5.5365955666883e-17,-1.5161301538528e-17,3.5715820670901e-16,-4.3210444656459e-16,-0.001426078001763,0.0014260780017632,-0.001426078001763,0.0014260780017632,-0.0014260780017632,0.0014260780017629,-0.0014260780017632,0.0014260780017629,-0.0013681375185585,0.0013681375185581,-0.0013681375185585,0.0013681375185582,-3.4690116711335e-16,4.4899363649378e-16,4.0866398618398e-17,6.0498151822989e-17,-0.0013918038507016,0.0013918038507017,-0.0014260780017632,0.0014260780017631,-0.0014260780017632,0.0014260780017631,-0.001426078001763,0.0014260780017633,-0.001426078001763,0.0014260780017633,-0.0013681375185582,0.0013681375185585,-0.0013681375185582,0.0013681375185586,-0.0013681375185587,0.001368137518558,-0.001368137518558,0.0013681375185588,2.0881715019116e-18,-3.4351891749758e-17,-0.0013918038507017,0.0013918038507016,-5.5439482832443e-18,-2.563156991431e-17,-0.0014260780017631,0.0014260780017631,-0.0014260780017632,0.0014260780017631,-0.0014260780017631,0.0014260780017631,-0.0014260780017632,0.0014260780017631,-0.0013681375185584,0.0013681375185584,-0.0013681375185584,0.0013681375185584,0.73641910627879,0.67899763225102,1270536,32768,0.0057823859876876,0.0057823859876878,0.0057823859876878,21.555386880377,21.56778473714,8.7643095043016e-05,8.7643095043016e-05,8.7643095043016e-05,346554.79148337,0.01749872301565
27129600,0.99995414568817,0.017087710351916,0.0056959034506387,0.0056959034506389,0.0056959034506389,-0.0013920490505806,0.0013920490505805,-5.905334301973e-17,-1.8815601666873e-17,3.5305539087074e-16,-4.3564845594459e-16,-0.0014263599097565,0.0014263599097566,-0.0014263599097565,0.0014263599097566,-0.0014263599097567,0.0014263599097564,-0.0014263599097567,0.0014263599097564,-0.0013683598525349,0.0013683598525345,-0.0013683598525349,0.0013683598525346,-3.4653353128555e-16,4.4890540389511e-16,4.0785518736281e-17,6.0262864893197e-17,-0.0013920490505805,0.0013920490505806,-0.0014263599097567,0.0014263599097565,-0.0014263599097567,0.0014263599097565,-0.0014263599097564,0.0014263599097567,-0.0014263599097564,0.0014263599097568,-0.0013683598525347,0.001368359852535,-0.0013683598525347,0.001368359852535,-0.0013683598525352,0.0013683598525345,-0.0013683598525344,0.0013683598525353,6.021874859386e-18,-3.0425541108839e-17,-0.0013920490505806,0.0013920490505805,-2.3087529985925e-18,-2.18375681714e-17,-0.0014263599097566,0.0014263599097566,-0.0014263599097566,0.0014263599097566,-0.0014263599097566,0.0014263599097566,-0.0014263599097566,0.0014263599097566,-0.0013683598525349,0.0013683598525348,-0.0013683598525348,0.0013683598525349,0.7224399100523,0.63934365553746,1270536,32768,0.0057834018348521,0.0057834018348523,0.0057834018348523,21.745365084039,21.757770453386,8.9162920672312e-05,8.9162920672312e-05,8.9162920672312e-05,349742.39395723,0.017501823511925
27216000,0.99995523587349,0.017087729561891,0.0056959098539635,0.0056959098539636,0.0056959098539636,-0.0013922908272347,0.0013922908272347,-5.6586506615183e-17,-1.5903925910686e-17,3.552023841051e-16,-4.328544236533e-16,-0.0014266362563728,0.001426636256373,-0.0014266362563728,0.001426636256373,-0.0014266362563731,0.0014266362563727,-0.0014266362563731,0.0014266362563728,-0.001368580505923,0.0013685805059226,-0.001368580505923,0.0013685805059227,-3.4797466373053e-16,4.4652312373096e-16,3.8550292903249e-17,5.8380569454854e-17,-0.0013922908272347,0.0013922908272348,-0.001426636256373,0.0014266362563729,-0.001426636256373,0.0014266362563729,-0.0014266362563728,0.0014266362563731,-0.0014266362563728,0.0014266362563731,-0.0013685805059227,0.001368580505923,-0.0013685805059227,0.0013685805059231,-0.0013685805059232,0.0013685805059226,-0.0013685805059225,0.0013685805059234,1.0220276012877e-18,-3.5704791596067e-17,-0.0013922908272348,0.0013922908272347,-6.5292123017519e-18,-2.670506653149e-17,-0.0014266362563729,0.0014266362563729,-0.001426636256373,0.0014266362563729,-0.0014266362563729,0.0014266362563729,-0.001426636256373,0.0014266362563729,-0.001368580505923,0.0013685805059229,-0.0013685805059229,0.0013685805059229,0.70716133896544,0.59968967882389,1270536,32768,0.0057844035104148,0.005784403510415,0.005784403510415,21.935343293183,21.947756169631,9.0682746345459e-05,9.0682746345459e-05,9.0682746345459e-05,353254.10608898,0.017504880724518
27302400,0.99995631041185,0.017087748276951,0.0056959160923167,0.0056959160923169,0.0056959160923169,-0.0013924694073917,0.0013924694073916,-5.7968817327716e-17,-1.7918570247038e-17,3.5344508484821e-16,-4.3354557900957e-16,-0.0014268481372807,0.0014268481372808,-0.0014268481372807,0.0014268481372808,-0.0014268481372809,0.0014268481372806,-0.0014268481372809,0.0014268481372806,-0.0013687389017401,0.0013687389017397,-0.0013687389017401,0.0013687389017398,-3.4848935388945e-16,4.4533933636544e-16,3.762385061719e-17,5.7807057563484e-17,-0.0013924694073917,0.0013924694073918,-0.0014268481372809,0.0014268481372807,-0.0014268481372809,0.0014268481372807,-0.0014268481372806,0.0014268481372809,-0.0014268481372806,0.001426848137281,-0.0013687389017398,0.0013687389017401,-0.0013687389017398,0.0013687389017402,-0.0013687389017403,0.0013687389017397,-0.0013687389017396,0.0013687389017404,6.3233362381832e-18,-3.0116727013486e-17,-0.0013924694073917,0.0013924694073917,-1.2793726807487e-18,-2.1940506203184e-17,-0.0014268481372808,0.0014268481372808,-0.0014268481372808,0.0014268481372808,-0.0014268481372808,0.0014268481372808,-0.0014268481372808,0.0014268481372808,-0.00136873890174,0.00136873890174,-0.00136873890174,0.00136873890174,0.69900595858352,0.60576459798308,1270536,32768,0.005785143391289,0.0057851433912891,0.0057851433912891,22.094089600016,22.104535272851,9.1952716800129e-05,9.1952716800129e-05,9.1952716800129e-05,357111.14889835,0.017507138796844
27388800,0.99995736663489,0.017087766912032,0.0056959223040106,0.0056959223040108,0.0056959223040108,-0.0013926711565049,0.0013926711565049,-5.7233545672114e-17,-1.6999480677534e-17,3.537318407939e-16,-4.3317794318177e-16,-0.0014270454918239,0.0014270454918241,-0.0014270454918239,0.0014270454918241,-0.0014270454918242,0.0014270454918239,-0.0014270454918242,0.0014270454918239,-0.001368953618306,0.0013689536183056,-0.001368953618306,0.0013689536183057,-3.4615119002464e-16,4.4752309318258e-16,3.9873781883334e-17,6.021874859386e-17,-0.0013926711565049,0.001392671156505,-0.0014270454918241,0.001427045491824,-0.0014270454918242,0.001427045491824,-0.0014270454918239,0.0014270454918242,-0.0014270454918239,0.0014270454918242,-0.0013689536183058,0.0013689536183061,-0.0013689536183058,0.0013689536183061,-0.0013689536183062,0.0013689536183056,-0.0013689536183055,0.0013689536183064,3.3896023323284e-18,-3.3116635368345e-17,-0.001392671156505,0.0013926711565049,-4.2351647362715e-18,-2.4719833061363e-17,-0.0014270454918241,0.0014270454918241,-0.0014270454918241,0.0014270454918241,-0.0014270454918241,0.001427045491824,-0.0014270454918241,0.001427045491824,-0.001368953618306,0.0013689536183059,-0.0013689536183059,0.0013689536183059,0.70812417366187,0.6936596777507,1270536,32768,0.0057859792490795,0.0057859792490796,0.0057859792490797,22.211645382358,22.219426609391,9.2893163058864e-05,9.2893163058864e-05,9.2893163058864e-05,357947.91187969,0.017509690053641
27475200,0.99995840451323,0.0170877853483,0.0056959284494333,0.0056959284494334,0.0056959284494334,-0.0013930688266395,0.0013930688266395,-5.6689444646968e-17,-1.6153918273591e-17,3.5484945371041e-16,-4.3198680309969e-16,-0.0014273686909578,0.001427368690958,-0.0014273686909578,0.001427368690958,-0.0014273686909581,0.0014273686909577,-0.0014273686909581,0.0014273686909577,-0.0013694207444659,0.0013694207444655,-0.0013694207444659,0.0013694207444656,-3.4838641585767e-16,4.4521434018399e-16,3.7748846798642e-17,5.8483507486638e-17,-0.0013930688266395,0.0013930688266396,-0.001427368690958,0.0014273686909579,-0.001427368690958,0.0014273686909579,-0.0014273686909578,0.0014273686909581,-0.0014273686909578,0.0014273686909581,-0.0013694207444656,0.0013694207444659,-0.0013694207444656,0.001369420744466,-0.0013694207444661,0.0013694207444655,-0.0013694207444654,0.0013694207444663,2.1396405178038e-18,-3.4454829781542e-17,-0.0013930688266396,0.0013930688266395,-5.0880798567706e-18,-2.6146260073232e-17,-0.0014273686909579,0.0014273686909579,-0.0014273686909579,0.0014273686909579,-0.0014273686909579,0.0014273686909579,-0.001427368690958,0.0014273686909579,-0.0013694207444658,0.0013694207444658,-0.0013694207444658,0.0013694207444658,0.71296345259795,0.71481564294861,1270536,32768,0.0057876266943472,0.0057876266943473,0.0057876266943473,22.326775879849,22.33431794593,9.3814207038787e-05,9.3814207038787e-05,9.3814207038787e-05,352418.95447281,0.01751471917316
27561600,0.99995942416898,0.017087803599526,0.0056959345331752,0.0056959345331754,0.0056959345331754,-0.0013933633630607,0.0013933633630606,-5.6156372696656e-17,-1.5720107996786e-17,3.5528326398722e-16,-4.3097212821496e-16,-0.0014276275066755,0.0014276275066757,-0.0014276275066755,0.0014276275066757,-0.0014276275066758,0.0014276275066754,-0.0014276275066757,0.0014276275066754,-0.0013697388350495,0.0013697388350491,-0.0013697388350495,0.0013697388350491,-3.5007754066555e-16,4.4305264151651e-16,3.5418035650382e-17,5.6233576220494e-17,-0.0013933633630607,0.0013933633630607,-0.0014276275066757,0.0014276275066755,-0.0014276275066757,0.0014276275066755,-0.0014276275066754,0.0014276275066758,-0.0014276275066755,0.0014276275066758,-0.0013697388350492,0.0013697388350495,-0.0013697388350492,0.0013697388350495,-0.0013697388350497,0.001369738835049,-0.0013697388350489,0.0013697388350498,2.4190437469329e-18,-3.4307775450422e-17,-0.0013933633630607,0.0013933633630607,-4.632211430297e-18,-2.5646275347422e-17,-0.0014276275066756,0.0014276275066756,-0.0014276275066756,0.0014276275066756,-0.0014276275066756,0.0014276275066756,-0.0014276275066756,0.0014276275066756,-0.0013697388350494,0.0013697388350494,-0.0013697388350494,0.0013697388350494,0.71838169817057,0.73597160814652,1270536,32768,0.0057888468402921,0.0057888468402923,0.0057888468402923,22.441687873249,22.449209282469,9.4733502985991e-05,9.4733502985991e-05,9.4733502985991e-05,349876.8136956,0.017518443843675
27648000,0.99996042574031,0.017087821682677,0.0056959405608922,0.0056959405608924,0.0056959405608924,-0.0013936505467349,0.0013936505467348,-5.6071816456261e-17,-1.5653933547781e-17,3.5429064725216e-16,-4.3220738459637e-16,-0.0014278856157812,0.0014278856157814,-0.0014278856157812,0.0014278856157814,-0.0014278856157815,0.0014278856157812,-0.0014278856157815,0.0014278856157812,-0.0013700435733932,0.0013700435733928,-0.0013700435733932,0.0013700435733929,-3.4648941498621e-16,4.4678782152698e-16,3.9351739007856e-17,6.0056988829628e-17,-0.0013936505467349,0.001393650546735,-0.0014278856157814,0.0014278856157813,-0.0014278856157814,0.0014278856157813,-0.0014278856157812,0.0014278856157815,-0.0014278856157812,0.0014278856157815,-0.001370043573393,0.0013700435733932,-0.001370043573393,0.0013700435733933,-0.0013700435733934,0.0013700435733928,-0.0013700435733927,0.0013700435733936,1.0293803178438e-18,-3.5763613328515e-17,-0.0013936505467349,0.0013936505467349,-6.9262589957774e-18,-2.7469749053317e-17,-0.0014278856157813,0.0014278856157813,-0.0014278856157814,0.0014278856157813,-0.0014278856157814,0.0014278856157813,-0.0014278856157814,0.0014278856157813,-0.0013700435733932,0.0013700435733931,-0.0013700435733931,0.0013700435733932,0.72460032941829,0.75712757334442,1270536,32768,0.0057900365153859,0.005790036515386,0.005790036515386,22.556578763603,22.564100619009,9.565263010882e-05,9.565263010882e-05,9.565263010882e-05,347472.41982318,0.01752207552602
27734400,0.99996140936956,0.017087839614237,0.0056959465380788,0.0056959465380789,0.0056959465380789,-0.0013939352574434,0.0013939352574433,-6.0329039342201e-17,-1.9881745567497e-17,3.5179807633966e-16,-4.3692782862534e-16,-0.0014281452324674,0.0014281452324675,-0.0014281452324673,0.0014281452324675,-0.0014281452324676,0.0014281452324673,-0.0014281452324676,0.0014281452324673,-0.0013703427945536,0.0013703427945532,-0.0013703427945536,0.0013703427945532,-3.464747095531e-16,4.4883922944611e-16,3.9756138418438e-17,6.0277570326309e-17,-0.0013939352574433,0.0013939352574434,-0.0014281452324675,0.0014281452324674,-0.0014281452324676,0.0014281452324674,-0.0014281452324673,0.0014281452324676,-0.0014281452324673,0.0014281452324676,-0.0013703427945533,0.0013703427945536,-0.0013703427945533,0.0013703427945537,-0.0013703427945538,0.0013703427945532,-0.001370342794553,0.0013703427945539,5.3748358024557e-18,-3.1484332292907e-17,-0.0013939352574434,0.0013939352574433,-2.3675747310407e-18,-2.3366933215054e-17,-0.0014281452324675,0.0014281452324675,-0.0014281452324675,0.0014281452324675,-0.0014281452324675,0.0014281452324674,-0.0014281452324675,0.0014281452324674,-0.0013703427945535,0.0013703427945535,-0.0013703427945535,0.0013703427945535,0.73161546988354,0.77828353854233,1270536,32768,0.0057912159368158,0.0057912159368159,0.0057912159368159,22.67146758027,22.678991955548,9.6571740642163e-05,9.6571740642163e-05,9.6571740642163e-05,345051.35744702,0.017525675938719
27820800,0.99996237520207,0.017087857408479,0.005695952469493,0.0056959524694932,0.0056959524694932,-0.0013942185457686,0.0013942185457686,-5.5656387970846e-17,-1.5095127089523e-17,3.5548914005079e-16,-4.321191519977e-16,-0.0014284065034621,0.0014284065034623,-0.0014284065034621,0.0014284065034623,-0.0014284065034624,0.001428406503462,-0.0014284065034624,0.001428406503462,-0.0013706385016197,0.0013706385016193,-0.0013706385016197,0.0013706385016193,-3.5123926988141e-16,4.4330998659597e-16,3.5793024194739e-17,5.527772306821e-17,-0.0013942185457686,0.0013942185457687,-0.0014284065034623,0.0014284065034622,-0.0014284065034623,0.0014284065034622,-0.0014284065034621,0.0014284065034624,-0.0014284065034621,0.0014284065034624,-0.0013706385016194,0.0013706385016197,-0.0013706385016194,0.0013706385016197,-0.0013706385016199,0.0013706385016192,-0.0013706385016191,0.00137063850162,2.5513926449413e-18,-3.4322480883534e-17,-0.0013942185457686,0.0013942185457686,-5.7645297799251e-18,-2.5366872118293e-17,-0.0014284065034622,0.0014284065034622,-0.0014284065034623,0.0014284065034622,-0.0014284065034622,0.0014284065034622,-0.0014284065034623,0.0014284065034622,-0.0013706385016196,0.0013706385016195,-0.0013706385016196,0.0013706385016196,0.73937325960247,0.79943950374024,1270536,32768,0.0057923894583213,0.0057923894583214,0.0057923894583214,22.786356191953,22.793883292087,9.749084953562e-05,9.749084953562e-05,9.749084953562e-05,342581.99247988,0.017529258369717
27907200,0.99996332338592,0.017087875077378,0.0056959583591258,0.005695958359126,0.005695958359126,-0.0013945005531382,0.0013945005531381,-5.7009287817155e-17,-1.6205387289483e-17,3.5533473300311e-16,-4.3426614523206e-16,-0.0014286691213167,0.0014286691213169,-0.0014286691213167,0.0014286691213169,-0.001428669121317,0.0014286691213167,-0.001428669121317,0.0014286691213167,-0.0013709312706631,0.0013709312706627,-0.0013709312706631,0.0013709312706628,-3.4995989720066e-16,4.4665547262897e-16,3.8447354871465e-17,5.7145313073441e-17,-0.0013945005531381,0.0013945005531382,-0.0014286691213169,0.0014286691213168,-0.001428669121317,0.0014286691213168,-0.0014286691213167,0.001428669121317,-0.0014286691213167,0.001428669121317,-0.0013709312706629,0.0013709312706632,-0.0013709312706629,0.0013709312706632,-0.0013709312706633,0.0013709312706627,-0.0013709312706626,0.0013709312706635,-8.3085697083104e-19,-3.7690025066194e-17,-0.0013945005531382,0.0013945005531381,-8.9850196314649e-18,-2.8087377244023e-17,-0.0014286691213169,0.0014286691213169,-0.0014286691213169,0.0014286691213169,-0.0014286691213169,0.0014286691213168,-0.0014286691213169,0.0014286691213168,-0.0013709312706631,0.001370931270663,-0.001370931270663,0.001370931270663,0.74781216721237,0.82059546893814,1270536,32768,0.005793557667103,0.0057935576671032,0.0057935576671032,22.901244783123,22.908774628627,9.8409958264985e-05,9.8409958264985e-05,9.8409958264985e-05,340062.16082911,0.017532824608278
27993600,0.99996425407191,0.017087892630802,0.0056959642102672,0.0056959642102674,0.0056959642102674,-0.0013947811967854,0.0013947811967854,-5.4788767417235e-17,-1.3778990825994e-17,3.573273191898e-16,-4.3251619869173e-16,-0.0014289326968229,0.0014289326968231,-0.0014289326968229,0.0014289326968231,-0.0014289326968232,0.0014289326968228,-0.0014289326968232,0.0014289326968228,-0.001371221283058,0.0013712212830576,-0.001371221283058,0.0013712212830577,-3.495187342073e-16,4.4701575574021e-16,3.8403238572129e-17,5.6821793544976e-17,-0.0013947811967854,0.0013947811967855,-0.0014289326968231,0.0014289326968229,-0.0014289326968231,0.0014289326968229,-0.0014289326968228,0.0014289326968232,-0.0014289326968229,0.0014289326968232,-0.0013712212830577,0.001371221283058,-0.0013712212830577,0.0013712212830581,-0.0013712212830582,0.0013712212830576,-0.0013712212830575,0.0013712212830583,9.0879576632493e-18,-2.7690330549997e-17,-0.0013947811967854,0.0013947811967854,1.911706304567e-19,-1.8602372886748e-17,-0.001428932696823,0.001428932696823,-0.001428932696823,0.001428932696823,-0.001428932696823,0.001428932696823,-0.001428932696823,0.001428932696823,-0.0013712212830579,0.0013712212830579,-0.0013712212830579,0.0013712212830579,0.75687411648508,0.84175143413605,1270536,32768,0.0057947202214055,0.0057947202214057,0.0057947202214057,23.016133372025,23.023665965166,9.9329066976197e-05,9.9329066976197e-05,9.9329066976197e-05,337497.23892194,0.017536373608034
28080000,0.99996516663421,0.017087910061849,0.0056959700206163,0.0056959700206165,0.0056959700206165,-0.0013950328624579,0.0013950328624579,-5.8707765341597e-17,-1.7727399616581e-17,3.5448181788261e-16,-4.3536905271547e-16,-0.0014291697300498,0.0014291697300499,-0.0014291697300498,0.0014291697300499,-0.00142916973005,0.0014291697300497,-0.00142916973005,0.0014291697300497,-0.0013714808702612,0.0013714808702608,-0.0013714808702612,0.0013714808702608,-3.5091575035294e-16,4.458466738078e-16,3.7785610381422e-17,5.5968878424477e-17,-0.0013950328624579,0.001395032862458,-0.00142916973005,0.0014291697300498,-0.00142916973005,0.0014291697300498,-0.0014291697300497,0.00142916973005,-0.0014291697300497,0.0014291697300501,-0.0013714808702609,0.0013714808702612,-0.0013714808702609,0.0013714808702613,-0.0013714808702614,0.0013714808702607,-0.0013714808702606,0.0013714808702615,5.7865879295932e-18,-3.1425510560459e-17,-0.001395032862458,0.0013950328624579,-3.0293192210831e-18,-2.1822862738288e-17,-0.0014291697300499,0.0014291697300499,-0.0014291697300499,0.0014291697300499,-0.0014291697300499,0.0014291697300499,-0.0014291697300499,0.0014291697300499,-0.0013714808702611,0.0013714808702611,-0.0013714808702611,0.0013714808702611,0.76650710999346,0.86290739933395,1270536,32768,0.0057957627264045,0.0057957627264047,0.0057957627264047,23.11678098814,23.123413281259,0.00010013424790512,0.00010013424790512,0.00010013424790512,334906.19097377,0.017539556169052
28166400,0.99996606035441,0.017087927359595,0.0056959757865317,0.0056959757865318,0.0056959757865319,-0.001395249562455,0.0013952495624549,-5.5906380333751e-17,-1.4984836341183e-17,3.5730526104013e-16,-4.3378086593936e-16,-0.0014293737419045,0.0014293737419047,-0.0014293737419045,0.0014293737419047,-0.0014293737419048,0.0014293737419045,-0.0014293737419048,0.0014293737419045,-0.001371704383906,0.0013717043839056,-0.001371704383906,0.0013717043839056,-3.4735703553982e-16,4.5032447819042e-16,4.1425205076656e-17,5.9601120403154e-17,-0.001395249562455,0.0013952495624551,-0.0014293737419047,0.0014293737419046,-0.0014293737419047,0.0014293737419046,-0.0014293737419045,0.0014293737419048,-0.0014293737419045,0.0014293737419048,-0.0013717043839057,0.001371704383906,-0.0013717043839057,0.001371704383906,-0.0013717043839062,0.0013717043839055,-0.0013717043839054,0.0013717043839063,5.6542390315847e-18,-3.1410805127347e-17,-0.001395249562455,0.001395249562455,-2.9116757561867e-18,-2.1675808407167e-17,-0.0014293737419046,0.0014293737419046,-0.0014293737419047,0.0014293737419047,-0.0014293737419046,0.0014293737419046,-0.0014293737419047,0.0014293737419046,-0.0013717043839059,0.0013717043839059,-0.0013717043839059,0.0013717043839059,0.77666534004838,0.88406336453186,1270536,32768,0.0057966603796424,0.0057966603796426,0.0057966603796426,23.200146283492,23.205654890634,0.00010080117026794,0.00010080117026794,0.00010080117026794,332286.82668004,0.01754229656813
28252800,0.99996693544991,0.017087944529379,0.005695981509793,0.0056959815097932,0.0056959815097932,-0.0013954625947973,0.0013954625947973,-5.6799735395308e-17,-1.589657319413e-17,3.5677586544809e-16,-4.3372204420692e-16,-0.0014295753275056,0.0014295753275058,-0.0014295753275056,0.0014295753275058,-0.0014295753275059,0.0014295753275056,-0.0014295753275059,0.0014295753275056,-0.0013719235924008,0.0013719235924004,-0.0013719235924008,0.0013719235924005,-3.5222453389991e-16,4.4514081301843e-16,3.6704761047686e-17,5.5101257870866e-17,-0.0013954625947973,0.0013954625947974,-0.0014295753275058,0.0014295753275057,-0.0014295753275059,0.0014295753275057,-0.0014295753275056,0.0014295753275059,-0.0014295753275056,0.0014295753275059,-0.0013719235924005,0.0013719235924008,-0.0013719235924005,0.0013719235924009,-0.001371923592401,0.0013719235924004,-0.0013719235924003,0.0013719235924011,5.4115993852358e-18,-3.157256489158e-17,-0.0013954625947974,0.0013954625947973,-3.5734202462291e-18,-2.2381669196546e-17,-0.0014295753275057,0.0014295753275058,-0.0014295753275058,0.0014295753275058,-0.0014295753275058,0.0014295753275057,-0.0014295753275058,0.0014295753275057,-0.0013719235924007,0.0013719235924007,-0.0013719235924007,0.0013719235924007,0.78730858008422,0.90521932972976,1270536,32768,0.0057975428385278,0.005797542838528,0.005797542838528,23.282488860173,23.287896500009,0.00010145991088138,0.00010145991088138,0.00010145991088138,329628.64118995,0.017544990587167
28339200,0.99996779218961,0.017087961576267,0.0056959871920888,0.0056959871920889,0.0056959871920889,-0.0013956737082062,0.0013956737082061,-6.1369448734879e-17,-2.0572900923763e-17,3.5219512303369e-16,-4.3844248823589e-16,-0.0014297764290838,0.0014297764290839,-0.0014297764290837,0.0014297764290839,-0.001429776429084,0.0014297764290837,-0.001429776429084,0.0014297764290837,-0.0013721401012056,0.0013721401012052,-0.0013721401012056,0.0013721401012053,-3.5165102200854e-16,4.4558932872834e-16,3.7116513174824e-17,5.5821824093356e-17,-0.0013956737082062,0.0013956737082063,-0.001429776429084,0.0014297764290838,-0.001429776429084,0.0014297764290838,-0.0014297764290837,0.001429776429084,-0.0014297764290837,0.0014297764290841,-0.0013721401012053,0.0013721401012056,-0.0013721401012053,0.0013721401012057,-0.0013721401012058,0.0013721401012052,-0.0013721401012051,0.001372140101206,1.0073221681757e-18,-3.5763613328515e-17,-0.0013956737082062,0.0013956737082062,-7.7350578169403e-18,-2.6631539365929e-17,-0.0014297764290839,0.0014297764290839,-0.0014297764290839,0.0014297764290839,-0.0014297764290839,0.0014297764290839,-0.0014297764290839,0.0014297764290839,-0.0013721401012055,0.0013721401012055,-0.0013721401012055,0.0013721401012055,0.79840143256192,0.92637529492767,1270536,32768,0.005798417346515,0.0057984173465152,0.0057984173465152,23.364738993789,23.370138109384,0.00010211791195031,0.00010211791195031,0.00010211791195031,326949.12308025,0.017547660342613
28425600,0.99996863084567,0.017087978504334,0.0056959928347779,0.0056959928347781,0.0056959928347781,-0.0013958830297289,0.0013958830297288,-5.420422645103e-17,-1.3279006100185e-17,3.5929784722681e-16,-4.2988392616467e-16,-0.0014299770535595,0.0014299770535597,-0.0014299770535595,0.0014299770535597,-0.0014299770535597,0.0014299770535594,-0.0014299770535597,0.0014299770535594,-0.0013723541069233,0.0013723541069229,-0.0013723541069232,0.0013723541069229,-3.5143044051186e-16,4.4434671963037e-16,3.6131249156316e-17,5.4851265507961e-17,-0.0013958830297289,0.001395883029729,-0.0014299770535597,0.0014299770535595,-0.0014299770535597,0.0014299770535595,-0.0014299770535594,0.0014299770535597,-0.0014299770535594,0.0014299770535598,-0.001372354106923,0.0013723541069233,-0.001372354106923,0.0013723541069233,-0.0013723541069235,0.0013723541069229,-0.0013723541069228,0.0013723541069236,8.8967870327926e-18,-2.8146198976471e-17,-0.0013958830297289,0.0013958830297289,-3.2351952846518e-19,-1.9352349975463e-17,-0.0014299770535596,0.0014299770535596,-0.0014299770535596,0.0014299770535596,-0.0014299770535596,0.0014299770535596,-0.0014299770535596,0.0014299770535596,-0.0013723541069232,0.0013723541069232,-0.0013723541069232,0.0013723541069232,0.80991261824697,0.94753126012558,1270536,32768,0.0057992844302162,0.0057992844302164,0.0057992844302164,23.446980173642,23.452379718758,0.00010277584138913,0.00010277584138913,0.00010277584138913,324254.34071269,0.017550307441255
28512000,0.99996945168929,0.017087995316739,0.0056959984389127,0.0056959984389129,0.0056959984389129,-0.0013960905581451,0.001396090558145,-6.2303243737494e-17,-2.137434702837e-17,3.5099663023506e-16,-4.3858954256701e-16,-0.0014301770594113,0.0014301770594115,-0.0014301770594113,0.0014301770594115,-0.0014301770594116,0.0014301770594113,-0.0014301770594116,0.0014301770594113,-0.0013725656888624,0.0013725656888619,-0.0013725656888623,0.001372565688862,-3.4772467136763e-16,4.4846424090175e-16,4.0123774246239e-17,5.9174662842905e-17,-0.001396090558145,0.0013960905581451,-0.0014301770594116,0.0014301770594114,-0.0014301770594116,0.0014301770594114,-0.0014301770594113,0.0014301770594116,-0.0014301770594113,0.0014301770594117,-0.0013725656888621,0.0013725656888624,-0.0013725656888621,0.0013725656888624,-0.0013725656888626,0.0013725656888619,-0.0013725656888618,0.0013725656888627,1.4852487443174e-18,-3.5454799233162e-17,-0.0013960905581451,0.001396090558145,-7.5585926195957e-18,-2.6734477397714e-17,-0.0014301770594115,0.0014301770594115,-0.0014301770594115,0.0014301770594115,-0.0014301770594115,0.0014301770594114,-0.0014301770594115,0.0014301770594114,-0.0013725656888623,0.0013725656888622,-0.0013725656888622,0.0013725656888623,0.82181435803012,0.96868722532349,1270536,32768,0.0058001440849391,0.0058001440849393,0.0058001440849393,23.529220471288,23.534621328133,0.0001034337637703,0.0001034337637703,0.0001034337637703,321548.57080101,0.017552931867563
28598400,0.99997025499022,0.017088011903114,0.0056960039677045,0.0056960039677046,0.0056960039677046,-0.001396296284003,0.0013962962840029,-6.3042191751375e-17,-2.2131676833641e-17,3.4954814507352e-16,-4.3942775225439e-16,-0.0014303763104889,0.0014303763104891,-0.0014303763104889,0.0014303763104891,-0.0014303763104892,0.0014303763104888,-0.0014303763104892,0.0014303763104889,-0.001372774907036,0.0013727749070356,-0.001372774907036,0.0013727749070357,-3.4723939207493e-16,4.4834659743685e-16,4.0461999207816e-17,5.9674647568714e-17,-0.0013962962840029,0.001396296284003,-0.0014303763104891,0.001430376310489,-0.0014303763104892,0.001430376310489,-0.0014303763104889,0.0014303763104892,-0.0014303763104889,0.0014303763104892,-0.0013727749070357,0.001372774907036,-0.0013727749070357,0.0013727749070361,-0.0013727749070362,0.0013727749070356,-0.0013727749070355,0.0013727749070363,5.2424869044472e-18,-3.1881378986933e-17,-0.001396296284003,0.001396296284003,-2.7646214250661e-18,-2.2455196362106e-17,-0.001430376310489,0.001430376310489,-0.0014303763104891,0.0014303763104891,-0.0014303763104891,0.001430376310489,-0.0014303763104891,0.001430376310489,-0.0013727749070359,0.0013727749070359,-0.0013727749070359,0.0013727749070359,0.828447819659,0.95878231187051,1270536,32768,0.0058009962718326,0.0058009962718328,0.0058009962718328,23.611460681515,23.616862937508,0.00010409168545212,0.00010409168545212,0.00010409168545212,318835.54831125,0.017555533501905
28684800,0.99997104101667,0.017088028098198,0.005696009366066,0.0056960093660662,0.0056960093660662,-0.0013964473127952,0.0013964473127952,-5.6130638188709e-17,-1.52495341372e-17,3.5587883402826e-16,-4.3238384979372e-16,-0.0014305401632851,0.0014305401632853,-0.0014305401632851,0.0014305401632853,-0.0014305401632854,0.0014305401632851,-0.0014305401632854,0.0014305401632851,-0.0013729125053734,0.001372912505373,-0.0013729125053734,0.0013729125053731,-3.4654823671866e-16,4.4858188436665e-16,4.0256123144247e-17,5.9792291033611e-17,-0.0013964473127952,0.0013964473127953,-0.0014305401632853,0.0014305401632852,-0.0014305401632854,0.0014305401632852,-0.0014305401632851,0.0014305401632854,-0.0014305401632851,0.0014305401632854,-0.0013729125053731,0.0013729125053734,-0.0013729125053731,0.0013729125053735,-0.0013729125053736,0.001372912505373,-0.0013729125053729,0.0013729125053737,2.8675594568505e-18,-3.4087193953741e-17,-0.0013964473127952,0.0013964473127952,-5.2498396210032e-18,-2.5219817787172e-17,-0.0014305401632852,0.0014305401632852,-0.0014305401632853,0.0014305401632853,-0.0014305401632853,0.0014305401632852,-0.0014305401632853,0.0014305401632852,-0.0013729125053733,0.0013729125053733,-0.0013729125053733,0.0013729125053733,0.82665183095307,0.91361234623909,1270536,32768,0.005801621876899,0.0058016218768991,0.0058016218768991,23.693700882988,23.699104546883,0.0001047496070639,0.0001047496070639,0.0001047496070639,317722.62259642,0.017557443345187
28771200,0.99997181003532,0.017088043830135,0.0056960146100449,0.0056960146100451,0.0056960146100451,-0.0013965245588065,0.0013965245588065,-5.8501889278028e-17,-1.7764163199361e-17,3.5370978264423e-16,-4.3488377342277e-16,-0.001430655299477,0.0014306552994772,-0.001430655299477,0.0014306552994772,-0.0014306552994773,0.001430655299477,-0.0014306552994773,0.001430655299477,-0.0013729567726011,0.0013729567726007,-0.0013729567726011,0.0013729567726007,-3.461070737253e-16,4.4936127232159e-16,4.1300208895203e-17,6.1101074580584e-17,-0.0013965245588065,0.0013965245588066,-0.0014306552994772,0.0014306552994771,-0.0014306552994773,0.0014306552994771,-0.001430655299477,0.0014306552994773,-0.001430655299477,0.0014306552994773,-0.0013729567726008,0.0013729567726011,-0.0013729567726008,0.0013729567726011,-0.0013729567726013,0.0013729567726006,-0.0013729567726005,0.0013729567726014,-4.9998472580983e-19,-3.7381210970841e-17,-0.0013965245588066,0.0013965245588065,-8.7791435678961e-18,-2.8822648899626e-17,-0.0014306552994771,0.0014306552994771,-0.0014306552994772,0.0014306552994771,-0.0014306552994772,0.0014306552994771,-0.0014306552994772,0.0014306552994771,-0.001372956772601,0.0013729567726009,-0.001372956772601,0.001372956772601,0.82075299422913,0.86844238060768,1270536,32768,0.0058019418532246,0.0058019418532247,0.0058019418532247,23.775941083504,23.781346156258,0.00010540752866803,0.00010540752866803,0.00010540752866803,318862.98604107,0.017558420022316
28857600,0.99997256344729,0.017088059336901,0.005696019778967,0.0056960197789672,0.0056960197789672,-0.001396629564956,0.0013966295649559,-6.4461266046688e-17,-2.3661041877295e-17,3.4734968282327e-16,-4.4070712493514e-16,-0.0014308025384836,0.0014308025384838,-0.0014308025384836,0.0014308025384838,-0.0014308025384839,0.0014308025384835,-0.0014308025384839,0.0014308025384835,-0.0013730295993709,0.0013730295993704,-0.0013730295993708,0.0013730295993705,-3.4722468664182e-16,4.4772161652959e-16,3.9285564558852e-17,5.9101135677344e-17,-0.0013966295649559,0.001396629564956,-0.0014308025384838,0.0014308025384837,-0.0014308025384838,0.0014308025384837,-0.0014308025384836,0.0014308025384839,-0.0014308025384836,0.0014308025384839,-0.0013730295993706,0.0013730295993709,-0.0013730295993706,0.0013730295993709,-0.0013730295993711,0.0013730295993704,-0.0013730295993703,0.0013730295993712,3.3234278833242e-18,-3.3498976629259e-17,-0.001396629564956,0.001396629564956,-4.6028005640728e-18,-2.4808065660035e-17,-0.0014308025384837,0.0014308025384837,-0.0014308025384838,0.0014308025384837,-0.0014308025384837,0.0014308025384837,-0.0014308025384838,0.0014308025384837,-0.0013730295993708,0.0013730295993707,-0.0013730295993707,0.0013730295993708,0.82577134823507,0.90021254758509,1270536,32768,0.0058023768608867,0.0058023768608869,0.0058023768608869,23.883516753829,23.890533426894,0.00010626813403063,0.00010626813403063,0.00010626813403063,320753.6158313,0.017559747744811
28944000,0.99997330268003,0.01708807413992,0.0056960247133065,0.0056960247133067,0.0056960247133067,-0.0013969177127093,0.0013969177127092,-5.7031345966823e-17,-1.6381852486828e-17,3.5526855855411e-16,-4.3275148562152e-16,-0.0014310845660184,0.0014310845660186,-0.0014310845660184,0.0014310845660186,-0.0014310845660187,0.0014310845660183,-0.0014310845660186,0.0014310845660183,-0.0013733316931631,0.0013733316931627,-0.0013733316931631,0.0013733316931628,-3.4685705081401e-16,4.4769955837992e-16,4.0388472042256e-17,5.8968786779336e-17,-0.0013969177127092,0.0013969177127093,-0.0014310845660186,0.0014310845660184,-0.0014310845660186,0.0014310845660184,-0.0014310845660183,0.0014310845660187,-0.0014310845660183,0.0014310845660187,-0.0013733316931628,0.0013733316931631,-0.0013733316931629,0.0013733316931632,-0.0013733316931633,0.0013733316931627,-0.0013733316931626,0.0013733316931635,6.1321656077265e-18,-3.0602006306184e-17,-0.0013969177127093,0.0013969177127093,-3.0440246541951e-18,-2.1925800770072e-17,-0.0014310845660185,0.0014310845660185,-0.0014310845660185,0.0014310845660185,-0.0014310845660185,0.0014310845660185,-0.0014310845660185,0.0014310845660185,-0.0013733316931631,0.001373331693163,-0.001373331693163,0.001373331693163,0.80341117293192,0.76205462782228,1270536,32768,0.0058035705564619,0.0058035705564621,0.0058035705564621,24.019407071191,24.028279575084,0.00010735525656953,0.00010735525656953,0.00010735525656953,318913.67787018,0.017563391733221
29030400,0.99997402790466,0.017088088127225,0.0056960293757414,0.0056960293757416,0.0056960293757416,-0.0013969178525349,0.0013969178525348,-5.5865940392693e-17,-1.5021599923963e-17,3.5630529158851e-16,-4.3273678018841e-16,-0.0014311791902838,0.001431179190284,-0.0014311791902838,0.001431179190284,-0.0014311791902841,0.0014311791902837,-0.0014311791902841,0.0014311791902838,-0.0013732503155129,0.0013732503155125,-0.0013732503155129,0.0013732503155126,-3.4845994302323e-16,4.4717016278789e-16,3.9484087905865e-17,5.7586476066803e-17,-0.0013969178525349,0.001396917852535,-0.001431179190284,0.0014311791902839,-0.001431179190284,0.0014311791902839,-0.0014311791902838,0.0014311791902841,-0.0014311791902838,0.0014311791902841,-0.0013732503155127,0.001373250315513,-0.0013732503155127,0.001373250315513,-0.0013732503155132,0.0013732503155125,-0.0013732503155124,0.0013732503155133,3.6837109945695e-18,-3.3160751667681e-17,-0.0013969178525349,0.0013969178525349,-4.8822037932019e-18,-2.3455165813726e-17,-0.0014311791902839,0.0014311791902839,-0.001431179190284,0.0014311791902839,-0.0014311791902839,0.0014311791902839,-0.001431179190284,0.0014311791902839,-0.0013732503155129,0.0013732503155128,-0.0013732503155128,0.0013732503155129,0.77377140108902,0.64315694384157,1270536,32768,0.0058035711612612,0.0058035711612613,0.0058035711612613,24.156980298751,24.166025723274,0.00010845584239,0.00010845584239,0.00010845584239,325868.34347676,0.017563393007418
29116800,0.99997473922451,0.017088101384522,0.0056960337948405,0.0056960337948407,0.0056960337948407,-0.001396879623614,0.001396879623614,-5.3421162137814e-17,-1.2911370272383e-17,3.5860669187054e-16,-4.3085448475007e-16,-0.0014312439908826,0.0014312439908828,-0.0014312439908826,0.0014312439908828,-0.0014312439908829,0.0014312439908826,-0.0014312439908829,0.0014312439908826,-0.0013731345944303,0.0013731345944299,-0.0013731345944303,0.00137313459443,-3.4412184025517e-16,4.5214059917976e-16,4.4006008587821e-17,6.2762788522246e-17,-0.001396879623614,0.0013968796236141,-0.0014312439908828,0.0014312439908827,-0.0014312439908828,0.0014312439908827,-0.0014312439908826,0.0014312439908829,-0.0014312439908826,0.0014312439908829,-0.00137313459443,0.0013731345944303,-0.00137313459443,0.0013731345944304,-0.0013731345944305,0.0013731345944299,-0.0013731345944298,0.0013731345944307,1.6984775244422e-18,-3.5219512303369e-17,-0.001396879623614,0.001396879623614,-7.0291970275617e-18,-2.6116849207008e-17,-0.0014312439908827,0.0014312439908827,-0.0014312439908828,0.0014312439908827,-0.0014312439908828,0.0014312439908827,-0.0014312439908828,0.0014312439908827,-0.0013731345944302,0.0013731345944302,-0.0013731345944302,0.0013731345944302,0.7477713255094,0.57925683324607,1270536,32768,0.0058034128951184,0.0058034128951186,0.0058034128951186,24.294706057436,24.303771871464,0.00010955764845949,0.00010955764845949,0.00010955764845949,334494.16173242,0.017562909093172
29203200,0.99997543674015,0.017088114208204,0.0056960380694011,0.0056960380694012,0.0056960380694012,-0.0013969230843136,0.0013969230843135,-5.7086491340993e-17,-1.6573023117285e-17,3.5607735737527e-16,-4.3442790499629e-16,-0.001431353922929,0.0014313539229292,-0.001431353922929,0.0014313539229292,-0.0014313539229293,0.0014313539229289,-0.0014313539229292,0.0014313539229289,-0.0013731394832915,0.0013731394832911,-0.0013731394832914,0.0013731394832911,-3.4515122057302e-16,4.5207442473076e-16,4.3564845594459e-17,6.22186874971e-17,-0.0013969230843135,0.0013969230843136,-0.0014313539229292,0.001431353922929,-0.0014313539229292,0.001431353922929,-0.0014313539229289,0.0014313539229293,-0.0014313539229289,0.0014313539229293,-0.0013731394832912,0.0013731394832915,-0.0013731394832912,0.0013731394832915,-0.0013731394832917,0.001373139483291,-0.0013731394832909,0.0013731394832918,2.5366872118293e-18,-3.4057783087517e-17,-0.0013969230843136,0.0013969230843136,-5.8674678117095e-18,-2.4881592825595e-17,-0.0014313539229291,0.0014313539229291,-0.0014313539229291,0.0014313539229291,-0.0014313539229291,0.0014313539229291,-0.0014313539229291,0.0014313539229291,-0.0013731394832914,0.0013731394832913,-0.0013731394832913,0.0013731394832914,0.73770404463224,0.60854115325235,1270536,32768,0.0058035930778238,0.005803593077824,0.005803593077824,24.432446626899,24.441518019654,0.00011065957301519,0.00011065957301519,0.00011065957301519,341163.52401213,0.01756345842971
29289600,0.99997612055502,0.017088126316323,0.0056960421054408,0.005696042105441,0.005696042105441,-0.0013971829033934,0.0013971829033934,-5.9196720992573e-17,-1.8727369068201e-17,3.5433476355149e-16,-4.3651607649821e-16,-0.0014315987451283,0.0014315987451285,-0.0014315987451283,0.0014315987451284,-0.0014315987451285,0.0014315987451282,-0.0014315987451285,0.0014315987451282,-0.0013734312854776,0.0013734312854772,-0.0013734312854776,0.0013734312854772,-3.5279804579128e-16,4.450452277032e-16,3.5910667659635e-17,5.4954203539745e-17,-0.0013971829033934,0.0013971829033935,-0.0014315987451285,0.0014315987451283,-0.0014315987451285,0.0014315987451283,-0.0014315987451282,0.0014315987451286,-0.0014315987451282,0.0014315987451286,-0.0013734312854773,0.0013734312854776,-0.0013734312854773,0.0013734312854776,-0.0013734312854778,0.0013734312854771,-0.001373431285477,0.0013734312854779,2.1322878012478e-18,-3.4351891749758e-17,-0.0013971829033935,0.0013971829033934,-6.3086308050711e-18,-2.5910973143439e-17,-0.0014315987451284,0.0014315987451284,-0.0014315987451284,0.0014315987451284,-0.0014315987451284,0.0014315987451284,-0.0014315987451284,0.0014315987451284,-0.0013734312854775,0.0013734312854774,-0.0013734312854775,0.0013734312854775,0.7105451996479,0.51172604602813,1270536,32768,0.0058046695294413,0.0058046695294414,0.0058046695294414,24.570188658927,24.579264167844,0.00011176150927141,0.00011176150927141,0.00011176150927141,341520.61560643,0.017566744229118
29376000,0.99997679077585,0.01708813776987,0.00569604592329,0.0056960459232902,0.0056960459232902,-0.0013972019666444,0.0013972019666443,-5.6115932755597e-17,-1.5698049847117e-17,3.573934936388e-16,-4.3395733113671e-16,-0.0014316834121592,0.0014316834121594,-0.0014316834121592,0.0014316834121594,-0.0014316834121595,0.0014316834121591,-0.0014316834121595,0.0014316834121591,-0.0013733989753978,0.0013733989753974,-0.0013733989753978,0.0013733989753974,-3.4987166460198e-16,4.4774367467926e-16,3.8057660893995e-17,5.799822819394e-17,-0.0013972019666443,0.0013972019666444,-0.0014316834121594,0.0014316834121592,-0.0014316834121594,0.0014316834121592,-0.0014316834121591,0.0014316834121595,-0.0014316834121591,0.0014316834121595,-0.0013733989753975,0.0013733989753978,-0.0013733989753975,0.0013733989753978,-0.001373398975398,0.0013733989753973,-0.0013733989753972,0.0013733989753981,3.6028311124532e-18,-3.3013697336561e-17,-0.0013972019666444,0.0013972019666443,-3.9116452078063e-18,-2.4161026603104e-17,-0.0014316834121593,0.0014316834121593,-0.0014316834121593,0.0014316834121593,-0.0014316834121593,0.0014316834121593,-0.0014316834121593,0.0014316834121593,-0.0013733989753977,0.0013733989753977,-0.0013733989753977,0.0013733989753977,0.68576663291713,0.4603940011284,1270536,32768,0.0058047486128438,0.005804748612844,0.005804748612844,24.707930835723,24.717010316034,0.00011286344668578,0.00011286344668578,0.00011286344668578,349400.33419374,0.017566984909274
29462400,0.99997744751265,0.017088148335432,0.0056960494451438,0.0056960494451439,0.0056960494451439,-0.0013972847946118,0.0013972847946117,-5.8472478411804e-17,-1.8139151743718e-17,3.5522444225477e-16,-4.3617785153663e-16,-0.0014318067401617,0.0014318067401619,-0.0014318067401617,0.0014318067401619,-0.001431806740162,0.0014318067401616,-0.0014318067401619,0.0014318067401616,-0.0013734582003618,0.0013734582003614,-0.0013734582003618,0.0013734582003615,-3.5004812979933e-16,4.4861864794943e-16,3.8057660893995e-17,5.8704088983319e-17,-0.0013972847946117,0.0013972847946118,-0.0014318067401619,0.0014318067401617,-0.0014318067401619,0.0014318067401617,-0.0014318067401616,0.001431806740162,-0.0014318067401616,0.001431806740162,-0.0013734582003616,0.0013734582003618,-0.0013734582003616,0.0013734582003619,-0.001373458200362,0.0013734582003614,-0.0013734582003613,0.0013734582003622,7.0512551772298e-18,-2.9587331421452e-17,-0.0013972847946118,0.0013972847946118,-7.4997708871475e-19,-2.1425816044262e-17,-0.0014318067401618,0.0014318067401618,-0.0014318067401618,0.0014318067401618,-0.0014318067401618,0.0014318067401618,-0.0014318067401618,0.0014318067401618,-0.0013734582003618,0.0013734582003617,-0.0013734582003617,0.0013734582003618,0.64564112903628,0.32867198137889,1270536,32768,0.0058050918781217,0.0058050918781219,0.0058050918781219,24.845673026501,24.854756464224,0.00011396538421201,0.00011396538421201,0.00011396538421201,355770.33491623,0.017568032125121
29548800,0.99997809087866,0.017088158257828,0.0056960527526092,0.0056960527526094,0.0056960527526094,-0.0013971524882675,0.0013971524882674,-5.9648913060768e-17,-1.9315586392683e-17,3.5451858146539e-16,-4.3791309264385e-16,-0.0014317837227622,0.0014317837227624,-0.0014317837227622,0.0014317837227624,-0.0014317837227625,0.0014317837227621,-0.0014317837227625,0.0014317837227621,-0.0013732397663522,0.0013732397663518,-0.0013732397663522,0.0013732397663519,-3.4794525286431e-16,4.5161120358773e-16,4.1116390981303e-17,6.1306950644152e-17,-0.0013971524882674,0.0013971524882675,-0.0014317837227624,0.0014317837227623,-0.0014317837227624,0.0014317837227623,-0.0014317837227622,0.0014317837227625,-0.0014317837227622,0.0014317837227625,-0.0013732397663519,0.0013732397663522,-0.0013732397663519,0.0013732397663523,-0.0013732397663524,0.0013732397663518,-0.0013732397663517,0.0013732397663525,6.5953867507561e-18,-2.9837323784357e-17,-0.0013971524882675,0.0013971524882675,-9.8526401850761e-19,-2.1352288878702e-17,-0.0014317837227623,0.0014317837227623,-0.0014317837227624,0.0014317837227623,-0.0014317837227623,0.0014317837227623,-0.0014317837227624,0.0014317837227623,-0.0013732397663521,0.0013732397663521,-0.0013732397663521,0.0013732397663521,0.61899081571073,0.31012996753392,1270536,32768,0.005804543964818,0.0058045439648181,0.0058045439648181,24.983415218257,24.992502612414,0.00011506732174605,0.00011506732174605,0.00011506732174605,369390.91009872,0.017566358349876
29635200,0.99997872047018,0.017088167890751,0.0056960559635835,0.0056960559635837,0.0056960559635837,-0.001397248135583,0.0013972481355829,-6.0439330090541e-17,-1.9955272733057e-17,3.5396712772369e-16,-4.3886894579613e-16,-0.0014318965001523,0.0014318965001525,-0.0014318965001523,0.0014318965001525,-0.0014318965001526,0.0014318965001522,-0.0014318965001525,0.0014318965001522,-0.0013733396778676,0.0013733396778672,-0.0013733396778676,0.0013733396778672,-3.5051870365892e-16,4.4922157070702e-16,3.827088967412e-17,5.8630561817759e-17,-0.001397248135583,0.0013972481355831,-0.0014318965001525,0.0014318965001523,-0.0014318965001525,0.0014318965001523,-0.0014318965001522,0.0014318965001526,-0.0014318965001522,0.0014318965001526,-0.0013733396778673,0.0013733396778676,-0.0013733396778673,0.0013733396778676,-0.0013733396778678,0.0013733396778671,-0.001373339677867,0.0013733396778679,3.8013544594659e-18,-3.271958867432e-17,-0.001397248135583,0.001397248135583,-3.6616528449014e-18,-2.4263964634889e-17,-0.0014318965001524,0.0014318965001524,-0.0014318965001524,0.0014318965001524,-0.0014318965001524,0.0014318965001524,-0.0014318965001524,0.0014318965001524,-0.0013733396778675,0.0013733396778675,-0.0013733396778675,0.0013733396778675,0.61419131078074,0.39400691979345,1270536,32768,0.0058049403934048,0.005804940393405,0.005804940393405,25.107150056701,25.115347682611,0.0001160572004536,0.0001160572004536,0.0001160572004536,375616.24430344,0.017567567821189
29721600,0.99997933592167,0.01708817738119,0.0056960591270632,0.0056960591270633,0.0056960591270633,-0.0013976392797752,0.0013976392797751,-5.8954081346224e-17,-1.8800896233761e-17,3.5454063961506e-16,-4.3806014697497e-16,-0.0014321939783156,0.0014321939783158,-0.0014321939783156,0.0014321939783158,-0.0014321939783159,0.0014321939783155,-0.0014321939783159,0.0014321939783155,-0.0013738246378944,0.001373824637894,-0.0013738246378944,0.0013738246378941,-3.4826877239277e-16,4.5156708728839e-16,4.0645817121717e-17,6.0380508358093e-17,-0.0013976392797752,0.0013976392797753,-0.0014321939783158,0.0014321939783157,-0.0014321939783159,0.0014321939783157,-0.0014321939783156,0.0014321939783159,-0.0014321939783156,0.0014321939783159,-0.0013738246378941,0.0013738246378945,-0.0013738246378942,0.0013738246378945,-0.0013738246378946,0.001373824637894,-0.0013738246378939,0.0013738246378948,2.4263964634889e-18,-3.4057783087517e-17,-0.0013976392797752,0.0013976392797752,-5.0439635574345e-18,-2.4999236290492e-17,-0.0014321939783157,0.0014321939783157,-0.0014321939783158,0.0014321939783158,-0.0014321939783158,0.0014321939783157,-0.0014321939783158,0.0014321939783157,-0.0013738246378944,0.0013738246378943,-0.0013738246378943,0.0013738246378943,0.61906311988498,0.47788387205299,1270536,32768,0.0058065608648849,0.0058065608648851,0.0058065608648851,25.21645850235,25.223709074396,0.0001169316680188,0.0001169316680188,0.0001169316680188,371533.47081664,0.017572514695287
29808000,0.99997993740146,0.017088186832535,0.0056960622775115,0.0056960622775117,0.0056960622775117,-0.0013980846696204,0.0013980846696204,-5.7965140969438e-17,-1.7558287135792e-17,3.5615088454083e-16,-4.3685430145978e-16,-0.0014325315665532,0.0014325315665534,-0.0014325315665532,0.0014325315665534,-0.0014325315665535,0.0014325315665531,-0.0014325315665535,0.0014325315665531,-0.0013743586317024,0.0013743586317021,-0.0013743586317024,0.0013743586317021,-3.4728350837426e-16,4.5242735512545e-16,4.1792840904457e-17,6.164517560573e-17,-0.0013980846696204,0.0013980846696205,-0.0014325315665534,0.0014325315665533,-0.0014325315665534,0.0014325315665533,-0.0014325315665531,0.0014325315665535,-0.0014325315665531,0.0014325315665535,-0.0013743586317022,0.0013743586317025,-0.0013743586317022,0.0013743586317025,-0.0013743586317027,0.001374358631702,-0.0013743586317019,0.0013743586317028,-3.1101991031994e-18,-3.9557615071425e-17,-0.0013980846696205,0.0013980846696204,-1.0749671604911e-17,-3.1101991031994e-17,-0.0014325315665533,0.0014325315665533,-0.0014325315665533,0.0014325315665533,-0.0014325315665533,0.0014325315665533,-0.0014325315665534,0.0014325315665533,-0.0013743586317024,0.0013743586317023,-0.0013743586317024,0.0013743586317024,0.63081223847069,0.56176082431252,1270536,32768,0.0058084059498471,0.0058084059498473,0.0058084059498473,25.324904416029,25.332070466182,0.00011779923532823,0.00011779923532823,0.00011779923532823,365297.94053417,0.017578147552499
29894400,0.9999805251084,0.017088196318691,0.0056960654395635,0.0056960654395637,0.0056960654395637,-0.0013985480873385,0.0013985480873384,-6.1086369147472e-17,-2.0631722656212e-17,3.5351125929722e-16,-4.4020714020933e-16,-0.0014328895941233,0.0014328895941235,-0.0014328895941233,0.0014328895941235,-0.0014328895941236,0.0014328895941232,-0.0014328895941236,0.0014328895941233,-0.0013748985956017,0.0013748985956013,-0.0013748985956016,0.0013748985956013,-3.5460681406407e-16,4.4575844120913e-16,3.4521004230546e-17,5.5013025272193e-17,-0.0013985480873385,0.0013985480873386,-0.0014328895941235,0.0014328895941234,-0.0014328895941236,0.0014328895941234,-0.0014328895941233,0.0014328895941236,-0.0014328895941233,0.0014328895941236,-0.0013748985956014,0.0013748985956017,-0.0013748985956014,0.0013748985956017,-0.0013748985956019,0.0013748985956012,-0.0013748985956011,0.001374898595602,1.7058302409982e-18,-3.4778349310007e-17,-0.0013985480873385,0.0013985480873385,-5.4263048183479e-18,-2.577862424543e-17,-0.0014328895941235,0.0014328895941234,-0.0014328895941235,0.0014328895941235,-0.0014328895941235,0.0014328895941234,-0.0014328895941235,0.0014328895941234,-0.0013748985956016,0.0013748985956016,-0.0013748985956016,0.0013748985956016,0.64793409226779,0.64563777657206,1270536,32768,0.0058103256418299,0.0058103256418301,0.0058103256418301,25.433271847466,25.440431857967,0.00011866617477973,0.00011866617477973,0.00011866617477973,358103.2472631,0.017584008368349
29980800,0.99998109924414,0.017088206010603,0.0056960686702009,0.005696068670201,0.005696068670201,-0.0013990137234425,0.0013990137234424,-5.8325424080684e-17,-1.793327568015e-17,3.5663616383353e-16,-4.3731016988626e-16,-0.0014332582164342,0.0014332582164344,-0.0014332582164342,0.0014332582164344,-0.0014332582164345,0.0014332582164342,-0.0014332582164345,0.0014332582164342,-0.0013754286675075,0.0013754286675071,-0.0013754286675075,0.0013754286675071,-3.539156587078e-16,4.4692752314154e-16,3.6535648566898e-17,5.6630622914519e-17,-0.0013990137234425,0.0013990137234426,-0.0014332582164345,0.0014332582164343,-0.0014332582164345,0.0014332582164343,-0.0014332582164342,0.0014332582164345,-0.0014332582164342,0.0014332582164346,-0.0013754286675072,0.0013754286675075,-0.0013754286675072,0.0013754286675075,-0.0013754286675077,0.001375428667507,-0.0013754286675069,0.0013754286675078,3.83076532569e-18,-3.2513712610751e-17,-0.0013990137234425,0.0013990137234425,-3.9263506409184e-18,-2.4028677705096e-17,-0.0014332582164344,0.0014332582164344,-0.0014332582164344,0.0014332582164344,-0.0014332582164344,0.0014332582164344,-0.0014332582164344,0.0014332582164344,-0.0013754286675074,0.0013754286675074,-0.0013754286675074,0.0013754286675074,0.67759160301473,0.77423136867587,1270536,32768,0.005812254469956,0.0058122544699561,0.0058122544699561,25.54163163137,25.548793249753,0.00011953305305096,0.00011953305305096,0.00011953305305096,350459.91289594,0.017589897219461
30067200,0.9999816600106,0.017088215479187,0.0056960718263956,0.0056960718263957,0.0056960718263957,-0.0013995624864286,0.0013995624864285,-5.5902703975473e-17,-1.5727460713342e-17,3.5856257557121e-16,-4.3514847121879e-16,-0.0014336913472378,0.0014336913472379,-0.0014336913472378,0.0014336913472379,-0.001433691347238,0.0014336913472377,-0.001433691347238,0.0014336913472377,-0.0013760566394036,0.0013760566394032,-0.0013760566394036,0.0013760566394032,-3.5360684461245e-16,4.466334144793e-16,3.7366505537729e-17,5.7704119531699e-17,-0.0013995624864286,0.0013995624864286,-0.001433691347238,0.0014336913472378,-0.001433691347238,0.0014336913472378,-0.0014336913472377,0.001433691347238,-0.0014336913472377,0.001433691347238,-0.0013760566394033,0.0013760566394036,-0.0013760566394033,0.0013760566394037,-0.0013760566394038,0.0013760566394031,-0.001376056639403,0.0013760566394039,-1.4117215787572e-18,-3.7910606562875e-17,-0.0013995624864286,0.0013995624864286,-9.5879423890591e-18,-3.0484362841288e-17,-0.0014336913472379,0.0014336913472378,-0.0014336913472379,0.0014336913472379,-0.0014336913472379,0.0014336913472378,-0.0014336913472379,0.0014336913472378,-0.0013760566394035,0.0013760566394035,-0.0013760566394035,0.0013760566394035,0.67769726714323,0.70027482735307,1270536,32768,0.0058145275996826,0.0058145275996828,0.0058145275996827,25.649990657165,25.657154641538,0.00012039992525732,0.00012039992525732,0.00012039992525732,339765.35378821,0.017596837462989
30153600,0.9999822076097,0.017088224372081,0.0056960747906937,0.0056960747906939,0.0056960747906939,-0.0013997219101601,0.0013997219101601,-5.7836468429708e-17,-1.7175945874879e-17,3.576949550176e-16,-4.3676606886111e-16,-0.0014338723404693,0.0014338723404695,-0.0014338723404693,0.0014338723404695,-0.0014338723404696,0.0014338723404693,-0.0014338723404696,0.0014338723404693,-0.0013761705503869,0.0013761705503865,-0.0013761705503869,0.0013761705503866,-3.5245982082971e-16,4.4886128759578e-16,3.7337094671505e-17,5.7748235831035e-17,-0.0013997219101601,0.0013997219101602,-0.0014338723404695,0.0014338723404694,-0.0014338723404696,0.0014338723404694,-0.0014338723404693,0.0014338723404696,-0.0014338723404693,0.0014338723404696,-0.0013761705503866,0.0013761705503869,-0.0013761705503866,0.001376170550387,-0.0013761705503871,0.0013761705503865,-0.0013761705503864,0.0013761705503873,3.6248892621213e-18,-3.2778410406768e-17,-0.0013997219101602,0.0013997219101601,-4.1469321375992e-18,-2.4778654793811e-17,-0.0014338723404695,0.0014338723404695,-0.0014338723404695,0.0014338723404695,-0.0014338723404695,0.0014338723404694,-0.0014338723404695,0.0014338723404694,-0.0013761705503868,0.0013761705503868,-0.0013761705503868,0.0013761705503868,0.65169924294768,0.53603222639823,1270536,32768,0.0058151878918535,0.0058151878918536,0.0058151878918536,25.758349607265,25.765516033324,0.00012126679685812,0.00012126679685812,0.00012126679685812,341116.94046632,0.017598853286449
30240000,0.99998274224321,0.01708823282286,0.0056960776076199,0.00569607760762,0.00569607760762,-0.0013996031384138,0.0013996031384138,-6.0762849619006e-17,-2.0440552025755e-17,3.5457740319784e-16,-4.4026596194178e-16,-0.0014338709314508,0.001433870931451,-0.0014338709314508,0.001433870931451,-0.0014338709314511,0.0014338709314507,-0.0014338709314511,0.0014338709314507,-0.0013759374249056,0.0013759374249052,-0.0013759374249056,0.0013759374249052,-3.5103339381784e-16,4.5067740858511e-16,3.8778227116486e-17,5.9115841110456e-17,-0.0013996031384138,0.0013996031384139,-0.001433870931451,0.0014338709314509,-0.001433870931451,0.0014338709314509,-0.0014338709314508,0.0014338709314511,-0.0014338709314508,0.0014338709314511,-0.0013759374249053,0.0013759374249056,-0.0013759374249053,0.0013759374249056,-0.0013759374249058,0.0013759374249051,-0.001375937424905,0.0013759374249059,6.3527471044073e-18,-3.0249075911495e-17,-0.0013996031384138,0.0013996031384138,-1.1323183496281e-18,-2.1646397540943e-17,-0.0014338709314509,0.0014338709314509,-0.001433870931451,0.0014338709314509,-0.0014338709314509,0.0014338709314509,-0.001433870931451,0.0014338709314509,-0.0013759374249055,0.0013759374249055,-0.0013759374249055,0.0013759374249055,0.63431666745143,0.49251518427337,1270536,32768,0.0058146958579234,0.0058146958579236,0.0058146958579236,25.866708549614,25.873877425109,0.00012213366839691,0.00012213366839691,0.00012213366839691,351574.41164754,0.017597350580234
30326400,0.99998326411272,0.017088240838203,0.0056960802794008,0.0056960802794009,0.0056960802794009,-0.0013996587878106,0.0013996587878106,-5.9347451681971e-17,-1.9124415762226e-17,3.5626852800573e-16,-4.3933951965572e-16,-0.001433980998786,0.0014339809987862,-0.001433980998786,0.0014339809987862,-0.0014339809987863,0.0014339809987859,-0.0014339809987863,0.0014339809987859,-0.0013759557056787,0.0013759557056783,-0.0013759557056787,0.0013759557056784,-3.511069209834e-16,4.5137591665794e-16,3.9050277629059e-17,5.9409949772697e-17,-0.0013996587878106,0.0013996587878107,-0.0014339809987862,0.0014339809987861,-0.0014339809987862,0.0014339809987861,-0.001433980998786,0.0014339809987863,-0.001433980998786,0.0014339809987863,-0.0013759557056784,0.0013759557056787,-0.0013759557056785,0.0013759557056788,-0.0013759557056789,0.0013759557056783,-0.0013759557056782,0.0013759557056791,2.9410866224108e-18,-3.3734263559052e-17,-0.0013996587878106,0.0013996587878106,-4.6616222965211e-18,-2.5455104716965e-17,-0.0014339809987861,0.0014339809987861,-0.0014339809987862,0.0014339809987861,-0.0014339809987861,0.0014339809987861,-0.0014339809987862,0.0014339809987861,-0.0013759557056787,0.0013759557056786,-0.0013759557056786,0.0013759557056786,0.61641574405791,0.4489981421485,1270536,32768,0.0058149264498225,0.0058149264498226,0.0058149264498227,25.975067490987,25.982238816895,0.0001230005399279,0.0001230005399279,0.0001230005399279,356962.93632623,0.0175980541224
30412800,0.99998377435369,0.017088248373952,0.0056960827913171,0.0056960827913173,0.0056960827913173,-0.0013997853007814,0.0013997853007814,-5.9244513650187e-17,-1.8808248950317e-17,3.563567606044e-16,-4.3932481422261e-16,-0.0014341515420892,0.0014341515420894,-0.0014341515420892,0.0014341515420894,-0.0014341515420895,0.0014341515420891,-0.0014341515420895,0.0014341515420891,-0.0013760544367904,0.00137605443679,-0.0013760544367904,0.0013760544367901,-3.5122456444829e-16,4.5122150961026e-16,3.8513529320469e-17,5.9218779142241e-17,-0.0013997853007814,0.0013997853007815,-0.0014341515420894,0.0014341515420892,-0.0014341515420894,0.0014341515420892,-0.0014341515420891,0.0014341515420895,-0.0014341515420891,0.0014341515420895,-0.0013760544367901,0.0013760544367904,-0.0013760544367901,0.0013760544367905,-0.0013760544367906,0.00137605443679,-0.0013760544367899,0.0013760544367908,1.0514384675118e-18,-3.5557737264946e-17,-0.0013997853007815,0.0013997853007814,-6.5880340342001e-18,-2.7440338187092e-17,-0.0014341515420893,0.0014341515420893,-0.0014341515420893,0.0014341515420893,-0.0014341515420893,0.0014341515420893,-0.0014341515420893,0.0014341515420893,-0.0013760544367904,0.0013760544367903,-0.0013760544367903,0.0013760544367903,0.59277920883694,0.37972806822775,1270536,32768,0.0058154506104187,0.0058154506104189,0.0058154506104189,26.114776621016,26.123956640151,0.00012411821296813,0.00012411821296813,0.00012411821296813,362247.4347382,0.017599653840417
30499200,0.99998427396008,0.017088255859228,0.0056960852864093,0.0056960852864095,0.0056960852864095,-0.0013999029355722,0.0013999029355721,-5.8141606166783e-17,-1.7756810482805e-17,3.575773115527e-16,-4.3816308500676e-16,-0.0014343305578261,0.0014343305578262,-0.0014343305578261,0.0014343305578262,-0.0014343305578263,0.001434330557826,-0.0014343305578263,0.001434330557826,-0.0013761283039438,0.0013761283039434,-0.0013761283039437,0.0013761283039434,-3.4953343964041e-16,4.5300821973337e-16,4.0373766609144e-17,6.1336361510377e-17,-0.0013999029355721,0.0013999029355722,-0.0014343305578263,0.0014343305578261,-0.0014343305578263,0.0014343305578261,-0.001434330557826,0.0014343305578263,-0.001434330557826,0.0014343305578264,-0.0013761283039435,0.0013761283039438,-0.0013761283039435,0.0013761283039438,-0.001376128303944,0.0013761283039433,-0.0013761283039432,0.0013761283039441,3.5881256793411e-18,-3.286664300544e-17,-0.0013999029355722,0.0013999029355721,-3.2940170171001e-18,-2.470512762825e-17,-0.0014343305578262,0.0014343305578262,-0.0014343305578262,0.0014343305578262,-0.0014343305578262,0.0014343305578262,-0.0014343305578262,0.0014343305578262,-0.0013761283039437,0.0013761283039436,-0.0013761283039437,0.0013761283039437,0.60139741391562,0.50541939280744,1270536,32768,0.0058159380120266,0.0058159380120268,0.0058159380120268,26.284248662455,26.295405041993,0.00012547398929964,0.00012547398929964,0.00012547398929964,370015.39876797,0.017601141161991
30585600,0.99998476304465,0.017088263246432,0.0056960877488105,0.0056960877488107,0.0056960877488107,-0.0014005007329856,0.0014005007329855,-5.888790689722e-17,-1.8999419580774e-17,3.5656998938453e-16,-4.393101087895e-16,-0.0014348288542229,0.001434828854223,-0.0014348288542228,0.001434828854223,-0.0014348288542231,0.0014348288542228,-0.0014348288542231,0.0014348288542228,-0.0013768278137759,0.0013768278137755,-0.0013768278137759,0.0013768278137756,-3.5357743374622e-16,4.4891275661167e-16,3.6079780140424e-17,5.7380600003234e-17,-0.0014005007329856,0.0014005007329857,-0.0014348288542231,0.0014348288542229,-0.0014348288542231,0.0014348288542229,-0.0014348288542228,0.0014348288542231,-0.0014348288542228,0.0014348288542232,-0.0013768278137757,0.001376827813776,-0.0013768278137757,0.001376827813776,-0.0013768278137761,0.0013768278137755,-0.0013768278137754,0.0013768278137763,2.9043230396306e-18,-3.3116635368345e-17,-0.0014005007329856,0.0014005007329856,-4.2498701693836e-18,-2.5660980780534e-17,-0.001434828854223,0.001434828854223,-0.001434828854223,0.001434828854223,-0.001434828854223,0.001434828854223,-0.001434828854223,0.001434828854223,-0.0013768278137759,0.0013768278137758,-0.0013768278137758,0.0013768278137758,0.60634647760198,0.54258644128895,1270536,32768,0.0058184144489593,0.0058184144489594,0.0058184144489594,26.455509833655,26.466853443834,0.00012684407866924,0.00012684407866924,0.00012684407866924,362299.16134005,0.017608701681131
30672000,0.99998524167383,0.017088270551378,0.0056960901837924,0.0056960901837926,0.0056960901837926,-0.0014009607817506,0.0014009607817506,-6.112680908853e-17,-2.1256703563474e-17,3.540333021727e-16,-4.408982955656e-16,-0.0014352376281633,0.0014352376281635,-0.0014352376281633,0.0014352376281635,-0.0014352376281636,0.0014352376281632,-0.0014352376281636,0.0014352376281632,-0.0013773266626691,0.0013773266626687,-0.001377326662669,0.0013773266626687,-3.5373919351046e-16,4.479716088925e-16,3.5484210099386e-17,5.742471630257e-17,-0.0014009607817506,0.0014009607817507,-0.0014352376281635,0.0014352376281633,-0.0014352376281635,0.0014352376281633,-0.0014352376281633,0.0014352376281636,-0.0014352376281633,0.0014352376281636,-0.0013773266626688,0.0013773266626691,-0.0013773266626688,0.0013773266626691,-0.0013773266626693,0.0013773266626686,-0.0013773266626685,0.0013773266626694,5.2645450541153e-18,-3.1057874732658e-17,-0.0014009607817507,0.0014009607817506,-1.6764193747741e-18,-2.3999266838872e-17,-0.0014352376281634,0.0014352376281634,-0.0014352376281634,0.0014352376281634,-0.0014352376281634,0.0014352376281634,-0.0014352376281635,0.0014352376281634,-0.001377326662669,0.0013773266626689,-0.001377326662669,0.001377326662669,0.61264046277886,0.5766538423242,1270536,32768,0.005820320174314,0.0058203201743142,0.0058203201743142,26.62693436394,26.638301845676,0.00012821547491152,0.00012821547491152,0.00012821547491152,358732.8925204,0.017614519812927
30758400,0.99998570991384,0.017088277835902,0.0056960926119672,0.0056960926119673,0.0056960926119673,-0.001401409804191,0.001401409804191,-5.9450389713756e-17,-1.9675869503928e-17,3.5491562815942e-16,-4.394424576875e-16,-0.0014356438890906,0.0014356438890907,-0.0014356438890906,0.0014356438890907,-0.0014356438890908,0.0014356438890905,-0.0014356438890908,0.0014356438890905,-0.0013778042979572,0.0013778042979568,-0.0013778042979572,0.0013778042979569,-3.4565120529883e-16,4.555449069452e-16,4.321191519977e-17,6.4998014355278e-17,-0.001401409804191,0.0014014098041911,-0.0014356438890908,0.0014356438890906,-0.0014356438890908,0.0014356438890906,-0.0014356438890905,0.0014356438890909,-0.0014356438890905,0.0014356438890909,-0.0013778042979569,0.0013778042979572,-0.0013778042979569,0.0013778042979573,-0.0013778042979574,0.0013778042979568,-0.0013778042979567,0.0013778042979576,5.6101227322485e-18,-3.0631417172408e-17,-0.001401409804191,0.001401409804191,-8.2350425427501e-19,-2.3131646285261e-17,-0.0014356438890907,0.0014356438890907,-0.0014356438890907,0.0014356438890907,-0.0014356438890907,0.0014356438890907,-0.0014356438890907,0.0014356438890907,-0.0013778042979571,0.0013778042979571,-0.0013778042979571,0.0013778042979571,0.6244603007101,0.6323730657908,1270536,32768,0.0058221801991052,0.0058221801991054,0.0058221801991054,26.79837486322,26.809750247518,0.00012958699890576,0.00012958699890576,0.00012958699890576,355347.63111786,0.017620198483312
30844800,0.99998616783465,0.017088285244379,0.0056960950814594,0.0056960950814596,0.0056960950814596,-0.0014019024976603,0.0014019024976602,-5.9505535087926e-17,-1.9639105921148e-17,3.5466563579651e-16,-4.3888365122925e-16,-0.0014360834892845,0.0014360834892847,-0.0014360834892845,0.0014360834892847,-0.0014360834892848,0.0014360834892844,-0.0014360834892848,0.0014360834892844,-0.0013783341850805,0.0013783341850801,-0.0013783341850804,0.0013783341850801,-3.505039982258e-16,4.4997890051229e-16,3.7609145184078e-17,5.9307011740913e-17,-0.0014019024976602,0.0014019024976603,-0.0014360834892847,0.0014360834892846,-0.0014360834892847,0.0014360834892846,-0.0014360834892845,0.0014360834892848,-0.0014360834892845,0.0014360834892848,-0.0013783341850802,0.0013783341850805,-0.0013783341850802,0.0013783341850805,-0.0013783341850807,0.00137833418508,-0.0013783341850799,0.0013783341850808,6.7865573812128e-18,-2.9337339058547e-17,-0.0014019024976603,0.0014019024976602,4.7057385958572e-19,-2.191109533696e-17,-0.0014360834892846,0.0014360834892846,-0.0014360834892846,0.0014360834892846,-0.0014360834892846,0.0014360834892846,-0.0014360834892847,0.0014360834892846,-0.0013783341850804,0.0013783341850803,-0.0013783341850803,0.0013783341850804,0.64937996091711,0.74307751585792,1270536,32768,0.0058242211058076,0.0058242211058077,0.0058242211058077,26.969816949615,26.98119864936,0.00013095853559692,0.00013095853559692,0.00013095853559692,350331.25376474,0.017626429531823
30931200,0.99998661551028,0.017088292671312,0.0056960975571037,0.0056960975571039,0.0056960975571039,-0.0014025081222003,0.0014025081222002,-6.1869433460688e-17,-2.2014033368745e-17,3.5109221555029e-16,-4.4170709438676e-16,-0.0014366029633296,0.0014366029633298,-0.0014366029633296,0.0014366029633298,-0.0014366029633299,0.0014366029633295,-0.0014366029633299,0.0014366029633295,-0.001379004352455,0.0013790043524546,-0.001379004352455,0.0013790043524547,-3.5016577326423e-16,4.493245087388e-16,3.7579734317854e-17,5.892467048e-17,-0.0014025081222002,0.0014025081222003,-0.0014366029633298,0.0014366029633297,-0.0014366029633298,0.0014366029633297,-0.0014366029633296,0.0014366029633299,-0.0014366029633296,0.0014366029633299,-0.0013790043524547,0.001379004352455,-0.0013790043524547,0.0013790043524551,-0.0013790043524552,0.0013790043524546,-0.0013790043524545,0.0013790043524554,2.9410866224108e-18,-3.3204867967018e-17,-0.0014025081222003,0.0014025081222003,-3.6028311124532e-18,-2.5396282984517e-17,-0.0014366029633297,0.0014366029633297,-0.0014366029633298,0.0014366029633297,-0.0014366029633297,0.0014366029633297,-0.0014366029633298,0.0014366029633297,-0.0013790043524549,0.0013790043524549,-0.0013790043524549,0.0013790043524549,0.66586107957466,0.77014088914354,1270536,32768,0.0058267297817463,0.0058267297817465,0.0058267297817465,27.141259193818,27.152647051201,0.00013233007355054,0.00013233007355054,0.00013233007355054,341344.8116407,0.017634088981077
31017600,0.99998705301878,0.017088300078204,0.005696100026068,0.0056961000260682,0.0056961000260681,-0.001402965612688,0.0014029656126879,-6.4733316559261e-17,-2.4815418376591e-17,3.4973931570398e-16,-4.4478052990718e-16,-0.0014370288025888,0.0014370288025889,-0.0014370288025888,0.0014370288025889,-0.0014370288025891,0.0014370288025887,-0.001437028802589,0.0014370288025887,-0.0013794726183275,0.0013794726183271,-0.0013794726183275,0.0013794726183272,-3.5744496265469e-16,4.4355262624232e-16,3.1565212175024e-17,5.2866032037834e-17,-0.001402965612688,0.0014029656126881,-0.001437028802589,0.0014370288025888,-0.001437028802589,0.0014370288025888,-0.0014370288025887,0.0014370288025891,-0.0014370288025887,0.0014370288025891,-0.0013794726183273,0.0013794726183275,-0.0013794726183273,0.0013794726183276,-0.0013794726183278,0.0013794726183271,-0.001379472618327,0.0013794726183279,2.2646366992563e-18,-3.3837201590836e-17,-0.001402965612688,0.001402965612688,-5.2498396210032e-18,-2.6646244799042e-17,-0.0014370288025889,0.0014370288025889,-0.0014370288025889,0.0014370288025889,-0.0014370288025889,0.0014370288025889,-0.001437028802589,0.0014370288025889,-0.0013794726183275,0.0013794726183274,-0.0013794726183274,0.0013794726183275,0.67943120198614,0.78770223647543,1270536,32768,0.0058286247888614,0.0058286247888616,0.0058286247888616,27.312701453019,27.324095453043,0.00013370161162415,0.00013370161162415,0.00013370161162415,336821.41635733,0.01763987475316
31104000,0.99998748177723,0.01708830758313,0.0056961025277098,0.00569610252771,0.00569610252771,-0.0014034849557821,0.001403484955782,-5.2899119262336e-17,-1.2683436059146e-17,3.6340066306507e-16,-4.3331029207978e-16,-0.0014375334036396,0.0014375334036398,-0.0014375334036396,0.0014375334036398,-0.0014375334036399,0.0014375334036395,-0.0014375334036399,0.0014375334036395,-0.0013799924943062,0.0013799924943058,-0.0013799924943062,0.0013799924943059,-3.5356272831311e-16,4.5005242767785e-16,3.7410621837065e-17,5.8321747722406e-17,-0.001403484955782,0.0014034849557821,-0.0014375334036398,0.0014375334036396,-0.0014375334036398,0.0014375334036396,-0.0014375334036395,0.0014375334036399,-0.0014375334036395,0.0014375334036399,-0.0013799924943059,0.0013799924943062,-0.0013799924943059,0.0013799924943063,-0.0013799924943064,0.0013799924943058,-0.0013799924943057,0.0013799924943065,4.3307500514999e-18,-3.229313111407e-17,-0.0014034849557821,0.0014034849557821,-3.5881256793411e-18,-2.4675716762026e-17,-0.0014375334036397,0.0014375334036397,-0.0014375334036397,0.0014375334036397,-0.0014375334036397,0.0014375334036397,-0.0014375334036397,0.0014375334036397,-0.0013799924943062,0.0013799924943061,-0.0013799924943061,0.0013799924943061,0.70243979068786,0.86308056669197,1270536,32768,0.0058307760343111,0.0058307760343113,0.0058307760343113,27.538148337956,27.553020126672,0.00013550518670365,0.00013550518670365,0.00013550518670365,333459.27887375,0.017646442714727
31190400,0.99998790222051,0.017088315203908,0.0056961050679693,0.0056961050679695,0.0056961050679695,-0.001404129319888,0.0014041293198879,-7.1347085101407e-17,-3.1204929063778e-17,3.4486446462733e-16,-4.5235382795989e-16,-0.0014381361126702,0.0014381361126704,-0.0014381361126702,0.0014381361126704,-0.0014381361126705,0.0014381361126701,-0.0014381361126705,0.0014381361126701,-0.001380666200962,0.0013806662009616,-0.001380666200962,0.0013806662009616,-3.4582767049617e-16,4.5839776096894e-16,4.485892370832e-17,6.4777432858597e-17,-0.0014041293198879,0.001404129319888,-0.0014381361126704,0.0014381361126703,-0.0014381361126705,0.0014381361126703,-0.0014381361126702,0.0014381361126705,-0.0014381361126702,0.0014381361126705,-0.0013806662009617,0.001380666200962,-0.0013806662009617,0.0013806662009621,-0.0013806662009622,0.0013806662009615,-0.0013806662009614,0.0013806662009623,8.1026936447417e-18,-2.8381485906264e-17,-0.001404129319888,0.001404129319888,1.7646519734465e-19,-2.0161148796626e-17,-0.0014381361126704,0.0014381361126704,-0.0014381361126704,0.0014381361126704,-0.0014381361126704,0.0014381361126703,-0.0014381361126704,0.0014381361126703,-0.0013806662009619,0.0013806662009619,-0.0013806662009619,0.0013806662009619,0.72736563057626,0.92744920702684,1270536,32768,0.0058334451651865,0.0058334451651866,0.0058334451651866,27.782449767658,27.798660744504,0.00013745959814127,0.00013745959814127,0.00013745959814127,327134.17613958,0.017654592007418
31276800,0.99998831432577,0.017088322715025,0.005696107571675,0.0056961075716752,0.0056961075716752,-0.0014047630667699,0.0014047630667698,-6.0060665187906e-17,-1.9514109739695e-17,3.5677586544809e-16,-4.4103064446361e-16,-0.0014387350709458,0.001438735070946,-0.0014387350709458,0.001438735070946,-0.0014387350709461,0.0014387350709457,-0.0014387350709461,0.0014387350709457,-0.0013813213809974,0.0013813213809969,-0.0013813213809974,0.001381321380997,-3.4970990483775e-16,4.5466993367504e-16,4.1307561611759e-17,6.1924578834859e-17,-0.0014047630667698,0.0014047630667699,-0.0014387350709461,0.0014387350709459,-0.0014387350709461,0.0014387350709459,-0.0014387350709458,0.0014387350709461,-0.0014387350709458,0.0014387350709462,-0.0013813213809971,0.0013813213809974,-0.0013813213809971,0.0013813213809974,-0.0013813213809976,0.0013813213809969,-0.0013813213809968,0.0013813213809977,4.632211430297e-18,-3.2249014814734e-17,-0.0014047630667699,0.0014047630667699,-3.3969550488844e-18,-2.4322786367337e-17,-0.001438735070946,0.001438735070946,-0.001438735070946,0.001438735070946,-0.001438735070946,0.001438735070946,-0.001438735070946,0.0014387350709459,-0.0013813213809973,0.0013813213809972,-0.0013813213809972,0.0013813213809973,0.73134946531797,0.86462826064949,1270536,32768,0.0058360702890657,0.0058360702890658,0.0058360702890658,28.027954081722,28.044301362336,0.00013942363265377,0.00013942363265377,0.00013942363265377,321001.83506005,0.017662607029417
31363200,0.99998871804903,0.017088330029786,0.0056961100099287,0.0056961100099289,0.0056961100099289,-0.0014051776810673,0.0014051776810672,-5.899819764556e-17,-1.8058271861602e-17,3.5796700553017e-16,-4.3966303918419e-16,-0.0014391915406614,0.0014391915406616,-0.0014391915406614,0.0014391915406616,-0.0014391915406617,0.0014391915406613,-0.0014391915406616,0.0014391915406613,-0.0013816889940016,0.0013816889940012,-0.0013816889940016,0.0013816889940013,-3.4666588018356e-16,4.5771395832923e-16,4.4630989495083e-17,6.4674494826813e-17,-0.0014051776810673,0.0014051776810674,-0.0014391915406616,0.0014391915406615,-0.0014391915406616,0.0014391915406615,-0.0014391915406613,0.0014391915406617,-0.0014391915406613,0.0014391915406617,-0.0013816889940013,0.0013816889940016,-0.0013816889940013,0.0013816889940017,-0.0013816889940018,0.0013816889940012,-0.0013816889940011,0.001381688994002,5.2498396210032e-18,-3.1484332292907e-17,-0.0014051776810673,0.0014051776810673,-2.1616986674719e-18,-2.2675777858787e-17,-0.0014391915406615,0.0014391915406615,-0.0014391915406615,0.0014391915406615,-0.0014391915406615,0.0014391915406615,-0.0014391915406616,0.0014391915406615,-0.0013816889940016,0.0013816889940015,-0.0013816889940015,0.0013816889940016,0.72696221333413,0.79905950129702,1270536,32768,0.0058377876853165,0.0058377876853167,0.0058377876853167,28.273569887732,28.289941980168,0.00014138855910185,0.00014138855910185,0.00014138855910185,321648.81863156,0.017667850345596
31449600,0.99998911335094,0.017088337093369,0.0056961123644563,0.0056961123644565,0.0056961123644565,-0.0014055361387739,0.0014055361387738,-5.9119517468734e-17,-1.8220031625835e-17,3.5748907895403e-16,-4.4056007060402e-16,-0.0014396100676333,0.0014396100676335,-0.0014396100676333,0.0014396100676335,-0.0014396100676336,0.0014396100676332,-0.0014396100676336,0.0014396100676332,-0.001381995249989,0.0013819952499886,-0.001381995249989,0.0013819952499887,-3.523274719317e-16,4.5237588610956e-16,3.9028219479391e-17,5.9336422607137e-17,-0.0014055361387738,0.0014055361387739,-0.0014396100676335,0.0014396100676334,-0.0014396100676335,0.0014396100676334,-0.0014396100676333,0.0014396100676336,-0.0014396100676333,0.0014396100676336,-0.0013819952499887,0.001381995249989,-0.0013819952499887,0.0013819952499891,-0.0013819952499892,0.0013819952499886,-0.0013819952499885,0.0013819952499894,3.544009380005e-18,-3.3396038597474e-17,-0.0014055361387739,0.0014055361387738,-4.8674983600898e-18,-2.5484515583189e-17,-0.0014396100676334,0.0014396100676334,-0.0014396100676335,0.0014396100676334,-0.0014396100676334,0.0014396100676334,-0.0014396100676335,0.0014396100676334,-0.0013819952499889,0.0013819952499889,-0.0013819952499889,0.0013819952499889,0.71694599293636,0.73349074194455,1270536,32768,0.0058392725157684,0.0058392725157686,0.0058392725157686,28.5191966683,28.535582598,0.0001433535733464,0.0001433535733464,0.0001433535733464,324190.99058887,0.017672383452034
31536000,0.99998950019915,0.017088343867733,0.0056961146225775,0.0056961146225777,0.0056961146225777,-0.0014058645830531,0.001405864583053,-5.6637975631075e-17,-1.5918631343798e-17,3.6077574325457e-16,-4.3725134815381e-16,-0.0014400045537104,0.0014400045537106,-0.0014400045537104,0.0014400045537106,-0.0014400045537107,0.0014400045537103,-0.0014400045537107,0.0014400045537103,-0.0013822735046011,0.0013822735046007,-0.0013822735046011,0.0013822735046008,-3.5210689043502e-16,4.5247147142478e-16,3.884440156549e-17,5.949818237137e-17,-0.001405864583053,0.0014058645830531,-0.0014400045537106,0.0014400045537104,-0.0014400045537106,0.0014400045537104,-0.0014400045537103,0.0014400045537107,-0.0014400045537103,0.0014400045537107,-0.0013822735046008,0.0013822735046011,-0.0013822735046008,0.0013822735046012,-0.0013822735046013,0.0013822735046007,-0.0013822735046006,0.0013822735046015,-1.2720199641927e-18,-3.7925311995987e-17,-0.0014058645830531,0.001405864583053,-8.1173990778537e-18,-2.9160873861203e-17,-0.0014400045537105,0.0014400045537105,-0.0014400045537105,0.0014400045537105,-0.0014400045537105,0.0014400045537105,-0.0014400045537106,0.0014400045537105,-0.0013822735046011,0.001382273504601,-0.001382273504601,0.001382273504601,0.70262204650901,0.66792198259208,1270536,32768,0.0058406330639765,0.0058406330639767,0.0058406330639767,28.764824543614,28.781223215832,0.00014531859634891,0.00014531859634891,0.00014531859634891,327875.0687495,0.017676536995515
31622400,0.99998987856856,0.017088350325357,0.005696116775119,0.0056961167751192,0.0056961167751192,-0.0014061729922471,0.0014061729922471,-5.8476154770082e-17,-1.7830337648365e-17,3.5781995119905e-16,-4.3831013933788e-16,-0.0014403802005892,0.0014403802005894,-0.0014403802005892,0.0014403802005894,-0.0014403802005895,0.0014403802005892,-0.0014403802005895,0.0014403802005892,-0.0013825349298114,0.001382534929811,-0.0013825349298113,0.001382534929811,-3.472099812087e-16,4.5561108139421e-16,4.374866350836e-17,6.3909812304986e-17,-0.0014061729922471,0.0014061729922472,-0.0014403802005894,0.0014403802005893,-0.0014403802005894,0.0014403802005893,-0.0014403802005892,0.0014403802005895,-0.0014403802005892,0.0014403802005895,-0.0013825349298111,0.0013825349298114,-0.0013825349298111,0.0013825349298114,-0.0013825349298116,0.0013825349298109,-0.0013825349298108,0.0013825349298117,6.01452214283e-18,-3.0734355204193e-17,-0.0014061729922472,0.0014061729922471,-2.0881715019116e-18,-2.2440490928994e-17,-0.0014403802005893,0.0014403802005894,-0.0014403802005894,0.0014403802005894,-0.0014403802005894,0.0014403802005893,-0.0014403802005894,0.0014403802005893,-0.0013825349298113,0.0013825349298112,-0.0013825349298112,0.0013825349298113,0.6847947525715,0.60235322323961,1270536,32768,0.0058419106545718,0.005841910654572,0.005841910654572,29.010452526525,29.026863833663,0.0001472836202122,0.0001472836202122,0.0001472836202122,332445.3842973,0.017680437167696
31708800,0.99999024834273,0.017088356444532,0.005696118814844,0.0056961188148441,0.0056961188148441,-0.0014064571465924,0.0014064571465923,-5.6637975631075e-17,-1.5918631343798e-17,3.5964342490494e-16,-4.368690068929e-16,-0.0014407307798571,0.0014407307798573,-0.0014407307798571,0.0014407307798573,-0.0014407307798574,0.0014407307798571,-0.0014407307798574,0.0014407307798571,-0.0013827751089803,0.0013827751089799,-0.0013827751089803,0.00138277510898,-3.5495974445876e-16,4.4828777570441e-16,3.6285656203993e-17,5.6660033780743e-17,-0.0014064571465923,0.0014064571465924,-0.0014407307798574,0.0014407307798572,-0.0014407307798574,0.0014407307798572,-0.0014407307798571,0.0014407307798574,-0.0014407307798571,0.0014407307798575,-0.00138277510898,0.0013827751089803,-0.00138277510898,0.0013827751089804,-0.0013827751089805,0.0013827751089798,-0.0013827751089798,0.0013827751089806,3.6175365455652e-18,-3.3425449463698e-17,-0.0014064571465924,0.0014064571465924,-3.9851723733666e-18,-2.4381608099785e-17,-0.0014407307798573,0.0014407307798573,-0.0014407307798573,0.0014407307798573,-0.0014407307798573,0.0014407307798573,-0.0014407307798573,0.0014407307798573,-0.0013827751089802,0.0013827751089802,-0.0013827751089802,0.0013827751089802,0.66400983097353,0.53678446388714,1270536,32768,0.0058430878004275,0.0058430878004277,0.0058430878004277,29.25139099925,29.267511833545,0.000149211127994,0.000149211127994,0.000149211127994,337803.30243129,0.017684030597258
31795200,0.99999060497918,0.017088362108283,0.0056961207027608,0.005696120702761,0.005696120702761,-0.0014062983858057,0.0014062983858056,-5.8023962701886e-17,-1.7212709457659e-17,3.5809935442818e-16,-4.3848660453522e-16,-0.0014406423554553,0.0014406423554554,-0.0014406423554553,0.0014406423554554,-0.0014406423554555,0.0014406423554552,-0.0014406423554555,0.0014406423554552,-0.0013825710979898,0.0013825710979894,-0.0013825710979898,0.0013825710979895,-3.5053340909203e-16,4.5270675835458e-16,4.0550231806488e-17,6.0821671351455e-17,-0.0014062983858056,0.0014062983858057,-0.0014406423554555,0.0014406423554553,-0.0014406423554555,0.0014406423554553,-0.0014406423554552,0.0014406423554555,-0.0014406423554552,0.0014406423554556,-0.0013825710979895,0.0013825710979898,-0.0013825710979895,0.0013825710979899,-0.00138257109799,0.0013825710979894,-0.0013825710979893,0.0013825710979902,4.2057538700474e-18,-3.2910759304776e-17,-0.0014062983858057,0.0014062983858056,-3.7351800104617e-18,-2.4249259201777e-17,-0.0014406423554554,0.0014406423554554,-0.0014406423554554,0.0014406423554554,-0.0014406423554554,0.0014406423554554,-0.0014406423554554,0.0014406423554554,-0.0013825710979898,0.0013825710979897,-0.0013825710979897,0.0013825710979897,0.63722659971684,0.45226358797313,1270536,32768,0.0058424302226162,0.0058424302226164,0.0058424302226164,29.26966369929,29.271394090334,0.00014935730959432,0.00014935730959432,0.00014935730959432,344109.22675381,0.017682022546619
31881600,0.99999094867477,0.017088367917295,0.0056961226390982,0.0056961226390983,0.0056961226390983,-0.0014060582038541,0.001406058203854,-5.8104842584003e-17,-1.7381821938448e-17,3.5781259848249e-16,-4.3857483713389e-16,-0.0014404802792024,0.0014404802792026,-0.0014404802792024,0.0014404802792026,-0.0014404802792026,0.0014404802792023,-0.0014404802792026,0.0014404802792023,-0.0013822778299024,0.001382277829902,-0.0013822778299024,0.0013822778299021,-3.5078340145493e-16,4.5233176981022e-16,4.0234064994579e-17,6.0321686625645e-17,-0.001406058203854,0.0014060582038541,-0.0014404802792026,0.0014404802792024,-0.0014404802792026,0.0014404802792024,-0.0014404802792023,0.0014404802792027,-0.0014404802792023,0.0014404802792027,-0.0013822778299021,0.0013822778299024,-0.0013822778299021,0.0013822778299025,-0.0013822778299026,0.001382277829902,-0.0013822778299019,0.0013822778299028,3.8454707588021e-18,-3.3043108202785e-17,-0.0014060582038541,0.0014060582038541,-3.9116452078063e-18,-2.455807329713e-17,-0.0014404802792025,0.0014404802792025,-0.0014404802792025,0.0014404802792025,-0.0014404802792025,0.0014404802792025,-0.0014404802792025,0.0014404802792025,-0.0013822778299024,0.0013822778299023,-0.0013822778299023,0.0013822778299023,0.67829687296573,0.76226457269967,1270536,32768,0.0058414354099729,0.0058414354099731,0.0058414354099731,29.274871522587,29.275276347123,0.00014939897218069,0.00014939897218069,0.00014939897218069,352454.05584085,0.017678984641055
31968000,0.9999912798727,0.017088373644768,0.005696124548256,0.0056961245482562,0.0056961245482562,-0.0014066644295676,0.0014066644295675,-5.7597505141637e-17,-1.6977422527866e-17,3.5837140494075e-16,-4.380895578412e-16,-0.0014408711745275,0.0014408711745277,-0.0014408711745275,0.0014408711745277,-0.0014408711745278,0.0014408711745274,-0.0014408711745278,0.0014408711745275,-0.0013830928278252,0.0013830928278248,-0.0013830928278252,0.0013830928278249,-3.5101868838473e-16,4.5230971166055e-16,3.9829665583998e-17,6.01452214283e-17,-0.0014066644295675,0.0014066644295676,-0.0014408711745277,0.0014408711745276,-0.0014408711745278,0.0014408711745276,-0.0014408711745275,0.0014408711745278,-0.0014408711745275,0.0014408711745278,-0.0013830928278249,0.0013830928278252,-0.0013830928278249,0.0013830928278253,-0.0013830928278254,0.0013830928278248,-0.0013830928278247,0.0013830928278255,3.7498854435737e-18,-3.3131340801457e-17,-0.0014066644295676,0.0014066644295676,-3.6469474117894e-18,-2.470512762825e-17,-0.0014408711745276,0.0014408711745276,-0.0014408711745277,0.0014408711745277,-0.0014408711745277,0.0014408711745276,-0.0014408711745277,0.0014408711745276,-0.0013830928278251,0.0013830928278251,-0.0013830928278251,0.0013830928278251,0.69409425744674,0.78347041116359,1270536,32768,0.0058439466890163,0.0058439466890165,0.0058439466890165,29.278884428068,29.279158603911,0.00014943107542454,0.00014943107542454,0.00014943107542454,333509.99104089,0.017686652801266
32054400,0.99999159902253,0.017088379269003,0.005696126423001,0.0056961264230011,0.0056961264230011,-0.0014068058712435,0.0014068058712435,-5.7483538035018e-17,-1.6742135598073e-17,3.5868757175266e-16,-4.3764839484783e-16,-0.0014409617334267,0.0014409617334269,-0.0014409617334267,0.0014409617334269,-0.001440961733427,0.0014409617334266,-0.001440961733427,0.0014409617334267,-0.0013832599497093,0.0013832599497089,-0.0013832599497093,0.001383259949709,-3.5070987428937e-16,4.5245676599167e-16,3.9792902001218e-17,6.0615795287886e-17,-0.0014068058712435,0.0014068058712436,-0.0014409617334269,0.0014409617334268,-0.001440961733427,0.0014409617334268,-0.0014409617334267,0.001440961733427,-0.0014409617334267,0.001440961733427,-0.0013832599497091,0.0013832599497094,-0.0013832599497091,0.0013832599497094,-0.0013832599497096,0.0013832599497089,-0.0013832599497088,0.0013832599497097,4.2572228859396e-18,-3.2572534343199e-17,-0.0014068058712436,0.0014068058712435,-3.264606150876e-18,-2.4219848335553e-17,-0.0014409617334268,0.0014409617334268,-0.0014409617334269,0.0014409617334269,-0.0014409617334269,0.0014409617334268,-0.0014409617334269,0.0014409617334268,-0.0013832599497093,0.0013832599497092,-0.0013832599497092,0.0013832599497093,0.70718520661316,0.80523991285448,1270536,32768,0.0058445325028184,0.0058445325028186,0.0058445325028186,29.28277977358,29.2830408607,0.00014946223818864,0.00014946223818864,0.00014946223818864,328749.12413089,0.017688441724643
32140800,0.99999190655971,0.017088384791107,0.0056961282637022,0.0056961282637024,0.0056961282637024,-0.0014069034851686,0.0014069034851685,-5.8005580910496e-17,-1.7220062174215e-17,3.5797435824673e-16,-4.382219067392e-16,-0.0014410312652091,0.0014410312652093,-0.0014410312652091,0.0014410312652093,-0.0014410312652094,0.001441031265209,-0.0014410312652094,0.0014410312652091,-0.0013833678031305,0.0013833678031301,-0.0013833678031305,0.0013833678031302,-3.5001871893311e-16,4.5283175453603e-16,4.0484057357484e-17,6.129224521104e-17,-0.0014069034851685,0.0014069034851686,-0.0014410312652093,0.0014410312652092,-0.0014410312652093,0.0014410312652092,-0.0014410312652091,0.0014410312652094,-0.0014410312652091,0.0014410312652094,-0.0013833678031302,0.0013833678031305,-0.0013833678031302,0.0013833678031306,-0.0013833678031307,0.0013833678031301,-0.00138336780313,0.0013833678031308,3.9704669402545e-18,-3.2954875604113e-17,-0.0014069034851686,0.0014069034851685,-3.5293039468929e-18,-2.4425724399121e-17,-0.0014410312652092,0.0014410312652092,-0.0014410312652093,0.0014410312652092,-0.0014410312652093,0.0014410312652092,-0.0014410312652093,0.0014410312652092,-0.0013833678031304,0.0013833678031304,-0.0013833678031304,0.0013833678031304,0.72053665926245,0.83311157431456,1270536,32768,0.0058449367774584,0.0058449367774585,0.0058449367774585,29.286663344976,29.286923117489,0.00014949330675981,0.00014949330675981,0.00014949330675981,325255.09413904,0.017689676313289
32227200,0.99999220290428,0.017088390212968,0.0056961300709893,0.0056961300709895,0.0056961300709895,-0.0014069944652769,0.0014069944652768,-5.8483507486638e-17,-1.7720046900025e-17,3.575773115527e-16,-4.3860424800012e-16,-0.0014411002992497,0.0014411002992499,-0.0014411002992497,0.0014411002992499,-0.00144110029925,0.0014411002992496,-0.00144110029925,0.0014411002992496,-0.0013834677838609,0.0013834677838606,-0.0013834677838609,0.0013834677838606,-3.505039982258e-16,4.524861768579e-16,3.9814960150886e-17,6.0586384421662e-17,-0.0014069944652768,0.0014069944652769,-0.0014411002992499,0.0014411002992498,-0.0014411002992499,0.0014411002992498,-0.0014411002992497,0.00144110029925,-0.0014411002992497,0.00144110029925,-0.0013834677838607,0.001383467783861,-0.0013834677838607,0.001383467783861,-0.0013834677838612,0.0013834677838605,-0.0013834677838604,0.0013834677838613,4.5439788316246e-18,-3.2499007177639e-17,-0.0014069944652769,0.0014069944652769,-3.014613787971e-18,-2.413161573688e-17,-0.0014411002992498,0.0014411002992498,-0.0014411002992499,0.0014411002992498,-0.0014411002992498,0.0014411002992498,-0.0014411002992499,0.0014411002992498,-0.0013834677838609,0.0013834677838608,-0.0013834677838608,0.0013834677838609,0.7341598074204,0.86098323577464,1270536,32768,0.0058453135791323,0.0058453135791325,0.0058453135791325,29.290545731419,29.290805374277,0.00014952436585135,0.00014952436585135,0.00014952436585135,321846.93245606,0.017690827016682
32313600,0.99999248846117,0.017088395537442,0.005696131845814,0.0056961318458142,0.0056961318458142,-0.0014070782966954,0.0014070782966953,-5.8384245813132e-17,-1.758034528546e-17,3.5763613328515e-16,-4.3828072847165e-16,-0.0014411670017473,0.0014411670017475,-0.0014411670017473,0.0014411670017475,-0.0014411670017475,0.0014411670017472,-0.0014411670017475,0.0014411670017472,-0.0013835588255378,0.0013835588255374,-0.0013835588255378,0.0013835588255375,-3.5185689807211e-16,4.5092740094802e-16,3.8587056486029e-17,5.942465520581e-17,-0.0014070782966953,0.0014070782966954,-0.0014411670017475,0.0014411670017473,-0.0014411670017475,0.0014411670017473,-0.0014411670017472,0.0014411670017476,-0.0014411670017472,0.0014411670017476,-0.0013835588255375,0.0013835588255378,-0.0013835588255375,0.0013835588255379,-0.001383558825538,0.0013835588255374,-0.0013835588255373,0.0013835588255381,4.1248739879311e-18,-3.2998991903449e-17,-0.0014070782966954,0.0014070782966954,-3.3381333164362e-18,-2.4602189596466e-17,-0.0014411670017474,0.0014411670017474,-0.0014411670017474,0.0014411670017474,-0.0014411670017474,0.0014411670017474,-0.0014411670017474,0.0014411670017474,-0.0013835588255377,0.0013835588255377,-0.0013835588255377,0.0013835588255377,0.74819270215562,0.88885489723472,1270536,32768,0.0058456607703043,0.0058456607703045,0.0058456607703045,29.294427998442,29.294687631066,0.00014955542398754,0.00014955542398754,0.00014955542398754,318542.82795053,0.017691887309538
32400000,0.99999276362078,0.017088400767549,0.0056961335891829,0.0056961335891831,0.0056961335891831,-0.0014071571051903,0.0014071571051902,-5.7373247286678e-17,-1.6558317684173e-17,3.5848904840565e-16,-4.3763368941472e-16,-0.0014412320467836,0.0014412320467838,-0.0014412320467836,0.0014412320467838,-0.0014412320467839,0.0014412320467835,-0.0014412320467838,0.0014412320467835,-0.0013836436526693,0.0013836436526689,-0.0013836436526693,0.001383643652669,-3.5066575799004e-16,4.5214795189632e-16,3.9638494953541e-17,6.0659911587222e-17,-0.0014071571051903,0.0014071571051904,-0.0014412320467838,0.0014412320467836,-0.0014412320467838,0.0014412320467836,-0.0014412320467835,0.0014412320467839,-0.0014412320467835,0.0014412320467839,-0.001383643652669,0.0013836436526693,-0.001383643652669,0.0013836436526694,-0.0013836436526695,0.0013836436526689,-0.0013836436526688,0.0013836436526697,3.2278425680958e-18,-3.3704852692827e-17,-0.0014071571051903,0.0014071571051903,-3.9998778064786e-18,-2.5499221016301e-17,-0.0014412320467837,0.0014412320467837,-0.0014412320467837,0.0014412320467837,-0.0014412320467837,0.0014412320467837,-0.0014412320467837,0.0014412320467837,-0.0013836436526692,0.0013836436526692,-0.0013836436526692,0.0013836436526692,0.76268619770216,0.9167265586948,1270536,32768,0.0058459871560633,0.0058459871560635,0.0058459871560635,29.298310253427,29.298569887855,0.00014958648202741,0.00014958648202741,0.00014958648202741,315286.24355567,0.017692884076692
32486400,0.99999302874184,0.017088405750519,0.0056961352501729,0.0056961352501731,0.0056961352501731,-0.0014072296816259,0.0014072296816258,-5.7564417917135e-17,-1.6720077448405e-17,3.5842287395664e-16,-4.3756016224916e-16,-0.001441293416874,0.0014412934168741,-0.001441293416874,0.0014412934168741,-0.0014412934168742,0.0014412934168739,-0.0014412934168742,0.0014412934168739,-0.0013837213039495,0.0013837213039491,-0.0013837213039495,0.0013837213039492,-3.5101868838473e-16,4.515156182725e-16,3.9256153692628e-17,6.0498151822989e-17,-0.0014072296816258,0.0014072296816259,-0.0014412934168742,0.001441293416874,-0.0014412934168742,0.001441293416874,-0.0014412934168739,0.0014412934168742,-0.0014412934168739,0.0014412934168743,-0.0013837213039493,0.0013837213039496,-0.0013837213039493,0.0013837213039496,-0.0013837213039498,0.0013837213039491,-0.001383721303949,0.0013837213039499,3.9263506409184e-18,-3.2969581037225e-17,-0.0014072296816259,0.0014072296816258,-3.2940170171001e-18,-2.455807329713e-17,-0.0014412934168741,0.0014412934168741,-0.0014412934168741,0.0014412934168741,-0.0014412934168741,0.0014412934168741,-0.0014412934168741,0.0014412934168741,-0.0013837213039495,0.0013837213039494,-0.0013837213039494,0.0013837213039495,0.75411028018054,0.81481010692511,1270536,32768,0.0058462877273461,0.0058462877273462,0.0058462877273462,29.301025341978,29.301209584371,0.00014960820273583,0.00014960820273583,0.00014960820273583,312054.75885137,0.01769380202617
32572800,0.99999328380441,0.017088410427438,0.0056961368091459,0.0056961368091461,0.0056961368091461,-0.0014070261148637,0.0014070261148636,-5.7299720121118e-17,-1.6653902999401e-17,3.5881992065067e-16,-4.3717782098825e-16,-0.0014411575437038,0.001441157543704,-0.0014411575437038,0.001441157543704,-0.0014411575437041,0.0014411575437037,-0.0014411575437041,0.0014411575437037,-0.0013834531990109,0.0013834531990105,-0.0013834531990109,0.0013834531990105,-3.5413624020448e-16,4.4875834956399e-16,3.6072427423868e-17,5.7101196774105e-17,-0.0014070261148636,0.0014070261148637,-0.001441157543704,0.0014411575437039,-0.001441157543704,0.0014411575437038,-0.0014411575437038,0.0014411575437041,-0.0014411575437038,0.0014411575437041,-0.0013834531990106,0.0013834531990109,-0.0013834531990106,0.0013834531990109,-0.0013834531990111,0.0013834531990104,-0.0013834531990103,0.0013834531990112,7.6174143520439e-18,-2.9146168428091e-17,-0.0014070261148637,0.0014070261148637,3.2351952846518e-19,-2.0867009586004e-17,-0.0014411575437039,0.0014411575437039,-0.0014411575437039,0.0014411575437039,-0.0014411575437039,0.0014411575437039,-0.001441157543704,0.0014411575437039,-0.0013834531990108,0.0013834531990108,-0.0013834531990108,0.0013834531990108,0.7356465093255,0.71055228244282,1270536,32768,0.005845444427516,0.0058454444275162,0.0058454444275162,29.277237256484,29.275707084755,0.00014941789805187,0.00014941789805187,0.00014941789805187,315801.03208999,0.017691227170377
32659200,0.99999352918084,0.01708841477142,0.0056961382571397,0.0056961382571399,0.0056961382571399,-0.001406754541945,0.0014067545419449,-6.0417271940873e-17,-1.9661164070816e-17,3.5584942316203e-16,-4.4044242713912e-16,-0.0014409726130323,0.0014409726130325,-0.0014409726130323,0.0014409726130325,-0.0014409726130326,0.0014409726130323,-0.0014409726130326,0.0014409726130323,-0.0013831115238815,0.0013831115238811,-0.0013831115238814,0.0013831115238811,-3.5297451098863e-16,4.4979508259839e-16,3.705033872582e-17,5.8012933627052e-17,-0.0014067545419449,0.001406754541945,-0.0014409726130326,0.0014409726130324,-0.0014409726130326,0.0014409726130324,-0.0014409726130323,0.0014409726130326,-0.0014409726130323,0.0014409726130326,-0.0013831115238812,0.0013831115238815,-0.0013831115238812,0.0013831115238815,-0.0013831115238817,0.001383111523881,-0.0013831115238809,0.0013831115238818,7.8159376990566e-18,-2.9102052128755e-17,-0.001406754541945,0.001406754541945,4.4116299336161e-19,-2.0867009586004e-17,-0.0014409726130325,0.0014409726130325,-0.0014409726130325,0.0014409726130325,-0.0014409726130325,0.0014409726130324,-0.0014409726130325,0.0014409726130324,-0.0013831115238814,0.0013831115238813,-0.0013831115238814,0.0013831115238814,0.71023405312816,0.60629445796053,1270536,32768,0.005844319489512,0.0058443194895121,0.0058443194895121,29.251892588441,29.250204585139,0.00014921514070753,0.00014921514070753,0.00014921514070753,321846.7042201,0.01768779220631
32745600,0.99999376524987,0.017088418768907,0.0056961395896357,0.0056961395896358,0.0056961395896358,-0.00140644143709,0.00140644143709,-5.8623209101203e-17,-1.7756810482805e-17,3.571435012759e-16,-4.3873659689813e-16,-0.0014407538587007,0.0014407538587009,-0.0014407538587007,0.0014407538587009,-0.001440753858701,0.0014407538587007,-0.001440753858701,0.0014407538587007,-0.0013827290564319,0.0013827290564315,-0.0013827290564319,0.0013827290564316,-3.5200395240323e-16,4.5033183090698e-16,3.7594439750966e-17,5.9086430244232e-17,-0.00140644143709,0.0014064414370901,-0.0014407538587009,0.0014407538587008,-0.001440753858701,0.0014407538587008,-0.0014407538587007,0.001440753858701,-0.0014407538587007,0.001440753858701,-0.0013827290564316,0.001382729056432,-0.0013827290564317,0.001382729056432,-0.0013827290564322,0.0013827290564315,-0.0013827290564314,0.0013827290564323,-1.8308264224507e-18,-3.8895870581382e-17,-0.0014064414370901,0.00140644143709,-8.7938490010082e-18,-3.0366719376391e-17,-0.0014407538587009,0.0014407538587008,-0.0014407538587009,0.0014407538587009,-0.0014407538587009,0.0014407538587008,-0.0014407538587009,0.0014407538587008,-0.0013827290564319,0.0013827290564318,-0.0013827290564319,0.0013827290564319,0.67935208578108,0.50203663347825,1270536,32768,0.0058430225648273,0.0058430225648274,0.0058430225648274,29.226405522435,29.224702085523,0.00014901124417948,0.00014901124417948,0.00014901124417948,329597.30126453,0.017683831980404
32832000,0.99999399237678,0.017088422421339,0.0056961408071128,0.005696140807113,0.005696140807113,-0.0014060942087102,0.0014060942087101,-6.1321656077264e-17,-2.0425846592643e-17,3.5481269012763e-16,-4.4108946619605e-16,-0.001440504782623,0.0014405047826232,-0.001440504782623,0.0014405047826232,-0.0014405047826233,0.0014405047826229,-0.0014405047826233,0.0014405047826229,-0.0013823138859673,0.0013823138859669,-0.0013823138859673,0.001382313885967,-3.5000401349999e-16,4.5263323118902e-16,4.0138479679351e-17,6.1527532140833e-17,-0.0014060942087102,0.0014060942087103,-0.0014405047826232,0.001440504782623,-0.0014405047826232,0.001440504782623,-0.0014405047826229,0.0014405047826233,-0.001440504782623,0.0014405047826233,-0.001382313885967,0.0013823138859674,-0.0013823138859671,0.0013823138859674,-0.0013823138859675,0.0013823138859669,-0.0013823138859668,0.0013823138859677,2.7131524091739e-18,-3.4351891749758e-17,-0.0014060942087102,0.0014060942087102,-4.632211430297e-18,-2.6440368735473e-17,-0.0014405047826231,0.0014405047826231,-0.0014405047826231,0.0014405047826231,-0.0014405047826231,0.0014405047826231,-0.0014405047826232,0.0014405047826231,-0.0013823138859673,0.0013823138859672,-0.0013823138859672,0.0013823138859672,0.64516451987775,0.40460927212687,1270536,32768,0.0058415843326007,0.0058415843326009,0.0058415843326009,29.200904446679,29.199199585907,0.00014880723557343,0.00014880723557343,0.00014880723557343,338926.62925151,0.017679440187647
32918400,0.99999421091219,0.017088426011131,0.0056961420037104,0.0056961420037105,0.0056961420037105,-0.0014057323838793,0.0014057323838792,-6.0961372966019e-17,-2.0087621631066e-17,3.5474651567863e-16,-4.4047183800535e-16,-0.0014402372993562,0.0014402372993564,-0.0014402372993562,0.0014402372993564,-0.0014402372993565,0.0014402372993561,-0.0014402372993565,0.0014402372993561,-0.0013818902212998,0.0013818902212994,-0.0013818902212998,0.0013818902212994,-3.5350390658066e-16,4.4848629905142e-16,3.6072427423868e-17,5.7674708665475e-17,-0.0014057323838792,0.0014057323838793,-0.0014402372993564,0.0014402372993562,-0.0014402372993564,0.0014402372993562,-0.0014402372993561,0.0014402372993565,-0.0014402372993561,0.0014402372993565,-0.0013818902212995,0.0013818902212998,-0.0013818902212995,0.0013818902212998,-0.0013818902213,0.0013818902212994,-0.0013818902212993,0.0013818902213001,5.6174754488046e-18,-3.1263750796226e-17,-0.0014057323838793,0.0014057323838792,-1.1764346489643e-18,-2.298459195414e-17,-0.0014402372993563,0.0014402372993563,-0.0014402372993563,0.0014402372993563,-0.0014402372993563,0.0014402372993563,-0.0014402372993563,0.0014402372993563,-0.0013818902212997,0.0013818902212997,-0.0013818902212997,0.0013818902212997,0.65914409165887,0.59136693301626,1270536,32768,0.0058400856735598,0.0058400856735599,0.0058400856735599,29.175401967933,29.173697086291,0.00014860321574346,0.00014860321574346,0.00014860321574346,349339.31791451,0.017674863811522
33004800,0.99999442119255,0.017088429490521,0.005696143163507,0.0056961431635072,0.0056961431635072,-0.001406025462645,0.0014060254626449,-5.52961048596e-17,-1.4698080395498e-17,3.6006988246519e-16,-4.347955408241e-16,-0.0014403938857846,0.0014403938857848,-0.0014403938857846,0.0014403938857848,-0.0014403938857849,0.0014403938857845,-0.0014403938857849,0.0014403938857845,-0.0013823274981083,0.0013823274981079,-0.0013823274981083,0.001382327498108,-3.4691587254646e-16,4.5454493749358e-16,4.2461938111055e-17,6.4233331833451e-17,-0.0014060254626449,0.001406025462645,-0.0014403938857848,0.0014403938857847,-0.0014403938857848,0.0014403938857847,-0.0014403938857846,0.0014403938857849,-0.0014403938857846,0.0014403938857849,-0.001382327498108,0.0013823274981083,-0.001382327498108,0.0013823274981084,-0.0013823274981085,0.0013823274981079,-0.0013823274981078,0.0013823274981087,5.8307042289293e-18,-3.1263750796226e-17,-0.001406025462645,0.0014060254626449,-9.1173685294734e-19,-2.3175762584597e-17,-0.0014403938857847,0.0014403938857847,-0.0014403938857847,0.0014403938857847,-0.0014403938857847,0.0014403938857847,-0.0014403938857848,0.0014403938857847,-0.0013823274981082,0.0013823274981082,-0.0013823274981082,0.0013823274981082,0.66404952067883,0.62503185655508,1270536,32768,0.0058412998534986,0.0058412998534987,0.0058412998534987,29.149899348022,29.148194586675,0.00014839919478418,0.00014839919478418,0.00014839919478418,339019.54685158,0.017678571173335
33091200,0.9999946235407,0.01708843299934,0.0056961443331133,0.0056961443331135,0.0056961443331135,-0.0014060843496085,0.0014060843496084,-5.7902642878712e-17,-1.7220062174215e-17,3.572758501739e-16,-4.3773662744651e-16,-0.0014403994443777,0.0014403994443779,-0.0014403994443777,0.0014403994443779,-0.0014403994443779,0.0014403994443776,-0.0014403994443779,0.0014403994443776,-0.0013824272309264,0.001382427230926,-0.0013824272309264,0.0013824272309261,-3.4932756357684e-16,4.5221412634532e-16,4.0101716096571e-17,6.1983400567307e-17,-0.0014060843496084,0.0014060843496085,-0.0014403994443779,0.0014403994443777,-0.0014403994443779,0.0014403994443777,-0.0014403994443776,0.001440399444378,-0.0014403994443776,0.001440399444378,-0.0013824272309261,0.0013824272309264,-0.0013824272309261,0.0013824272309265,-0.0013824272309266,0.001382427230926,-0.0013824272309259,0.0013824272309268,3.7425327270177e-18,-3.321957340013e-17,-0.0014060843496085,0.0014060843496085,-3.1175518197554e-18,-2.5484515583189e-17,-0.0014403994443778,0.0014403994443778,-0.0014403994443778,0.0014403994443778,-0.0014403994443778,0.0014403994443778,-0.0014403994443778,0.0014403994443778,-0.0013824272309264,0.0013824272309263,-0.0013824272309263,0.0013824272309263,0.69589221763417,0.79978099776202,1270536,32768,0.00584154379475,0.0058415437947502,0.0058415437947502,29.124396713891,29.122692087059,0.00014819517371113,0.00014819517371113,0.00014819517371113,335747.88623741,0.017679316088259
33177600,0.99999481826645,0.017088436455878,0.0056961454852925,0.0056961454852927,0.0056961454852927,-0.0014064047093845,0.0014064047093844,-6.0858434934235e-17,-1.9940567299945e-17,3.5477592654485e-16,-4.4003067501199e-16,-0.0014405843968612,0.0014405843968614,-0.0014405843968612,0.0014405843968614,-0.0014405843968614,0.0014405843968611,-0.0014405843968614,0.0014405843968611,-0.0013828579616631,0.0013828579616627,-0.001382857961663,0.0013828579616627,-3.5278334035817e-16,4.48956872911e-16,3.6212129038433e-17,5.8409980321078e-17,-0.0014064047093845,0.0014064047093846,-0.0014405843968614,0.0014405843968612,-0.0014405843968614,0.0014405843968612,-0.0014405843968612,0.0014405843968615,-0.0014405843968611,0.0014405843968615,-0.0013828579616628,0.001382857961663,-0.0013828579616628,0.0013828579616631,-0.0013828579616633,0.0013828579616626,-0.0013828579616625,0.0013828579616634,3.0660828038632e-18,-3.4131310253077e-17,-0.0014064047093845,0.0014064047093845,-3.6469474117894e-18,-2.5822740544767e-17,-0.0014405843968613,0.0014405843968613,-0.0014405843968613,0.0014405843968613,-0.0014405843968613,0.0014405843968613,-0.0014405843968614,0.0014405843968613,-0.001382857961663,0.0013828579616629,-0.0013828579616629,0.001382857961663,0.71235241880322,0.82129808892253,1270536,32768,0.0058428708044452,0.0058428708044454,0.0058428708044454,29.098894078326,29.097189587443,0.00014799115262661,0.00014799115262661,0.00014799115262661,323914.50654453,0.017683368299663
33264000,0.9999950057676,0.017088439850482,0.0056961466168272,0.0056961466168273,0.0056961466168274,-0.0014064937593982,0.0014064937593981,-5.7402658152902e-17,-1.6492143235168e-17,3.5829787777519e-16,-4.3658960366377e-16,-0.0014406304333938,0.001440630433394,-0.0014406304333938,0.001440630433394,-0.0014406304333941,0.0014406304333938,-0.0014406304333941,0.0014406304333938,-0.0013829629537464,0.001382962953746,-0.0013829629537464,0.0013829629537461,-3.5068046342315e-16,4.5078769933345e-16,3.8417944005241e-17,6.0630500720998e-17,-0.0014064937593981,0.0014064937593982,-0.001440630433394,0.0014406304333939,-0.0014406304333941,0.0014406304333939,-0.0014406304333938,0.0014406304333941,-0.0014406304333938,0.0014406304333941,-0.0013829629537461,0.0013829629537464,-0.0013829629537462,0.0013829629537465,-0.0013829629537466,0.001382962953746,-0.0013829629537459,0.0013829629537468,2.742563275398e-18,-3.4101899386853e-17,-0.0014064937593982,0.0014064937593982,-3.8675289084702e-18,-2.6263903538128e-17,-0.001440630433394,0.0014406304333939,-0.001440630433394,0.001440630433394,-0.001440630433394,0.0014406304333939,-0.001440630433394,0.0014406304333939,-0.0013829629537464,0.0013829629537463,-0.0013829629537463,0.0013829629537463,0.72646653675094,0.84281518008304,1270536,32768,0.005843239581049,0.0058432395810492,0.0058432395810492,29.082801569487,29.081704623438,0.0001478624125559,0.0001478624125559,0.0001478624125559,319552.86073905,0.017684494583497
33350400,0.99999518774636,0.017088443205348,0.005696147735116,0.0056961477351162,0.0056961477351162,-0.0014068148566061,0.001406814856606,-5.7104873132383e-17,-1.6389205203384e-17,3.5679057088121e-16,-4.3547199074725e-16,-0.0014409235893069,0.0014409235893071,-0.0014409235893069,0.0014409235893071,-0.0014409235893072,0.0014409235893068,-0.0014409235893072,0.0014409235893068,-0.0013832924412914,0.001383292441291,-0.0013832924412914,0.0013832924412911,-3.5334214681643e-16,4.4600843357204e-16,3.486658190868e-17,5.635121968539e-17,-0.001406814856606,0.0014068148566061,-0.0014409235893071,0.001440923589307,-0.0014409235893071,0.0014409235893069,-0.0014409235893069,0.0014409235893072,-0.0014409235893069,0.0014409235893072,-0.0013832924412911,0.0013832924412914,-0.0013832924412911,0.0013832924412914,-0.0013832924412916,0.001383292441291,-0.0013832924412909,0.0013832924412918,5.6762971812528e-18,-3.1278456229339e-17,-0.0014068148566061,0.0014068148566061,-1.102907483404e-18,-2.3190468017709e-17,-0.001440923589307,0.001440923589307,-0.001440923589307,0.001440923589307,-0.001440923589307,0.001440923589307,-0.0014409235893071,0.001440923589307,-0.0013832924412914,0.0013832924412913,-0.0013832924412913,0.0013832924412913,0.73970936362517,0.86433227124355,1270536,32768,0.0058445696149582,0.0058445696149583,0.0058445696149583,29.205063382163,29.21292082576,0.0001488405070573,0.0001488405070573,0.0001488405070573,316041.61003832,0.017688555509858
33436800,0.9999953643996,0.017088446519116,0.0056961488397051,0.0056961488397052,0.0056961488397052,-0.0014071361067469,0.0014071361067468,-5.9784938317055e-17,-1.8903834265545e-17,3.5376125166012e-16,-4.3742781335115e-16,-0.0014412288795168,0.001441228879517,-0.0014412288795168,0.0014412288795169,-0.001441228879517,0.0014412288795167,-0.001441228879517,0.0014412288795167,-0.0013836170249229,0.0013836170249225,-0.0013836170249229,0.0013836170249226,-3.457394378975e-16,4.5238323882611e-16,4.1535495824996e-17,6.3174540649383e-17,-0.0014071361067468,0.0014071361067469,-0.001441228879517,0.0014412288795168,-0.001441228879517,0.0014412288795168,-0.0014412288795167,0.001441228879517,-0.0014412288795167,0.0014412288795171,-0.0013836170249227,0.001383617024923,-0.0013836170249227,0.001383617024923,-0.0013836170249232,0.0013836170249225,-0.0013836170249224,0.0013836170249233,-2.4263964634889e-19,-3.7307683805281e-17,-0.0014071361067469,0.0014071361067468,-7.1468404924582e-18,-2.9131462994979e-17,-0.0014412288795169,0.0014412288795169,-0.0014412288795169,0.0014412288795169,-0.0014412288795169,0.0014412288795169,-0.0014412288795169,0.0014412288795169,-0.0013836170249229,0.0013836170249228,-0.0013836170249229,0.0013836170249229,0.75265121792539,0.88584936240406,1270536,32768,0.0058459002798214,0.0058459002798215,0.0058459002798215,29.335451448215,29.344137028083,0.00014988361158572,0.00014988361158572,0.00014988361158572,313009.80019742,0.017692618402325
33523200,0.9999955358407,0.017088449790311,0.0056961499301036,0.0056961499301037,0.0056961499301037,-0.0014074500706961,0.001407450070696,-5.2380752745136e-17,-1.1440826961178e-17,3.6118749538171e-16,-4.3066331411961e-16,-0.001441532110413,0.0014415321104132,-0.001441532110413,0.0014415321104132,-0.0014415321104133,0.001441532110413,-0.0014415321104133,0.001441532110413,-0.0013839331141426,0.0013839331141422,-0.0013839331141425,0.0013839331141422,-3.4745997357161e-16,4.5124356775993e-16,3.9763491134994e-17,6.1527532140833e-17,-0.0014074500706961,0.0014074500706962,-0.0014415321104133,0.0014415321104131,-0.0014415321104133,0.0014415321104131,-0.001441532110413,0.0014415321104133,-0.001441532110413,0.0014415321104134,-0.0013839331141423,0.0013839331141426,-0.0013839331141423,0.0013839331141426,-0.0013839331141428,0.0013839331141421,-0.001383933114142,0.0013839331141429,2.3749274475967e-18,-3.444012434843e-17,-0.0014074500706961,0.0014074500706961,-5.3674830858996e-18,-2.7293283855972e-17,-0.0014415321104132,0.0014415321104132,-0.0014415321104132,0.0014415321104132,-0.0014415321104132,0.0014415321104132,-0.0014415321104132,0.0014415321104132,-0.0013839331141425,0.0013839331141424,-0.0013839331141425,0.0013839331141425,0.76555207298246,0.90736645356456,1270536,32768,0.0058472007669057,0.0058472007669059,0.0058472007669059,29.466582766148,29.475353230405,0.00015093266212918,0.00015093266212918,0.00015093266212918,310160.47412504,0.017696589160627
33609600,0.99999570217529,0.017088452964853,0.0056961509882841,0.0056961509882843,0.0056961509882843,-0.0014077584742097,0.0014077584742096,-5.6873262560868e-17,-1.597010035969e-17,3.5701850509444e-16,-4.3461907562675e-16,-0.0014418328538732,0.0014418328538734,-0.0014418328538732,0.0014418328538734,-0.0014418328538735,0.0014418328538732,-0.0014418328538735,0.0014418328538732,-0.0013842431858091,0.0013842431858087,-0.0013842431858091,0.0013842431858088,-3.505039982258e-16,4.4783190727793e-16,3.7028280576152e-17,5.9101135677344e-17,-0.0014077584742097,0.0014077584742097,-0.0014418328538734,0.0014418328538733,-0.0014418328538735,0.0014418328538733,-0.0014418328538732,0.0014418328538735,-0.0014418328538732,0.0014418328538735,-0.0013842431858088,0.0013842431858091,-0.0013842431858089,0.0013842431858092,-0.0013842431858093,0.0013842431858087,-0.0013842431858086,0.0013842431858095,2.999908354859e-18,-3.4057783087517e-17,-0.0014077584742097,0.0014077584742097,-4.2792810356077e-18,-2.6866826295722e-17,-0.0014418328538733,0.0014418328538733,-0.0014418328538734,0.0014418328538733,-0.0014418328538734,0.0014418328538733,-0.0014418328538734,0.0014418328538733,-0.0013842431858091,0.001384243185809,-0.001384243185809,0.0013842431858091,0.76570876870888,0.85812931190057,1270536,32768,0.0058484782241493,0.0058484782241495,0.0058484782241495,29.597787216045,29.606569432728,0.00015198229772836,0.00015198229772836,0.00015198229772836,307401.19247875,0.017700489607438
33696000,0.99999586350783,0.017088456120128,0.0056961520400427,0.0056961520400429,0.0056961520400429,-0.0014079444589563,0.0014079444589562,-5.7946759178048e-17,-1.7036244260314e-17,3.5618029540706e-16,-4.3628078956841e-16,-0.0014420538564497,0.0014420538564498,-0.0014420538564496,0.0014420538564498,-0.0014420538564499,0.0014420538564496,-0.0014420538564499,0.0014420538564496,-0.0013843941725256,0.0013843941725252,-0.0013843941725256,0.0013843941725253,-3.4657764758488e-16,4.5274352193736e-16,4.0623758972049e-17,6.3321594980504e-17,-0.0014079444589562,0.0014079444589563,-0.0014420538564499,0.0014420538564497,-0.0014420538564499,0.0014420538564497,-0.0014420538564496,0.00144205385645,-0.0014420538564496,0.00144205385645,-0.0013843941725253,0.0013843941725256,-0.0013843941725253,0.0013843941725257,-0.0013843941725258,0.0013843941725252,-0.0013843941725251,0.001384394172526,6.2498090726229e-19,-3.6366536086109e-17,-0.0014079444589563,0.0014079444589563,-5.6615917481407e-18,-2.8822648899626e-17,-0.0014420538564498,0.0014420538564498,-0.0014420538564498,0.0014420538564498,-0.0014420538564498,0.0014420538564498,-0.0014420538564498,0.0014420538564498,-0.0013843941725256,0.0013843941725255,-0.0013843941725255,0.0013843941725255,0.78465290720277,0.94143566578773,1270536,32768,0.0058492485916991,0.0058492485916993,0.0058492485916993,29.728998993067,29.73778563505,0.00015303199194453,0.00015303199194453,0.00015303199194453,308384.67133208,0.01770284159704
33782400,0.99999601994219,0.017088459198931,0.0056961530663103,0.0056961530663105,0.0056961530663105,-0.001408325057841,0.0014083250578409,-5.9531269595872e-17,-1.8822954383429e-17,3.5261422787738e-16,-4.3572198311016e-16,-0.0014424009295603,0.0014424009295605,-0.0014424009295603,0.0014424009295605,-0.0014424009295606,0.0014424009295602,-0.0014424009295606,0.0014424009295602,-0.0013848080040329,0.0013848080040325,-0.0013848080040329,0.0013848080040326,-3.4632765522198e-16,4.4875099684743e-16,3.8579703769473e-17,6.1351066943489e-17,-0.001408325057841,0.0014083250578411,-0.0014424009295605,0.0014424009295604,-0.0014424009295605,0.0014424009295604,-0.0014424009295603,0.0014424009295606,-0.0014424009295603,0.0014424009295606,-0.0013848080040326,0.0013848080040329,-0.0013848080040326,0.001384808004033,-0.0013848080040331,0.0013848080040325,-0.0013848080040323,0.0013848080040332,-4.7057385958572e-19,-3.7366505537729e-17,-0.001408325057841,0.001408325057841,-6.1321656077264e-18,-2.9102052128755e-17,-0.0014424009295604,0.0014424009295604,-0.0014424009295605,0.0014424009295604,-0.0014424009295605,0.0014424009295604,-0.0014424009295605,0.0014424009295604,-0.0013848080040328,0.0013848080040328,-0.0013848080040328,0.0013848080040328,0.78961215248247,0.9123616557077,1270536,32768,0.0058508251390431,0.0058508251390433,0.0058508251390433,29.860211507689,29.869001837372,0.00015408169206151,0.00015408169206151,0.00015408169206151,303415.91033895,0.017707655321046
33868800,0.99999617158166,0.017088462128955,0.0056961540429848,0.0056961540429849,0.0056961540429849,-0.0014085514317368,0.0014085514317367,-5.4527745979496e-17,-1.3801048975663e-17,3.5754790068648e-16,-4.3054567065471e-16,-0.0014426472095996,0.0014426472095998,-0.0014426472095996,0.0014426472095997,-0.0014426472095998,0.0014426472095995,-0.0014426472095998,0.0014426472095995,-0.001385013068379,0.0013850130683787,-0.001385013068379,0.0013850130683787,-3.4709233774381e-16,4.4759662034814e-16,3.8123835343e-17,6.0439330090541e-17,-0.0014085514317368,0.0014085514317369,-0.0014426472095998,0.0014426472095996,-0.0014426472095998,0.0014426472095996,-0.0014426472095995,0.0014426472095999,-0.0014426472095995,0.0014426472095999,-0.0013850130683788,0.0013850130683791,-0.0013850130683788,0.0013850130683791,-0.0013850130683793,0.0013850130683786,-0.0013850130683785,0.0013850130683794,7.9482865970651e-18,-2.899911409697e-17,-0.0014085514317368,0.0014085514317368,9.2644228605939e-19,-2.2028738801857e-17,-0.0014426472095997,0.0014426472095997,-0.0014426472095997,0.0014426472095997,-0.0014426472095997,0.0014426472095997,-0.0014426472095997,0.0014426472095997,-0.001385013068379,0.0013850130683789,-0.0013850130683789,0.001385013068379,0.77515061088173,0.79912606441466,1270536,32768,0.0058517628088992,0.0058517628088993,0.0058517628088993,29.99142409637,30.000218039695,0.00015513139277096,0.00015513139277096,0.00015513139277096,303030.81002678,0.017710518206342
33955200,0.99999631852891,0.017088464940406,0.0056961549801352,0.0056961549801353,0.0056961549801354,-0.001408607815481,0.0014086078154809,-5.8001904552218e-17,-1.7190651307991e-17,3.5427594181904e-16,-4.3426614523206e-16,-0.001442782017889,0.0014427820178892,-0.001442782017889,0.0014427820178892,-0.0014427820178893,0.001442782017889,-0.0014427820178893,0.001442782017889,-0.0013850004553971,0.0013850004553967,-0.0013850004553971,0.0013850004553968,-3.4822465609343e-16,4.4711134105544e-16,3.7748846798642e-17,6.0277570326309e-17,-0.0014086078154809,0.001408607815481,-0.0014427820178892,0.0014427820178891,-0.0014427820178893,0.0014427820178891,-0.001442782017889,0.0014427820178893,-0.001442782017889,0.0014427820178893,-0.0013850004553968,0.0013850004553971,-0.0013850004553968,0.0013850004553972,-0.0013850004553973,0.0013850004553967,-0.0013850004553966,0.0013850004553975,2.8896176065186e-18,-3.4307775450422e-17,-0.001408607815481,0.001408607815481,-3.9116452078063e-18,-2.6749182830826e-17,-0.0014427820178891,0.0014427820178891,-0.0014427820178892,0.0014427820178892,-0.0014427820178892,0.0014427820178891,-0.0014427820178892,0.0014427820178891,-0.0013850004553971,0.001385000455397,-0.001385000455397,0.001385000455397,0.76751444513964,0.77434335722282,1270536,32768,0.0058519963581553,0.0058519963581555,0.0058519963581555,30.122636692169,30.131434242017,0.00015618109353735,0.00015618109353735,0.00015618109353735,307961.50371778,0.017711230915222
34041600,0.99999646098097,0.017088467639471,0.0056961558798235,0.0056961558798237,0.0056961558798237,-0.0014087942723623,0.0014087942723622,-5.6535037599291e-17,-1.5617169965001e-17,3.5651116765208e-16,-4.3326617578044e-16,-0.0014430049880439,0.0014430049880441,-0.0014430049880439,0.0014430049880441,-0.0014430049880442,0.0014430049880439,-0.0014430049880442,0.0014430049880439,-0.0013851659095094,0.001385165909509,-0.0013851659095093,0.001385165909509,-3.4678352364845e-16,4.4966273370038e-16,3.991789818267e-17,6.2262803796436e-17,-0.0014087942723622,0.0014087942723623,-0.0014430049880441,0.001443004988044,-0.0014430049880442,0.001443004988044,-0.0014430049880439,0.0014430049880442,-0.0014430049880439,0.0014430049880442,-0.0013851659095091,0.0013851659095094,-0.0013851659095091,0.0013851659095094,-0.0013851659095096,0.0013851659095089,-0.0013851659095088,0.0013851659095097,8.7129691188919e-18,-2.8263842441367e-17,-0.0014087942723623,0.0014087942723623,1.9264117376791e-18,-2.0734660687996e-17,-0.0014430049880441,0.0014430049880441,-0.0014430049880441,0.0014430049880441,-0.0014430049880441,0.001443004988044,-0.0014430049880441,0.001443004988044,-0.0013851659095093,0.0013851659095093,-0.0013851659095093,0.0013851659095093,0.76011153648682,0.75098643361818,1270536,32768,0.0058527687703548,0.005852768770355,0.005852768770355,30.265685518823,30.275253776393,0.00015732548415058,0.00015732548415058,0.00015732548415058,309889.19456674,0.017713588965898
34128000,0.99999660002095,0.017088470246759,0.0056961567489194,0.0056961567489196,0.0056961567489196,-0.0014092391144186,0.0014092391144186,-5.8031315418442e-17,-1.6690666582181e-17,3.5573913241369e-16,-4.3554551791281e-16,-0.0014434743398624,0.0014434743398626,-0.0014434743398624,0.0014434743398626,-0.0014434743398627,0.0014434743398624,-0.0014434743398627,0.0014434743398624,-0.0013855984584779,0.0013855984584775,-0.0013855984584779,0.0013855984584776,-3.4557767813327e-16,4.5239794425922e-16,4.095463121707e-17,6.4483324196356e-17,-0.0014092391144186,0.0014092391144187,-0.0014434743398626,0.0014434743398625,-0.0014434743398627,0.0014434743398625,-0.0014434743398624,0.0014434743398627,-0.0014434743398624,0.0014434743398628,-0.0013855984584776,0.0013855984584779,-0.0013855984584776,0.001385598458478,-0.0013855984584781,0.0013855984584775,-0.0013855984584774,0.0013855984584783,4.110168554819e-18,-3.2925464737889e-17,-0.0014092391144187,0.0014092391144186,-2.455807329713e-18,-2.6366841569913e-17,-0.0014434743398626,0.0014434743398626,-0.0014434743398626,0.0014434743398626,-0.0014434743398626,0.0014434743398626,-0.0014434743398626,0.0014434743398625,-0.0013855984584779,0.0013855984584778,-0.0013855984584778,0.0013855984584778,0.75228474423239,0.72762951001354,1270536,32768,0.0058546115181052,0.0058546115181053,0.0058546115181053,30.535933519722,30.553782449215,0.00015948746815777,0.00015948746815777,0.00015948746815777,311454.92056507,0.017719214869549
34214400,0.99999673569914,0.017088472744198,0.0056961575813994,0.0056961575813995,0.0056961575813995,-0.0014097025972852,0.0014097025972851,-6.1115780013696e-17,-2.0058210764841e-17,3.5405536032236e-16,-4.3813367414053e-16,-0.0014439607939156,0.0014439607939158,-0.0014439607939156,0.0014439607939158,-0.0014439607939159,0.0014439607939156,-0.0014439607939159,0.0014439607939156,-0.001386050077874,0.0013860500778736,-0.001386050077874,0.0013860500778737,-3.5093045578605e-16,4.4807454692428e-16,3.5918020376191e-17,5.9145251976681e-17,-0.0014097025972852,0.0014097025972853,-0.0014439607939159,0.0014439607939157,-0.0014439607939159,0.0014439607939157,-0.0014439607939156,0.0014439607939159,-0.0014439607939156,0.001443960793916,-0.0013860500778737,0.001386050077874,-0.0013860500778737,0.0013860500778741,-0.0013860500778742,0.0013860500778736,-0.0013860500778735,0.0013860500778744,1.5881867761018e-18,-3.5645969863618e-17,-0.0014097025972852,0.0014097025972852,-4.8380874938657e-18,-2.7999144645351e-17,-0.0014439607939158,0.0014439607939158,-0.0014439607939158,0.0014439607939158,-0.0014439607939158,0.0014439607939158,-0.0014439607939158,0.0014439607939158,-0.001386050077874,0.0013860500778739,-0.0013860500778739,0.0013860500778739,0.73844655541518,0.67431668349713,1270536,32768,0.0058565314713193,0.0058565314713194,0.0058565314713194,30.8136817624,30.832311122036,0.0001617094540992,0.0001617094540992,0.0001617094540992,313121.10720917,0.017725076573251
34300800,0.99999686801167,0.01708847511856,0.0056961583728533,0.0056961583728534,0.0056961583728534,-0.0014101115153264,0.0014101115153264,-5.7093844057549e-17,-1.585980961135e-17,3.5780524576594e-16,-4.362660841353e-16,-0.0014444098579319,0.0014444098579321,-0.0014444098579319,0.0014444098579321,-0.0014444098579322,0.0014444098579318,-0.0014444098579322,0.0014444098579319,-0.0013864305654296,0.0013864305654292,-0.0013864305654296,0.0013864305654293,-3.4431301088563e-16,4.565154655306e-16,4.3667783626244e-17,6.6218565303578e-17,-0.0014101115153264,0.0014101115153265,-0.0014444098579321,0.001444409857932,-0.0014444098579321,0.001444409857932,-0.0014444098579319,0.0014444098579322,-0.0014444098579319,0.0014444098579322,-0.0013864305654293,0.0013864305654296,-0.0013864305654293,0.0013864305654297,-0.0013864305654298,0.0013864305654292,-0.001386430565429,0.00138643056543,5.7865879295932e-18,-3.1631386624028e-17,-0.0014101115153265,0.0014101115153264,-1.64700850855e-18,-2.4425724399121e-17,-0.001444409857932,0.001444409857932,-0.0014444098579321,0.001444409857932,-0.001444409857932,0.001444409857932,-0.0014444098579321,0.001444409857932,-0.0013864305654295,0.0013864305654295,-0.0013864305654295,0.0013864305654295,0.71991240237977,0.61110028707412,1270536,32768,0.0058582254020118,0.0058582254020119,0.0058582254020119,31.092118540687,31.110839794858,0.0001639369483255,0.0001639369483255,0.0001639369483255,316672.07805976,0.01773024809269
34387200,0.99999699695317,0.017088477432422,0.0056961591441405,0.0056961591441407,0.0056961591441407,-0.0014104864099528,0.0014104864099527,-5.84063039628e-17,-1.7624461584797e-17,3.5716555942556e-16,-4.3773662744651e-16,-0.0014448336872135,0.0014448336872136,-0.0014448336872135,0.0014448336872136,-0.0014448336872137,0.0014448336872134,-0.0014448336872137,0.0014448336872134,-0.0013867708824305,0.0013867708824301,-0.0013867708824305,0.0013867708824302,-3.4807760176231e-16,4.5350820445918e-16,3.9697316685989e-17,6.3630409075857e-17,-0.0014104864099527,0.0014104864099529,-0.0014448336872137,0.0014448336872135,-0.0014448336872137,0.0014448336872135,-0.0014448336872134,0.0014448336872137,-0.0014448336872134,0.0014448336872138,-0.0013867708824302,0.0013867708824306,-0.0013867708824303,0.0013867708824306,-0.0013867708824307,0.0013867708824301,-0.00138677088243,0.0013867708824309,-2.3528692979286e-19,-3.7351800104617e-17,-0.0014104864099528,0.0014104864099528,-5.1321961561068e-18,-2.9440277090332e-17,-0.0014448336872136,0.0014448336872136,-0.0014448336872136,0.0014448336872136,-0.0014448336872136,0.0014448336872135,-0.0014448336872136,0.0014448336872136,-0.0013867708824305,0.0013867708824304,-0.0013867708824304,0.0013867708824304,0.7199460920701,0.66690379671628,1270536,32768,0.0058597784151104,0.0058597784151106,0.0058597784151106,31.370623336428,31.389368467679,0.00016616498669142,0.00016616498669142,0.00016616498669142,321530.89393365,0.017734989276733
34473600,0.99999712252141,0.017088479706513,0.005696159902171,0.0056961599021712,0.0056961599021712,-0.0014110907361887,0.0014110907361887,-5.8428362112468e-17,-1.7337705639111e-17,3.5767289686793e-16,-4.382219067392e-16,-0.0014454045749031,0.0014454045749033,-0.0014454045749031,0.0014454045749033,-0.0014454045749034,0.001445404574903,-0.0014454045749034,0.001445404574903,-0.0013874159156799,0.0013874159156795,-0.0013874159156799,0.0013874159156795,-3.4409242938895e-16,4.5897862557687e-16,4.5255970402346e-17,6.7997922710137e-17,-0.0014110907361887,0.0014110907361888,-0.0014454045749033,0.0014454045749032,-0.0014454045749033,0.0014454045749031,-0.001445404574903,0.0014454045749034,-0.001445404574903,0.0014454045749034,-0.0013874159156796,0.0013874159156799,-0.0013874159156796,0.0013874159156799,-0.0013874159156801,0.0013874159156795,-0.0013874159156794,0.0013874159156803,3.6469474117894e-18,-3.3675441826603e-17,-0.0014110907361888,0.0014110907361887,-1.9705280370152e-18,-2.5087468889164e-17,-0.0014454045749032,0.0014454045749032,-0.0014454045749032,0.0014454045749032,-0.0014454045749032,0.0014454045749032,-0.0014454045749033,0.0014454045749032,-0.0013874159156798,0.0013874159156798,-0.0013874159156798,0.0013874159156798,0.72663150875782,0.72270730635844,1270536,32768,0.0058622818033431,0.0058622818033433,0.0058622818033433,31.649134973848,31.667897140501,0.00016839307979079,0.00016839307979079,0.00016839307979079,319445.91874443,0.017742632644855
34560000,0.99999724471772,0.017088481953672,0.005696160651224,0.0056961606512242,0.0056961606512242,-0.0014117341977914,0.0014117341977913,-5.6630622914519e-17,-1.5631875398113e-17,3.6019487864665e-16,-4.3608961893796e-16,-0.0014460014063733,0.0014460014063735,-0.0014460014063733,0.0014460014063735,-0.0014460014063736,0.0014460014063733,-0.0014460014063736,0.0014460014063733,-0.0013881014462862,0.0013881014462859,-0.0013881014462862,0.0013881014462859,-3.5487151186008e-16,4.4830983385407e-16,3.3646030960379e-17,5.7042375041657e-17,-0.0014117341977913,0.0014117341977914,-0.0014460014063736,0.0014460014063734,-0.0014460014063736,0.0014460014063734,-0.0014460014063733,0.0014460014063736,-0.0014460014063733,0.0014460014063737,-0.001388101446286,0.0013881014462863,-0.001388101446286,0.0013881014462863,-0.0013881014462865,0.0013881014462858,-0.0013881014462857,0.0013881014462866,5.8012933627052e-18,-3.1366688828011e-17,-0.0014117341977914,0.0014117341977914,-1.0587911840679e-18,-2.4749243927587e-17,-0.0014460014063735,0.0014460014063735,-0.0014460014063735,0.0014460014063735,-0.0014460014063735,0.0014460014063735,-0.0014460014063735,0.0014460014063735,-0.0013881014462862,0.0013881014462861,-0.0013881014462861,0.0013881014462862,0.73783818121123,0.7785108160006,1270536,32768,0.0058649472437849,0.0058649472437851,0.0058649472437851,31.927647300223,31.946425813322,0.00017062117840178,0.00017062117840178,0.00017062117840178,316016.8246606,0.017750771015685
34646400,0.999997363547,0.017088484182332,0.0056961613941106,0.0056961613941108,0.0056961613941108,-0.0014123932991051,0.0014123932991051,-6.01452214283e-17,-1.9183237494674e-17,3.5540090745212e-16,-4.4116299336162e-16,-0.0014466116474872,0.0014466116474874,-0.0014466116474872,0.0014466116474874,-0.0014466116474875,0.0014466116474872,-0.0014466116474875,0.0014466116474872,-0.0013887982699776,0.0013887982699772,-0.0013887982699776,0.0013887982699773,-3.4969519940464e-16,4.5336115012806e-16,3.8520882037025e-17,6.2615734191125e-17,-0.0014123932991051,0.0014123932991052,-0.0014466116474875,0.0014466116474873,-0.0014466116474875,0.0014466116474873,-0.0014466116474872,0.0014466116474875,-0.0014466116474872,0.0014466116474875,-0.0013887982699774,0.0013887982699777,-0.0013887982699774,0.0013887982699777,-0.0013887982699778,0.0013887982699772,-0.0013887982699771,0.001388798269978,-2.6469779601697e-19,-3.7337094671505e-17,-0.0014123932991052,0.0014123932991051,-5.191017888555e-18,-2.9587331421452e-17,-0.0014466116474874,0.0014466116474874,-0.0014466116474874,0.0014466116474874,-0.0014466116474874,0.0014466116474873,-0.0014466116474874,0.0014466116474873,-0.0013887982699776,0.0013887982699775,-0.0013887982699775,0.0013887982699775,0.75248764287996,0.83431432564276,1270536,32768,0.0058676774234902,0.0058676774234904,0.0058676774234904,32.206159693032,32.224954486144,0.00017284927754425,0.00017284927754425,0.00017284927754425,311946.24090932,0.017759107217072
34732800,0.9999974797661,0.01708848641264,0.0056961621375464,0.0056961621375466,0.0056961621375466,-0.0014132839045364,0.0014132839045363,-6.1549590290501e-17,-2.0683191672104e-17,3.5568031068125e-16,-4.4108946619605e-16,-0.0014474523635056,0.0014474523635058,-0.0014474523635057,0.0014474523635058,-0.0014474523635059,0.0014474523635056,-0.0014474523635059,0.0014474523635056,-0.0013897234958983,0.0013897234958979,-0.0013897234958983,0.0013897234958979,-3.4948932334107e-16,4.5428023969757e-16,3.8792932549598e-17,6.5703875144657e-17,-0.0014132839045364,0.0014132839045365,-0.0014474523635059,0.0014474523635057,-0.0014474523635059,0.0014474523635057,-0.0014474523635056,0.001447452363506,-0.0014474523635056,0.001447452363506,-0.001389723495898,0.0013897234958983,-0.001389723495898,0.0013897234958983,-0.0013897234958984,0.0013897234958978,-0.0013897234958977,0.0013897234958986,-1.7499465403344e-18,-3.8689994517814e-17,-0.0014132839045364,0.0014132839045364,-5.2792504872273e-18,-3.2837232139216e-17,-0.0014474523635058,0.0014474523635058,-0.0014474523635058,0.0014474523635058,-0.0014474523635058,0.0014474523635058,-0.0014474523635058,0.0014474523635058,-0.0013897234958982,0.0013897234958981,-0.0013897234958981,0.0013897234958981,0.76992831451389,0.89011783528492,1270536,32768,0.0058713665334442,0.0058713665334443,0.0058713665334443,32.601629587374,32.628077333204,0.00017601303669899,0.00017601303669899,0.00017601303669899,307427.1848612,0.017770371404685
34819200,0.99999759361094,0.017088488597915,0.0056961628659715,0.0056961628659716,0.0056961628659716,-0.0014142680592706,0.0014142680592706,-4.920805555121e-17,-8.6173838036635e-18,3.6829757229139e-16,-4.2966334466799e-16,-0.0014483921736056,0.0014483921736057,-0.0014483921736055,0.0014483921736057,-0.0014483921736058,0.0014483921736055,-0.0014483921736058,0.0014483921736055,-0.0013907362482182,0.0013907362482178,-0.0013907362482182,0.0013907362482179,-3.5760672241893e-16,4.4696428672432e-16,2.8668241851949e-17,5.4586567711944e-17,-0.0014142680592706,0.0014142680592707,-0.0014483921736058,0.0014483921736056,-0.0014483921736058,0.0014483921736056,-0.0014483921736055,0.0014483921736059,-0.0014483921736055,0.0014483921736059,-0.001390736248218,0.0013907362482183,-0.001390736248218,0.0013907362482183,-0.0013907362482184,0.0013907362482177,-0.0013907362482177,0.0013907362482185,3.0513773707512e-18,-3.3954845055732e-17,-0.0014142680592707,0.0014142680592706,-8.5291512049912e-19,-2.7263872989748e-17,-0.0014483921736057,0.0014483921736057,-0.0014483921736057,0.0014483921736057,-0.0014483921736057,0.0014483921736057,-0.0014483921736057,0.0014483921736057,-0.0013907362482181,0.0013907362482181,-0.0013907362482181,0.0013907362482181,0.77007097022586,0.83758763975058,1270536,32768,0.0058754431095969,0.005875443109597,0.005875443109597,33.045180413504,33.075063064154,0.00017956144330803,0.00017956144330803,0.00017956144330803,302767.31103155,0.017782818860796
34905600,0.99999770501055,0.017088490730019,0.0056961635766728,0.0056961635766729,0.0056961635766729,-0.0014150760470072,0.0014150760470071,-5.6928407935038e-17,-1.6749488314629e-17,3.6059927805723e-16,-4.3798661980941e-16,-0.001449223208563,0.0014492232085632,-0.001449223208563,0.0014492232085632,-0.0014492232085633,0.0014492232085629,-0.0014492232085633,0.0014492232085629,-0.0013915128651185,0.0013915128651181,-0.0013915128651184,0.0013915128651181,-3.5644499320307e-16,4.4930245058914e-16,3.2616650642535e-17,5.7512948901243e-17,-0.0014150760470072,0.0014150760470073,-0.0014492232085632,0.001449223208563,-0.0014492232085632,0.001449223208563,-0.001449223208563,0.0014492232085633,-0.0014492232085629,0.0014492232085633,-0.0013915128651182,0.0013915128651185,-0.0013915128651182,0.0013915128651185,-0.0013915128651187,0.001391512865118,-0.001391512865118,0.0013915128651188,4.6763277296331e-18,-3.1969611585605e-17,-0.0014150760470072,0.0014150760470072,7.3527165560269e-20,-2.4866887392483e-17,-0.0014492232085631,0.0014492232085631,-0.0014492232085631,0.0014492232085631,-0.0014492232085631,0.0014492232085631,-0.0014492232085631,0.0014492232085631,-0.0013915128651184,0.0013915128651184,-0.0013915128651184,0.0013915128651184,0.76778386198325,0.80613688129707,1270536,32768,0.0058787899426016,0.0058787899426018,0.0058787899426018,33.491803882047,33.522048795105,0.00018313443105638,0.00018313443105638,0.00018313443105638,303611.53840794,0.017793037940554
34992000,0.99999781388028,0.017088492785608,0.0056961642618691,0.0056961642618692,0.0056961642618692,-0.0014158820609089,0.0014158820609088,-5.7229869313836e-17,-1.6786251897409e-17,3.585478701381e-16,-4.3975127178286e-16,-0.0014500539923017,0.0014500539923018,-0.0014500539923017,0.0014500539923018,-0.0014500539923019,0.0014500539923016,-0.0014500539923019,0.0014500539923016,-0.0013922950128031,0.0013922950128027,-0.0013922950128031,0.0013922950128028,-3.4763643876895e-16,4.5794924525902e-16,4.030759216014e-17,6.6630317430716e-17,-0.0014158820609089,0.001415882060909,-0.0014500539923018,0.0014500539923017,-0.0014500539923019,0.0014500539923017,-0.0014500539923016,0.0014500539923019,-0.0014500539923016,0.001450053992302,-0.0013922950128028,0.0013922950128032,-0.0013922950128028,0.0013922950128032,-0.0013922950128033,0.0013922950128027,-0.0013922950128026,0.0013922950128035,-1.1984927986324e-18,-3.7484149002625e-17,-0.0014158820609089,0.0014158820609089,-4.5439788316246e-18,-3.1131401898218e-17,-0.0014500539923018,0.0014500539923017,-0.0014500539923018,0.0014500539923018,-0.0014500539923018,0.0014500539923017,-0.0014500539923018,0.0014500539923017,-0.0013922950128031,0.001392295012803,-0.001392295012803,0.001392295012803,0.75742715833161,0.74465079368024,1270536,32768,0.0058821286273404,0.0058821286273406,0.0058821286273406,33.938715602012,33.969034526055,0.0001867097248161,0.0001867097248161,0.0001867097248161,304633.1659392,0.017803232183423
35078400,0.99999792013936,0.017088494764059,0.0056961649213529,0.0056961649213531,0.0056961649213531,-0.0014166223870465,0.0014166223870464,-6.234736003683e-17,-2.1889037187292e-17,3.5418770922037e-16,-4.4479523534029e-16,-0.0014508401359511,0.0014508401359513,-0.0014508401359511,0.0014508401359513,-0.0014508401359514,0.001450840135951,-0.0014508401359514,0.001450840135951,-0.0013929966780808,0.0013929966780804,-0.0013929966780808,0.0013929966780805,-3.5328332508398e-16,4.5184649051752e-16,3.6645939315238e-17,6.171870277129e-17,-0.0014166223870465,0.0014166223870465,-0.0014508401359513,0.0014508401359511,-0.0014508401359513,0.0014508401359512,-0.001450840135951,0.0014508401359514,-0.001450840135951,0.0014508401359514,-0.0013929966780805,0.0013929966780808,-0.0013929966780805,0.0013929966780809,-0.001392996678081,0.0013929966780804,-0.0013929966780803,0.0013929966780812,3.7425327270177e-18,-3.2851937572328e-17,-0.0014166223870465,0.0014166223870465,-2.735210558842e-18,-2.7910912046678e-17,-0.0014508401359512,0.0014508401359512,-0.0014508401359512,0.0014508401359512,-0.0014508401359512,0.0014508401359512,-0.0014508401359513,0.0014508401359512,-0.0013929966780808,0.0013929966780807,-0.0013929966780807,0.0013929966780807,0.74691349119805,0.70622966914048,1270536,32768,0.0058851952344356,0.0058851952344357,0.0058851952344358,34.385656100666,34.416020257006,0.00019028524880532,0.00019028524880532,0.00019028524880532,307779.19062993,0.017812595578118
35164800,0.9999980237128,0.017088496661262,0.005696165553754,0.0056961655537542,0.0056961655537542,-0.0014173844434179,0.0014173844434178,-6.8872895980304e-17,-2.8263842441367e-17,3.474452681385e-16,-4.4878040771366e-16,-0.0014516375314111,0.0014516375314112,-0.0014516375314111,0.0014516375314112,-0.0014516375314114,0.001451637531411,-0.0014516375314113,0.001451637531411,-0.0013937343708021,0.0013937343708017,-0.0013937343708021,0.0013937343708017,-3.5123926988141e-16,4.5148620740628e-16,3.8219420658228e-17,6.1983400567307e-17,-0.0014173844434179,0.001417384443418,-0.0014516375314113,0.0014516375314111,-0.0014516375314113,0.0014516375314111,-0.001451637531411,0.0014516375314114,-0.001451637531411,0.0014516375314114,-0.0013937343708018,0.0013937343708021,-0.0013937343708018,0.0013937343708021,-0.0013937343708023,0.0013937343708016,-0.0013937343708015,0.0013937343708024,8.0879882116296e-19,-3.616066002254e-17,-0.0014173844434179,0.0014173844434179,-4.9410255256501e-18,-2.8763827167177e-17,-0.0014516375314112,0.0014516375314112,-0.0014516375314112,0.0014516375314112,-0.0014516375314112,0.0014516375314112,-0.0014516375314113,0.0014516375314112,-0.001393734370802,0.0013937343708019,-0.001393734370802,0.001393734370802,0.73482725107624,0.66780854460072,1270536,32768,0.0058883518719789,0.0058883518719791,0.0058883518719791,34.832599506838,34.863005987957,0.0001938607960547,0.0001938607960547,0.0001938607960547,310452.99215884,0.01782223395524
35251200,0.9999981245318,0.017088498473947,0.0056961661579822,0.0056961661579824,0.0056961661579824,-0.0014181440126755,0.0014181440126755,-5.4395397081487e-17,-1.4087804921348e-17,3.6168012739096e-16,-4.3423673436584e-16,-0.0014524299813503,0.0014524299813505,-0.0014524299813503,0.0014524299813505,-0.0014524299813506,0.0014524299813503,-0.0014524299813506,0.0014524299813503,-0.001394472601978,0.0013944726019776,-0.0013944726019779,0.0013944726019776,-3.5251864256215e-16,4.5030242004076e-16,3.5366566634489e-17,5.7968817327716e-17,-0.0014181440126755,0.0014181440126756,-0.0014524299813505,0.0014524299813504,-0.0014524299813505,0.0014524299813504,-0.0014524299813503,0.0014524299813506,-0.0014524299813502,0.0014524299813506,-0.0013944726019777,0.001394472601978,-0.0013944726019777,0.0013944726019781,-0.0013944726019782,0.0013944726019776,-0.0013944726019775,0.0013944726019784,1.3734874526658e-17,-2.3234584317045e-17,-0.0014181440126756,0.0014181440126755,7.5291817533716e-18,-1.5837751461682e-17,-0.0014524299813504,0.0014524299813504,-0.0014524299813504,0.0014524299813504,-0.0014524299813504,0.0014524299813504,-0.0014524299813504,0.0014524299813504,-0.0013944726019779,0.0013944726019779,-0.0013944726019779,0.001394472601978,0.7212832895477,0.62938742006096,1270536,32768,0.0058914982106309,0.0058914982106311,0.0058914982106311,35.279543195524,35.309991718907,0.00019743634556419,0.00019743634556419,0.00019743634556419,313371.40468757,0.017831840940446
35337600,0.99999822220366,0.017088500193862,0.0056961667312873,0.0056961667312874,0.0056961667312874,-0.0014187790030606,0.0014187790030606,-5.7336483703898e-17,-1.6874484496082e-17,3.5784936206527e-16,-4.3826602303854e-16,-0.0014530975443438,0.001453097544344,-0.0014530975443438,0.001453097544344,-0.0014530975443441,0.0014530975443438,-0.0014530975443441,0.0014530975443438,-0.0013950870834155,0.0013950870834151,-0.0013950870834155,0.0013950870834151,-3.4682763994779e-16,4.5577284115844e-16,4.3395733113671e-17,6.4292153565899e-17,-0.0014187790030606,0.0014187790030607,-0.001453097544344,0.0014530975443439,-0.001453097544344,0.0014530975443439,-0.0014530975443438,0.0014530975443441,-0.0014530975443438,0.0014530975443441,-0.0013950870834152,0.0013950870834155,-0.0013950870834152,0.0013950870834156,-0.0013950870834157,0.001395087083415,-0.0013950870834149,0.0013950870834158,-8.5585620712153e-18,-4.5439788316246e-17,-0.0014187790030607,0.0014187790030606,-1.5911278627242e-17,-3.701357514304e-17,-0.0014530975443439,0.0014530975443439,-0.001453097544344,0.0014530975443439,-0.001453097544344,0.0014530975443439,-0.001453097544344,0.0014530975443439,-0.0013950870834154,0.0013950870834153,-0.0013950870834154,0.0013950870834154,0.70642722079513,0.5909662955212,1270536,32768,0.005894128516157,0.0058941285161572,0.0058941285161572,35.663523323824,35.689862813927,0.00020050818659059,0.00020050818659059,0.00020050818659059,316618.87242719,0.017839872295885
35424000,0.99999831620555,0.017088501811576,0.0056961672705254,0.0056961672705255,0.0056961672705255,-0.0014192166903915,0.0014192166903914,-5.9310688099191e-17,-1.8764132650981e-17,3.5561413623224e-16,-4.4045713257224e-16,-0.001453567056857,0.0014535670568572,-0.001453567056857,0.0014535670568572,-0.0014535670568573,0.0014535670568569,-0.0014535670568573,0.0014535670568569,-0.0013955050456333,0.0013955050456329,-0.0013955050456332,0.0013955050456329,-3.5312156531975e-16,4.4969214456661e-16,3.6763582780135e-17,5.6248281653606e-17,-0.0014192166903914,0.0014192166903915,-0.0014535670568572,0.0014535670568571,-0.0014535670568573,0.0014535670568571,-0.001453567056857,0.0014535670568573,-0.001453567056857,0.0014535670568573,-0.0013955050456329,0.0013955050456332,-0.0013955050456329,0.0013955050456333,-0.0013955050456334,0.0013955050456328,-0.0013955050456327,0.0013955050456336,1.2940781138607e-18,-3.5793024194739e-17,-0.0014192166903915,0.0014192166903914,-6.0439330090541e-18,-2.5822740544767e-17,-0.0014535670568572,0.0014535670568571,-0.0014535670568572,0.0014535670568572,-0.0014535670568572,0.0014535670568571,-0.0014535670568572,0.0014535670568571,-0.0013955050456332,0.0013955050456331,-0.0013955050456331,0.0013955050456331,0.69039016511731,0.55254517098144,1270536,32768,0.0058959415569103,0.0058959415569105,0.0058959415569105,35.946785404403,35.966370312919,0.00020277428323522,0.00020277428323522,0.00020277428323522,320181.15148586,0.017845408155253
35510400,0.99999840656594,0.017088503382272,0.0056961677940905,0.0056961677940906,0.0056961677940906,-0.0014196401158646,0.0014196401158646,-5.7847497504542e-17,-1.739652737156e-17,3.5676851273154e-16,-4.3901600012726e-16,-0.0014540180625679,0.001454018062568,-0.0014540180625679,0.001454018062568,-0.0014540180625681,0.0014540180625678,-0.0014540180625681,0.0014540180625678,-0.0013959117009037,0.0013959117009033,-0.0013959117009037,0.0013959117009034,-3.5237158823103e-16,4.5055976512022e-16,3.7837079397315e-17,5.7615886933027e-17,-0.0014196401158646,0.0014196401158647,-0.0014540180625681,0.0014540180625679,-0.0014540180625681,0.0014540180625679,-0.0014540180625678,0.0014540180625682,-0.0014540180625678,0.0014540180625682,-0.0013959117009035,0.0013959117009038,-0.0013959117009035,0.0013959117009038,-0.0013959117009039,0.0013959117009033,-0.0013959117009032,0.0013959117009041,4.9998472580983e-18,-3.1969611585605e-17,-0.0014196401158647,0.0014196401158646,-2.3234584317045e-18,-2.2381669196546e-17,-0.001454018062568,0.001454018062568,-0.001454018062568,0.001454018062568,-0.001454018062568,0.001454018062568,-0.001454018062568,0.001454018062568,-0.0013959117009037,0.0013959117009036,-0.0013959117009036,0.0013959117009037,0.69738847687768,0.64701585131699,1270536,32768,0.0058976955357572,0.0058976955357573,0.0058976955357573,36.223914491982,36.242877811911,0.00020499131593586,0.00020499131593586,0.00020499131593586,323938.48800516,0.017850763626301
35596800,0.99999849334749,0.017088504802154,0.0056961682673847,0.0056961682673848,0.0056961682673848,-0.0014203369915271,0.001420336991527,-6.0130515995188e-17,-1.9065594029778e-17,3.558714813117e-16,-4.391924653246e-16,-0.0014546471807628,0.001454647180763,-0.0014546471807628,0.001454647180763,-0.0014546471807631,0.0014546471807627,-0.0014546471807631,0.0014546471807627,-0.0013966759676302,0.0013966759676298,-0.0013966759676302,0.0013966759676298,-3.481805397941e-16,4.5338320827773e-16,4.0910514917734e-17,6.1527532140833e-17,-0.0014203369915271,0.0014203369915272,-0.0014546471807631,0.0014546471807629,-0.0014546471807631,0.0014546471807629,-0.0014546471807628,0.0014546471807631,-0.0014546471807628,0.0014546471807632,-0.0013966759676299,0.0013966759676302,-0.0013966759676299,0.0013966759676302,-0.0013966759676304,0.0013966759676297,-0.0013966759676296,0.0013966759676305,4.4042772170601e-18,-3.264606150876e-17,-0.0014203369915271,0.0014203369915271,-3.4410713482206e-18,-2.4425724399121e-17,-0.001454647180763,0.001454647180763,-0.001454647180763,0.001454647180763,-0.001454647180763,0.0014546471807629,-0.001454647180763,0.0014546471807629,-0.0013966759676301,0.00139667596763,-0.0013966759676301,0.0013966759676301,0.65638911794675,0.42619644272479,1270536,32768,0.005900582162364,0.0059005821623642,0.0059005821623642,36.500470023211,36.519385310903,0.00020720376018569,0.00020720376018569,0.00020720376018569,319147.69762519,0.017859578333041
35683200,0.99999857661824,0.017088506160908,0.0056961687203024,0.0056961687203026,0.0056961687203026,-0.0014204210018993,0.0014204210018992,-5.7535007050911e-17,-1.682301548019e-17,3.5723173387457e-16,-4.3695723949157e-16,-0.0014548724801456,0.0014548724801458,-0.0014548724801456,0.0014548724801458,-0.0014548724801459,0.0014548724801455,-0.0014548724801459,0.0014548724801455,-0.0013966283782118,0.0013966283782114,-0.0013966283782118,0.0013966283782115,-3.4803348546298e-16,4.5253764587379e-16,4.1866368070017e-17,6.1777524503738e-17,-0.0014204210018992,0.0014204210018993,-0.0014548724801458,0.0014548724801457,-0.0014548724801458,0.0014548724801457,-0.0014548724801456,0.0014548724801459,-0.0014548724801456,0.0014548724801459,-0.0013966283782115,0.0013966283782119,-0.0013966283782116,0.0013966283782119,-0.001396628378212,0.0013966283782114,-0.0013966283782113,0.0013966283782122,3.3528387495483e-18,-3.3572503794819e-17,-0.0014204210018993,0.0014204210018993,-4.4704516660644e-18,-2.4528662430906e-17,-0.0014548724801457,0.0014548724801457,-0.0014548724801458,0.0014548724801457,-0.0014548724801457,0.0014548724801457,-0.0014548724801458,0.0014548724801457,-0.0013966283782118,0.0013966283782117,-0.0013966283782117,0.0013966283782118,0.65458809454007,0.51863330302199,1270536,32768,0.0059009302005784,0.0059009302005785,0.0059009302005785,36.776967980052,36.795892809896,0.00020941574384041,0.00020941574384041,0.00020941574384041,333658.98964695,0.017860640055565
35769600,0.99999865644893,0.017088507480131,0.0056961691600437,0.0056961691600438,0.0056961691600438,-0.001421082339004,0.001421082339004,-5.7137960356885e-17,-1.635979433716e-17,3.57025857811e-16,-4.3678077429422e-16,-0.0014554761582741,0.0014554761582743,-0.0014554761582741,0.0014554761582743,-0.0014554761582744,0.001455476158274,-0.0014554761582744,0.001455476158274,-0.0013973576437178,0.0013973576437174,-0.0013973576437178,0.0013973576437175,-3.5203336326946e-16,4.4831718657063e-16,3.6844462662251e-17,5.7439421735682e-17,-0.001421082339004,0.0014210823390041,-0.0014554761582743,0.0014554761582742,-0.0014554761582743,0.0014554761582741,-0.0014554761582741,0.0014554761582744,-0.0014554761582741,0.0014554761582744,-0.0013973576437175,0.0013973576437178,-0.0013973576437175,0.0013973576437178,-0.001397357643718,0.0013973576437174,-0.0013973576437173,0.0013973576437182,-2.6910942595059e-18,-3.9587025937649e-17,-0.0014210823390041,0.001421082339004,-9.3085391599301e-18,-3.0234370478383e-17,-0.0014554761582742,0.0014554761582742,-0.0014554761582743,0.0014554761582742,-0.0014554761582742,0.0014554761582742,-0.0014554761582743,0.0014554761582742,-0.0013973576437177,0.0013973576437177,-0.0013973576437177,0.0013973576437177,0.66307094995028,0.60432253861507,1270536,32768,0.0059036696705277,0.0059036696705279,0.0059036696705279,37.053460050194,37.072400308888,0.00021162768040155,0.00021162768040155,0.00021162768040155,330432.00345178,0.017869005318697
35856000,0.99999873291254,0.017088508773375,0.0056961695911248,0.005696169591125,0.005696169591125,-0.0014218018830003,0.0014218018830002,-6.4538469570526e-17,-2.3749274475967e-17,3.5012900968145e-16,-4.4328057572975e-16,-0.0014561182021602,0.0014561182021604,-0.0014561182021602,0.0014561182021604,-0.0014561182021605,0.0014561182021601,-0.0014561182021604,0.0014561182021601,-0.0013981455278064,0.001398145527806,-0.0013981455278064,0.001398145527806,-3.526951077595e-16,4.4771426381304e-16,3.6256245337769e-17,5.742471630257e-17,-0.0014218018830003,0.0014218018830004,-0.0014561182021604,0.0014561182021602,-0.0014561182021604,0.0014561182021602,-0.0014561182021601,0.0014561182021604,-0.0014561182021601,0.0014561182021605,-0.0013981455278061,0.0013981455278064,-0.0013981455278061,0.0013981455278064,-0.0013981455278066,0.0013981455278059,-0.0013981455278058,0.0013981455278067,-3.2351952846518e-19,-3.6895931678143e-17,-0.0014218018830003,0.0014218018830003,-7.3380111229149e-18,-2.8896176065186e-17,-0.0014561182021603,0.0014561182021603,-0.0014561182021603,0.0014561182021603,-0.0014561182021603,0.0014561182021603,-0.0014561182021603,0.0014561182021603,-0.0013981455278063,0.0013981455278062,-0.0013981455278063,0.0013981455278063,0.67864737708106,0.69001177420815,1270536,32768,0.005906650143706,0.0059066501437062,0.0059066501437062,37.329951512151,37.34890780788,0.00021383961209721,0.00021383961209721,0.00021383961209721,325078.08101673,0.017878106842894
35942400,0.99999880608413,0.017088510049123,0.0056961700163741,0.0056961700163743,0.0056961700163743,-0.0014225434786038,0.0014225434786037,-6.0512857256102e-17,-1.9903803717165e-17,3.5477592654485e-16,-4.411482879285e-16,-0.0014567799652339,0.0014567799652341,-0.0014567799652339,0.0014567799652341,-0.0014567799652342,0.0014567799652338,-0.0014567799652342,0.0014567799652338,-0.0013989477136263,0.0013989477136259,-0.0013989477136263,0.001398947713626,-3.5422447280315e-16,4.4839071373619e-16,3.5609206280838e-17,5.6410041417839e-17,-0.0014225434786037,0.0014225434786038,-0.0014567799652341,0.001456779965234,-0.0014567799652341,0.001456779965234,-0.0014567799652339,0.0014567799652342,-0.0014567799652339,0.0014567799652342,-0.001398947713626,0.0013989477136263,-0.0013989477136261,0.0013989477136264,-0.0013989477136266,0.0013989477136259,-0.0013989477136258,0.0013989477136267,1.8234737058947e-18,-3.5072457972248e-17,-0.0014225434786038,0.0014225434786038,-4.9851418249862e-18,-2.5955089442775e-17,-0.001456779965234,0.001456779965234,-0.0014567799652341,0.001456779965234,-0.001456779965234,0.001456779965234,-0.0014567799652341,0.001456779965234,-0.0013989477136263,0.0013989477136262,-0.0013989477136262,0.0013989477136262,0.69958523470943,0.77570100980123,1270536,32768,0.0059097218876938,0.005909721887694,0.005909721887694,37.606442908111,37.625415306872,0.00021605154326489,0.00021605154326489,0.00021605154326489,318737.76170645,0.017887487311529
36028800,0.99999887604063,0.017088511303237,0.0056961704344124,0.0056961704344125,0.0056961704344125,-0.0014232896595565,0.0014232896595564,-6.3027486318263e-17,-2.1749335572728e-17,3.539156587078e-16,-4.4369232785689e-16,-0.0014574511650873,0.0014574511650874,-0.0014574511650872,0.0014574511650874,-0.0014574511650875,0.0014574511650872,-0.0014574511650875,0.0014574511650872,-0.0013997451971398,0.0013997451971394,-0.0013997451971398,0.0013997451971395,-3.4654823671866e-16,4.579198343928e-16,4.5645664379815e-17,6.6395030500923e-17,-0.0014232896595564,0.0014232896595565,-0.0014574511650874,0.0014574511650873,-0.0014574511650875,0.0014574511650873,-0.0014574511650872,0.0014574511650875,-0.0014574511650872,0.0014574511650875,-0.0013997451971396,0.0013997451971399,-0.0013997451971396,0.0013997451971399,-0.0013997451971401,0.0013997451971394,-0.0013997451971393,0.0013997451971402,7.3453638394709e-18,-2.9793207485021e-17,-0.0014232896595565,0.0014232896595564,9.2644228605939e-19,-2.076407155422e-17,-0.0014574511650874,0.0014574511650874,-0.0014574511650874,0.0014574511650874,-0.0014574511650874,0.0014574511650873,-0.0014574511650874,0.0014574511650873,-0.0013997451971398,0.0013997451971397,-0.0013997451971397,0.0013997451971398,0.71931304966427,0.83080222133202,1270536,32768,0.0059128125730553,0.0059128125730555,0.0059128125730555,37.882934293887,37.901922805864,0.00021826347435109,0.00021826347435109,0.00021826347435109,311958.38636907,0.017896925802538
36115200,0.99999894228612,0.017088512486038,0.0056961708286792,0.0056961708286793,0.0056961708286793,-0.0014236622595236,0.0014236622595235,-5.9693029360105e-17,-1.8595020170192e-17,3.5670969099909e-16,-4.4076594666759e-16,-0.001457778122078,0.0014577781220782,-0.001457778122078,0.0014577781220782,-0.0014577781220783,0.001457778122078,-0.0014577781220783,0.001457778122078,-0.0014001421548854,0.001400142154885,-0.0014001421548853,0.001400142154885,-3.5043047106024e-16,4.5396407288566e-16,4.1020805666074e-17,6.2851021120918e-17,-0.0014236622595236,0.0014236622595237,-0.0014577781220782,0.0014577781220781,-0.0014577781220783,0.0014577781220781,-0.001457778122078,0.0014577781220783,-0.001457778122078,0.0014577781220783,-0.0014001421548851,0.0014001421548854,-0.0014001421548851,0.0014001421548854,-0.0014001421548856,0.0014001421548849,-0.0014001421548848,0.0014001421548857,7.9997556129573e-18,-2.892558693141e-17,-0.0014236622595236,0.0014236622595236,1.1470237827402e-18,-2.0911125885341e-17,-0.0014577781220781,0.0014577781220781,-0.0014577781220782,0.0014577781220782,-0.0014577781220782,0.0014577781220781,-0.0014577781220782,0.0014577781220781,-0.0014001421548853,0.0014001421548852,-0.0014001421548852,0.0014001421548853,0.71635030005917,0.75354661301225,1270536,32768,0.0059143558038165,0.0059143558038166,0.0059143558038166,37.994749770353,38.0028275768,0.00021915799816282,0.00021915799816282,0.00021915799816282,306802.22177606,0.017901638921339
36201600,0.99999900420344,0.017088513588858,0.0056961711962858,0.0056961711962859,0.0056961711962859,-0.0014233275250752,0.0014233275250751,-5.9387891623029e-17,-1.8609725603304e-17,3.5637881875407e-16,-4.4098652816427e-16,-0.0014574858439166,0.0014574858439168,-0.0014574858439166,0.0014574858439168,-0.0014574858439169,0.0014574858439165,-0.0014574858439169,0.0014574858439165,-0.0013997561704422,0.0013997561704418,-0.0013997561704422,0.0013997561704418,-3.5059223082448e-16,4.5390525115321e-16,4.0072305230347e-17,6.1953989701083e-17,-0.0014233275250752,0.0014233275250753,-0.0014574858439168,0.0014574858439167,-0.0014574858439168,0.0014574858439167,-0.0014574858439166,0.0014574858439169,-0.0014574858439166,0.0014574858439169,-0.0013997561704419,0.0013997561704422,-0.0013997561704419,0.0013997561704422,-0.0013997561704424,0.0013997561704417,-0.0013997561704416,0.0013997561704425,4.110168554819e-18,-3.2984286470337e-17,-0.0014233275250752,0.0014233275250752,-2.6175670939456e-18,-2.4852181959371e-17,-0.0014574858439167,0.0014574858439167,-0.0014574858439168,0.0014574858439167,-0.0014574858439167,0.0014574858439167,-0.0014574858439168,0.0014574858439167,-0.0013997561704421,0.001399756170442,-0.0013997561704421,0.0013997561704421,0.71455152743428,0.73045191308876,1270536,32768,0.0059129691989684,0.0059129691989685,0.0059129691989685,37.864840609844,37.856521077519,0.00021811872487875,0.00021811872487875,0.00021811872487875,309119.66937041,0.017897404735418
36288000,0.9999990620541,0.017088514615157,0.0056961715383854,0.0056961715383856,0.0056961715383856,-0.0014230059960367,0.0014230059960366,-6.0487122748155e-17,-1.9594989621812e-17,3.5612147367461e-16,-4.4119240422784e-16,-0.0014571872581568,0.0014571872581569,-0.0014571872581568,0.0014571872581569,-0.001457187258157,0.0014571872581567,-0.001457187258157,0.0014571872581567,-0.0013994123806017,0.0013994123806012,-0.0013994123806016,0.0013994123806013,-3.5447446516606e-16,4.4928039243947e-16,3.6469474117894e-17,5.7674708665475e-17,-0.0014230059960366,0.0014230059960367,-0.001457187258157,0.0014571872581568,-0.001457187258157,0.0014571872581568,-0.0014571872581567,0.001457187258157,-0.0014571872581567,0.0014571872581571,-0.0013994123806014,0.0013994123806017,-0.0013994123806014,0.0013994123806017,-0.0013994123806019,0.0013994123806012,-0.0013994123806011,0.001399412380602,2.5440399283853e-18,-3.4572473246439e-17,-0.0014230059960367,0.0014230059960367,-5.0880798567706e-18,-2.6366841569913e-17,-0.0014571872581569,0.0014571872581569,-0.0014571872581569,0.0014571872581569,-0.0014571872581569,0.0014571872581569,-0.0014571872581569,0.0014571872581569,-0.0013994123806016,0.0013994123806015,-0.0013994123806015,0.0013994123806016,0.71171913332489,0.7114984176409,1270536,32768,0.0059116373635633,0.0059116373635635,0.0059116373635635,37.720083640261,37.710214578237,0.00021696066912209,0.00021696066912209,0.00021696066912209,310049.90140645,0.017893337718838
36374400,0.9999991161261,0.017088515569,0.0056961718563331,0.0056961718563333,0.0056961718563333,-0.0014226833808779,0.0014226833808779,-6.1178278104422e-17,-2.0087621631066e-17,3.5554796178324e-16,-4.4142769115763e-16,-0.0014568846023353,0.0014568846023355,-0.0014568846023353,0.0014568846023355,-0.0014568846023356,0.0014568846023352,-0.0014568846023356,0.0014568846023352,-0.0013990736219425,0.0013990736219421,-0.0013990736219425,0.0013990736219422,-3.5244511539659e-16,4.511479824447e-16,3.7991486444991e-17,5.9365833473361e-17,-0.0014226833808779,0.001422683380878,-0.0014568846023355,0.0014568846023354,-0.0014568846023356,0.0014568846023354,-0.0014568846023353,0.0014568846023356,-0.0014568846023353,0.0014568846023356,-0.0013990736219422,0.0013990736219425,-0.0013990736219422,0.0013990736219426,-0.0013990736219427,0.0013990736219421,-0.0013990736219419,0.0013990736219428,5.5071847004642e-18,-3.1763735522036e-17,-0.001422683380878,0.0014226833808779,-1.3381944131969e-18,-2.2925770221692e-17,-0.0014568846023355,0.0014568846023354,-0.0014568846023355,0.0014568846023355,-0.0014568846023355,0.0014568846023354,-0.0014568846023355,0.0014568846023354,-0.0013990736219424,0.0013990736219424,-0.0013990736219424,0.0013990736219424,0.70768953661049,0.69254492219304,1270536,32768,0.0059103010476071,0.0059103010476073,0.0059103010476073,37.573929620238,37.563908078955,0.0002157914369619,0.0002157914369619,0.0002157914369619,310958.5847071,0.017889256996945
36460800,0.99999916668923,0.01708851645457,0.0056961721515232,0.0056961721515234,0.0056961721515234,-0.0014223573653648,0.0014223573653647,-6.2990722735483e-17,-2.1808157305176e-17,3.5340096854888e-16,-4.4347174636021e-16,-0.001456577691756,0.0014565776917562,-0.001456577691756,0.0014565776917562,-0.0014565776917563,0.001456577691756,-0.0014565776917563,0.001456577691756,-0.0013987337938941,0.0013987337938937,-0.0013987337938941,0.0013987337938938,-3.4826877239277e-16,4.549934532035e-16,4.1800193621013e-17,6.3645114508969e-17,-0.0014223573653647,0.0014223573653648,-0.0014565776917562,0.0014565776917561,-0.0014565776917563,0.0014565776917561,-0.001456577691756,0.0014565776917563,-0.001456577691756,0.0014565776917563,-0.0013987337938938,0.0013987337938941,-0.0013987337938938,0.0013987337938942,-0.0013987337938943,0.0013987337938937,-0.0013987337938936,0.0013987337938945,2.2793421323683e-18,-3.4837171042456e-17,-0.0014223573653648,0.0014223573653647,-5.1469015892188e-18,-2.7146229524851e-17,-0.0014565776917562,0.0014565776917562,-0.0014565776917562,0.0014565776917562,-0.0014565776917562,0.0014565776917561,-0.0014565776917562,0.0014565776917561,-0.0013987337938941,0.001398733793894,-0.001398733793894,0.001398733793894,0.70262273173904,0.67359142674518,1270536,32768,0.0059089506571726,0.0059089506571728,0.0059089506571728,37.427634714025,37.417601579673,0.0002146210777122,0.0002146210777122,0.0002146210777122,312024.12133605,0.017885133281796
36547200,0.99999921399288,0.017088517246768,0.0056961724155891,0.0056961724155892,0.0056961724155892,-0.0014220287801739,0.0014220287801738,-5.9659942135602e-17,-1.8587667453636e-17,3.5595236119382e-16,-4.404130162729e-16,-0.0014562672484609,0.0014562672484611,-0.0014562672484609,0.0014562672484611,-0.0014562672484612,0.0014562672484608,-0.0014562672484612,0.0014562672484608,-0.0013983930357738,0.0013983930357734,-0.0013983930357738,0.0013983930357735,-3.496510831053e-16,4.5339791371084e-16,3.9572320504537e-17,6.2027516866643e-17,-0.0014220287801738,0.0014220287801739,-0.0014562672484611,0.001456267248461,-0.0014562672484611,0.001456267248461,-0.0014562672484609,0.0014562672484612,-0.0014562672484609,0.0014562672484612,-0.0013983930357735,0.0013983930357738,-0.0013983930357735,0.0013983930357739,-0.001398393035774,0.0013983930357734,-0.0013983930357733,0.0013983930357742,8.2497479758622e-18,-2.9057935829418e-17,-0.0014220287801739,0.0014220287801738,1.6911248078862e-18,-2.133758344559e-17,-0.001456267248461,0.001456267248461,-0.0014562672484611,0.0014562672484611,-0.001456267248461,0.001456267248461,-0.0014562672484611,0.001456267248461,-0.0013983930357738,0.0013983930357737,-0.0013983930357737,0.0013983930357737,0.67176094992295,0.51734844106458,1270536,32768,0.0059075896301583,0.0059075896301585,0.0059075896301585,37.281325361955,37.271295080391,0.00021345060289564,0.00021345060289564,0.00021345060289564,313240.58051421,0.017880977077982
36633600,0.99999925826733,0.017088517965882,0.005696172655294,0.0056961726552942,0.0056961726552942,-0.0014214208284671,0.001421420828467,-6.7097214932024e-17,-2.5933031293107e-17,3.4951138149074e-16,-4.4679517424353e-16,-0.0014557700951385,0.0014557700951387,-0.0014557700951385,0.0014557700951387,-0.0014557700951388,0.0014557700951384,-0.0014557700951388,0.0014557700951385,-0.0013976900406223,0.0013976900406219,-0.0013976900406223,0.001397690040622,-3.5188630893834e-16,4.5125092047648e-16,3.7851784830427e-17,6.0748144185894e-17,-0.0014214208284671,0.0014214208284672,-0.0014557700951387,0.0014557700951386,-0.0014557700951388,0.0014557700951386,-0.0014557700951385,0.0014557700951388,-0.0014557700951385,0.0014557700951388,-0.001397690040622,0.0013976900406223,-0.001397690040622,0.0013976900406224,-0.0013976900406226,0.0013976900406219,-0.0013976900406218,0.0013976900406227,4.5880951309608e-18,-3.2690177808096e-17,-0.0014214208284671,0.0014214208284671,-7.646825218268e-19,-2.3837507074639e-17,-0.0014557700951386,0.0014557700951386,-0.0014557700951387,0.0014557700951387,-0.0014557700951387,0.0014557700951386,-0.0014557700951387,0.0014557700951386,-0.0013976900406223,0.0013976900406222,-0.0013976900406222,0.0013976900406222,0.65146986607376,0.48156401590332,1270536,32768,0.0059050714627467,0.0059050714627469,0.0059050714627469,37.135014522842,37.124988581109,0.00021228011618274,0.00021228011618274,0.00021228011618274,323482.52141071,0.017873286787346
36720000,0.99999929972535,0.017088518642068,0.0056961728806893,0.0056961728806894,0.0056961728806894,-0.001420992295987,0.0014209922959869,-6.1207688970646e-17,-2.026408682841e-17,3.544009380005e-16,-4.4191297045033e-16,-0.0014553855531269,0.0014553855531271,-0.0014553855531269,0.0014553855531271,-0.0014553855531272,0.0014553855531269,-0.0014553855531272,0.0014553855531269,-0.0013972394166815,0.0013972394166811,-0.0013972394166815,0.0013972394166811,-3.4945991247485e-16,4.535229098923e-16,3.9859076450222e-17,6.2880431987142e-17,-0.0014209922959869,0.001420992295987,-0.0014553855531272,0.001455385553127,-0.0014553855531272,0.001455385553127,-0.0014553855531269,0.0014553855531272,-0.0014553855531269,0.0014553855531273,-0.0013972394166812,0.0013972394166815,-0.0013972394166812,0.0013972394166815,-0.0013972394166817,0.001397239416681,-0.0013972394166809,0.0013972394166818,2.735210558842e-18,-3.4557767813327e-17,-0.001420992295987,0.0014209922959869,-3.6616528449014e-18,-2.7013880626843e-17,-0.0014553855531271,0.0014553855531271,-0.0014553855531271,0.0014553855531271,-0.0014553855531271,0.001455385553127,-0.0014553855531271,0.001455385553127,-0.0013972394166814,0.0013972394166814,-0.0013972394166814,0.0013972394166814,0.65430541716043,0.56834652841547,1270536,32768,0.0059032965311236,0.0059032965311238,0.0059032965311238,36.988703530965,36.978682081827,0.00021110962824772,0.00021110962824772,0.00021110962824772,328572.74772394,0.017867866353952
36806400,0.99999933856357,0.017088519248178,0.0056961730827257,0.0056961730827259,0.0056961730827259,-0.0014208492023693,0.0014208492023692,-5.91084883939e-17,-1.797003926293e-17,3.564744040693e-16,-4.394424576875e-16,-0.0014551850204911,0.0014551850204913,-0.0014551850204911,0.0014551850204913,-0.0014551850204914,0.001455185020491,-0.0014551850204914,0.001455185020491,-0.001397161092182,0.0013971610921816,-0.001397161092182,0.0013971610921817,-3.5125397531452e-16,4.5130238949238e-16,3.8028250027771e-17,6.0748144185894e-17,-0.0014208492023692,0.0014208492023693,-0.0014551850204913,0.0014551850204912,-0.0014551850204914,0.0014551850204912,-0.0014551850204911,0.0014551850204914,-0.0014551850204911,0.0014551850204914,-0.0013971610921817,0.0013971610921821,-0.0013971610921818,0.0013971610921821,-0.0013971610921823,0.0013971610921816,-0.0013971610921815,0.0013971610921824,3.1028463866434e-18,-3.4219542851749e-17,-0.0014208492023693,0.0014208492023693,-3.264606150876e-18,-2.6381547003025e-17,-0.0014551850204912,0.0014551850204912,-0.0014551850204913,0.0014551850204912,-0.0014551850204913,0.0014551850204912,-0.0014551850204913,0.0014551850204912,-0.001397161092182,0.0013971610921819,-0.0013971610921819,0.001397161092182,0.62602295148401,0.43194025391056,1270536,32768,0.0059027038934666,0.0059027038934668,0.0059027038934668,36.842392523844,36.832375582545,0.00020993914019075,0.00020993914019075,0.00020993914019075,324637.47347933,0.01786605681107
36892800,0.99999937519346,0.017088519821521,0.0056961732738402,0.0056961732738404,0.0056961732738404,-0.0014205127644767,0.0014205127644767,-6.131062700243e-17,-2.0161148796626e-17,3.5473916296207e-16,-4.4120710966095e-16,-0.001454930144616,0.0014549301446162,-0.001454930144616,0.0014549301446162,-0.0014549301446162,0.0014549301446159,-0.0014549301446163,0.0014549301446159,-0.0013967502419042,0.0013967502419038,-0.0013967502419042,0.0013967502419039,-3.489158114497e-16,4.5413318536645e-16,4.0469351924372e-17,6.3306889547392e-17,-0.0014205127644767,0.0014205127644768,-0.0014549301446162,0.001454930144616,-0.0014549301446162,0.001454930144616,-0.0014549301446159,0.0014549301446163,-0.0014549301446159,0.0014549301446163,-0.0013967502419039,0.0013967502419042,-0.0013967502419039,0.0013967502419043,-0.0013967502419044,0.0013967502419038,-0.0013967502419037,0.0013967502419046,1.8602372886748e-18,-3.5293039468929e-17,-0.0014205127644768,0.0014205127644767,-4.3528082011679e-18,-2.7410927320868e-17,-0.0014549301446161,0.0014549301446161,-0.0014549301446161,0.0014549301446161,-0.0014549301446161,0.0014549301446161,-0.0014549301446161,0.0014549301446161,-0.0013967502419042,0.0013967502419041,-0.0013967502419041,0.0013967502419041,0.62790472801918,0.52015280790738,1270536,32768,0.0059013103841207,0.0059013103841208,0.0059013103841208,36.814517928328,36.812326902647,0.00020971614342662,0.00020971614342662,0.00020971614342662,334114.35512653,0.017861800849074
36979200,0.99999941003759,0.017088520376918,0.0056961734589727,0.0056961734589728,0.0056961734589728,-0.0014209136402555,0.0014209136402554,-6.2428239918947e-17,-2.1455226910487e-17,3.5340096854888e-16,-4.4235413344369e-16,-0.0014552655153972,0.0014552655153973,-0.0014552655153972,0.0014552655153973,-0.0014552655153974,0.0014552655153971,-0.0014552655153974,0.0014552655153971,-0.0013972196412577,0.0013972196412573,-0.0013972196412577,0.0013972196412573,-3.4954814507352e-16,4.5295675071748e-16,3.945467703964e-17,6.2512796159341e-17,-0.0014209136402554,0.0014209136402555,-0.0014552655153974,0.0014552655153972,-0.0014552655153974,0.0014552655153972,-0.0014552655153971,0.0014552655153974,-0.0014552655153971,0.0014552655153975,-0.0013972196412574,0.0013972196412577,-0.0013972196412574,0.0013972196412578,-0.0013972196412579,0.0013972196412572,-0.0013972196412571,0.001397219641258,3.1543154025355e-18,-3.4116604819965e-17,-0.0014209136402555,0.0014209136402555,-3.1175518197554e-18,-2.6322725270576e-17,-0.0014552655153973,0.0014552655153973,-0.0014552655153973,0.0014552655153973,-0.0014552655153973,0.0014552655153973,-0.0014552655153973,0.0014552655153973,-0.0013972196412576,0.0013972196412575,-0.0013972196412576,0.0013972196412576,0.63956200935375,0.6083653619042,1270536,32768,0.0059029709619571,0.0059029709619573,0.0059029709619573,36.946339828283,36.954970510237,0.00021077071862626,0.00021077071862626,0.00021077071862626,330020.68375098,0.017866871640857
37065600,0.99999944318635,0.017088520920416,0.0056961736401386,0.0056961736401387,0.0056961736401387,-0.0014213875611422,0.0014213875611421,-5.9314364457469e-17,-1.804356642849e-17,3.5658469481764e-16,-4.3920717075771e-16,-0.0014556610340491,0.0014556610340493,-0.0014556610340491,0.0014556610340493,-0.0014556610340494,0.001455661034049,-0.0014556610340494,0.001455661034049,-0.001397759961541,0.0013977599615406,-0.001397759961541,0.0013977599615407,-3.4776878766696e-16,4.546919918247e-16,4.1373736060763e-17,6.4086277502331e-17,-0.0014213875611422,0.0014213875611423,-0.0014556610340493,0.0014556610340492,-0.0014556610340493,0.0014556610340491,-0.001455661034049,0.0014556610340494,-0.001455661034049,0.0014556610340494,-0.0013977599615407,0.0013977599615411,-0.0013977599615407,0.0013977599615411,-0.0013977599615412,0.0013977599615406,-0.0013977599615405,0.0013977599615414,2.6763888263938e-18,-3.4543062380214e-17,-0.0014213875611422,0.0014213875611422,-3.8528234753581e-18,-2.7160934957963e-17,-0.0014556610340492,0.0014556610340492,-0.0014556610340492,0.0014556610340492,-0.0014556610340492,0.0014556610340492,-0.0014556610340492,0.0014556610340492,-0.001397759961541,0.0013977599615409,-0.0013977599615409,0.001397759961541,0.65788745292515,0.69657791590101,1270536,32768,0.0059049340069582,0.0059049340069583,0.0059049340069583,37.087956635652,37.097614117828,0.00021190365308521,0.00021190365308521,0.00021190365308521,324021.44522566,0.017872866384432
37152000,0.99999947470942,0.017088521455674,0.0056961738185579,0.0056961738185581,0.0056961738185581,-0.0014218795202098,0.0014218795202098,-6.2494414367951e-17,-2.141111061115e-17,3.5354802288e-16,-4.4264824210593e-16,-0.001456074890407,0.0014560748904072,-0.001456074890407,0.0014560748904071,-0.0014560748904072,0.0014560748904069,-0.0014560748904072,0.0014560748904069,-0.0013983096960668,0.0013983096960664,-0.0013983096960668,0.0013983096960664,-3.489158114497e-16,4.5387584028699e-16,4.0682580704497e-17,6.2953959152702e-17,-0.0014218795202098,0.0014218795202099,-0.0014560748904072,0.001456074890407,-0.0014560748904072,0.001456074890407,-0.0014560748904069,0.0014560748904072,-0.0014560748904069,0.0014560748904073,-0.0013983096960665,0.0013983096960668,-0.0013983096960665,0.0013983096960669,-0.001398309696067,0.0013983096960663,-0.0013983096960662,0.0013983096960671,7.1909567917943e-18,-2.992555638303e-17,-0.0014218795202098,0.0014218795202098,1.088202050292e-18,-2.1587575808495e-17,-0.0014560748904071,0.0014560748904071,-0.0014560748904071,0.0014560748904071,-0.0014560748904071,0.0014560748904071,-0.0014560748904071,0.0014560748904071,-0.0013983096960667,0.0013983096960667,-0.0013983096960667,0.0013983096960667,0.68133357716755,0.78479046989783,1270536,32768,0.0059069717078555,0.0059069717078556,0.0059069717078556,37.230492853116,37.240257725419,0.00021304394282493,0.00021304394282493,0.00021304394282493,317209.68949492,0.017879089277432
37238400,0.99999950467285,0.017088521985084,0.005696173995028,0.0056961739950282,0.0056961739950282,-0.0014223729494146,0.0014223729494146,-5.3424838496092e-17,-1.245550184591e-17,3.6262862782669e-16,-4.3489847885588e-16,-0.0014564960638906,0.0014564960638908,-0.0014564960638906,0.0014564960638908,-0.0014564960638909,0.0014564960638906,-0.0014564960638909,0.0014564960638906,-0.0013988516171448,0.0013988516171444,-0.0013988516171448,0.0013988516171445,-3.4929815271061e-16,4.5473610812404e-16,4.0932573067402e-17,6.2762788522246e-17,-0.0014223729494146,0.0014223729494147,-0.0014564960638908,0.0014564960638907,-0.0014564960638909,0.0014564960638907,-0.0014564960638906,0.0014564960638909,-0.0014564960638906,0.0014564960638909,-0.0013988516171445,0.0013988516171448,-0.0013988516171446,0.0013988516171449,-0.0013988516171451,0.0013988516171444,-0.0013988516171443,0.0013988516171452,3.1101991031994e-18,-3.4160721119301e-17,-0.0014223729494147,0.0014223729494146,-4.1616375707112e-18,-2.6234492671904e-17,-0.0014564960638908,0.0014564960638907,-0.0014564960638908,0.0014564960638908,-0.0014564960638908,0.0014564960638907,-0.0014564960638908,0.0014564960638907,-0.0013988516171448,0.0013988516171447,-0.0013988516171447,0.0013988516171447,0.7089683356001,0.87300302389465,1270536,32768,0.0059090154559993,0.0059090154559995,0.0059090154559995,37.373121608767,37.38290133301,0.00021418497287014,0.00021418497287014,0.00021418497287014,310054.32908373,0.017885330757059
37324800,0.9999995331406,0.01708852248508,0.0056961741616931,0.0056961741616932,0.0056961741616932,-0.0014228608241421,0.001422860824142,-6.1204012612368e-17,-1.9984683599281e-17,3.5634205517129e-16,-4.4210414108079e-16,-0.0014569195949303,0.0014569195949305,-0.0014569195949303,0.0014569195949305,-0.0014569195949306,0.0014569195949302,-0.0014569195949306,0.0014569195949302,-0.0013993795992412,0.0013993795992408,-0.0013993795992412,0.0013993795992408,-3.4862170278746e-16,4.5647134923126e-16,4.2667814174624e-17,6.4527440495692e-17,-0.001422860824142,0.0014228608241421,-0.0014569195949305,0.0014569195949303,-0.0014569195949305,0.0014569195949303,-0.0014569195949302,0.0014569195949306,-0.0014569195949302,0.0014569195949306,-0.0013993795992409,0.0013993795992412,-0.0013993795992409,0.0013993795992413,-0.0013993795992414,0.0013993795992407,-0.0013993795992406,0.0013993795992415,-5.9924639931619e-18,-4.324867878255e-17,-0.0014228608241421,0.001422860824142,-1.2705494208815e-17,-3.4969519940464e-17,-0.0014569195949304,0.0014569195949304,-0.0014569195949304,0.0014569195949304,-0.0014569195949304,0.0014569195949304,-0.0014569195949305,0.0014569195949304,-0.0013993795992411,0.001399379599241,-0.0013993795992411,0.0013993795992411,0.70467690697295,0.76558456952602,1270536,32768,0.005911036166932,0.0059110361669321,0.0059110361669321,37.515759841063,37.525544940601,0.0002153260787285,0.0002153260787285,0.0002153260787285,302784.61578932,0.017891501976104
37411200,0.99999956017469,0.017088522946503,0.0056961743155009,0.0056961743155011,0.0056961743155011,-0.0014230188415444,0.0014230188415444,-6.1641499247452e-17,-2.0403788442975e-17,3.5557737264946e-16,-4.4295705620129e-16,-0.00145712941432,0.0014571294143201,-0.0014571294143199,0.0014571294143201,-0.0014571294143202,0.0014571294143199,-0.0014571294143202,0.0014571294143199,-0.0013994744528115,0.0013994744528111,-0.0013994744528115,0.0013994744528112,-3.506216416907e-16,4.5488316245516e-16,4.0969336650182e-17,6.2409858127556e-17,-0.0014230188415444,0.0014230188415445,-0.0014571294143202,0.00145712941432,-0.0014571294143202,0.00145712941432,-0.0014571294143199,0.0014571294143202,-0.0014571294143199,0.0014571294143203,-0.0013994744528112,0.0013994744528115,-0.0013994744528112,0.0013994744528116,-0.0013994744528117,0.0013994744528111,-0.001399474452811,0.0013994744528119,4.1322267044871e-18,-3.3204867967018e-17,-0.0014230188415445,0.0014230188415444,-3.1616681190916e-18,-2.4513956997794e-17,-0.0014571294143201,0.0014571294143201,-0.0014571294143201,0.0014571294143201,-0.0014571294143201,0.0014571294143201,-0.0014571294143201,0.0014571294143201,-0.0013994744528114,0.0013994744528114,-0.0013994744528114,0.0013994744528114,0.68469135417714,0.63706424169366,1270536,32768,0.0059116905917223,0.0059116905917224,0.0059116905917224,37.658399048293,37.668188548191,0.00021646719238634,0.00021646719238634,0.00021646719238634,305772.88799623,0.017893500325495
37497600,0.99999958583523,0.017088523374365,0.0056961744581215,0.0056961744581217,0.0056961744581217,-0.0014230555490935,0.0014230555490934,-6.1284892494484e-17,-2.0447904742311e-17,3.5590824489448e-16,-4.4258942037348e-16,-0.001457259157895,0.0014572591578951,-0.001457259157895,0.0014572591578951,-0.0014572591578952,0.0014572591578949,-0.0014572591578952,0.0014572591578949,-0.0013994272026319,0.0013994272026315,-0.0013994272026319,0.0013994272026315,-3.5373919351046e-16,4.5159649815462e-16,3.7756199515198e-17,5.899819764556e-17,-0.0014230555490935,0.0014230555490936,-0.0014572591578952,0.001457259157895,-0.0014572591578952,0.001457259157895,-0.0014572591578949,0.0014572591578952,-0.0014572591578949,0.0014572591578953,-0.0013994272026316,0.0013994272026319,-0.0013994272026316,0.0013994272026319,-0.0013994272026321,0.0013994272026314,-0.0013994272026313,0.0013994272026322,4.36751363428e-18,-3.2940170171001e-17,-0.0014230555490935,0.0014230555490935,-2.6028616608335e-18,-2.413161573688e-17,-0.0014572591578951,0.0014572591578951,-0.0014572591578951,0.0014572591578951,-0.0014572591578951,0.0014572591578951,-0.0014572591578951,0.0014572591578951,-0.0013994272026318,0.0013994272026317,-0.0013994272026318,0.0013994272026318,0.66885546624032,0.58517435017955,1270536,32768,0.0059118426249288,0.0059118426249289,0.0059118426249289,37.801038355576,37.810832155782,0.00021760830684461,0.00021760830684461,0.00021760830684461,312874.24369949,0.01789396415474
37584000,0.99999961018049,0.017088523770745,0.0056961745902481,0.0056961745902482,0.0056961745902482,-0.0014231822457961,0.001423182245796,-6.0711380603114e-17,-1.9528815172807e-17,3.5673174914876e-16,-4.4217766824635e-16,-0.0014574429355825,0.0014574429355827,-0.0014574429355825,0.0014574429355827,-0.0014574429355828,0.0014574429355824,-0.0014574429355828,0.0014574429355824,-0.0013995151225205,0.0013995151225201,-0.0013995151225205,0.0013995151225201,-3.4978343200331e-16,4.560301862379e-16,4.2248709330931e-17,6.3071602617599e-17,-0.001423182245796,0.0014231822457961,-0.0014574429355827,0.0014574429355826,-0.0014574429355827,0.0014574429355826,-0.0014574429355825,0.0014574429355828,-0.0014574429355825,0.0014574429355828,-0.0013995151225202,0.0013995151225205,-0.0013995151225202,0.0013995151225205,-0.0013995151225207,0.00139951512252,-0.0013995151225199,0.0013995151225208,1.7205356741103e-18,-3.5851845927187e-17,-0.0014231822457961,0.001423182245796,-5.8674678117095e-18,-2.7072702359291e-17,-0.0014574429355826,0.0014574429355826,-0.0014574429355827,0.0014574429355826,-0.0014574429355827,0.0014574429355826,-0.0014574429355827,0.0014574429355826,-0.0013995151225204,0.0013995151225204,-0.0013995151225204,0.0013995151225204,0.65313632909925,0.54243370808786,1270536,32768,0.0059123674653545,0.0059123674653546,0.0059123674653546,37.943677672718,37.953475763373,0.00021874942138174,0.00021874942138174,0.00021874942138174,317491.18994491,0.017895566495108
37670400,0.99999963313768,0.017088524134934,0.0056961747116446,0.0056961747116448,0.0056961747116448,-0.0014231226595169,0.0014231226595168,-6.020036680247e-17,-1.8712663635089e-17,3.5731261375668e-16,-4.4160415635498e-16,-0.0014574304451096,0.0014574304451098,-0.0014574304451096,0.0014574304451098,-0.0014574304451099,0.0014574304451095,-0.0014574304451099,0.0014574304451095,-0.0013994271590496,0.0013994271590492,-0.0013994271590495,0.0013994271590492,-3.5328332508398e-16,4.5250088229101e-16,3.8601761919141e-17,5.949818237137e-17,-0.0014231226595168,0.0014231226595169,-0.0014574304451098,0.0014574304451097,-0.0014574304451098,0.0014574304451097,-0.0014574304451096,0.0014574304451099,-0.0014574304451096,0.0014574304451099,-0.0013994271590493,0.0013994271590496,-0.0013994271590493,0.0013994271590496,-0.0013994271590498,0.0013994271590491,-0.001399427159049,0.0013994271590499,3.1175518197554e-18,-3.4381302615982e-17,-0.0014231226595169,0.0014231226595168,-4.4263353667282e-18,-2.5513926449413e-17,-0.0014574304451097,0.0014574304451097,-0.0014574304451098,0.0014574304451097,-0.0014574304451097,0.0014574304451097,-0.0014574304451098,0.0014574304451097,-0.0013994271590495,0.0013994271590494,-0.0013994271590495,0.0013994271590495,0.63636726682518,0.49969306599618,1270536,32768,0.0059121207082666,0.0059121207082667,0.0059121207082668,37.97934342689,37.982050849136,0.00021903474741512,0.00021903474741512,0.00021903474741512,321799.60037854,0.017894812670496
37756800,0.99999965463307,0.017088524466337,0.0056961748221123,0.0056961748221125,0.0056961748221125,-0.0014228080989067,0.0014228080989066,-6.012683963691e-17,-1.9161179345006e-17,3.5712144312623e-16,-4.4179532698543e-16,-0.001457158660237,0.0014571586602371,-0.0014571586602369,0.0014571586602371,-0.0014571586602372,0.0014571586602369,-0.0014571586602372,0.0014571586602369,-0.0013990872767022,0.0013990872767018,-0.0013990872767022,0.0013990872767019,-3.5029812216223e-16,4.554125580472e-16,4.1660492006449e-17,6.1748113637514e-17,-0.0014228080989066,0.0014228080989067,-0.0014571586602372,0.001457158660237,-0.0014571586602372,0.001457158660237,-0.0014571586602369,0.0014571586602372,-0.0014571586602369,0.0014571586602373,-0.001399087276702,0.0013990872767023,-0.001399087276702,0.0013990872767023,-0.0013990872767025,0.0013990872767018,-0.0013990872767017,0.0013990872767026,3.3896023323284e-18,-3.3984255921956e-17,-0.0014228080989067,0.0014228080989066,-4.36751363428e-18,-2.463160046269e-17,-0.0014571586602371,0.0014571586602371,-0.0014571586602371,0.0014571586602371,-0.0014571586602371,0.0014571586602371,-0.0014571586602371,0.0014571586602371,-0.0013990872767022,0.0013990872767021,-0.0013990872767021,0.0013990872767022,0.61843313774832,0.4569524239045,1270536,32768,0.0059108178266736,0.0059108178266738,0.0059108178266738,37.882289002101,37.875956058269,0.0002182583120168,0.0002182583120168,0.0002182583120168,326329.91525759,0.017890833770231
37843200,0.99999967475733,0.01708852476859,0.0056961749228631,0.0056961749228633,0.0056961749228633,-0.001422476292579,0.0014224762925789,-6.071873331967e-17,-1.9506757023139e-17,3.5640087690374e-16,-4.4210414108079e-16,-0.0014568629116951,0.0014568629116953,-0.0014568629116951,0.0014568629116953,-0.0014568629116954,0.001456862911695,-0.0014568629116954,0.001456862911695,-0.0013987344243961,0.0013987344243956,-0.001398734424396,0.0013987344243957,-3.5203336326946e-16,4.5297145615059e-16,3.977084385155e-17,5.9983461664068e-17,-0.0014224762925789,0.001422476292579,-0.0014568629116953,0.0014568629116952,-0.0014568629116953,0.0014568629116952,-0.0014568629116951,0.0014568629116954,-0.0014568629116951,0.0014568629116954,-0.0013987344243958,0.0013987344243961,-0.0013987344243958,0.0013987344243961,-0.0013987344243963,0.0013987344243956,-0.0013987344243955,0.0013987344243964,3.816059892578e-18,-3.3396038597474e-17,-0.001422476292579,0.001422476292579,-3.8528234753581e-18,-2.4499251564682e-17,-0.0014568629116952,0.0014568629116952,-0.0014568629116953,0.0014568629116952,-0.0014568629116952,0.0014568629116952,-0.0014568629116953,0.0014568629116952,-0.001398734424396,0.0013987344243959,-0.0013987344243959,0.001398734424396,0.60246466230448,0.43132005729132,1270536,32768,0.0059094435300995,0.0059094435300997,0.0059094435300997,37.777049309518,37.769861267401,0.00021741639447614,0.00021741639447614,0.00021741639447614,331041.97555367,0.017886636719321
37929600,0.99999969360354,0.017088525054427,0.0056961750181421,0.0056961750181423,0.0056961750181423,-0.0014221796441526,0.0014221796441525,-5.7762941264147e-17,-1.6631844849733e-17,3.5931990537648e-16,-4.391924653246e-16,-0.0014565863543985,0.0014565863543987,-0.0014565863543985,0.0014565863543987,-0.0014565863543988,0.0014565863543985,-0.0014565863543988,0.0014565863543985,-0.0013984299943339,0.0013984299943335,-0.0013984299943339,0.0013984299943336,-3.5266569689328e-16,4.5240529697578e-16,3.9337033574744e-17,5.9468771505146e-17,-0.0014221796441525,0.0014221796441526,-0.0014565863543987,0.0014565863543986,-0.0014565863543988,0.0014565863543986,-0.0014565863543985,0.0014565863543988,-0.0014565863543985,0.0014565863543988,-0.0013984299943336,0.0013984299943339,-0.0013984299943336,0.001398429994334,-0.0013984299943341,0.0013984299943335,-0.0013984299943333,0.0013984299943342,2.6543306767257e-18,-3.4748938443783e-17,-0.0014221796441526,0.0014221796441526,-5.3821885190117e-18,-2.5822740544767e-17,-0.0014565863543987,0.0014565863543986,-0.0014565863543987,0.0014565863543987,-0.0014565863543987,0.0014565863543986,-0.0014565863543987,0.0014565863543986,-0.0013984299943338,0.0013984299943338,-0.0013984299943338,0.0013984299943338,0.60846151261332,0.52548026821167,1270536,32768,0.00590821486492,0.0059082148649202,0.0059082148649202,37.671038796883,37.663766476533,0.00021656831037506,0.00021656831037506,0.00021656831037506,334779.16805099,0.017882884444214
38016000,0.99999971125874,0.017088525324223,0.0056961751080743,0.0056961751080745,0.0056961751080745,-0.0014221560649953,0.0014221560649952,-5.9134222901846e-17,-1.8095035444382e-17,3.5826846690897e-16,-4.4045713257224e-16,-0.0014564897499851,0.0014564897499853,-0.0014564897499851,0.0014564897499852,-0.0014564897499853,0.001456489749985,-0.0014564897499853,0.001456489749985,-0.0013984787202545,0.0013984787202541,-0.0013984787202545,0.0013984787202542,-3.5235688279792e-16,4.5308174689893e-16,3.9866429166778e-17,5.9851112766059e-17,-0.0014221560649952,0.0014221560649953,-0.0014564897499853,0.0014564897499851,-0.0014564897499853,0.0014564897499851,-0.001456489749985,0.0014564897499854,-0.001456489749985,0.0014564897499854,-0.0013984787202542,0.0013984787202545,-0.0013984787202542,0.0013984787202546,-0.0013984787202547,0.0013984787202541,-0.001398478720254,0.0013984787202549,3.0440246541951e-18,-3.4219542851749e-17,-0.0014221560649953,0.0014221560649953,-4.8674983600898e-18,-2.5160996054724e-17,-0.0014564897499852,0.0014564897499852,-0.0014564897499852,0.0014564897499852,-0.0014564897499852,0.0014564897499852,-0.0014564897499852,0.0014564897499852,-0.0013984787202545,0.0013984787202544,-0.0013984787202544,0.0013984787202544,0.61311744717134,0.56198697248515,1270536,32768,0.00590811724869,0.0059081172486902,0.0059081172486902,37.564950524951,37.557671685665,0.00021571960419961,0.00021571960419961,0.00021571960419961,329580.46419817,0.017882586611579
38102400,0.99999972780378,0.017088525578248,0.0056961751927491,0.0056961751927493,0.0056961751927493,-0.0014220568432127,0.0014220568432126,-5.9523916879316e-17,-1.8433260405959e-17,3.5754054796992e-16,-4.4111887706228e-16,-0.0014563455399439,0.0014563455399441,-0.0014563455399439,0.0014563455399441,-0.0014563455399442,0.0014563455399438,-0.0014563455399442,0.0014563455399438,-0.0013984135342403,0.0013984135342399,-0.0013984135342403,0.00139841353424,-3.513569133463e-16,4.5414789079956e-16,4.102815838263e-17,6.0659911587222e-17,-0.0014220568432126,0.0014220568432127,-0.0014563455399441,0.001456345539944,-0.0014563455399441,0.0014563455399439,-0.0014563455399439,0.0014563455399442,-0.0014563455399439,0.0014563455399442,-0.0013984135342401,0.0013984135342404,-0.0013984135342401,0.0013984135342404,-0.0013984135342406,0.0013984135342399,-0.0013984135342398,0.0013984135342407,5.3160140700075e-18,-3.1896084420045e-17,-0.0014220568432127,0.0014220568432126,-2.6469779601697e-18,-2.2719894158123e-17,-0.001456345539944,0.001456345539944,-0.001456345539944,0.001456345539944,-0.001456345539944,0.001456345539944,-0.0014563455399441,0.001456345539944,-0.0013984135342403,0.0013984135342402,-0.0013984135342402,0.0013984135342403,0.61599341667236,0.57718443256635,1270536,32768,0.0059077062508556,0.0059077062508557,0.0059077062508557,37.458854277585,37.451576894797,0.00021487083422068,0.00021487083422068,0.00021487083422068,326593.42493818,0.017881331767741
38188800,0.99999974331367,0.017088525817449,0.0056961752724827,0.0056961752724829,0.0056961752724829,-0.001421914204758,0.0014219142047579,-5.9829054616391e-17,-1.8477376705296e-17,3.5747437352092e-16,-4.4133945855896e-16,-0.0014561765440482,0.0014561765440484,-0.0014561765440482,0.0014561765440484,-0.0014561765440484,0.0014561765440481,-0.0014561765440484,0.0014561765440481,-0.0013982860305738,0.0013982860305734,-0.0013982860305738,0.0013982860305734,-3.5234217736481e-16,4.5306704146582e-16,3.9998778064786e-17,5.9395244339585e-17,-0.0014219142047579,0.001421914204758,-0.0014561765440484,0.0014561765440482,-0.0014561765440484,0.0014561765440482,-0.0014561765440481,0.0014561765440485,-0.0014561765440481,0.0014561765440485,-0.0013982860305735,0.0013982860305738,-0.0013982860305735,0.0013982860305739,-0.001398286030574,0.0013982860305733,-0.0013982860305732,0.0013982860305741,3.3969550488844e-18,-3.3954845055732e-17,-0.001421914204758,0.001421914204758,-4.7351494620813e-18,-2.4469840698458e-17,-0.0014561765440483,0.0014561765440483,-0.0014561765440483,0.0014561765440483,-0.0014561765440483,0.0014561765440483,-0.0014561765440483,0.0014561765440483,-0.0013982860305737,0.0013982860305737,-0.0013982860305737,0.0013982860305737,0.61875593985311,0.59029928701812,1270536,32768,0.0059071154003707,0.0059071154003709,0.0059071154003709,37.352757208861,37.34548210393,0.00021402205767089,0.00021402205767089,0.00021402205767089,324891.1310804,0.017879527666241
38275200,0.99999975785802,0.017088526042874,0.0056961753476246,0.0056961753476248,0.0056961753476248,-0.0014217606039957,0.0014217606039957,-5.9898905423673e-17,-1.8764132650981e-17,3.5717291214212e-16,-4.412659313934e-16,-0.0014560033317113,0.0014560033317115,-0.0014560033317113,0.0014560033317115,-0.0014560033317116,0.0014560033317112,-0.0014560033317116,0.0014560033317113,-0.0013981426015985,0.0013981426015981,-0.0013981426015985,0.0013981426015982,-3.5238629366415e-16,4.5297880886715e-16,4.0145832395907e-17,5.9468771505146e-17,-0.0014217606039957,0.0014217606039958,-0.0014560033317115,0.0014560033317114,-0.0014560033317116,0.0014560033317114,-0.0014560033317113,0.0014560033317116,-0.0014560033317113,0.0014560033317116,-0.0013981426015982,0.0013981426015985,-0.0013981426015982,0.0013981426015986,-0.0013981426015987,0.0013981426015981,-0.001398142601598,0.0013981426015989,3.6763582780135e-18,-3.3660736393491e-17,-0.0014217606039958,0.0014217606039957,-4.632211430297e-18,-2.4249259201777e-17,-0.0014560033317114,0.0014560033317114,-0.0014560033317115,0.0014560033317115,-0.0014560033317115,0.0014560033317114,-0.0014560033317115,0.0014560033317114,-0.0013981426015984,0.0013981426015984,-0.0013981426015984,0.0013981426015984,0.62183719334346,0.60341414146988,1270536,32768,0.0059064791392689,0.0059064791392691,0.0059064791392691,37.246660055635,37.239387313062,0.00021317328044508,0.00021317328044508,0.00021317328044508,323455.6899572,0.017877584892912
38361600,0.99999977154237,0.01708852626047,0.0056961754201565,0.0056961754201566,0.0056961754201566,-0.0014217125991682,0.0014217125991681,-5.9380538906473e-17,-1.8293558791395e-17,3.5766554415137e-16,-4.4063359776958e-16,-0.0014559376312494,0.0014559376312496,-0.0014559376312494,0.0014559376312496,-0.0014559376312497,0.0014559376312493,-0.0014559376312497,0.0014559376312493,-0.0013981039091719,0.0013981039091715,-0.0013981039091719,0.0013981039091715,-3.5179807633966e-16,4.5317733221416e-16,4.0631111688605e-17,5.9733469301163e-17,-0.0014217125991682,0.0014217125991683,-0.0014559376312496,0.0014559376312494,-0.0014559376312496,0.0014559376312494,-0.0014559376312493,0.0014559376312497,-0.0014559376312493,0.0014559376312497,-0.0013981039091716,0.0013981039091719,-0.0013981039091716,0.001398103909172,-0.0013981039091721,0.0013981039091714,-0.0013981039091713,0.0013981039091722,4.3528082011679e-18,-3.3013697336561e-17,-0.0014217125991682,0.0014217125991682,-3.9263506409184e-18,-2.3308111482605e-17,-0.0014559376312495,0.0014559376312495,-0.0014559376312495,0.0014559376312495,-0.0014559376312495,0.0014559376312495,-0.0014559376312495,0.0014559376312495,-0.0013981039091718,0.0013981039091718,-0.0013981039091718,0.0013981039091718,0.6380046066385,0.68645999815632,1270536,32768,0.005906280273196,0.0059062802731961,0.0059062802731961,37.197137943781,37.19360843,0.00021277710355025,0.00021277710355025,0.00021277710355025,322003.66779439,0.017876977741553
38448000,0.99999978445117,0.017088526474517,0.0056961754915055,0.0056961754915056,0.0056961754915056,-0.0014218845437229,0.0014218845437228,-6.0174632294524e-17,-1.8970008714549e-17,3.5673174914876e-16,-4.413835748583e-16,-0.0014560504758942,0.0014560504758944,-0.0014560504758942,0.0014560504758944,-0.0014560504758945,0.0014560504758941,-0.0014560504758945,0.0014560504758941,-0.0013983229009938,0.0013983229009934,-0.0013983229009938,0.0013983229009934,-3.5112162641651e-16,4.5381701855454e-16,4.1189918146863e-17,6.0277570326309e-17,-0.0014218845437229,0.001421884543723,-0.0014560504758944,0.0014560504758943,-0.0014560504758944,0.0014560504758943,-0.0014560504758942,0.0014560504758945,-0.0014560504758942,0.0014560504758945,-0.0013983229009935,0.0013983229009938,-0.0013983229009935,0.0013983229009938,-0.001398322900994,0.0013983229009933,-0.0013983229009932,0.0013983229009941,3.8013544594659e-18,-3.3572503794819e-17,-0.0014218845437229,0.0014218845437229,-4.5292733985126e-18,-2.3808096208415e-17,-0.0014560504758943,0.0014560504758943,-0.0014560504758944,0.0014560504758943,-0.0014560504758943,0.0014560504758943,-0.0014560504758944,0.0014560504758943,-0.0013983229009937,0.0013983229009937,-0.0013983229009937,0.0013983229009937,0.66536548884373,0.79944244,1270536,32768,0.0059069924459825,0.0059069924459826,0.0059069924459826,37.193945405493,37.19360843,0.00021275156324394,0.00021275156324394,0.00021275156324394,316151.12062154,0.017879152878618
38534400,0.99999979663037,0.017088526680554,0.0056961755601847,0.0056961755601849,0.0056961755601849,-0.0014221288917368,0.0014221288917368,-6.0248159460085e-17,-1.8940597848325e-17,3.5673910186531e-16,-4.4128063682651e-16,-0.0014562179194173,0.0014562179194175,-0.0014562179194173,0.0014562179194175,-0.0014562179194176,0.0014562179194173,-0.0014562179194176,0.0014562179194173,-0.0013986249947697,0.0013986249947693,-0.0013986249947697,0.0013986249947694,-3.5000401349999e-16,4.5484639887238e-16,4.2292825630267e-17,6.1115780013696e-17,-0.0014221288917368,0.0014221288917369,-0.0014562179194175,0.0014562179194174,-0.0014562179194176,0.0014562179194174,-0.0014562179194173,0.0014562179194176,-0.0014562179194173,0.0014562179194176,-0.0013986249947694,0.0013986249947698,-0.0013986249947695,0.0013986249947698,-0.00139862499477,0.0013986249947693,-0.0013986249947692,0.0013986249947701,3.8087071760219e-18,-3.3381333164362e-17,-0.0014221288917368,0.0014221288917368,-4.4116299336161e-18,-2.3705158176631e-17,-0.0014562179194175,0.0014562179194174,-0.0014562179194175,0.0014562179194175,-0.0014562179194175,0.0014562179194174,-0.0014562179194175,0.0014562179194174,-0.0013986249947697,0.0013986249947696,-0.0013986249947696,0.0013986249947697,0.67881522378253,0.79944244,1270536,32768,0.0059080044723529,0.0059080044723531,0.0059080044723531,37.193642501355,37.19360843,0.00021274914001084,0.00021274914001084,0.00021274914001084,307874.12980101,0.017882243908282
38620800,0.99999980812139,0.017088526877817,0.005696175625939,0.0056961756259392,0.0056961756259392,-0.0014221930525092,0.0014221930525091,-6.0211395877304e-17,-1.9131768478782e-17,3.5663616383353e-16,-4.4161886178809e-16,-0.0014562707575879,0.0014562707575881,-0.0014562707575879,0.0014562707575881,-0.0014562707575882,0.0014562707575879,-0.0014562707575882,0.0014562707575879,-0.0013986837890671,0.0013986837890667,-0.0013986837890671,0.0013986837890668,-3.5126868074763e-16,4.5373613867242e-16,4.1057569248854e-17,5.9836407332947e-17,-0.0014221930525091,0.0014221930525092,-0.0014562707575881,0.001456270757588,-0.0014562707575882,0.001456270757588,-0.0014562707575879,0.0014562707575882,-0.0014562707575879,0.0014562707575882,-0.0013986837890668,0.0013986837890671,-0.0013986837890668,0.0013986837890672,-0.0013986837890673,0.0013986837890667,-0.0013986837890665,0.0013986837890674,2.2940475654804e-18,-3.4954814507352e-17,-0.0014221930525092,0.0014221930525092,-5.9262895441577e-18,-2.4940414558043e-17,-0.0014562707575881,0.001456270757588,-0.0014562707575881,0.0014562707575881,-0.0014562707575881,0.001456270757588,-0.0014562707575881,0.001456270757588,-0.001398683789067,0.001398683789067,-0.001398683789067,0.001398683789067,0.68877836888033,0.79944244,1270536,32768,0.0059082701232165,0.0059082701232167,0.0059082701232167,37.193611923474,37.19360843,0.00021274889538779,0.00021274889538779,0.00021274889538779,305159.6202014,0.017883055446067
38707200,0.99999981896313,0.017088527066095,0.0056961756886983,0.0056961756886985,0.0056961756886985,-0.001422225877353,0.0014222258773529,-6.0240806743529e-17,-1.9234706510566e-17,3.5673174914876e-16,-4.4142769115763e-16,-0.0014563059125155,0.0014563059125157,-0.0014563059125155,0.0014563059125156,-0.0014563059125157,0.0014563059125154,-0.0014563059125157,0.0014563059125154,-0.0013987060008886,0.0013987060008881,-0.0013987060008885,0.0013987060008882,-3.5044517649335e-16,4.5434641414657e-16,4.1873720786573e-17,6.0512857256102e-17,-0.0014222258773529,0.001422225877353,-0.0014563059125157,0.0014563059125155,-0.0014563059125157,0.0014563059125155,-0.0014563059125154,0.0014563059125158,-0.0014563059125154,0.0014563059125158,-0.0013987060008883,0.0013987060008886,-0.0013987060008883,0.0013987060008886,-0.0013987060008888,0.0013987060008881,-0.001398706000888,0.0013987060008889,3.1028463866434e-18,-3.4043077654405e-17,-0.001422225877353,0.001422225877353,-5.0733744236586e-18,-2.405808857132e-17,-0.0014563059125156,0.0014563059125156,-0.0014563059125156,0.0014563059125156,-0.0014563059125156,0.0014563059125156,-0.0014563059125156,0.0014563059125156,-0.0013987060008885,0.0013987060008884,-0.0013987060008884,0.0013987060008885,0.69676124507531,0.79944244,1270536,32768,0.0059084060037684,0.0059084060037686,0.0059084060037686,37.193608789565,37.19360843,0.00021274887031652,0.00021274887031652,0.00021274887031652,303384.98792766,0.017883470616349
38793600,0.99999982919228,0.017088527245442,0.0056961757484804,0.0056961757484806,0.0056961757484806,-0.0014222438682453,0.0014222438682452,-6.0619471646164e-17,-1.9697927653596e-17,3.563567606044e-16,-4.4176591611921e-16,-0.0014563317781262,0.0014563317781263,-0.0014563317781262,0.0014563317781263,-0.0014563317781264,0.0014563317781261,-0.0014563317781264,0.0014563317781261,-0.0013987131535416,0.0013987131535412,-0.0013987131535415,0.0013987131535412,-3.5148926224431e-16,4.5372143323931e-16,4.0748755153501e-17,5.9748174734275e-17,-0.0014222438682452,0.0014222438682453,-0.0014563317781264,0.0014563317781262,-0.0014563317781264,0.0014563317781262,-0.0014563317781261,0.0014563317781264,-0.0014563317781261,0.0014563317781265,-0.0013987131535413,0.0013987131535416,-0.0013987131535413,0.0013987131535416,-0.0013987131535418,0.0013987131535411,-0.001398713153541,0.0013987131535419,3.6469474117894e-18,-3.3763674425276e-17,-0.0014222438682453,0.0014222438682453,-4.5292733985126e-18,-2.3675747310407e-17,-0.0014563317781263,0.0014563317781263,-0.0014563317781263,0.0014563317781263,-0.0014563317781263,0.0014563317781263,-0.0014563317781263,0.0014563317781263,-0.0013987131535415,0.0013987131535414,-0.0013987131535414,0.0013987131535415,0.70344362152967,0.79944244,1270536,32768,0.00590848045967,0.0059084804596701,0.0059084804596701,37.193608467048,37.19360843,0.00021274886773639,0.00021274886773639,0.00021274886773639,302037.58369779,0.017883698160723
38880000,0.99999983884345,0.01708852741604,0.0056961758053465,0.0056961758053467,0.0056961758053467,-0.0014222535955093,0.0014222535955092,-5.9700382076661e-17,-1.8742074501313e-17,3.5745231537125e-16,-4.4094241186493e-16,-0.0014563516357294,0.0014563516357296,-0.0014563516357294,0.0014563516357296,-0.0014563516357297,0.0014563516357294,-0.0014563516357297,0.0014563516357294,-0.0013987129845806,0.0013987129845802,-0.0013987129845806,0.0013987129845802,-3.5168043287477e-16,4.5345673544329e-16,4.088110405151e-17,5.9586414970042e-17,-0.0014222535955093,0.0014222535955094,-0.0014563516357296,0.0014563516357295,-0.0014563516357297,0.0014563516357295,-0.0014563516357294,0.0014563516357297,-0.0014563516357294,0.0014563516357297,-0.0013987129845803,0.0013987129845806,-0.0013987129845803,0.0013987129845807,-0.0013987129845808,0.0013987129845801,-0.00139871298458,0.0013987129845809,2.7646214250661e-18,-3.4484240647766e-17,-0.0014222535955093,0.0014222535955093,-5.4263048183479e-18,-2.4690422195138e-17,-0.0014563516357296,0.0014563516357295,-0.0014563516357296,0.0014563516357296,-0.0014563516357296,0.0014563516357295,-0.0014563516357296,0.0014563516357295,-0.0013987129845805,0.0013987129845805,-0.0013987129845805,0.0013987129845805,0.70919502816361,0.79944244,1270536,32768,0.0059085207008811,0.0059085207008813,0.0059085207008813,37.193608433819,37.19360843,0.00021274886747055,0.00021274886747055,0.00021274886747055,300924.95547477,0.017883821186057
