time,ASR_ext,ASR_strain,ASR_strain_xx,ASR_strain_yy,ASR_strain_zz,disp_x_101,disp_x_102,disp_x_103,disp_x_104,disp_x_105,disp_x_106,disp_x_p1_neg,disp_x_p1_pos,disp_x_p2_neg,disp_x_p2_pos,disp_x_p3_neg,disp_x_p3_pos,disp_x_p4_neg,disp_x_p4_pos,disp_x_p5_neg,disp_x_p5_pos,disp_x_p6_neg,disp_x_p6_pos,disp_y_101,disp_y_102,disp_y_103,disp_y_104,disp_y_105,disp_y_106,disp_y_p1_neg,disp_y_p1_pos,disp_y_p2_neg,disp_y_p2_pos,disp_y_p3_neg,disp_y_p3_pos,disp_y_p4_neg,disp_y_p4_pos,disp_y_p5_neg,disp_y_p5_pos,disp_y_p6_neg,disp_y_p6_pos,disp_y_p7_neg,disp_y_p7_pos,disp_y_p8_neg,disp_y_p8_pos,disp_z_101,disp_z_102,disp_z_103,disp_z_104,disp_z_105,disp_z_106,disp_z_p1_neg,disp_z_p1_pos,disp_z_p2_neg,disp_z_p2_pos,disp_z_p3_neg,disp_z_p3_pos,disp_z_p4_neg,disp_z_p4_pos,disp_z_p5_neg,disp_z_p5_pos,disp_z_p6_neg,disp_z_p6_pos,humidity,humidity_bc,ndof,nelem,strain_xx,strain_yy,strain_zz,temp,temp_bc,thermal_strain_xx,thermal_strain_yy,thermal_strain_zz,vonmises,vstrain
2419200,0,0,0,0,0,0,0,0,0,0,0,0,0,0,0,0,0,0,0,0,0,0,0,0,0,0,0,0,0,0,0,0,0,0,0,0,0,0,0,0,0,0,0,0,0,0,0,0,0,0,0,0,0,0,0,0,0,0,0,0,0,0,0,0,0,0,0,0,0,0,0,0,0,0,0,0,0
2505600,0.0094344996442223,0.0001674617269515,5.5820575650499e-05,5.5820575650499e-05,5.5820575650499e-05,-5.0433236274156e-05,5.0433234555524e-05,1.1296859140546e-11,-1.30422224606e-11,-9.9160309507375e-13,-7.1340743199559e-13,-4.9550812339922e-05,4.9550817738855e-05,-4.9550819531435e-05,4.9550810358631e-05,-4.955081528968e-05,4.9550821214337e-05,-4.9550822738439e-05,4.9550813650733e-05,-5.1076108270602e-05,5.1076133468835e-05,-5.107613494157e-05,5.1076106724581e-05,-5.5872307762512e-12,-5.904043157593e-12,-2.0470661124325e-12,-2.4966574007052e-12,-5.0433237998038e-05,5.0433232876962e-05,-4.9550816647186e-05,4.9550816324527e-05,-4.9550817220343e-05,4.9550816366408e-05,-4.9550817173991e-05,4.9550816168203e-05,-4.9550816842365e-05,4.9550816152556e-05,-5.1076123143199e-05,5.1076115433718e-05,-5.1076116484784e-05,5.1076108274007e-05,-5.1076126263707e-05,5.1076107254357e-05,-5.1076124459683e-05,5.1076105918986e-05,-1.2566253683105e-11,1.204720662971e-11,-5.0433235693799e-05,5.0433235127934e-05,-5.3673185596758e-13,-1.1533186547744e-13,-4.9550821610573e-05,4.955081094146e-05,-4.9550822228791e-05,4.9550811885549e-05,-4.9550811703158e-05,4.955082096513e-05,-4.9550812315449e-05,4.9550821865048e-05,-5.1076099053061e-05,5.1076125228994e-05,-5.1076125633258e-05,5.1076098867013e-05,0.80608370594249,0.89000107803811,1368840,32768,0.00021011633393819,0.00021011633403259,0.00021011633392164,29.88742029955,31.134358773249,0.0001542993623964,0.0001542993623964,0.0001542993623964,279165.89635767,0.00063054799285432
2592000,0.020799358837941,0.00036892843015615,0.00012297614339236,0.00012297614340949,0.0001229761433543,-6.9997212864849e-05,6.9997212788402e-05,1.2579945228073e-11,-1.2627936750936e-11,-2.2606156088625e-13,7.4292502473869e-14,-6.9443793428652e-05,6.9443801306524e-05,-6.9443801469892e-05,6.9443793248976e-05,-6.9443793497604e-05,6.9443801834542e-05,-6.9443801695799e-05,6.9443793725976e-05,-7.0467338150008e-05,7.0467363631792e-05,-7.0467363629576e-05,7.0467338405069e-05,-1.8163742352786e-12,-2.115906389924e-12,-6.6128637352286e-13,-1.0034721846871e-12,-6.9997213810984e-05,6.9997211872701e-05,-6.9443797571554e-05,6.9443797275597e-05,-6.9443797726889e-05,6.9443797291852e-05,-6.9443797771089e-05,6.9443797191707e-05,-6.9443797705216e-05,6.9443797090798e-05,-7.0467351950717e-05,7.0467349167433e-05,-7.0467349947109e-05,7.0467346280703e-05,-7.0467352683695e-05,7.0467346002173e-05,-7.0467352725975e-05,7.0467345737966e-05,-1.2632221932526e-11,1.2540297764644e-11,-6.9997212827479e-05,6.9997212828341e-05,-1.9344776861228e-13,1.4157077437473e-13,-6.9443801934435e-05,6.9443793454464e-05,-6.9443801588766e-05,6.9443793275864e-05,-6.9443793363376e-05,6.9443801988399e-05,-6.9443792995853e-05,6.9443801792007e-05,-7.046733531621e-05,7.0467360577805e-05,-7.0467360687681e-05,7.0467335522631e-05,0.80782119423514,0.89156329086412,1368840,32768,0.00029161248761616,0.00029161248767955,0.00029161248762151,31.683586735921,31.842440110251,0.00016866869388737,0.00016866869388737,0.00016866869388737,149480.97062203,0.00087522038118892
2678400,0.033285762657814,0.00059092764331724,0.00019697588110654,0.00019697588114512,0.00019697588106558,-8.931268137327e-05,8.9312681250753e-05,1.3044684412963e-11,-1.3184176206732e-11,-2.1261049018958e-13,6.7613110936461e-14,-8.8728155117881e-05,8.8728163313789e-05,-8.8728163475486e-05,8.8728154860749e-05,-8.8728155127558e-05,8.8728163563086e-05,-8.8728163583943e-05,8.8728155249373e-05,-8.9866628360537e-05,8.9866654584622e-05,-8.9866654772151e-05,8.9866628634137e-05,-1.3317556760724e-12,-1.6068043139665e-12,-5.6103586073956e-13,-9.0937672100363e-13,-8.9312682151953e-05,8.9312680473983e-05,-8.8728159445744e-05,8.8728159160868e-05,-8.8728159549847e-05,8.8728159013428e-05,-8.8728159563178e-05,8.8728158955531e-05,-8.8728159476322e-05,8.8728158993434e-05,-8.9866642599535e-05,8.9866639951415e-05,-8.9866641049803e-05,8.9866637921091e-05,-8.9866643030804e-05,8.9866637964831e-05,-8.9866642979909e-05,8.9866637573434e-05,-1.3161321206407e-11,1.305466053467e-11,-8.9312681334754e-05,8.9312681272911e-05,-2.0862823500651e-13,1.3196536744567e-13,-8.8728163938769e-05,8.872815497172e-05,-8.8728163629898e-05,8.8728154817934e-05,-8.8728155115261e-05,8.8728163773844e-05,-8.8728154786862e-05,8.8728163742617e-05,-8.9866626470042e-05,8.9866652386757e-05,-8.9866652530756e-05,8.9866626288108e-05,0.80925328530188,0.89127806232602,1368840,32768,0.00037206689295318,0.00037206689295716,0.00037206689291911,32.491621577819,32.550521447259,0.00017513297262255,0.00017513297262255,0.00017513297262255,148335.65731041,0.0011168240392678
2764800,0.046404009126526,0.00082450108202178,0.00027483369401169,0.0002748336940545,0.00027483369395559,-0.00010865370476877,0.00010865370470456,1.3292199204497e-11,-1.3362220675683e-11,-1.7420272602041e-13,1.0214943087559e-13,-0.00010800654025474,0.00010800654869358,-0.00010800654882467,0.00010800654007781,-0.00010800654046928,0.00010800654917062,-0.00010800654911922,0.00010800654052441,-0.00010931599679004,0.00010931602357831,-0.00010931602362959,0.0001093159969453,-1.0910830872783e-12,-1.3598389872641e-12,-4.1190850471322e-13,-8.0911968452257e-13,-0.0001086537055149,0.00010865370398008,-0.00010800654482133,0.00010800654444156,-0.0001080065449926,0.0001080065443153,-0.00010800654495578,0.00010800654433429,-0.00010800654499127,0.00010800654424144,-0.00010931601113601,0.00010931600893757,-0.00010931600976727,0.00010931600687467,-0.00010931601147302,0.00010931600719145,-0.00010931601141284,0.00010931600665784,-1.3336821642783e-11,1.3333092045323e-11,-0.00010865370471317,0.00010865370473376,-1.8426738730192e-13,2.0496637260919e-13,-0.00010800654929483,0.00010800654015464,-0.00010800654900683,0.00010800654012939,-0.0001080065402502,0.00010800654921058,-0.00010800653995323,0.00010800654917983,-0.00010931599499351,0.0001093160216495,-0.00010931602158283,0.00010931599507384,0.81051085650584,0.8909928337879,1368840,32768,0.00045262125044325,0.00045262125048832,0.00045262125038826,32.830247502494,32.854492054626,0.00017784198001995,0.00017784198001995,0.00017784198001995,158052.93609162,0.0013587863089265
2851200,0.059662515938035,0.0010608494109518,0.00035361647032115,0.00035361647036963,0.00035361647026106,-0.00012738564138454,0.00012738564130494,1.3278637442329e-11,-1.33624814361e-11,-1.5829322307422e-13,7.5373785617882e-14,-0.00012667993330283,0.00012667994179226,-0.00012667994193008,0.00012667993313053,-0.0001266799336027,0.00012667994233221,-0.00012667994231758,0.00012667993363523,-0.00012815495470427,0.00012815498146906,-0.00012815498151792,0.00012815495478265,-9.7392942543341e-13,-1.1990626488709e-12,-3.1366955547804e-13,-7.1680408925946e-13,-0.00012738564206617,0.00012738564064738,-0.00012667993795226,0.00012667993752323,-0.00012667993816065,0.00012667993741087,-0.00012667993810796,0.00012667993743749,-0.0001266799381246,0.00012667993733129,-0.00012815496884482,0.00012815496696273,-0.00012815496757703,0.00012815496489961,-0.00012815496922,0.00012815496531662,-0.00012815496911631,0.00012815496473395,-1.3346813348573e-11,1.3349192224429e-11,-0.00012738564132539,0.00012738564133679,-1.9577119395676e-13,1.9935525358385e-13,-0.00012667994242602,0.00012667993322037,-0.00012667994214961,0.00012667993320618,-0.00012667993332323,0.00012667994232879,-0.00012667993303386,0.00012667994231474,-0.00012815495296459,0.00012815497957919,-0.00012815497948125,0.00012815495307337,0.81162294215721,0.89070760524979,1368840,32768,0.00053063260367596,0.00053063260372608,0.00053063260361909,32.734782857658,32.729407882756,0.00017707826286126,0.00017707826286126,0.00017707826286126,167220.22135511,0.00159316587609
2937600,0.073020926761008,0.0012992318808634,0.00043307729362479,0.00043307729367291,0.00043307729356567,-0.00014622996331821,0.00014622996323327,1.3099148947638e-11,-1.3181397118837e-11,-1.3979897188443e-13,4.8635242167913e-14,-0.00014545385896277,0.00014545386745526,-0.00014545386758379,0.00014545385879698,-0.00014545385939647,0.00014545386800118,-0.00014545386800857,0.00014545385940054,-0.00014711513252781,0.00014711515897708,-0.00014711515902573,0.00014711513260912,-8.8783639926626e-13,-1.0669943452316e-12,-2.3038795445319e-13,-6.3984729133975e-13,-0.00014622996394229,0.00014622996263298,-0.00014545386364253,0.00014545386316659,-0.00014545386386406,0.00014545386315737,-0.00014545386379791,0.00014545386319936,-0.00014545386380504,0.00014545386299104,-0.00014711514638105,0.00014711514469457,-0.00014711514515548,0.00014711514266668,-0.0001471151467584,0.00014711514308528,-0.00014711514662315,0.00014711514253127,-1.3188753776449e-11,1.3182887260814e-11,-0.00014622996326033,0.00014622996326699,-2.0088048823897e-13,2.0066741754226e-13,-0.00014545386807963,0.00014545385898075,-0.00014545386780346,0.00014545385896232,-0.00014545385908573,0.00014545386797794,-0.00014545385879273,0.00014545386796402,-0.00014711513074903,0.00014711515704563,-0.00014711515697399,0.00014711513087306,0.81262245312595,0.89042237671168,1368840,32768,0.00060910585245526,0.00060910585250478,0.00060910585240496,32.612475837035,32.604323710885,0.00017609980669627,0.00017609980669627,0.00017609980669627,180347.30967319,0.0018289885477991
3024000,0.0864657093861,0.0015391086845093,0.00051303622817441,0.00051303622822197,0.0005130362281129,-0.00016519116094978,0.00016519116086414,1.2881956898883e-11,-1.2964722863086e-11,-1.2572898994801e-13,3.4425411562601e-14,-0.00016434948569941,0.00016434949385091,-0.00016434949397322,0.00016434948554189,-0.00016434948615481,0.00016434949464355,-0.00016434949466169,0.00016434948614744,-0.00016618160929066,0.00016618163539832,-0.00016618163545853,0.0001661816093457,-8.7860901203896e-13,-1.0298474359266e-12,-1.6214067906649e-13,-5.7068056242408e-13,-0.00016519116151965,0.00016519116031775,-0.00016434949027654,0.00016434948991704,-0.00016434949049715,0.00016434948966949,-0.00016434949042512,0.00016434948972244,-0.00016434949042983,0.00016434948974657,-0.00016618162289541,0.00016618162134366,-0.00016618162166826,0.00016618161935629,-0.00016618162325964,0.00016618161967879,-0.0001661816231656,0.00016618161917241,-1.2995712210501e-11,1.2986518851646e-11,-0.00016519116091259,0.00016519116091467,-2.0281166453698e-13,1.9794600435603e-13,-0.00016434949469933,0.00016434948574687,-0.00016434949440724,0.00016434948571222,-0.00016434948586008,0.00016434949459292,-0.00016434948554881,0.00016434949456393,-0.00016618160752427,0.00016618163346099,-0.00016618163337661,0.00016618160764115,0.81259745931605,0.87677430802202,1368840,32768,0.00068805958797115,0.00068805958802001,0.00068805958799892,32.487665392887,32.479239539014,0.00017510132314309,0.00017510132314309,0.00017510132314309,191471.98574881,0.0020663111923328
3110400,0.099986127296436,0.0017799208815545,0.00059330696052233,0.00059330696056896,0.00059330696046317,-0.00018423105754578,0.00018423105745991,1.281968682325e-11,-1.2909046211029e-11,-1.0451873349502e-13,1.3945610735871e-14,-0.00018333821432314,0.00018333822256357,-0.00018333822268455,0.00018333821417522,-0.00018333821467768,0.00018333822303274,-0.00018333822304255,0.00018333821466113,-0.0001853002866859,0.00018530031273383,-0.00018530031280219,0.00018530028670193,-8.9846021442188e-13,-1.0079372596792e-12,-1.7266640163054e-13,-5.6528469417591e-13,-0.00018423105809283,0.00018423105693825,-0.000183338218717,0.0001833382185038,-0.00018333821891538,0.00018333821841698,-0.00018333821883658,0.00018333821849494,-0.0001833382188587,0.00018333821835923,-0.00018530030030025,0.00018530029873016,-0.00018530029904354,0.00018530029671734,-0.00018530030063755,0.00018530029698591,-0.00018530030060849,0.00018530029652868,-1.2950835824091e-11,1.2945896511748e-11,-0.00018423105751617,0.00018423105751241,-2.0052169405283e-13,1.8456635794799e-13,-0.00018333822315684,0.00018333821432291,-0.0001833382228436,0.00018333821425926,-0.00018333821444719,0.00018333822301706,-0.00018333821412075,0.00018333822299823,-0.00018530028491996,0.00018530031078918,-0.0001853003107012,0.00018530028503752,0.81127983086154,0.84958561210053,1368840,32768,0.00076733475283115,0.00076733475288402,0.00076733475287881,32.362604757714,32.354155367144,0.00017410083806171,0.00017410083806171,0.00017410083806171,197421.53225915,0.0023046565590329
3196800,0.11357172491819,0.0020214335805193,0.0006738111935099,0.00067381119355972,0.00067381119344971,-0.00020333056957292,0.00020333056947706,1.2680726788972e-11,-1.2781299040088e-11,-1.0171544413359e-13,-4.5121636270867e-15,-0.00020240086859842,0.00020240087674394,-0.00020240087686058,0.0002024008684571,-0.0002024008689439,0.00020240087727514,-0.00020240087731712,0.00020240086892027,-0.00020445281047917,0.00020445283623896,-0.0002044528363778,0.00020445281040657,-8.9462452645246e-13,-9.8300094793697e-13,-1.5687798322059e-13,-5.5002059430722e-13,-0.00020333057010098,0.00020333056897391,-0.00020240087294519,0.00020240087276504,-0.00020240087319453,0.00020240087266985,-0.00020240087309162,0.00020240087273146,-0.00020240087306677,0.0002024008726227,-0.00020445282397531,0.00020445282243673,-0.00020445282270109,0.00020445282034894,-0.00020445282428237,0.00020445282060506,-0.00020445282426022,0.00020445282025905,-1.2828318022808e-11,1.2816760390591e-11,-0.00020333056953455,0.00020333056952775,-2.0109500742085e-13,1.8471369535869e-13,-0.00020240087733771,0.00020240086861888,-0.00020240087703568,0.00020240086857958,-0.00020240086875019,0.00020240087723148,-0.00020240086842491,0.00020240087717228,-0.00020445280870391,0.00020445283442251,-0.00020445283424393,0.00020445280875153,0.80976522365626,0.82666567875123,1368840,32768,0.00084685182430365,0.00084685182435552,0.00084685182432929,32.237518840668,32.229071195273,0.00017310015072534,0.00017310015072534,0.00017310015072534,198452.85695619,0.002543786169333
3283200,0.12721189163758,0.0022625159044612,0.0007541719681572,0.00075417196820799,0.00075417196809597,-0.00022239720370513,0.0002223972036083,1.2639795458513e-11,-1.2743102773134e-11,-8.5909875512274e-14,-2.1404691689597e-14,-0.00022147028339911,0.00022147029148081,-0.00022147029162841,0.00022147028331074,-0.00022147028366287,0.00022147029191189,-0.00022147029195591,0.00022147028362598,-0.0002235039365236,0.00022350396212599,-0.00022350396228972,0.00022350393647638,-9.1594084216541e-13,-9.7128045304887e-13,-1.8356398783441e-13,-5.8418504325381e-13,-0.00022239720425301,0.00022239720309465,-0.00022147028772791,0.00022147028753499,-0.00022147028790095,0.00022147028741729,-0.0002214702878027,0.00022147028749607,-0.00022147028782761,0.00022147028744311,-0.00022350394991354,0.00022350394837674,-0.00022350394874587,0.00022350394637448,-0.00022350395036249,0.00022350394653134,-0.00022350395020304,0.00022350394630517,-1.2804755294104e-11,1.2775561494778e-11,-0.00022239720366828,0.00022239720365059,-2.0912924727446e-13,1.8444199777651e-13,-0.00022147029210587,0.00022147028339796,-0.00022147029172873,0.00022147028339476,-0.0002214702835161,0.00022147029194421,-0.00022147028327605,0.00022147029191098,-0.00022350393473866,0.00022350396032508,-0.00022350396022237,0.00022350393477721,0.80501662642677,0.76479338888033,1368840,32768,0.00092622572547212,0.00092622572554336,0.00092622572548343,32.112428538512,32.103987023403,0.00017209942830809,0.00017209942830809,0.00017209942830809,186740.94733217,0.0027825420592749
3369600,0.14089646632447,0.0025034234831101,0.00083447449437545,0.0008344744944283,0.0008344744943063,-0.00024145212314922,0.00024145212302372,1.2601400609391e-11,-1.2719957987544e-11,-9.7675589607196e-14,-6.099454842312e-14,-0.00024055386793628,0.00024055387604092,-0.00024055387617238,0.00024055386782277,-0.00024055386821369,0.00024055387642237,-0.00024055387650934,0.00024055386813554,-0.0002425001853518,0.00024250021086442,-0.00024250021096153,0.0002425001852506,-8.771680891464e-13,-9.0446958966312e-13,-1.5797701582237e-13,-5.5682307031977e-13,-0.00024145212364435,0.00024145212255911,-0.00024055387222208,0.0002405538720633,-0.0002405538724033,0.00024055387196778,-0.00024055387229933,0.00024055387206636,-0.00024055387231058,0.00024055387194717,-0.00024250019861928,0.00024250019713258,-0.00024250019746721,0.00024250019515951,-0.00024250019899275,0.00024250019531295,-0.00024250019891635,0.00024250019514971,-1.2773172663343e-11,1.275938143392e-11,-0.00024145212308873,0.00024145212307188,-2.1766710777221e-13,1.7523909509535e-13,-0.00024055387661583,0.0002405538679279,-0.00024055387624414,0.00024055386789423,-0.00024055386809002,0.00024055387647038,-0.00024055386774451,0.00024055387640922,-0.00024250018351105,0.00024250020909802,-0.00024250020894057,0.00024250018359928,0.801702754891,0.73261215393987,1368840,32768,0.0010055445752975,0.001005544575361,0.0010055445752718,31.987339184841,31.978902851532,0.00017109871347872,0.00017109871347872,0.00017109871347872,168768.36971324,0.0030211891121557
3456000,0.15461468738998,0.0027439206504163,0.00091464021681324,0.00091464021686597,0.00091464021673709,-0.00026047011987986,0.0002604701197533,1.2534228529099e-11,-1.2656342232432e-11,-8.2303662150205e-14,-7.1073306700443e-14,-0.0002596293851105,0.0002596293931929,-0.0002596293933108,0.00025962938501493,-0.0002596293854341,0.00025962939357143,-0.00025962939364979,0.00025962938530307,-0.00026141303265369,0.00026141305799451,-0.00026141305814062,0.00026141303245046,-8.2628139370001e-13,-8.27354960168e-13,-1.1362029000754e-13,-5.1930969426884e-13,-0.00026047012034233,0.00026047011931425,-0.00025962938936543,0.00025962938924706,-0.00025962938957319,0.0002596293891457,-0.00025962938945299,0.00025962938923946,-0.00025962938950856,0.00025962938911294,-0.00026141304592544,0.00026141304444001,-0.00026141304464542,0.00026141304246952,-0.00026141304620879,0.0002614130424925,-0.00026141304618605,0.00026141304240904,-1.2693674408137e-11,1.2713518750435e-11,-0.00026047011980566,0.00026047011980639,-2.0884370085065e-13,1.8960511210574e-13,-0.00025962939372447,0.00025962938510893,-0.00025962939337315,0.00025962938505599,-0.00025962938523239,0.00025962939361468,-0.00025962938488228,0.00025962939357582,-0.00026141303073438,0.00026141305633956,-0.00026141305608891,0.00026141303082967,0.79821837174426,0.70043091899941,1368840,32768,0.0010847034665174,0.0010847034665661,0.0010847034664735,31.862250092635,31.853818679661,0.00017009800074108,0.00017009800074108,0.00017009800074108,145792.90335583,0.0032594114762996
3542400,0.16849481999596,0.0029861981059173,0.00099539936864702,0.00099539936869594,0.00099539936857439,-0.00027987586092679,0.000279875860821,1.2477384412706e-11,-1.2581235548949e-11,-5.6001936238113e-14,-6.2271832932367e-14,-0.00027911436905559,0.000279114377089,-0.0002791143771789,0.00027911436895153,-0.00027911436938011,0.00027911437754422,-0.00027911437762824,0.00027911436928877,-0.00028067010924831,0.00028067013450789,-0.00028067013465192,0.00028067010916201,-7.6623956617193e-13,-7.5042789847223e-13,-7.423573214934e-14,-4.7560162510858e-13,-0.00027987586136676,0.00027987586040542,-0.00027911437331234,0.00027911437318585,-0.00027911437354455,0.00027911437304196,-0.00027911437341068,0.00027911437314584,-0.0002791143734177,0.00027911437307785,-0.00028067012234844,0.00028067012100331,-0.00028067012122216,0.00028067011905774,-0.00028067012276459,0.00028067011920692,-0.00028067012260228,0.00028067011900304,-1.2639109810342e-11,1.2629061690834e-11,-0.00027987586085892,0.00027987586084833,-2.0823236658531e-13,1.8604617671113e-13,-0.00027911437768126,0.00027911436903757,-0.0002791143773836,0.00027911436902683,-0.00027911436916975,0.00027911437755505,-0.00027911436887709,0.00027911437753881,-0.00028067010736919,0.00028067013276173,-0.00028067013262895,0.00028067010745287,0.79462189069272,0.66824968405895,1368840,32768,0.0011654698211053,0.0011654698211561,0.0011654698210209,31.866077984146,31.866037091772,0.00017012862387317,0.00017012862387317,0.00017012862387317,126681.23949958,0.0035025296536754
3628800,0.18266756707467,0.0032326108420605,0.0010775369473623,0.0010775369474115,0.0010775369472867,-0.00029986524717777,0.00029986524706401,1.2316161749713e-11,-1.2425799032722e-11,-5.4129434618222e-14,-6.2174777073827e-14,-0.00029920669168973,0.0002992066996093,-0.00029920669970332,0.00029920669155154,-0.00029920669195465,0.00029920669997914,-0.00029920670010508,0.00029920669183845,-0.00030047635758405,0.00030047638234389,-0.00030047638237421,0.00030047635754822,-7.1275554933663e-13,-6.9586800641595e-13,-3.7532890160675e-14,-4.1738609472955e-13,-0.0002998652475863,0.00029986524667842,-0.00029920669579811,0.00029920669578092,-0.00029920669603171,0.00029920669564187,-0.0002992066958659,0.0002992066957248,-0.00029920669590544,0.0002992066957092,-0.00030047637024713,0.00030047636914836,-0.00030047636927483,0.00030047636755732,-0.00030047637060401,0.00030047636769978,-0.00030047637051203,0.00030047636751616,-1.2472764347964e-11,1.2453690254194e-11,-0.00029986524710815,0.00029986524709664,-1.8896458020296e-13,1.8386502275565e-13,-0.00029920670012887,0.00029920669160723,-0.00029920669984941,0.00029920669158071,-0.00029920669172994,0.00029920670000462,-0.00029920669146463,0.00029920670000994,-0.00030047635599093,0.00030047638085852,-0.0003004763808311,0.00030047635614206,0.79172621409635,0.64735214500615,1368840,32768,0.0012486584798904,0.0012486584799381,0.0012486584798134,32.003037774027,32.011945666728,0.00017122430219221,0.00017122430219221,0.00017122430219221,132451.42878056,0.0037530008871998
3715200,0.19713162990854,0.0034836951496498,0.0011612317165596,0.00116123171661,0.0011612317164802,-0.00032024457880513,0.00032024457868935,1.2444490167603e-11,-1.2554675610337e-11,-4.3425658670054e-14,-8.257028635796e-14,-0.00031970486922796,0.00031970487731188,-0.00031970487740922,0.00031970486913693,-0.00031970486954059,0.00031970487762207,-0.00031970487772118,0.00031970486943436,-0.00032065957873905,0.00032065960386849,-0.00032065960392177,0.00032065957866171,-7.6938587814249e-13,-7.2218034965075e-13,-6.9106580017888e-14,-4.6149435754651e-13,-0.00032024457922314,0.00032024457829546,-0.00031970487343839,0.00031970487339976,-0.00031970487358917,0.00031970487330148,-0.00031970487342918,0.00031970487341366,-0.00031970487351814,0.00031970487331227,-0.00032065959168838,0.00032065959033369,-0.00032065959067608,0.00032065958855443,-0.00032065959208456,0.00032065958866046,-0.00032065959192909,0.00032065958855361,-1.2605636303523e-11,1.2581639566018e-11,-0.00032024457873566,0.000320244578715,-2.0772280862255e-13,1.77232512139e-13,-0.00031970487780196,0.0003197048692313,-0.00031970487753405,0.00031970486924331,-0.00031970486935515,0.00031970487765977,-0.00031970486912606,0.00031970487767864,-0.00032065957680426,0.00032065960215186,-0.0003206596020626,0.00032065957697008,0.79075896618486,0.65446358265354,1368840,32768,0.0013334628230678,0.001333462823118,0.0013334628229767,32.148107391034,32.157854241684,0.00017238485912827,0.00017238485912827,0.00017238485912827,154274.16931831,0.0040084011213795
3801600,0.21187717717175,0.0037393301998904,0.0012464433999742,0.0012464434000266,0.0012464433998896,-0.00034099719925622,0.00034099719914466,1.2671557980837e-11,-1.2781105193068e-11,-3.9731286236478e-14,-8.0995863867251e-14,-0.00034058721812018,0.00034058722635386,-0.00034058722644056,0.0003405872180164,-0.00034058721844778,0.00034058722670298,-0.00034058722680432,0.00034058721834017,-0.00034120623905046,0.00034120626457696,-0.00034120626470293,0.00034120623893815,-7.9940954917524e-13,-7.5105717336596e-13,-5.0651761446986e-14,-4.5316908246619e-13,-0.00034099719968566,0.00034099719873983,-0.00034058722240346,0.00034058722238162,-0.00034058722257833,0.00034058722228059,-0.00034058722242796,0.00034058722239037,-0.00034058722249991,0.00034058722228633,-0.00034120625220603,0.00034120625084027,-0.00034120625114589,0.00034120624905932,-0.00034120625263386,0.00034120624908122,-0.00034120625250135,0.00034120624901279,-1.2816561668721e-11,1.2808019900254e-11,-0.00034099719917877,0.00034099719916907,-2.0689579712248e-13,1.8827180724905e-13,-0.00034058722684896,0.00034058721811697,-0.00034058722660314,0.00034058721815448,-0.00034058721825134,0.00034058722672145,-0.00034058721801091,0.00034058722675548,-0.00034120623707856,0.00034120626289972,-0.00034120626276158,0.00034120623718378,0.78997732817788,0.66157502030094,1368840,32768,0.0014198131322149,0.0014198131322662,0.0014198131321046,32.293928888369,32.30376281664,0.00017355143110695,0.00017355143110695,0.00017355143110695,174849.39998193,0.004268524050364
3888000,0.22689230966046,0.0039993484008504,0.0013331161336297,0.0013331161336832,0.0013331161335375,-0.0003621042086709,0.00036210420856195,1.3003877402236e-11,-1.3108581909468e-11,-4.5532947235011e-14,-7.5347889350172e-14,-0.00036183560088999,0.00036183560935709,-0.00036183560944659,0.0003618356007844,-0.0003618356011973,0.00036183560967105,-0.00036183560976561,0.00036183560109869,-0.00036209620028425,0.00036209622648332,-0.00036209622660265,0.0003620962002082,-8.31388910463e-13,-7.9525717602739e-13,-6.8226011330421e-14,-4.5888820186866e-13,-0.0003621042091329,0.00036210420812687,-0.00036183560528725,0.0003618356052631,-0.00036183560544492,0.00036183560516602,-0.00036183560530682,0.00036183560527475,-0.00036183560538326,0.00036183560516811,-0.00036209621387611,0.00036209621238058,-0.00036209621279778,0.00036209621055726,-0.00036209621423181,0.00036209621055659,-0.00036209621413594,0.00036209621050055,-1.3147573306543e-11,1.3119257958322e-11,-0.00036210420859726,0.00036210420857774,-2.0338372059047e-13,1.7986623315122e-13,-0.0003618356098183,0.00036183560089744,-0.00036183560958749,0.00036183560094485,-0.00036183560103343,0.00036183560968907,-0.00036183560080987,0.00036183560972923,-0.00036209619828376,0.00036209622474913,-0.00036209622465089,0.00036209619837866,0.78934692858511,0.66868645794834,1368840,32768,0.0015076303741967,0.0015076303742527,0.0015076303740764,32.439824980369,32.449671391595,0.00017471859984295,0.00017471859984295,0.00017471859984295,194750.04705102,0.0045331351417413
3974400,0.24216385475404,0.0042635580267352,0.0014211860089267,0.0014211860089815,0.0014211860088271,-0.00038354984388151,0.00038354984378306,1.3353290742604e-11,-1.3455537324924e-11,-5.06220123558e-14,-5.7452421338553e-14,-0.00038343621207507,0.00038343622088964,-0.00038343622097599,0.0003834362119727,-0.00038343621245977,0.00038343622120652,-0.00038343622127725,0.00038343621238327,-0.00038331207589023,0.00038331210230292,-0.00038331210243425,0.00038331207578466,-8.6818049238778e-13,-8.5603937799637e-13,-7.4698600361975e-14,-4.5511975081578e-13,-0.00038354984438368,0.00038354984330816,-0.00038343621669371,0.00038343621655454,-0.00038343621684458,0.00038343621656033,-0.00038343621671738,0.00038343621664995,-0.00038343621679081,0.00038343621645688,-0.00038331208938286,0.0003833120882967,-0.0003833120887408,0.00038331208713298,-0.00038331209026975,0.00038331208648755,-0.00038331208967834,0.00038331208702954,-1.3493733319827e-11,1.3467812361695e-11,-0.00038354984382047,0.00038354984379816,-2.0271744682703e-13,1.7015886793986e-13,-0.00038343622131669,0.00038343621218254,-0.0003834362211065,0.00038343621223661,-0.00038343621231515,0.00038343622118958,-0.00038343621210831,0.00038343622123727,-0.0003833120744725,0.00038331210107362,-0.00038331210093781,0.00038331207452698,0.7888427338634,0.67579789559573,1368840,32768,0.0015968485858984,0.0015968485859552,0.0015968485858029,32.585728545917,32.595579966551,0.00017588582836734,0.00017588582836734,0.00017588582836734,214394.42148537,0.004802039071657
4060800,0.25767744026325,0.0045317467622232,0.0015105822540896,0.0015105822541461,0.0015105822539875,-0.00040531739266786,0.00040531739257921,1.3637922723763e-11,-1.3717170038106e-11,-5.5558038034192e-14,-4.4880775981925e-14,-0.00040537468219207,0.0004053746911995,-0.00040537469128462,0.0004053746820898,-0.0004053746825475,0.00040537469148381,-0.00040537469154718,0.00040537468247863,-0.00040483678015266,0.00040483680716009,-0.0004048368072231,0.00040483678011057,-9.7288594811974e-13,-9.7921727676082e-13,-1.4696592205667e-13,-5.1837492870764e-13,-0.0004053173932439,0.00040531739203161,-0.00040537468690103,0.00040537468673546,-0.00040537468705074,0.0004053746867557,-0.00040537468693624,0.00040537468683844,-0.00040537468700296,0.00040537468663741,-0.00040483679399684,0.00040483679277135,-0.0004048367933006,0.00040483679158642,-0.00040483679493032,0.00040483679088117,-0.00040483679430771,0.00040483679143567,-1.3771499040157e-11,1.3744900573311e-11,-0.00040531739260858,0.00040531739258287,-2.0065445837933e-13,1.6308049594397e-13,-0.00040537469155954,0.00040537468231768,-0.00040537469136559,0.00040537468238282,-0.00040537468245193,0.00040537469143274,-0.00040537468226347,0.00040537469149059,-0.00040483677868078,0.00040483680582163,-0.0004048368057413,0.00040483677878484,0.78844693549606,0.68290933324312,1368840,32768,0.0016873978743608,0.00168739787442,0.0016873978742451,32.731632815585,32.741488541507,0.00017705306252468,0.00017705306252468,0.00017705306252468,233708.11036606,0.005075028509041
4147200,0.27341744472895,0.0048036785470092,0.0016012261823524,0.0016012261824101,0.0016012261822467,-0.00042738794080222,0.00042738794071804,1.381510050228e-11,-1.3895724936318e-11,-6.3145144488592e-14,-3.446757939205e-14,-0.00042763271643999,0.0004276327255775,-0.00042763272566083,0.00042763271633803,-0.00042763271680289,0.00042763272587558,-0.00042763272592195,0.00042763271675038,-0.00042665289862996,0.00042665292590217,-0.00042665292598898,0.00042665289858724,-1.033784822995e-12,-1.0585851021282e-12,-1.9965217282199e-13,-5.6906404195473e-13,-0.0004273879414471,0.0004273879401018,-0.0004276327212645,0.00042763272100553,-0.00042763272141185,0.00042763272103071,-0.00042763272130079,0.000427632721106,-0.00042763272137489,0.00042763272089758,-0.000426652912615,0.00042665291138086,-0.00042665291196975,0.00042665291022539,-0.00042665291363355,0.0004266529095033,-0.00042665291296758,0.0004266529100532,-1.3966707532554e-11,1.3935949986882e-11,-0.00042738794074922,0.00042738794072297,-1.9807649301675e-13,1.6358503935404e-13,-0.00042763272592728,0.00042763271656877,-0.00042763272574594,0.00042763271664582,-0.00042763271670268,0.00042763272579782,-0.00042763271652425,0.00042763272587045,-0.00042665289726518,0.00042665292464827,-0.00042665292455517,0.00042665289733188,0.78814701779567,0.69002077089052,1368840,32768,0.0017791992081151,0.0017791992081746,0.0017791992080151,32.877537107172,32.887397116462,0.00017822029685737,0.00017822029685737,0.00017822029685737,252272.8502575,0.0053518683817931
4233600,0.28936704031381,0.0050790957612369,0.001693031920428,0.0016930319204862,0.0016930319203226,-0.0004497407533502,0.00044974075327677,1.3888073552416e-11,-1.3956342025684e-11,-6.8237871262226e-14,-1.4114583515045e-14,-0.0004501851566582,0.00045018516583052,-0.00045018516591642,0.00045018515655632,-0.00045018515697124,0.00045018516608852,-0.00045018516611957,0.00045018515693732,-0.00044874511944109,0.0004487451473086,-0.00044874514736481,0.0004487451194119,-1.1364463999896e-12,-1.1866601895222e-12,-2.8307935212011e-13,-6.5956743155006e-13,-0.00044974075408888,0.00044974075256714,-0.00045018516151503,0.0004501851611925,-0.00045018516165519,0.00045018516121328,-0.00045018516155366,0.00045018516128519,-0.00045018516163636,0.00045018516107298,-0.00044874513400535,0.0004487451322038,-0.0004487451329512,0.00044874513040928,-0.00044874513468694,0.00044874513028139,-0.00044874513444514,0.00044874513018897,-1.4041486674573e-11,1.4013624613976e-11,-0.00044974075330175,0.00044974075327758,-2.0157182006044e-13,1.6709083666611e-13,-0.00045018516613594,0.0004501851567903,-0.00045018516595297,0.00045018515687276,-0.00045018515692518,0.00045018516600625,-0.00045018515674633,0.0004501851660832,-0.00044874511760197,0.00044874514562929,-0.00044874514552525,0.00044874511768822,0.78793429115064,0.69713220853791,1368840,32768,0.0018721660084919,0.0018721660085523,0.0018721660083928,33.023441354585,33.033305691418,0.00017938753083668,0.00017938753083668,0.00017938753083668,269568.07841266,0.0056323006298687
4320000,0.30559596612518,0.0053592158807178,0.0017864052935891,0.0017864052936481,0.0017864052934806,-0.00047262296181075,0.00047262296174339,1.3807829533227e-11,-1.3873944116413e-11,-8.5153104513461e-14,8.0894587549408e-15,-0.00047327495481507,0.0004732749639986,-0.00047327496408576,0.00047327495470919,-0.00047327495513809,0.00047327496417444,-0.00047327496418753,0.00047327495512198,-0.00047136407293478,0.00047136410078465,-0.00047136410084746,0.00047136407293263,-1.2255106129626e-12,-1.3141277807689e-12,-3.8405562765832e-13,-7.6798089900481e-13,-0.00047262296263823,0.00047262296094531,-0.00047327495970891,0.00047327495925884,-0.00047327495982525,0.00047327495936339,-0.00047327495972946,0.00047327495942525,-0.0004732749598427,0.00047327495912699,-0.00047136408764052,0.00047136408552203,-0.00047136408647641,0.00047136408366454,-0.00047136408820839,0.00047136408359435,-0.00047136408803624,0.00047136408341575,-1.3967316763943e-11,1.3942896392321e-11,-0.00047262296175945,0.0004726229617382,-2.0325602596204e-13,1.7281750730848e-13,-0.00047327496423757,0.00047327495499865,-0.00047327496405374,0.00047327495508321,-0.00047327495513327,0.00047327496410918,-0.00047327495495355,0.00047327496418808,-0.00047136407097033,0.00047136409898279,-0.00047136409888288,0.00047136407103465,0.78775072379786,0.70348514477375,1368840,32768,0.001967325641041,0.0019673256411021,0.0019673256409236,33.247061468573,33.262008724157,0.00018117649174859,0.00018117649174859,0.00018117649174859,284924.074496,0.0059194285527946
4406400,0.32216960337697,0.0056451387409685,0.0018817129136728,0.0018817129137323,0.0018817129135635,-0.00049611509064005,0.00049611509056124,1.3560697391768e-11,-1.3641769179786e-11,-7.3823774146139e-14,-9.0692817631969e-15,-0.00049698596118196,0.00049698597026574,-0.000496985970356,0.00049698596107332,-0.00049698596154297,0.00049698597036586,-0.00049698597039774,0.00049698596150623,-0.00049458672628463,0.00049458675364716,-0.00049458675375167,0.00049458672623303,-1.3053125721263e-12,-1.3640498586249e-12,-4.7252734402576e-13,-8.3208824204008e-13,-0.00049611509153294,0.00049611508969804,-0.0004969859660883,0.00049698596547125,-0.000496985966177,0.00049698596565717,-0.0004969859660774,0.00049698596571928,-0.00049698596620814,0.00049698596535385,-0.00049458674087797,0.0004945867385576,-0.00049458673960193,0.00049458673669165,-0.00049458674142424,0.00049458673662056,-0.00049458674115543,0.00049458673640505,-1.3744612038007e-11,1.3709975316724e-11,-0.00049611509058179,0.00049611509055312,-1.9296464918007e-13,1.5882042755672e-13,-0.00049698597046392,0.00049698596141889,-0.0004969859702832,0.00049698596149593,-0.00049698596155578,0.00049698597033351,-0.00049698596138087,0.00049698597040361,-0.00049458672426845,0.00049458675182898,-0.00049458675171277,0.00049458672429767,0.78747034691646,0.70739061052005,1368840,32768,0.0020650123050948,0.0020650123051565,0.0020650123049568,33.544666665923,33.564636008293,0.00018355733332738,0.00018355733332738,0.00018355733332738,298667.64377494,0.0062142666699929
4492800,0.33907318969377,0.0059366231231987,0.0019788743744176,0.0019788743744777,0.0019788743743034,-0.00052006328015359,0.00052006327990806,1.3185767595616e-11,-1.3440144589279e-11,7.7244875516194e-14,-3.2830705868001e-13,-0.00052116682259321,0.00052116683168901,-0.00052116683178461,0.00052116682248131,-0.00052116682335192,0.00052116683161978,-0.00052116683197388,0.00052116682299869,-0.00051825798461969,0.00051825801114693,-0.00051825801154276,0.00051825798420349,-1.5417401656021e-12,-1.129582992015e-12,-5.0391295139347e-13,-8.1138315397807e-13,-0.00052006328096628,0.00052006327912518,-0.00052116682771939,0.00052116682668345,-0.00052116682775851,0.00052116682711424,-0.00052116682752248,0.00052116682731479,-0.00052116682766291,0.00052116682674605,-0.00051825799870245,0.00051825799651853,-0.00051825799741733,0.00051825799463454,-0.00051825799953606,0.0005182579942772,-0.00051825799883699,0.00051825799450194,-1.3475422482152e-11,1.3436187099884e-11,-0.00052006328002241,0.00052006327997671,-1.8091747309538e-13,1.1960533878606e-13,-0.00052116683192067,0.00052116682306735,-0.00052116683173998,0.00052116682309994,-0.00052116682319972,0.00052116683179106,-0.00052116682302419,0.00052116683181346,-0.0005182579824176,0.00051825800946553,-0.00051825800934629,0.00051825798244291,0.7872310173006,0.71129607626636,1368840,32768,0.0021645855635544,0.0021645855636164,0.0021645855634245,33.846805882515,33.86726329243,0.00018597444706012,0.00018597444706012,0.00018597444706012,310979.66287876,0.0065148878822469
4579200,0.35628501911521,0.0062333098430215,0.0020777699476924,0.0020777699477524,0.0020777699475767,-0.00054443376513306,0.00054443376473734,1.2648231958137e-11,-1.3031605863974e-11,2.9724150771127e-14,-4.0219162508663e-13,-0.00054576883928667,0.00054576884749541,-0.0005457688481554,0.00054576883873545,-0.00054576883994246,0.00054576884819742,-0.00054576884844216,0.00054576883967218,-0.00054235516882623,0.00054235519358811,-0.00054235519397679,0.00054235516824048,-1.3583672895764e-12,-9.1627047915405e-13,-3.4022631220206e-13,-6.6679337991995e-13,-0.00054443376577163,0.00054443376407986,-0.00054576884410863,0.00054576884280975,-0.00054576884456453,0.00054576884352618,-0.00054576884395509,0.00054576884375335,-0.00054576884388031,0.00054576884327615,-0.00054235518213424,0.00054235518022576,-0.00054235518079647,0.00054235517792513,-0.00054235518268138,0.00054235517793622,-0.00054235518207475,0.00054235517806275,-1.2916287416285e-11,1.3085755297982e-11,-0.00054443376478758,0.00054443376492299,-1.045825844856e-13,2.1422486734206e-13,-0.00054576884827391,0.00054576883998469,-0.00054576884781239,0.00054576883952529,-0.0005457688398623,0.00054576884790236,-0.00054576883972305,0.00054576884837907,-0.00054235516633955,0.00054235519218374,-0.00054235519199971,0.00054235516649501,0.78703244490104,0.71520154201249,1368840,32768,0.0022659044833872,0.0022659044833479,0.002265904483055,34.14936729654,34.169890576561,0.00018839493837232,0.00018839493837232,0.00018839493837232,319516.13012538,0.0068208716324834
4665600,0.37378067312035,0.0065347972568739,0.0021782657523292,0.0021782657523669,0.0021782657521778,-0.00056919132306687,0.00056919132271778,1.2120401641814e-11,-1.2524370447903e-11,2.938233768387e-14,-4.229835193203e-13,-0.00057077727337903,0.00057077728213819,-0.00057077728232363,0.00057077727342137,-0.00057077727449103,0.00057077728199914,-0.00057077728296082,0.00057077727440593,-0.00056683020059576,0.00056683022439179,-0.00056683022491952,0.00056683019885854,-1.3778148939949e-12,-9.0836822056262e-13,-4.3191026132034e-13,-7.4741837276411e-13,-0.00056919132377024,0.00056919132200342,-0.0005707772788701,0.00057077727717504,-0.00057077727831235,0.00057077727788149,-0.0005707772781772,0.00057077727812082,-0.00057077727822241,0.00057077727743277,-0.00056683021380541,0.00056683021147066,-0.00056683021217585,0.00056683020919554,-0.00056683021417803,0.00056683021010454,-0.00056683021370041,0.00056683020973466,-1.2413908057748e-11,1.2577358182106e-11,-0.00056919132286433,0.00056919132298909,-1.0214533541247e-13,2.0625116975658e-13,-0.00057077728187245,0.00057077727436088,-0.00057077728283062,0.00057077727446494,-0.00057077727419197,0.0005707772821766,-0.00057077727393649,0.000570777283068,-0.00056683019869322,0.00056683022419413,-0.00056683022332159,0.00056683019845849,0.78687423016663,0.71910700775878,1368840,32768,0.0023688221190702,0.0023688221190473,0.0023688221192131,34.451970779063,34.472517860709,0.0001908157662325,0.0001908157662325,0.0001908157662325,328248.17497917,0.0071317787833434
4752000,0.39153341006836,0.006840645427314,0.0022802151424609,0.0022802151424859,0.0022802151423672,-0.00059430141503749,0.00059430141485526,1.1659700568857e-11,-1.1847053962986e-11,1.7296865710273e-13,-3.301042390715e-13,-0.00059614855224063,0.0005961485608094,-0.00059614856073544,0.00059614855257725,-0.00059614855396884,0.00059614856087231,-0.00059614856110936,0.00059614855363081,-0.00059165449179218,0.00059165451495964,-0.00059165451522165,0.00059165449046923,-1.312388304497e-12,-7.9190833715565e-13,-3.5780814273626e-13,-6.7211245272004e-13,-0.00059430141577853,0.00059430141410883,-0.0005961485575333,0.00059614855636875,-0.00059614855766628,0.00059614855670026,-0.00059614855743127,0.00059614855674109,-0.00059614855769527,0.00059614855612974,-0.00059165450470224,0.00059165450197764,-0.00059165450305641,0.00059165449997083,-0.00059165450413727,0.00059165450051713,-0.00059165450407788,0.00059165450000065,-1.1977789498517e-11,1.1915011445756e-11,-0.00059430141496646,0.00059430141487929,-2.043800063311e-13,1.0277615437668e-13,-0.00059614856146529,0.00059614855306425,-0.00059614856124175,0.00059614855285952,-0.00059614855296889,0.00059614856088696,-0.00059614855290624,0.00059614856161308,-0.00059165448905376,0.00059165451354538,-0.00059165451356779,0.00059165448941502,0.78675597052181,0.72301247350519,1368840,32768,0.002473194420671,0.0024731944206598,0.0024731944205733,34.754578484028,34.77514514483,0.00019323662787222,0.00019323662787222,0.00019323662787222,335593.9994915,0.0074471784624433
4838400,0.40951427452074,0.0071503769410986,0.0023834589803954,0.0023834589804032,0.0023834589803,-0.00061972587157777,0.00061972587108262,1.0951298915924e-11,-1.1500305967664e-11,9.0671818273485e-14,-6.8258126525795e-13,-0.00062184223657489,0.00062184224378751,-0.00062184224406537,0.00062184223643922,-0.00062184223796632,0.00062184224473664,-0.00062184224474966,0.00062184223729958,-0.00061679186005207,0.00061679188058251,-0.00061679188074073,0.0006167918577132,-1.4692003816427e-12,-5.7295793770477e-13,-3.1172375646498e-13,-6.8221374707361e-13,-0.00061972587234424,0.00061972587053754,-0.00062184224170523,0.00062184223964343,-0.00062184224175652,0.00062184223959006,-0.00062184224088031,0.00062184224050208,-0.0006218422414394,0.0006218422403223,-0.00061679187071163,0.0006167918698577,-0.00061679187009505,0.00061679186735386,-0.00061679187176757,0.00061679186651075,-0.00061679187084011,0.00061679186736994,-1.134217538668e-11,1.1629205485755e-11,-0.00061972587136889,0.00061972587139454,-1.2392625825552e-13,4.0872913125266e-13,-0.00062184224525174,0.00062184223686076,-0.00062184224502209,0.0006218422347797,-0.00062184223699862,0.00062184224480808,-0.00062184223657457,0.00062184224508262,-0.00061679185681719,0.00061679187970692,-0.00061679187950041,0.00061679185707518,0.78667731394419,0.72691793925183,1368840,32768,0.0025788623014446,0.0025788623019046,0.0025788623016587,35.057186571737,35.077772428989,0.0001956574925739,0.0001956574925739,0.0001956574925739,341592.63614455,0.0077665938616951
4924800,0.42769220925096,0.0074634788806333,0.0024878262935367,0.0024878262936138,0.0024878262934829,-0.0006454236049836,0.00064542360433558,1.0339503899959e-11,-1.1030542818606e-11,1.1731797483993e-13,-7.3578519873783e-13,-0.00064781573533455,0.00064781574209358,-0.00064781574250518,0.00064781573478157,-0.00064781573661927,0.00064781574279691,-0.00064781574327336,0.00064781573575856,-0.00064220269784208,0.0006422027192275,-0.00064220271918069,0.00064220269702343,-1.0062821558297e-12,-1.1278943671307e-13,1.79937238335e-13,-1.9034230282036e-13,-0.0006454236051066,0.00064542360426299,-0.00064781574016231,0.00064781573903435,-0.00064781573968126,0.00064781573882295,-0.00064781573889977,0.00064781573938309,-0.00064781573946048,0.00064781573909202,-0.00064220270832513,0.00064220270811761,-0.00064220270724481,0.00064220270584721,-0.0006422027090078,0.0006422027051561,-0.00064220270870195,0.00064220270581788,-1.0840898523874e-11,1.0984019622211e-11,-0.00064542360459122,0.00064542360466557,-1.6989630978436e-13,2.2806873853894e-13,-0.000647815743263,0.00064781573528513,-0.00064781574295537,0.00064781573508791,-0.00064781573564325,0.00064781574305522,-0.00064781573548695,0.00064781574302528,-0.00064220269512569,0.00064220271699813,-0.00064220271707835,0.00064220269570999,0.78663798124185,0.73082340499794,1368840,32768,0.0026856546123135,0.0026856546124183,0.0026856546121839,35.359794649802,35.380399713115,0.00019807835719841,0.00019807835719841,0.00019807835719841,346199.53192577,0.0080895111307848
5011200,0.44603419291194,0.0077792404946883,0.0025930801648883,0.0025930801649818,0.0025930801648182,-0.00067138255548799,0.00067138255492613,1.002809085459e-11,-1.0611571941408e-11,1.4102333889262e-13,-7.020981984408e-13,-0.00067405684346193,0.00067405685013463,-0.00067405685047096,0.00067405684314584,-0.00067405684479566,0.00067405685072802,-0.00067405685140825,0.00067405684401444,-0.00066787037383575,0.00066787039401953,-0.00066787039462424,0.0006678703727188,-1.0215976438344e-12,-1.375822675444e-13,1.5412243872411e-13,-2.1705981014827e-13,-0.00067138255569332,0.00067138255476889,-0.00067405684786829,0.00067405684689619,-0.00067405684774334,0.00067405684693742,-0.00067405684715846,0.00067405684739621,-0.00067405684752735,0.00067405684715836,-0.00066787038391638,0.00066787038338385,-0.00066787038284227,0.00066787038139816,-0.00066787038479744,0.00066787038091164,-0.00066787038399641,0.00066787038143153,-1.0537468911087e-11,1.060833865783e-11,-0.00067138255517755,0.00067138255520138,-1.8711919540173e-13,2.0941257317787e-13,-0.00067405685113992,0.00067405684343768,-0.00067405685103476,0.00067405684323673,-0.00067405684363685,0.00067405685096379,-0.00067405684347904,0.00067405685114075,-0.00066787037115531,0.00066787039256461,-0.00066787039245523,0.00066787037133506,0.78623079117024,0.7288575744903,1368840,32768,0.0027935208785098,0.0027935208786097,0.0027935208784367,35.662403068413,35.683026997234,0.0002004992245473,0.0002004992245473,0.0002004992245473,350695.69214257,0.0084157808918347
5097600,0.46439028152913,0.0080938056457007,0.0026979352152252,0.0026979352153244,0.0026979352151511,-0.00069695494280485,0.00069695494223744,9.3732708883025e-12,-9.9574396599946e-12,1.2462575159236e-13,-7.037460304536e-13,-0.00069998064264762,0.00069998064889,-0.00069998064922156,0.00069998064234095,-0.00069998064365713,0.00069998064909496,-0.00069998064981684,0.0006999806428696,-0.00069306758058165,0.0006930675998319,-0.00069306760054858,0.00069306757941671,-1.0663478796866e-12,-1.9661834638566e-13,8.1899762724349e-14,-2.7468119691328e-13,-0.00069695494298153,0.00069695494211027,-0.00069998064639162,0.00069998064578963,-0.00069998064634926,0.00069998064593796,-0.00069998064583888,0.00069998064635669,-0.00069998064612535,0.00069998064606261,-0.00069306759059114,0.00069306758926555,-0.00069306758898075,0.00069306758739438,-0.00069306759099546,0.00069306758684734,-0.00069306759009193,0.00069306758744448,-9.8948488368072e-12,9.9447463860007e-12,-0.0006969549425131,0.00069695494252271,-1.8236431124841e-13,1.9916035696427e-13,-0.00069998064966662,0.00069998064278673,-0.00069998064950422,0.00069998064247848,-0.00069998064292757,0.00069998064948365,-0.00069998064266669,0.00069998064959887,-0.00069306757747338,0.00069306759794956,-0.00069306759782827,0.00069306757756478,0.78257459383598,0.68033219149736,1368840,32768,0.0028997694457454,0.0028997694458482,0.002899769445732,35.864783355796,35.878820768645,0.00020211826684637,0.00020211826684637,0.00020211826684637,367626.37160437,0.0087372609372349
5184000,0.48262657306927,0.0084061255116972,0.0028020418372203,0.0028020418373176,0.0028020418371594,-0.00072219482627001,0.00072219482569161,8.8600673310248e-12,-9.4531572713578e-12,1.0284374054726e-13,-6.9423955616399e-13,-0.00072558502609204,0.00072558503196535,-0.00072558503231713,0.00072558502576476,-0.00072558502702128,0.00072558503216399,-0.0007255850328907,0.00072558502623149,-0.00071792378067231,0.00071792379845229,-0.00071792379921005,0.00071792377953616,-9.8330941645465e-13,-1.442389171295e-13,1.5878248753929e-13,-2.1670220342585e-13,-0.00072219482636504,0.00072219482564536,-0.00072558502950797,0.00072558502912589,-0.00072558502951626,0.00072558502925635,-0.00072558502901561,0.0007255850296713,-0.00072558502926095,0.00072558502938229,-0.0007179237896843,0.00071792378897081,-0.00071792378856564,0.00071792378707998,-0.00071792379055491,0.0007179237865536,-0.00071792378969574,0.00071792378715152,-9.3934341546815e-12,9.4430926817653e-12,-0.00072219482597177,0.00072219482598529,-1.8727614648933e-13,2.127979109346e-13,-0.0007255850327105,0.00072558502620443,-0.00072558503253202,0.00072558502589785,-0.00072558502634392,0.0007255850325267,-0.00072558502606715,0.00072558503263314,-0.00071792377800265,0.00071792379711747,-0.00071792379700579,0.00071792377806988,0.78233435372301,0.68861650922473,1368840,32768,0.0030046254331958,0.0030046254332971,0.0030046254331863,35.979158842325,35.987182163772,0.0002030332707386,0.0002030332707386,0.0002030332707386,386463.81430822,0.0090546279581877
5270400,0.50070864288593,0.008718571275612,0.0029061904251907,0.0029061904252858,0.0029061904251355,-0.00074748328937352,0.00074748328879785,8.4176071714084e-12,-9.0084449746602e-12,7.8861679065131e-14,-6.6530638122909e-13,-0.00075113770985407,0.00075113771539432,-0.00075113771576962,0.00075113770950373,-0.00075113771073969,0.00075113771560944,-0.00075113771631437,0.00075113770998066,-0.00074299639452155,0.00074299641154048,-0.00074299641229128,0.00074299639335009,-9.544973701723e-13,-1.6781199110592e-13,1.469612751398e-13,-1.9823998802209e-13,-0.00074748328946206,0.00074748328875959,-0.00075113771308301,0.00075113771274023,-0.0007511377130901,0.00075113771288073,-0.00075113771262489,0.00075113771326162,-0.0007511377128472,0.00075113771298302,-0.00074299640319112,0.00074299640239689,-0.00074299640194888,0.00074299640047269,-0.00074299640390217,0.00074299639999537,-0.00074299640320227,0.00074299640053485,-8.9559964886902e-12,8.9916430908874e-12,-0.00074748328908529,0.00074748328908627,-1.7960916012227e-13,1.899966663205e-13,-0.00075113771613699,0.00075113770995601,-0.00075113771597968,0.00075113770964353,-0.00075113771009904,0.00075113771595959,-0.00075113770983601,0.00075113771604864,-0.00074299639187694,0.00074299641015599,-0.00074299641000009,0.0007429963919087,0.78946351811417,0.80400170950033,1368840,32768,0.0031096723173558,0.0031096723174602,0.0031096723173562,36.088083141554,36.095543558898,0.00020390466513243,0.00020390466513243,0.00020390466513243,374292.02542787,0.0093726725048394
5356800,0.51860955568145,0.0090267577064065,0.0030089192354538,0.0030089192355483,0.0030089192354043,-0.00077250288324573,0.00077250288277324,8.1629212754171e-12,-8.6481482755947e-12,1.2250719866564e-13,-6.2479626584413e-13,-0.00077640385060338,0.00077640385603967,-0.0007764038562689,0.00077640385032127,-0.00077640385162158,0.00077640385630604,-0.00077640385689706,0.0007764038508825,-0.00076778700883903,0.00076778702536009,-0.00076778702578544,0.00076778700776125,-8.7834100552049e-13,-8.7734084489824e-14,2.265741518446e-13,-9.3379485556108e-14,-0.00077250288330078,0.00077250288276802,-0.00077640385380472,0.00077640385345828,-0.00077640385369679,0.00077640385354967,-0.00077640385318759,0.0007764038539736,-0.00077640385342424,0.00077640385370643,-0.00076778701704948,0.00076778701621957,-0.00076778701571465,0.00076778701446496,-0.00076778701773086,0.00076778701403289,-0.0007677870171243,0.00076778701455171,-8.6696660005959e-12,8.6644247048316e-12,-0.00077250288302435,0.00077250288298706,-1.8944360968659e-13,1.5465343720836e-13,-0.00077640385671272,0.00077640385082204,-0.00077640385665792,0.00077640385035671,-0.00077640385088375,0.00077640385656997,-0.00077640385057651,0.00077640385659379,-0.00076778700598296,0.00076778702379122,-0.00076778702358945,0.00076778700615643,0.78637952861763,0.74770296004574,1368840,32768,0.0032135914366136,0.0032135914367171,0.0032135914365979,36.196500583343,36.203904954025,0.00020477200466674,0.00020477200466674,0.00020477200466674,359338.27577695,0.0096874013742277
5443200,0.53630239383265,0.009329459100328,0.0031098197000952,0.003109819700185,0.0031098197000478,-0.00079696862498556,0.0007969686244013,7.8653925117754e-12,-8.4683901788459e-12,7.5400431862681e-14,-6.7737748305345e-13,-0.00080123095898995,0.00080123096416273,-0.00080123096452885,0.00080123095863211,-0.00080123095988611,0.00080123096438679,-0.00080123096510085,0.00080123095909775,-0.00079187807739988,0.00079187809326854,-0.00079187809401398,0.000791878076271,-8.9745450985135e-13,-1.013723737318e-13,1.9659162661369e-13,-1.1446367968374e-13,-0.00079696862500558,0.00079696862442706,-0.00080123096198981,0.00080123096173283,-0.00080123096197111,0.00080123096187111,-0.00080123096151682,0.00080123096224409,-0.00080123096172194,0.00080123096199483,-0.00079187808539865,0.00079187808472998,-0.00079187808419292,0.00079187808294698,-0.0007918780862024,0.00079187808241616,-0.00079187808537443,0.0007918780829773,-8.4215521097168e-12,8.4365384313067e-12,-0.00079696862470351,0.00079696862468412,-1.7410257834456e-13,1.6192327394336e-13,-0.00080123096492082,0.00080123095909698,-0.00080123096478036,0.00080123095876047,-0.00080123095923343,0.00080123096474406,-0.00080123095897478,0.00080123096480585,-0.0007918780747602,0.00079187809192009,-0.00079187809183519,0.00079187807477571,0.7812922328062,0.6763339277157,1368840,32768,0.0033151995921843,0.0033151995922794,0.003315199592186,36.304866957827,36.312266349152,0.00020563893566261,0.00020563893566261,0.00020563893566261,375831.05826903,0.0099952264984552
5529600,0.55376054375158,0.009625783446094,0.003208594482016,0.0032085944821038,0.0032085944819741,-0.00082089838134863,0.00082089838075036,7.638349712483e-12,-8.2497843865146e-12,8.7150102330078e-14,-6.8448638352848e-13,-0.00082559408226492,0.00082559408725352,-0.00082559408761706,0.00082559408187364,-0.00082559408310952,0.00082559408743163,-0.00082559408822603,0.00082559408226126,-0.00081532131063741,0.00081532132620317,-0.00081532132698668,0.00081532130947866,-8.5892521630658e-13,-4.3213797495208e-14,2.3617466737897e-13,-9.3570509132234e-14,-0.00082089838132771,0.00082089838081612,-0.00082559408509605,0.00082559408490039,-0.000825594085086,0.0008255940849678,-0.00082559408463906,0.00082559408544205,-0.00082559408485866,0.0008255940851766,-0.0008153213184236,0.00081532131798588,-0.00081532131719354,0.00081532131605931,-0.00081532131930745,0.00081532131572252,-0.00081532131844839,0.00081532131640367,-8.2008469403435e-12,8.2131448440627e-12,-0.00082089838105461,0.00082089838103781,-1.7866249786568e-13,1.7568558880821e-13,-0.00082559408798489,0.00082559408230798,-0.00082559408783619,0.0008255940820129,-0.00082559408248904,0.00082559408779863,-0.00082559408216232,0.00082559408787234,-0.00081532130808733,0.00081532132499869,-0.00081532132487754,0.00081532130812771,0.77529938475991,0.60141412576628,1368840,32768,0.0034145716585143,0.0034145716586074,0.0034145716585007,36.413227665389,36.420627744279,0.00020650582132311,0.00020650582132311,0.00020650582132311,407145.93184186,0.010296368527471
5616000,0.57095927309224,0.0099157050392451,0.003305235013068,0.0033052350131528,0.0033052350130242,-0.00084428867812723,0.00084428867751302,7.4305492371154e-12,-8.0727241485245e-12,8.4630296955462e-14,-6.8769590312692e-13,-0.00084948985643088,0.00084948986131337,-0.00084948986175774,0.00084948985607717,-0.0008494898572964,0.00084948986153501,-0.00084948986229156,0.0008494898565373,-0.00083812781052821,0.00083812782556997,-0.00083812782623952,0.00083812780921683,-8.8684251051123e-13,-7.0057565671811e-14,2.3420021299131e-13,-1.2120932655004e-13,-0.00084428867810435,0.00084428867757772,-0.00084948985922611,0.00084948985903187,-0.00084948985924464,0.00084948985917275,-0.00084948985876974,0.00084948985954925,-0.00084948985899585,0.00084948985929119,-0.0008381278179681,0.00083812781747702,-0.00083812781688395,0.00083812781564581,-0.00083812781894259,0.00083812781521154,-0.00083812781803695,0.00083812781564466,-8.0005684116562e-12,8.0296689932417e-12,-0.00084428867781795,0.00084428867781035,-1.9054588483637e-13,1.8884189277451e-13,-0.00084948986210275,0.00084948985652944,-0.00084948986195275,0.00084948985622259,-0.00084948985665445,0.00084948986194065,-0.00084948985635781,0.00084948986199049,-0.00083812780781856,0.00083812782435015,-0.0008381278240691,0.00083812780795969,0.77036212414611,0.54799038503427,1368840,32768,0.0035116938717347,0.0035116938718216,0.0035116938717099,36.52158734621,36.528989139406,0.00020737269876968,0.00020737269876968,0.00020737269876968,449158.90930385,0.010590779720155
5702400,0.58787548241449,0.010199115615575,0.0033997052051799,0.0033997052052605,0.0033997052051351,-0.0008671549622013,0.0008671549615605,7.2937870621648e-12,-7.9516793169492e-12,8.5951785996643e-14,-7.2114885175054e-13,-0.00087291299968291,0.00087291300444164,-0.00087291300486826,0.00087291299927862,-0.00087291300054743,0.00087291300463532,-0.00087291300546397,0.00087291299972515,-0.00086033999238799,0.00086034000712327,-0.00086034000797479,0.00086033999129455,-8.2886350231837e-13,2.3685099965866e-14,3.0499081509289e-13,-6.5581349475967e-14,-0.00086715496211092,0.00086715496169258,-0.00087291300241218,0.00087291300225179,-0.00087291300244127,0.00087291300240276,-0.00087291300196906,0.00087291300282041,-0.00087291300212245,0.00087291300254893,-0.0008603399994806,0.00086033999924361,-0.00086033999852922,0.00086033999742288,-0.0008603400004883,0.00086033999699712,-0.00086033999955693,0.00086033999764019,-7.8703159790139e-12,7.9020719500673e-12,-0.00086715496187995,0.00086715496187024,-2.1266170921311e-13,1.8173741863485e-13,-0.00087291300522424,0.00087291299974172,-0.00087291300505112,0.00087291299942094,-0.00087291299985061,0.00087291300509422,-0.00087291299958133,0.00087291300512871,-0.00086033998967203,0.00086034000572053,-0.00086034000566648,0.00086033998969267,0.76613511690361,0.50714110322116,1368840,32768,0.0036066310127714,0.003606631012858,0.0036066310127474,36.629946749407,36.637350534533,0.00020823957399525,0.00020823957399525,0.00020823957399525,494928.49672097,0.010878650615548
5788800,0.60448779282049,0.01047568656585,0.0034918955219375,0.0034918955220182,0.0034918955218945,-0.00088946700451016,0.00088946700385416,7.1545878440172e-12,-7.8146766199346e-12,6.7315914133266e-14,-7.475365456246e-13,-0.00089583687852619,0.00089583688318655,-0.00089583688361315,0.00089583687811521,-0.00089583687940986,0.00089583688338616,-0.00089583688422396,0.00089583687852509,-0.00088192547371429,0.0008819254881959,-0.00088192548904489,0.00088192547259248,-7.9809901568173e-13,6.2561735840738e-14,3.5433145482904e-13,-1.6188093700143e-14,-0.00088946700436591,0.0008894670040398,-0.00089583688112897,0.00089583688112209,-0.00089583688117647,0.00089583688123636,-0.00089583688067575,0.00089583688165586,-0.00089583688087604,0.00089583688138873,-0.00088192548085095,0.00088192548057139,-0.00088192547971535,0.00088192547872885,-0.00088192548171609,0.00088192547817479,-0.00088192548086664,0.00088192547888989,-7.7377173827512e-12,7.7608241915599e-12,-0.00088946700417819,0.00088946700417462,-1.8718916385248e-13,2.0720989046832e-13,-0.00089583688396791,0.00089583687857053,-0.00089583688379706,0.00089583687827933,-0.0008958368787236,0.00089583688379111,-0.00089583687842783,0.00089583688385756,-0.00088192547108246,0.00088192548689337,-0.00088192548684422,0.00088192547114324,0.76186094058697,0.46629182140804,1368840,32768,0.0036992581946333,0.0036992581947192,0.0036992581946094,36.738306043453,36.745711929659,0.00020910644834762,0.00020910644834762,0.00020910644834762,544198.53916785,0.011159596809706
5875200,0.62071728635555,0.010745775714651,0.0035819252382042,0.0035819252382842,0.0035819252381622,-0.00091113000039483,0.0009111299997242,7.0418878163374e-12,-7.7238680411332e-12,6.6059334873841e-14,-7.5514804839253e-13,-0.00091811801686385,0.00091811802142892,-0.00091811802187008,0.00091811801643669,-0.00091811801772406,0.00091811802162895,-0.0009181180224817,0.00091811801683718,-0.00090287360239715,0.00090287361670103,-0.00090287361748885,0.00090287360121182,-8.1089909523632e-13,5.6316132521985e-14,3.3606564518993e-13,-2.9719518559696e-14,-0.0009111300002545,0.00091112999990399,-0.00091811801942213,0.00091811801940574,-0.0009181180194584,0.0009181180195165,-0.0009181180189698,0.00091811801993762,-0.00091811801917192,0.00091811801967151,-0.00090287360941373,0.00090287360912266,-0.00090287360834355,0.00090287360727892,-0.00090287361028312,0.00090287360677995,-0.00090287360941865,0.00090287360738404,-7.6326525924084e-12,7.6599408764171e-12,-0.0009111300000537,0.00091113000005197,-1.8526770784576e-13,2.0418777690946e-13,-0.00091811802221478,0.00091811801689404,-0.00091811802203713,0.0009181180166101,-0.00091811801704302,0.00091811802203279,-0.00091811801675747,0.00091811802209974,-0.00090287359972687,0.00090287361541973,-0.00090287361530992,0.00090287359985703,0.76210078829877,0.49184196051334,1368840,32768,0.0037891826230915,0.0037891826231734,0.0037891826230638,36.784584561819,36.787895818024,0.00020947667649455,0.00020947667649455,0.00020947667649455,586485.10042169,0.011432420280346
5961600,0.63650474111156,0.011006713040505,0.0036689043468228,0.0036689043469018,0.0036689043467807,-0.00093206452997614,0.00093206452929227,6.9448220757468e-12,-7.6412532708401e-12,6.778416453442e-14,-7.6718262192104e-13,-0.00093966640401076,0.00093966640852612,-0.00093966640896951,0.00093966640358085,-0.00093966640489544,0.00093966640872079,-0.00093966640959303,0.00093966640397949,-0.00092307542568917,0.00092307543973251,-0.00092307544059446,0.00092307542447819,-7.8548116585426e-13,9.6152239085685e-14,3.7251753160982e-13,6.784219217348e-15,-0.0009320645297945,0.00093206452951402,-0.00093966640650455,0.00093966640655633,-0.00093966640655081,0.00093966640666727,-0.00093966640605738,0.0009396664070904,-0.00093966640624457,0.00093966640682624,-0.0009230754325472,0.00092307543230741,-0.00092307543145341,0.00092307543048551,-0.00092307543346613,0.00092307542992659,-0.00092307543255489,0.00092307543060772,-7.5408057512076e-12,7.5702702922625e-12,-0.00093206452962942,0.00093206452962538,-1.9283128560718e-13,1.9650064409903e-13,-0.00093966640930394,0.00093966640405475,-0.0009396664091382,0.00093966640376032,-0.0009396664041976,0.00093966640913647,-0.0009396664039089,0.00093966640920229,-0.00092307542301212,0.00092307543846696,-0.00092307543835328,0.00092307542308714,0.75737031220386,0.44077103288462,1368840,32768,0.0038760753060959,0.0038760753061791,0.0038760753060677,36.780618396738,36.780475049482,0.0002094449471739,0.0002094449471739,0.0002094449471739,618541.34877,0.01169611623609
6048000,0.65184055000549,0.011259327736638,0.0037531092455339,0.0037531092456119,0.0037531092454919,-0.00095217890406391,0.00095217890336381,6.8547234458452e-12,-7.5667763695877e-12,6.7768017968863e-14,-7.8347950641535e-13,-0.00096048130718202,0.00096048131163228,-0.00096048131208534,0.00096048130674219,-0.00096048130807167,0.00096048131182175,-0.00096048131271718,0.00096048130713432,-0.00094237491464272,0.0009423749284956,-0.00094237492939311,0.00094237491341631,-7.2992518658071e-13,1.6894848579855e-13,4.3577154041974e-13,6.904794945607e-14,-0.00095217890381189,0.0009521789036553,-0.00096048130958606,0.00096048130975142,-0.00096048130963611,0.00096048130986355,-0.00096048130913643,0.00096048131029334,-0.0009604813093215,0.00096048131002659,-0.00094237492135122,0.00094237492124333,-0.00094237492023617,0.00094237491941805,-0.00094237492227419,0.00094237491885264,-0.00094237492134289,0.00094237491955324,-7.4602800641532e-12,7.4882193723912e-12,-0.00095217890370794,0.0009521789037047,-1.9178296469149e-13,1.9840714468027e-13,-0.00096048131241378,0.00096048130721608,-0.00096048131224619,0.00096048130692847,-0.00096048130735983,0.00096048131224477,-0.00096048130707308,0.00096048131231077,-0.00094237491196377,0.00094237492725125,-0.0009423749271362,0.0009423749120283,0.75516893438805,0.42834657677503,1368840,32768,0.0039595564996359,0.0039595564997178,0.0039595564996047,36.773524746868,36.77305428094,0.00020938819797494,0.00020938819797494,0.00020938819797494,665948.46421399,0.011949524638782
6134400,0.666719325329,0.011504240549485,0.0038347468498168,0.003834746849894,0.0038347468497746,-0.00097174738589951,0.00097174738518628,6.7923640273532e-12,-7.5167773676111e-12,6.5546732886421e-14,-7.963711419965e-13,-0.00098071101783226,0.00098071102224079,-0.00098071102270369,0.00098071101738284,-0.00098071101872573,0.00098071102243517,-0.00098071102334569,0.00098071101777365,-0.00096118074897878,0.00096118076270469,-0.00096118076362313,0.00096118074775561,-7.8837662151773e-13,1.2089271857514e-13,3.8363116268426e-13,1.8661885774553e-14,-0.00097174738569342,0.00097174738543104,-0.00098071102026954,0.00098071102032891,-0.00098071102032781,0.0009807110204415,-0.00098071101982502,0.00098071102087302,-0.00098071102000006,0.00098071102060681,-0.00096118075568774,0.00096118075548287,-0.00096118075456258,0.00096118075365224,-0.00096118075662754,0.00096118075307853,-0.00096118075567229,0.0009611807537923,-7.4043858893289e-12,7.4273010716388e-12,-0.00097174738553674,0.00097174738553164,-1.9071614434094e-13,1.9762912433062e-13,-0.00098071102302059,0.00098071101786315,-0.00098071102285472,0.00098071101757632,-0.00098071101801023,0.00098071102285164,-0.00098071101772223,0.0009807110229152,-0.00096118074633028,0.00096118076147731,-0.00096118076138024,0.0009611807463905,0.75514731475479,0.44713313593455,1368840,32768,0.0040407653272715,0.0040407653273517,0.0040407653272354,36.766136908421,36.765633512398,0.00020932909526737,0.00020932909526737,0.00020932909526737,697124.59415174,0.012196096357028
6220800,0.68113825723072,0.011741524431138,0.0039138414770351,0.0039138414771114,0.003913841476992,-0.00099078184837627,0.00099078184765457,6.7515763616237e-12,-7.4842920658971e-12,6.4814078797912e-14,-8.0403705486694e-13,-0.0010003561355182,0.0010003561398993,-0.0010003561403691,0.0010003561350634,-0.0010003561364171,0.0010003561400916,-0.0010003561410158,0.0010003561354543,-0.0009795154310054,0.00097951544464555,-0.00097951544557473,0.00097951542976207,-7.6296863300845e-13,1.5394017958612e-13,4.12313080589e-13,5.393795517367e-14,-0.00099078184813587,0.00099078184793356,-0.0010003561379146,0.0010003561380281,-0.0010003561379717,0.0010003561381458,-0.0010003561374694,0.0010003561385777,-0.0010003561376416,0.0010003561383084,-0.0009795154376304,0.00097951543748456,-0.00097951543650404,0.00097951543566998,-0.00097951543856672,0.00097951543507234,-0.00097951543761036,0.00097951543580345,-7.3673189334637e-12,7.390196411043e-12,-0.00099078184801028,0.00099078184800376,-1.8852682887008e-13,1.9317186343805e-13,-0.0010003561406847,0.0010003561355504,-0.0010003561405186,0.0010003561352641,-0.0010003561356965,0.0010003561405157,-0.0010003561354115,0.0010003561405777,-0.00097951542833515,0.00097951544341857,-0.0009795154433122,0.00097951542839248,0.75528326518921,0.46591969509408,1368840,32768,0.0041197516321416,0.0041197516322217,0.0041197516321068,36.758719483655,36.758212743856,0.00020926975586924,0.00020926975586924,0.00020926975586924,713003.92407248,0.012435977666193
6307200,0.69509614713017,0.011971255314383,0.0039904184381169,0.0039904184381924,0.0039904184380733,-0.0010092211866655,0.0010092211859309,6.7157267215114e-12,-7.459351445463e-12,6.9213356167714e-14,-8.2090971588932e-13,-0.0010193830637323,0.0010193830680857,-0.0010193830685607,0.0010193830632693,-0.0010193830646378,0.001019383068271,-0.0010193830692172,0.001019383063651,-0.00099729205284853,0.00099729206641366,-0.00099729206735252,0.00099729205159311,-7.3864319966316e-13,2.0019235484921e-13,4.5066085026743e-13,9.1361106039747e-14,-0.0010092211863813,0.0010092211862532,-0.0010193830660785,0.0010193830662617,-0.001019383066137,0.0010193830663803,-0.0010193830656283,0.0010193830668188,-0.0010193830657995,0.0010193830665515,-0.00099729205938566,0.00099729205933174,-0.0009972920582675,0.00099729205751027,-0.00099729206034826,0.00099729205690181,-0.00099729205937469,0.00099729205765295,-7.3371465022696e-12,7.3604006006964e-12,-0.0010092211862931,0.0010092211862862,-1.8925480663086e-13,1.9328591877727e-13,-0.001019383068876,0.0010193830637622,-0.0010193830687066,0.0010193830634737,-0.0010193830639072,0.0010193830687076,-0.0010193830636211,0.0010193830687649,-0.00099729205016729,0.00099729206519095,-0.00099729206509309,0.00099729205023665,0.75554625309436,0.4847062542536,1368840,32768,0.0041962624010793,0.0041962624011583,0.0041962624010437,36.75129903741,36.750791975314,0.00020921039229928,0.00020921039229928,0.00020921039229928,722623.65739392,0.012668395126884
6393600,0.70859320092443,0.012193133227059,0.0040643777423426,0.0040643777424175,0.0040643777422986,-0.0010270372723451,0.0010270372715962,6.6736456247071e-12,-7.4333347990773e-12,7.2875773695137e-14,-8.3921745071824e-13,-0.0010377724739022,0.0010377724782294,-0.0010377724787106,0.0010377724734341,-0.0010377724748175,0.0010377724784098,-0.0010377724793776,0.0010377724738103,-0.0010144656257394,0.0010144656392083,-0.0010144656401824,0.0010144656244614,-7.067676293223e-13,2.5474260014137e-13,4.9398521791421e-13,1.3309618400294e-13,-0.0010270372720126,0.0010270372719665,-0.0010377724761988,0.0010377724764543,-0.0010377724762599,0.0010377724765729,-0.0010377724757441,0.0010377724770194,-0.0010377724759135,0.0010377724767501,-0.001014465632188,0.0010144656322246,-0.0010144656310695,0.00101446563041,-0.0010144656331693,0.0010144656297849,-0.00101446563216,0.0010144656305602,-7.3030917779121e-12,7.3257579237123e-12,-0.0010270372719638,0.0010270372719575,-1.8946852069028e-13,1.9459198181912e-13,-0.0010377724790226,0.0010377724739312,-0.0010377724788517,0.0010377724736431,-0.0010377724740756,0.001037772478854,-0.0010377724737875,0.0010377724789109,-0.0010144656230548,0.0010144656380068,-0.0010144656379037,0.0010144656231123,0.75471974190763,0.48538089711843,1368840,32768,0.0042701814743372,0.0042701814744156,0.0042701814742957,36.743878282366,36.743371206773,0.00020915102625893,0.00020915102625893,0.00020915102625893,728954.19410488,0.012892990697103
6480000,0.7216310382433,0.012408607384968,0.0041362024616462,0.0041362024617204,0.0041362024616013,-0.0010443072053042,0.0010443072045329,6.6413971981097e-12,-7.4231668155845e-12,7.6088852008389e-14,-8.6329477399607e-13,-0.0010555753726347,0.0010555753769354,-0.0010555753774223,0.0010555753721335,-0.0010555753735522,0.0010555753770859,-0.0010555753780648,0.0010555753725101,-0.0010311688057138,0.0010311688191379,-0.0010311688200719,0.0010311688044318,-6.7193504637498e-13,3.174599488753e-13,5.3603563918505e-13,1.8391299923117e-13,-0.001044307204914,0.0010443072049623,-0.0010555753748761,0.0010555753751592,-0.0010555753749373,0.0010555753753453,-0.0010555753743771,0.0010555753757894,-0.0010555753745817,0.0010555753755178,-0.0010311688120136,0.0010311688121873,-0.0010311688110079,0.0010311688103765,-0.0010311688130012,0.0010311688097148,-0.0010311688120723,0.0010311688105142,-7.2725220941479e-12,7.3139133002632e-12,-0.001044307204912,0.0010443072049091,-1.9021767427474e-13,1.8490985113097e-13,-0.0010555753777309,0.0010555753726739,-0.0010555753775369,0.0010555753723797,-0.0010555753727882,0.0010555753775593,-0.0010555753725054,0.0010555753776061,-0.0010311688029389,0.0010311688178634,-0.0010311688177843,0.0010311688030612,0.7587664603051,0.56135094059271,1368840,32768,0.0043418294304678,0.0043418294305491,0.0043418294304346,36.736457507366,36.735950438231,0.00020909166005893,0.00020909166005893,0.00020909166005893,729128.08307166,0.013110732915476
6566400,0.73421309863293,0.012617449039677,0.0042058163465494,0.0042058163466229,0.0042058163465045,-0.0010612493980786,0.0010612493973263,6.6366362259071e-12,-7.3960766137598e-12,8.4828026209086e-14,-8.5463103866723e-13,-0.001072910400233,0.0010729104045674,-0.0010729104050361,0.0010729103997895,-0.0010729104011913,0.0010729104047295,-0.0010729104056894,0.001072910400166,-0.0010477072808115,0.0010477072941449,-0.0010477072951447,0.0010477072794394,-6.3776103154414e-13,3.5248852583514e-13,5.7455003612608e-13,2.1629674522408e-13,-0.0010612493976649,0.0010612493977768,-0.0010729104024652,0.0010729104028575,-0.0010729104025277,0.0010729104029807,-0.0010729104019948,0.0010729104034583,-0.001072910402194,0.0010729104031721,-0.0010477072869844,0.0010477072871408,-0.001047707285913,0.0010477072854365,-0.0010477072880014,0.0010477072848133,-0.0010477072869538,0.0010477072856434,-7.2494297113691e-12,7.3047561682426e-12,-0.0010612493976857,0.0010612493976946,-1.8621451715668e-13,1.9477638795034e-13,-0.0010729104053318,0.0010729104002849,-0.0010729104051804,0.0010729103999988,-0.0010729104004067,0.0010729104051691,-0.0010729104001225,0.0010729104052349,-0.0010477072779699,0.0010477072928902,-0.001047707292702,0.0010477072780419,0.76199620391391,0.61978136300686,1368840,32768,0.0044121128778827,0.0044121128779591,0.0044121128778317,36.729622428147,36.729153979329,0.00020903697942517,0.00020903697942517,0.00020903697942517,703201.39352144,0.013324373169811
6652800,0.74665268729443,0.0128249612121,0.0042749870706911,0.004274987070764,0.0042749870706448,-0.0010789052623926,0.0010789052616376,6.6246447392976e-12,-7.3897958938668e-12,4.3604785550792e-14,-8.1611777404456e-13,-0.0010909239171774,0.0010909239214284,-0.0010909239219441,0.0010909239166563,-0.0010909239180082,0.001090923921584,-0.0010909239225975,0.0010909239169834,-0.0010650173575491,0.001065017371118,-0.0010650173717921,0.0010650173565531,-6.5088607175964e-13,2.6014875851635e-13,6.0922541799343e-13,1.6282773160692e-13,-0.0010789052619891,0.0010789052620811,-0.0010909239192826,0.0010909239198679,-0.0010909239194563,0.001090923919911,-0.0010909239188233,0.001090923920377,-0.0010909239190818,0.0010909239200877,-0.0010650173640464,0.0010650173642613,-0.0010650173628728,0.0010650173622174,-0.0010650173650056,0.0010650173618885,-0.001065017364067,0.0010650173625004,-7.2444975091033e-12,7.2895209571973e-12,-0.0010789052619998,0.0010789052620159,-1.9028092234255e-13,2.7840440670119e-13,-0.0010909239222925,0.0010909239172317,-0.0010909239220384,0.0010909239168863,-0.0010909239173661,0.0010909239220834,-0.0010909239170293,0.0010909239221268,-0.0010650173548868,0.0010650173696408,-0.0010650173698042,0.0010650173552494,0.76550576053905,0.67821178542102,1368840,32768,0.0044853518346998,0.0044853518347829,0.0044853518346699,37.168869168003,37.197859549308,0.00021255095334403,0.00021255095334403,0.00021255095334403,675955.31919094,0.013547044608088
6739200,0.75894285927854,0.013031161669095,0.0043437205563557,0.0043437205564289,0.0043437205563101,-0.0010965064554786,0.0010965064547456,6.6289969004597e-12,-7.3632675278196e-12,4.0093716340958e-14,-7.7485709335356e-13,-0.0011088471756733,0.0011088471799362,-0.0011088471804554,0.0011088471751982,-0.0011088471765456,0.0011088471801373,-0.0011088471810986,0.0011088471755936,-0.001082336552142,0.0010823365653489,-0.0010823365663262,0.0010823365508311,-7.4097945182167e-13,1.2334940823084e-13,4.9303673218391e-13,2.0783718012858e-14,-0.0010965064552233,0.0010965064550389,-0.0011088471779843,0.0011088471781733,-0.001108847178091,0.0011088471782234,-0.0011088471775912,0.0011088471786965,-0.0011088471777532,0.0011088471784202,-0.0010823365584093,0.0010823365586752,-0.0010823365574446,0.0010823365565633,-0.0010823365595139,0.0010823365561083,-0.0010823365586686,0.0010823365567239,-7.2104929596837e-12,7.2996043550388e-12,-0.0010965064550847,0.001096506455114,-2.1876622860659e-13,2.7583539694738e-13,-0.0011088471807442,0.0011088471756974,-0.0011088471805356,0.0011088471754222,-0.0011088471758137,0.0011088471805672,-0.0011088471755324,0.001108847180639,-0.0010823365495408,0.0010823365643279,-0.0010823365640864,0.0010823365496334,0.76954158034695,0.73664220783519,1368840,32768,0.0045583587894596,0.0045583587895381,0.0045583587894069,37.634759510986,37.666565119287,0.00021627807608788,0.00021627807608788,0.00021627807608788,645307.68613667,0.013769058937174
6825600,0.77105905967733,0.013237418283101,0.004412472761025,0.0044124727610984,0.004412472760978,-0.0011141141723555,0.0011141141718233,6.7860161624526e-12,-7.222336950799e-12,8.0140963513281e-14,-6.8032121665382e-13,-0.0011266809529188,0.0011266809571075,-0.0011266809577972,0.001126680952198,-0.0011266809532959,0.0011266809575445,-0.0011266809579537,0.0011266809524621,-0.0010998151795657,0.0010998151951458,-0.0010998151945211,0.0010998151789609,-6.3655861239487e-13,1.7243884975857e-13,4.486380002994e-13,2.7027703733968e-15,-0.0011141141721289,0.001114114171983,-0.0011266809545813,0.0011266809555896,-0.001126680955068,0.0011266809554275,-0.0011266809547997,0.0011266809557553,-0.0011266809552423,0.001126680955298,-0.0010998151874045,0.0010998151871817,-0.0010998151860042,0.0010998151846704,-0.0010998151880844,0.0010998151844929,-0.0010998151877776,0.0010998151857921,-7.3627983656816e-12,7.161621158566e-12,-0.0011141141720872,0.001114114171921,-2.7544040901399e-13,1.9273449444643e-13,-0.0011266809580363,0.0011266809524952,-0.0011266809578076,0.0011266809519999,-0.0011266809530109,0.0011266809573121,-0.0011266809528405,0.0011266809575783,-0.0010998151766248,0.0010998151930485,-0.0010998151929944,0.0010998151776197,0.78034425059316,0.88014327974573,1368840,32768,0.0046313877954459,0.0046313877953072,0.0046313877950923,38.103117364081,38.135270689266,0.00022002493891264,0.00022002493891264,0.00022002493891264,604661.22887332,0.01399118770635
6912000,0.78297580342558,0.0134372122532,0.004479070751067,0.0044790707511274,0.0044790707510061,-0.0011313648909202,0.0011313648903741,6.7977541568061e-12,-7.3037451697162e-12,1.0064680766205e-13,-6.5101334728323e-13,-0.0011441481596832,0.0011441481639342,-0.00114414816432,0.0011441481592168,-0.0011441481607115,0.0011441481643605,-0.0011441481651268,0.0011441481598871,-0.0011168623516843,0.0011168623652967,-0.0011168623669326,0.0011168623514626,-6.105232312873e-13,1.8899357931706e-13,4.432570176259e-13,5.8768792889012e-16,-0.0011313648907483,0.0011313648905716,-0.0011441481621282,0.0011441481621099,-0.0011441481624006,0.0011441481623583,-0.001144148161808,0.0011441481625928,-0.0011441481619918,0.0011441481623311,-0.0011168623581036,0.0011168623586705,-0.0011168623571581,0.0011168623571302,-0.0011168623597991,0.0011168623554244,-0.0011168623581449,0.0011168623566062,-7.3315928484005e-12,7.2860531219608e-12,-0.0011313648906395,0.0011313648906203,-2.2548722916699e-13,2.4038797984164e-13,-0.0011441481648568,0.0011441481595776,-0.0011441481647552,0.0011441481594204,-0.0011441481595813,0.0011441481645106,-0.0011441481595315,0.0011441481645983,-0.0011168623493709,0.0011168623634896,-0.0011168623642548,0.0011168623485831,0.76812825739066,0.66927950108049,1368840,32768,0.0047029306346988,0.0047029306347519,0.0047029306346273,38.571771873435,38.603976259245,0.00022377417498748,0.00022377417498748,0.00022377417498748,565362.25536032,0.014208844559827
6998400,0.79466810347776,0.013632298035168,0.0045440993450553,0.0045440993451184,0.0045440993449947,-0.0011475292447553,0.0011475292440883,6.7094282080444e-12,-7.4099889828642e-12,4.5052682495005e-14,-6.9083307199444e-13,-0.0011609069500324,0.0011609069543279,-0.001160906954892,0.0011609069495969,-0.0011609069509018,0.0011609069546132,-0.001160906955569,0.0011609069500705,-0.0011324554597125,0.0011324554732798,-0.001132455474077,0.0011324554588144,-6.6146799848905e-13,1.2338611299188e-13,4.0074478693361e-13,-5.4268459782864e-14,-0.001147529244557,0.001147529244316,-0.0011609069524172,0.0011609069525853,-0.0011609069524557,0.0011609069527153,-0.0011609069520194,0.0011609069530702,-0.0011609069522652,0.0011609069527603,-0.0011324554664415,0.0011324554662798,-0.0011324554651784,0.0011324554642226,-0.0011324554674341,0.0011324554640009,-0.0011324554664838,0.0011324554643601,-7.2935234819817e-12,7.341697774996e-12,-0.0011475292444028,0.0011475292444092,-2.1730347917493e-13,2.6041077992354e-13,-0.0011609069551789,0.0011609069501397,-0.0011609069550099,0.0011609069498126,-0.0011609069502226,0.0011609069550087,-0.0011609069500175,0.0011609069550648,-0.0011324554571636,0.0011324554718993,-0.0011324554718987,0.0011324554572514,0.76400246333467,0.61390026052372,1368840,32768,0.0047699630150093,0.0047699630150703,0.0047699630149438,39.040433125335,39.072681829225,0.00022752346500268,0.00022752346500268,0.00022752346500268,590395.80157377,0.014412822939435
7084800,0.80611169756986,0.01382263528176,0.0046075450939196,0.0046075450939818,0.0046075450938587,-0.0011635960082521,0.0011635960075603,6.7138362498523e-12,-7.4141915015389e-12,1.2695494514298e-14,-7.3053944722723e-13,-0.0011774388785796,0.0011774388829027,-0.0011774388834027,0.0011774388780901,-0.0011774388794294,0.0011774388831696,-0.0011774388840131,0.001177438878539,-0.0011480658211547,0.001148065834838,-0.0011480658356754,0.0011480658200396,-6.7284418036626e-13,1.1925406275259e-13,4.8844934291374e-13,4.8004827603116e-14,-0.0011635960080032,0.0011635960078414,-0.0011774388808769,0.0011774388811217,-0.0011774388810084,0.0011774388812233,-0.0011774388805359,0.0011774388816185,-0.0011774388807269,0.0011774388813043,-0.0011480658277676,0.0011480658277773,-0.0011480658266411,0.0011480658258654,-0.0011480658286802,0.0011480658253881,-0.0011480658279213,0.0011480658260208,-7.2972863670282e-12,7.3464917461906e-12,-0.0011635960078823,0.0011635960079026,-2.0482112520816e-13,2.5827260994905e-13,-0.0011774388837021,0.0011774388785976,-0.0011774388834842,0.0011774388783291,-0.001177438878727,0.0011774388834956,-0.001177438878437,0.0011774388835885,-0.001148065818574,0.0011480658336524,-0.0011480658335115,0.0011480658187016,0.76187602206073,0.59419810702723,1368840,32768,0.004836586304428,0.0048365863044949,0.004836586304371,39.509094283466,39.541387399203,0.00023127275426773,0.00023127275426773,0.00023127275426773,591675.30882093,0.014615596953056
7171200,0.81728417548321,0.014007242797171,0.00466908093239,0.0046690809324525,0.0046690809323285,-0.0011792743618954,0.0011792743612561,6.7768126200851e-12,-7.3922187610264e-12,8.1172931987353e-14,-7.7526137512068e-13,-0.001193557090621,0.0011935570948789,-0.0011935570953373,0.0011935570905667,-0.001193557091841,0.0011935570953136,-0.0011935570961438,0.0011935570909471,-0.0011632862910907,0.0011632863045559,-0.0011632863061596,0.0011632862903819,-6.1232955845819e-13,2.9313092740432e-13,5.7331210335584e-13,1.4866984059136e-13,-0.0011792743615981,0.0011792743616203,-0.0011935570926044,0.0011935570932743,-0.0011935570931098,0.0011935570931222,-0.0011935570925917,0.0011935570937909,-0.001193557092526,0.0011935570936555,-0.0011632862985231,0.0011632862986781,-0.0011632862972302,0.0011632862967188,-0.0011632862989556,0.0011632862964038,-0.0011632862981142,0.0011632862971329,-7.3752950427402e-12,7.3095298165286e-12,-0.0011792743615706,0.0011792743615273,-2.3480973848837e-13,2.1442550827144e-13,-0.0011935570957008,0.0011935570907891,-0.0011935570956668,0.001193557090375,-0.0011935570909391,0.0011935570956001,-0.0011935570905585,0.001193557095596,-0.0011632862898138,0.0011632863043211,-0.0011632863049202,0.0011632862894316,0.75690079578825,0.53332239675741,1368840,32768,0.0049015945825013,0.0049015945826398,0.0049015945823903,39.977756233443,40.010092969182,0.00023502204986754,0.00023502204986754,0.00023502204986754,589368.48794625,0.014813495131571
7257600,0.82816441784288,0.014185705154466,0.0047285683848224,0.0047285683848849,0.0047285683847585,-0.0011943410606888,0.001194341059709,6.586088799508e-12,-7.5426032257077e-12,-7.3229174663686e-14,-1.0077113915793e-12,-0.0012091556796045,0.0012091556836369,-0.0012091556843214,0.0012091556787861,-0.0012091556807633,0.0012091556839835,-0.0012091556850472,0.0012091556792976,-0.0011777901002818,0.0011777901128887,-0.0011777901137623,0.0011777900992046,-6.4311197101779e-13,3.413644539032e-13,5.7860514753932e-13,1.9048438671509e-13,-0.0011943410601856,0.0011943410602425,-0.0012091556815052,0.0012091556818822,-0.0012091556817996,0.001209155682082,-0.0012091556808941,0.0012091556826165,-0.0012091556813287,0.0012091556825715,-0.0011777901066996,0.0011777901059453,-0.0011777901050351,0.0011777901045324,-0.0011777901068748,0.0011777901038995,-0.0011777901060931,0.0011777901049206,-7.2709511127286e-12,7.3728180301759e-12,-0.0011943410601357,0.001194341060187,-1.6653803002456e-13,2.4528868306969e-13,-0.0012091556843974,0.0012091556796106,-0.0012091556841349,0.0012091556792052,-0.0012091556793549,0.0012091556844645,-0.0012091556793638,0.0012091556847063,-0.0011777900976311,0.0011777901112896,-0.0011777901114439,0.0011777900980265,0.75136027501199,0.46898638272368,1368840,32768,0.0049640624960976,0.0049640624961603,0.0049640624959419,40.446417726909,40.478798539162,0.00023877134181527,0.00023877134181527,0.00023877134181527,598901.74931012,0.015003697219145
7344000,0.8386341245477,0.014356459411148,0.0047854864703851,0.0047854864704457,0.0047854864703175,-0.0012084089091449,0.0012084089083865,6.6442614929604e-12,-7.4181467336505e-12,8.1336456403559e-14,-8.7081422075272e-13,-0.0012238049776572,0.0012238049819843,-0.0012238049824053,0.0012238049771238,-0.0012238049786126,0.0012238049821739,-0.001223804983167,0.0012238049774868,-0.0011912428489473,0.0011912428622294,-0.001191242863136,0.001191242847685,-6.9813140785882e-13,3.0409759238023e-13,5.4004485494156e-13,1.287194500621e-13,-0.0012084089087821,0.0012084089087801,-0.001223804979822,0.0012238049801846,-0.001223804980025,0.0012238049803213,-0.0012238049795014,0.0012238049808117,-0.0012238049796688,0.0012238049805132,-0.0011912428553069,0.0011912428553263,-0.0011912428544797,0.0011912428535279,-0.001191242856094,0.0011912428528637,-0.0011912428551015,0.0011912428536944,-7.2861760005599e-12,7.2912406693671e-12,-0.0012084089087518,0.0012084089087518,-2.076938315666e-13,2.2761654647075e-13,-0.0012238049827737,0.001223804977704,-0.0012238049825854,0.0012238049773529,-0.0012238049778068,0.0012238049826054,-0.0012238049775058,0.0012238049826553,-0.0011912428462825,0.0011912428611022,-0.0011912428609908,0.0011912428464879,0.74719297806065,0.42818194048028,1368840,32768,0.0050223853673534,0.0050223853674172,0.0050223853672959,40.737816717605,40.758399481115,0.00024110253374084,0.00024110253374084,0.00024110253374084,612367.3079859,0.015181311494482
7430400,0.84856026295741,0.014517643837553,0.0048392146125195,0.0048392146125804,0.0048392146124529,-0.0012212814881838,0.0012212814873957,6.6244119228806e-12,-7.4205467191561e-12,7.5477105990927e-14,-8.934903515419e-13,-0.0012372304476344,0.0012372304519088,-0.0012372304524116,0.0012372304471279,-0.0012372304485744,0.0012372304521039,-0.0012372304531131,0.0012372304474996,-0.0012035221811909,0.001203522194545,-0.0012035221955523,0.001203522179875,-6.5986901792504e-13,3.5979394971828e-13,5.7477547041568e-13,1.575567455731e-13,-0.001221281487778,0.0012212814878317,-0.0012372304498026,0.0012372304501852,-0.0012372304499651,0.0012372304503134,-0.0012372304494061,0.0012372304507898,-0.0012372304495986,0.0012372304504874,-0.0012035221875541,0.0012035221877839,-0.0012035221864761,0.001203522185889,-0.0012035221885426,0.0012035221852846,-0.0012035221874784,0.0012035221861556,-7.2602744388936e-12,7.2993321574719e-12,-0.0012212814877689,0.0012212814877805,-2.0144908116297e-13,2.394797134709e-13,-0.001237230452711,0.00123723044765,-0.0012372304525151,0.0012372304473685,-0.0012372304477713,0.0012372304525364,-0.0012372304474872,0.0012372304525946,-0.0012035221785656,0.0012035221934988,-0.0012035221933439,0.0012035221786798,0.74405231165908,0.40318419993587,1368840,32768,0.0050757497355955,0.005075749735658,0.005075749735533,40.784549228884,40.788401523602,0.00024147639383107,0.00024147639383107,0.00024147639383107,621640.8752277,0.015343853149611
7516800,0.85795358503112,0.014669558827731,0.004889852942579,0.0048898529426395,0.0048898529425121,-0.001233417987762,0.0012334179869589,6.6146669852876e-12,-7.418868829238e-12,7.6490075045418e-14,-9.0801608426132e-13,-0.0012498859586879,0.0012498859629488,-0.0012498859634721,0.001249885958162,-0.0012498859596469,0.001249885963157,-0.001249885964197,0.0012498859585362,-0.0012150931902778,0.001215093203604,-0.0012150932046568,0.0012150931890308,-6.5267291423166e-13,3.8284142210441e-13,6.0379164281506e-13,1.9072082066867e-13,-0.001233417987328,0.0012334179874225,-0.0012498859608488,0.0012498859612541,-0.0012498859610038,0.0012498859613729,-0.0012498859604411,0.0012498859618619,-0.0012498859606196,0.0012498859615629,-0.0012150931965991,0.0012150931968601,-0.001215093195491,0.0012150931949923,-0.0012150931975984,0.0012150931943761,-0.001215093196521,0.0012150931952438,-7.2629131229895e-12,7.285192795302e-12,-0.0012334179873438,0.0012334179873453,-2.0180921721988e-13,2.3507049522832e-13,-0.0012498859637563,0.0012498859586958,-0.0012498859635772,0.0012498859584036,-0.0012498859588231,0.0012498859635768,-0.0012498859585443,0.00124988596365,-0.0012150931876434,0.0012150932024674,-0.001215093202421,0.0012150931877263,0.7411418060424,0.38129582520854,1368840,32768,0.0051260599303721,0.0051260599304332,0.0051260599303063,40.816147247831,40.818403566089,0.00024172917798265,0.00024172917798265,0.00024172917798265,627132.40872123,0.015497116336284
7603200,0.86683347739356,0.014812700734628,0.004937566911545,0.0049375669116053,0.0049375669114779,-0.001244849823683,0.0012448498228661,6.6013152755261e-12,-7.4233729857568e-12,8.6785642875829e-14,-9.2939396059364e-13,-0.0012618230451792,0.0012618230494322,-0.0012618230499574,0.0012618230446515,-0.0012618230461395,0.0012618230496225,-0.0012618230506901,0.0012618230450104,-0.0012259732924529,0.0012259733057462,-0.0012259733068281,0.0012259732911448,-6.489310285437e-13,4.1863897557254e-13,6.2348139424785e-13,2.1183655795033e-13,-0.0012448498232209,0.0012448498233584,-0.0012618230473247,0.0012618230477597,-0.0012618230474694,0.0012618230478815,-0.0012618230469006,0.0012618230483729,-0.0012618230470789,0.0012618230480791,-0.0012259732986814,0.001225973299028,-0.0012259732976303,0.0012259732971897,-0.0012259732997722,0.001225973296522,-0.0012259732986342,0.0012259732974338,-7.2573214114595e-12,7.2817557826533e-12,-0.0012448498232573,0.0012448498232593,-2.0538763731337e-13,2.2993512269866e-13,-0.0012618230502443,0.0012618230451883,-0.0012618230500515,0.001261823044895,-0.0012618230453028,0.0012618230500618,-0.0012618230450319,0.0012618230501293,-0.0012259732897863,0.0012259733046506,-0.0012259733045544,0.0012259732898662,0.73878159340801,0.36716775327241,1368840,32768,0.0051734466376357,0.0051734466376982,0.0051734466375684,40.846311583414,40.848405608576,0.00024197049266731,0.00024197049266731,0.00024197049266731,631433.70609611,0.01564149503197
7689600,0.87522028894192,0.014947615656081,0.0049825385520294,0.0049825385520895,0.004982538551962,-0.0012556444562718,0.0012556444554472,6.5932494042859e-12,-7.421879031396e-12,9.2298886214735e-14,-9.3963100080027e-13,-0.0012730940601713,0.0012730940644177,-0.0012730940649465,0.0012730940596429,-0.0012730940611434,0.001273094064604,-0.0012730940656873,0.0012730940600005,-0.0012362480248263,0.0012362480380998,-0.0012362480391851,0.0012362480235131,-6.3648429113592e-13,4.47167280523e-13,6.4135002484404e-13,2.3447842508036e-13,-0.0012556444557852,0.0012556444559637,-0.0012730940622953,0.0012730940627662,-0.0012730940624435,0.0012730940628877,-0.0012730940618686,0.0012730940633828,-0.0012730940620443,0.0012730940630876,-0.0012362480310488,0.0012362480314163,-0.0012362480299764,0.0012362480295804,-0.00123624803211,0.0012362480289126,-0.0012362480309838,0.0012362480298234,-7.2492853040159e-12,7.2801845953579e-12,-0.0012556444558413,0.0012556444558471,-2.0157363618143e-13,2.2901915068097e-13,-0.0012730940652285,0.0012730940601848,-0.0012730940650392,0.0012730940598893,-0.001273094060299,0.0012730940650525,-0.0012730940600246,0.0012730940651241,-0.0012362480221522,0.0012362480370009,-0.0012362480369134,0.0012362480222462,0.73730524464406,0.3653920339003,1368840,32768,0.0052181899342748,0.0052181899343367,0.0052181899342115,40.876330299094,40.878407651063,0.00024221064239275,0.00024221064239275,0.00024221064239275,632895.14146112,0.015777838778706
7776000,0.88313452982444,0.015074684672608,0.005024894890872,0.0050248948909319,0.0050248948908045,-0.0012658553327439,0.001265855331911,6.5837594000814e-12,-7.4253813361677e-12,9.8231940258125e-14,-9.5154446038166e-13,-0.00128373947277,0.0012837394770117,-0.0012837394775426,0.0012837394722393,-0.0012837394737484,0.0012837394771939,-0.0012837394782894,0.001283739472593,-0.0012459826872064,0.001245982700444,-0.0012459827015504,0.0012459826858629,-6.2454859693966e-13,4.7736388744915e-13,6.6253326006368e-13,2.5523352632038e-13,-0.001265855332233,0.001265855332452,-0.0012837394748774,0.0012837394753797,-0.001283739475023,0.0012837394755021,-0.0012837394744455,0.0012837394760038,-0.0012837394746194,0.0012837394757065,-0.0012459826933708,0.0012459826937894,-0.00124598269232,0.0012459826919683,-0.0012459826944669,0.0012459826912779,-0.0012459826933071,0.0012459826922102,-7.2467394406138e-12,7.2767741995432e-12,-0.0012658553323096,0.001265855332315,-2.0331693586599e-13,2.2769145594702e-13,-0.0012837394778255,0.0012837394727847,-0.0012837394776371,0.0012837394724896,-0.0012837394728966,0.0012837394776496,-0.0012837394726225,0.0012837394777208,-0.0012459826845107,0.0012459826993565,-0.0012459826992533,0.0012459826845978,0.73590666259558,0.36361631452819,1368840,32768,0.0052605117198744,0.0052605117199368,0.0052605117198117,40.906333961393,40.90840969355,0.00024245067169114,0.00024245067169114,0.00024245067169114,630429.17361909,0.015906820561766
7862400,0.89059667198709,0.015194281838334,0.0050647606127805,0.0050647606128403,0.0050647606127131,-0.0012754680364276,0.0012754680355837,6.5738026454298e-12,-7.424240018093e-12,1.0253833811239e-13,-9.6910239458706e-13,-0.0012937675087823,0.0012937675130185,-0.0012937675135512,0.0012937675082485,-0.0012937675097678,0.0012937675131925,-0.0012937675143071,0.0012937675085948,-0.0012551417960465,0.0012551418092646,-0.0012551418103922,0.0012551417946972,-6.1301330227617e-13,5.1107215180246e-13,6.8316645326321e-13,2.7537520512357e-13,-0.0012754680358905,0.0012754680361505,-0.0012937675108684,0.0012937675114042,-0.0012937675110157,0.0012937675115256,-0.0012937675104298,0.0012937675120344,-0.0012937675106044,0.0012937675117375,-0.0012551418021802,0.0012551418026499,-0.0012551418011242,0.0012551418008218,-0.0012551418032781,0.0012551418001293,-0.0012551418021064,0.0012551418010826,-7.2404271628614e-12,7.2719327886214e-12,-0.0012754680359867,0.0012754680359937,-2.0181509939313e-13,2.296489549703e-13,-0.0012937675138316,0.0012937675087936,-0.0012937675136417,0.0012937675085024,-0.0012937675089056,0.0012937675136552,-0.0012937675086311,0.0012937675137271,-0.0012551417933488,0.0012551418081834,-0.0012551418080904,0.0012551417934367,0.73456826490873,0.36184059515609,1368840,32768,0.0053003525350232,0.0053003525350846,0.0053003525349592,40.936336055513,40.938411736037,0.0002426906884441,0.0002426906884441,0.0002426906884441,627093.79323996,0.016028256381024
7948800,0.89762701918005,0.015306766722217,0.005102255574075,0.0051022555741345,0.0051022555740074,-0.0012845111859884,0.0012845111851296,6.5687925043686e-12,-7.4316161456986e-12,1.1244503546959e-13,-9.958842234794e-13,-0.0013032070954896,0.0013032070997238,-0.0013032071002587,0.0013032070949553,-0.0013032070964855,0.0013032070998822,-0.0013032071010287,0.0013032070952862,-0.0012637535179309,0.0012637535311464,-0.0012637535322814,0.0012637535165559,-6.0890689831223e-13,5.521371325896e-13,7.0554353436462e-13,3.0284183662506e-13,-0.0012845111854207,0.0012845111857276,-0.0013032070975584,0.0013032070981258,-0.0013032070977047,0.0013032070982511,-0.0013032070971079,0.0013032070987714,-0.0013032070972786,0.0013032070984745,-0.0012637535240262,0.001263753524563,-0.0012637535229542,0.0012637535227206,-0.0012637535251375,0.0012637535220112,-0.0012637535239487,0.0012637535230068,-7.243645652774e-12,7.2710530802018e-12,-0.0012845111855412,0.0012845111855457,-1.9932855770821e-13,2.2711179718461e-13,-0.0013032071005357,0.0013032070955,-0.0013032071003492,0.0013032070952047,-0.0013032070956097,0.001303207100359,-0.0013032070953371,0.0013032071004283,-0.0012637535152126,0.0012637535300667,-0.0012637535299794,0.0012637535153166,0.73327776290019,0.36006487578398,1368840,32768,0.0053378312895033,0.0053378312895662,0.0053378312894391,40.966337982232,40.968413778524,0.00024293070385785,0.00024293070385785,0.00024293070385785,623038.1528727,0.016142505998584
8035200,0.90424561301203,0.015412489837746,0.0051374966125847,0.0051374966126441,0.0051374966125171,-0.0012930127383611,0.0012930127374943,6.5506827046693e-12,-7.4224574843129e-12,1.1309489796967e-13,-1.0053167588513e-12,-0.0013120864357734,0.0013120864399961,-0.0013120864405343,0.0013120864352351,-0.0013120864367791,0.0013120864401538,-0.0013120864413081,0.0013120864355626,-0.0012718453485793,0.0012718453617607,-0.0012718453628912,0.001271845347197,-5.9822213648907e-13,5.7328707470868e-13,7.2874670787654e-13,3.169039658602e-13,-0.0012930127377717,0.0012930127381148,-0.0013120864378243,0.0013120864384288,-0.0013120864379771,0.0013120864385534,-0.0013120864373699,0.0013120864390792,-0.0013120864375447,0.0013120864387786,-0.0012718453546189,0.0012718453552011,-0.0012718453535862,0.0012718453533727,-0.0012718453557537,0.0012718453526305,-0.0012718453545603,0.001271845353632,-7.2247142311159e-12,7.2627700979471e-12,-0.0012930127379077,0.0012930127379176,-2.0312073597741e-13,2.3241492929521e-13,-0.0013120864408188,0.0013120864357898,-0.0013120864406249,0.001312086435495,-0.0013120864359006,0.001312086440644,-0.0013120864356215,0.0013120864407133,-0.0012718453458421,0.0012718453606772,-0.0012718453605873,0.0012718453459671,0.732026322156,0.35828915641187,1368840,32768,0.0053730641146977,0.005373064114762,0.0053730641146354,40.996339887927,40.998415821011,0.00024317071910342,0.00024317071910342,0.00024317071910342,618391.92855309,0.016249921029882
8121600,0.91048290952049,0.015511962776043,0.0051706542586835,0.005170654258743,0.005170654258616,-0.0013010778818097,0.0013010778809285,6.5397577443017e-12,-7.4274607432315e-12,1.2035314682339e-13,-1.0270354483014e-12,-0.0013205107342597,0.0013205107384792,-0.0013205107390209,0.0013205107337189,-0.0013205107352733,0.0013205107386295,-0.0013205107398083,0.0013205107340376,-0.0012795218822771,0.0012795218954064,-0.0012795218965801,0.0012795218808634,-5.874809646245e-13,6.1324408934343e-13,7.5273359274073e-13,3.4173267794832e-13,-0.0013010778811907,0.0013010778815782,-0.0013205107362918,0.0013205107369289,-0.0013205107364458,0.0013205107370496,-0.001320510735829,0.0013205107375859,-0.0013205107360022,0.0013205107372873,-0.0012795218882785,0.0012795218889218,-0.0012795218872226,0.0012795218870855,-0.0012795218894205,0.0012795218863351,-0.001279521888188,0.0012795218873631,-7.2226647054922e-12,7.2578649536782e-12,-0.0013010778813504,0.0013010778813601,-2.0004859453511e-13,2.3463353798883e-13,-0.0013205107393023,0.0013205107342715,-0.0013205107391094,0.0013205107339812,-0.0013205107343839,0.0013205107391251,-0.0013205107341085,0.0013205107391978,-0.0012795218795469,0.0012795218943598,-0.0012795218942592,0.0012795218796525,0.73080588735065,0.35651343703976,1368840,32768,0.0054064871714194,0.0054064871714829,0.0054064871713622,41.0595939188,41.063890199224,0.0002436767513504,0.0002436767513504,0.0002436767513504,613225.16188885,0.01635182917085
8208000,0.91636906685622,0.015605688833797,0.0052018962779348,0.0052018962779943,0.0052018962778674,-0.0013087641390796,0.0013087641381878,6.5273104186766e-12,-7.4260178461346e-12,1.2859983606916e-13,-1.0445718537528e-12,-0.0013285391795963,0.0013285391838068,-0.001328539184352,0.0013285391790506,-0.0013285391806181,0.0013285391839531,-0.0013285391851478,0.001328539179363,-0.0012868388955786,0.0012868389086613,-0.0012868389098542,0.0012868388941135,-5.8039744572702e-13,6.4612967294672e-13,7.6236518085527e-13,3.6375127000133e-13,-0.0013087641384359,0.0013087641388609,-0.0013285391816044,0.0013285391822685,-0.0013285391817548,0.0013285391823951,-0.0013285391811335,0.0013285391829323,-0.0013285391813026,0.0013285391826376,-0.0012868389015647,0.001286838902213,-0.0012868389004691,0.001286838900377,-0.0012868389026982,0.0012868388996135,-0.0012868389014296,0.0012868389006847,-7.2160546133084e-12,7.2502906850669e-12,-0.0013087641386161,0.0013087641386223,-1.9728032616263e-13,2.2509227064446e-13,-0.0013285391846256,0.0013285391796016,-0.0013285391844364,0.0013285391793066,-0.0013285391797152,0.0013285391844521,-0.0013285391794394,0.0013285391845178,-0.0012868388928415,0.0012868389076536,-0.0012868389075282,0.0012868388929403,0.72960979021181,0.35473771766766,1368840,32768,0.0054383390177812,0.0054383390178423,0.0054383390177213,41.165058401597,41.17225159435,0.00024452046721277,0.00024452046721277,0.00024452046721277,607658.70087076,0.016448956215197
8294400,0.92191950228282,0.015693984463264,0.0052313281544239,0.0052313281544832,0.0052313281543565,-0.0013160207832345,0.0013160207823423,6.5193831902598e-12,-7.4210569388633e-12,1.2194662755541e-13,-1.045381946652e-12,-0.0013361215290163,0.0013361215332253,-0.0013361215337706,0.0013361215284715,-0.0013361215300355,0.0013361215333731,-0.0013361215345629,0.0013361215287865,-0.0012937466307018,0.0012937466437471,-0.0012937466449754,0.0012937466292726,-5.6535746401167e-13,6.5579167189693e-13,7.7459357199219e-13,3.9390517234972e-13,-0.0013160207825752,0.001316020783031,-0.0013361215310115,0.0013361215317009,-0.0013361215311547,0.0013361215318341,-0.0013361215305447,0.001336121532363,-0.0013361215307075,0.0013361215320736,-0.0012937466366266,0.0012937466373503,-0.0012937466355403,0.0012937466355171,-0.0012937466377834,0.001293746634745,-0.0012937466365463,0.0012937466358334,-7.2160189673385e-12,7.237678217428e-12,-0.0013160207827752,0.0013160207827728,-1.9241306308947e-13,2.1218945893415e-13,-0.001336121534044,0.0013361215290236,-0.0013361215338626,0.0013361215287226,-0.0013361215291321,0.001336121533866,-0.0013361215288674,0.0013361215339276,-0.0012937466279927,0.0012937466427164,-0.0012937466426377,0.0012937466280379,0.72884500902132,0.35907401629265,1368840,32768,0.0054684096021252,0.0054684096021862,0.0054684096020659,41.27314104162,41.280612989477,0.00024538512833296,0.00024538512833296,0.00024538512833296,601714.17704693,0.016540660183759
8380800,0.92714870491935,0.01577710759031,0.0052590358634393,0.0052590358634985,0.0052590358633718,-0.0013228919618612,0.0013228919609563,6.4972707481327e-12,-7.4044419170291e-12,1.3355386119769e-13,-1.0656177402272e-12,-0.0013432867517011,0.0013432867558935,-0.0013432867564405,0.0013432867511545,-0.0013432867527349,0.0013432867560261,-0.0013432867572477,0.0013432867514521,-0.0013003029780458,0.0013003029910551,-0.0013003029922816,0.0013003029765799,-5.607853978028e-13,6.9250496209582e-13,8.0226410902922e-13,4.0239911874785e-13,-0.0013228919611753,0.0013228919616721,-0.0013432867536692,0.001343286754397,-0.0013432867538215,0.0013432867545213,-0.0013432867531911,0.0013432867550741,-0.001343286753361,0.0013432867547767,-0.0013003029839122,0.0013003029846701,-0.0013003029828556,0.001300302982872,-0.001300302985098,0.0013003029820892,-0.0013003029838321,0.0013003029831398,-7.1901162880593e-12,7.2247459066189e-12,-0.0013228919613911,0.0013228919613983,-1.9889051226667e-13,2.2461622636376e-13,-0.0013432867567153,0.001343286751707,-0.0013432867565214,0.0013432867514152,-0.0013432867518184,0.0013432867565396,-0.0013432867515426,0.0013432867566088,-0.0013003029752924,0.0013003029900339,-0.0013003029899286,0.0013003029753834,0.7282274841158,0.3649459305384,1368840,32768,0.0054968820449189,0.0054968820449809,0.0054968820448607,41.381471970296,41.388974384604,0.00024625177576236,0.00024625177576236,0.00024625177576236,594053.12913514,0.016627498028534
8467200,0.93207093976654,0.015855299346579,0.0052850997821958,0.0052850997822549,0.0052850997821283,-0.0013293768688283,0.0013293768679156,6.4767230817321e-12,-7.3937590669122e-12,1.4103263272635e-13,-1.0800318881201e-12,-0.0013500443401897,0.0013500443443664,-0.001350044344916,0.0013500443396379,-0.0013500443412277,0.0013500443444957,-0.0013500443457303,0.0013500443399343,-0.0013064972153615,0.0013064972283392,-0.0013064972295842,0.0013064972139009,-5.5053176986762e-13,7.2487067922773e-13,8.1363929093699e-13,4.2830338621378e-13,-0.0013293768681211,0.0013293768686527,-0.001350044342145,0.0013500443428872,-0.0013500443422872,0.0013500443430198,-0.0013500443416604,0.0013500443435702,-0.0013500443418195,0.0013500443432799,-0.0013064972212089,0.0013064972220037,-0.0013064972201574,0.0013064972202113,-0.0013064972223848,0.0013064972193941,-0.0013064972210959,0.0013064972205035,-7.1811517383908e-12,7.2025034978739e-12,-0.0013293768683595,0.001329376868357,-1.9625873972434e-13,2.1289164336525e-13,-0.0013500443451935,0.0013500443401977,-0.0013500443450122,0.0013500443398979,-0.001350044340308,0.0013500443450208,-0.0013500443400423,0.0013500443450808,-0.001306497212622,0.0013064972273137,-0.0013064972272427,0.0013064972126935,0.72765586296616,0.37081784478414,1368840,32768,0.0055237531319577,0.0055237531320198,0.0055237531319013,41.489828131437,41.497335779731,0.00024711862505149,0.00024711862505149,0.00024711862505149,585814.51353765,0.016709458731005
8553600,0.93670025834985,0.01592879401679,0.0053095980055995,0.0053095980056586,0.0053095980055322,-0.001335487208819,0.0013354872078965,6.4696738264938e-12,-7.3985473912205e-12,1.4652852365418e-13,-1.093478712623e-12,-0.0013564101315912,0.0013564101357672,-0.0013564101363222,0.0013564101310393,-0.0013564101326375,0.0013564101358907,-0.0013564101371438,0.0013564101313294,-0.001312336901798,0.0013123369147476,-0.0013123369160027,0.0013123369003103,-5.4396185292702e-13,7.505933640056e-13,8.177347540587e-13,4.6087680288297e-13,-0.0013354872080896,0.0013354872086554,-0.0013564101335369,0.0013564101342978,-0.0013564101336704,0.0013564101344385,-0.0013564101330457,0.0013564101349868,-0.0013564101331957,0.0013564101347045,-0.0013123369076171,0.0013123369084236,-0.0013123369065225,0.0013123369066538,-0.0013123369088186,0.001312336905833,-0.0013123369074751,0.00131233690695,-7.1836421328992e-12,7.1976630575107e-12,-0.0013354872083494,0.0013354872083382,-1.8696517069531e-13,1.9386357760078e-13,-0.0013564101365936,0.0013564101315959,-0.0013564101364194,0.0013564101312865,-0.0013564101317082,0.001356410136419,-0.0013564101314498,0.0013564101364705,-0.0013123368990456,0.0013123369137201,-0.001312336913654,0.001312336899105,0.7271254420772,0.37668975902989,1368840,32768,0.0055490714878022,0.0055490714878631,0.0055490714877443,41.598186891576,41.605697174858,0.0002479854951326,0.0002479854951326,0.0002479854951326,577430.81533926,0.016786689445795
8640000,0.94105045843448,0.015997819768485,0.0053326065894978,0.0053326065895567,0.0053326065894304,-0.0013412410463369,0.0013412410453898,6.4548759256183e-12,-7.4050303696405e-12,1.655782358162e-13,-1.1401121115341e-12,-0.0013624029144166,0.0013624029185867,-0.0013624029191424,0.0013624029138602,-0.0013624029154857,0.0013624029186891,-0.0013624029199875,0.0013624029141293,-0.0013178391021887,0.0013178391150966,-0.0013178391163827,0.0013178391006623,-5.5160244304165e-13,8.0893205238695e-13,8.395940862711e-13,4.9161545207363e-13,-0.0013412410455703,0.001341241046186,-0.0013624029163469,0.0013624029171322,-0.0013624029164805,0.0013624029172766,-0.001362402915835,0.0013624029178434,-0.0013624029159847,0.0013624029175661,-0.0013178391079598,0.0013178391088326,-0.0013178391068498,0.0013178391070661,-0.0013178391091735,0.0013178391061846,-0.0013178391077926,0.0013178391073686,-7.1803444689347e-12,7.192512303098e-12,-0.0013412410458561,0.0013412410458426,-1.832469313438e-13,1.8883667234575e-13,-0.0013624029194145,0.0013624029144194,-0.0013624029192425,0.0013624029141074,-0.001362402914531,0.0013624029192392,-0.0013624029142754,0.0013624029192877,-0.0013178390994196,0.0013178391140838,-0.0013178391140334,0.0013178390994893,0.72663263230283,0.38256167327564,1368840,32768,0.0055729120800756,0.0055729120801368,0.0055729120800176,41.706545911918,41.714058569984,0.00024885236729534,0.00024885236729534,0.00024885236729534,568979.97643957,0.016859417790223
8726400,0.94513504397214,0.016062598714858,0.005354199571622,0.0053541995716809,0.0053541995715547,-0.0013466559929827,0.0013466559920222,6.4390039399084e-12,-7.4043656840638e-12,1.7633649539405e-13,-1.1616910993696e-12,-0.0013680410502743,0.0013680410544364,-0.0013680410549956,0.0013680410497145,-0.0013680410513532,0.0013680410545282,-0.0013680410558512,0.0013680410499743,-0.0013230204427186,0.0013230204555656,-0.0013230204568938,0.0013230204411515,-5.4849497914901e-13,8.4431679493677e-13,8.331321366204e-13,5.2357353459968e-13,-0.001346655992193,0.0013466559928417,-0.0013680410521957,0.0013680410529925,-0.0013680410523162,0.0013680410531483,-0.0013680410516741,0.0013680410537156,-0.0013680410518102,0.0013680410534481,-0.0013230204484648,0.0013230204493251,-0.0013230204473226,0.0013230204476108,-0.0013230204496647,0.0013230204466977,-0.0013230204482349,0.0013230204479265,-7.1796077267357e-12,7.1769399258823e-12,-0.0013466559925028,0.0013466559924745,-1.7234455852145e-13,1.6104537429201e-13,-0.0013680410552684,0.001368041050277,-0.0013680410551083,0.001368041049952,-0.0013680410503892,0.001368041055092,-0.0013680410501454,0.0013680410551265,-0.0013230204399567,0.001323020454576,-0.0013230204545352,0.0013230204399833,0.72617462084029,0.38843358752138,1368840,32768,0.005595347985668,0.0055953479857297,0.0055953479856109,41.814904950365,41.822419965111,0.00024971923960292,0.00024971923960292,0.00024971923960292,560528.64521075,0.016927865742112
8812800,0.94896719043242,0.01612283255217,0.0053742775173928,0.0053742775174516,0.0053742775173255,-0.0013517033201592,0.0013517033192425,6.4303229698119e-12,-7.3443204595807e-12,2.0863980266783e-13,-1.1195060351532e-12,-0.001373309773011,0.0013733097771999,-0.0013733097776128,0.0013733097725114,-0.0013733097740632,0.0013733097772505,-0.0013733097786661,0.001373309772771,-0.0013278265972988,0.0013278266102385,-0.0013278266114451,0.0013278265959797,-5.4638989639901e-13,8.3639303700213e-13,8.3793231350771e-13,5.3311633130908e-13,-0.0013517033194122,0.001351703320053,-0.0013733097749853,0.0013733097757371,-0.0013733097752149,0.001373309775916,-0.0013733097744672,0.0013733097764908,-0.0013733097746227,0.0013733097761669,-0.0013278266032424,0.001327826604072,-0.001327826601828,0.0013278266022173,-0.0013278266044027,0.0013278266013107,-0.0013278266025747,0.0013278266025779,-7.1341430568267e-12,7.1529799519607e-12,-0.0013517033197086,0.0013517033196962,-1.6104672719185e-13,1.6714939370076e-13,-0.0013733097779709,0.0013733097730647,-0.001373309777838,0.0013733097726977,-0.0013733097731697,0.001373309777874,-0.00137330977291,0.001373309777871,-0.0013278265944065,0.0013278266089671,-0.0013278266090237,0.0013278265944452,0.71961928073769,0.303444394553,1368840,32768,0.0056162601636596,0.005616260163791,0.005616260163666,41.923264095958,41.930781360238,0.00025058611276766,0.00025058611276766,0.00025058611276766,553254.24103562,0.01699166964279
8899200,0.95254036975145,0.016178784242616,0.0053929280808745,0.005392928080934,0.005392928080808,-0.0013557553099333,0.0013557553089591,6.390611124158e-12,-7.3696574502589e-12,1.7724340886494e-13,-1.1748423446669e-12,-0.0013778098381906,0.0013778098423173,-0.0013778098428837,0.0013778098376233,-0.0013778098392765,0.0013778098424048,-0.001377809843751,0.0013778098378777,-0.0013314319675895,0.0013314319803519,-0.0013314319816864,0.0013314319660252,-5.2049551098413e-13,8.8731036386569e-13,8.7082889677496e-13,5.6438796421746e-13,-0.0013557553091014,0.0013557553098214,-0.0013778098400631,0.0013778098409229,-0.0013778098401886,0.0013778098410807,-0.0013778098395373,0.0013778098416517,-0.0013778098396738,0.0013778098413852,-0.0013314319732501,0.0013314319741935,-0.0013314319720922,0.0013314319724654,-0.0013314319744717,0.0013314319715662,-0.0013314319730138,0.0013314319728026,-7.1372701377671e-12,7.135989088667e-12,-0.0013557553094469,0.001355755309419,-1.6843594263287e-13,1.6207660749442e-13,-0.0013778098431543,0.0013778098381877,-0.0013778098429946,0.0013778098378641,-0.0013778098383044,0.0013778098429767,-0.0013778098380607,0.0013778098430116,-0.0013314319648093,0.0013314319793396,-0.0013314319793203,0.001331431964845,0.71680617262717,0.27958262364292,1368840,32768,0.0056330477221784,0.0056330477222413,0.0056330477221236,41.925664786737,41.926091277618,0.00025060531829389,0.00025060531829389,0.00025060531829389,565498.61897502,0.017042893594179
8985600,0.95584995784703,0.016230676461138,0.0054102254870483,0.0054102254871078,0.0054102254869819,-0.0013595268465037,0.001359526845525,6.3952774521931e-12,-7.3808558140389e-12,1.7102665760595e-13,-1.1665580095124e-12,-0.001381865995237,0.0013818659993584,-0.0013818659999442,0.0013818659946729,-0.001381865996317,0.0013818659994609,-0.0013818660008191,0.0013818659949296,-0.001334914604719,0.0013349146174996,-0.0013349146188012,0.0013349146031112,-1.0494136176049e-12,3.3370092331291e-13,3.1529463267128e-13,2.8000115203936e-14,-0.0013595268462204,0.0013595268458388,-0.0013818659976752,0.0013818659974252,-0.0013818659977866,0.0013818659975685,-0.0013818659971417,0.0013818659981488,-0.0013818659972658,0.0013818659978688,-0.0013349146109565,0.0013349146107658,-0.001334914609789,0.0013349146090711,-0.0013349146120658,0.0013349146081949,-0.0013349146107348,0.0013349146093176,-7.1466727916989e-12,7.1385617453682e-12,-0.0013595268460147,0.0013595268459787,-1.6295325718397e-13,1.4783713073596e-13,-0.001381866000186,0.0013818659952253,-0.0013818660000483,0.0013818659949005,-0.0013818659953488,0.0013818660000123,-0.0013818659951082,0.0013818660000567,-0.0013349146019368,0.0013349146164992,-0.0013349146164681,0.00133491460199,0.71784137716232,0.31372910299746,1368840,32768,0.0056486732770582,0.0056486732771213,0.0056486732769851,41.804214275957,41.796109644119,0.00024963371420765,0.00024963371420765,0.00024963371420765,565121.0102751,0.017090573612357
9072000,0.9589146228434,0.016278661941914,0.0054262206473071,0.0054262206473665,0.0054262206472406,-0.0013632732304172,0.0013632732294511,6.4177742943418e-12,-7.3887740427307e-12,1.6454203217739e-13,-1.1549137770004e-12,-0.0013857265181891,0.0013857265223249,-0.0013857265228976,0.0013857265176194,-0.0013857265192599,0.0013857265224237,-0.0013857265237454,0.0013857265178794,-0.0013385312342794,0.0013385312470954,-0.0013385312484256,0.0013385312327411,-8.6440382835051e-13,5.0562196536074e-13,5.1384721408503e-13,1.8427860570921e-13,-0.0013632732299562,0.0013632732299419,-0.0013857265204263,0.0013857265205658,-0.0013857265205529,0.0013857265207211,-0.0013857265199095,0.0013857265212811,-0.0013857265200487,0.0013857265210082,-0.0013385312403508,0.0013385312405578,-0.0013385312392294,0.0013385312388249,-0.0013385312415343,0.0013385312379443,-0.0013385312401551,0.0013385312391301,-7.1577491592059e-12,7.1597065405857e-12,-0.0013632732299311,0.0013632732299087,-1.7978489004796e-13,1.7365995951332e-13,-0.0013857265231589,0.0013857265181852,-0.0013857265229948,0.0013857265178666,-0.001385726518302,0.0013857265229849,-0.0013857265180484,0.0013857265230289,-0.0013385312315289,0.0013385312461002,-0.0013385312460716,0.0013385312315595,0.71683841251325,0.31420980998412,1368840,32768,0.0056641946068976,0.0056641946069593,0.0056641946068387,41.675045944747,41.66612801062,0.00024860036755797,0.00024860036755797,0.00024860036755797,552290.73280527,0.017137936997514
9158400,0.96175293018709,0.016323031153766,0.005441010384591,0.0054410103846505,0.0054410103845245,-0.0013665575093096,0.0013665575083453,6.407211911133e-12,-7.3718746766418e-12,1.6578328837551e-13,-1.1576536344761e-12,-0.0013891980534151,0.0013891980575454,-0.0013891980581154,0.001389198052845,-0.0013891980544862,0.0013891980576429,-0.0013891980589675,0.0013891980531081,-0.0013416201538038,0.0013416201666021,-0.0013416201679012,0.0013416201522577,-8.6539176875784e-13,5.0843435003255e-13,5.1196494805756e-13,1.87902906754e-13,-0.0013665575088486,0.001366557508836,-0.0013891980556439,0.0013891980557866,-0.001389198055774,0.0013891980559408,-0.0013891980551313,0.0013891980565043,-0.0013891980552709,0.0013891980562315,-0.0013416201598397,0.0013416201600623,-0.0013416201587157,0.0013416201583273,-0.0013416201610394,0.0013416201574522,-0.0013416201596498,0.0013416201586587,-7.1392900172376e-12,7.1507563434198e-12,-0.0013665575088227,0.0013665575088026,-1.7574392526137e-13,1.7234914661658e-13,-0.0013891980583757,0.0013891980534075,-0.00138919805821,0.001389198053088,-0.0013891980535229,0.0013891980582022,-0.0013891980532713,0.0013891980582415,-0.0013416201510394,0.0013416201656005,-0.001341620165566,0.0013416201511033,0.71554035856116,0.30977246867508,1368840,32768,0.0056778010951016,0.0056778010951632,0.0056778010950405,41.545144021732,41.536146377121,0.00024756115217386,0.00024756115217386,0.00024756115217386,546754.77955213,0.017179459558888
9244800,0.96438215255836,0.016364061156121,0.0054546870520427,0.0054546870521021,0.0054546870519762,-0.00136954889548,0.0013695488945099,6.4041038884339e-12,-7.3819757798247e-12,1.6931147470949e-13,-1.1602710251049e-12,-0.001392377842531,0.0013923778466608,-0.0013923778472334,0.0013923778419574,-0.0013923778436033,0.0013923778467572,-0.0013923778480866,0.0013923778422178,-0.0013444170726119,0.0013444170854021,-0.0013444170867266,0.0013444170710345,-8.6590490014086e-13,5.1411376476562e-13,5.436769498659e-13,1.5855136224707e-13,-0.0013695488950144,0.0013695488950048,-0.0013923778447489,0.0013923778449124,-0.0013923778449,0.001392377845044,-0.0013923778442346,0.0013923778456307,-0.0013923778443945,0.0013923778453384,-0.0013444170786149,0.001344417078876,-0.0013444170775628,0.0013444170771027,-0.001344417079871,0.0013444170762346,-0.0013444170784465,0.0013444170774199,-7.1319333008038e-12,7.1650215252754e-12,-0.0013695488949787,0.0013695488949819,-1.9560067159257e-13,2.1321454526553e-13,-0.0013923778474917,0.0013923778425242,-0.0013923778473048,0.0013923778422287,-0.0013923778426338,0.001392377847321,-0.0013923778423637,0.0013923778473808,-0.0013444170698106,0.001344417084439,-0.0013444170843357,0.0013444170699027,0.71424965927289,0.30533512736603,1368840,32768,0.005690193958416,0.0056901939584768,0.0056901939583556,41.41516741729,41.406164743622,0.00024652133933831,0.00024652133933831,0.00024652133933831,542441.00590224,0.017217280147411
9331200,0.966818262157,0.016402011694838,0.005467337231615,0.0054673372316743,0.0054673372315484,-0.0013722932226876,0.0013722932217221,6.4033899690672e-12,-7.3764866533961e-12,1.6131760126978e-13,-1.1519452206289e-12,-0.0013952999795994,0.0013952999837291,-0.0013952999843002,0.001395299979026,-0.0013952999806661,0.0013952999838331,-0.0013952999851499,0.0013952999792958,-0.0013469785245941,0.0013469785373684,-0.0013469785387075,0.0013469785230276,-8.600093449519e-13,5.0375737526386e-13,5.2372894161681e-13,1.7926261188555e-13,-0.0013722932222264,0.0013722932222117,-0.0013952999818232,0.0013952999819697,-0.0013952999819594,0.0013952999821158,-0.0013952999813136,0.0013952999826809,-0.0013952999814582,0.0013952999824025,-0.001346978530636,0.0013469785308716,-0.0013469785295072,0.0013469785291101,-0.0013469785318364,0.0013469785282519,-0.0013469785304364,0.0013469785294453,-7.139670064451e-12,7.1509280440568e-12,-0.0013722932221976,0.0013722932221828,-1.8159912874186e-13,1.866871497769e-13,-0.0013952999845592,0.0013952999795924,-0.0013952999843907,0.0013952999792829,-0.0013952999797056,0.0013952999843864,-0.0013952999794505,0.0013952999844319,-0.0013469785218438,0.0013469785364117,-0.0013469785363411,0.0013469785218772,0.71296597546174,0.30089778605699,1368840,32768,0.0057015631437841,0.0057015631438431,0.0057015631437236,41.285183087291,41.276183110123,0.00024548146469832,0.00024548146469832,0.00024548146469832,538346.41256158,0.01725197797567
9417600,0.96907601095112,0.016437122821695,0.0054790409405675,0.0054790409406267,0.0054790409405009,-0.0013748097780394,0.0013748097770779,6.4108060366291e-12,-7.3797111431255e-12,1.59069787586e-13,-1.1417591200426e-12,-0.0013979844579201,0.0013979844620507,-0.0013979844626232,0.0013979844573463,-0.0013979844589862,0.0013979844621576,-0.0013979844634696,0.0013979844576183,-0.0013493230113614,0.001349323024173,-0.0013493230254994,0.0013493230098135,-8.5681888359478e-13,4.9442983668435e-13,5.1145602242841e-13,1.9020924806157e-13,-0.0013748097775828,0.0013748097775639,-0.0013979844601522,0.0013979844602902,-0.0013979844602822,0.001397984460445,-0.0013979844596489,0.0013979844610014,-0.0013979844597856,0.001397984460729,-0.0013493230174217,0.0013493230176359,-0.0013493230162931,0.0013493230159184,-0.0013493230186114,0.0013493230150396,-0.0013493230172278,0.0013493230162059,-7.1492764180423e-12,7.1520280692753e-12,-0.0013748097775558,0.0013748097775327,-1.7603762217148e-13,1.6921109542307e-13,-0.0013979844628858,0.0013979844579141,-0.0013979844627201,0.0013979844575974,-0.0013979844580266,0.0013979844627103,-0.0013979844577782,0.0013979844627494,-0.0013493230086307,0.0013493230232039,-0.0013493230231608,0.0013493230086556,0.71168888948063,0.29646044474795,1368840,32768,0.0057119885894539,0.0057119885895149,0.0057119885893943,41.155197958533,41.146201476624,0.00024444158366826,0.00024444158366826,0.00024444158366826,534470.26437927,0.017283796691125
9504000,0.97116901708392,0.016469615728698,0.0054898719095684,0.0054898719096276,0.0054898719095018,-0.0013771163182195,0.0013771163172473,6.4183991576056e-12,-7.3947920941775e-12,1.6075050094725e-13,-1.1646797727736e-12,-0.0014004496945704,0.0014004496987107,-0.0014004496992808,0.0014004496939954,-0.0014004496956433,0.0014004496988097,-0.0014004497001372,0.0014004496942609,-0.0013514675544737,0.0013514675672785,-0.0013514675686121,0.0013514675529196,-8.616862643114e-13,5.141287643074e-13,5.0179352349348e-13,2.0696808903165e-13,-0.0013771163177528,0.0013771163177434,-0.0014004496968093,0.0014004496969412,-0.0014004496969325,0.0014004496971025,-0.0014004496962987,0.0014004496976598,-0.0014004496964274,0.0014004496973934,-0.0013514675605384,0.0013514675607381,-0.0013514675593874,0.0013514675590336,-0.0013514675617168,0.0013514675581421,-0.0013514675603278,0.001351467559363,-7.1679418478262e-12,7.1559694782798e-12,-0.0013771163177358,0.0013771163177018,-1.6635641792562e-13,1.5243943131531e-13,-0.001400449699544,0.0014004496945609,-0.0014004496993885,0.0014004496942357,-0.0014004496946744,0.0014004496993651,-0.0014004496944341,0.0014004496993962,-0.0013514675517356,0.0013514675662906,-0.001351467566278,0.0013514675517533,0.71041796169041,0.29202310343891,1368840,32768,0.0057215438871884,0.0057215438872492,0.0057215438871281,41.025212750714,41.016219843125,0.00024340170200571,0.00024340170200571,0.00024340170200571,530809.83518747,0.017312960628323
9590400,0.97310984755345,0.016499694164859,0.0054998980549555,0.0054998980550147,0.0054998980548889,-0.0013792291957016,0.0013792291947204,6.4216200003875e-12,-7.4007916756003e-12,1.7407462331622e-13,-1.183636840707e-12,-0.0014027126602939,0.001402712664434,-0.0014027126650123,0.0014027126597162,-0.001402712661373,0.0014027126645232,-0.0014027126658719,0.0014027126599701,-0.0013534278190928,0.0013534278319057,-0.0013534278332405,0.0013534278175342,-8.7786515241042e-13,5.3025633044485e-13,5.0622721157676e-13,2.1255930057692e-13,-0.0013792291952264,0.0013792291952264,-0.0014027126625378,0.0014027126626706,-0.0014027126626542,0.0014027126628336,-0.0014027126620172,0.0014027126633971,-0.0014027126621428,0.001402712663135,-0.0013534278251412,0.0013534278253636,-0.001353427823963,0.001353427823637,-0.00135342782635,0.0013534278227272,-0.0013534278249104,0.0013534278239747,-7.1759180159245e-12,7.156967771312e-12,-0.0013792291952162,0.0013792291951782,-1.6706213166067e-13,1.5068363201259e-13,-0.0014027126652723,0.0014027126602876,-0.0014027126651206,0.0014027126599594,-0.0014027126604027,0.0014027126650955,-0.0014027126601648,0.0014027126651227,-0.0013534278163172,0.0013534278308789,-0.0013534278308858,0.0013534278163504,0.70915275894732,0.28758576212987,1368840,32768,0.0057302968062164,0.00573029680628,0.0057302968061594,40.89522753849,40.886238209627,0.00024236182030792,0.00024236182030792,0.00024236182030792,527360.84959893,0.017339676398881
9676800,0.97490260240699,0.016527430711586,0.0055091435705313,0.0055091435705905,0.0055091435704647,-0.0013809967705355,0.0013809967697139,6.5115259597046e-12,-7.3685687776348e-12,2.0305414977628e-13,-1.104578373536e-12,-0.0014046169125129,0.0014046169169949,-0.001404616917633,0.0014046169124977,-0.0014046169142123,0.0014046169169761,-0.0014046169183993,0.001404616912772,-0.0013550550915088,0.0013550551047116,-0.0013550551067134,0.0013550550906318,-1.0652970441418e-12,2.930241071382e-13,3.8966362545548e-13,7.3869743330047e-14,-0.0013809967703014,0.0013809967699235,-0.0014046169150006,0.0014046169151043,-0.0014046169150349,0.0014046169151457,-0.001404616914658,0.0014046169157877,-0.0014046169144115,0.001404616915467,-0.0013550550980312,0.0013550550985821,-0.0013550550975216,0.0013550550966872,-0.0013550551002291,0.0013550550959343,-0.0013550550982215,0.0013550550970171,-7.1141870194111e-12,7.2714524209434e-12,-0.0013809967700244,0.0013809967701593,-1.382780992284e-13,2.0367880716402e-13,-0.0014046169178077,0.0014046169129733,-0.0014046169177235,0.0014046169122637,-0.0014046169131429,0.0014046169178636,-0.0014046169125235,0.0014046169174696,-0.0013550550895194,0.0013550551035656,-0.0013550551039329,0.0013550550889174,0.70789657835862,0.28314842082078,1368840,32768,0.005737619143568,0.0057376191435172,0.005737619143432,40.684023842632,40.669624736124,0.00024067219074106,0.00024067219074106,0.00024067219074106,524060.32006449,0.017362026484435
9763200,0.97655210759154,0.016552970910624,0.0055176569702107,0.0055176569702693,0.0055176569701438,-0.0013824209649224,0.00138242096398,6.4928568241515e-12,-7.4378366027267e-12,1.3168909463561e-13,-1.1075284010617e-12,-0.0014061821901716,0.0014061821943602,-0.0014061821949236,0.001406182189619,-0.0014061821912149,0.0014061821944718,-0.0014061821957297,0.0014061821898871,-0.0013563419382225,0.0013563419512321,-0.0013563419526024,0.0013563419367691,-8.5100367889235e-13,4.3920752368811e-13,4.5939640693158e-13,2.2334997092935e-13,-0.0013824209644883,0.0013824209644403,-0.0014061821924423,0.0014061821925484,-0.0014061821925473,0.0014061821927277,-0.0014061821919533,0.0014061821932378,-0.0014061821920567,0.0014061821929778,-0.0013563419444158,0.0013563419445715,-0.0013563419432267,0.0013563419428863,-0.0013563419455771,0.0013563419420097,-0.0013563419442116,0.0013563419431321,-7.2421689920026e-12,7.1981738654353e-12,-0.0013824209644669,0.0013824209644124,-1.5700690942904e-13,1.0351089663669e-13,-0.0014061821951905,0.0014061821901729,-0.0014061821950593,0.0014061821898514,-0.0014061821902962,0.0014061821950063,-0.0014061821900791,0.0014061821950397,-0.0013563419355207,0.0013563419501417,-0.0013563419501964,0.001356341935403,0.70839618389818,0.30515093879817,1368840,32768,0.0057435189149136,0.0057435189149678,0.0057435189148659,40.385366653879,40.364967053532,0.00023828293323103,0.00023828293323103,0.00023828293323103,521142.22925503,0.017380035044157
9849600,0.97807073010269,0.016576501966094,0.0055255006553674,0.005525500655426,0.0055255006553006,-0.0013838201257526,0.0013838201247928,6.4479447844188e-12,-7.4358369579321e-12,1.4600271618783e-13,-1.1355630740335e-12,-0.0014076291361395,0.0014076291402963,-0.0014076291408759,0.0014076291355619,-0.0014076291371778,0.0014076291404359,-0.0014076291417042,0.0014076291358432,-0.0013576890118523,0.001357689024769,-0.0013576890261288,0.0013576890102827,-8.6782110630796e-13,4.6444928198148e-13,5.0457893840096e-13,1.9726976766166e-13,-0.001383820125304,0.0013838201252712,-0.0014076291383881,0.0014076291385318,-0.0014076291384951,0.0014076291386734,-0.0014076291378796,0.0014076291392376,-0.0014076291380273,0.0014076291389336,-0.0013576890179965,0.0013576890182011,-0.0013576890168929,0.0013576890165347,-0.0013576890192444,0.0013576890156307,-0.0013576890178473,0.0013576890167872,-7.2097285712705e-12,7.1847545400924e-12,-0.0013838201252765,0.0013838201252432,-1.7351066995637e-13,1.5747501277587e-13,-0.0014076291411433,0.0014076291361254,-0.0014076291409757,0.0014076291358155,-0.001407629136245,0.0014076291409545,-0.0014076291359755,0.0014076291410003,-0.0013576890092169,0.0013576890239101,-0.0013576890238273,0.0013576890091953,0.70888742309619,0.325147770926,1368840,32768,0.0057493150766262,0.005749315076688,0.0057493150765732,40.081264084873,40.060309370944,0.00023585011267898,0.00023585011267898,0.00023585011267898,512921.02740302,0.017397727162077
9936000,0.97947008591735,0.016598195363367,0.0055327317877917,0.0055327317878503,0.0055327317877249,-0.0013850615734835,0.0013850615725247,6.4579413613831e-12,-7.4272242210453e-12,1.6321501389336e-13,-1.1328555096889e-12,-0.0014089143795946,0.0014089143837556,-0.0014089143843433,0.0014089143790319,-0.0014089143806722,0.0014089143838717,-0.0014089143851916,0.0014089143793123,-0.0013588833378484,0.0013588833506642,-0.001358883352092,0.0013588833363026,-8.497398057381e-13,4.9724528008625e-13,4.929332941674e-13,2.0271630715597e-13,-0.0013850615730276,0.001385061573008,-0.0014089143818539,0.0014089143819812,-0.0014089143819851,0.0014089143821284,-0.0014089143813527,0.0014089143826929,-0.0014089143814822,0.0014089143824177,-0.001358883343986,0.0013588833441307,-0.0013588833427685,0.0013588833424021,-0.0013588833451564,0.0013588833416024,-0.0013588833437197,0.0013588833427229,-7.1960222252841e-12,7.1995271476229e-12,-0.0013850615730032,0.0013850615729754,-1.5698488069024e-13,1.5736604551651e-13,-0.0014089143845991,0.0014089143795819,-0.0014089143844442,0.0014089143792724,-0.0014089143797169,0.0014089143844185,-0.0014089143794683,0.0014089143844521,-0.0013588833351474,0.0013588833497111,-0.0013588833496683,0.0013588833350599,0.7091438544327,0.33996392803986,1368840,32768,0.0057544578619328,0.0057544578619895,0.0057544578618714,39.776645596588,39.755651688356,0.0002334131647727,0.0002334131647727,0.0002334131647727,505274.26004379,0.017413425213507
10022400,0.98076070776979,0.016618214525954,0.0055394048419874,0.005539404842046,0.0055394048419206,-0.001386142185097,0.0013861421846122,6.719055149242e-12,-7.1652598709352e-12,3.1577135340191e-13,-9.580613201196e-13,-0.0014100426149168,0.0014100426199103,-0.0014100426199979,0.0014100426150704,-0.0014100426162268,0.0014100426201092,-0.0014100426209044,0.0014100426157444,-0.00135991370071,0.0013599137152996,-0.0013599137160141,0.0013599137002959,-1.061085319866e-12,2.6490837781913e-13,3.3082639348077e-13,-6.5714698343427e-14,-0.0013861421851588,0.0013861421847555,-0.0014100426182864,0.0014100426177623,-0.0014100426185199,0.0014100426177644,-0.0014100426172534,0.0014100426182991,-0.0014100426180524,0.0014100426187921,-0.0013599137066828,0.0013599137076572,-0.0013599137069377,0.0013599137048598,-0.0013599137088635,0.0013599137041738,-0.0013599137084016,0.001359913706007,-7.2326896933534e-12,7.1661305796298e-12,-0.0013861421850232,0.0013861421848358,-2.7664628394004e-13,1.3727924738969e-13,-0.001410042620499,0.0014100426150927,-0.0014100426204198,0.0014100426149051,-0.0014100426153212,0.0014100426201439,-0.0014100426151641,0.001410042620156,-0.001359913698554,0.0013599137133907,-0.0013599137139256,0.0013599136982973,0.70947160339411,0.35478008515363,1368840,32768,0.0057589343304522,0.005758934330877,0.0057589343307625,39.471974825033,39.450994005777,0.00023097579860026,0.00023097579860026,0.00023097579860026,498735.37873084,0.01742708965244
10108800,0.98195212073291,0.016636706760818,0.0055455689202749,0.0055455689203343,0.0055455689202085,-0.0013871014818565,0.0013871014807679,6.3770705378136e-12,-7.4459040621537e-12,5.8905318130024e-14,-1.195587769732e-12,-0.0014110438176279,0.0014110438223068,-0.0014110438232008,0.001411043817343,-0.0014110438188164,0.0014110438224198,-0.0014110438236959,0.0014110438179872,-0.0013608298615727,0.0013608298746208,-0.0013608298751424,0.0013608298597453,-9.9405098536591e-13,3.0058758196158e-13,3.7290804909154e-13,6.1723702618548e-15,-0.0013871014814942,0.0013871014812018,-0.0014110438204,0.0014110438203229,-0.0014110438209555,0.0014110438203561,-0.0014110438200461,0.0014110438217212,-0.0014110438206723,0.0014110438208847,-0.0013608298673298,0.0013608298673539,-0.0013608298667003,0.001360829865241,-0.0013608298679973,0.0013608298644024,-0.0013608298673799,0.0013608298655594,-7.1884522800701e-12,7.1433338348782e-12,-0.0013871014813752,0.0013871014812779,-2.0909102417744e-13,1.8071262641213e-13,-0.0014110438230921,0.001411043817673,-0.0014110438228465,0.0014110438174235,-0.0014110438182706,0.0014110438230884,-0.0014110438183234,0.0014110438229497,-0.0013608298576083,0.0013608298723742,-0.0013608298727502,0.0013608298584992,0.70986525611801,0.36959624226752,1368840,32768,0.0057629082286547,0.0057629082288029,0.0057629082287144,39.167298691017,39.146336323191,0.00022853838952813,0.00022853838952813,0.00022853838952813,492405.31179075,0.017439220163807
10195200,0.98305294137964,0.01665380534138,0.0055512684471285,0.0055512684471885,0.0055512684470626,-0.0013879497557429,0.0013879497550425,6.5849732453522e-12,-7.27213272369e-12,2.425432375294e-13,-1.0344353987086e-12,-0.001411927529975,0.0014119275348359,-0.0014119275352502,0.0014119275302801,-0.001411927530833,0.0014119275347925,-0.0014119275360687,0.0014119275302414,-0.001361641940045,0.0013616419534325,-0.0013616419546025,0.0013616419389551,-5.7916639509948e-13,7.4925599309666e-13,7.6575801838288e-13,3.9719233663499e-13,-0.0013879497551692,0.0013879497555672,-0.0014119275317311,0.0014119275325755,-0.0014119275329449,0.0014119275327952,-0.0014119275313048,0.0014119275341159,-0.0014119275319183,0.0014119275338802,-0.0013616419463593,0.0013616419461172,-0.0013616419441368,0.0013616419447473,-0.0013616419462572,0.0013616419427849,-0.0013616419456221,0.0013616419448242,-7.3387286304072e-12,7.0294975183819e-12,-0.0013879497555097,0.0013879497552541,-2.7594051138326e-13,1.1135953921899e-13,-0.0014119275353987,0.0014119275307124,-0.0014119275353228,0.0014119275294722,-0.0014119275305483,0.0014119275356505,-0.001411927529945,0.0014119275350498,-0.001361641936662,0.0013616419512928,-0.0013616419514913,0.0013616419367842,0.71032017760011,0.3844123993815,1368840,32768,0.005766422201478,0.0057664222013766,0.0057664222014333,38.862622023665,38.841678640597,0.00022610097618932,0.00022610097618932,0.00022610097618932,486248.70645877,0.017449946863824
10281600,0.98407096938996,0.016669630687596,0.0055565435625341,0.0055565435625939,0.0055565435624682,-0.0013886964529055,0.0013886964521459,6.5365332545724e-12,-7.2677369168024e-12,2.2401439180822e-13,-9.3602052286259e-13,-0.0014127035935416,0.0014127035976232,-0.0014127035980447,0.001412703593233,-0.0014127035945609,0.0014127035968742,-0.0014127035985802,0.0014127035927102,-0.0013623587911487,0.0013623588035326,-0.0013623588053789,0.0013623587900894,-6.4057643082975e-13,5.6455757668297e-13,7.5161112703129e-13,3.6055566174262e-13,-0.0013886964523271,0.0013886964527053,-0.0014127035954434,0.0014127035960995,-0.0014127035951037,0.0014127035965258,-0.0014127035952159,0.0014127035967795,-0.0014127035946264,0.0014127035969278,-0.0013623587974472,0.0013623587973825,-0.0013623587955756,0.001362358795402,-0.001362358797271,0.001362358793976,-0.0013623587963881,0.0013623587952801,-7.4327451700312e-12,6.8922026538223e-12,-0.0013886964527737,0.0013886964524085,-3.2725632607329e-13,8.5011108851331e-14,-0.0014127035983979,0.0014127035931973,-0.0014127035984949,0.0014127035928862,-0.001412703593675,0.0014127035980744,-0.0014127035935044,0.0014127035981441,-0.0013623587879633,0.0013623588020857,-0.001362358802287,0.0013623587871597,0.71083234662493,0.3992285564952,1368840,32768,0.0057695153809472,0.0057695153809078,0.0057695153812184,38.557945320013,38.537020958012,0.0002236635625601,0.0002236635625601,0.0002236635625601,480258.20002532,0.017459389163348
10368000,0.98501326991257,0.016684291712229,0.0055614305707448,0.0055614305708044,0.0055614305706796,-0.0013893501323455,0.0013893501313775,6.4317436911157e-12,-7.3529518429567e-12,1.6914153872445e-13,-9.489923030542e-13,-0.0014133811124921,0.0014133811165027,-0.0014133811173256,0.0014133811120601,-0.0014133811140737,0.0014133811169227,-0.0014133811186058,0.0014133811133531,-0.0013629883443523,0.0013629883577124,-0.0013629883592537,0.0013629883430154,-8.2711579100387e-13,3.3366639495597e-13,3.8588141746993e-13,5.8301865976838e-14,-0.001389350132003,0.0013893501317687,-0.0014133811157529,0.001413381114655,-0.0014133811149447,0.0014133811146506,-0.0014133811153652,0.0014133811153,-0.0014133811146267,0.0014133811153248,-0.001362988351186,0.0013629883517721,-0.0013629883499053,0.0013629883498112,-0.0013629883523405,0.0013629883486439,-0.0013629883511479,0.0013629883494238,-7.3260631349765e-12,6.9766220748669e-12,-0.0013893501319851,0.0013893501316889,-1.5310738149812e-13,2.0539101956299e-13,-0.001413381117264,0.0014133811123101,-0.0014133811178203,0.0014133811121577,-0.0014133811135231,0.0014133811180178,-0.0014133811129592,0.0014133811173905,-0.0013629883422539,0.0013629883565874,-0.0013629883565302,0.0013629883416833,0.7113982426085,0.41404471360907,1368840,32768,0.0057722232267477,0.0057722232268484,0.0057722232266464,38.253268629626,38.232363275422,0.00022122614903701,0.00022122614903701,0.00022122614903701,474429.3169135,0.017467655271027
10454400,0.98589253291934,0.016697984311486,0.0055659947704973,0.0055659947705567,0.005565994770432,-0.0013901899237902,0.001390189922909,6.4445745344364e-12,-7.3279180194875e-12,1.1209010513599e-13,-9.9719083062227e-13,-0.0014142365796757,0.0014142365838105,-0.0014142365843903,0.0014142365791113,-0.0014142365806743,0.0014142365839875,-0.0014142365851721,0.0014142365794565,-0.0013638115553526,0.0013638115682352,-0.0013638115694901,0.0013638115539814,-7.9745669706883e-13,3.6218258262954e-13,5.0795062951576e-13,1.2252302171167e-13,-0.001390189923412,0.0013901899233181,-0.0014142365819035,0.0014142365820701,-0.0014142365820545,0.0014142365821921,-0.001414236581469,0.0014142365827075,-0.0014142365816266,0.0014142365824111,-0.0013638115614808,0.001363811561738,-0.0013638115604289,0.0013638115597849,-0.0013638115626448,0.0013638115590788,-0.0013638115613489,0.0013638115601183,-7.1459884008419e-12,7.1376855956634e-12,-0.001390189923343,0.001390189923332,-1.8363136077621e-13,2.2579619031667e-13,-0.0014142365846554,0.0014142365796727,-0.0014142365844728,0.0014142365793646,-0.0014142365798137,0.0014142365844925,-0.001414236579535,0.0014142365845344,-0.0013638115526662,0.0013638115671627,-0.0013638115671093,0.0013638115526455,0.71201274229147,0.42886087072296,1368840,32768,0.0057757020912174,0.0057757020912813,0.0057757020911675,38.084911655372,38.073038884521,0.00021987929324298,0.00021987929324298,0.00021987929324298,468648.81392756,0.017478274814952
10540800,0.98671922256713,0.016710806553459,0.0055702688511549,0.0055702688512143,0.0055702688510897,-0.0013912206587471,0.0013912206578576,6.4378076235138e-12,-7.3304062375918e-12,1.0197935518894e-13,-1.0085807767849e-12,-0.0014152801301487,0.0014152801343033,-0.0014152801348786,0.001415280129591,-0.0014152801311796,0.0014152801344505,-0.0014152801356383,0.0014152801299235,-0.0013648265114039,0.0013648265242865,-0.0013648265255054,0.0013648265100029,-7.9576651340866e-13,3.6503996592667e-13,5.0287575513793e-13,1.1141683158639e-13,-0.001391220658365,0.0013912206582688,-0.001415280132406,0.0014152801325469,-0.001415280132549,0.0014152801326705,-0.0014152801319489,0.0014152801331825,-0.0014152801320829,0.0014152801329033,-0.0013648265175484,0.0013648265177485,-0.0013648265164905,0.0013648265158802,-0.0013648265185997,0.0013648265151932,-0.0013648265174212,0.0013648265161624,-7.1401163449351e-12,7.139279605791e-12,-0.0013912206582949,0.0013912206582803,-1.9847978951985e-13,2.1672055580637e-13,-0.0014152801351296,0.0014152801301338,-0.0014152801349303,0.0014152801298458,-0.0014152801302763,0.001415280134951,-0.0014152801299942,0.0014152801349908,-0.0013648265087274,0.0013648265232651,-0.0013648265231937,0.0013648265087535,0.70913079676333,0.38822628619046,1368840,32768,0.0057799719566868,0.0057799719567471,0.0057799719566256,38.051782348678,38.049168869218,0.00021961425878942,0.00021961425878942,0.00021961425878942,463086.90006,0.017491308965225
10627200,0.98749685814905,0.016722850567589,0.0055742835225314,0.0055742835225909,0.0055742835224663,-0.0013919322352258,0.0013919322343405,6.4384547802142e-12,-7.3282027166726e-12,9.8954271132589e-14,-1.0071964073117e-12,-0.0014161428825781,0.0014161428867233,-0.0014161428872878,0.0014161428820253,-0.0014161428835872,0.0014161428868927,-0.0014161428880701,0.0014161428823678,-0.0013653969228339,0.0013653969357636,-0.0013653969369393,0.001365396921439,-7.941114169119e-13,3.6242998683621e-13,5.0978836749178e-13,1.184937036281e-13,-0.0013919322348445,0.0013919322347519,-0.00141614288482,0.001416142884965,-0.0014161428849711,0.0014161428850958,-0.0014161428843788,0.0014161428856176,-0.0014161428845377,0.0014161428853234,-0.0013653969289887,0.0013653969291329,-0.0013653969279207,0.0013653969273227,-0.001365396930084,0.0013653969266082,-0.001365396928894,0.0013653969275984,-7.1286531068938e-12,7.1487538457712e-12,-0.0013919322347711,0.0013919322347681,-1.9720415201911e-13,2.17604881732e-13,-0.0014161428875509,0.0014161428825811,-0.0014161428873679,0.0014161428822834,-0.0014161428827026,0.0014161428873823,-0.001416142882428,0.0014161428874349,-0.0013653969201316,0.0013653969347148,-0.0013653969346365,0.0013653969202114,0.70805560719188,0.37898076647405,1368840,32768,0.0057829194616653,0.0057829194617277,0.0057829194616094,38.027034272183,38.025298853915,0.00021941627417746,0.00021941627417746,0.00021941627417746,466680.68556791,0.017500307422662
10713600,0.98822839383103,0.016734156313572,0.0055780521045259,0.0055780521045853,0.0055780521044607,-0.0013927366198487,0.0013927366189625,6.4414342774279e-12,-7.3315632022473e-12,9.9075796831827e-14,-1.0082048470928e-12,-0.0014170211773643,0.0014170211815108,-0.0014170211820765,0.0014170211768106,-0.0014170211783734,0.0014170211816803,-0.0014170211828589,0.0014170211771524,-0.0013661312903416,0.0013661313032739,-0.0013661313044471,0.001366131288944,-7.9457463805493e-13,3.6295308850287e-13,5.0821668021163e-13,1.2081345629066e-13,-0.001392736619467,0.0013927366193745,-0.001417021179608,0.0014170211797516,-0.0014170211797587,0.001417021179884,-0.0014170211791669,0.0014170211804043,-0.0014170211793246,0.0014170211801114,-0.0013661312964958,0.0013661312966371,-0.0013661312954288,0.0013661312948348,-0.0013661312975919,0.0013661312941133,-0.0013661312963967,0.0013661312951037,-7.1310652096763e-12,7.1527012545923e-12,-0.0013927366193937,0.0013927366193904,-1.9595945474964e-13,2.149754326481e-13,-0.0014170211823384,0.0014170211773668,-0.001417021182157,0.0014170211770683,-0.0014170211774882,0.001417021182171,-0.0014170211772146,0.0014170211822227,-0.0013661312876364,0.0013661313022236,-0.0013661313021454,0.0013661312877179,0.70657683246088,0.36416572583627,1368840,32768,0.0057862515419325,0.0057862515419953,0.0057862515418767,38.003075468729,38.001428838612,0.00021922460374983,0.00021922460374983,0.00021922460374983,465495.97163094,0.017510479477414
10800000,0.98891657865553,0.016744769007837,0.0055815896692809,0.0055815896693403,0.0055815896692157,-0.0013934557837622,0.0013934557828738,6.4373279322857e-12,-7.3295349700908e-12,9.9257379519894e-14,-1.0118436771055e-12,-0.0014178272476098,0.0014178272517546,-0.0014178272523204,0.0014178272470564,-0.0014178272486211,0.0014178272519232,-0.0014178272531052,0.0014178272473979,-0.0013667687606818,0.0013667687736092,-0.0013667687747825,0.0013667687592831,-7.9531226257983e-13,3.6610540396651e-13,5.0683345776224e-13,1.2404606341909e-13,-0.0013934557833785,0.0013934557832875,-0.0014178272498539,0.0014178272499953,-0.001417827250003,0.0014178272501291,-0.0014178272494115,0.0014178272506497,-0.0014178272495676,0.0014178272503579,-0.0013667687668363,0.0013667687669742,-0.0013667687657608,0.001366768765173,-0.0013667687679272,0.0013667687644495,-0.0013667687667338,0.0013667687654493,-7.1295374916412e-12,7.1480111919882e-12,-0.0013934557833072,0.0013934557833016,-1.9426806524396e-13,2.1203728711231e-13,-0.0014178272525831,0.0014178272476128,-0.0014178272524032,0.0014178272473125,-0.0014178272477343,0.0014178272524142,-0.0014178272474624,0.0014178272524642,-0.0013667687579777,0.0013667687725579,-0.0013667687724852,0.0013667687580595,0.7050324775319,0.34935068519849,1368840,32768,0.0057892305626909,0.0057892305627533,0.0057892305626349,37.979196233762,37.977558823309,0.00021903356987009,0.00021903356987009,0.00021903356987009,465400.9394799,0.017519573933576
10886400,0.98956399632036,0.016754730318151,0.0055849101060523,0.0055849101061117,0.0055849101059871,-0.0013941204591226,0.0013941204582337,6.4357443924265e-12,-7.3294314438417e-12,9.8112532141255e-14,-1.0096459207161e-12,-0.0014185781036555,0.0014185781077982,-0.0014185781083645,0.0014185781031007,-0.0014185781046669,0.0014185781079669,-0.0014185781091491,0.0014185781034422,-0.0013673526614949,0.0013673526744191,-0.0013673526755987,0.0013673526600961,-7.9457113816185e-13,3.6364136159425e-13,5.0451623443417e-13,1.2594191726676e-13,-0.0013941204587394,0.001394120458647,-0.0014185781058989,0.0014185781060382,-0.0014185781060471,0.0014185781061731,-0.0014185781054575,0.0014185781066922,-0.0014185781056116,0.0014185781064019,-0.0013673526676515,0.0013673526677893,-0.0013673526665723,0.0013673526659924,-0.0013673526687413,0.0013673526652659,-0.00136735266755,0.0013673526662558,-7.1300299471852e-12,7.1457882598972e-12,-0.0013941204586683,0.001394120458661,-1.9288834268765e-13,2.0921066758124e-13,-0.0014185781086271,0.0014185781036577,-0.0014185781084477,0.0014185781033564,-0.0014185781037792,0.0014185781084579,-0.0014185781035088,0.0014185781085063,-0.0013673526587981,0.0013673526733717,-0.0013673526733021,0.0013673526588705,0.70342889500371,0.3345356445607,1368840,32768,0.0057919838570846,0.0057919838571469,0.0057919838570289,37.95532515424,37.953688808006,0.00021884260123392,0.00021884260123392,0.00021884260123392,465490.94993448,0.017527979391246
10972800,0.99017307743086,0.016764079673042,0.0055880265576825,0.0055880265577419,0.0055880265576173,-0.0013947338529332,0.0013947338520458,6.4383091376047e-12,-7.3300754829903e-12,9.678880787424e-14,-1.0070969985839e-12,-0.001419277012555,0.0014192770166986,-0.001419277017265,0.0014192770119995,-0.0014192770135634,0.0014192770168695,-0.0014192770180477,0.0014192770123424,-0.0013678861478974,0.0013678861608283,-0.0013678861620034,0.0013678861464983,-7.9369642958948e-13,3.6048086990981e-13,5.0685328068607e-13,1.2074713478733e-13,-0.0013947338525521,0.001394733852457,-0.0014192770147977,0.001419277014938,-0.0014192770149478,0.0014192770150709,-0.0014192770143576,0.0014192770155899,-0.0014192770145141,0.0014192770152979,-0.0013678861540545,0.0013678861541922,-0.0013678861529832,0.0013678861523912,-0.0013678861551462,0.0013678861516754,-0.0013678861539544,0.00136788615266,-7.129764425885e-12,7.1492124494082e-12,-0.0013947338524783,0.0013947338524737,-1.9588113361288e-13,2.1374720546371e-13,-0.001419277017526,0.0014192770125561,-0.0014192770173454,0.0014192770122575,-0.0014192770126772,0.0014192770173577,-0.0014192770124044,0.0014192770174086,-0.001367886145198,0.0013678861597832,-0.0013678861597051,0.0013678861452763,0.70177134502696,0.31972060392292,1368840,32768,0.0057945247118381,0.0057945247119002,0.0057945247117821,37.931454913866,37.929818792703,0.00021865163931093,0.00021865163931093,0.00021865163931093,465756.85689867,0.017535736394447
11059200,0.99074610849515,0.016772854226652,0.0055909514088859,0.0055909514089453,0.0055909514088207,-0.0013952989856672,0.0013952989847792,6.4379202083097e-12,-7.330382003038e-12,9.6703163431796e-14,-1.0075262795873e-12,-0.0014199270622192,0.0014199270663622,-0.0014199270669304,0.0014199270616627,-0.0014199270632276,0.0014199270665332,-0.0014199270677124,0.0014199270620064,-0.0013683721823462,0.0013683721952739,-0.0013683721964491,0.0013683721809475,-7.9478230818134e-13,3.5989547602848e-13,5.0862157960693e-13,1.1753587994778e-13,-0.001395298985286,0.0013952989851902,-0.00141992706446,0.0014199270646025,-0.0014199270646123,0.0014199270647338,-0.0014199270640211,0.0014199270652549,-0.001419927064179,0.0014199270649602,-0.001368372188501,0.0013683721886412,-0.0013683721874354,0.0013683721868316,-0.0013683721895952,0.0013683721861199,-0.0013683721884061,0.0013683721871066,-7.1287877498394e-12,7.1500308949935e-12,-0.0013952989852108,0.0013952989852084,-1.9725359168523e-13,2.1733780165582e-13,-0.0014199270671897,0.0014199270622197,-0.0014199270670065,0.0014199270619223,-0.0014199270623406,0.0014199270670222,-0.001419927062066,0.0014199270670742,-0.0013683721796447,0.0013683721942313,-0.00136837219415,0.0013683721797277,0.70006422506557,0.30490556328514,1368840,32768,0.0057968656407328,0.0057968656407946,0.0057968656406766,37.907584759456,37.9059487774,0.00021846067807565,0.00021846067807565,0.00021846067807565,466190.77629661,0.017542883129984
11145600,0.99128524023442,0.016781091973995,0.005593697324667,0.0055936973247263,0.0055936973246018,-0.0013958189669312,0.0013958189660449,6.4378480928658e-12,-7.3274772094245e-12,9.4707930267152e-14,-1.0044161981275e-12,-0.001420531339759,0.0014205313439007,-0.0014205313444685,0.0014205313392024,-0.0014205313407656,0.0014205313440734,-0.0014205313452498,0.0014205313395476,-0.0013688139714559,0.0013688139843835,-0.001368813985552,0.00136881397006,-7.9334232276014e-13,3.5619500084017e-13,5.0570575691861e-13,1.1827332800749e-13,-0.0013958189665523,0.001395818966454,-0.0014205313420017,0.001420531342142,-0.0014205313421532,0.0014205313422743,-0.0014205313415644,0.0014205313427924,-0.0014205313417213,0.0014205313424988,-0.0013688139776128,0.0013688139777468,-0.0013688139765417,0.0013688139759445,-0.0013688139786977,0.0013688139752258,-0.0013688139775166,0.0013688139762102,-7.1277258999252e-12,7.148105542047e-12,-0.0013958189664764,0.0013958189664729,-1.9567766924035e-13,2.1525789460731e-13,-0.0014205313447298,0.0014205313397607,-0.0014205313445476,0.0014205313394628,-0.0014205313398818,0.0014205313445615,-0.0014205313396083,0.0014205313446131,-0.0013688139687527,0.0013688139833337,-0.0013688139832541,0.0013688139688371,0.69856588776036,0.29399228489918,1368840,32768,0.0057990195272926,0.0057990195273551,0.0057990195272372,37.883714614921,37.882078762097,0.00021826971691937,0.00021826971691937,0.00021826971691937,466780.51510632,0.017549458912717
11232000,0.99179159209167,0.016788846779112,0.005596282259706,0.0055962822597654,0.0055962822596408,-0.0013962545419636,0.0013962545410836,6.4411061698043e-12,-7.3240084330403e-12,8.6493357687294e-14,-9.918875808682e-13,-0.0014210395132484,0.0014210395173933,-0.0014210395179605,0.0014210395126873,-0.0014210395142487,0.0014210395175736,-0.0014210395187268,0.0014210395130427,-0.0013691833718212,0.0013691833847672,-0.0013691833859322,0.0013691833704659,-7.8747159034228e-13,3.413378076584e-13,4.9098232435643e-13,1.1931850196049e-13,-0.0013962545415934,0.001396254541483,-0.0014210395154894,0.0014210395156213,-0.0014210395156374,0.001421039515759,-0.0014210395150641,0.0014210395162668,-0.0014210395152085,0.001421039515976,-0.0013691833780117,0.0013691833780924,-0.0013691833769508,0.0013691833763196,-0.0013691833790738,0.0013691833756023,-0.0013691833779426,0.0013691833765883,-7.1302914686077e-12,7.1450981633322e-12,-0.0013962545415148,0.0013962545415055,-1.9118027722082e-13,2.0365645490569e-13,-0.00142103951822,0.001421039513249,-0.0014210395180444,0.0014210395129482,-0.0014210395133697,0.0014210395180468,-0.0014210395130993,0.0014210395180983,-0.0013691833691386,0.0013691833836846,-0.0013691833836376,0.0013691833692035,0.70017946942336,0.33161180199134,1368840,32768,0.0058008237766941,0.0058008237767544,0.0058008237766386,37.825991425246,37.822117251385,0.00021780793140196,0.00021780793140196,0.00021780793140196,466794.95790675,0.017554967316341
11318400,0.99226645084659,0.016796122474573,0.0055987074915262,0.0055987074915856,0.005598707491461,-0.0013968537301563,0.0013968537292832,6.4375799245875e-12,-7.3108671874376e-12,8.6475122950235e-14,-9.8236346005885e-13,-0.0014215769033105,0.0014215769074507,-0.0014215769080153,0.0014215769027575,-0.0014215769043118,0.0014215769076329,-0.0014215769087937,0.0014215769031108,-0.001369839584731,0.0013698395976721,-0.0013698395988179,0.0013698395833835,-7.8125269209006e-13,3.3797896909214e-13,4.9863773754763e-13,1.161567456088e-13,-0.0013968537297878,0.0013968537296811,-0.0014215769055561,0.0014215769056915,-0.0014215769057043,0.0014215769058241,-0.0014215769051248,0.0014215769063349,-0.0014215769052788,0.0014215769060412,-0.0013698395908982,0.0013698395910068,-0.0013698395898324,0.0013698395892043,-0.0013698395919804,0.0013698395885448,-0.0013698395908245,0.0013698395894847,-7.1209131668731e-12,7.1381118473475e-12,-0.0013968537297089,0.0013968537297033,-1.9478404948099e-13,2.111161093713e-13,-0.0014215769082764,0.001421576903314,-0.001421576908096,0.0014215769030125,-0.001421576903434,0.0014215769081117,-0.0014215769031619,0.0014215769081607,-0.0013698395820398,0.0013698395965844,-0.0013698395965346,0.001369839582125,0.7004802269676,0.34600422993901,1368840,32768,0.0058033059806791,0.00580330598074,0.0058033059806225,37.737311670161,37.731315303286,0.00021709849336129,0.00021709849336129,0.00021709849336129,458531.61692026,0.017562544692427
11404800,0.99271183918505,0.016802948373332,0.0056009827911127,0.0056009827911721,0.0056009827910475,-0.0013972901623572,0.0013972901614273,6.407512019612e-12,-7.336758161192e-12,5.8460390545786e-14,-1.0049023597462e-12,-0.0014220107719006,0.0014220107760146,-0.0014220107765255,0.0014220107713126,-0.0014220107728921,0.0014220107761532,-0.0014220107773689,0.0014220107716099,-0.001370278410299,0.001370278422986,-0.0013702784243433,0.0013702784089082,-6.7719422394601e-13,4.352070576643e-13,5.949085906568e-13,1.8108214453537e-13,-0.0013972901618322,0.0013972901618963,-0.0014220107739456,0.0014220107743373,-0.0014220107740901,0.0014220107744523,-0.0014220107734616,0.0014220107748787,-0.0014220107737163,0.0014220107745706,-0.0013702784163725,0.0013702784165796,-0.0013702784150561,0.0013702784148261,-0.001370278417093,0.0013702784140347,-0.0013702784161756,0.0013702784150564,-7.0693740942975e-12,7.1862044957972e-12,-0.0013972901617952,0.0013972901619163,-1.4396857244717e-13,2.9416107240469e-13,-0.0014220107767734,0.0014220107718491,-0.0014220107765626,0.0014220107715212,-0.0014220107719766,0.001422010776742,-0.0014220107715627,0.0014220107767792,-0.0013702784075206,0.0013702784220869,-0.0013702784218685,0.0013702784076904,0.70057436958958,0.35610410304844,1368840,32768,0.0058051138775869,0.005805113877471,0.0058051138774356,37.646709353573,37.640513355184,0.00021637367482858,0.00021637367482858,0.00021637367482858,454241.53680665,0.017568063919641
11491200,0.99312968755168,0.016809353869692,0.005603117956566,0.0056031179566252,0.0056031179565007,-0.0013976708568378,0.0013976708560172,6.4630003244823e-12,-7.2880085916343e-12,1.1563029110339e-13,-9.3681155752056e-13,-0.0014223966080992,0.0014223966122207,-0.0014223966126991,0.0014223966074085,-0.0014223966089598,0.0014223966122874,-0.0014223966134255,0.001422396607846,-0.0013706544649063,0.0013706544780106,-0.0013706544789624,0.0013706544636409,-7.4461775243879e-13,3.5544302381255e-13,5.3464663750045e-13,1.3704898971803e-13,-0.0013976708564734,0.0013976708564269,-0.0014223966102816,0.0014223966105476,-0.0014223966101782,0.0014223966106593,-0.0014223966097908,0.0014223966110132,-0.001422396610027,0.0014223966107629,-0.0013706544712585,0.0013706544714449,-0.0013706544702611,0.0013706544697708,-0.0013706544721748,0.0013706544689518,-0.0013706544709124,0.0013706544696777,-7.1647347693297e-12,7.0980026903018e-12,-0.0013976708564735,0.0013976708564055,-2.3756291908648e-13,1.8282276783111e-13,-0.0014223966130899,0.0014223966079034,-0.0014223966129053,0.0014223966077677,-0.0014223966082507,0.0014223966128691,-0.0014223966078978,0.0014223966128371,-0.0013706544623601,0.0013706544767483,-0.0013706544768915,0.001370654462516,0.70071349747264,0.36620397615782,1368840,32768,0.005806690865722,0.0058066908658159,0.0058066908657718,37.555926039649,37.549711407092,0.00021564740831719,0.00021564740831719,0.00021564740831719,450695.16400421,0.017572878303219
11577600,0.9935217981518,0.016815366672962,0.0056051222243228,0.0056051222243821,0.0056051222242576,-0.0013980204377121,0.0013980204367024,6.398307477275e-12,-7.3684826037967e-12,3.1695737599326e-14,-1.0320358249551e-12,-0.0014227498010014,0.0014227498047638,-0.001422749805582,0.0014227498003035,-0.0014227498015646,0.0014227498049139,-0.0014227498060097,0.0014227498002843,-0.0013710009867089,0.0013710009997767,-0.0013710010007163,0.0013710009852426,-7.7573568416027e-13,3.3772815322498e-13,5.0354920515273e-13,1.1491028368736e-13,-0.0013980204373003,0.001398020437179,-0.001422749802724,0.0014227498032821,-0.0014227498029909,0.0014227498033161,-0.0014227498023169,0.0014227498036885,-0.0014227498026175,0.0014227498036321,-0.0013710009928217,0.0013710009935512,-0.0013710009917335,0.0013710009913651,-0.0013710009939326,0.0013710009908178,-0.0013710009927831,0.0013710009915951,-7.1572645269522e-12,7.12045062218e-12,-0.0013980204372266,0.0013980204371882,-1.9943337803543e-13,2.0848186631621e-13,-0.001422749805652,0.0014227498008427,-0.001422749805446,0.001422749800464,-0.0014227498010333,0.0014227498055329,-0.0014227498005658,0.0014227498055399,-0.0013710009839503,0.0013710009984597,-0.0013710009986291,0.0013710009842121,0.70089482249058,0.37630384926718,1368840,32768,0.0058081389676829,0.0058081389678171,0.0058081389676836,37.465124498045,37.45890945899,0.00021492099598436,0.00021492099598436,0.00021492099598436,447212.06036106,0.017577299227664
11664000,0.99388985026266,0.016821012612711,0.005607004204239,0.0056070042042983,0.0056070042041739,-0.0013983409194335,0.0013983409185475,6.4460857235647e-12,-7.3261027808242e-12,8.4713588528608e-14,-9.7666310478903e-13,-0.0014230720375233,0.0014230720416597,-0.0014230720422442,0.0014230720369189,-0.0014230720386508,0.0014230720416954,-0.0014230720429239,0.0014230720374189,-0.0013713201702424,0.0013713201835986,-0.0013713201850645,0.0013713201689474,-7.4925072855161e-13,3.6146666332391e-13,5.2909360125955e-13,1.1212960392933e-13,-0.001398340919106,0.0013983409190297,-0.0014230720396316,0.0014230720399787,-0.0014230720399054,0.0014230720400052,-0.0014230720392643,0.0014230720407037,-0.0014230720394927,0.0014230720403875,-0.0013713201767339,0.0013713201767906,-0.0013713201757649,0.0013713201747527,-0.0013713201775399,0.0013713201742668,-0.0013713201767446,0.0013713201749358,-7.0899848175953e-12,7.1902392843019e-12,-0.0013983409189545,0.0013983409190536,-1.4765793032806e-13,2.9276605619795e-13,-0.0014230720425456,0.0014230720375746,-0.0014230720422331,0.0014230720372147,-0.0014230720376062,0.0014230720423544,-0.0014230720373951,0.0014230720426554,-0.0013713201672368,0.0013713201823971,-0.0013713201821567,0.0013713201673188,0.70111592726107,0.38640372237658,1368840,32768,0.0058094665295419,0.0058094665298624,0.0058094665295983,37.374321093205,37.368107510895,0.00021419456874564,0.00021419456874564,0.00021419456874564,443784.87263874,0.017581352168332
11750400,0.99423540855269,0.016826315710262,0.0056087719034226,0.005608771903482,0.0056087719033575,-0.0013986341607487,0.001398634160096,6.5713784253705e-12,-7.2039257485428e-12,1.8343892547851e-13,-8.739165965655e-13,-0.0014233652667344,0.0014233652713136,-0.0014233652715248,0.0014233652664801,-0.0014233652677169,0.0014233652713113,-0.0014233652721874,0.0014233652669201,-0.0013716137617307,0.001371613774692,-0.0013716137759952,0.0013716137608986,-7.3548523731321e-13,3.6879532179136e-13,5.5492257690795e-13,1.413417115195e-13,-0.0013986341604646,0.0013986341604123,-0.0014233652688998,0.0014233652693183,-0.0014233652691938,0.0014233652693882,-0.0014233652687689,0.001423365269891,-0.001423365268748,0.0014233652697517,-0.0013716137679838,0.0013716137685218,-0.0013716137667987,0.0013716137663104,-0.0013716137689579,0.001371613765746,-0.0013716137682012,0.0013716137666719,-7.1466154405098e-12,7.1389457924593e-12,-0.0013986341604352,0.0013986341603936,-2.093044882445e-13,2.2977659812971e-13,-0.0014233652719091,0.0014233652669601,-0.0014233652717414,0.0014233652666365,-0.0014233652671092,0.0014233652717484,-0.0014233652666725,0.0014233652718517,-0.0013716137591663,0.001371613773287,-0.0013716137735829,0.0013716137590771,0.70137469864343,0.39650359548598,1368840,32768,0.0058106812508273,0.0058106812508939,0.0058106812507944,37.283517499566,37.277305562793,0.00021346813999652,0.00021346813999652,0.00021346813999652,440411.82671435,0.017585060626434
11836800,0.99455993112844,0.01683130178464,0.0056104339282151,0.0056104339282745,0.00561043392815,-0.0013989022222693,0.0013989022213997,6.4540918319248e-12,-7.3199637918955e-12,8.0984702443519e-14,-9.8072756885773e-13,-0.0014236311846742,0.0014236311888249,-0.0014236311893797,0.0014236311841208,-0.0014236311856632,0.0014236311890011,-0.0014236311901533,0.0014236311844704,-0.0013718843441933,0.0013718843570694,-0.0013718843583062,0.0013718843429384,-7.7904481836261e-13,3.3265113185391e-13,5.0558105484582e-13,1.1267744013449e-13,-0.0013989022219039,0.0013989022217959,-0.0014236311869122,0.001423631187057,-0.0014236311870684,0.0014236311871774,-0.0014236311864876,0.0014236311876906,-0.0014236311866503,0.0014236311874153,-0.0013718843503759,0.0013718843505116,-0.0013718843492168,0.0013718843487312,-0.0013718843514303,0.0013718843479838,-0.0013718843502492,0.0013718843489262,-7.1410451400904e-12,7.143404450368e-12,-0.0013989022218235,0.0013989022218191,-1.9944476004066e-13,2.172590981778e-13,-0.0014236311896495,0.0014236311846791,-0.0014236311894609,0.0014236311843863,-0.001423631184797,0.0014236311894802,-0.001423631184518,0.001423631189538,-0.0013718843415749,0.0013718843559648,-0.0013718843559953,0.0013718843415778,0.70215792830114,0.41440432049796,1368840,32768,0.0058117916668051,0.0058117916668688,0.0058117916667506,37.192713907106,37.186503614695,0.00021274171125684,0.00021274171125684,0.00021274171125684,437082.54069956,0.017588450654727
11923200,0.99486477703593,0.016835999345269,0.0056119997817584,0.0056119997818178,0.0056119997816933,-0.0013991852718634,0.0013991852710014,6.4589429190215e-12,-7.3365385796647e-12,8.7635440444508e-14,-9.725110551607e-13,-0.0014238919623926,0.0014238919665365,-0.0014238919671359,0.0014238919618231,-0.0014238919634011,0.0014238919668087,-0.0014238919679321,0.0014238919623104,-0.0013721884504247,0.0013721884633216,-0.0013721884645206,0.0013721884491238,-7.8829106530788e-13,3.2194875292189e-13,4.8556746036504e-13,1.0298350098356e-13,-0.0013991852714927,0.0013991852713862,-0.0014238919647041,0.0014238919647938,-0.0014238919647774,0.0014238919649005,-0.0014238919642827,0.0014238919654503,-0.0014238919643269,0.0014238919651098,-0.0013721884566715,0.0013721884567173,-0.0013721884556874,0.0013721884548983,-0.0013721884578216,0.0013721884543259,-0.0013721884564932,0.0013721884553193,-7.1483172120512e-12,7.1577668645473e-12,-0.0013991852714218,0.0013991852714142,-1.9980571960183e-13,2.0650998537935e-13,-0.0014238919674345,0.0014238919624601,-0.0014238919671501,0.0014238919621018,-0.0014238919625287,0.0014238919672079,-0.0014238919622431,0.0014238919672425,-0.0013721884478456,0.001372188462331,-0.0013721884623725,0.0013721884479151,0.70419385547977,0.45157405799106,1368840,32768,0.0058129642040533,0.0058129642040823,0.0058129642039937,37.101910367491,37.095701666597,0.00021201528293993,0.00021201528293993,0.00021201528293993,432628.30739448,0.017592030213806
12009600,0.99515155266754,0.016840432279683,0.0056134774265628,0.0056134774266222,0.0056134774264977,-0.0013995807407782,0.0013995807398767,6.4389404124373e-12,-7.3599572760043e-12,6.4670847879401e-14,-1.0048810074574e-12,-0.0014242179916815,0.0014242179958576,-0.0014242179964643,0.0014242179911241,-0.0014242179927293,0.0014242179960426,-0.0014242179971705,0.0014242179914824,-0.0013726481138813,0.0013726481269002,-0.0013726481280507,0.0013726481124403,-8.0946603607412e-13,3.098326524722e-13,4.6982314722535e-13,1.0803531724228e-13,-0.001399580740407,0.0013995807402698,-0.0014242179939455,0.0014242179940455,-0.0014242179940809,0.0014242179942137,-0.001424217993546,0.0014242179947076,-0.0014242179936671,0.001424217994411,-0.0013726481201089,0.0013726481201831,-0.0013726481190652,0.0013726481184415,-0.0013726481211266,0.0013726481175695,-0.0013726481200252,0.0013726481186204,-7.1526561383236e-12,7.1565226672626e-12,-0.0013995807403253,0.0013995807403089,-1.9287737243455e-13,1.929073715181e-13,-0.0014242179967087,0.0014242179917016,-0.0014242179965035,0.0014242179913856,-0.0014242179918162,0.0014242179965302,-0.0014242179915361,0.0014242179965843,-0.0013726481111425,0.0013726481257892,-0.0013726481257097,0.0013726481112124,0.70635740324316,0.48874379548415,1368840,32768,0.0058146025083098,0.0058146025083551,0.0058146025082671,37.033439304353,37.028705266346,0.00021146751443482,0.00021146751443482,0.00021146751443482,425444.59101183,0.017597031418701
12096000,0.99542165013733,0.016844621325481,0.0056148737751624,0.0056148737752217,0.0056148737750973,-0.0013999892143534,0.0013999892134672,6.4503005359816e-12,-7.3512737765734e-12,7.3925153402014e-14,-9.8047157667812e-13,-0.0014245564948088,0.0014245564989791,-0.0014245564995249,0.0014245564941954,-0.0014245564958326,0.0014245564991672,-0.0014245565002923,0.0014245564946188,-0.0013731208704933,0.0013731208834898,-0.0013731208845994,0.0013731208690307,-7.833986559441e-13,3.2101325208903e-13,4.7436774368517e-13,1.2669207082067e-13,-0.0013999892139894,0.0013999892138622,-0.0014245564970557,0.0014245564971879,-0.001424556497194,0.0014245564973178,-0.0014245564966381,0.0014245564977888,-0.0014245564967979,0.0014245564975276,-0.0013731208766746,0.0013731208767617,-0.00137312087553,0.0013731208750197,-0.0013731208776814,0.0013731208743368,-0.0013731208766139,0.0013731208752389,-7.1664023654446e-12,7.1453651845866e-12,-0.0013999892139222,0.0013999892138713,-2.0434587502085e-13,1.6677228757403e-13,-0.001424556499818,0.0014245564947984,-0.0014245564996238,0.0014245564944764,-0.001424556494914,0.0014245564996129,-0.0014245564946593,0.0014245564996558,-0.0013731208678093,0.0013731208824595,-0.0013731208823615,0.0013731208678804,0.70864325230122,0.52591353297724,1368840,32768,0.0058162946817098,0.0058162946817741,0.0058162946816538,36.983789381077,36.980347958063,0.00021107031504862,0.00021107031504862,0.00021107031504862,418423.70033181,0.017602197091606
12182400,0.99567608916433,0.016848581332193,0.0056161937773996,0.0056161937774589,0.0056161937773345,-0.0014003777143993,0.00140037771354,6.46718460842e-12,-7.3301734799965e-12,8.5743027668184e-14,-9.6243236305783e-13,-0.0014248758791622,0.0014248758832876,-0.001424875883861,0.001424875878598,-0.0014248758801782,0.0014248758835034,-0.0014248758846281,0.0014248758789631,-0.001373572723774,0.0013735727368243,-0.0013735727379589,0.0013735727225223,-7.6585151552661e-13,3.3249590130198e-13,4.9197455875023e-13,1.3273806259036e-13,-0.0014003777140376,0.0014003777139379,-0.0014248758814076,0.001424875881565,-0.0014248758815406,0.0014248758816684,-0.0014248758809689,0.0014248758821605,-0.0014248758810927,0.0014248758818616,-0.0013735727300057,0.0013735727301828,-0.0013735727289229,0.0013735727283645,-0.0013735727310865,0.0013735727278099,-0.001373572729875,0.0013735727286352,-7.1621420250068e-12,7.1460555458495e-12,-0.0014003777139656,0.0014003777139483,-1.8420640203263e-13,1.9916247454664e-13,-0.0014248758841364,0.0014248758791254,-0.0014248758839606,0.0014248758788499,-0.0014248758792573,0.0014248758839836,-0.0014248758790021,0.0014248758839991,-0.0013735727211953,0.0013735727357391,-0.0013735727358027,0.0013735727212338,0.71105277462196,0.56308327047033,1368840,32768,0.0058179041110531,0.0058179041111281,0.0058179041110006,36.935309383693,36.931990649781,0.00021068247506954,0.00021068247506954,0.00021068247506954,411586.31843732,0.017607110186613
12268800,0.99591581023838,0.016852324232004,0.0056174414106701,0.0056174414107294,0.005617441410605,-0.00140074518424,0.0014007451833862,6.475964399027e-12,-7.3253853909752e-12,8.1251811930566e-14,-9.5554510287066e-13,-0.0014251734664647,0.0014251734706337,-0.0014251734711908,0.0014251734659127,-0.0014251734674536,0.0014251734708248,-0.0014251734719434,0.0014251734662785,-0.0013740037002226,0.0013740037132949,-0.0013740037143627,0.0013740036989264,-7.6686801388504e-13,3.2013663181035e-13,4.861901766356e-13,1.294594274563e-13,-0.0014007451838817,0.0014007451837747,-0.0014251734687181,0.0014251734688633,-0.0014251734688498,0.0014251734690083,-0.0014251734683003,0.0014251734694855,-0.0014251734684492,0.0014251734692133,-0.0013740037064853,0.0013740037065883,-0.0013740037053988,0.0013740037047898,-0.0013740037075202,0.001374003704132,-0.0013740037063993,0.0013740037050254,-7.1556879868791e-12,7.156378789305e-12,-0.0014007451838103,0.0014007451837905,-1.8735298237735e-13,1.9308327790899e-13,-0.0014251734714599,0.0014251734664807,-0.0014251734712812,0.0014251734661494,-0.0014251734665978,0.0014251734712888,-0.001425173466337,0.0014251734713316,-0.0013740036975937,0.0013740037121876,-0.0013740037121858,0.0013740036976908,0.71326270364759,0.59448294252411,1368840,32768,0.0058194264188352,0.0058194264188978,0.0058194264187826,36.886939371312,36.883633341498,0.00021029551497049,0.00021029551497049,0.00021029551497049,404901.3292722,0.017611757332844
12355200,0.99614169447016,0.016855841331451,0.0056186137771521,0.0056186137772115,0.005618613777087,-0.001401067406218,0.0014010674053718,6.4833653494036e-12,-7.3280500742769e-12,8.7704026584543e-14,-9.5983661882662e-13,-0.0014254410295893,0.0014254410337538,-0.0014254410343363,0.0014254410290752,-0.0014254410306038,0.0014254410339734,-0.0014254410351372,0.0014254410294353,-0.0013743748607435,0.0013743748737847,-0.001374374874853,0.0013743748594841,-7.7599899964558e-13,3.2185857920604e-13,4.8276004612962e-13,1.2038055775071e-13,-0.0014010674058708,0.0014010674057528,-0.0014254410318521,0.0014254410319955,-0.0014254410319899,0.0014254410321258,-0.0014254410314585,0.001425441032613,-0.0014254410315854,0.0014254410323591,-0.0013743748670539,0.0013743748671294,-0.0013743748659605,0.0013743748652675,-0.0013743748680727,0.0013743748646577,-0.0013743748669228,0.0013743748655948,-7.1562542048757e-12,7.1657941193202e-12,-0.0014010674057888,0.0014010674057777,-1.8536795478328e-13,2.0071057431208e-13,-0.0014254410345956,0.0014254410296398,-0.0014254410344262,0.0014254410292943,-0.0014254410297389,0.001425441034426,-0.0014254410294612,0.0014254410344777,-0.0013743748581077,0.0013743748726902,-0.0013743748726851,0.0013743748582447,0.71122383952317,0.5528617812204,1368840,32768,0.0058207612632318,0.0058207612633017,0.0058207612631836,36.838580269553,36.835276033215,0.00020990864215643,0.00020990864215643,0.00020990864215643,399134.36503714,0.017615832287297
12441600,0.99635456861711,0.01685910755388,0.005619702517962,0.0056197025180213,0.0056197025178969,-0.0014010686501756,0.0014010686493153,6.4776023489887e-12,-7.3373839067817e-12,8.3887260831176e-14,-9.7013165726144e-13,-0.0014255350812224,0.0014255350853826,-0.0014255350859427,0.0014255350806807,-0.0014255350822088,0.0014255350855696,-0.0014255350867019,0.0014255350810362,-0.0013742882238224,0.0013742882368535,-0.0013742882379608,0.0013742882224568,-7.7636481199967e-13,3.2792327628665e-13,4.8091636715863e-13,1.4328000524713e-13,-0.0014010686498053,0.0014010686497001,-0.0014255350833814,0.0014255350835111,-0.0014255350835124,0.0014255350836607,-0.0014255350829578,0.0014255350841453,-0.0014255350831013,0.0014255350838726,-0.0013742882300824,0.0013742882301564,-0.001374288228944,0.0013742882283675,-0.0013742882312064,0.0013742882277444,-0.0013742882301022,0.0013742882287206,-7.1602102604915e-12,7.1655755965842e-12,-0.0014010686497338,0.0014010686497135,-1.7550093268462e-13,1.8595255457122e-13,-0.0014255350861109,0.0014255350811249,-0.0014255350859507,0.0014255350808101,-0.0014255350812477,0.0014255350859377,-0.0014255350809953,0.0014255350859754,-0.0013742882212307,0.0013742882358507,-0.0013742882357996,0.0013742882213033,0.70080292354226,0.38766121643206,1368840,32768,0.0058207662221686,0.0058207662221987,0.0058207662220783,36.790222124344,36.786918724933,0.00020952177699475,0.00020952177699475,0.00020952177699475,402385.77677042,0.017615848154094
12528000,0.99655520860706,0.016862198731572,0.0056207329105259,0.0056207329105852,0.0056207329104608,-0.0014004757265266,0.0014004757256515,6.4765024414137e-12,-7.350547916395e-12,8.1504686558361e-14,-9.8278268254601e-13,-0.0014253198090193,0.0014253198131628,-0.0014253198137565,0.001425319808449,-0.0014253198100076,0.001425319813398,-0.001425319814482,0.0014253198088321,-0.0013733496009032,0.0013733496139627,-0.0013733496150662,0.0013733495995825,-7.8342759623646e-13,3.3138869983211e-13,4.670199387438e-13,1.3560112218468e-13,-0.0014004757261675,0.0014004757260439,-0.0014253198112717,0.0014253198113666,-0.0014253198113939,0.0014253198115084,-0.0014253198108639,0.0014253198120102,-0.0014253198109846,0.0014253198117294,-0.0013733496071779,0.0013733496071924,-0.0013733496060571,0.0013733496054577,-0.0013733496082461,0.001373349604783,-0.0013733496070701,0.0013733496057482,-7.1769956300629e-12,7.161018324041e-12,-0.0014004757260935,0.0014004757260593,-1.846176835859e-13,1.7056646578214e-13,-0.0014253198139948,0.001425319808999,-0.0014253198138212,0.0014253198086686,-0.0014253198091073,0.0014253198138206,-0.0014253198088701,0.0014253198138521,-0.0013733495982779,0.0013733496128758,-0.0013733496128666,0.0013733495983462,0.70372109797865,0.44416568327059,1368840,32768,0.0058183094683743,0.0058183094684432,0.0058183094683218,36.741864367509,36.73856141665,0.00020913491494007,0.00020913491494007,0.00020913491494007,423246.82067553,0.017608350136587
12614400,0.99674434273158,0.016865082868475,0.0056216942894937,0.005621694289553,0.0056216942894285,-0.0014008707854043,0.0014008707845442,6.4890658811387e-12,-7.3490496092261e-12,1.0075033391116e-13,-9.7668804520358e-13,-0.001425607940709,0.0014256079448891,-0.001425607945473,0.0014256079401782,-0.0014256079416862,0.001425607945045,-0.0014256079461522,0.0014256079404792,-0.0013738445350232,0.0013738445480995,-0.0013738445492332,0.0013738445337549,-7.9762989766002e-13,3.3017056057484e-13,4.7575528953189e-13,1.384044483097e-13,-0.0014008707850483,0.0014008707849304,-0.0014256079429957,0.0014256079431177,-0.001425607943136,0.0014256079432205,-0.0014256079425653,0.0014256079437138,-0.0014256079426653,0.0014256079434512,-0.0013738445414229,0.0013738445414635,-0.0013738445403199,0.0013738445396552,-0.0013738445425563,0.0013738445390507,-0.001373844541204,0.0013738445398857,-7.178848749922e-12,7.1704460654417e-12,-0.0014008707849767,0.0014008707849487,-1.8220675723805e-13,1.7877571499521e-13,-0.0014256079456867,0.0014256079407086,-0.0014256079455338,0.0014256079403862,-0.0014256079408373,0.0014256079455456,-0.0014256079405807,0.0014256079455777,-0.0013738445325255,0.0013738445470955,-0.001373844547161,0.0013738445325612,0.69674658254555,0.34134742341345,1368840,32768,0.0058199461530954,0.0058199461531581,0.0058199461530476,36.693506473363,36.690204108368,0.0002087480517869,0.0002087480517869,0.0002087480517869,414132.79690298,0.017613346177798
12700800,0.99692265472055,0.016867805579072,0.0056226018596926,0.0056226018597519,0.0056226018596274,-0.001400492927331,0.0014004929264607,6.4863034361177e-12,-7.3593378831617e-12,8.155703790024e-14,-9.7513209273686e-13,-0.0014254918387499,0.0014254918429185,-0.0014254918434842,0.0014254918381925,-0.0014254918397425,0.001425491843108,-0.0014254918442504,0.0014254918385552,-0.0013732286658656,0.0013732286789132,-0.0013732286800613,0.0013732286645152,-7.7813599318542e-13,3.2896171515129e-13,4.7359188503417e-13,1.3349615707815e-13,-0.0014004929269678,0.0014004929268533,-0.0014254918410088,0.0014254918411341,-0.0014254918411445,0.0014254918412801,-0.0014254918405871,0.0014254918417666,-0.00142549184073,0.00142549184149,-0.0013732286721395,0.0013732286721947,-0.0013732286710398,0.0013732286704549,-0.0013732286731646,0.0013732286697472,-0.0013732286720237,0.0013732286706857,-7.1743718866871e-12,7.1816553406531e-12,-0.0014004929268917,0.0014004929268728,-1.8182215134044e-13,1.8195714721641e-13,-0.0014254918437452,0.0014254918387499,-0.0014254918435749,0.0014254918384354,-0.0014254918388707,0.0014254918435779,-0.0014254918386107,0.0014254918436113,-0.001373228663241,0.0013732286778654,-0.0013732286778328,0.0013732286632849,0.69757501438208,0.36632788116199,1368840,32768,0.0058183805055499,0.0058183805056106,0.0058183805054935,36.6451486915,36.641846800084,0.00020836118953199,0.00020836118953199,0.00020836118953199,427930.9827261,0.017608567866204
12787200,0.99708988618174,0.016870358283295,0.0056234527611002,0.0056234527611595,0.005623452761035,-0.0014005214221413,0.0014005214212886,6.4728350828608e-12,-7.3290619845402e-12,6.514848034688e-14,-9.5046419926525e-13,-0.0014254784269817,0.0014254784311319,-0.0014254784317035,0.0014254784264265,-0.0014254784279518,0.0014254784313368,-0.0014254784324508,0.0014254784268046,-0.0013732974252529,0.0013732974382097,-0.0013732974393597,0.0013732974238543,-7.6436909022545e-13,3.0135361738326e-13,4.4926798105392e-13,1.3550818384741e-13,-0.0014005214217959,0.001400521421664,-0.0014254784292386,0.0014254784293563,-0.0014254784293671,0.0014254784295139,-0.0014254784288309,0.0014254784299779,-0.001425478428968,0.0014254784297109,-0.001373297431511,0.0013732974315257,-0.0013732974303548,0.0013732974297663,-0.0013732974324342,0.0013732974290917,-0.001373297431388,0.0013732974300067,-7.1565695481833e-12,7.155485963639e-12,-0.0014005214217163,0.0014005214216882,-1.6426498181756e-13,1.7375207434634e-13,-0.0014254784319767,0.0014254784269887,-0.0014254784318171,0.0014254784266621,-0.001425478427112,0.0014254784317981,-0.0014254784268606,0.001425478431822,-0.0013732974226206,0.0013732974371878,-0.0013732974370956,0.0013732974226136,0.69747004867005,0.37449136351001,1368840,32768,0.0058184985993283,0.0058184985993907,0.0058184985992758,36.495977600398,36.48603599074,0.00020716782080318,0.00020716782080318,0.00020716782080318,423195.60137701,0.017608928245548
12873600,0.99724613942958,0.016872743479132,0.0056242478263793,0.0056242478264386,0.0056242478263141,-0.0014003034747224,0.0014003034740188,6.5131666742877e-12,-7.2830666837827e-12,9.0615996449392e-14,-9.2432052734825e-13,-0.001425258430433,0.0014252584347418,-0.0014252584345453,0.001425258429513,-0.0014252584304024,0.00142525843434,-0.0014252584354685,0.0014252584303921,-0.0013730832801458,0.0013730832930148,-0.0013730832935821,0.0013730832791724,-8.1559843696877e-13,2.4522733200275e-13,3.6779129364021e-13,7.9672419003465e-14,-0.0014003034743512,0.001400303474085,-0.0014252584326641,0.0014252584323962,-0.0014252584323991,0.0014252584322467,-0.0014252584313049,0.0014252584331594,-0.0014252584316707,0.0014252584326646,-0.0013730832859007,0.0013730832854943,-0.0013730832854558,0.001373083283679,-0.0013730832868861,0.0013730832834182,-0.0013730832857712,0.0013730832842424,-7.2441992240981e-12,7.0628196180617e-12,-0.0014003034743724,0.001400303474123,-2.9335112655974e-13,2.0020329569145e-14,-0.0014252584353772,0.0014252584299318,-0.0014252584346633,0.0014252584297466,-0.0014252584304148,0.0014252584343795,-0.0014252584299896,0.0014252584350354,-0.001373083276779,0.0013730832911399,-0.0013730832915029,0.0013730832771775,0.6974242683336,0.382654845858,1368840,32768,0.0058175957508083,0.0058175957501765,0.0058175957502993,36.26852275583,36.253207686581,0.00020534818204664,0.00020534818204664,0.00020534818204664,420967.07361699,0.017606172064434
12960000,0.99739219246805,0.016874973062899,0.0056249910209685,0.0056249910210276,0.0056249910209032,-0.0014000644646185,0.001400064463066,6.1396334972346e-12,-7.6632900093975e-12,-3.1766558965194e-13,-1.3460765841667e-12,-0.00142501386066,0.0014250138643868,-0.0014250138656267,0.0014250138596437,-0.0014250138616515,0.0014250138644485,-0.0014250138664581,0.0014250138600351,-0.0013728506806548,0.0013728506929601,-0.0013728506941547,0.0013728506790928,-5.5031474708576e-13,5.3118612556966e-13,6.4416596823067e-13,4.0543049672956e-13,-0.0014000644636362,0.0014000644640857,-0.0014250138625478,0.0014250138630884,-0.0014250138624441,0.0014250138635014,-0.0014250138617311,0.0014250138639612,-0.0014250138618287,0.0014250138638248,-0.001372850686203,0.0013728506871775,-0.0013728506853038,0.0013728506853208,-0.001372850687662,0.0013728506846558,-0.0013728506858459,0.0013728506857028,-7.3095229343859e-12,7.0015012265906e-12,-0.0014000644639887,0.0014000644636928,-3.1829639391071e-13,-5.4083465434314e-14,-0.0014250138655412,0.0014250138601959,-0.001425013865438,0.0014250138598563,-0.0014250138607924,0.0014250138653038,-0.0014250138606344,0.0014250138655104,-0.0013728506786062,0.0013728506922934,-0.0013728506929745,0.0013728506785986,0.69743141816653,0.39081832820604,1368840,32768,0.0058166056527627,0.0058166056528399,0.0058166056527566,36.036192319174,36.020379382433,0.00020348953855339,0.00020348953855339,0.00020348953855339,418683.83190212,0.017603149506502
13046400,0.9975287981152,0.016877058651974,0.0056256862173266,0.0056256862173857,0.0056256862172613,-0.0013998136184776,0.0013998136174402,6.4937795018467e-12,-7.3311214510366e-12,-3.0737766864674e-14,-1.0666797666065e-12,-0.0014247560794684,0.0014247560834879,-0.001424756084198,0.001424756078556,-0.00142475608037,0.0014247560830402,-0.0014247560853583,0.0014247560793184,-0.0013726073525981,0.0013726073669564,-0.0013726073674458,0.0013726073515512,-6.3493960303097e-13,4.5032871335516e-13,5.7289046917765e-13,3.1335839770428e-13,-0.0013998136178067,0.0013998136180056,-0.0014247560813265,0.0014247560822459,-0.0014247560814017,0.0014247560815209,-0.0014247560810502,0.0014247560821932,-0.0014247560812705,0.0014247560823151,-0.0013726073588726,0.0013726073591724,-0.0013726073586293,0.0013726073575426,-0.0013726073606168,0.0013726073567982,-0.0013726073592649,0.0013726073582969,-7.1795256115972e-12,7.151265916088e-12,-0.0013998136179189,0.0013998136178735,-2.0960597903416e-13,8.16150655393e-14,-0.0014247560843515,0.0014247560787237,-0.0014247560839151,0.0014247560791799,-0.0014247560791704,0.0014247560843312,-0.001424756078896,0.001424756084037,-0.0013726073497644,0.0013726073649384,-0.0013726073654124,0.0013726073504625,0.69748633317837,0.39898181055409,1368840,32768,0.005815566526888,0.0058155665266695,0.0058155665266283,35.803404054617,35.787551078284,0.00020162723243694,0.00020162723243694,0.00020162723243694,416398.98477957,0.017599977275942
13132800,0.99765665098489,0.01687901094205,0.0056263369806854,0.0056263369807445,0.0056263369806201,-0.0013995524590255,0.0013995524582535,6.5914249894323e-12,-7.232571049919e-12,1.3102311498083e-13,-9.1277035078645e-13,-0.0014244869931034,0.0014244869975715,-0.0014244869974664,0.0014244869925736,-0.0014244869941219,0.0014244869972835,-0.0014244869987145,0.0014244869931699,-0.0013723545324932,0.0013723545460869,-0.0013723545470822,0.001372354531555,-5.4461939166319e-13,5.5855564239088e-13,6.1764169029386e-13,3.1450068633756e-13,-0.0013995524585312,0.0013995524588289,-0.0014244869951587,0.001424486995447,-0.0014244869952361,0.0014244869953784,-0.0014244869946656,0.0014244869959441,-0.0014244869954161,0.0014244869958338,-0.0013723545392071,0.0013723545390437,-0.001372354538054,0.0013723545371464,-0.0013723545396698,0.0013723545368995,-0.0013723545386606,0.0013723545379084,-7.3164148414899e-12,7.0216027301505e-12,-0.0013995524588335,0.0013995524585629,-3.3614078995313e-13,-1.5853633329443e-14,-0.0014244869982778,0.0014244869928167,-0.0014244869981686,0.0014244869927894,-0.0014244869931499,0.0014244869980745,-0.0014244869930135,0.0014244869978645,-0.0013723545304221,0.0013723545445413,-0.0013723545455158,0.0013723545295563,0.69758471227628,0.40714529290217,1368840,32768,0.0058144846771751,0.0058144846773429,0.0058144846774183,35.570569862538,35.554722774129,0.0001997645589003,0.0001997645589003,0.0001997645589003,414121.66104721,0.01759667462479
13219200,0.99777638958333,0.016880839743322,0.0056269465811095,0.0056269465811686,0.0056269465810443,-0.0013992817532054,0.001399281752458,6.5752240725945e-12,-7.2904108123658e-12,9.0469353870399e-14,-9.1557079464658e-13,-0.0014242075118624,0.0014242075161716,-0.0014242075169072,0.0014242075113796,-0.0014242075129396,0.0014242075167229,-0.0014242075179639,0.0014242075119875,-0.0013720928537132,0.0013720928658489,-0.0013720928675938,0.0013720928533667,-6.9833843094617e-13,3.6119202465511e-13,3.9364373915986e-13,1.2248531698117e-13,-0.0013992817528831,0.0013992817527735,-0.0014242075143844,0.0014242075143995,-0.0014242075144819,0.0014242075141254,-0.0014242075143231,0.0014242075151085,-0.0014242075144174,0.0014242075146658,-0.0013720928602429,0.0013720928585032,-0.0013720928588232,0.001372092857997,-0.001372092861082,0.0013720928587139,-0.0013720928606123,0.0013720928589371,-7.4097478725828e-12,6.9684502068648e-12,-0.0013992817531541,0.0013992817527547,-3.2947687588407e-13,-3.3854377536711e-14,-0.0014242075176801,0.00142420751207,-0.0014242075179397,0.0014242075117513,-0.0014242075126559,0.0014242075166167,-0.0014242075125591,0.0014242075173466,-0.0013720928522604,0.0013720928655328,-0.0013720928659803,0.0013720928513315,0.69772293893699,0.41530877525013,1368840,32768,0.0058133632805256,0.0058133632805113,0.0058133632810338,35.337730994952,35.321894469978,0.00019790184795961,0.00019790184795961,0.00019790184795961,411855.08308115,0.017593251250829
13305600,0.99788860096142,0.016882551965433,0.0056275173218131,0.0056275173218721,0.0056275173217479,-0.0013990019673251,0.0013990019663913,6.4561268874023e-12,-7.4324488261431e-12,-1.8334616360644e-14,-9.7626499930382e-13,-0.0014239182570268,0.0014239182614617,-0.0014239182619285,0.0014239182562894,-0.0014239182581969,0.0014239182616401,-0.0014239182628495,0.0014239182572241,-0.001371822577648,0.0013718225903652,-0.0013718225913368,0.0013718225765616,-8.0147951535096e-13,2.04419931582e-13,4.0569301812148e-13,1.1324659921766e-13,-0.0013990019669308,0.0013990019667167,-0.0014239182594574,0.001423918259373,-0.0014239182597097,0.0014239182593885,-0.0014239182589047,0.0014239182601431,-0.0014239182594082,0.0014239182597285,-0.0013718225842032,0.0013718225844245,-0.0013718225826694,0.001371822582211,-0.0013718225854799,0.0013718225823739,-0.0013718225849491,0.0013718225834661,-7.2639475031546e-12,7.1375595406907e-12,-0.0013990019668912,0.001399001966777,-2.1709404439655e-13,1.0342769329614e-13,-0.001423918262467,0.0014239182569787,-0.0014239182620749,0.0014239182566153,-0.0014239182575705,0.0014239182616776,-0.0014239182569376,0.0014239182620428,-0.0013718225762157,0.0013718225902883,-0.0013718225909792,0.0013718225765019,0.69704604370632,0.40983348306018,1368840,32768,0.0058122042680579,0.005812204267915,0.0058122042679581,35.104891579964,35.089066165821,0.00019603913263971,0.00019603913263971,0.00019603913263971,409604.51754041,0.01758971305258
13392000,0.99799382518749,0.016884153684133,0.0056280512280464,0.0056280512281054,0.0056280512279813,-0.0013986498603482,0.0013986498595078,6.5124954594988e-12,-7.351372361797e-12,5.1274786531644e-14,-9.1673164153644e-13,-0.0014235870766976,0.0014235870809187,-0.0014235870814441,0.0014235870761429,-0.0014235870776911,0.0014235870811096,-0.0014235870821921,0.0014235870765269,-0.0013714519401955,0.0013714519534089,-0.0013714519543389,0.0013714519389254,-7.3563261516386e-13,2.8255713277943e-13,4.4169318304704e-13,1.4260779048871e-13,-0.0013986498599976,0.0013986498598762,-0.0014235870789384,0.0014235870790589,-0.0014235870790701,0.001423587079239,-0.0014235870785602,0.0014235870797121,-0.0014235870786564,0.0014235870794324,-0.001371451946606,0.0013714519465936,-0.0013714519454436,0.0013714519448399,-0.001371451947571,0.0013714519442292,-0.0013714519465314,0.0013714519450355,-7.1785304655277e-12,7.1959132286139e-12,-0.0013986498599247,0.0013986498598984,-1.7119277017838e-13,1.514964013007e-13,-0.0014235870817274,0.0014235870766883,-0.0014235870815659,0.0014235870763749,-0.0014235870767961,0.001423587081539,-0.0014235870765385,0.0014235870815582,-0.0013714519376177,0.0013714519523112,-0.0013714519523564,0.0013714519378127,0.69533865357488,0.38837101080073,1368840,32768,0.0058107456182998,0.0058107456183367,0.0058107456182319,34.872052029141,34.856237861673,0.00019417641623312,0.00019417641623312,0.00019417641623312,409266.91796537,0.017585260299327
13478400,0.99809255942535,0.016885652728721,0.0056285509095756,0.0056285509096346,0.0056285509095105,-0.0013982134067004,0.0013982134058534,6.4556620780725e-12,-7.3050018960299e-12,5.8722970759435e-14,-9.1692569443179e-13,-0.0014232103979342,0.0014232104020843,-0.0014232104026516,0.0014232103973785,-0.0014232103989003,0.0014232104022734,-0.001423210403391,0.0014232103977566,-0.0013709618317246,0.0013709618446106,-0.0013709618456883,0.0013709618302507,-7.5999975311746e-13,2.6595675755656e-13,4.3231546952975e-13,1.4119842177925e-13,-0.0013982134063905,0.00139821340625,-0.0014232104004084,0.0014232104005452,-0.0014232104005419,0.001423210400697,-0.0014232104000171,0.0014232104011523,-0.0014232104001509,0.0014232104008926,-0.0013709618376962,0.0013709618377429,-0.0013709618366113,0.0013709618360188,-0.0013709618382927,0.0013709618349472,-0.0013709618372915,0.0013709618358014,-7.1205273551299e-12,7.1501730082991e-12,-0.0013982134063062,0.0013982134062816,-1.6805892473874e-13,1.4684924915036e-13,-0.0014232104031555,0.0014232103981772,-0.0014232104029887,0.0014232103978447,-0.0014232103982985,0.0014232104029808,-0.0014232103980506,0.0014232104030083,-0.001370961828469,0.0013709618430344,-0.0013709618428578,0.0013709618285103,0.69354142785084,0.36690853854131,1368840,32768,0.0058089375067904,0.0058089375069701,0.0058089375068611,34.63921246672,34.62340955752,0.00019231369973376,0.00019231369973376,0.00019231369973376,411270.82489873,0.017579740930035
13564800,0.99818549494948,0.016887061280367,0.0056290204267912,0.0056290204268502,0.0056290204267261,-0.0013978559980737,0.0013978559974045,6.5046181707328e-12,-7.207655693419e-12,1.6793657553525e-13,-7.8874178683277e-13,-0.0014229092688054,0.0014229092731921,-0.001422909273889,0.0014229092684491,-0.0014229092698756,0.0014229092735778,-0.001422909273653,0.0014229092691665,-0.0013705532274097,0.001370553239619,-0.0013705532411805,0.0013705532254619,-8.2323361548402e-13,1.8786173154129e-13,4.1078606841464e-13,6.8565787715192e-14,-0.001397855998221,0.0013978559979988,-0.0014229092719534,0.001422909272206,-0.0014229092722628,0.001422909272863,-0.0014229092712625,0.0014229092730237,-0.0014229092715774,0.0014229092723533,-0.0013705532349985,0.0013705532352158,-0.0013705532339091,0.0013705532335825,-0.0013705532327495,0.0013705532286738,-0.0013705532315957,0.0013705532296466,-7.0872179021226e-12,7.1336382781297e-12,-0.0013978559980711,0.0013978559980899,-1.2585500815707e-13,2.3786708626497e-13,-0.0014229092746894,0.0014229092696046,-0.0014229092747305,0.0014229092693519,-0.0014229092698045,0.0014229092745355,-0.0014229092696874,0.0014229092742159,-0.0013705532228636,0.0013705532369266,-0.0013705532366972,0.0013705532223213,0.69236986871593,0.35653166287175,1368840,32768,0.0058074568428985,0.0058074568444347,0.0058074568443131,34.452656024331,34.439893036297,0.00019082124819465,0.00019082124819465,0.00019082124819465,413335.21336061,0.017575221171897
13651200,0.99827317342307,0.016888389571501,0.0056294631905019,0.0056294631905614,0.0056294631904373,-0.0013976073938055,0.0013976073929532,6.3555926057144e-12,-7.277227568046e-12,5.2931618269513e-14,-8.8010411342346e-13,-0.0014226961737935,0.0014226961777402,-0.0014226961781547,0.0014226961728086,-0.001422696174134,0.0014226961774585,-0.0014226961786462,0.0014226961731931,-0.0013702735421415,0.0013702735548318,-0.0013702735560114,0.0013702735403993,-6.8293925432163e-13,3.0506509223554e-13,5.1177195395339e-13,1.593425145485e-13,-0.0013976073937225,0.0013976073937184,-0.0014226961758206,0.0014226961761764,-0.0014226961754181,0.0014226961761727,-0.0014226961754027,0.0014226961766548,-0.0014226961754079,0.0014226961763458,-0.0013702735512212,0.0013702735512028,-0.0013702735503323,0.0013702735498116,-0.001370273554307,0.0013702735511796,-0.0013702735533411,0.0013702735520026,-7.1778667210987e-12,6.9623581576786e-12,-0.0013976073937904,0.0013976073935928,-3.1099852862019e-13,6.2736524618707e-14,-0.0014226961787497,0.0014226961734143,-0.0014226961783932,0.0014226961730117,-0.0014226961738838,0.0014226961781669,-0.0014226961735246,0.0014226961780488,-0.0013702735448681,0.0013702735589434,-0.0013702735587442,0.0013702735446512,0.69209796367786,0.36076519790323,1368840,32768,0.0058064269444719,0.0058064269458836,0.0058064269457643,34.299178123237,34.28868908235,0.00018959342498589,0.00018959342498589,0.00018959342498589,413949.26248908,0.017572077356412
13737600,0.99835593519996,0.01688964292646,0.0056298809754884,0.0056298809755479,0.0056298809754238,-0.001397427535582,0.0013974275346745,6.3345750713151e-12,-7.3036781717629e-12,-3.6180071194248e-14,-9.1286834779271e-13,-0.0014225181519473,0.0014225181560593,-0.0014225181567934,0.001422518151399,-0.0014225181527369,0.0014225181558873,-0.0014225181572395,0.0014225181518693,-0.0013700938526078,0.0013700938653996,-0.001370093866587,0.0013700938505989,-9.8100706031946e-13,-5.0692451380407e-14,2.6237995506071e-13,-1.327533562408e-13,-0.0013974275353621,0.001397427534737,-0.001422518154026,0.0014225181537839,-0.0014225181540674,0.0014225181538143,-0.0014225181539072,0.0014225181544403,-0.0014225181535192,0.0014225181542774,-0.0013700938588902,0.0013700938589763,-0.0013700938582483,0.0013700938573656,-0.0013700938612095,0.0013700938570276,-0.0013700938599976,0.0013700938580358,-7.1001421543544e-12,7.0558968001373e-12,-0.0013974275350047,0.0013974275349274,-2.3617363799865e-13,1.8440383717759e-13,-0.0014225181565226,0.0014225181516502,-0.0014225181566362,0.0014225181510968,-0.0014225181514658,0.0014225181562963,-0.0014225181515756,0.0014225181562848,-0.0013700938512591,0.0013700938655673,-0.0013700938649987,0.0013700938506458,0.69185814988743,0.36499873293472,1368840,32768,0.0058056818776284,0.0058056818773023,0.0058056818769565,34.147755998278,34.137485128399,0.00018838204798622,0.00018838204798622,0.00018838204798622,412485.26216081,0.017569802890542
13824000,0.99843408800255,0.016890826144772,0.0056302753815924,0.0056302753816518,0.0056302753815276,-0.0013972428655374,0.0013972428646756,6.3672616021758e-12,-7.2599375080102e-12,1.5612287761208e-14,-8.6933855995079e-13,-0.001422332788554,0.0014223327925835,-0.001422332793147,0.0014223327880343,-0.0014223327895053,0.0014223327927276,-0.0014223327939366,0.0014223327884546,-0.0013699112607336,0.0013699112733997,-0.001369911274687,0.0013699112593364,-7.3014875328031e-13,2.0436593323161e-13,5.290521907599e-13,1.5123552691729e-13,-0.0013972428651832,0.0013972428650102,-0.0014223327906198,0.0014223327907918,-0.0014223327907399,0.0014223327909175,-0.0014223327905007,0.0014223327916345,-0.0014223327905674,0.0014223327909899,-0.0013699112670393,0.0013699112672242,-0.0013699112657542,0.0013699112651251,-0.0013699112685199,0.001369911264904,-0.0013699112672284,0.0013699112658026,-7.0085420114994e-12,7.1297871898954e-12,-0.0013972428650017,0.0013972428651116,-1.3389017445296e-13,2.7019277520795e-13,-0.0014223327931269,0.0014223327884387,-0.0014223327932657,0.0014223327879793,-0.0014223327884471,0.0014223327932184,-0.0014223327880778,0.0014223327932455,-0.0013699112585711,0.0013699112730536,-0.0013699112726682,0.0013699112587102,0.69164748519287,0.36923226796618,1368840,32768,0.0058049168761336,0.0058049168760931,0.0058049168759272,33.996526010393,33.986281174449,0.00018717220808314,0.00018717220808314,0.00018717220808314,410995.84009772,0.017567467577047
13910400,0.99850791781432,0.016891943637962,0.0056306478793225,0.0056306478793818,0.0056306478792576,-0.0013970533532375,0.0013970533526024,6.4597293655844e-12,-7.1284308195669e-12,1.0868891492237e-13,-7.3207692966996e-13,-0.0014221417383198,0.0014221417425645,-0.0014221417431358,0.0014221417380094,-0.0014221417393765,0.0014221417430354,-0.001422141744212,0.0014221417386583,-0.0013697244707311,0.0013697244840318,-0.0013697244849224,0.0013697244700504,-7.6917159057118e-13,1.2497441741145e-13,4.3266237069686e-13,9.7827040862817e-14,-0.0013970533530484,0.0013970533527768,-0.0014221417409036,0.0014221417406325,-0.0014221417409774,0.0014221417407905,-0.0014221417407886,0.0014221417414973,-0.0014221417408469,0.0014221417407257,-0.0013697244771997,0.0013697244768636,-0.0013697244760332,0.0013697244752238,-0.0013697244787554,0.0013697244751051,-0.001369724477276,0.0013697244758374,-7.0369670254877e-12,7.0628127065081e-12,-0.0013970533528056,0.0013970533528571,-1.3046048510997e-13,2.3429090139732e-13,-0.0014221417430589,0.0014221417384165,-0.0014221417430573,0.0014221417380281,-0.0014221417383873,0.0014221417433949,-0.00142214173798,0.0014221417434506,-0.0013697244686176,0.0013697244829902,-0.0013697244830307,0.0013697244683719,0.69146350976488,0.37346580299767,1368840,32768,0.0058041318151621,0.0058041318151316,0.0058041318147951,33.845315204367,33.835077220501,0.00018596252163494,0.00018596252163494,0.00018596252163494,409503.84236341,0.017565071030561
13996800,0.99857769120793,0.016892999509726,0.0056309998365773,0.0056309998366366,0.0056309998365124,-0.0013968592417356,0.0013968592411271,6.4378703863023e-12,-7.1332520840453e-12,1.3185814829467e-13,-7.6104998573946e-13,-0.0014219455438291,0.0014219455481559,-0.0014219455484399,0.0014219455435504,-0.0014219455446333,0.0014219455481,-0.0014219455491738,0.001421945543882,-0.0013695335145022,0.0013695335272892,-0.0013695335284017,0.0013695335131971,-5.2351033064816e-13,4.1930801395741e-13,6.1828817054433e-13,2.7999126998831e-13,-0.0013968592413317,0.0013968592415511,-0.001421945545798,0.001421945546496,-0.0014219455458306,0.0014219455465172,-0.0014219455456008,0.0014219455470773,-0.0014219455457001,0.0014219455465447,-0.0013695335203264,0.0013695335209026,-0.0013695335194885,0.001369533518874,-0.0013695335225529,0.0013695335192588,-0.00136953352054,0.0013695335198356,-7.1409352022725e-12,6.9380071368797e-12,-0.0013968592414898,0.0013968592414057,-2.280848851045e-13,1.3952785516686e-13,-0.001421945548784,0.0014219455438764,-0.0014219455485863,0.0014219455436985,-0.0014219455440873,0.0014219455486613,-0.0014219455439557,0.0014219455485278,-0.0013695335124699,0.0013695335265634,-0.0013695335262803,0.0013695335123735,0.69130414589676,0.37769933802917,1368840,32768,0.0058033277009017,0.0058033277009432,0.0058033277009698,33.694106345556,33.68387326655,0.00018475285076445,0.00018475285076445,0.00018475285076445,408013.93070226,0.017562616324799
14083200,0.998643656824,0.016893996375751,0.0056313321252524,0.0056313321253116,0.0056313321251875,-0.0013966606817185,0.0013966606811437,6.4854582854659e-12,-7.0486341984754e-12,1.0941342220094e-13,-7.2753318612527e-13,-0.0014217444569009,0.0014217444614542,-0.0014217444618726,0.0014217444568499,-0.0014217444579283,0.0014217444615252,-0.0014217444624645,0.0014217444573189,-0.0013693384138805,0.0013693384271313,-0.0013693384277436,0.0013693384129997,-7.6015736594956e-13,1.3014990636264e-13,3.7192190274705e-13,3.6658644809447e-14,-0.0013966606816146,0.0013966606812837,-0.0014217444593095,0.0014217444596572,-0.0014217444596014,0.0014217444599016,-0.0014217444590517,0.0014217444601504,-0.0014217444592943,0.0014217444599306,-0.0013693384204126,0.0013693384197814,-0.0013693384196429,0.0013693384181952,-0.0013693384217405,0.0013693384182525,-0.0013693384210137,0.0013693384188715,-7.0908964368048e-12,6.9519823570051e-12,-0.0013966606814281,0.0013966606813411,-2.1835474117725e-13,1.5166669021613e-13,-0.0014217444618833,0.0014217444573459,-0.0014217444617697,0.001421744456942,-0.0014217444571442,0.0014217444618582,-0.0014217444570822,0.0014217444619497,-0.0013693384118225,0.0013693384259209,-0.0013693384260584,0.0013693384120451,0.6903335390578,0.36864124454673,1368840,32768,0.0058025051577227,0.0058025051577974,0.0058025051575303,33.542897646751,33.532669312601,0.00018354318117401,0.00018354318117401,0.00018354318117401,406529.73257281,0.017560105365842
14169600,0.99870604667338,0.016894934801189,0.0056316449337315,0.0056316449337908,0.0056316449336666,-0.0013963942538315,0.0013963942530367,6.3294472867889e-12,-7.170852523613e-12,1.9084711092823e-14,-8.5618549117978e-13,-0.0014215062450668,0.0014215062490852,-0.0014215062496903,0.0014215062445403,-0.0014215062460807,0.0014215062493986,-0.0014215062504619,0.0014215062450842,-0.0013690471413542,0.0013690471539181,-0.0013690471552019,0.0013690471400036,-7.1451373091951e-13,2.1078014904643e-13,4.4180653252546e-13,1.3050771896112e-13,-0.0013963942535207,0.0013963942533615,-0.001421506246185,0.0014215062464959,-0.0014215062464564,0.001421506246654,-0.0014215062459457,0.0014215062470651,-0.0014215062459956,0.0014215062467964,-0.0013690471476987,0.0013690471476273,-0.0013690471466215,0.001369047146031,-0.0013690471495509,0.0013690471462348,-0.0013690471484417,0.0013690471468333,-7.0699696055168e-12,6.9413410938531e-12,-0.0013963942534652,0.0013963942533502,-2.1926512513035e-13,1.1473649487884e-13,-0.0014215062490934,0.0014215062440106,-0.0014215062487708,0.0014215062436633,-0.0014215062442891,0.0014215062488681,-0.0014215062439841,0.001421506248783,-0.0013690471398346,0.0013690471538316,-0.0013690471537402,0.0013690471394554,0.6870973132305,0.32446844578257,1368840,32768,0.0058014014221553,0.0058014014221835,0.0058014014220453,33.391688868293,33.381465358655,0.00018233351094634,0.00018233351094634,0.00018233351094634,406948.77426607,0.017556736176987
14256000,0.99876507733357,0.016895818277388,0.005631939425798,0.0056319394258572,0.005631939425733,-0.0013959502728585,0.0013959502720394,6.3337770956927e-12,-7.1812922046879e-12,1.8243560318814e-14,-8.7605041373179e-13,-0.0014211787121639,0.0014211787162338,-0.0014211787167761,0.0014211787116137,-0.0014211787131048,0.0014211787164773,-0.0014211787175029,0.0014211787120488,-0.001368498424931,0.0013684984378112,-0.0013684984388718,0.0013684984237125,-7.2369897972823e-13,2.2064155366964e-13,4.283200915858e-13,1.2039191034507e-13,-0.0013959502725448,0.0013959502723723,-0.0014211787143153,0.0014211787144397,-0.0014211787144418,0.0014211787145849,-0.0014211787139441,0.0014211787149982,-0.001421178714077,0.0014211787147431,-0.0013684984311715,0.0013684984311124,-0.0013684984300858,0.001368498429433,-0.0013684984321631,0.0013684984289779,-0.0013684984312023,0.0013684984297437,-7.0108773519211e-12,7.0150076375084e-12,-0.0013959502724407,0.0013959502724158,-1.7140708716056e-13,1.6045871574344e-13,-0.001421178716977,0.0014211787120941,-0.0014211787168189,0.0014211787117741,-0.0014211787122255,0.0014211787168122,-0.0014211787119628,0.001421178716831,-0.0013684984224708,0.0013684984367998,-0.0013684984368034,0.0013684984224794,0.6836822608031,0.28029564701839,1368840,32768,0.0057995620449682,0.0057995620450081,0.0057995620448825,33.24048009001,33.230261404706,0.00018112384072008,0.00018112384072008,0.00018112384072008,412644.14989272,0.017551121742636
14342400,0.99882057897471,0.016896651842455,0.0056322172808204,0.0056322172808796,0.0056322172807554,-0.0013952557951432,0.0013952557942216,6.295582615449e-12,-7.2416214204953e-12,3.8346887352443e-14,-9.4215462958749e-13,-0.0014206076738178,0.0014206076778737,-0.0014206076784097,0.0014206076730903,-0.001420607674858,0.0014206076780438,-0.0014206076792137,0.0014206076736903,-0.001367693789931,0.0013676938027424,-0.0013676938044263,0.0013676937885196,-7.1952866595198e-13,3.115167186722e-13,4.6548416213131e-13,1.2563439724952e-13,-0.0013952557947563,0.0013952557946274,-0.0014206076759574,0.0014206076761222,-0.0014206076758899,0.0014206076761837,-0.001420607675696,0.00142060767683,-0.0014206076757774,0.0014206076763947,-0.0013676937961101,0.001367693796142,-0.0013676937952759,0.0013676937948351,-0.0013676937974644,0.0013676937943727,-0.0013676937961254,0.001367693795032,-7.0412199543872e-12,7.0069722065147e-12,-0.0013952557947154,0.001395255794597,-2.4159991340613e-13,1.1958805254944e-13,-0.0014206076786249,0.0014206076737643,-0.0014206076785188,0.0014206076733158,-0.0014206076738768,0.0014206076784009,-0.001420607673762,0.0014206076784539,-0.0013676937879368,0.0013676938020956,-0.0013676938023247,0.0013676937872678,0.68609895203368,0.33016534651402,1368840,32768,0.005796684954774,0.0057966849548131,0.0057966849546656,32.967806827255,32.94967694497,0.00017894245461804,0.00017894245461804,0.00017894245461804,418808.89406073,0.017542339607701
14428800,0.99887256787494,0.016897432762423,0.0056324775874763,0.0056324775875355,0.0056324775874113,-0.0013948781250245,0.0013948781236435,6.0039963467388e-12,-7.4551249569323e-12,-2.0305220865911e-13,-1.25436909165e-12,-0.0014201247163851,0.0014201247187866,-0.0014201247192974,0.0014201247143531,-0.0014201247150017,0.0014201247188744,-0.001420124719688,0.0014201247140607,-0.0013674167682981,0.0013674167792613,-0.0013674167813245,0.0013674167659244,-6.8155417898767e-13,4.0325568081576e-13,3.9343977480259e-13,1.0347210370414e-13,-0.001394878124425,0.0013948781242082,-0.0014201247165017,0.0014201247171745,-0.0014201247170501,0.0014201247176544,-0.0014201247164981,0.0014201247182508,-0.001420124716779,0.0014201247173673,-0.0013674167735247,0.0013674167730827,-0.0013674167724905,0.0013674167706709,-0.0013674167737434,0.0013674167704213,-0.001367416772878,0.0013674167708438,-6.8721420607773e-12,7.1003708238393e-12,-0.0013948781242702,0.0013948781243458,-6.4800667442914e-14,2.5066269536789e-13,-0.0014201247191738,0.0014201247146726,-0.0014201247202739,0.0014201247147791,-0.0014201247146432,0.0014201247197502,-0.0014201247151312,0.0014201247201686,-0.0013674167648087,0.0013674167787706,-0.001367416777792,0.0013674167641927,0.68623946339749,0.34057045049573,1368840,32768,0.0057951205893266,0.0057951205892544,0.0057951205892192,32.615295412327,32.591717266077,0.00017612236329861,0.00017612236329861,0.00017612236329861,410738.21080069,0.017537563665529
14515200,0.9989212938178,0.016898164960803,0.0056327216536028,0.005632721653662,0.0056327216535378,-0.0013942892627482,0.0013942892617355,6.1850471098799e-12,-7.2859674186966e-12,8.7963077494245e-14,-1.0179320793443e-12,-0.0014195131387607,0.001419513142336,-0.0014195131433308,0.0014195131376723,-0.001419513139126,0.0014195131430748,-0.0014195131442408,0.0014195131376233,-0.0013668493667495,0.0013668493798247,-0.0013668493802152,0.0013668493644011,-8.2812270141992e-13,3.2478160755659e-13,4.7991495657456e-13,1.1414271890064e-13,-0.001394289262205,0.0013942892622887,-0.0014195131404658,0.0014195131410495,-0.0014195131404299,0.0014195131412512,-0.0014195131400186,0.0014195131415579,-0.0014195131404444,0.0014195131410754,-0.0013668493727561,0.0013668493718089,-0.0013668493716753,0.0013668493711069,-0.0013668493742096,0.0013668493701105,-0.0013668493727205,0.0013668493707733,-6.880079641819e-12,7.0921158701401e-12,-0.0013942892622505,0.0013942892622854,-2.4869184381135e-13,1.3765005959105e-13,-0.001419513142987,0.0014195131381695,-0.0014195131431368,0.0014195131379595,-0.0014195131384052,0.0014195131433135,-0.0014195131384108,0.0014195131440138,-0.0013668493639122,0.0013668493788615,-0.0013668493776509,0.0013668493639664,0.68643188952483,0.35097555447743,1368840,32768,0.0057926811985309,0.0057926811985515,0.005792681198639,32.257822531378,32.233757587194,0.00017326258025102,0.00017326258025102,0.00017326258025102,408396.24111301,0.01753011708614
14601600,0.9989669985607,0.016898852019182,0.0056329506730627,0.0056329506731218,0.0056329506729976,-0.0013936962166341,0.0013936962146484,5.5993115331115e-12,-7.9468944631232e-12,-4.0244135275174e-13,-1.5890629846284e-12,-0.001418900860439,0.001418900863299,-0.0014189008651963,0.0014189008582099,-0.0014189008609928,0.0014189008633707,-0.0014189008658637,0.0014189008593019,-0.0013662751338391,0.0013662751460614,-0.0013662751493967,0.0013662751322794,-9.4132018449098e-13,3.0729390649974e-13,3.5561357742578e-13,1.0309026242795e-13,-0.001393696215778,0.0013936962156106,-0.0014189008618762,0.0014189008620685,-0.001418900862409,0.0014189008620395,-0.0014189008612397,0.0014189008627252,-0.0014189008618723,0.001418900862107,-0.001366275139898,0.0013662751390336,-0.0013662751386506,0.0013662751382193,-0.0013662751417077,0.0013662751372506,-0.0013662751398119,0.0013662751374609,-7.3622110895048e-12,6.6890959174172e-12,-0.0013936962158889,0.0013936962151963,-5.3372604797677e-13,-2.4710865688251e-13,-0.0014189008648982,0.0014189008587816,-0.0014189008645734,0.001418900858709,-0.001418900860023,0.0014189008642014,-0.0014189008597672,0.0014189008643452,-0.0013662751310528,0.0013662751445076,-0.0013662751452105,0.0013662751298148,0.68667201204412,0.36138065845908,1368840,32768,0.0057902244689991,0.0057902244692189,0.0057902244685908,31.899887628158,31.875797908318,0.00017039910102526,0.00017039910102526,0.00017039910102526,406101.38693201,0.017522617636012
14688000,0.99900990451332,0.016899497289161,0.0056331657630557,0.0056331657631149,0.0056331657629906,-0.0013930999290843,0.0013930999280494,6.0926868137765e-12,-7.3498134682436e-12,3.1155989382381e-14,-1.214845887292e-12,-0.0014182854689752,0.0014182854726639,-0.00141828547347,0.0014182854680166,-0.0014182854691348,0.0014182854727415,-0.0014182854739801,0.0014182854684347,-0.0013656975200361,0.0013656975329547,-0.001365697535516,0.0013656975195068,-7.8591225562594e-13,5.2030851669667e-13,2.570291185251e-13,6.5200478758364e-14,-0.0013930999287197,0.0013930999286055,-0.0014182854705212,0.0014182854708098,-0.0014182854710701,0.0014182854705387,-0.0014182854705789,0.0014182854714886,-0.0014182854703365,0.0014182854712095,-0.0013656975280695,0.0013656975271344,-0.0013656975258757,0.0013656975260942,-0.0013656975275793,0.001365697524587,-0.0013656975267268,0.0013656975262528,-6.6026111182919e-12,7.3601445055787e-12,-0.0013930999282368,0.0013930999290407,2.6854694313405e-13,4.9352383495032e-13,-0.0014182854732191,0.0014182854687388,-0.0014182854724945,0.0014182854689263,-0.0014182854678156,0.0014182854736865,-0.0014182854677655,0.0014182854739867,-0.0013656975184525,0.0013656975340076,-0.0013656975330867,0.0013656975186852,0.68695616243885,0.37178576244071,1368840,32768,0.005787754309042,0.0057877543094386,0.0057877543093401,31.541906831925,31.517838229423,0.0001675352546554,0.0001675352546554,0.0001675352546554,403814.83007479,0.01751507724705
14774400,0.99905021551151,0.016900103836518,0.0056333679455079,0.0056333679455672,0.0056333679454429,-0.0013925006485354,0.0013925006475737,6.1342682493745e-12,-7.2461393412994e-12,1.9317903968941e-13,-1.1171178728158e-12,-0.0014176668184133,0.0014176668222964,-0.0014176668230353,0.0014176668173882,-0.0014176668190813,0.0014176668228839,-0.0014176668231667,0.0014176668180004,-0.0013651170262519,0.0013651170388044,-0.0013651170415156,0.0013651170252326,-7.0799334187763e-13,6.6358449265513e-13,5.9701026174631e-13,3.7226592164927e-13,-0.0013925006479678,0.0013925006481771,-0.0014176668200312,0.0014176668206806,-0.0014176668203934,0.0014176668209072,-0.0014176668196754,0.0014176668210215,-0.0014176668197233,0.0014176668210158,-0.0013651170330937,0.0013651170337017,-0.0013651170316617,0.0013651170328987,-0.0013651170339032,0.0013651170313171,-0.0013651170329431,0.0013651170326115,-6.9707761063984e-12,6.9103755986513e-12,-0.0013925006480085,0.0013925006480434,-1.4421494727353e-13,1.1528012533013e-13,-0.0014176668227898,0.0014176668185961,-0.0014176668224449,0.0014176668182063,-0.0014176668181411,0.0014176668227143,-0.0014176668175143,0.0014176668229819,-0.0013651170253745,0.0013651170395784,-0.0013651170396084,0.0013651170247786,0.68728112427686,0.38219086642241,1368840,32768,0.0057852717417183,0.0057852717417922,0.0057852717416,31.18392141422,31.159878550546,0.00016467137131376,0.00016467137131376,0.00016467137131376,401533.16893136,0.01750749903972
14860800,0.99908811845087,0.016900674467279,0.0056335581557617,0.0056335581558209,0.0056335581556967,-0.0013918985476043,0.0013918985468783,6.3180433998757e-12,-7.0023002021824e-12,2.6232363325189e-13,-1.0513762341189e-12,-0.0014170450680555,0.0014170450718307,-0.001417045072281,0.0014170450666717,-0.0014170450690108,0.0014170450729347,-0.001417045073882,0.0014170450675844,-0.001364533823043,0.0013645338356807,-0.0013645338357816,0.0013645338228046,-9.7269396133775e-13,3.7230962619648e-13,2.8653412893199e-13,-3.325766047189e-14,-0.0013918985476198,0.001391898547049,-0.0014170450707904,0.0014170450698949,-0.0014170450721085,0.0014170450699287,-0.001417045070612,0.0014170450707234,-0.001417045069648,0.0014170450700354,-0.0013645338286954,0.001364533829813,-0.0013645338295505,0.00136453382909,-0.0013645338288721,0.0013645338284331,-0.0013645338278371,0.0013645338277838,-6.7868913710097e-12,7.0313967544792e-12,-0.0013918985472098,0.0013918985472973,-1.3824848248611e-13,1.978939838864e-13,-0.0014170450730435,0.0014170450684054,-0.0014170450730994,0.0014170450678144,-0.0014170450692871,0.0014170450734645,-0.0014170450678987,0.0014170450728697,-0.0013645338203744,0.0013645338345171,-0.0013645338344383,0.0013645338226998,0.68764405745783,0.39259597040415,1368840,32768,0.0057827774841886,0.0057827774845742,0.0057827774842394,30.825935535195,30.801918871653,0.00016180748428156,0.00016180748428156,0.00016180748428156,399257.55510289,0.017499885206724
14947200,0.99912365179261,0.016901209761592,0.0056337365871992,0.0056337365872584,0.0056337365871342,-0.0013911653283777,0.0013911653271829,6.1786652460179e-12,-7.1360817623064e-12,-7.4727187723945e-14,-1.1926650354901e-12,-0.0014162937576784,0.0014162937621598,-0.0014162937624614,0.0014162937559653,-0.0014162937599255,0.0014162937614725,-0.0014162937632256,0.0014162937584268,-0.0013638183948348,0.0013638184069247,-0.0013638184076645,0.001363818392388,-8.9505718602912e-13,2.7948869710627e-13,3.4132351397741e-13,-1.0156922065944e-13,-0.0013911653278472,0.0013911653274431,-0.0014162937599395,0.0014162937595615,-0.0014162937603726,0.0014162937603057,-0.001416293759345,0.001416293761067,-0.0014162937608951,0.0014162937603586,-0.0013638184006163,0.0013638183995844,-0.0013638183987441,0.0013638183987446,-0.0013638184012223,0.001363818396851,-0.0013638183988932,0.0013638183978484,-6.626308923752e-12,7.1827668949312e-12,-0.0013911653275875,0.0013911653277647,-1.4489560295055e-13,3.103559011932e-13,-0.0014162937628712,0.0014162937590515,-0.0014162937626795,0.0014162937573172,-0.0014162937590075,0.0014162937630105,-0.0014162937575228,0.0014162937632661,-0.0013638183910708,0.0013638184050332,-0.0013638184039558,0.0013638183916641,0.68804315792656,0.40300107438585,1368840,32768,0.0057797400366568,0.0057797400360969,0.0057797400362255,30.401571207312,30.373290101466,0.0001584125696585,0.0001584125696585,0.0001584125696585,397034.35043095,0.017490613378091
15033600,0.99915666520299,0.016901705710148,0.0056339019033847,0.0056339019034439,0.0056339019033197,-0.0013900909453689,0.0013900909444001,6.2075884212583e-12,-7.1436251789191e-12,1.4628059005191e-13,-1.0610501150591e-12,-0.0014152025627453,0.0014152025667917,-0.001415202567427,0.0014152025622444,-0.0014152025639644,0.0014152025668383,-0.0014152025682353,0.00141520256249,-0.0013627607195874,0.0013627607315989,-0.001362760733008,0.0013627607179432,-7.6948263989237e-13,4.8796326952765e-13,4.2592789995973e-13,1.6466091089867e-13,-0.0013900909449294,0.0013900909448819,-0.0014152025650075,0.0014152025650896,-0.001415202565082,0.0014152025653429,-0.0014152025645947,0.0014152025658139,-0.0014152025646827,0.0014152025655576,-0.0013627607251986,0.0013627607253027,-0.0013627607242749,0.0013627607238514,-0.0013627607264855,0.0013627607227873,-0.0013627607247274,0.0013627607241216,-6.981734712797e-12,6.8783548121584e-12,-0.0013900909449193,0.0013900909448246,-1.681014528513e-13,1.1959878751561e-13,-0.0014152025676954,0.0014152025627897,-0.0014152025676268,0.0014152025624782,-0.0014152025629516,0.0014152025675013,-0.0014152025628552,0.0014152025676066,-0.001362760717165,0.0013627607309307,-0.0013627607309953,0.0013627607170442,0.68606453804458,0.37427876945461,1368840,32768,0.005775289245049,0.0057752892451366,0.0057752892449969,29.802449483454,29.762787355813,0.00015361959586763,0.00015361959586763,0.00015361959586763,394868.31204866,0.017477027522023
15120000,0.99918735496345,0.016902164089581,0.0056340546965289,0.0056340546965881,0.0056340546964638,-0.001388814118787,0.0013888141178839,6.2315113963102e-12,-7.0910256093292e-12,1.2342564119609e-13,-1.1053041160709e-12,-0.0014139948097151,0.0014139948138014,-0.0014139948146561,0.0014139948088668,-0.0014139948106098,0.0014139948140723,-0.0014139948150447,0.0014139948091802,-0.0013614214104135,0.0013614214246771,-0.0013614214240859,0.0013614214099794,-6.9643590083187e-13,5.8525782665748e-13,6.2161483362294e-13,3.2559064166468e-13,-0.0013888141182945,0.0013888141184231,-0.001413994812034,0.001413994812235,-0.0014139948127127,0.001413994812338,-0.0014139948116107,0.0014139948130026,-0.0014139948114374,0.0014139948120248,-0.001361421416744,0.0013614214167502,-0.0013614214149317,0.0013614214151804,-0.0013614214175288,0.0013614214134789,-0.0013614214161365,0.0013614214148864,-6.7363474445037e-12,7.0948036115609e-12,-0.0013888141181696,0.0013888141184998,-1.5501938191135e-14,3.0693865264662e-13,-0.0014139948141344,0.0014139948101576,-0.0014139948141545,0.0014139948097445,-0.0014139948096681,0.001413994814547,-0.00141399480964,0.0014139948146376,-0.0013614214061856,0.0013614214211774,-0.0013614214216029,0.0013614214079155,0.68207978283249,0.31554913324883,1368840,32768,0.0057699996548432,0.0057699996549402,0.0057699996548403,29.192927956776,29.152284610153,0.00014874342365421,0.00014874342365421,0.00014874342365421,398001.45603046,0.017460881906412
15206400,0.99921591569302,0.016902587939607,0.0056341959798709,0.0056341959799301,0.0056341959798058,-0.0013873815619735,0.0013873815611035,6.1797908586901e-12,-7.0428395519684e-12,3.5214688921308e-14,-9.4178181744723e-13,-0.0014127094508112,0.0014127094547505,-0.0014127094551896,0.0014127094502434,-0.0014127094518145,0.0014127094549263,-0.0014127094561032,0.0014127094505794,-0.0013598560186652,0.0013598560307632,-0.0013598560316945,0.0013598560170058,-7.1408577340508e-13,3.1165442034786e-13,5.115124618807e-13,1.4476469518499e-13,-0.0013873815616057,0.0013873815614983,-0.0014127094529865,0.0014127094530387,-0.0014127094530643,0.0014127094530432,-0.0014127094525616,0.0014127094535727,-0.0014127094526253,0.0014127094532942,-0.0013598560243771,0.0013598560246572,-0.0013598560232128,0.0013598560225596,-0.0013598560253218,0.0013598560219645,-0.0013598560244726,0.0013598560227569,-6.8604517708488e-12,6.8717145444258e-12,-0.0013873815615538,0.0013873815615015,-2.3498279202524e-13,1.5752012904465e-13,-0.001412709455537,0.0014127094507858,-0.0014127094554278,0.0014127094504975,-0.0014127094508984,0.0014127094553656,-0.0014127094506715,0.0014127094553925,-0.0013598560155724,0.0013598560295631,-0.0013598560292148,0.0013598560158696,0.67774697667644,0.25467942007145,1368840,32768,0.0057640647961018,0.0057640647961577,0.0057640647960571,28.582452343352,28.541781864492,0.00014385961874682,0.00014385961874682,0.00014385961874682,405762.0931946,0.017442767305854
15292800,0.99924252432769,0.016902989672313,0.0056343298907729,0.0056343298908321,0.0056343298907078,-0.0013859169927013,0.0013859169919474,6.3337652137027e-12,-7.0082784901381e-12,8.8794522682401e-14,-8.6419259950929e-13,-0.00141140419646,0.0014114042006427,-0.0014114042008622,0.0014114041963884,-0.0014114041973921,0.0014114042004498,-0.0014114042015821,0.0014114041961228,-0.0013582476822082,0.0013582476954385,-0.0013582476966727,0.0013582476813709,-8.632303053773e-13,1.456145515754e-13,2.6792190340505e-13,2.0272677742434e-13,-0.0013859169925115,0.0013859169922027,-0.0014114041988713,0.0014114041989913,-0.0014114041988314,0.0014114041984199,-0.0014114041982672,0.0014114041996441,-0.0014114041980333,0.0014114041994472,-0.0013582476881983,0.0013582476884581,-0.0013582476874282,0.0013582476867953,-0.0013582476895294,0.0013582476858703,-0.0013582476903115,0.0013582476867253,-6.9853176621638e-12,6.8644647659016e-12,-0.0013859169923706,0.0013859169922353,-4.6710778900121e-14,4.2023098576125e-14,-0.0014114042013785,0.0014114041966246,-0.0014114042009575,0.0014114041960446,-0.0014114041968018,0.0014114042007207,-0.0014114041965084,0.0014114042011488,-0.0013582476803517,0.0013582476939846,-0.0013582476944645,0.0013582476798711,0.68959763159004,0.46598060193546,1368840,32768,0.005757997275042,0.0057579972751776,0.0057579972749534,27.971885214758,27.931279118827,0.00013897508171806,0.00013897508171806,0.00013897508171806,414480.36790762,0.017424248118321
15379200,0.99926734071396,0.016903367835719,0.0056344559452416,0.0056344559453008,0.0056344559451766,-0.0013857523450871,0.0013857523442638,6.359985765624e-12,-6.9608068227179e-12,1.1752723315311e-13,-9.9675066759836e-13,-0.0014107608280295,0.0014107608318767,-0.0014107608326268,0.0014107608275168,-0.0014107608288189,0.0014107608324361,-0.0014107608331968,0.0014107608274357,-0.0013585258841153,0.0013585258978588,-0.0013585258975626,0.0013585258841313,-8.2157472498551e-13,3.4127675070012e-13,5.4949494860063e-13,2.871400810088e-13,-0.0013857523447205,0.0013857523446212,-0.0014107608299246,0.0014107608301383,-0.0014107608303809,0.0014107608302805,-0.0014107608296281,0.0014107608310187,-0.0014107608294641,0.0014107608306649,-0.0013585258915206,0.0013585258912522,-0.0013585258887049,0.0013585258894691,-0.0013585258933969,0.001358525888554,-0.0013585258909109,0.0013585258898499,-7.0720855996982e-12,6.7550391087803e-12,-0.0013857523448057,0.0013857523445049,-2.0484765380949e-13,8.1509745227351e-14,-0.001410760833025,0.0014107608275427,-0.0014107608325207,0.0014107608271252,-0.0014107608281607,0.0014107608325654,-0.0014107608278029,0.0014107608324668,-0.0013585258826767,0.0013585258962916,-0.0013585258977939,0.0013585258837158,0.69611494045557,0.58118402251387,1368840,32768,0.0057573158953877,0.0057573158953686,0.0057573158953043,27.361308677072,27.320776373172,0.00013409046941658,0.00013409046941658,0.00013409046941658,384338.44684913,0.017422165909296
15465600,0.9992905093696,0.01690372279888,0.0056345742662953,0.0056345742663545,0.0056345742662303,-0.0013850682233835,0.001385068222582,6.3481736558877e-12,-6.9867542065137e-12,1.3434818987267e-13,-1.0247728115411e-12,-0.0014098410872302,0.0014098410912589,-0.0014098410915482,0.0014098410865172,-0.0014098410890294,0.0014098410916288,-0.0014098410929387,0.0014098410871316,-0.0013580573038372,0.0013580573169568,-0.0013580573175335,0.0013580573030735,-7.7964903519832e-13,4.2621480295975e-13,3.9626077685821e-13,2.7525067951597e-13,-0.0013850682229469,0.0013850682229058,-0.0014098410896574,0.0014098410894323,-0.001409841089623,0.0014098410897708,-0.0014098410886312,0.0014098410901157,-0.0014098410887723,0.0014098410897849,-0.0013580573095692,0.0013580573088892,-0.0013580573090841,0.0013580573083398,-0.0013580573109942,0.0013580573078372,-0.0013580573099284,0.0013580573085244,-7.1401422264973e-12,6.7080736906004e-12,-0.0013850682230638,0.0013850682227313,-2.9200546178652e-13,-1.4599086360874e-13,-0.0014098410920215,0.001409841087205,-0.0014098410919669,0.0014098410865715,-0.001409841087092,0.0014098410919308,-0.0014098410871519,0.0014098410915439,-0.0013580573007925,0.0013580573143765,-0.0013580573153938,0.0013580573009339,0.69958334122641,0.63479025455408,1368840,32768,0.0057544820936685,0.0057544820934348,0.0057544820933156,26.750730701098,26.710273627511,0.00012920584560878,0.00012920584560878,0.00012920584560878,369691.98158683,0.017413515196175
15552000,0.99931216113355,0.016904055415971,0.0056346851386589,0.005634685138718,0.0056346851385938,-0.0013841220620673,0.0013841220612363,6.2015517233223e-12,-7.0149966966662e-12,1.14677320216e-13,-9.0514246616603e-13,-0.0014087874035689,0.0014087874074204,-0.0014087874080702,0.0014087874030287,-0.0014087874044788,0.0014087874077232,-0.0014087874088221,0.0014087874033441,-0.0013572072422898,0.0013572072548533,-0.0013572072559674,0.0013572072414778,-8.06762324553e-13,2.6440921659758e-13,3.0885282946395e-13,1.861511955617e-13,-0.0013841220617462,0.0013841220615756,-0.0014087874057569,0.0014087874057992,-0.0014087874057524,0.0014087874060393,-0.0014087874053928,0.0014087874064445,-0.0014087874053317,0.001408787406198,-0.0013572072487148,0.0013572072476621,-0.0013572072475232,0.0013572072466644,-0.0013572072503273,0.0013572072463766,-0.0013572072486296,0.0013572072469569,-6.9500224462908e-12,6.7777035046338e-12,-0.0013841220617157,0.001384122061538,-1.9347753057072e-13,-4.5668546033737e-14,-0.001408787408238,0.0014087874035071,-0.0014087874082558,0.0014087874030764,-0.0014087874036623,0.0014087874080624,-0.001408787403461,0.0014087874080826,-0.0013572072401028,0.0013572072535254,-0.0013572072542202,0.0013572072399793,0.70132927724395,0.65271059529583,1368840,32768,0.0057505625038689,0.0057505625039067,0.0057505625037656,26.140152027433,26.09977088185,0.00012432121621947,0.00012432121621947,0.00012432121621947,362638.01890455,0.017401551240069
15638400,0.99933287670314,0.016904374466165,0.0056347914887236,0.0056347914887828,0.0056347914886586,-0.0013837837519149,0.0013837837511001,6.2097672958717e-12,-6.9861176377251e-12,1.1741782473076e-13,-9.3214593534623e-13,-0.0014084018069579,0.0014084018109332,-0.0014084018114651,0.001408401806361,-0.001408401807934,0.001408401811141,-0.0014084018122257,0.0014084018067661,-0.0013569070490511,0.0013569070614475,-0.0013569070624787,0.0013569070476422,-7.8567770396781e-13,3.1380517817309e-13,3.9259924165678e-13,2.3876779404308e-13,-0.0013837837515777,0.001383783751477,-0.0014084018091091,0.0014084018092143,-0.0014084018091773,0.001408401809435,-0.0014084018087167,0.0014084018098371,-0.0014084018087826,0.0014084018096467,-0.0013569070549915,0.0013569070547597,-0.0013569070537235,0.0013569070534577,-0.0013569070561861,0.0013569070526395,-0.0013569070548086,0.001356907053326,-6.886030812956e-12,6.8217360712339e-12,-0.001383783751544,0.0013837837514505,-1.3580596886793e-13,4.2965952125538e-14,-0.0014084018117302,0.0014084018069715,-0.0014084018116428,0.0014084018065712,-0.0014084018070661,0.0014084018116068,-0.0014084018068885,0.0014084018115419,-0.0013569070464577,0.0013569070603291,-0.0013569070603325,0.0013569070464216,0.70313732343426,0.67063093603757,1368840,32768,0.0057491610079372,0.0057491610080195,0.005749161007895,25.91417722134,25.898385426056,0.00012251341777072,0.00012251341777072,0.00012251341777072,359254.62456544,0.017397273388456
15724800,0.9993527620257,0.016904684328917,0.0056348947763076,0.0056348947763668,0.0056348947762425,-0.0013835390166796,0.0013835390158612,6.1637236436501e-12,-6.9682853589596e-12,6.7896572865128e-14,-9.3529713319695e-13,-0.0014081192407731,0.0014081192447169,-0.0014081192454141,0.0014081192402709,-0.0014081192417217,0.0014081192450078,-0.0014081192460535,0.0014081192408761,-0.0013566936741897,0.0013566936862336,-0.0013566936873837,0.0013566936728482,-7.7462271816062e-13,2.7945946270524e-13,3.5178960601019e-13,2.2463572576807e-13,-0.0013835390163658,0.0013835390161987,-0.0014081192432242,0.0014081192430089,-0.0014081192431732,0.0014081192433133,-0.0014081192426243,0.0014081192437748,-0.0014081192426793,0.001408119243432,-0.0013566936800342,0.0013566936799334,-0.0013566936787301,0.0013566936782888,-0.0013566936810441,0.0013566936775164,-0.0013566936800981,0.0013566936785068,-6.8439759800552e-12,6.8000493219845e-12,-0.0013835390162961,0.00138353901621,-1.0181262498831e-13,5.0002295993592e-14,-0.0014081192457105,0.0014081192408193,-0.0014081192457223,0.0014081192405171,-0.0014081192409991,0.0014081192456009,-0.0014081192407783,0.0014081192454584,-0.0013566936717887,0.0013566936853245,-0.0013566936853076,0.0013566936715076,0.71137696310136,0.79804980302724,1368840,32768,0.0057481471506506,0.0057481471506996,0.0057481471505789,25.737768313035,25.725959157768,0.00012110214650428,0.00012110214650428,0.00012110214650428,356115.81031308,0.017394178801808
15811200,0.99937186020672,0.016904984535816,0.0056349948452741,0.0056349948453333,0.005634994845209,-0.0013836674152862,0.0013836674144911,6.1864558315503e-12,-6.9216699594987e-12,5.4209285120021e-14,-8.5479923941117e-13,-0.0014080319671242,0.0014080319713927,-0.001408031971852,0.0014080319668654,-0.0014080319681002,0.0014080319716159,-0.0014080319723935,0.0014080319673926,-0.0013570158930351,0.0013570159064752,-0.0013570159071089,0.001357015892481,-6.4589703299488e-13,3.1139460475563e-13,3.6530745775498e-13,2.4031230568284e-13,-0.0013836674149233,0.0013836674149276,-0.0014080319693658,0.0014080319695367,-0.0014080319692384,0.0014080319699496,-0.0014080319692456,0.0014080319703585,-0.0014080319688599,0.00140803197006,-0.0013570158996037,0.0013570158991243,-0.0013570158977778,0.001357015897822,-0.0013570159002531,0.0013570158967901,-0.0013570158998484,0.0013570158975756,-6.8891042484764e-12,6.7304374191686e-12,-0.0013836674149244,0.0013836674148242,-9.6593490311646e-14,5.231801936748e-14,-0.0014080319721604,0.001408031967394,-0.0014080319717808,0.0014080319668238,-0.0014080319674196,0.0014080319719958,-0.0014080319673104,0.0014080319717958,-0.0013570158904906,0.0013570159043164,-0.0013570159052553,0.001357015890673,0.71758703448399,0.84262532356392,1368840,32768,0.0057486793977445,0.0057486793978969,0.0057486793976852,25.56496110469,25.55353288948,0.00011971968883752,0.00011971968883752,0.00011971968883752,342519.36660439,0.01739580217357
15897600,0.99939020816634,0.016905274177672,0.0056350913925593,0.0056350913926185,0.0056350913924942,-0.0013835202220358,0.001383520221223,6.1500764723265e-12,-6.9727860449962e-12,2.8330840394626e-14,-8.5936221766237e-13,-0.0014077955970292,0.0014077956009638,-0.0014077956015134,0.0014077955964676,-0.0014077955979529,0.0014077956011936,-0.0014077956022168,0.0014077955968928,-0.001356934830631,0.0013569348430539,-0.0013569348441015,0.0013569348292802,-7.3954837789293e-13,1.9835205812784e-13,3.3240213946046e-13,2.0415632198803e-13,-0.0013835202217272,0.0013835202215591,-0.0014077955991545,0.0014077955992367,-0.0014077955992427,0.001407795599442,-0.0014077955987694,0.0014077955998152,-0.0014077955988676,0.0014077955996054,-0.0013569348368072,0.001356934836411,-0.0013569348354714,0.0013569348350674,-0.0013569348375636,0.0013569348342607,-0.0013569348366001,0.0013569348349004,-6.833438537261e-12,6.801075261231e-12,-0.0013835202216536,0.0013835202215746,-1.088841148415e-13,4.387733604809e-14,-0.0014077956017698,0.0014077955969942,-0.0014077956016496,0.0014077955966191,-0.0014077955971305,0.0014077956015927,-0.00140779559693,0.0014077956015595,-0.0013569348280527,0.0013569348419096,-0.001356934841904,0.0013569348279501,0.72050768321573,0.82628061128144,1368840,32768,0.0057480696209175,0.0057480696209744,0.0057480696208543,25.392491554402,25.381106621192,0.00011833993243521,0.00011833993243521,0.00011833993243521,336216.66364934,0.017393940944815
15984000,0.99940784053755,0.016905553338037,0.0056351844460143,0.0056351844460735,0.0056351844459492,-0.0013831820294237,0.0013831820286386,6.1617152932391e-12,-7.0146352371203e-12,1.2195945069309e-13,-8.0025202343823e-13,-0.0014074635931639,0.0014074635967723,-0.0014074635973781,0.001407463592554,-0.0014074635941619,0.0014074635972578,-0.0014074635984717,0.0014074635930937,-0.0013565766532258,0.0013565766659601,-0.0013565766671216,0.0013565766522505,-6.9226729288586e-13,2.8270365771496e-13,3.5044376477178e-13,1.6019166507812e-13,-0.001383182029098,0.0013831820289417,-0.001407463593826,0.0014074635938722,-0.0014074635937751,0.0014074635942247,-0.0014074635935162,0.0014074635944818,-0.0014074635937781,0.0014074635941112,-0.0013565766599463,0.0013565766595994,-0.0013565766584917,0.0013565766578078,-0.0013565766603711,0.0013565766572918,-0.0013565766588738,0.001356576657947,-6.8357303496006e-12,6.8516901267463e-12,-0.0013831820290038,0.0013831820289906,-1.1159612022689e-13,1.0102856070564e-13,-0.0014074635962495,0.0014074635913172,-0.0014074635959958,0.0014074635912169,-0.0014074635918395,0.0014074635961795,-0.001407463591487,0.0014074635963844,-0.0013565766510318,0.0013565766650117,-0.0013565766650706,0.0013565766508659,0.72255837748045,0.80993589899898,1368840,32768,0.0057466684141778,0.0057466684141306,0.0057466684140368,25.22005527577,25.208680352906,0.00011696044220616,0.00011696044220616,0.00011696044220616,335349.48504072,0.01738966472063
16070400,0.99942479011516,0.016905822195816,0.0056352740652741,0.0056352740653332,0.005635274065209,-0.0013828374266598,0.0013828374258447,6.2015415471626e-12,-7.0396293559201e-12,5.0597748391165e-14,-8.470971217644e-13,-0.001407129575392,0.0014071295791571,-0.0014071295798401,0.0014071295747009,-0.0014071295763855,0.0014071295795975,-0.0014071295806149,0.0014071295750632,-0.001356211969189,0.0013562119815041,-0.0013562119831451,0.0013562119680951,-6.6305459707837e-13,2.877382097952e-13,3.8313606016224e-13,1.6742297357837e-13,-0.0013828374264947,0.0013828374263684,-0.0014071295773959,0.0014071295771676,-0.001407129577312,0.001407129577543,-0.0014071295767963,0.0014071295780102,-0.0014071295770368,0.0014071295776262,-0.0013562119751059,0.0013562119745896,-0.001356211973835,0.0013562119733557,-0.0013562119749698,0.0013562119717507,-0.001356211973341,0.0013562119728368,-6.8742593490367e-12,6.8776711271622e-12,-0.0013828374263995,0.0013828374263824,-1.3872408560382e-13,1.004599898398e-13,-0.0014071295797053,0.0014071295750861,-0.0014071295795877,0.0014071295747055,-0.0014071295752014,0.0014071295796758,-0.0014071295749936,0.0014071295796281,-0.0013562119657008,0.001356211979517,-0.0013562119794615,0.0013562119652781,0.72392200748319,0.7935911867165,1368840,32768,0.0057452406747438,0.0057452406754867,0.0057452406753185,25.047622299151,25.036254084616,0.0001155809783932,0.0001155809783932,0.0001155809783932,334858.79190636,0.017385307447292
16156800,0.99944108799136,0.016906081008214,0.0056353603360732,0.0056353603361323,0.0056353603360081,-0.0013824874081109,0.0013824874072602,6.1812232266969e-12,-7.0493964104844e-12,1.5561230497443e-14,-9.1569437910645e-13,-0.0014067936679775,0.0014067936717416,-0.0014067936724722,0.0014067936673853,-0.0014067936688768,0.0014067936720953,-0.0014067936732588,0.0014067936678163,-0.0013558413898056,0.0013558414023007,-0.0013558414035972,0.0013558413886706,-6.3080693516349e-13,3.5188354431691e-13,4.119986490182e-13,2.2192930844726e-13,-0.0013824874080285,0.0013824874079405,-0.0014067936713663,0.0014067936714291,-0.0014067936715631,0.0014067936715613,-0.0014067936708773,0.0014067936720701,-0.0014067936712383,0.0014067936717183,-0.0013558413958749,0.0013558413951919,-0.0013558413943949,0.0013558413943071,-0.0013558413948543,0.001355841391821,-0.0013558413930377,0.0013558413929293,-6.8561014919821e-12,6.8887026430981e-12,-0.0013824874079544,0.0013824874079665,-5.8568946053019e-14,1.5558304116254e-13,-0.0014067936740344,0.0014067936692873,-0.0014067936739746,0.001406793668776,-0.0014067936693584,0.0014067936738076,-0.001406793669138,0.0014067936739167,-0.0013558413853408,0.0013558413994202,-0.0013558413993142,0.0013558413852782,0.72473971096103,0.77724647443405,1368840,32768,0.005743790515877,0.005743790517116,0.0057437905170166,24.875189645443,24.863827816329,0.00011420151716354,0.00011420151716354,0.00011420151716354,334663.09364084,0.017380881699269
16243200,0.9994567636559,0.016906330070316,0.005635443356774,0.0056354433568333,0.005635443356709,-0.0013821327380278,0.0013821327372177,6.2564070475298e-12,-6.9994734650079e-12,-1.0858256523011e-14,-8.5679000212415e-13,-0.0014064561377038,0.0014064561414807,-0.0014064561420185,0.0014064561370585,-0.0014064561383288,0.0014064561411029,-0.0014064561428672,0.0014064561370691,-0.0013554654075802,0.0013554654201385,-0.0013554654210727,0.0013554654064265,-5.7059783333375e-13,3.2485472297003e-13,4.0083119605857e-13,2.5752898560744e-13,-0.0013821327378287,0.0013821327377822,-0.001406456140896,0.0014064561413161,-0.0014064561410515,0.0014064561411069,-0.0014064561400954,0.0014064561421271,-0.0014064561407604,0.0014064561412267,-0.0013554654136954,0.001355465413536,-0.0013554654123474,0.001355465412022,-0.0013554654127709,0.0013554654096283,-0.0013554654115907,0.0013554654105024,-6.8883244487693e-12,6.8815855664023e-12,-0.0013821327378352,0.0013821327377711,-5.7701884305866e-14,1.1090946473316e-13,-0.0014064561438167,0.0014064561386768,-0.0014064561434546,0.0014064561383265,-0.0014064561393685,0.0014064561431993,-0.0014064561382929,0.0014064561434559,-0.0013554654033505,0.0013554654171419,-0.0013554654175177,0.0013554654035884,0.72512200054559,0.76090176215157,1368840,32768,0.0057423210991868,0.0057423210999443,0.005742321099935,24.70275702163,24.691401548041,0.00011282205617304,0.00011282205617304,0.00011282205617304,334705.90729911,0.017376397141661
16329600,0.99947184508756,0.016906569700972,0.0056355232336592,0.0056355232337185,0.0056355232335942,-0.0013817740408262,0.0013817740401712,6.3486453473602e-12,-6.9034168112375e-12,4.10079825284e-14,-7.5426936935322e-13,-0.001406117160137,0.0014061171641821,-0.0014061171645974,0.0014061171595837,-0.0014061171610065,0.0014061171645619,-0.001406117165169,0.0014061171600537,-0.0013550844064169,0.0013550844193895,-0.0013550844195932,0.0013550844056243,-7.0900716384724e-13,1.3693228740085e-13,2.3347742624842e-13,9.9818568258317e-14,-0.0013817740407298,0.0013817740404053,-0.0014061171631232,0.0014061171628103,-0.0014061171629821,0.0014061171632469,-0.00140611716267,0.0014061171634649,-0.0014061171629315,0.0014061171634664,-0.0013550844129087,0.0013550844117525,-0.0013550844117429,0.001355084410672,-0.001355084412452,0.001355084409121,-0.0013550844120278,0.0013550844099128,-6.8627195250998e-12,6.9041589356249e-12,-0.0013817740405545,0.0013817740405507,-1.0016517531677e-13,5.7450597864847e-14,-0.0014061171656669,0.0014061171608089,-0.0014061171650324,0.0014061171605167,-0.0014061171608614,0.0014061171657614,-0.0014061171604975,0.0014061171655507,-0.0013550844032293,0.0013550844172165,-0.0013550844174627,0.0013550844033931,0.72515656960889,0.7445570498691,1368840,32768,0.005740835008428,0.0057408350087136,0.0057408350086518,24.530324404509,24.518975279753,0.00011144259523607,0.00011144259523607,0.00011144259523607,334941.90463411,0.017371861673928
16416000,0.9994864081675,0.016906796753411,0.0056355989178054,0.0056355989178647,0.0056355989177404,-0.0013815220516716,0.0013815220508538,6.2225157299452e-12,-7.0539290955434e-12,5.3975998129131e-15,-8.7291315663167e-13,-0.0014058863241255,0.0014058863281369,-0.0014058863286849,0.0014058863236142,-0.0014058863251712,0.0014058863284365,-0.001405886329429,0.0014058863240147,-0.0013548095657884,0.0013548095781408,-0.0013548095790731,0.0013548095643413,-7.302910430511e-13,1.9802400932597e-13,3.4931062291789e-13,2.1530204031752e-13,-0.0013815220513613,0.0013815220512102,-0.0014058863264372,0.001405886326547,-0.0014058863264288,0.00140588632668,-0.0014058863260543,0.0014058863271066,-0.0014058863261456,0.0014058863268617,-0.0013548095718796,0.0013548095716216,-0.0013548095702361,0.0013548095702049,-0.0013548095724298,0.0013548095691242,-0.0013548095715861,0.001354809570088,-6.920796633237e-12,6.8679523652402e-12,-0.0013815220513019,0.0013815220512174,-1.0091924051589e-13,5.756382969981e-14,-0.0014058863290727,0.0014058863241673,-0.0014058863288827,0.0014058863238647,-0.0014058863244256,0.0014058863288924,-0.0014058863241994,0.0014058863288623,-0.0013548095630353,0.0013548095769612,-0.0013548095768113,0.0013548095630175,0.71157456119723,0.52307539463863,1368840,32768,0.0057397909987709,0.0057397909988664,0.0057397909987586,24.415091194736,24.407384628375,0.00011052072955789,0.00011052072955789,0.00011052072955789,335315.68939745,0.017368675461089
16502400,0.99950047833547,0.016907019483645,0.005635673161217,0.0056356731612764,0.0056356731611521,-0.0013805435466418,0.0013805435458125,6.2386637660455e-12,-7.0809165063907e-12,1.7492230330253e-14,-8.9322077154209e-13,-0.0014052944726381,0.0014052944767043,-0.0014052944772622,0.0014052944721313,-0.0014052944735434,0.0014052944768108,-0.0014052944779619,0.0014052944724702,-0.0013534799466345,0.001353479959298,-0.0013534799604133,0.0013534799453104,-7.2561877402101e-13,2.3543774871486e-13,3.4175685368036e-13,2.1338292247466e-13,-0.0013805435463177,0.0013805435461691,-0.0014052944748888,0.0014052944749832,-0.0014052944749258,0.0014052944751536,-0.0014052944744742,0.0014052944755843,-0.0014052944745435,0.0014052944753374,-0.0013534799526175,0.0013534799525897,-0.001353479951259,0.0013534799508826,-0.001353479953478,0.0013534799503695,-0.0013534799526881,0.0013534799510853,-6.9524718420517e-12,6.8789964984377e-12,-0.0013805435462595,0.0013805435461759,-1.1273623245607e-13,4.0334591335333e-14,-0.0014052944775559,0.0014052944727068,-0.0014052944774592,0.0014052944723211,-0.0014052944728456,0.0014052944773836,-0.0014052944725623,0.0014052944773637,-0.0013534799439242,0.0013534799579974,-0.0013534799580036,0.001353479943791,0.72247547008037,0.7324856110273,1368840,32768,0.0057357366181115,0.0057357366181788,0.0057357366180725,24.305830852534,24.298625314242,0.00010964664682027,0.00010964664682027,0.00010964664682027,357292.25103659,0.01735630327513
16588800,0.99951407504352,0.016907237824008,0.0056357459413378,0.0056357459413971,0.0056357459412728,-0.0013810796734966,0.0013810796726607,6.233268283815e-12,-7.0584859563345e-12,5.1865886121016e-14,-9.21957834821e-13,-0.0014054766887787,0.0014054766927671,-0.0014054766933247,0.0014054766882226,-0.0014054766897412,0.0014054766929705,-0.0014054766940626,0.0014054766886172,-0.0013543418736034,0.001354341886252,-0.0013543418873286,0.0013543418723689,-7.395969940548e-13,2.8448695617759e-13,3.3819155083321e-13,2.4858078838049e-13,-0.0013810796731609,0.0013810796730302,-0.0014054766909877,0.0014054766910349,-0.0014054766910357,0.0014054766912609,-0.0014054766905843,0.0014054766916497,-0.0014054766906524,0.001405476691451,-0.0013543418798131,0.0013543418795931,-0.0013543418784061,0.0013543418780063,-0.0013543418806064,0.0013543418773537,-0.0013543418795528,0.0013543418782097,-6.9439585727145e-12,6.8596033555908e-12,-0.0013810796731204,0.0013810796730128,-9.6381996772628e-14,1.8169150827267e-14,-0.0014054766936051,0.0014054766887852,-0.001405476693518,0.0014054766883847,-0.0014054766889197,0.0014054766934295,-0.0014054766887398,0.0014054766933851,-0.0013543418710293,0.0013543418849654,-0.001354341885157,0.0013543418709131,0.73311497495866,0.90536956812686,1368840,32768,0.0057379583196411,0.0057379583197111,0.0057379583195912,24.197025144829,24.189866000108,0.00010877620115863,0.00010877620115863,0.00010877620115863,335758.90112554,0.017363081898326
16675200,0.99952721655423,0.016907450560167,0.0056358168533908,0.0056358168534501,0.0056358168533258,-0.0013814176394892,0.0013814176386524,6.2257731010229e-12,-7.0460532773207e-12,5.1158907718721e-14,-9.2262775553185e-13,-0.0014055546453372,0.0014055546493282,-0.0014055546498838,0.0014055546447876,-0.0014055546462901,0.0014055546495271,-0.0014055546506165,0.0014055546451763,-0.0013549139384852,0.0013549139510076,-0.001354913952139,0.0013549139372646,-7.464331969782e-13,2.7779598411161e-13,3.3948745242077e-13,2.4553679313716e-13,-0.0013814176391516,0.0013814176390235,-0.0014055546475569,0.0014055546475921,-0.0014055546475878,0.0014055546478279,-0.0014055546471277,0.0014055546482198,-0.00140555464719,0.001405554648019,-0.0013549139446412,0.0013549139443718,-0.001354913943351,0.0013549139428273,-0.0013549139455482,0.0013549139422523,-0.0013549139445232,0.0013549139431297,-6.9460890958637e-12,6.8376186742665e-12,-0.0013814176391148,0.001381417639003,-1.090304927227e-13,9.708673994909e-15,-0.0014055546501328,0.0014055546453358,-0.0014055546500581,0.0014055546449305,-0.0014055546454513,0.0014055546499756,-0.0014055546452759,0.0014055546499169,-0.0013549139360533,0.0013549139498504,-0.001354913950067,0.0013549139358859,0.73881636401912,0.93026865924923,1368840,32768,0.0057393588787665,0.005739358878836,0.0057393588787174,24.0882600871,24.081106685975,0.0001079060806968,0.0001079060806968,0.0001079060806968,319855.96428389,0.017367355007683
16761600,0.99953992031709,0.016907657219718,0.0056358857399078,0.0056358857399671,0.0056358857398428,-0.0013813173587901,0.0013813173579906,6.2630920197791e-12,-7.0584084881128e-12,5.3381722166207e-14,-8.7777389049252e-13,-0.0014054013863539,0.0014054013903026,-0.0014054013909001,0.0014054013857666,-0.0014054013872776,0.0014054013905673,-0.001405401391555,0.0014054013862222,-0.0013548499411618,0.0013548499534505,-0.0013548499547288,0.0013548499396697,-7.0575102802583e-13,2.7565428483317e-13,4.2665761296162e-13,1.7569127981082e-13,-0.001381317358468,0.0013813173583388,-0.0014054013882912,0.0014054013884005,-0.0014054013884053,0.0014054013885602,-0.0014054013878578,0.0014054013889745,-0.0014054013880213,0.0014054013887077,-0.0013548499475738,0.001354849947432,-0.0013548499458827,0.0013548499454948,-0.0013548499482078,0.0013548499450666,-0.0013548499470805,0.0013548499458785,-6.9212875005943e-12,6.9121974253487e-12,-0.0013813173583959,0.0013813173583529,-1.4300233725911e-13,1.3218799115937e-13,-0.0014054013909187,0.0014054013860922,-0.0014054013907763,0.0014054013857184,-0.0014054013862465,0.0014054013907501,-0.0014054013859898,0.0014054013907236,-0.0013548499391714,0.0013548499531181,-0.0013548499528407,0.0013548499388622,0.74227977285315,0.91509256745445,1368840,32768,0.0057389433920892,0.0057389433921433,0.0057389433920234,23.979498366352,23.972347371842,0.00010703598693081,0.00010703598693081,0.00010703598693081,315690.63174459,0.017366087027237
16848000,0.99955220303571,0.016907857760813,0.0056359525869396,0.0056359525869989,0.0056359525868746,-0.0013811035299695,0.0013811035291639,6.2211310075416e-12,-7.047384648413e-12,6.7048775235352e-14,-8.6540332722827e-13,-0.0014051891677499,0.0014051891717542,-0.0014051891723196,0.0014051891671912,-0.0014051891686399,0.0014051891720108,-0.001405189173052,0.0014051891676268,-0.0013546236204081,0.0013546236326753,-0.0013546236339314,0.0013546236192031,-7.4484086326996e-13,2.3799531764171e-13,4.0593556953523e-13,1.5151475368122e-13,-0.001381103529639,0.0013811035294998,-0.0014051891694112,0.0014051891695687,-0.0014051891695291,0.0014051891696831,-0.0014051891690437,0.0014051891701144,-0.001405189169152,0.0014051891698688,-0.0013546236265086,0.0013546236262583,-0.0013546236252417,0.0013546236246649,-0.0013546236275942,0.001354623624134,-0.0013546236264827,0.0013546236248686,-6.8993691113625e-12,6.8811555795381e-12,-0.0013811035295503,0.0013811035295241,-1.2440314074591e-13,1.5402432407439e-13,-0.0014051891720099,0.0014051891672027,-0.0014051891718548,0.0014051891668703,-0.0014051891673217,0.0014051891718725,-0.0014051891671002,0.0014051891719046,-0.0013546236180956,0.0013546236317515,-0.0013546236317891,0.001354623617884,0.74495605685023,0.89991647565968,1368840,32768,0.0057380573992551,0.005738057399266,0.0057380573991328,23.870736902798,23.863588057709,0.00010616589522238,0.00010616589522238,0.00010616589522238,314711.31390697,0.017363383363896
16934400,0.99956408070502,0.016908052215934,0.0056360174053134,0.0056360174053727,0.0056360174052484,-0.0013808839574355,0.0013808839566325,6.2096613579315e-12,-7.0582012591494e-12,6.2006223399497e-14,-8.8059627485886e-13,-0.0014049758971029,0.0014049759009925,-0.0014049759015701,0.001404975896469,-0.0014049758980548,0.0014049759011907,-0.0014049759022426,0.0014049758968489,-0.00135438974134,0.001354389753905,-0.001354389755016,0.0013543897402028,-7.7005624001634e-13,2.2204909890539e-13,4.1907013887139e-13,1.6240589155267e-13,-0.0013808839571472,0.0013808839569879,-0.0014049758991409,0.0014049758991845,-0.0014049758992707,0.0014049758994416,-0.0014049758987245,0.0014049758999308,-0.0014049758989938,0.0014049758995834,-0.0013543897472511,0.0013543897471101,-0.001354389746393,0.0013543897458444,-0.0013543897484588,0.0013543897451052,-0.0013543897473389,0.0013543897457177,-6.8902243319057e-12,6.8897953744218e-12,-0.0013808839570494,0.0013808839570095,-1.6012140251871e-13,1.2053167078137e-13,-0.0014049759017828,0.0014049758969724,-0.0014049759016399,0.0014049758966107,-0.0014049758970537,0.0014049759016164,-0.0014049758968836,0.0014049759016485,-0.0013543897388326,0.0013543897526315,-0.0013543897527278,0.0013543897387323,0.74697645970174,0.8847403838649,1368840,32768,0.005737147632835,0.0057371476329739,0.0057371476328162,23.761975328173,23.754828743575,0.00010529580262538,0.00010529580262538,0.00010529580262538,314060.17968222,0.017360607074513
17020800,0.99957556864304,0.016908239742642,0.0056360799142159,0.0056360799142752,0.005636079914151,-0.0013806590851044,0.0013806590842471,6.2059618827127e-12,-7.0811049123997e-12,4.543243559969e-14,-9.275069594167e-13,-0.0014047609793317,0.0014047609833096,-0.0014047609838253,0.0014047609787274,-0.0014047609801915,0.0014047609833553,-0.0014047609845609,0.0014047609790729,-0.0013541490767004,0.0013541490891937,-0.0013541490903244,0.0013541490752969,-7.1800865356379e-13,3.0487803912636e-13,4.7679169904676e-13,1.8662085768443e-13,-0.0013806590847506,0.0013806590846731,-0.0014047609818265,0.0014047609820864,-0.0014047609820127,0.0014047609822596,-0.0014047609813976,0.0014047609826769,-0.0014047609815554,0.0014047609824227,-0.0013541490824721,0.0013541490823559,-0.0013541490813267,0.0013541490808596,-0.0013541490826258,0.0013541490793844,-0.0013541490816269,0.0013541490802237,-6.9345473308097e-12,6.8645040588189e-12,-0.0013806590847184,0.0013806590846424,-1.9867010723518e-13,1.1556564601943e-13,-0.0014047609845819,0.0014047609797737,-0.0014047609844216,0.0014047609794029,-0.0014047609799099,0.0014047609843703,-0.0014047609796285,0.0014047609843569,-0.0013541490731816,0.0013541490871921,-0.0013541490872197,0.0013541490731161,0.74480068230212,0.8168373588107,1368840,32768,0.0057362159265088,0.0057362159266586,0.0057362159265285,23.653212044299,23.646069429442,0.00010442569635439,0.00010442569635439,0.00010442569635439,313682.54511348,0.017357763771105
17107200,0.99958668152494,0.01690842088062,0.0056361402935419,0.0056361402936012,0.0056361402934769,-0.001380272753472,0.0013802727526246,6.229691275443e-12,-7.1040963864965e-12,6.0217572159211e-14,-8.9149688302923e-13,-0.0014044643944409,0.0014044643985247,-0.0014044643991065,0.0014044643938525,-0.0014044643953322,0.0014044643986523,-0.0014044643996535,0.0014044643943186,-0.0013536762509291,0.0013536762635856,-0.0013536762646366,0.0013536762496003,-6.9472083557888e-13,3.0792400489772e-13,4.7462408879518e-13,2.1941262062446e-13,-0.0013802727530781,0.001380272753029,-0.0014044643965541,0.0014044643968763,-0.0014044643969217,0.0014044643971464,-0.0014044643962622,0.0014044643974817,-0.0014044643963381,0.001404464397255,-0.0013536762567505,0.0013536762570637,-0.0013536762557725,0.0013536762551271,-0.0013536762576462,0.0013536762542962,-0.001353676256354,0.0013536762552767,-6.9179133095558e-12,6.9283209327866e-12,-0.0013802727530618,0.0013802727530269,-1.556433334383e-13,1.239697716321e-13,-0.0014044643993625,0.00140446439466,-0.0014044643992218,0.0014044643942951,-0.0014044643948479,0.0014044643992907,-0.0014044643945718,0.0014044643991555,-0.0013536762477848,0.0013536762619649,-0.0013536762617492,0.0013536762474971,0.74370788527867,0.78518100685759,1368840,32768,0.00573461521543,0.0057346152154518,0.005734615215414,23.544449515788,23.537310115309,0.0001035555961263,0.0001035555961263,0.0001035555961263,318022.349117,0.017352879006956
17193600,0.99959724097003,0.016908592356823,0.005636197452276,0.0056361974523354,0.0056361974522111,-0.0013793980851396,0.0013793980843213,6.2987025789598e-12,-7.086766033574e-12,1.5991558527688e-13,-8.9851843323157e-13,-0.0014036448016441,0.0014036448055426,-0.0014036448062084,0.0014036448010486,-0.0014036448030747,0.0014036448065832,-0.0014036448073358,0.0014036448012082,-0.001352750308749,0.0013527503211618,-0.0013527503224956,0.0013527503070314,-7.575915325693e-13,3.521257133894e-13,3.3984532384099e-13,1.028767983609e-13,-0.0013793980848756,0.0013793980846548,-0.0014036448041781,0.0014036448037359,-0.001403644804265,0.0014036448039019,-0.0014036448039413,0.0014036448052301,-0.0014036448036593,0.0014036448044952,-0.0013527503146499,0.0013527503147961,-0.0013527503141647,0.0013527503128775,-0.0013527503160678,0.0013527503120143,-0.0013527503147472,0.0013527503125256,-7.0020313280434e-12,6.8949225119089e-12,-0.0013793980847836,0.0013793980845955,-2.5274777872885e-13,1.0183365375766e-14,-0.0014036448066626,0.001403644801644,-0.0014036448064346,0.0014036448017754,-0.001403644802051,0.001403644806263,-0.0014036448017487,0.0014036448064514,-0.0013527503060473,0.001352750320327,-0.0013527503198929,0.0013527503058457,0.74096817310104,0.73653500939555,1368840,32768,0.005730991490583,0.0057309914907272,0.0057309914904138,23.134001216794,23.107758060958,0.00010027200973435,0.00010027200973435,0.00010027200973435,320087.74017134,0.017341819656549
17280000,0.99960726545282,0.01690875431007,0.0056362514366919,0.0056362514367513,0.005636251436627,-0.0013784164440046,0.0013784164429892,6.1042595778835e-12,-7.2227631142506e-12,3.7426974278685e-14,-1.0288533927645e-12,-0.0014027408144478,0.0014027408184245,-0.0014027408190808,0.0014027408138565,-0.0014027408158964,0.0014027408185854,-0.0014027408198072,0.0014027408143523,-0.0013516960370703,0.0013516960492691,-0.0013516960509578,0.0013516960349863,-8.2607379342441e-13,2.9200531473219e-13,4.0864192803431e-13,8.1395160492542e-14,-0.0013784164436439,0.0013784164434353,-0.0014027408168958,0.0014027408169965,-0.0014027408169829,0.0014027408170089,-0.001402740816132,0.0014027408174976,-0.001402740816371,0.0014027408170229,-0.001351696043534,0.001351696043075,-0.0013516960427322,0.0013516960409562,-0.001351696044495,0.0013516960402899,-0.0013516960422062,0.0013516960412824,-6.8502664937667e-12,6.990214600801e-12,-0.001378416443513,0.001378416443531,-1.4529050265135e-13,2.0668430358346e-13,-0.0014027408197305,0.001402740814588,-0.0014027408194659,0.0014027408143935,-0.0014027408149199,0.0014027408189816,-0.0014027408147336,0.0014027408197579,-0.0013516960342621,0.0013516960486825,-0.0013516960482284,0.0013516960341651,0.73718362871075,0.67931440928827,1368840,32768,0.0057269245629954,0.0057269245631722,0.0057269245630997,22.699088401538,22.670708915563,9.6792707212302e-05,9.6792707212302e-05,9.6792707212302e-05,323777.1399248,0.017329407802914
17366400,0.99961678646833,0.016908907254327,0.0056363024181109,0.0056363024181702,0.0056363024180459,-0.0013773932428353,0.001377393241831,6.2648171435484e-12,-7.1442280428549e-12,-1.0497073439259e-13,-1.224181249162e-12,-0.0014018145659133,0.0014018145697373,-0.0014018145705995,0.0014018145657343,-0.0014018145670171,0.0014018145697109,-0.0014018145712157,0.0014018145646398,-0.0013505832601744,0.0013505832738954,-0.0013505832750786,0.0013505832594252,-8.8763379516156e-13,2.8012944223783e-13,3.4432521639511e-13,-1.0559118602645e-13,-0.0013773932425115,0.0013773932422434,-0.0014018145682226,0.0014018145679865,-0.0014018145674853,0.0014018145681326,-0.0014018145675719,0.0014018145685644,-0.0014018145670126,0.0014018145686559,-0.0013505832662613,0.0013505832677927,-0.0013505832662966,0.0013505832645532,-0.0013505832687366,0.0013505832645077,-0.001350583266165,0.0013505832654789,-6.9635663266522e-12,6.9605561244942e-12,-0.0013773932424515,0.0013773932422349,-4.1534301743827e-13,5.5602889605184e-14,-0.0014018145705455,0.0014018145659943,-0.0014018145703167,0.0014018145651675,-0.0014018145662144,0.001401814570705,-0.0014018145659133,0.0014018145702287,-0.0013505832585833,0.0013505832729241,-0.0013505832733061,0.0013505832587552,0.73302927620867,0.62191897194069,1368840,32768,0.0057226854295734,0.0057226854297569,0.0057226854296149,22.262205481443,22.233659770169,9.3297643851544e-05,9.3297643851544e-05,9.3297643851544e-05,328622.98358257,0.017316470577128
17452800,0.99962583433165,0.016909051734581,0.0056363505781955,0.0056363505782548,0.0056363505781306,-0.0013763575235024,0.001376357522672,6.4159105865709e-12,-7.0228723384237e-12,-1.1373293730154e-13,-8.6831512062792e-13,-0.0014008820073137,0.0014008820106932,-0.001400882011092,0.0014008820063052,-0.0014008820069465,0.0014008820109521,-0.0014008820119412,0.0014008820064644,-0.0013494527714482,0.0013494527875757,-0.001349452787642,0.0013494527712612,-7.9443528937076e-13,6.9393174203808e-15,5.0397148636997e-13,2.2145823460295e-13,-0.0013763575232258,0.0013763575229928,-0.0014008820089321,0.0014008820092635,-0.0014008820081672,0.0014008820095572,-0.0014008820082095,0.0014008820093531,-0.0014008820089042,0.001400882009113,-0.0013494527786041,0.0013494527802645,-0.0013494527779523,0.0013494527767897,-0.001349452779957,0.0013494527750311,-0.0013494527778885,0.0013494527758852,-6.8642003622142e-12,7.0864190441743e-12,-0.001376357523001,0.0013763575230711,-1.2123447284066e-13,1.8184735645279e-13,-0.001400882011445,0.0014008820064916,-0.0014008820111439,0.0014008820064052,-0.0014008820071158,0.0014008820108841,-0.0014008820061733,0.0014008820109393,-0.0013494527662772,0.0013494527832432,-0.001349452783586,0.0013494527679832,0.7287269491325,0.56601547915425,1368840,32768,0.0057183944199365,0.0057183944200281,0.0057183944197246,21.82513588961,21.796610624775,8.9801087116877e-05,8.9801087116877e-05,8.9801087116877e-05,333879.4958576,0.017303375181991
17539200,0.99963443729584,0.016909188316007,0.0056363961053376,0.0056363961053969,0.0056363961052727,-0.0013753156116535,0.0013753156113658,6.6515682109217e-12,-6.6983579579976e-12,2.8971767873555e-13,-8.3146265821006e-13,-0.0013999467008207,0.0013999467057871,-0.0013999467051415,0.0013999467004731,-0.0013999467019325,0.0013999467054651,-0.0013999467063442,0.0013999467016332,-0.0013483133488356,0.0013483133620033,-0.0013483133612739,0.001348313347813,-9.7819658735395e-13,1.9176567110215e-13,4.5334547413636e-13,-1.1901989343572e-14,-0.0013753156115877,0.0013753156112735,-0.001399946702784,0.0013999467029225,-0.0013999467035466,0.0013999467035745,-0.0013999467030286,0.0013999467039217,-0.0013999467030977,0.0013999467036349,-0.0013483133546876,0.0013483133551124,-0.0013483133550501,0.0013483133538519,-0.0013483133549176,0.0013483133512022,-0.0013483133548236,0.0013483133543638,-7.059905207095e-12,6.803720062787e-12,-0.0013753156115403,0.0013753156113202,-3.1029316781554e-13,1.769048897947e-13,-0.0013999467061913,0.0013999467014515,-0.0013999467059938,0.00139994670095,-0.0013999467016063,0.0013999467059374,-0.0013999467014942,0.0013999467057076,-0.0013483133454433,0.0013483133595268,-0.0013483133594284,0.0013483133467743,0.72456884227168,0.51484623117263,1368840,32768,0.0057140777419445,0.005714077741617,0.0057140777416159,21.388048569541,21.359561479381,8.6304388556326e-05,8.6304388556326e-05,8.6304388556326e-05,339364.44372013,0.017290201602399
17625600,0.999642621631,0.01690931766163,0.0056364392205451,0.0056364392206044,0.0056364392204801,-0.0013742803941542,0.0013742803933332,6.3101221124538e-12,-7.0958960487759e-12,1.3119105102697e-13,-9.7459463856748e-13,-0.0013990143201344,0.0013990143242437,-0.0013990143245385,0.0013990143195982,-0.0013990143208376,0.0013990143242818,-0.0013990143257976,0.0013990143205447,-0.0013471843063333,0.001347184318718,-0.0013471843192592,0.0013471843038412,-7.713524063017e-13,3.823965533419e-13,5.2703801699741e-13,9.0965162253205e-14,-0.0013742803937939,0.0013742803937577,-0.0013990143222786,0.0013990143225422,-0.001399014322805,0.0013990143224381,-0.0013990143218781,0.0013990143230984,-0.0013990143220649,0.0013990143228507,-0.001347184311595,0.0013471843114926,-0.0013471843101014,0.0013471843101507,-0.0013471843131755,0.0013471843091442,-0.0013471843118433,0.001347184309879,-6.9565971866135e-12,6.9603787181491e-12,-0.0013742803938096,0.001374280393787,-1.912988030117e-13,2.709514285022e-13,-0.0013990143249523,0.0013990143205838,-0.0013990143249017,0.0013990143199323,-0.0013990143202282,0.0013990143250689,-0.0013990143203011,0.0013990143252438,-0.0013471843027568,0.0013471843181073,-0.0013471843166536,0.0013471843033506,0.72133971968245,0.47920502092112,1368840,32768,0.0057097887883538,0.0057097887884869,0.0057097887885802,20.950959802541,20.922512333987,8.2807678420322e-05,8.2807678420322e-05,8.2807678420322e-05,344682.17063952,0.017277112763102
17712000,0.99965041208634,0.016909440218343,0.0056364800727828,0.0056364800728421,0.0056364800727179,-0.0013732976256519,0.0013732976246088,6.1336082695365e-12,-7.2756504985773e-12,2.3563986018755e-15,-1.113532041184e-12,-0.0013981100937423,0.0013981100974958,-0.0013981100983911,0.0013981100930342,-0.0013981100946347,0.0013981100973669,-0.0013981100990397,0.0013981100934354,-0.0013461302613467,0.0013461302732383,-0.0013461302748479,0.0013461302584468,-9.1027325060056e-13,2.5532655289025e-13,3.959871969806e-13,7.8166729707122e-15,-0.0013732976252733,0.0013732976250307,-0.0013981100956,0.0013981100959571,-0.0013981100960886,0.0013981100961758,-0.0013981100954626,0.0013981100968185,-0.0013981100956509,0.0013981100962732,-0.001346130267702,0.0013461302668035,-0.0013461302659546,0.0013461302654218,-0.0013461302671987,0.0013461302642739,-0.0013461302671406,0.0013461302652352,-6.8971333561339e-12,7.0245550517238e-12,-0.0013732976250654,0.0013732976251827,-1.1996754095633e-13,2.9127986630591e-13,-0.0013981100984743,0.0013981100939096,-0.0013981100980537,0.0013981100932445,-0.0013981100936862,0.0013981100981755,-0.0013981100932912,0.0013981100986908,-0.0013461302581808,0.0013461302734608,-0.00134613027173,0.0013461302581014,0.71809250312627,0.44356381066962,1368840,32768,0.0057057171522289,0.0057057171523185,0.0057057171522031,20.514522652795,20.486155701445,7.931618122236e-05,7.931618122236e-05,7.931618122236e-05,348530.10967874,0.017264687156899
17798400,0.99965783865743,0.016909556512815,0.0056365188376068,0.0056365188376661,0.0056365188375419,-0.0013723409389142,0.0013723409380403,6.210060286921e-12,-7.1178056735696e-12,5.4867970879976e-14,-9.2378913181731e-13,-0.0013972330725247,0.0013972330765298,-0.0013972330771662,0.001397233072019,-0.0013972330737558,0.001397233076648,-0.0013972330779143,0.0013972330726822,-0.0013451013187184,0.0013451013305598,-0.0013451013323121,0.0013451013165378,-7.3260656054893e-13,2.9580455160929e-13,3.52125801622e-13,1.5249895890854e-13,-0.0013723409385894,0.001372340938421,-0.0013972330746346,0.0013972330749584,-0.0013972330750791,0.0013972330748259,-0.0013972330746029,0.0013972330755979,-0.0013972330743674,0.0013972330752196,-0.0013451013235636,0.0013451013234701,-0.0013451013224334,0.0013451013225707,-0.0013451013252624,0.0013451013222045,-0.0013451013230177,0.0013451013230814,-6.9902769224266e-12,6.8478593908314e-12,-0.0013723409385397,0.0013723409384139,-1.530601182361e-13,7.2866038698417e-14,-0.0013972330775841,0.0013972330724873,-0.0013972330771675,0.0013972330722428,-0.0013972330730889,0.0013972330774816,-0.0013972330725176,0.0013972330772436,-0.0013451013154557,0.0013451013295717,-0.0013451013287267,0.0013451013145365,0.71483190042152,0.40792260041811,1368840,32768,0.0057017535544836,0.0057017535545992,0.0057017535544818,20.094038282424,20.066711778894,7.5952306259393e-05,7.5952306259393e-05,7.5952306259393e-05,352501.96969135,0.017252591412317
17884800,0.99966491852654,0.016909666860442,0.0056365556201491,0.0056365556202084,0.0056365556200842,-0.0013713652508707,0.0013713652499046,6.1562670479146e-12,-7.1076155142837e-12,2.4348667929614e-15,-9.8759953539446e-13,-0.0013963362718774,0.0013963362756091,-0.0013963362763252,0.0013963362707997,-0.0013963362723521,0.0013963362756441,-0.0013963362770249,0.0013963362714712,-0.001344053596581,0.0013440536083219,-0.0013440536104905,0.0013440535947787,-6.3865119552672e-13,4.0341902876676e-13,5.7702663693821e-13,3.5485736523343e-13,-0.0013713652503296,0.0013713652505047,-0.001396336273788,0.001396336274044,-0.0013963362738926,0.0013963362743942,-0.0013963362732576,0.0013963362747349,-0.0013963362734421,0.0013963362748644,-0.0013440536010872,0.001344053602606,-0.0013440535999619,0.0013440536003066,-0.0013440536027148,0.0013440536002232,-0.001344053601596,0.0013440536008252,-6.8259357664655e-12,6.9485125512406e-12,-0.0013713652503119,0.0013713652504465,-3.5468269409892e-14,2.125983287964e-13,-0.0013963362762106,0.0013963362718173,-0.0013963362762657,0.0013963362717506,-0.0013963362718303,0.0013963362763803,-0.0013963362715022,0.001396336276511,-0.0013440535931086,0.0013440536074247,-0.001344053607076,0.0013440535927399,0.71156151108585,0.37228139016661,1368840,32768,0.0056977112227843,0.0056977112229064,0.0056977112227495,19.666235506011,19.647267856343,7.2529884048085e-05,7.2529884048085e-05,7.2529884048085e-05,356553.45003958,0.017240255508773
17971200,0.99967167434694,0.016909772135432,0.0056365907118127,0.005636590711872,0.0056365907117477,-0.0013703992427444,0.0013703992419439,6.1967189297844e-12,-7.0843232258471e-12,-2.4749832144911e-15,-8.2703479347829e-13,-0.0013954547966447,0.0013954548010559,-0.0013954548014374,0.0013954547962765,-0.0013954547976744,0.0013954548010959,-0.0013954548017702,0.0013954547969129,-0.0013430113398781,0.0013430113514022,-0.0013430113534069,0.0013430113376713,-7.1033453506166e-13,1.6501578241053e-13,4.5582933943246e-13,1.6531362625278e-13,-0.0013703992424393,0.0013703992423729,-0.0013954547989961,0.0013954547996048,-0.0013954547991641,0.001395454799632,-0.0013954547988471,0.0013954548001095,-0.0013954547988397,0.0013954547999091,-0.0013430113452806,0.0013430113454447,-0.0013430113438797,0.001343011343089,-0.001343011345691,0.0013430113438153,-0.0013430113445388,0.0013430113436346,-6.9538009779181e-12,6.838193480236e-12,-0.0013703992424162,0.0013703992423145,-2.1020543130954e-13,1.0344507511808e-13,-0.0013954548016319,0.0013954547966572,-0.0013954548015212,0.0013954547966417,-0.0013954547967256,0.0013954548016477,-0.0013954547969325,0.0013954548018354,-0.0013430113371479,0.0013430113509865,-0.0013430113499953,0.0013430113361909,0.71145773540166,0.3844551578311,1368840,32768,0.0056937089690708,0.0056937089693275,0.0056937089691585,19.246266956802,19.227823933792,6.9170135654412e-05,6.9170135654412e-05,6.9170135654412e-05,360841.27666991,0.01722804210668
18057600,0.99967812406262,0.016909872966896,0.0056366243223006,0.0056366243223599,0.0056366243222357,-0.001369635407817,0.0013696354071248,6.2286072497358e-12,-6.9565416000763e-12,1.2425467469322e-13,-8.5528545985159e-13,-0.0013946768233764,0.0013946768276402,-0.0013946768282026,0.0013946768235074,-0.0013946768245473,0.0013946768277053,-0.0013946768287622,0.0013946768232619,-0.0013422620743323,0.0013422620862654,-0.0013422620877376,0.0013422620716539,-5.0467420019666e-13,5.2223416375183e-13,6.6125441677853e-13,4.5452932032362e-13,-0.0013696354072969,0.0013696354076699,-0.0013946768257152,0.0013946768265326,-0.001394676825376,0.0013946768263996,-0.0013946768252119,0.001394676826939,-0.0013946768254364,0.0013946768267871,-0.0013422620794333,0.001342262080542,-0.0013422620783153,0.0013422620785082,-0.001342262080392,0.0013422620773708,-0.0013422620788357,0.0013422620782495,-6.989092252735e-12,6.7046716768825e-12,-0.0013696354076029,0.0013696354073894,-1.6146250860766e-13,6.8341059286373e-14,-0.0013946768286737,0.0013946768235829,-0.0013946768287613,0.0013946768234352,-0.0013946768238507,0.0013946768280887,-0.001394676823583,0.0013946768279768,-0.0013422620715133,0.0013422620858233,-0.0013422620851026,0.001342262070717,0.71381113545134,0.43343334366343,1368840,32768,0.0056905444453357,0.0056905444453876,0.0056905444454403,18.826787788406,18.808380011242,6.5814302307248e-05,6.5814302307248e-05,6.5814302307248e-05,359160.30936307,0.017218384839116
18144000,0.99968428426159,0.016909969482348,0.0056366564941177,0.0056366564941771,0.0056366564940528,-0.0013690239077071,0.0013690239076692,6.5170907308811e-12,-6.6175977781068e-12,5.1883162063836e-13,-4.0241464768521e-13,-0.001393975938676,0.0013939759437288,-0.0013939759425354,0.001393975939227,-0.0013939759395379,0.0013939759427071,-0.0013939759440548,0.0013939759390963,-0.0013417343874481,0.0013417344014753,-0.0013417344013859,0.0013417343880475,-8.9016012974848e-13,8.2710708538747e-14,2.0878894517045e-13,-2.4812741987764e-14,-0.00136902390794,0.0013690239074499,-0.0013939759408427,0.001393975941044,-0.0013939759412689,0.0013939759404238,-0.0013939759402391,0.0013939759410467,-0.001393975940735,0.0013939759406355,-0.0013417343937201,0.0013417343943117,-0.0013417343929688,0.0013417343923217,-0.0013417343953085,0.0013417343916566,-0.0013417343943172,0.0013417343919042,-6.9837538864067e-12,6.6648654811698e-12,-0.0013690239076471,0.0013690239074042,-1.981973569715e-13,7.1941802227325e-14,-0.001393975943205,0.0013939759378814,-0.001393975942962,0.0013939759374988,-0.0013939759383964,0.001393975943582,-0.0013939759384174,0.0013939759424772,-0.0013417343858231,0.0013417343999761,-0.0013417344004858,0.0013417343861505,0.71534987493491,0.46764876411549,1368840,32768,0.0056880111444706,0.0056880111444987,0.0056880111437975,18.407341504047,18.38893608869,6.2458732032373e-05,6.2458732032373e-05,6.2458732032373e-05,352971.52046012,0.017210653564747
18230400,0.99969017045433,0.016910061744396,0.0056366872481338,0.0056366872481931,0.0056366872480689,-0.0013683490367499,0.001368349035936,6.1910899840978e-12,-7.0760180677993e-12,4.458022633998e-14,-8.3019499105407e-13,-0.0013932349308253,0.0013932349348068,-0.001393234935407,0.001393234930338,-0.0013932349318379,0.0013932349351216,-0.0013932349361692,0.0013932349307575,-0.001341120494255,0.0013411205068201,-0.001341120507982,0.0013411204926182,-7.1149661720791e-13,2.1546041783213e-13,4.8646208009384e-13,1.2201527251718e-13,-0.0013683490364152,0.0013683490362915,-0.0013932349329501,0.0013932349331126,-0.001393234933194,0.0013932349332496,-0.0013932349325751,0.0013932349337576,-0.0013932349327017,0.0013932349333629,-0.0013411205002846,0.0013411205005605,-0.0013411204993094,0.0013411204987748,-0.0013411205012071,0.0013411204982,-0.0013411205000039,0.0013411204988264,-6.8965977254382e-12,6.8839358769549e-12,-0.0013683490363451,0.0013683490363251,-2.0163998709563e-13,1.8973470373504e-13,-0.0013932349357013,0.0013932349308547,-0.0013932349354335,0.0013932349305764,-0.0013932349310092,0.0013932349355119,-0.001393234930724,0.0013932349355584,-0.001341120491797,0.00134112050623,-0.0013411205057319,0.0013411204917458,0.71559316906345,0.47962916559167,1368840,32768,0.0056852152335555,0.0056852152335986,0.0056852152335232,17.987897488633,17.969492166139,5.9103179909061e-05,5.9103179909061e-05,5.9103179909061e-05,348545.30849361,0.017202121123636
18316800,0.99969580807173,0.016910150151365,0.0056367167171237,0.005636716717183,0.0056367167170588,-0.0013676462496983,0.0013676462489868,6.23777808722e-12,-7.012990816768e-12,-8.0985761234703e-15,-8.5657759684828e-13,-0.0013925128729399,0.0013925128771511,-0.0013925128775641,0.0013925128724858,-0.0013925128744058,0.0013925128773339,-0.0013925128782995,0.0013925128738508,-0.0013404364559834,0.0013404364709366,-0.0013404364700903,0.0013404364566128,-5.8786289413328e-13,3.0969148031433e-13,6.1651057778974e-13,1.095754172521e-13,-0.0013676462493597,0.0013676462493497,-0.0013925128759248,0.0013925128753376,-0.001392512875757,0.0013925128756938,-0.0013925128750386,0.0013925128761533,-0.001392512875485,0.0013925128756747,-0.0013404364641417,0.0013404364644608,-0.00134043646296,0.0013404364615149,-0.001340436463124,0.0013404364604023,-0.0013404364623498,0.0013404364622662,-6.8500656763721e-12,6.9129309323523e-12,-0.0013676462492841,0.0013676462493802,-1.5791017595252e-13,3.7306025032425e-13,-0.0013925128779381,0.0013925128733074,-0.0013925128780253,0.0013925128729748,-0.0013925128731604,0.0013925128778118,-0.0013925128729671,0.0013925128780924,-0.001340436453375,0.0013404364681042,-0.0013404364696142,0.0013404364546463,0.71588544969257,0.49160956706785,1368840,32768,0.0056823035953846,0.0056823035954348,0.0056823035953415,17.599329520717,17.582248092657,5.5994636165738e-05,5.5994636165738e-05,5.5994636165738e-05,346730.05390865,0.017193235835663
18403200,0.99970130366458,0.016910236369584,0.00563674545653,0.0056367454565893,0.005636745456465,-0.0013674738886687,0.0013674738878644,6.2148654930664e-12,-7.021556672734e-12,-1.5446586940901e-16,-8.6537479868803e-13,-0.0013923160144075,0.0013923160184043,-0.0013923160189636,0.0013923160138773,-0.0013923160153574,0.0013923160186453,-0.0013923160196723,0.0013923160143177,-0.001340286408418,0.0013402864211315,-0.0013402864219771,0.0013402864072178,-7.0658441433116e-13,2.0910661193654e-13,5.5232777382447e-13,2.0159590020716e-14,-0.0013674738883685,0.0013674738882031,-0.0013923160165619,0.0013923160167759,-0.0013923160167778,0.0013923160168414,-0.0013923160162106,0.0013923160173507,-0.0013923160164293,0.001392316016984,-0.0013402864145197,0.0013402864146364,-0.0013402864135385,0.0013402864126937,-0.0013402864153653,0.0013402864120109,-0.0013402864144582,0.0013402864128857,-6.8315984758265e-12,6.9169221633641e-12,-0.0013674738882275,0.001367473888282,-2.3328240279449e-13,3.221625110976e-13,-0.0013923160192604,0.0013923160144544,-0.0013923160190098,0.0013923160142058,-0.0013923160146028,0.0013923160190949,-0.0013923160142581,0.001392316019196,-0.0013402864057055,0.0013402864199966,-0.0013402864198141,0.0013402864060537,0.71621773191417,0.50358996854403,1368840,32768,0.0056815895460434,0.0056815895461232,0.0056815895459946,17.485298228087,17.48001874196,5.5082385824697e-05,5.5082385824697e-05,5.5082385824697e-05,344795.45770689,0.017191056658127
18489600,0.99970666521356,0.016910320530255,0.005636773510087,0.0056367735101463,0.005636773510022,-0.0013673226500575,0.0013673226492625,6.2298333299269e-12,-7.0372908391249e-12,3.6566824085095e-14,-8.4552522860819e-13,-0.0013921449255336,0.0013921449295268,-0.0013921449300835,0.0013921449249806,-0.0013921449264636,0.0013921449297514,-0.001392144930758,0.001392144925407,-0.0013401543592598,0.0013401543719189,-0.0013401543729069,0.0013401543580295,-7.1332709069997e-13,2.1909565971916e-13,5.4683832387633e-13,5.3115142074752e-15,-0.0013673226497616,0.0013673226495926,-0.0013921449276884,0.0013921449278816,-0.0013921449278964,0.0013921449279511,-0.0013921449273319,0.001392144928461,-0.0013921449275306,0.0013921449281039,-0.0013401543652806,0.0013401543653408,-0.0013401543642737,0.0013401543633955,-0.0013401543662825,0.0013401543629043,-0.0013401543652747,0.0013401543635869,-6.8565223614778e-12,6.9226131365676e-12,-0.0013673226496247,0.0013673226496698,-2.4676949077321e-13,3.1727201344013e-13,-0.0013921449303477,0.0013921449255384,-0.0013921449301156,0.0013921449252996,-0.0013921449256777,0.0013921449301689,-0.0013921449253567,0.0013921449302723,-0.0013401543564953,0.0013401543707543,-0.0013401543705726,0.0013401543567183,0.7165868174105,0.5155703700202,1368840,32768,0.0056809629959083,0.0056809629959791,0.0056809629958555,17.382328552941,17.377789391262,5.4258628423522e-05,5.4258628423522e-05,5.4258628423522e-05,342970.42183738,0.017189144555071
18576000,0.9997118968071,0.016910402100133,0.0056368007000463,0.0056368007001056,0.0056368006999813,-0.0013671726005669,0.0013671725998047,6.2429637523309e-12,-7.0151813380843e-12,5.7407069782836e-14,-8.1973078131673e-13,-0.0013919755769473,0.0013919755809964,-0.0013919755814905,0.0013919755764915,-0.0013919755779317,0.0013919755812806,-0.0013919755822879,0.001391975576843,-0.0013400231158817,0.0013400231283506,-0.001340023129305,0.0013400231144544,-6.8820332880188e-13,2.4016395727361e-13,5.6548754827298e-13,4.5086387347697e-14,-0.0013671726002771,0.0013671726001149,-0.0013919755792615,0.0013919755792986,-0.001391975579432,0.0013919755794522,-0.0013919755788164,0.0013919755799457,-0.0013919755789685,0.0013919755795307,-0.0013400231217568,0.001340023121864,-0.0013400231205999,0.0013400231200131,-0.0013400231228219,0.0013400231196446,-0.0013400231215833,0.0013400231199935,-6.8384873242005e-12,6.9316513310452e-12,-0.0013671726001317,0.0013671726002138,-2.3076018572884e-13,3.1217819846444e-13,-0.0013919755818325,0.0013919755770768,-0.0013919755816648,0.0013919755768178,-0.0013919755771336,0.0013919755816844,-0.0013919755767154,0.0013919755819387,-0.0013400231129726,0.0013400231272275,-0.0013400231268455,0.0013400231131759,0.71177083262153,0.44491818485884,1368840,32768,0.0056803413701621,0.0056803413702042,0.005680341370108,17.280049539703,17.275560040565,5.3440396317618e-05,5.3440396317618e-05,5.3440396317618e-05,341158.23409751,0.01718724749142
18662400,0.99971700218005,0.016910482328547,0.0056368274428509,0.0056368274429103,0.005636827442786,-0.0013667061484705,0.0013667061476491,6.2049272084389e-12,-7.0336781847831e-12,3.550185661912e-14,-8.8273732709824e-13,-0.0013916465516362,0.0013916465556108,-0.0013916465561637,0.0013916465510785,-0.0013916465525766,0.001391646555833,-0.0013916465568889,0.0013916465514956,-0.0013394317979159,0.0013394318104496,-0.0013394318115175,0.0013394317966376,-7.3362617645918e-13,2.3507305397368e-13,5.4344692748117e-13,2.8921469410138e-14,-0.0013667061481551,0.0013667061479992,-0.0013916465537751,0.0013916465539593,-0.0013916465539689,0.0013916465540423,-0.0013916465533897,0.0013916465545574,-0.0013916465535952,0.0013916465542083,-0.0013394318038927,0.00133943180403,-0.00133943180295,0.0013394318021229,-0.0013394318049199,0.001339431801506,-0.0013394318039073,0.0013394318022893,-6.843373410228e-12,6.9070492590922e-12,-0.0013667061480278,0.0013667061480683,-2.3780944096717e-13,2.9984016361823e-13,-0.0013916465564432,0.0013916465516471,-0.0013916465562142,0.0013916465513907,-0.0013916465517716,0.0013916465562778,-0.0013916465514464,0.0013916465563742,-0.0013394317952307,0.0013394318093934,-0.0013394318092076,0.0013394317953788,0.71734314515263,0.54534554436908,1368840,32768,0.0056784086350502,0.0056784086351222,0.0056784086350018,17.177816828383,17.173330689867,5.2622534627065e-05,5.2622534627065e-05,5.2622534627065e-05,348627.07787093,0.017181350321685
18748800,0.99972198493142,0.01691056121768,0.0056368537392285,0.0056368537392878,0.0056368537391636,-0.0013668887963029,0.0013668887954824,6.2131561923432e-12,-7.0313254919503e-12,4.1076098094575e-14,-8.8751406352516e-13,-0.0013916445508515,0.0013916445548261,-0.0013916445553815,0.0013916445502932,-0.0013916445517905,0.0013916445550422,-0.0013916445561037,0.0013916445507036,-0.0013397856231052,0.0013397856356683,-0.0013397856367051,0.0013397856218463,-7.3957561235506e-13,2.3934404114501e-13,5.3167484593371e-13,2.9347515218261e-14,-0.0013668887959878,0.0013668887958312,-0.0013916445529807,0.0013916445531666,-0.0013916445531715,0.0013916445532516,-0.0013916445525964,0.0013916445537671,-0.0013916445528003,0.001391644553421,-0.001339785629074,0.0013397856291897,-0.0013397856281226,0.0013397856273163,-0.0013397856301247,0.0013397856266938,-0.0013397856291075,0.0013397856275211,-6.8463124969115e-12,6.9100155214161e-12,-0.0013668887958618,0.0013668887958986,-2.3439172184673e-13,2.9112478280831e-13,-0.0013916445556497,0.0013916445508493,-0.0013916445554225,0.0013916445505888,-0.0013916445509773,0.0013916445554816,-0.0013916445506543,0.0013916445555788,-0.001339785620391,0.001339785634555,-0.0013397856344016,0.0013397856205663,0.72279306052229,0.64489692877595,1368840,32768,0.0056791656494621,0.005679165649532,0.0056791656494107,17.075587326795,17.07110133917,5.1804698614355e-05,5.1804698614355e-05,5.1804698614355e-05,337115.37413699,0.017183659367133
18835200,0.99972684854282,0.016910638407257,0.0056368794690877,0.005636879469147,0.0056368794690228,-0.0013670402701859,0.0013670402693495,6.2095688901681e-12,-7.0337191247089e-12,2.5774389080694e-14,-9.1461547088989e-13,-0.0013916273887399,0.0013916273927235,-0.0013916273932688,0.001391627388186,-0.0013916273896951,0.0013916273929282,-0.0013916273939934,0.0013916273885657,-0.001340094170162,0.0013400941827545,-0.001340094183784,0.00134009416896,-7.4291539268e-13,2.4756196656362e-13,5.1852907105752e-13,8.3794969532964e-14,-0.0013670402698556,0.001367040269718,-0.0013916273908913,0.00139162739106,-0.0013916273910662,0.0013916273911664,-0.0013916273904809,0.0013916273916468,-0.0013916273906644,0.0013916273913437,-0.001340094176096,0.0013400941762827,-0.0013400941750726,0.001340094174471,-0.0013400941772211,0.0013400941736976,-0.0013400941762197,0.0013400941745699,-6.8647176405294e-12,6.8906124671073e-12,-0.0013670402697512,0.0013670402697601,-2.138390850098e-13,2.4442932696949e-13,-0.0013916273935386,0.0013916273887298,-0.0013916273933271,0.0013916273884675,-0.0013916273888684,0.001391627393367,-0.001391627388577,0.0013916273934666,-0.0013400941674733,0.0013400941815546,-0.0013400941815232,0.0013400941676261,0.72442397393982,0.6714112125325,1368840,32768,0.0056797934921088,0.0056797934921881,0.0056797934920591,16.973358009053,16.968871988472,5.0986864072423e-05,5.0986864072423e-05,5.0986864072423e-05,326650.70223843,0.017185574291747
18921600,0.99973159638336,0.016910713951559,0.0056369046505214,0.0056369046505807,0.0056369046504565,-0.0013669377311492,0.00136693773033,6.2343277220381e-12,-7.0547314827957e-12,3.2084431607344e-14,-8.8072697674836e-13,-0.0013914804086507,0.0013914804126298,-0.0013914804131811,0.0013914804080733,-0.0013914804095792,0.0013914804128482,-0.0013914804138994,0.0013914804084935,-0.0013400328108615,0.0013400328235156,-0.0013400328243749,0.0013400328095287,-7.232203472913e-13,2.3997343368221e-13,4.9019349551343e-13,5.6757795500072e-14,-0.0013669377308373,0.0013669377306791,-0.0013914804107885,0.0013914804109514,-0.0013914804109667,0.0013914804110685,-0.0013914804104145,0.0013914804115493,-0.0013914804105874,0.0013914804112315,-0.0013400328168394,0.0013400328168269,-0.0013400328157865,0.0013400328149263,-0.0013400328177494,0.0013400328144399,-0.0013400328168232,0.0013400328152824,-6.8830110228556e-12,6.9181206855736e-12,-0.0013669377307173,0.0013669377307363,-2.0677097740622e-13,2.5028326578274e-13,-0.0013914804134354,0.0013914804086355,-0.0013914804132375,0.0013914804083569,-0.0013914804087487,0.0013914804132835,-0.0013914804084537,0.0013914804133528,-0.0013400328079706,0.001340032822245,-0.001340032822092,0.0013400328082656,0.72615961127753,0.69792549628906,1368840,32768,0.0056793687303323,0.0056793687304091,0.0056793687302794,16.871128717147,16.866642637775,5.0169029737177e-05,5.0169029737177e-05,5.0169029737177e-05,323439.92742765,0.017184277880416
19008000,0.9997362317139,0.016910788177912,0.0056369293926391,0.0056369293926984,0.0056369293925741,-0.0013668338742936,0.0013668338734819,6.2358681455674e-12,-7.0464668529216e-12,4.6575635969821e-15,-8.6298575402465e-13,-0.001391333416531,0.0013913334205095,-0.001391333421023,0.0013913334159432,-0.001391333417437,0.0013913334207243,-0.0013913334216552,0.0013913334164453,-0.0013399687442282,0.0013399687568855,-0.0013399687579376,0.0013399687430554,-7.3830997454884e-13,1.7895770943541e-13,4.5254408685349e-13,3.2310718812072e-14,-0.0013668338740038,0.0013668338738155,-0.001391333418485,0.0013913334188558,-0.001391333418935,0.001391333418912,-0.0013913334183587,0.001391333419471,-0.0013913334186507,0.0013913334190967,-0.0013399687506169,0.0013399687501393,-0.0013399687492748,0.0013399687482905,-0.0013399687512637,0.0013399687476243,-0.001339968750615,0.0013399687485779,-6.8734881961243e-12,6.9203763519587e-12,-0.0013668338738817,0.0013668338738946,-2.0879959190403e-13,2.3492802899233e-13,-0.0013913334213262,0.0013913334165398,-0.0013913334210473,0.0013913334162094,-0.0013913334166665,0.0013913334211063,-0.0013913334164187,0.0013913334211463,-0.001339968741486,0.0013399687556587,-0.0013399687555657,0.0013399687416357,0.73076841696795,0.77244247275956,1368840,32768,0.0056789385058815,0.0056789385059721,0.0056789385058831,16.768899598182,16.764413287078,4.9351196785457e-05,4.9351196785457e-05,4.9351196785457e-05,320272.4409728,0.017182964812387
19094400,0.99974076878293,0.01691086094224,0.0056369536474152,0.0056369536474745,0.0056369536473503,-0.0013669502094597,0.0013669502086356,6.2289253576648e-12,-7.0735854362322e-12,2.0344554958399e-14,-8.5099629676493e-13,-0.0013913350878278,0.0013913350917784,-0.0013913350923161,0.0013913350872137,-0.0013913350887485,0.001391335091948,-0.0013913350930268,0.0013913350876261,-0.0013401903994968,0.0013401904119212,-0.0013401904131702,0.0013401903983206,-7.4197656841926e-13,1.7967462871048e-13,4.6031970225495e-13,2.90082314655e-14,-0.0013669502091683,0.0013669502089576,-0.0013913350899295,0.0013913350900742,-0.0013913350900284,0.0013913350901984,-0.0013913350895421,0.0013913350906497,-0.0013913350897974,0.0013913350903483,-0.0013401904054123,0.0013401904051846,-0.0013401904045539,0.001340190403403,-0.0013401904063017,0.001340190402959,-0.0013401904055229,0.001340190403795,-6.8836206512907e-12,6.9307482409869e-12,-0.0013669502090213,0.0013669502090508,-2.0417776250951e-13,2.5076772157118e-13,-0.0013913350925506,0.0013913350877122,-0.001391335092448,0.0013913350875083,-0.0013913350878847,0.0013913350924801,-0.0013913350875434,0.0013913350925082,-0.0013401903967508,0.0013401904107775,-0.0013401904107123,0.0013401903967887,0.73185975035073,0.7723372377101,1368840,32768,0.0056794206724885,0.0056794206725521,0.0056794206724407,16.705415390314,16.702590609836,4.8843323122509e-05,4.8843323122509e-05,4.8843323122509e-05,312976.69746668,0.017184435522655
19180800,0.99974528844962,0.016910934284879,0.0056369780949616,0.0056369780950209,0.0056369780948967,-0.0013673766697705,0.0013673766688228,6.1046213903598e-12,-7.204381675791e-12,-4.7573370195608e-14,-9.5882870844112e-13,-0.0013917485461759,0.0013917485497945,-0.0013917485508134,0.0013917485449102,-0.001391748547552,0.0013917485503313,-0.0013917485512625,0.0013917485458595,-0.0013406243203664,0.0013406243319608,-0.0013406243333911,0.0013406243184163,-6.9298115343085e-13,2.6814545539922e-13,4.9745186201061e-13,8.8173482831212e-15,-0.0013673766692948,0.0013673766691208,-0.0013917485367098,0.0013917485374444,-0.001391748537105,0.0013917485367503,-0.0013917485370266,0.0013917485374362,-0.0013917485369035,0.0013917485374646,-0.0013406243325568,0.0013406243326832,-0.0013406243320072,0.001340624331007,-0.0013406243441936,0.0013406243413019,-0.0013406243432066,0.0013406243423568,-6.8160629504262e-12,7.0035406348763e-12,-0.0013673766691297,0.0013673766692079,-2.2768245622196e-13,2.8338013704898e-13,-0.0013917485397687,0.0013917485348421,-0.0013917485391984,0.0013917485344928,-0.0013917485350157,0.0013917485394696,-0.0013917485345252,0.0013917485396888,-0.0013406243352489,0.0013406243491906,-0.001340624348322,0.0013406243350742,0.74043868451042,0.91425068683463,1368840,32768,0.0056811875077781,0.0056811875074037,0.0056811875072423,16.919378476001,16.928491019618,5.0555027808004e-05,5.0555027808004e-05,5.0555027808004e-05,311799.3846084,0.017189827160799
19267200,0.99974979277979,0.016911007507477,0.0056370025024942,0.0056370025025534,0.0056370025024292,-0.001368223240772,0.0013682232399305,6.2162846261835e-12,-7.0584921914381e-12,5.1482662534116e-14,-9.2771912940564e-13,-0.0013923953317773,0.0013923953357614,-0.0013923953363089,0.001392395331199,-0.0013923953327331,0.0013923953359937,-0.0013923953370674,0.0013923953316162,-0.0013416533052395,0.001341653317693,-0.0013416533189014,0.0013416533041493,-7.4701476744692e-13,2.8239260839377e-13,5.2481317320016e-13,5.7951141397115e-14,-0.0013682232404171,0.0013682232402927,-0.0013923953332562,0.0013923953334442,-0.0013923953334467,0.001392395333552,-0.0013923953328751,0.0013923953340525,-0.0013923953330502,0.0013923953337471,-0.0013416533119039,0.0013416533120615,-0.0013416533110151,0.0013416533101773,-0.0013416533139437,0.0013416533106729,-0.0013416533129507,0.0013416533115611,-6.8783584002841e-12,6.9082942798812e-12,-0.0013682232403184,0.0013682232403298,-2.3711702094366e-13,2.5311229700483e-13,-0.0013923953359373,0.0013923953311209,-0.0013923953357235,0.0013923953308291,-0.0013923953312364,0.0013923953357739,-0.0013923953309221,0.0013923953358348,-0.0013416533045277,0.0013416533183698,-0.0013416533184686,0.0013416533045226,0.74173695557534,0.87574310507145,1368840,32768,0.0056846952283537,0.0056846952283683,0.0056846952282411,17.144530087325,17.154391429399,5.2356240698599e-05,5.2356240698599e-05,5.2356240698599e-05,299715.3416004,0.017200530083874
19353600,0.99975428076944,0.016911080489614,0.0056370268298733,0.0056370268299325,0.0056370268298083,-0.0013685798890963,0.0013685798882649,6.2253121151057e-12,-7.0359495271598e-12,4.8819567419256e-14,-9.324424556995e-13,-0.001392786749744,0.0013927867537295,-0.001392786754262,0.0013927867492086,-0.0013927867507139,0.0013927867539263,-0.0013927867550034,0.0013927867495871,-0.0013419686494911,0.0013419686618756,-0.001341968663032,0.0013419686483534,-7.4822711276354e-13,2.8319146634215e-13,5.2953655831575e-13,1.3235213320377e-14,-0.0013685798887675,0.0013685798886269,-0.0013927867518025,0.0013927867520099,-0.0013927867520138,0.0013927867520906,-0.0013927867513828,0.001392786752627,-0.001392786751625,0.0013927867522858,-0.0013419686553386,0.0013419686556745,-0.0013419686544398,0.0013419686535938,-0.0013419686564857,0.001341968653016,-0.001341968655765,0.0013419686542678,-6.8669133381582e-12,6.9065012464218e-12,-0.0013685798886495,0.0013685798886851,-2.315738667538e-13,3.0797067994242e-13,-0.001392786754503,0.0013927867497093,-0.0013927867542556,0.0013927867494301,-0.0013927867498228,0.0013927867543055,-0.0013927867494932,0.001392786754429,-0.0013419686469951,0.0013419686608559,-0.0013419686608624,0.0013419686470751,0.74186865026621,0.83723552330826,1368840,32768,0.0056861726665264,0.0056861726665951,0.0056861726664713,17.370380592966,17.38029183918,5.4163044743724e-05,5.4163044743724e-05,5.4163044743724e-05,300857.70159123,0.017205039245135
19440000,0.99975875122384,0.016911153105496,0.0056370510351672,0.0056370510352264,0.0056370510351022,-0.0013689279924513,0.001368927991793,6.2572314341101e-12,-6.8786265685623e-12,1.6322442537055e-13,-8.4932599485033e-13,-0.0013931748878139,0.0013931748917626,-0.0013931748920347,0.0013931748871365,-0.0013931748891749,0.0013931748922347,-0.0013931748928699,0.0013931748880192,-0.001342273647032,0.0013422736603612,-0.0013422736606037,0.0013422736455887,-9.3595511309611e-13,1.257289825953e-13,4.7603710445205e-13,-6.6810870738466e-14,-0.0013689279922359,0.0013689279918571,-0.0013931748906805,0.0013931748899824,-0.001393174890603,0.001393174890009,-0.0013931748898111,0.0013931748903315,-0.0013931748896388,0.0013931748905165,-0.0013422736532671,0.0013422736540254,-0.0013422736526821,0.0013422736518122,-0.0013422736549926,0.0013422736514344,-0.0013422736530543,0.0013422736526855,-6.8539519694132e-12,6.793609754003e-12,-0.0013689279921307,0.001368927992088,-2.9901857107026e-13,2.6741000727842e-13,-0.0013931748930734,0.0013931748880516,-0.0013931748925306,0.0013931748876781,-0.0013931748879899,0.0013931748928515,-0.0013931748879478,0.001393174892736,-0.0013422736453052,0.0013422736597594,-0.0013422736593595,0.0013422736455264,0.74105947937506,0.79872794154508,1368840,32768,0.0056876147275474,0.0056876147272342,0.0056876147274944,17.596277980793,17.606192248961,5.5970223846345e-05,5.5970223846345e-05,5.5970223846345e-05,302460.05644939,0.017209440372057
19526400,0.99976320293571,0.016911225266223,0.005637075088743,0.0056370750888023,0.005637075088678,-0.001369268130249,0.0013692681293539,6.085038929767e-12,-7.003535635029e-12,5.5812118507502e-14,-9.7175648997686e-13,-0.0013935616449628,0.0013935616490813,-0.001393561649358,0.0013935616442438,-0.0013935616454251,0.0013935616492459,-0.0013935616501759,0.0013935616443137,-0.0013425674980408,0.0013425675086579,-0.0013425675108649,0.0013425674959615,-9.7189419165252e-13,1.0393600129709e-13,4.384145185021e-13,-2.0740981083147e-13,-0.0013692681300832,0.0013692681295315,-0.001393561646273,0.0013935616466911,-0.0013935616477501,0.0013935616469134,-0.0013935616467508,0.0013935616473085,-0.001393561647061,0.0013935616471006,-0.0013425675035541,0.0013425675032797,-0.0013425675022322,0.0013425675014725,-0.001342567503859,0.0013425675009345,-0.0013425675030087,0.0013425675014874,-6.8857061169929e-12,6.7182360860286e-12,-0.0013692681298501,0.0013692681296737,-3.4596831325845e-13,3.209730474349e-13,-0.0013935616495972,0.0013935616446892,-0.0013935616496425,0.0013935616440487,-0.0013935616452015,0.0013935616490942,-0.0013935616448372,0.001393561649626,-0.0013425674953968,0.0013425675087899,-0.0013425675079514,0.0013425674941818,0.73953861858591,0.76022035978189,1368840,32768,0.0056890238048402,0.0056890238048648,0.0056890238046764,17.822178549806,17.832092658743,5.7777428398446e-05,5.7777428398446e-05,5.7777428398446e-05,304484.40534736,0.017213740796289
19612800,0.99976763469811,0.016911296904491,0.0056370989681656,0.0056370989682248,0.0056370989681006,-0.0013696011199737,0.0013696011191214,6.1368895222376e-12,-6.9724107623431e-12,7.4848066384126e-14,-9.3914183927323e-13,-0.0013939476678928,0.0013939476718379,-0.0013939476722867,0.0013939476671842,-0.001393947668907,0.0013939476721467,-0.0013939476734193,0.0013939476681914,-0.0013428502068642,0.0013428502195298,-0.001342850220155,0.0013428502055702,-8.0820839802351e-13,2.5583647848884e-13,5.5116848571051e-13,-3.6302126289078e-14,-0.0013696011197156,0.0013696011194701,-0.0013939476702369,0.0013939476703413,-0.0013939476706327,0.0013939476700431,-0.0013939476699213,0.0013939476706878,-0.001393947670206,0.0013939476704218,-0.0013428502129784,0.0013428502133553,-0.0013428502117928,0.0013428502112562,-0.0013428502139085,0.0013428502105545,-0.0013428502127958,0.0013428502116899,-6.8083057756378e-12,6.8134378835613e-12,-0.0013696011195403,0.0013696011195654,-2.8295288539534e-13,3.2649720220518e-13,-0.0013939476726922,0.0013939476677946,-0.0013939476724807,0.0013939476676138,-0.0013939476679116,0.0013939476724762,-0.0013939476679236,0.0013939476728697,-0.0013428502043663,0.0013428502186425,-0.0013428502183462,0.0013428502049587,0.73751706802256,0.72171277801869,1368840,32768,0.0056904032818346,0.005690403282022,0.0056904032818564,18.048079278027,18.057993068524,5.9584634224212e-05,5.9584634224212e-05,5.9584634224212e-05,306867.55204849,0.017217950860443
19699200,0.99977204530628,0.016911367969139,0.0056371226563817,0.0056371226564409,0.0056371226563167,-0.0013699277843817,0.0013699277834164,6.0915987881914e-12,-7.0873148991594e-12,-2.5831269695971e-14,-1.0761679473373e-12,-0.0013943306778802,0.0013943306815742,-0.0013943306822665,0.0013943306772559,-0.0013943306787796,0.0013943306818318,-0.0013943306830108,0.0013943306777368,-0.0013431242945198,0.0013431243071694,-0.0013431243085013,0.0013431242934464,-8.1803765656994e-13,2.8261960145929e-13,5.3189530978692e-13,-5.6503509150699e-14,-0.0013699277840363,0.0013699277838252,-0.0013943306800647,0.0013943306800516,-0.0013943306802049,0.0013943306802028,-0.0013943306794568,0.0013943306807555,-0.0013943306797383,0.0013943306803049,-0.001343124300535,0.0013431243010104,-0.0013431242995898,0.0013431242990908,-0.0013431243019785,0.0013431242982654,-0.001343124301212,0.0013431242991952,-6.7971237642994e-12,6.8935704355669e-12,-0.0013699277838675,0.0013699277839248,-2.5509397176015e-13,3.5708847354519e-13,-0.0013943306825739,0.0013943306777306,-0.0013943306820355,0.001394330677514,-0.0013943306779293,0.0013943306824124,-0.0013943306776922,0.0013943306825594,-0.0013431242923966,0.0013431243065619,-0.0013431243063877,0.0013431242923633,0.73515217484312,0.68320519625551,1368840,32768,0.0056917565603366,0.0056917565604678,0.0056917565603246,18.273979953361,18.283893478306,6.1391839626882e-05,6.1391839626882e-05,6.1391839626882e-05,309514.24610689,0.01722208095639
19785600,0.99977643355878,0.016911438419385,0.005637146139797,0.0056371461398563,0.005637146139732,-0.001370248754165,0.0013702487531325,6.0494427819108e-12,-7.0829945605546e-12,6.2247510145999e-15,-1.0825496347341e-12,-0.001394711569801,0.0013947115734478,-0.0013947115742216,0.0013947115688425,-0.0013947115705093,0.001394711573716,-0.0013947115747107,0.00139471156916,-0.0013433900169952,0.0013433900296177,-0.0013433900310181,0.0013433900153874,-8.4148685197782e-13,2.9788866441166e-13,5.9834651504233e-13,-2.9404013492277e-14,-0.001370248753728,0.0013702487535955,-0.0013947115715487,0.0013947115717817,-0.0013947115716275,0.0013947115717713,-0.0013947115709643,0.0013947115724504,-0.0013947115715044,0.0013947115718456,-0.0013433900229067,0.0013433900231708,-0.0013433900216725,0.0013433900214507,-0.001343390023725,0.0013433900206322,-0.001343390023161,0.0013433900213946,-6.7605291175349e-12,6.8826860327838e-12,-0.0013702487535848,0.0013702487536734,-2.7421177007747e-13,3.7586057654092e-13,-0.0013947115742592,0.0013947115694799,-0.0013947115738536,0.0013947115693271,-0.0013947115696793,0.0013947115740796,-0.0013947115693421,0.0013947115742514,-0.0013433900140304,0.0013433900285892,-0.0013433900282456,0.0013433900142683,0.73254359704162,0.64469761449232,1368840,32768,0.0056930862503337,0.0056930862503875,0.0056930862502523,18.499880574523,18.509793888087,6.3199044596184e-05,6.3199044596184e-05,6.3199044596184e-05,312391.83797794,0.01722613906351
19872000,0.99978078916859,0.016911507953202,0.0056371693177359,0.0056371693177952,0.0056371693176709,-0.0013704995750752,0.0013704995741549,6.1002701703454e-12,-6.9865057435158e-12,9.0581526914177e-14,-1.0047787164646e-12,-0.0013950261192537,0.0013950261231025,-0.0013950261237797,0.001395026118576,-0.0013950261203831,0.0013950261233289,-0.0013950261245742,0.0013950261189748,-0.0013435826490017,0.001343582661454,-0.0013435826619997,0.0013435826477956,-8.4737178984407e-13,2.9829429907863e-13,6.6360190388794e-13,2.4449135448636e-14,-0.0013704995747087,0.0013704995746151,-0.0013950261212453,0.0013950261216735,-0.0013950261215535,0.0013950261215815,-0.001395026120888,0.0013950261221428,-0.0013950261208891,0.0013950261217615,-0.0013435826546853,0.001343582655067,-0.0013435826538002,0.00134358265323,-0.0013435826561057,0.0013435826519035,-0.0013435826545867,0.0013435826528721,-6.7393639994088e-12,6.8599864027125e-12,-0.0013704995745936,0.0013704995746621,-2.8600767442658e-13,3.7655876109421e-13,-0.0013950261240298,0.0013950261190865,-0.0013950261237759,0.0013950261189957,-0.0013950261192902,0.0013950261238088,-0.0013950261190524,0.0013950261239175,-0.0013435826459047,0.0013435826599604,-0.0013435826597761,0.0013435826466412,0.72847029410297,0.58613753799082,1368840,32768,0.0056941253138711,0.0056941253140652,0.0056941253139244,18.692240310232,18.70071510933,6.4737922481857e-05,6.4737922481857e-05,6.4737922481857e-05,315487.80199876,0.017229310280164
19958400,0.99978505804868,0.016911576703571,0.0056371922345256,0.0056371922345848,0.0056371922344606,-0.0013702923267986,0.0013702923259536,6.1301060235865e-12,-6.9742365889183e-12,9.3194094160865e-14,-9.4987786423621e-13,-0.0013949233210627,0.0013949233249952,-0.0013949233255408,0.0013949233205146,-0.0013949233220757,0.0013949233251778,-0.001394923326292,0.001394923320907,-0.0013432813192667,0.0013432813316297,-0.0013432813326477,0.0013432813178312,-7.8722553903545e-13,3.0630105447774e-13,6.5014637376868e-13,-1.9630282661281e-14,-0.0013702923264501,0.0013702923263332,-0.0013949233231061,0.0013949233233503,-0.0013949233233824,0.0013949233233909,-0.0013949233226731,0.0013949233239763,-0.0013949233229472,0.0013949233235926,-0.0013432813248317,0.0013432813253624,-0.0013432813241003,0.0013432813233676,-0.0013432813263216,0.0013432813226478,-0.0013432813251211,0.0013432813236485,-6.7514901583748e-12,6.8646353195148e-12,-0.0013702923263218,0.0013702923264045,-2.9237842098111e-13,3.9995828154904e-13,-0.0013949233257919,0.0013949233210349,-0.0013949233255101,0.0013949233208669,-0.0013949233211659,0.0013949233256153,-0.0013949233208116,0.0013949233257674,-0.0013432813164358,0.001343281330656,-0.0013432813302976,0.0013432813167619,0.73489968264567,0.70684412759495,1368840,32768,0.0056932665376103,0.0056932665376747,0.0056932665375566,18.685119277076,18.685007527098,6.4680954216607e-05,6.4680954216607e-05,6.4680954216607e-05,320820.81687587,0.017226690097955
20044800,0.99978923986664,0.016911644249834,0.0056372147499465,0.0056372147500057,0.0056372147498815,-0.0013706493769376,0.0013706493760776,6.1165822602576e-12,-6.9790901465278e-12,8.2778235887597e-14,-9.6750691391614e-13,-0.0013950957311399,0.0013950957350674,-0.0013950957356151,0.0013950957305776,-0.0013950957321252,0.0013950957352435,-0.0013950957363781,0.0013950957309557,-0.0013438093648739,0.0013438093772035,-0.001343809378306,0.0013438093635307,-7.7450560409132e-13,3.261035083499e-13,6.4220179294076e-13,-2.1576546733661e-14,-0.001370649376577,0.0013706493764699,-0.0013950957331939,0.0013950957334405,-0.0013950957334407,0.0013950957334685,-0.0013950957327719,0.0013950957340749,-0.0013950957330286,0.0013950957336776,-0.0013438093706007,0.0013438093709934,-0.0013438093697979,0.0013438093689289,-0.0013438093718796,0.0013438093683046,-0.0013438093707142,0.0013438093692926,-6.7460575008093e-12,6.8616229115418e-12,-0.00137064937645,0.001370649376538,-2.8848315762579e-13,3.9782940540827e-13,-0.0013950957358603,0.0013950957311103,-0.0013950957355835,0.0013950957309082,-0.0013950957312411,0.0013950957356943,-0.0013950957308722,0.0013950957358479,-0.001343809362106,0.0013438093762246,-0.0013438093759545,0.0013438093623981,0.73711176751488,0.74287786107421,1368840,32768,0.0056947461244934,0.0056947461245589,0.0056947461244374,18.669950497896,18.669299944867,6.4559603983168e-05,6.4559603983168e-05,6.4559603983168e-05,309475.66556674,0.017231204188762
20131200,0.99979333634553,0.016911710645283,0.005637236881763,0.0056372368818223,0.005637236881698,-0.0013707333337884,0.0013707333329327,6.1169866008464e-12,-6.9746000484031e-12,8.0760591642891e-14,-9.5913046392858e-13,-0.0013951258909493,0.0013951258948733,-0.0013951258954247,0.0013951258903854,-0.0013951258919245,0.001395125895056,-0.0013951258961832,0.0013951258907659,-0.0013439422103073,0.001343942222636,-0.0013439422237822,0.0013439422089952,-7.6220924444255e-13,3.2802692017923e-13,6.386829886731e-13,-1.7164357993587e-14,-0.0013707333334277,0.0013707333333261,-0.0013951258930063,0.0013951258932519,-0.0013951258932474,0.0013951258932844,-0.0013951258925807,0.0013951258938861,-0.0013951258928369,0.0013951258934917,-0.0013439422160613,0.0013439422164587,-0.0013439422153095,0.0013439422144057,-0.0013439422173054,0.0013439422137872,-0.001343942216175,0.0013439422147143,-6.746417901564e-12,6.8571621654616e-12,-0.0013707333333056,0.0013707333333904,-2.8938713001006e-13,3.8900491028466e-13,-0.0013951258956698,0.0013951258909239,-0.0013951258953998,0.0013951258907124,-0.0013951258910478,0.0013951258955127,-0.0013951258906813,0.0013951258956539,-0.0013439422076188,0.0013439422216975,-0.0013439422214616,0.0013439422078468,0.73952441030589,0.77624390056033,1368840,32768,0.0056950940447847,0.0056950940448523,0.0056950940447327,18.65427907925,18.653592362635,6.4434232634001e-05,6.4434232634001e-05,6.4434232634001e-05,305791.61752585,0.017232265626732
20217600,0.99979734929491,0.016911775934253,0.0056372586447528,0.0056372586448121,0.0056372586446878,-0.0013708086239801,0.0013708086231201,6.1117745247777e-12,-6.9716246687107e-12,7.2714425683032e-14,-9.5934533971721e-13,-0.0013951518547258,0.0013951518586319,-0.0013951518591958,0.0013951518541489,-0.0013951518556936,0.0013951518588402,-0.0013951518599885,0.0013951518545636,-0.0013440617346662,0.0013440617470267,-0.0013440617481018,0.0013440617333374,-7.5781367284189e-13,3.2457943726217e-13,6.2076271259583e-13,-2.3860829891555e-14,-0.0013708086236184,0.0013708086235096,-0.0013951518567779,0.0013951518570194,-0.0013951518570092,0.0013951518570592,-0.001395151856396,0.0013951518576256,-0.0013951518566222,0.0013951518572661,-0.0013440617405586,0.00134406174078,-0.0013440617396653,0.0013440617387211,-0.0013440617416612,0.0013440617382007,-0.0013440617405272,0.0013440617390622,-6.7418955691299e-12,6.8533805456934e-12,-0.0013708086234925,0.0013708086235737,-2.8755077434476e-13,3.797426344173e-13,-0.0013951518594482,0.0013951518547357,-0.0013951518591895,0.0013951518544721,-0.0013951518547806,0.0013951518592695,-0.001395151854449,0.0013951518593854,-0.0013440617319634,0.0013440617460819,-0.0013440617458172,0.0013440617322309,0.74229529984846,0.80868178139082,1368840,32768,0.0056954060437882,0.0056954060438456,0.0056954060437177,18.638573994269,18.637884780403,6.4308591954153e-05,6.4308591954153e-05,6.4308591954153e-05,302317.271168,0.017233217499993
20304000,0.99980128049247,0.016911840171967,0.0056372800573243,0.0056372800573836,0.0056372800572593,-0.0013708808548702,0.0013708808540115,6.1057461795277e-12,-6.9648159355363e-12,8.5888670277726e-14,-9.6819295178168e-13,-0.0013951749523419,0.0013951749563012,-0.0013951749568171,0.0013951749517555,-0.0013951749532927,0.0013951749564407,-0.0013951749575365,0.0013951749521607,-0.00134417700158,0.0013441770137219,-0.0013441770148608,0.0013441770001689,-7.6567313862296e-13,3.3871771122996e-13,6.2187253163279e-13,-1.0265480514264e-14,-0.0013708808545059,0.0013708808544043,-0.0013951749543568,0.0013951749546257,-0.0013951749545871,0.0013951749546356,-0.0013951749539609,0.0013951749552623,-0.0013951749542019,0.0013951749548847,-0.0013441770073254,0.0013441770076271,-0.0013441770064601,0.0013441770055959,-0.0013441770084717,0.0013441770049721,-0.0013441770072978,0.0013441770059223,-6.7433062907392e-12,6.8392955348043e-12,-0.0013708808543894,0.001370880854466,-2.855009546124e-13,3.6927027787002e-13,-0.0013951749570152,0.0013951749523289,-0.0013951749567498,0.0013951749520646,-0.0013951749524565,0.0013951749568955,-0.0013951749520366,0.0013951749570311,-0.001344176998853,0.001344177012844,-0.0013441770125404,0.0013441769990963,0.74549162521688,0.84111966222131,1368840,32768,0.0056957053553999,0.005695705355459,0.0056957053553455,18.622866623962,18.622177198171,6.4182932991692e-05,6.4182932991692e-05,6.4182932991692e-05,298865.51535252,0.017234130696811
20390400,0.99980513167711,0.016911903133527,0.0056373010445109,0.0056373010445701,0.0056373010444459,-0.0013709526343726,0.0013709526335112,6.095260499858e-12,-6.9697924305667e-12,9.4117477716837e-14,-9.6537074388055e-13,-0.0013951979843708,0.0013951979883267,-0.0013951979888321,0.0013951979837771,-0.0013951979854105,0.0013951979884948,-0.0013951979896141,0.0013951979841118,-0.0013442906917129,0.0013442907040085,-0.0013442907050319,0.0013442906902646,-7.6123580359226e-13,3.4837453386771e-13,6.4141587577351e-13,1.388207591211e-14,-0.0013709526339947,0.0013709526339286,-0.001395197986401,0.0013951979867388,-0.0013951979867263,0.0013951979867428,-0.0013951979859585,0.0013951979873158,-0.001395197986171,0.0013951979869349,-0.0013442906975327,0.0013442906978135,-0.0013442906965133,0.0013442906958812,-0.0013442906985818,0.0013442906953736,-0.0013442906976065,0.0013442906960626,-6.7469850607083e-12,6.8300580522972e-12,-0.0013709526339055,0.0013709526339619,-2.8006156195858e-13,3.7015730959534e-13,-0.0013951979890932,0.0013951979843594,-0.001395197988909,0.0013951979841505,-0.0013951979845084,0.0013951979889308,-0.0013951979841846,0.0013951979890281,-0.001344290689022,0.0013442907031757,-0.0013442907027924,0.0013442906892899,0.74582830639139,0.82126598431433,1368840,32768,0.0056960027874466,0.0056960027875284,0.0056960027874127,18.607159046612,18.606469615939,6.4057272372897e-05,6.4057272372897e-05,6.4057272372897e-05,295381.3824434,0.017235038193072
20476800,0.99980890454922,0.016911964274529,0.005637321424845,0.0056373214249042,0.00563732142478,-0.0013708801132834,0.0013708801124239,6.1165023803449e-12,-6.9640886636364e-12,1.0650680511374e-13,-9.9760117102783e-13,-0.0013951443182036,0.0013951443221491,-0.00139514432271,0.0013951443176554,-0.0013951443192326,0.001395144322275,-0.0013951443234681,0.0013951443180548,-0.0013441972268619,0.0013441972392627,-0.0013441972403494,0.0013441972256181,-7.8083758712417e-13,3.7368728999215e-13,6.2281512048441e-13,1.4649199535833e-14,-0.0013708801129104,0.001370880112836,-0.0013951443202487,0.0013951443204843,-0.0013951443205017,0.0013951443205702,-0.0013951443198385,0.001395144321153,-0.0013951443200706,0.0013951443207633,-0.0013441972328138,0.0013441972330846,-0.0013441972318824,0.0013441972310891,-0.0013441972339707,0.0013441972302333,-0.0013441972328487,0.0013441972314325,-6.7583207144118e-12,6.8342481007647e-12,-0.001370880112804,0.0013708801128809,-2.542573796704e-13,3.7660099509811e-13,-0.0013951443229053,0.0013951443181812,-0.0013951443226444,0.001395144317965,-0.0013951443183016,0.0013951443227405,-0.0013951443179727,0.0013951443228921,-0.0013441972242197,0.0013441972382392,-0.0013441972381725,0.0013441972244593,0.73927061704851,0.7051435878032,1368840,32768,0.0056957022540075,0.0056957022540885,0.0056957022539612,18.591451382408,18.590762033707,6.3931611059262e-05,6.3931611059262e-05,6.3931611059262e-05,295887.11190067,0.017234121322953
20563200,0.99981260077173,0.01691202340603,0.0056373411353454,0.0056373411354046,0.0056373411352804,-0.0013705195545731,0.001370519553705,6.0940561248861e-12,-6.9710583330707e-12,1.0737271983711e-13,-9.8160860076634e-13,-0.0013949475536021,0.0013949475575155,-0.0013949475580788,0.0013949475530386,-0.0013949475545931,0.0013949475576901,-0.0013949475588481,0.0013949475534047,-0.0013436856271697,0.0013436856394199,-0.0013436856406691,0.001343685625851,-7.8606439803692e-13,3.532266209339e-13,5.9085777323002e-13,2.174698270343e-14,-0.0013705195542059,0.0013705195541058,-0.0013949475556722,0.0013949475558954,-0.0013949475558921,0.001394947555944,-0.0013949475552395,0.0013949475565325,-0.0013949475554784,0.001394947556166,-0.0013436856330337,0.0013436856332396,-0.0013436856320051,0.0013436856312598,-0.0013436856342208,0.0013436856305629,-0.0013436856329547,0.0013436856315681,-6.7546694730136e-12,6.8225428701161e-12,-0.0013705195540983,0.0013705195541544,-2.4932988314322e-13,3.4282885034336e-13,-0.0013949475583341,0.0013949475535757,-0.0013949475580783,0.001394947553351,-0.00139494755372,0.001394947558156,-0.0013949475533702,0.0013949475582805,-0.0013436856244842,0.0013436856384366,-0.0013436856382796,0.0013436856245936,0.72982046273525,0.5627439105104,1368840,32768,0.0056942081744422,0.0056942081745117,0.0056942081743896,18.575743758848,18.575054451476,6.3805950070779e-05,6.3805950070779e-05,6.3805950070779e-05,304764.38343687,0.017229562854941
20649600,0.999816208374,0.016912080297018,0.005637360099008,0.0056373600990672,0.005637360098943,-0.0013699146299259,0.0013699146290469,6.0892469776846e-12,-6.9705145849759e-12,9.3957953178437e-14,-1.0040612089722e-12,-0.001394573930987,0.001394573934904,-0.0013945739354549,0.0013945739304197,-0.0013945739319791,0.0013945739350655,-0.0013945739362388,0.0013945739307858,-0.0013428702943655,0.0013428703066153,-0.0013428703077416,0.0013428702929691,-7.8661123427262e-13,3.6174312546641e-13,6.0280258479481e-13,3.3403303081432e-14,-0.0013699146295477,0.0013699146294577,-0.0013945739330594,0.0013945739332695,-0.0013945739332688,0.0013945739333333,-0.0013945739326191,0.0013945739339199,-0.0013945739328462,0.0013945739335606,-0.0013428703000652,0.0013428703004565,-0.0013428702991661,0.0013428702984301,-0.0013428703013216,0.0013428702978173,-0.0013428703000793,0.0013428702987727,-6.7472508172955e-12,6.8244631938045e-12,-0.001369914629447,0.001369914629501,-2.5365283931517e-13,3.3875985700126e-13,-0.0013945739357109,0.0013945739309672,-0.001394573935465,0.0013945739307181,-0.0013945739310953,0.0013945739355396,-0.0013945739307586,0.0013945739356533,-0.0013428702916033,0.0013428703056264,-0.0013428703054101,0.0013428702918365,0.71951860438984,0.4203442332176,1368840,32768,0.0056917016241264,0.0056917016241938,0.0056917016240749,18.499601409889,18.496320492476,6.3196811279106e-05,6.3196811279106e-05,6.3196811279106e-05,317659.11149302,0.017221914883104
20736000,0.99981966340325,0.016912135317321,0.005637378439109,0.0056373784391683,0.005637378439044,-0.0013686563070917,0.0013686563061518,6.0562925138327e-12,-6.9905393849967e-12,1.4351973321772e-13,-1.1414824226132e-12,-0.0013935851304938,0.0013935851343111,-0.0013935851351067,0.0013935851299967,-0.0013935851313508,0.0013935851344459,-0.0013935851358097,0.0013935851301287,-0.0013413683020852,0.0013413683138928,-0.0013413683146466,0.0013413683012028,-8.9622797379177e-13,4.3934951935024e-13,8.1488148828283e-13,1.4951355011073e-13,-0.0013686563066307,0.0013686563066442,-0.001393585132369,0.0013935851330273,-0.0013935851327418,0.0013935851329239,-0.0013935851319297,0.0013935851335008,-0.0013935851321807,0.001393585133378,-0.0013413683071494,0.00134136830818,-0.0013413683065739,0.001341368306592,-0.0013413683089617,0.0013413683049238,-0.0013413683075429,0.0013413683065335,-6.6237724718271e-12,6.9340098472294e-12,-0.0013686563065035,0.0013686563067011,-2.6429601417348e-13,4.2110851777678e-13,-0.0013935851353248,0.0013935851304113,-0.0013935851349238,0.001393585130534,-0.0013935851305957,0.0013935851351401,-0.0013935851301518,0.0013935851352188,-0.0013413682989735,0.0013413683124391,-0.0013413683125058,0.0013413683000487,0.72668645004931,0.55131483595068,1368840,32768,0.0056864879986692,0.0056864879987341,0.0056864879985888,18.11830118773,18.101876023838,6.0146409501837e-05,6.0146409501837e-05,6.0146409501837e-05,332829.51893691,0.017206006042443
20822400,0.99982297103768,0.016912188527372,0.0056373961757927,0.0056373961758519,0.0056373961757277,-0.0013683610580668,0.0013683610570758,6.004109519752e-12,-7.011558037009e-12,1.86680532332e-13,-1.1802036514709e-12,-0.0013930665144063,0.0013930665183523,-0.0013930665188349,0.0013930665137629,-0.0013930665152843,0.0013930665182671,-0.0013930665196173,0.0013930665140803,-0.0013412796490868,0.0013412796609818,-0.0013412796622698,0.0013412796475649,-8.8238383789709e-13,5.353438220843e-13,7.5876364382093e-13,1.49770718725e-14,-0.0013683610575952,0.0013683610575748,-0.0013930665163019,0.0013930665166278,-0.0013930665164698,0.0013930665165886,-0.0013930665157168,0.0013930665172634,-0.00139306651609,0.0013930665169522,-0.0013412796546924,0.0013412796556628,-0.0013412796537806,0.0013412796533823,-0.0013412796560815,0.0013412796523548,-0.0013412796545699,0.001341279653785,-6.6636564298702e-12,6.8642716835648e-12,-0.0013683610574733,0.0013683610576387,-2.7157211542299e-13,4.9443077783207e-13,-0.0013930665190051,0.0013930665142954,-0.0013930665187581,0.001393066514092,-0.0013930665143672,0.0013930665188961,-0.0013930665140653,0.0013930665190746,-0.0013412796464259,0.0013412796605106,-0.0013412796601966,0.0013412796470276,0.7342440998901,0.69238088739836,1368840,32768,0.0056852651411729,0.0056852651412295,0.0056852651411096,17.72468219565,17.7074315552,5.6997457565199e-05,5.6997457565199e-05,5.6997457565199e-05,318997.85415285,0.017202273061237
20908800,0.99982613863927,0.016912239243263,0.0056374130810895,0.0056374130811487,0.0056374130810245,-0.0013680518626482,0.0013680518616965,6.0020314655881e-12,-7.0220748921969e-12,2.4082770170255e-13,-1.1624151948961e-12,-0.0013925413991539,0.0013925414031241,-0.0013925414036135,0.0013925413985844,-0.0013925413995367,0.0013925414028896,-0.0013925414041659,0.001392541398521,-0.0013411716472796,0.0013411716595986,-0.0013411716597062,0.0013411716464581,-8.3574055693495e-13,6.1715291110808e-13,8.0645048113843e-13,1.0589635317439e-13,-0.0013680518621393,0.0013680518622667,-0.0013925414009446,0.0013925414017929,-0.0013925414011812,0.0013925414015858,-0.0013925414003455,0.0013925414023737,-0.0013925414003467,0.0013925414019228,-0.0013411716524279,0.001341171654073,-0.0013411716520539,0.001341171651656,-0.0013411716547631,0.0013411716504806,-0.0013411716528927,0.0013411716521038,-6.6871784759937e-12,6.8487993032942e-12,-0.0013680518621115,0.0013680518621523,-3.7017380909129e-13,3.5193177813752e-13,-0.0013925414039103,0.001392541398817,-0.001392541403348,0.0013925413987832,-0.0013925413993172,0.0013925414037387,-0.0013925413991257,0.0013925414040414,-0.001341171644272,0.0013411716584072,-0.0013411716587177,0.0013411716457636,0.73062466295522,0.63314123000178,1368840,32768,0.0056839845076868,0.0056839845078137,0.0056839845075193,17.330292782523,17.312987086562,5.3842342260184e-05,5.3842342260184e-05,5.3842342260184e-05,305767.95831407,0.017198363758369
20995200,0.99982917327354,0.01691228766404,0.0056374292213487,0.005637429221408,0.0056374292212837,-0.0013671089220922,0.0013671089215677,6.3003522344463e-12,-6.6302869786958e-12,5.2539689066211e-13,-1.0291487955048e-12,-0.0013916827292131,0.0013916827334825,-0.0013916827333318,0.001391682729042,-0.0013916827303398,0.0013916827332694,-0.0013916827342403,0.0013916827291105,-0.0013401499168968,0.0013401499299016,-0.0013401499289571,0.0013401499150637,-8.0896266909869e-13,7.9333952872785e-13,8.9170631780761e-13,3.1937239045152e-13,-0.0013671089216951,0.0013671089219791,-0.0013916827312814,0.0013916827310393,-0.0013916827314143,0.0013916827317699,-0.0013916827301971,0.0013916827326846,-0.0013916827311316,0.0013916827319158,-0.0013401499211285,0.0013401499233934,-0.0013401499210219,0.0013401499211455,-0.0013401499229358,0.0013401499197162,-0.0013401499218001,0.0013401499213023,-6.4540725972183e-12,6.9874936839232e-12,-0.001367108921736,0.0013671089219829,-2.3498138030366e-13,3.5495618574394e-13,-0.0013916827335347,0.0013916827293612,-0.0013916827339193,0.001391682729004,-0.0013916827293929,0.0013916827334345,-0.0013916827290687,0.0013916827338357,-0.0013401499132566,0.001340149927997,-0.0013401499272619,0.001340149915524,0.72798884908834,0.59471585585634,1368840,32768,0.0056800777000313,0.0056800777000609,0.0056800777001536,16.935851977779,16.918542617924,5.0686815822234e-05,5.0686815822234e-05,5.0686815822234e-05,310432.42201854,0.01718644234499
21081600,0.99983208159146,0.016912334077057,0.0056374446923542,0.0056374446924134,0.0056374446922892,-0.0013662238641989,0.0013662238630687,5.947328195559e-12,-7.0950868382026e-12,2.6444462728051e-13,-1.4033277175368e-12,-0.001390863329967,0.0013908633339073,-0.0013908633345122,0.0013908633293069,-0.0013908633311745,0.0013908633337757,-0.001390863335459,0.0013908633295697,-0.001339205412538,0.0013392054240277,-0.0013392054253321,0.0013392054103648,-9.9782189957884e-13,7.1907309163417e-13,7.2729236995262e-13,1.1938782337218e-13,-0.0013662238635851,0.00136622386371,-0.0013908633319538,0.0013908633322653,-0.0013908633322732,0.001390863332348,-0.0013908633313476,0.0013908633331069,-0.0013908633315827,0.0013908633327394,-0.0013392054175123,0.0013392054181938,-0.0013392054168755,0.0013392054160025,-0.0013392054197271,0.0013392054151337,-0.0013392054174472,0.0013392054165004,-6.6584651766947e-12,6.8936697560621e-12,-0.0013662238635633,0.0013662238636835,-2.8347757524878e-13,3.4481387793742e-13,-0.0013908633346931,0.0013908633299255,-0.0013908633344068,0.0013908633296742,-0.001390863329997,0.0013908633345513,-0.0013908633296507,0.0013908633346481,-0.0013392054094015,0.0013392054235081,-0.0013392054228701,0.0013392054099476,0.72816123852676,0.60389552379455,1368840,32768,0.0056764107488453,0.0056764107489023,0.0056764107488023,16.54140783646,16.524098149287,4.7531262691678e-05,4.7531262691678e-05,4.7531262691678e-05,313622.63226298,0.017175252813132
21168000,0.99983486984922,0.016912378585627,0.0056374595285442,0.0056374595286035,0.0056374595284792,-0.0013654923120357,0.0013654923109643,5.9819063745135e-12,-7.0576208651153e-12,2.7251391018122e-13,-1.3662114396489e-12,-0.0013901195765119,0.0013901195804131,-0.0013901195809793,0.0013901195759324,-0.0013901195776837,0.0013901195803896,-0.001390119581934,0.0013901195761134,-0.0013384857635676,0.0013384857753965,-0.0013384857768597,0.0013384857617562,-9.6880240375158e-13,7.2035005262389e-13,7.1171381645498e-13,1.1121242606613e-13,-0.0013654923114679,0.001365492311565,-0.0013901195785592,0.0013901195787929,-0.0013901195787837,0.0013901195788469,-0.0013901195779367,0.0013901195796269,-0.0013901195781745,0.0013901195792559,-0.00133848576887,0.0013384857695753,-0.0013384857680456,0.0013384857675733,-0.0013384857705511,0.0013384857665592,-0.0013384857687362,0.0013384857680602,-6.7177514831858e-12,6.8335617982013e-12,-0.0013654923114503,0.0013654923115235,-2.7249035207738e-13,3.5073952044252e-13,-0.001390119581213,0.0013901195764801,-0.0013901195809557,0.0013901195762485,-0.001390119576605,0.0013901195810542,-0.0013901195762535,0.0013901195811767,-0.0013384857606064,0.001338485774651,-0.0013384857743637,0.0013384857609051,0.72838415094873,0.61307519173275,1368840,32768,0.0056733798948026,0.0056733798948706,0.0056733798947484,16.146963470769,16.129653680649,4.4375707766151e-05,4.4375707766151e-05,4.4375707766151e-05,312378.33262427,0.017166004018982
21254400,0.99983754795666,0.016912421352277,0.0056374737840943,0.0056374737841535,0.0056374737840292,-0.0013648065662227,0.0013648065651628,5.9873225619938e-12,-7.0502725013675e-12,2.6310066833753e-13,-1.3493945416289e-12,-0.0013894207407922,0.0013894207446869,-0.0013894207452519,0.0013894207402169,-0.0013894207419548,0.0013894207446768,-0.0013894207461993,0.0013894207404053,-0.0013378125682835,0.0013378125801616,-0.0013378125816526,0.0013378125665404,-9.5515596769965e-13,7.0769743915254e-13,7.0254659650725e-13,1.0767753405466e-13,-0.0013648065656653,0.0013648065657528,-0.0013894207428369,0.0013894207430666,-0.0013894207430586,0.0013894207431207,-0.001389420742228,0.0013894207438912,-0.0013894207424604,0.0013894207435192,-0.0013378125736483,0.0013378125743428,-0.0013378125727955,0.0013378125723497,-0.0013378125752365,0.0013378125713598,-0.001337812573523,0.0013378125728502,-6.7274040706588e-12,6.8220860899528e-12,-0.0013648065656464,0.0013648065657129,-2.6631404075945e-13,3.5135009002534e-13,-0.0013894207454913,0.0013894207407596,-0.0013894207452363,0.0013894207405276,-0.0013894207408871,0.0013894207453269,-0.0013894207405388,0.0013894207454515,-0.0013378125653683,0.0013378125793889,-0.001337812579156,0.0013378125656115,0.72865281532449,0.62225485967096,1368840,32768,0.005670538811557,0.0056705388116243,0.0056705388115028,15.776135003238,15.759837860259,4.1409080025901e-05,4.1409080025901e-05,4.1409080025901e-05,311106.72561153,0.017157334388752
21340800,0.99984013437163,0.016912462672648,0.0056374875575513,0.0056374875576106,0.0056374875574863,-0.0013642766926402,0.0013642766915961,6.0575470049206e-12,-7.1090384119916e-12,2.0563854141313e-13,-1.265154350403e-12,-0.0013888764434473,0.0013888764473648,-0.0013888764479232,0.0013888764428342,-0.0013888764445816,0.0013888764474518,-0.0013888764488941,0.0013888764430771,-0.001337296171,0.0013372961827775,-0.0013372961843883,0.0013372961692876,-8.3899333991761e-13,6.8297825313024e-13,6.3305495472333e-13,1.2129350044917e-13,-0.0013642766920907,0.0013642766921772,-0.001388876445516,0.0013888764457042,-0.00138887644571,0.0013888764457888,-0.0013888764449621,0.0013888764465308,-0.0013888764451336,0.0013888764461726,-0.0013372961767029,0.0013372961770827,-0.0013372961755979,0.0013372961751597,-0.0013372961778998,0.0013372961743436,-0.0013372961762187,0.0013372961758118,-6.8046607105215e-12,6.8722196760532e-12,-0.0013642766920904,0.0013642766921274,-2.4624338919819e-13,2.8725657744992e-13,-0.0013888764482391,0.0013888764434398,-0.0013888764479951,0.0013888764431533,-0.0013888764435367,0.0013888764480362,-0.0013888764432282,0.0013888764481647,-0.0013372961684551,0.0013372961823504,-0.0013372961821331,0.0013372961685356,0.7289632890631,0.63143452760916,1368840,32768,0.0056683435181762,0.0056683435182418,0.0056683435181382,15.485953537955,15.473137570449,3.9087628303638e-05,3.9087628303638e-05,3.9087628303638e-05,309798.91931251,0.017150635419057
21427200,0.99984263340282,0.016912502616853,0.0056375008722862,0.0056375008723454,0.0056375008722212,-0.0013637532412909,0.0013637532402716,6.0431982079724e-12,-7.1056434568817e-12,2.5162484244555e-13,-1.2376923069967e-12,-0.0013883397180105,0.001388339721941,-0.0013883397225052,0.0013883397174644,-0.0013883397191233,0.0013883397219752,-0.0013883397233666,0.0013883397176042,-0.0013367854322238,0.0013367854442102,-0.0013367854456182,0.0013367854303848,-9.1948496918888e-13,6.2285873679902e-13,6.6090972142638e-13,5.1549660487375e-14,-0.0013637532407878,0.0013637532408144,-0.0013883397200894,0.0013883397202911,-0.0013883397203353,0.0013883397203175,-0.0013883397195308,0.0013883397211156,-0.0013883397197032,0.0013883397207024,-0.0013367854378523,0.0013367854383602,-0.0013367854369329,0.0013367854362888,-0.0013367854390228,0.0013367854353512,-0.0013367854375538,0.0013367854366378,-6.7572380416044e-12,6.9024886042994e-12,-0.0013637532407361,0.0013637532408125,-2.7257140842469e-13,3.5827796661876e-13,-0.0013883397227504,0.0013883397179802,-0.0013883397225243,0.0013883397177648,-0.0013883397181024,0.0013883397226183,-0.0013883397177227,0.0013883397226991,-0.0013367854294297,0.0013367854436516,-0.0013367854432364,0.0013367854296959,0.72931336244304,0.64061419554737,1368840,32768,0.0056661748237425,0.0056661748238245,0.0056661748237136,15.199034749869,15.18643728064,3.6792277998947e-05,3.6792277998947e-05,3.6792277998947e-05,308514.68968511,0.017144017678803
21513600,0.99984504864225,0.016912541598422,0.0056375138661426,0.0056375138662018,0.0056375138660776,-0.0013632302673256,0.0013632302663578,6.0791326984336e-12,-7.0657895567439e-12,1.8903675446868e-13,-1.1293380289102e-12,-0.0013878034216296,0.001387803425572,-0.001387803426164,0.0013878034210784,-0.0013878034227936,0.0013878034255915,-0.0013878034269806,0.0013878034212998,-0.0013362752104901,0.0013362752222335,-0.001336275223532,0.0013362752085689,-8.8556797591798e-13,4.829051299327e-13,6.6279810491403e-13,7.6726156068599e-14,-0.0013632302668463,0.0013632302668615,-0.0013878034235963,0.0013878034239043,-0.0013878034238211,0.0013878034240306,-0.0013878034230747,0.0013878034247372,-0.001387803423289,0.0013878034242979,-0.0013362752155815,0.0013362752164221,-0.0013362752145875,0.0013362752142679,-0.0013362752171314,0.0013362752133665,-0.0013362752158128,0.0013362752145045,-6.7480670276549e-12,6.9094190984599e-12,-0.00136323026678,0.0013632302668744,-2.4731753285443e-13,3.6169130352013e-13,-0.0013878034263668,0.001387803421603,-0.0013878034260679,0.0013878034213073,-0.0013878034217474,0.0013878034261718,-0.001387803421401,0.0013878034262736,-0.001336275207243,0.001336275221381,-0.0013362752207948,0.0013362752075706,0.73640785484355,0.77112383032438,1368840,32768,0.0056640081013566,0.005664008101407,0.0056640081012967,14.912320645773,14.89973699083,3.4498565166181e-05,3.4498565166181e-05,3.4498565166181e-05,307226.20198,0.0171374060035
21600000,0.99984738347744,0.016912579000678,0.0056375263335611,0.0056375263336203,0.0056375263334961,-0.001363066957994,0.0013630669565913,5.9755200401998e-12,-7.3093376459287e-12,-7.3047415510421e-14,-1.4098959286472e-12,-0.0013874530974712,0.0013874531008223,-0.0013874531015791,0.0013874530966007,-0.0013874530987588,0.0013874531006457,-0.0013874531031251,0.0013874530968071,-0.0013362865118631,0.0013362865230566,-0.0013362865232724,0.0013362865067226,-7.3914868422095e-13,6.5123645811441e-13,6.9501876765373e-13,1.5292750464029e-13,-0.0013630669572519,0.0013630669574136,-0.0013874530989424,0.0013874530991944,-0.0013874530997043,0.0013874530992342,-0.0013874530988101,0.0013874530999993,-0.0013874530990179,0.0013874530994423,-0.0013362865154108,0.0013362865176225,-0.0013362865150422,0.001336286515211,-0.0013362865174318,0.0013362865156639,-0.001336286516857,0.0013362865160446,-6.7018877913401e-12,7.0953752705677e-12,-0.001363066957138,0.0013630669574338,-7.1450758404847e-14,4.9274727043853e-13,-0.0013874531015807,0.0013874530967917,-0.0013874531018422,0.0013874530966924,-0.0013874530976924,0.0013874531018247,-0.0013874530970909,0.0013874531022757,-0.0013362865075871,0.0013362865236359,-0.001336286521523,0.0013362865091423,0.73089914244273,0.66996005977473,1368840,32768,0.0056633318166953,0.0056633318168615,0.0056633318166675,14.625618739923,14.613036701021,3.2204949919381e-05,3.2204949919381e-05,3.2204949919381e-05,295827.60056629,0.017135341226212
21686400,0.99984964113174,0.016912615113937,0.0056375383713142,0.0056375383713734,0.0056375383712492,-0.0013622216882135,0.0013622216872548,6.1675392329688e-12,-7.0822108786132e-12,1.614778904907e-13,-1.1544808490496e-12,-0.0013867485175714,0.0013867485214696,-0.001386748522052,0.0013867485169997,-0.0013867485186455,0.0013867485215668,-0.0013867485229398,0.001386748517309,-0.0013353102110497,0.001335310223695,-0.0013353102246622,0.0013353102096048,-8.8288264618825e-13,4.8316818072021e-13,5.9396411950974e-13,3.9644200661588e-14,-0.0013622216877834,0.0013622216877179,-0.0013867485196821,0.0013867485198442,-0.0013867485199254,0.001386748519918,-0.0013867485192181,0.0013867485205731,-0.0013867485194064,0.0013867485202161,-0.00133531021662,0.0013353102171469,-0.001335310215947,0.0013353102152192,-0.0013353102181816,0.0013353102148057,-0.0013353102165978,0.0013353102156558,-6.8298687639622e-12,6.932370514957e-12,-0.0013622216876911,0.0013622216877528,-2.2637502557483e-13,3.5096868991214e-13,-0.0013867485223306,0.0013867485174987,-0.0013867485221036,0.0013867485172661,-0.0013867485176755,0.0013867485221705,-0.0013867485173692,0.0013867485222532,-0.0013353102079769,0.0013353102224827,-0.0013353102223338,0.0013353102084778,0.72971739393524,0.65084678893061,1368840,32768,0.0056598294872583,0.0056598294873268,0.0056598294872078,14.338918319383,14.326336411212,2.9911346555066e-05,2.9911346555066e-05,2.9911346555066e-05,303556.39093643,0.017124655154727
21772800,0.99985182467473,0.01691264997691,0.0056375499923053,0.0056375499923645,0.0056375499922403,-0.0013616116815848,0.0013616116807943,6.2469856882871e-12,-7.0541179133046e-12,2.9460947047114e-13,-1.1618462710998e-12,-0.0013861674573018,0.0013861674615418,-0.0013861674618655,0.0013861674568175,-0.0013861674582928,0.0013861674615873,-0.0013861674626626,0.0013861674570143,-0.0013346736589591,0.0013346736714921,-0.0013346736728178,0.0013346736573533,-8.6876319517485e-13,6.3864743093584e-13,7.1400045248217e-13,9.8709013919146e-14,-0.0013616116811574,0.0013616116812414,-0.0013861674594934,0.001386167459854,-0.0013861674595916,0.0013861674598194,-0.0013861674587033,0.0013861674604938,-0.0013861674591227,0.0013861674600009,-0.0013346736646717,0.0013346736651764,-0.0013346736642569,0.0013346736632965,-0.0013346736662989,0.0013346736627558,-0.0013346736650345,0.0013346736640319,-6.8649098111293e-12,6.9471436812939e-12,-0.0013616116811231,0.0013616116811871,-2.9885616426697e-13,3.3894782184729e-13,-0.0013861674620132,0.0013861674573978,-0.0013861674619333,0.0013861674571332,-0.0013861674573312,0.0013861674619083,-0.0013861674571439,0.0013861674621654,-0.0013346736564875,0.0013346736710047,-0.0013346736705458,0.0013346736564678,0.72844761675816,0.63173351808647,1368840,32768,0.0056573020878025,0.005657302087843,0.0056573020876597,14.052217994852,14.039636121402,2.7617743958817e-05,2.7617743958817e-05,2.7617743958817e-05,304737.13930103,0.017116943310428
21859200,0.99985395374874,0.01691268390635,0.0056375613021187,0.0056375613021779,0.0056375613020537,-0.0013612356517255,0.0013612356507356,6.1604103919265e-12,-7.1749291049585e-12,2.3973497037886e-13,-1.2373346708634e-12,-0.0013858194612161,0.0013858194652147,-0.0013858194657304,0.0013858194605732,-0.0013858194623072,0.0013858194653074,-0.0013858194666339,0.0013858194607848,-0.0013342715779213,0.0013342715901941,-0.0013342715916439,0.0013342715762419,-8.8202531943782e-13,6.4512170373948e-13,7.0970061325107e-13,7.6246111910089e-14,-0.0013612356512185,0.001361235651283,-0.001385819463238,0.0013858194635348,-0.0013858194635567,0.0013858194635978,-0.0013858194626978,0.0013858194643192,-0.0013858194630032,0.0013858194639214,-0.0013342715833394,0.0013342715839908,-0.001334271582873,0.0013342715823083,-0.001334271584972,0.0013342715814221,-0.0013342715835524,0.0013342715827745,-6.889421356436e-12,6.9576258316597e-12,-0.0013612356511858,0.0013612356512547,-3.0578601138843e-13,3.5040341306332e-13,-0.0013858194660392,0.0013858194611706,-0.0013858194657244,0.0013858194609712,-0.0013858194612903,0.0013858194658543,-0.0013858194608675,0.0013858194660055,-0.0013342715751404,0.0013342715894804,-0.001334271589209,0.0013342715753222,0.72710392138027,0.61262024724234,1368840,32768,0.0056557440935858,0.0056557440936696,0.0056557440935433,13.887494274544,13.880143331814,2.6299954196348e-05,2.6299954196348e-05,2.6299954196348e-05,305934.28573777,0.017112189470625
21945600,0.99985607097554,0.016912717579623,0.005637572526543,0.0056375725266022,0.005637572526478,-0.0013614421793912,0.0013614421784046,6.1617859381398e-12,-7.1580574439056e-12,1.9605030491541e-13,-1.2236715588503e-12,-0.0013860515939696,0.0013860515979914,-0.0013860515985733,0.0013860515934129,-0.001386051595041,0.0013860515980351,-0.0013860515993915,0.0013860515936615,-0.0013344535760235,0.0013344535880576,-0.0013344535897165,0.0013344535744122,-8.8096511653217e-13,5.8899465367645e-13,6.8022357257796e-13,6.8252032594313e-14,-0.0013614421788986,0.0013614421789287,-0.001386051596008,0.0013860515963252,-0.0013860515962641,0.0013860515963519,-0.0013860515955616,0.0013860515970628,-0.0013860515957736,0.0013860515966889,-0.0013344535816876,0.0013344535821569,-0.0013344535808158,0.0013344535804102,-0.0013344535830975,0.0013344535793986,-0.0013344535818335,0.0013344535807691,-6.8585184769684e-12,6.9727399875796e-12,-0.0013614421788396,0.0013614421789231,-2.7514218283047e-13,3.5979433205954e-13,-0.0013860515987764,0.0013860515939447,-0.0013860515985218,0.0013860515937293,-0.0013860515940492,0.0013860515986266,-0.0013860515936579,0.0013860515987382,-0.0013344535736327,0.0013344535876761,-0.0013344535873942,0.0013344535735459,0.72569444112987,0.59350697639821,1368840,32768,0.0056565997404709,0.0056565997405361,0.0056565997404023,14.025212572277,14.030949382006,2.7401700578217e-05,2.7401700578217e-05,2.7401700578217e-05,307113.00608974,0.017114800431927
22032000,0.99985817779349,0.016912751018758,0.0056375836729214,0.0056375836729806,0.0056375836728564,-0.0013616707545422,0.0013616707535762,6.217815991166e-12,-7.1462640983019e-12,1.9642123476022e-13,-1.20212704055e-12,-0.0013863117206319,0.0013863117246364,-0.0013863117251864,0.0013863117200527,-0.0013863117217112,0.0013863117247203,-0.0013863117260789,0.0013863117202985,-0.001334653495615,0.0013346535080198,-0.0013346535093435,0.0013346534942513,-8.8638300984278e-13,5.6271986811782e-13,6.3755246438632e-13,5.6435099475861e-14,-0.0013616707540871,0.0013616707540714,-0.001386311722746,0.0013863117229061,-0.0013863117230027,0.0013863117229792,-0.0013863117222117,0.0013863117236894,-0.0013863117224267,0.0013863117233077,-0.0013346535015919,0.0013346535020299,-0.0013346535005912,0.0013346535000355,-0.0013346535026525,0.0013346534992426,-0.001334653501499,0.0013346535005556,-6.9013556389107e-12,6.9748670402467e-12,-0.0013616707540107,0.0013616707540865,-2.5729625742301e-13,3.4620701184873e-13,-0.0013863117254098,0.0013863117205819,-0.0013863117251879,0.0013863117203756,-0.0013863117206907,0.0013863117253202,-0.0013863117203539,0.0013863117254115,-0.0013346534931431,0.0013346535073366,-0.0013346535072704,0.0013346534933619,0.7242273275819,0.57439370555408,1368840,32768,0.0056575467219433,0.0056575467220263,0.0056575467218994,14.175196573787,14.181755432198,2.8601572590291e-05,2.8601572590291e-05,2.8601572590291e-05,308468.80164947,0.017117690152025
22118400,0.99986027403345,0.016912784219444,0.0056375947398166,0.0056375947398758,0.0056375947397516,-0.0013618993414964,0.0013618993405234,6.1966820485582e-12,-7.1968120246857e-12,2.2019539082902e-13,-1.1986085009801e-12,-0.0013865731077995,0.0013865731118272,-0.0013865731123892,0.0013865731072698,-0.0013865731089671,0.0013865731120175,-0.0013865731133711,0.0013865731075997,-0.001334852494364,0.0013348525066207,-0.0013348525080705,0.0013348524925163,-8.6137100923635e-13,6.0814265695339e-13,6.873312377966e-13,7.794132482838e-14,-0.0013618993410056,0.0013618993410517,-0.0013865731099522,0.0013865731101551,-0.0013865731101114,0.0013865731102272,-0.0013865731094497,0.0013865731109368,-0.0013865731096864,0.0013865731105408,-0.0013348524999933,0.0013348525004957,-0.0013348524992418,0.0013348524985423,-0.0013348525014262,0.0013348524977857,-0.0013348524998968,0.0013348524988751,-6.9105171237395e-12,6.9945789674726e-12,-0.0013618993409579,0.0013618993410248,-2.8733181044572e-13,3.441353986645e-13,-0.0013865731126816,0.0013865731077484,-0.0013865731124181,0.0013865731075295,-0.0013865731078917,0.0013865731124474,-0.0013865731075178,0.0013865731126805,-0.0013348524915513,0.0013348525060875,-0.0013348525055671,0.001334852491697,0.7227092771327,0.55528043470995,1368840,32768,0.0056584937514181,0.0056584937514956,0.0056584937513415,14.325947504366,14.332561482391,2.9807580034926e-05,2.9807580034926e-05,2.9807580034926e-05,309888.5815482,0.017120580027891
22204800,0.99986235942884,0.016912817203594,0.0056376057345333,0.0056376057345926,0.0056376057344683,-0.0013621265907345,0.00136212658974,6.1646244984825e-12,-7.1802072378329e-12,2.2181875300112e-13,-1.2119942685247e-12,-0.0013868341103215,0.0013868341142973,-0.0013868341148728,0.0013868341097172,-0.0013868341114089,0.0013868341143485,-0.0013868341157322,0.0013868341099831,-0.0013350494086096,0.0013350494209243,-0.0013350494223325,0.0013350494069721,-9.0936754297519e-13,5.7489979014721e-13,6.7455068705719e-13,8.1191519654806e-14,-0.0013621265902412,0.0013621265902664,-0.0013868341123793,0.0013868341126236,-0.0013868341126016,0.0013868341126886,-0.0013868341118403,0.0013868341133751,-0.0013868341120748,0.0013868341130087,-0.0013350494141923,0.0013350494147703,-0.0013350494134127,0.0013350494129208,-0.0013350494158043,0.0013350494119804,-0.0013350494141906,0.001335049413294,-6.8884772676302e-12,6.9680967764854e-12,-0.0013621265901924,0.0013621265902562,-2.6681623130022e-13,3.4893486969101e-13,-0.001386834115084,0.001386834110274,-0.0013868341148301,0.0013868341100252,-0.0013868341103959,0.0013868341149497,-0.0013868341100443,0.0013868341150353,-0.0013350494058,0.0013350494201289,-0.0013350494198977,0.0013350494059784,0.7217463630095,0.54581434588776,1368840,32768,0.0056594352382925,0.0056594352383612,0.0056594352382391,14.476749822786,14.483367532583,3.101399858229e-05,3.101399858229e-05,3.101399858229e-05,311363.98504202,0.017123452997384
22291200,0.99986443370862,0.016912850247326,0.0056376167491105,0.0056376167491697,0.0056376167490455,-0.0013623850506517,0.0013623850496486,6.1825615975753e-12,-7.1824342874451e-12,1.9423853673427e-13,-1.2379660045177e-12,-0.001387110876041,0.00138711088005,-0.0013871108806177,0.0013871108754565,-0.0013871108771492,0.0013871108801078,-0.0013871108815031,0.0013871108757211,-0.0013352917827897,0.0013352917951248,-0.0013352917965366,0.0013352917812411,-8.9665590189533e-13,5.8595633473031e-13,6.7993449317384e-13,9.9401257477463e-14,-0.0013623850501497,0.0013623850501843,-0.0013871108781568,0.0013871108783787,-0.0013871108783675,0.0013871108784323,-0.0013871108776005,0.0013871108791408,-0.0013871108778324,0.0013871108787692,-0.0013352917884412,0.0013352917890601,-0.001335291787608,0.0013352917871367,-0.0013352917899451,0.0013352917862303,-0.0013352917884758,0.0013352917874901,-6.9044835433554e-12,6.9723539111387e-12,-0.0013623850501101,0.0013623850501659,-2.640934615378e-13,3.393596916179e-13,-0.001387110880856,0.0013871108760107,-0.0013871108806042,0.0013871108757812,-0.0013871108761451,0.0013871108806955,-0.0013871108757952,0.0013871108808144,-0.0013352917800678,0.0013352917943391,-0.0013352917941843,0.0013352917802534,0.72692667628462,0.6415819639154,1368840,32768,0.0056605060595404,0.00566050605961,0.0056605060594899,14.62755553944,14.634173582776,3.2220444315517e-05,3.2220444315517e-05,3.2220444315517e-05,311942.21195716,0.017126720535617
22377600,0.99986649660367,0.016912883188967,0.0056376277296577,0.0056376277297169,0.0056376277295927,-0.0013629832932888,0.001362983292297,6.2207961942405e-12,-7.1622860794296e-12,1.7468831045085e-13,-1.2254385048713e-12,-0.001387559894045,0.0013875598980441,-0.0013875598986427,0.0013875598934631,-0.0013875598951185,0.0013875598980532,-0.0013875598994821,0.0013875598937454,-0.0013360287852874,0.0013360287980512,-0.0013360287987753,0.0013360287835709,-8.9329859269412e-13,5.5700457212796e-13,6.6170499124908e-13,8.7049634811057e-14,-0.0013629832927996,0.0013629832928245,-0.0013875598961303,0.0013875598963271,-0.0013875598963578,0.0013875598964432,-0.001387559895568,0.0013875598970894,-0.0013875598958253,0.0013875598967987,-0.0013360287912166,0.0013360287916591,-0.0013360287903541,0.0013360287897111,-0.001336028792758,0.0013360287887139,-0.0013360287911792,0.0013360287902047,-6.8757341275127e-12,7.0194755892509e-12,-0.0013629832927422,0.0013629832928244,-2.4131459859289e-13,3.5619264797087e-13,-0.0013875598988624,0.0013875598939769,-0.0013875598985957,0.0013875598937626,-0.0013875598941384,0.0013875598986866,-0.0013875598937927,0.001387559898793,-0.0013360287824222,0.0013360287972944,-0.0013360287969678,0.0013360287832451,0.72868186257872,0.67319470915952,1368840,32768,0.0056629849140529,0.0056629849141321,0.0056629849140131,14.778361518023,14.784979632968,3.3426892144182e-05,3.3426892144182e-05,3.3426892144182e-05,302756.65840865,0.017134283610878
22464000,0.99986854784733,0.01691291600972,0.0056376386699087,0.0056376386699679,0.0056376386698437,-0.0013633734312449,0.0013633734302824,6.2293628148891e-12,-7.1705432389437e-12,1.657865235708e-13,-1.1789396312623e-12,-0.0013879023042161,0.0013879023082614,-0.001387902308809,0.0013879023036629,-0.0013879023052794,0.0013879023082915,-0.0013879023096331,0.0013879023039191,-0.0013364632533718,0.0013364632658584,-0.0013364632670953,0.0013364632519331,-8.854315977313e-13,5.094722595016e-13,6.572179224436e-13,3.8797079481735e-14,-0.0013633734307934,0.0013633734307651,-0.0013879023062806,0.0013879023065527,-0.0013879023065415,0.0013879023065764,-0.0013879023057486,0.0013879023072876,-0.0013879023060321,0.0013879023068581,-0.0013364632592277,0.0013364632596987,-0.001336463258208,0.0013364632577944,-0.0013364632605801,0.0013364632568207,-0.0013364632593456,0.001336463258111,-6.8996898074478e-12,7.0121758416649e-12,-0.0013633734307068,0.0013633734307871,-2.7102180870507e-13,3.6986581850019e-13,-0.0013879023090314,0.0013879023041765,-0.001387902308751,0.0013879023039555,-0.0013879023042856,0.0013879023088546,-0.0013879023039326,0.0013879023090034,-0.0013364632506005,0.001336463264967,-0.0013364632648123,0.0013364632509367,0.73003245052655,0.69548811134312,1368840,32768,0.0056646013853616,0.0056646013854262,0.0056646013852925,14.929167513426,14.93578568316,3.4633340107409e-05,3.4633340107409e-05,3.4633340107409e-05,299516.72277132,0.01713921585353
22550400,0.99987058717552,0.016912948682664,0.00563764956089,0.0056376495609492,0.0056376495608249,-0.0013637346744054,0.0013637346734342,6.2363156024862e-12,-7.1988519035452e-12,1.6330636404385e-13,-1.1916209497391e-12,-0.0013882300049624,0.0013882300089798,-0.001388230009542,0.0013882300044047,-0.0013882300060205,0.0013882300090608,-0.0013882300103951,0.001388230004671,-0.0013368554911966,0.0013368555036438,-0.0013368555050178,0.0013368554895995,-8.8088103086564e-13,5.2424169065856e-13,6.4412673413512e-13,4.7889331131453e-14,-0.0013637346739405,0.0013637346739317,-0.0013882300070565,0.001388230007309,-0.0013882300072924,0.001388230007349,-0.0013882300065344,0.0013882300080288,-0.001388230006768,0.0013882300076546,-0.0013368554969304,0.0013368554974528,-0.0013368554962038,0.0013368554954734,-0.0013368554983156,0.0013368554946606,-0.001336855497077,0.001336855495985,-6.9274427243211e-12,7.0196286728096e-12,-0.0013637346738728,0.0013637346739416,-2.6736630273121e-13,3.516606393618e-13,-0.0013882300098001,0.0013882300049482,-0.0013882300095338,0.0013882300047172,-0.0013882300050785,0.0013882300096329,-0.0013882300047178,0.0013882300097586,-0.0013368554884029,0.0013368555028495,-0.0013368555025823,0.0013368554885913,0.73095546960561,0.70836833440601,1368840,32768,0.0056660981127632,0.0056660981128307,0.0056660981127112,15.079973522265,15.086591733353,3.5839788178115e-05,3.5839788178115e-05,3.5839788178115e-05,297092.1932268,0.017143782823582
22636800,0.99987261033892,0.016912981142051,0.0056376603806855,0.0056376603807448,0.0056376603806205,-0.0013640084936175,0.0013640084926701,6.2364283637473e-12,-7.1887270952041e-12,1.7530446809824e-13,-1.1542092102891e-12,-0.001388484371741,0.0013884843757614,-0.0013884843763249,0.0013884843711635,-0.0013884843727853,0.0013884843758599,-0.0013884843771426,0.0013884843714319,-0.0013371471457217,0.0013371471582448,-0.0013371471595584,0.0013371471442595,-8.8822521827046e-13,4.9165874486871e-13,5.9807617036e-13,6.6293357136386e-14,-0.0013640084931801,0.0013640084931421,-0.001388484373831,0.0013884843740497,-0.0013884843740275,0.0013884843741171,-0.0013884843733142,0.0013884843747713,-0.0013884843735258,0.0013884843744421,-0.0013371471515807,0.0013371471519816,-0.0013371471507132,0.001337147150049,-0.0013371471529161,0.0013371471492441,-0.0013371471516265,0.0013371471504928,-6.9119081400685e-12,7.0250781828014e-12,-0.0013640084930958,0.0013640084931614,-2.4419354005497e-13,3.1065280388773e-13,-0.0013884843765283,0.0013884843716984,-0.0013884843762909,0.0013884843714479,-0.0013884843717888,0.0013884843763898,-0.0013884843714726,0.001388484376494,-0.0013371471429941,0.0013371471573486,-0.001337147157195,0.0013371471431808,0.7319507670239,0.7212485574689,1368840,32768,0.0056672326032973,0.005667232603369,0.0056672326032345,15.199972306609,15.205269390036,3.6799778452871e-05,3.6799778452871e-05,3.6799778452871e-05,295462.54082907,0.017147244565782
22723200,0.99987460837375,0.016913013246485,0.0056376710821636,0.0056376710822229,0.0056376710820986,-0.0013641488845408,0.0013641488835781,6.219219301237e-12,-7.1886585090641e-12,1.6669426054594e-13,-1.1565338451555e-12,-0.0013886059104623,0.0013886059144823,-0.0013886059150463,0.0013886059098894,-0.0013886059115256,0.001388605914563,-0.001388605915896,0.0013886059101698,-0.0013373047804851,0.0013373047929808,-0.001337304794328,0.0013373047790207,-8.5787082204701e-13,5.1572989186464e-13,6.2833492244648e-13,7.7985117608188e-14,-0.0013641488840828,0.0013641488840679,-0.0013886059125791,0.0013886059127914,-0.0013886059127847,0.0013886059128478,-0.0013886059120561,0.0013886059135125,-0.0013886059122676,0.0013886059131525,-0.0013373047863164,0.0013373047867639,-0.0013373047854,0.0013373047848039,-0.0013373047876677,0.0013373047839691,-0.0013373047862698,0.0013373047851936,-6.9269618566584e-12,6.9927304357087e-12,-0.0013641488840253,0.0013641488840721,-2.5225617609992e-13,3.2111351373199e-13,-0.0013886059152853,0.0013886059104249,-0.0013886059150345,0.0013886059101831,-0.0013886059105568,0.001388605915111,-0.0013886059102292,0.0013886059152276,-0.0013373047777369,0.0013373047920608,-0.0013373047919472,0.0013373047778929,0.73302834031,0.73412878053179,1368840,32768,0.0056678142802895,0.0056678142803552,0.0056678142802451,15.25092257771,15.253228775121,3.7207380621678e-05,3.7207380621678e-05,3.7207380621678e-05,293844.74928906,0.017149019450841
22809600,0.99987658113355,0.016913044996252,0.0056376816654194,0.0056376816654786,0.0056376816653543,-0.0013642838365869,0.0013642838356373,6.2199255149568e-12,-7.1697373223875e-12,1.6163459158594e-13,-1.1340027687585e-12,-0.0013887207584362,0.0013887207624462,-0.0013887207630188,0.0013887207578631,-0.0013887207594959,0.0013887207625492,-0.0013887207638598,0.0013887207581489,-0.0013374576138685,0.0013374576263781,-0.0013374576276388,0.0013374576124105,-8.5019943875545e-13,4.9576256067643e-13,6.2606925636691e-13,7.6234935780924e-14,-0.0013642838361406,0.0013642838361182,-0.0013887207605528,0.001388720760761,-0.0013887207607605,0.0013887207608232,-0.0013887207600462,0.0013887207614836,-0.0013887207602767,0.0013887207611229,-0.0013374576196724,0.0013374576201601,-0.0013374576187636,0.0013374576181419,-0.0013374576210461,0.0013374576174435,-0.0013374576196531,0.0013374576185924,-6.9118210839044e-12,6.989705881048e-12,-0.0013642838360732,0.0013642838361261,-2.4667952293343e-13,3.2613841904811e-13,-0.0013887207632506,0.0013887207583938,-0.0013887207630163,0.0013887207581547,-0.0013887207585377,0.0013887207630865,-0.0013887207582084,0.0013887207631981,-0.001337457611107,0.0013374576254343,-0.0013374576253034,0.0013374576113382,0.73419959513889,0.74700900359468,1368840,32768,0.0056683734240585,0.00566837342413,0.005668373424007,15.299069842133,15.301188160207,3.7592558737063e-05,3.7592558737063e-05,3.7592558737063e-05,292193.06536426,0.017150725571762
22896000,0.99987852881822,0.016913075611849,0.0056376918706182,0.0056376918706774,0.0056376918705531,-0.0013644183691832,0.0013644183681998,6.181267166531e-12,-7.1703211869037e-12,1.2192492233614e-13,-1.1419775251352e-12,-0.0013888350488624,0.001388835052872,-0.0013888350534788,0.001388835048262,-0.0013888350499715,0.001388835053007,-0.0013888350543566,0.0013888350486277,-0.0013376098597145,0.0013376098723033,-0.0013376098736651,0.0013376098583846,-8.4535685139905e-13,4.6872144558746e-13,6.3541608847466e-13,2.4887533820572e-14,-0.0013644183687297,0.0013644183686906,-0.001388835050946,0.0013888350511718,-0.0013888350511536,0.0013888350512693,-0.001388835050465,0.0013888350519066,-0.0013888350507167,0.0013888350515523,-0.0013376098656322,0.0013376098661803,-0.0013376098650147,0.0013376098642497,-0.0013376098672124,0.0013376098633305,-0.0013376098655346,0.0013376098644056,-6.9048556496349e-12,6.9587498267342e-12,-0.0013644183686535,0.0013644183687051,-2.7783948278275e-13,3.5523517722094e-13,-0.0013888350536421,0.001388835048789,-0.0013888350534761,0.0013888350485706,-0.0013888350490096,0.001388835053507,-0.0013888350486684,0.0013888350537042,-0.0013376098572095,0.0013376098715031,-0.0013376098714716,0.0013376098573189,0.71710087451558,0.47808803407847,1368840,32768,0.0056689308276491,0.0056689308277264,0.0056689308275988,15.347041984141,15.349147545293,3.7976335873123e-05,3.7976335873123e-05,3.7976335873123e-05,290531.73557704,0.017152426391836
22982400,0.99988045164834,0.016913106042656,0.0056377020142207,0.0056377020142799,0.0056377020141557,-0.0013636642278995,0.0013636642269698,6.2033140812482e-12,-7.1320734729922e-12,1.3684911347117e-13,-1.0918711146752e-12,-0.0013885014622209,0.001388501466215,-0.0013885014667791,0.0013885014616467,-0.0013885014632577,0.001388501466333,-0.0013885014676025,0.0013885014619622,-0.0013364719210004,0.0013364719334266,-0.0013364719346596,0.0013364719195229,-8.3123028295602e-13,4.4790802259972e-13,6.367692236079e-13,3.7936694001215e-14,-0.0013636642274747,0.0013636642274271,-0.0013885014643179,0.0013885014645411,-0.0013885014645424,0.0013885014645942,-0.0013885014638373,0.0013885014652388,-0.0013885014640684,0.0013885014648643,-0.0013364719267719,0.0013364719272177,-0.0013364719259254,0.0013364719252151,-0.0013364719281038,0.0013364719244811,-0.0013364719267739,0.0013364719255975,-6.8761787609882e-12,6.971043098242e-12,-0.0013636642273867,0.0013636642274566,-2.6533383540993e-13,3.5623264674893e-13,-0.0013885014670183,0.0013885014621899,-0.0013885014667641,0.0013885014619603,-0.0013885014623171,0.0013885014668585,-0.0013885014619685,0.0013885014669849,-0.0013364719182168,0.0013364719325238,-0.0013364719322958,0.0013364719184648,0.72195932602372,0.56798774821511,1368840,32768,0.0056658056892886,0.005665805689356,0.0056658056892349,15.395002231178,15.397106930378,3.8360017849424e-05,3.8360017849424e-05,3.8360017849424e-05,314674.49285675,0.017142892481519
23068800,0.99988234984533,0.016913136072822,0.0056377120242759,0.0056377120243351,0.0056377120242109,-0.0013640557869824,0.0013640557860634,6.2110501390346e-12,-7.128876864764e-12,1.3329510439665e-13,-1.0760101286292e-12,-0.0013887472830346,0.0013887472870286,-0.0013887472875905,0.0013887472824599,-0.0013887472840601,0.0013887472871565,-0.0013887472884072,0.0013887472827837,-0.0013369982225432,0.0013369982350223,-0.0013369982362535,0.001336998221118,-8.2835942948215e-13,4.3195856866812e-13,6.3120527593563e-13,3.8088895233925e-14,-0.0013640557865662,0.0013640557865121,-0.0013887472851307,0.0013887472853527,-0.0013887472853528,0.0013887472854084,-0.0013887472846567,0.0013887472860437,-0.0013887472848859,0.001388747285674,-0.0013369982283782,0.0013369982288108,-0.0013369982275181,0.0013369982267832,-0.00133699822971,0.0013369982260779,-0.0013369982283742,0.0013369982271738,-6.8829846707194e-12,6.9687434037902e-12,-0.0013640557864772,0.0013640557865424,-2.6242104204083e-13,3.5360990334253e-13,-0.0013887472878316,0.0013887472830009,-0.0013887472875821,0.0013887472827676,-0.0013887472831299,0.0013887472876716,-0.0013887472827811,0.0013887472877932,-0.0013369982198101,0.0013369982341098,-0.0013369982339252,0.0013369982200328,0.72195154334119,0.57343655006176,1368840,32768,0.0056674282067244,0.0056674282067916,0.0056674282066702,15.442961677249,15.445066315464,3.8743693417993e-05,3.8743693417993e-05,3.8743693417993e-05,305656.15245707,0.017147842644604
23155200,0.99988422363007,0.016913165729805,0.0056377219099369,0.0056377219099961,0.0056377219098719,-0.0013641653230386,0.0013641653221155,6.2034142546586e-12,-7.1286145786591e-12,1.252058221069e-13,-1.0751665073424e-12,-0.0013888502363005,0.0013888502402806,-0.0013888502408524,0.0013888502357286,-0.0013888502373272,0.0013888502404355,-0.0013888502416829,0.0013888502360475,-0.0013371143567753,0.0013371143691437,-0.0013371143704313,0.0013371143552432,-8.269938535525e-13,4.2370682075335e-13,6.2968238128254e-13,2.9979054748691e-14,-0.0013641653226261,0.0013641653225588,-0.0013888502384223,0.0013888502386233,-0.0013888502386333,0.0013888502386559,-0.0013888502379665,0.0013888502392814,-0.0013888502381731,0.0013888502389214,-0.0013371143626117,0.0013371143629209,-0.001337114361626,0.0013371143609783,-0.0013371143638437,0.0013371143602233,-0.0013371143625646,0.0013371143613084,-6.873409551468e-12,6.9704439106644e-12,-0.0013641653225241,0.0013641653226011,-2.6057677485251e-13,3.62072115416e-13,-0.001388850241098,0.0013888502362712,-0.0013888502408415,0.0013888502360259,-0.0013888502363896,0.0013888502409539,-0.0013888502360439,0.0013888502410478,-0.0013371143540051,0.0013371143683001,-0.0013371143679817,0.0013371143541782,0.72217441848374,0.58224788857419,1368840,32768,0.0056678820469668,0.0056678820470307,0.0056678820469072,15.490921066823,15.49302570055,3.9127368534581e-05,3.9127368534581e-05,3.9127368534581e-05,304808.40567819,0.017149227445676
23241600,0.99988607322282,0.01691319514205,0.0056377317140188,0.005637731714078,0.0056377317139537,-0.0013642859305438,0.0013642859296159,6.1917701397901e-12,-7.1237278455925e-12,1.1256232600409e-13,-1.0735159107082e-12,-0.001388958914851,0.0013889589187898,-0.0013889589194094,0.0013889589142332,-0.0013889589158241,0.0013889589189121,-0.0013889589201531,0.001388958914481,-0.0013372465319394,0.0013372465443405,-0.0013372465455872,0.0013372465304813,-7.8834347547149e-13,4.4829965769436e-13,6.4105779847724e-13,2.8031731885127e-14,-0.001364285930104,0.0013642859300741,-0.0013889589168786,0.0013889589171561,-0.0013889589171668,0.0013889589171994,-0.0013889589163932,0.0013889589178296,-0.0013889589166427,0.0013889589174384,-0.0013372465378681,0.0013372465380935,-0.0013372465368173,0.0013372465361942,-0.0013372465390415,0.001337246535313,-0.0013372465377138,0.0013372465365899,-6.8578692026856e-12,6.9694141185944e-12,-0.0013642859300187,0.0013642859301147,-2.5089598235878e-13,3.8472251169723e-13,-0.0013889589195936,0.0013889589147933,-0.0013889589193629,0.0013889589145832,-0.0013889589149526,0.0013889589194351,-0.0013889589145395,0.0013889589196663,-0.0013372465292735,0.0013372465435341,-0.0013372465432648,0.0013372465294594,0.7255665848825,0.64533473333085,1368840,32768,0.0056683817649339,0.0056683817649719,0.0056683817648794,15.538880428902,15.540985085635,3.9511043431215e-05,3.9511043431215e-05,3.9511043431215e-05,303641.08743302,0.017150752215976
23328000,0.99988789884319,0.016913224276668,0.005637741425558,0.0056377414256173,0.005637741425493,-0.0013645751084012,0.0013645751074895,6.1982137076494e-12,-7.1154962147102e-12,1.2891541466375e-13,-1.0593937538951e-12,-0.0013891541568257,0.0013891541608677,-0.0013891541613824,0.0013891541562842,-0.0013891541578895,0.0013891541608885,-0.0013891541621561,0.0013891541565654,-0.0013376232963843,0.0013376233086601,-0.0013376233099112,0.0013376232949048,-8.159092804139e-13,4.2295272614337e-13,6.2924177709564e-13,2.8741769017509e-14,-0.0013645751079927,0.0013645751079287,-0.0013891541588821,0.0013891541591529,-0.0013891541591143,0.0013891541591845,-0.0013891541584322,0.0013891541597928,-0.00138915415867,0.0013891541594906,-0.0013376233020195,0.0013376233024752,-0.0013376233013055,0.0013376233003663,-0.0013376233033707,0.0013376232997232,-0.001337623302209,0.0013376233008628,-6.8606215891903e-12,6.9650194293198e-12,-0.0013645751078924,0.0013645751079697,-2.6381361714567e-13,3.5948431211867e-13,-0.0013891541616343,0.0013891541567833,-0.0013891541613576,0.0013891541565511,-0.0013891541569114,0.0013891541614311,-0.0013891541565903,0.0013891541616603,-0.0013376232936453,0.0013376233078186,-0.0013376233075009,0.0013376232938154,0.72813801143244,0.69102081424216,1368840,32768,0.0056695800224106,0.0056695800224743,0.0056695800223514,15.586839782168,15.588944470721,3.9894718257343e-05,3.9894718257343e-05,3.9894718257343e-05,297658.14827013,0.017154408084472
23414400,0.99988970726292,0.016913252938792,0.0056377509795993,0.0056377509796586,0.0056377509795343,-0.0013649160780238,0.0013649160771433,6.2230385963249e-12,-7.0807515702529e-12,1.4408612767947e-13,-1.0425430922006e-12,-0.001389426828272,0.0013894268323802,-0.0013894268329267,0.0013894268276735,-0.0013894268292161,0.0013894268323676,-0.0013894268336754,0.0013894268281001,-0.001338027268621,0.0013380272809215,-0.0013380272819749,0.001338027267621,-8.2410273599181e-13,4.1307779252169e-13,6.3342982562422e-13,4.330405944365e-14,-0.0013649160776309,0.0013649160775642,-0.001389426830362,0.0013894268306607,-0.0013894268306438,0.0013894268306163,-0.0013894268297493,0.0013894268311785,-0.0013894268301092,0.0013894268308998,-0.0013380272742721,0.0013380272745974,-0.0013380272736677,0.0013380272734092,-0.0013380272761548,0.0013380272721282,-0.0013380272744566,0.0013380272733691,-6.8261539950929e-12,6.9890243430449e-12,-0.0013649160775058,0.0013649160776283,-2.4788716251146e-13,3.6424684309721e-13,-0.0013894268329839,0.0013894268283095,-0.0013894268327893,0.0013894268280325,-0.0013894268283249,0.0013894268329053,-0.0013894268280014,0.0013894268330398,-0.001338027266373,0.0013380272801294,-0.0013380272802546,0.0013380272669085,0.72309576076213,0.6051474104813,1368840,32768,0.005670992808145,0.005670992808203,0.0056709928080768,15.691792017126,15.69634068896,4.0734336137003e-05,4.0734336137003e-05,4.0734336137003e-05,293295.28482415,0.017158718755887
23500800,0.99989151169243,0.016913281318766,0.0056377604395907,0.0056377604396499,0.0056377604395257,-0.0013650860270411,0.0013650860260051,6.1076400040256e-12,-7.2083804948063e-12,6.9282354059876e-14,-1.0873825459155e-12,-0.0013897177840344,0.0013897177880957,-0.0013897177885499,0.0013897177836156,-0.0013897177851719,0.0013897177877213,-0.0013897177894182,0.001389717783724,-0.0013380844670393,0.0013380844788989,-0.0013380844802327,0.0013380844656718,-8.0970835220094e-13,3.9625448293284e-13,6.3332171127998e-13,6.0134545283861e-14,-0.0013650860265462,0.0013650860265225,-0.001389717785863,0.0013897177864149,-0.0013897177862273,0.0013897177862818,-0.0013897177855987,0.0013897177870582,-0.0013897177855854,0.0013897177867048,-0.0013380844724192,0.0013380844731798,-0.0013380844720375,0.0013380844712006,-0.0013380844741964,0.0013380844705238,-0.0013380844724103,0.0013380844714089,-6.9299999991393e-12,6.8976093710037e-12,-0.0013650860265305,0.001365086026506,-3.2211136560124e-13,2.7330509189352e-13,-0.00138971778867,0.0013897177838319,-0.0013897177885153,0.0013897177836813,-0.0013897177840951,0.0013897177884537,-0.0013897177838654,0.0013897177887568,-0.0013380844643218,0.0013380844779814,-0.0013380844780451,0.0013380844646362,0.7175390447081,0.51927400672046,1368840,32768,0.005671696717159,0.0056716967172056,0.0056716967171389,15.912666443422,15.922241098743,4.2501331547371e-05,4.2501331547371e-05,4.2501331547371e-05,300133.84936992,0.017160867431152
23587200,0.99989331221673,0.016913309870943,0.0056377699569829,0.0056377699570421,0.0056377699569179,-0.001365243150221,0.0013652431493176,6.2061129369216e-12,-7.1273910866241e-12,1.1109401791872e-13,-1.028162060943e-12,-0.0013900169789707,0.0013900169829688,-0.0013900169835191,0.0013900169784011,-0.0013900169799941,0.0013900169830934,-0.0013900169843049,0.0013900169787314,-0.0013381123018323,0.0013381123142596,-0.0013381123154373,0.0013381123002416,-7.9457266752689e-13,3.9520251506974e-13,5.9254939802263e-13,6.6687080402528e-14,-0.0013652431498191,0.0013652431497504,-0.0013900169810875,0.0013900169812672,-0.0013900169812855,0.0013900169813586,-0.0013900169806196,0.0013900169819521,-0.0013900169808208,0.0013900169816044,-0.0013381123075063,0.0013381123077523,-0.0013381123067145,0.00133811230603,-0.0013381123087212,0.0013381123052475,-0.001338112307522,0.0013381123062368,-6.8757003638382e-12,6.9696467585463e-12,-0.0013652431497322,0.0013652431497806,-2.5303350529422e-13,2.9610551300336e-13,-0.0013900169837624,0.0013900169789434,-0.0013900169835381,0.001390016978689,-0.0013900169790526,0.0013900169836099,-0.0013900169787477,0.0013900169837191,-0.0013381122988464,0.0013381123132112,-0.0013381123128785,0.001338112299038,0.72351651437348,0.62948455144776,1368840,32768,0.0056723474898057,0.0056723474898698,0.0056723474897524,16.138250936692,16.148141508523,4.4306007493535e-05,4.4306007493535e-05,4.4306007493535e-05,307893.70179168,0.017162853986173
23673600,0.99989510840019,0.016913338580231,0.0056377795267456,0.0056377795268048,0.0056377795266806,-0.0013660299676048,0.0013660299668895,6.3007205173132e-12,-7.0536216931696e-12,1.5652339478832e-13,-9.3937989082444e-13,-0.001390635431296,0.0013906354354388,-0.0013906354358406,0.0013906354308984,-0.001390635432093,0.0013906354355,-0.0013906354366068,0.0013906354310497,-0.0013390559752655,0.0013390559876251,-0.0013390559886459,0.0013390559737237,-8.3454341703617e-13,3.1071597842838e-13,5.4029093565926e-13,-2.3174144986954e-14,-0.0013660299673489,0.0013660299672067,-0.0013906354334665,0.0013906354337949,-0.0013906354335483,0.0013906354337864,-0.001390635432748,0.0013906354342869,-0.0013906354331382,0.0013906354338105,-0.0013390559809209,0.00133905598136,-0.0013390559802098,0.0013390559792554,-0.001339055982182,0.0013390559786141,-0.0013390559811004,0.0013390559793037,-6.9258040096768e-12,6.9411995687648e-12,-0.0013660299672567,0.0013660299672373,-2.6075976926216e-13,3.2588104455778e-13,-0.0013906354362493,0.0013906354313144,-0.0013906354358457,0.0013906354309594,-0.0013906354316284,0.0013906354358212,-0.0013906354311234,0.0013906354359679,-0.0013390559722521,0.00133905598626,-0.0013390559860499,0.001339055972263,0.72932090526837,0.73528205559987,1368840,32768,0.0056756076321767,0.0056756076323037,0.0056756076321763,16.364129771666,16.374041918303,4.6113038173328e-05,4.6113038173328e-05,4.6113038173328e-05,297494.04857551,0.017172801326062
23760000,0.99989689977301,0.01691336736509,0.0056377891216985,0.0056377891217577,0.0056377891216335,-0.0013667775542502,0.001366777553352,6.2193650026683e-12,-7.1544737298562e-12,6.8150741571037e-14,-1.0264589953235e-12,-0.0013912284806669,0.0013912284847026,-0.0013912284852392,0.0013912284801277,-0.0013912284816763,0.0013912284848692,-0.0013912284860113,0.0013912284804949,-0.0013399466583084,0.0013399466706583,-0.0013399466716521,0.0013399466564764,-7.6208024838329e-13,3.827884825452e-13,5.8993797779973e-13,3.6450533520045e-14,-0.0013667775538639,0.0013667775537756,-0.0013912284828195,0.0013912284830508,-0.0013912284830725,0.0013912284831088,-0.001391228482319,0.001391228483654,-0.0013912284826228,0.0013912284833289,-0.0013399466640055,0.0013399466641363,-0.0013399466633614,0.0013399466623874,-0.0013399466648447,0.0013399466617724,-0.0013399466641211,0.0013399466628421,-6.8694677307115e-12,7.0164010655284e-12,-0.0013667775537467,0.0013667775538239,-2.4531082945196e-13,3.3078336538348e-13,-0.0013912284855157,0.0013912284806815,-0.0013912284852464,0.0013912284804393,-0.0013912284807798,0.0013912284853399,-0.0013912284804607,0.0013912284854103,-0.0013399466553037,0.0013399466699255,-0.0013399466692826,0.0013399466557727,0.7330870845431,0.7891656146954,1368840,32768,0.0056787051969068,0.0056787051969839,0.0056787051968414,16.590028255835,16.599942328086,4.7920226046682e-05,4.7920226046682e-05,4.7920226046682e-05,288244.12913454,0.017182252732986
23846400,0.99989868586152,0.01691339623088,0.0056377987436286,0.0056377987436878,0.0056377987435636,-0.0013673690286696,0.0013673690277767,6.2354626873657e-12,-7.1926394462727e-12,7.1405936244721e-14,-9.1562955755729e-13,-0.0013917443365135,0.001391744340471,-0.0013917443413276,0.0013917443357901,-0.0013917443374789,0.0013917443408007,-0.0013917443417349,0.0013917443364549,-0.0013406065716695,0.0013406065848371,-0.0013406065859869,0.0013406065708728,-7.4149943593651e-13,2.9658470424675e-13,5.7128945926387e-13,3.4267864904955e-14,-0.0013673690282867,0.0013673690281487,-0.0013917443384767,0.0013917443386602,-0.0013917443389689,0.0013917443388279,-0.0013917443385089,0.0013917443392212,-0.0013917443383823,0.0013917443393522,-0.001340606578363,0.001340606578141,-0.0013406065763965,0.0013406065760415,-0.00134060657849,0.001340606575051,-0.001340606577613,0.0013406065755095,-6.9322396366023e-12,7.0085615991364e-12,-0.0013673690281049,0.0013673690282586,-1.4137694573723e-13,4.2021607445208e-13,-0.0013917443411266,0.0013917443365183,-0.0013917443408441,0.0013917443360337,-0.0013917443366067,0.0013917443410436,-0.001391744336268,0.0013917443412028,-0.0013406065682214,0.0013406065828883,-0.001340606582675,0.0013406065683897,0.73721899034878,0.83677736959159,1368840,32768,0.0056811558233818,0.0056811558233592,0.0056811558232104,16.815927911401,16.825842737868,4.9727423291207e-05,4.9727423291207e-05,4.9727423291207e-05,283368.94745355,0.017189730576624
23932800,0.99990046619059,0.016913425190374,0.0056378083967934,0.0056378083968526,0.0056378083967284,-0.0013679414493786,0.0013679414485005,6.2545630450393e-12,-7.1546640181607e-12,6.0364391203402e-14,-9.776615448756e-13,-0.0013922477110628,0.0013922477151168,-0.0013922477156636,0.0013922477105069,-0.0013922477119911,0.0013922477152259,-0.001392247716399,0.0013922477108506,-0.0013412391191983,0.0013412391317877,-0.0013412391327336,0.0013412391175626,-8.249694153977e-13,2.6338289500982e-13,4.4271288718989e-13,6.8887219072155e-14,-0.0013679414490291,0.0013679414488818,-0.0013922477132159,0.0013922477133868,-0.0013922477133588,0.0013922477135258,-0.0013922477127641,0.0013922477140271,-0.00139224771294,0.0013922477137119,-0.0013412391253467,0.0013412391251937,-0.0013412391238255,0.0013412391234914,-0.0013412391261381,0.0013412391229615,-0.0013412391251284,0.001341239123759,-6.9798643581703e-12,6.941298918671e-12,-0.0013679414489337,0.0013679414489129,-1.7801365004048e-13,2.1964170186148e-13,-0.0013922477158917,0.001392247711023,-0.0013922477157175,0.0013922477107075,-0.0013922477111699,0.0013922477157142,-0.0013922477109071,0.0013922477157752,-0.0013412391163818,0.0013412391308511,-0.0013412391304887,0.0013412391166112,0.74194603454319,0.88438912448778,1368840,32768,0.0056835274704404,0.0056835274705064,0.0056835274703733,17.041827499478,17.051743147649,5.1534619995821e-05,5.1534619995821e-05,5.1534619995821e-05,278914.95866768,0.017196967569893
24019200,0.9999022402843,0.01691345405094,0.0056378180169819,0.0056378180170411,0.0056378180169169,-0.0013685116392581,0.0013685116383786,6.2764301417204e-12,-7.1577096898234e-12,7.4309553423563e-14,-9.8568518211193e-13,-0.0013927501170147,0.0013927501210668,-0.0013927501216048,0.0013927501164706,-0.0013927501180072,0.0013927501212195,-0.0013927501223873,0.0013927501168237,-0.0013418670751245,0.0013418670878147,-0.0013418670887512,0.001341867073748,-7.7375303884637e-13,3.3637807682183e-13,4.9670376721733e-13,1.6564067508519e-13,-0.0013685116388773,0.0013685116387914,-0.0013927501191947,0.0013927501193385,-0.0013927501193213,0.00139275011947,-0.0013927501187465,0.0013927501199685,-0.0013927501188713,0.0013927501196901,-0.001341867081086,0.0013418670813337,-0.001341867079999,0.0013418670796705,-0.0013418670822949,0.001341867078874,-0.0013418670811948,0.0013418670798075,-6.9776267206462e-12,6.9684409424419e-12,-0.0013685116388245,0.0013685116387868,-2.0099121279759e-13,1.5393944431447e-13,-0.0013927501218694,0.0013927501170023,-0.0013927501216954,0.0013927501166657,-0.0013927501171281,0.0013927501216975,-0.0013927501168715,0.0013927501217297,-0.0013418670724818,0.0013418670867659,-0.0013418670867265,0.0013418670727504,0.74196752630761,0.84208196311467,1368840,32768,0.0056858898560946,0.0056858898561609,0.0056858898560421,17.267728229399,17.27764355743,5.3341825835192e-05,5.3341825835192e-05,5.3341825835192e-05,274468.55495073,0.017204176400098
24105600,0.9999040076662,0.016913482416382,0.0056378274721291,0.0056378274721883,0.0056378274720641,-0.0013688554527586,0.0013688554518956,6.3151966633121e-12,-7.1400789343132e-12,5.852127103887e-14,-1.0278789519448e-12,-0.0013931356255343,0.0013931356294719,-0.0013931356300487,0.0013931356250644,-0.0013931356265853,0.0013931356297318,-0.0013931356309431,0.0013931356253309,-0.0013421669479634,0.001342166960965,-0.0013421669619222,0.0013421669471426,-7.6457146639593e-13,3.7177381903561e-13,5.7436183599311e-13,2.8949812661919e-13,-0.0013688554523596,0.0013688554523556,-0.0013931356276758,0.0013931356278932,-0.0013931356278147,0.0013931356280119,-0.0013931356271675,0.0013931356284522,-0.0013931356275754,0.0013931356282453,-0.0013421669542447,0.0013421669548147,-0.0013421669530503,0.0013421669532866,-0.001342166955472,0.0013421669519442,-0.0013421669552015,0.0013421669532512,-6.9985641986677e-12,6.9681459220428e-12,-0.001368855452334,0.0013688554523193,-1.4455028997022e-13,1.6422654181541e-13,-0.0013931356303201,0.001393135625414,-0.001393135630129,0.0013931356252952,-0.0013931356256573,0.0013931356301136,-0.0013931356253984,0.0013931356302648,-0.0013421669457653,0.0013421669600328,-0.0013421669604875,0.0013421669459439,0.73198308587755,0.66681476060189,1368840,32768,0.0056873141458325,0.0056873141459586,0.0056873141458307,17.493630201622,17.503543967211,5.5149041612976e-05,5.5149041612976e-05,5.5149041612976e-05,276283.34902452,0.017208523291626
24192000,0.99990576240233,0.01691351061948,0.0056378368731619,0.0056378368732211,0.0056378368730969,-0.0013687206825786,0.0013687206816946,6.3143685709627e-12,-7.1563410257528e-12,7.1549696558825e-14,-1.0226948750206e-12,-0.0013932346165041,0.0013932346206169,-0.0013932346211192,0.0013932346159226,-0.0013932346175447,0.0013932346206757,-0.0013932346219236,0.0013932346163022,-0.0013418169430724,0.0013418169561748,-0.0013418169571763,0.001341816942156,-8.120238402879e-13,3.3285194924849e-13,4.3167734196528e-13,1.9558199569252e-13,-0.0013687206822065,0.0013687206821002,-0.0013932346187021,0.001393234618814,-0.0013932346187625,0.0013932346189955,-0.0013932346182628,0.0013932346195148,-0.0013932346183402,0.0013932346192217,-0.0013418169494489,0.0013418169496188,-0.001341816948441,0.0013418169480554,-0.001341816950528,0.0013418169471544,-0.0013418169495674,0.0013418169480347,-7.0395951216718e-12,6.9434168539695e-12,-0.0013687206821625,0.0013687206820869,-1.7035282524989e-13,9.0217214514259e-14,-0.0013932346213621,0.0013932346165285,-0.0013932346212082,0.0013932346161254,-0.0013932346166005,0.0013932346212165,-0.0013932346163648,0.001393234621243,-0.0013418169408483,0.001341816955036,-0.0013418169554916,0.001341816940934,0.733053786547,0.68906096147582,1368840,32768,0.0056867553819093,0.0056867553819787,0.0056867553818602,17.669981287197,17.677770122453,5.655985029757e-05,5.655985029757e-05,5.655985029757e-05,289336.88465552,0.017206819600635
24278400,0.9999074942203,0.016913538495338,0.0056378461651146,0.0056378461651738,0.0056378461650496,-0.0013689477267698,0.00136894772594,6.3442383643434e-12,-7.1215834405143e-12,1.0067598324135e-13,-9.8145037030606e-13,-0.0013934349212235,0.0013934349252485,-0.0013934349257927,0.0013934349206425,-0.0013934349221616,0.0013934349254352,-0.0013934349264503,0.0013934349209897,-0.0013420692325122,0.0013420692454297,-0.0013420692466209,0.0013420692313545,-8.0631113245426e-13,3.2650926066033e-13,4.1943633356675e-13,1.7266396052864e-13,-0.001368947726437,0.0013689477263024,-0.0013934349233927,0.0013934349234714,-0.0013934349234951,0.0013934349236431,-0.0013934349229844,0.0013934349241289,-0.0013934349230172,0.0013934349238465,-0.0013420692387951,0.0013420692386677,-0.0013420692377502,0.001342069237202,-0.0013420692399241,0.0013420692363806,-0.0013420692388045,0.0013420692373959,-7.0005850781077e-12,6.9778498314774e-12,-0.001368947726365,0.0013689477263302,-1.4948278634466e-13,1.2097580427222e-13,-0.0013934349260177,0.0013934349212128,-0.0013934349259285,0.0013934349208557,-0.0013934349213126,0.0013934349259402,-0.0013934349210119,0.0013934349258793,-0.0013420692301305,0.0013420692444164,-0.0013420692446156,0.0013420692300985,0.73426696966747,0.71130716234974,1368840,32768,0.0056876960893773,0.0056876960894386,0.0056876960893472,17.754573295235,17.758379257143,5.7236586361879e-05,5.7236586361879e-05,5.7236586361879e-05,287245.6112066,0.017209690102024
24364800,0.99990920284436,0.01691356605039,0.0056378553501318,0.005637855350191,0.0056378553500668,-0.0013691677873602,0.001369167786478,6.2924192414997e-12,-7.1717340849172e-12,8.1209519104936e-14,-9.8991975863088e-13,-0.001393624762483,0.0013936247665341,-0.0013936247670866,0.0013936247619266,-0.0013936247634801,0.0013936247666697,-0.0013936247678535,0.0013936247622696,-0.0013423168255248,0.0013423168383135,-0.0013423168394126,0.0013423168242004,-7.8273385272397e-13,3.3865659544994e-13,4.1982367467492e-13,1.732072674604e-13,-0.0013691677869889,0.0013691677868814,-0.0013936247646666,0.0013936247647669,-0.0013936247647783,0.0013936247649305,-0.0013936247642304,0.0013936247654249,-0.0013936247643451,0.0013936247651559,-0.0013423168317596,0.0013423168317544,-0.001342316830707,0.0013423168301007,-0.0013423168326554,0.0013423168293646,-0.0013423168315886,0.0013423168302451,-7.0055283976809e-12,6.9706574923749e-12,-0.001369167786933,0.0013691677868796,-1.5025046877484e-13,1.2040085124841e-13,-0.001393624767339,0.0013936247624533,-0.0013936247671926,0.0013936247621008,-0.0013936247625931,0.001393624767165,-0.0013936247623548,0.001393624767168,-0.0013423168229573,0.0013423168372362,-0.0013423168372947,0.0013423168229937,0.73564461384828,0.73347617344895,1368840,32768,0.0056886078611146,0.005688607861181,0.0056886078610614,17.835432698892,17.838988391834,5.7883461591134e-05,5.7883461591134e-05,5.7883461591134e-05,285074.43071345,0.017212472303773
24451200,0.99991088839465,0.016913593168027,0.0056378643893443,0.0056378643894035,0.0056378643892793,-0.0013693873204424,0.0013693873195318,6.2744633782743e-12,-7.1985127374359e-12,5.8989844959552e-14,-9.9147794632343e-13,-0.0013938148201741,0.0013938148243293,-0.0013938148248185,0.001393814819593,-0.0013938148212649,0.0013938148244586,-0.0013938148255328,0.001393814819942,-0.0013425631459982,0.0013425631587334,-0.0013425631597516,0.0013425631446312,-7.5075265325707e-13,3.5020377210339e-13,4.2222692478669e-13,1.7930137540723e-13,-0.0013693873200429,0.0013693873199543,-0.0013938148223461,0.0013938148224943,-0.0013938148225534,0.0013938148226749,-0.0013938148220393,0.0013938148231089,-0.0013938148220524,0.001393814822891,-0.001342563152131,0.0013425631520382,-0.0013425631509127,0.0013425631504817,-0.0013425631530528,0.0013425631497701,-0.0013425631521033,0.0013425631506098,-6.9938506367814e-12,6.9914992968486e-12,-0.0013693873199879,0.0013693873199526,-1.4584901500094e-13,1.2134517534113e-13,-0.0013938148250848,0.0013938148202879,-0.0013938148248032,0.0013938148199623,-0.0013938148203333,0.0013938148249659,-0.0013938148201638,0.0013938148249522,-0.0013425631433209,0.0013425631576157,-0.0013425631575619,0.0013425631434392,0.73385833740938,0.70088906137732,1368840,32768,0.0056895174430591,0.0056895174431069,0.0056895174429894,17.91605869885,17.919597526525,5.8528469590797e-05,5.8528469590797e-05,5.8528469590797e-05,282896.56972632,0.017215247846324
24537600,0.99991255101732,0.016913620055445,0.0056378733518169,0.0056378733518761,0.0056378733517519,-0.0013694542746518,0.0013694542737792,6.2897953804804e-12,-7.1849735039914e-12,6.9719634818896e-14,-9.4949111134536e-13,-0.0013939247255713,0.0013939247295513,-0.0013939247301042,0.0013939247249881,-0.0013939247264785,0.0013939247296793,-0.00139392473087,0.0013939247252809,-0.0013425897908244,0.0013425898034175,-0.0013425898046435,0.0013425897895024,-7.5582696882845e-13,3.1410446314779e-13,4.3009712553393e-13,1.8991625701224e-13,-0.0013694542742849,0.0013694542741843,-0.0013939247277269,0.0013939247278648,-0.0013939247277938,0.0013939247279343,-0.0013939247272394,0.0013939247284377,-0.0013939247274066,0.0013939247281292,-0.0013425897969349,0.0013425897967981,-0.001342589795632,0.0013425897950828,-0.0013425897977523,0.0013425897946304,-0.0013425897968226,0.0013425897952591,-7.0157402621861e-12,6.9712468273123e-12,-0.0013694542742232,0.0013694542741819,-1.2506826748557e-13,1.3923383473722e-13,-0.0013939247303028,0.0013939247254754,-0.0013939247302236,0.0013939247251596,-0.0013939247256148,0.0013939247301819,-0.0013939247253628,0.0013939247302734,-0.0013425897880383,0.0013425898021837,-0.0013425898021844,0.0013425897879188,0.73763294458432,0.76497482251868,1368840,32768,0.0056897947584562,0.0056897947585354,0.0056897947584027,17.996668812235,18.000206661215,5.9173350497881e-05,5.9173350497881e-05,5.9173350497881e-05,285011.73760323,0.017216094385779
24624000,0.99991419086189,0.016913646735281,0.0056378822450955,0.0056378822451547,0.0056378822450305,-0.0013697885265024,0.0013697885256212,6.3045246952158e-12,-7.1674145698166e-12,3.7236156578623e-14,-9.8633122119941e-13,-0.0013941742717948,0.0013941742758596,-0.0013941742763438,0.0013941742711333,-0.001394174272744,0.0013941742759311,-0.0013941742771641,0.0013941742716231,-0.0013430020291217,0.0013430020417977,-0.0013430020430349,0.0013430020277758,-7.6335935636624e-13,3.1088167924868e-13,3.9786740424744e-13,1.5580065216173e-13,-0.0013697885261352,0.0013697885260221,-0.0013941742739552,0.0013941742740815,-0.001394174274349,0.0013941742742724,-0.0013941742735071,0.0013941742747536,-0.0013941742736883,0.0013941742744993,-0.0013430020352924,0.001343002034792,-0.0013430020338775,0.0013430020333918,-0.0013430020358063,0.0013430020325792,-0.001343002034862,0.0013430020330983,-7.025777602611e-12,6.958063700636e-12,-0.0013697885260771,0.001369788526021,-1.5555407145931e-13,1.1026333741308e-13,-0.0013941742768137,0.0013941742718067,-0.0013941742765301,0.0013941742714708,-0.0013941742719823,0.0013941742765984,-0.001394174271625,0.001394174276525,-0.001343002025909,0.0013430020399737,-0.0013430020401029,0.0013430020258296,0.74212144660459,0.82906058366005,1368840,32768,0.0056911797183059,0.0056911797183755,0.0056911797182532,18.077277718811,18.080815795906,5.9818221750483e-05,5.9818221750483e-05,5.9818221750483e-05,279609.21109737,0.017220320289337
24710400,0.99991580807978,0.0169136730428,0.0056378910142685,0.0056378910143277,0.0056378910142035,-0.0013701183412652,0.0013701183404072,6.2881242550615e-12,-7.1481856278358e-12,5.7278720762634e-14,-9.6542227171817e-13,-0.0013944214541635,0.0013944214581526,-0.0013944214585539,0.0013944214535301,-0.0013944214551567,0.0013944214585953,-0.0013944214596134,0.0013944214539867,-0.0013434066422101,0.0013434066549591,-0.0013434066562297,0.0013434066409159,-7.6992165589249e-13,3.030966817809e-13,4.0100695539513e-13,1.6564552787812e-13,-0.0013701183409241,0.0013701183407921,-0.0013944214562962,0.0013944214563416,-0.0013944214565011,0.0013944214564925,-0.0013944214559164,0.0013944214570508,-0.0013944214560766,0.0013944214568748,-0.0013434066487956,0.0013434066484568,-0.001343406647214,0.0013434066465897,-0.0013434066493432,0.0013434066457996,-0.001343406648247,0.001343406646732,-6.9379222277089e-12,7.0098005906978e-12,-0.001370118340797,0.0013701183408469,-1.0808808033628e-13,1.5165377884586e-13,-0.0013944214589531,0.0013944214542389,-0.0013944214587109,0.0013944214538444,-0.0013944214542799,0.0013944214588864,-0.0013944214538618,0.0013944214588765,-0.0013434066393513,0.0013434066538209,-0.001343406653757,0.0013434066394184,0.74194857785657,0.80338046085544,1368840,32768,0.0056925462749983,0.0056925462750889,0.0056925462749394,18.157886921429,18.161424930597,6.0463095371428e-05,6.0463095371428e-05,6.0463095371428e-05,274266.36285112,0.017224490115508
24796800,0.99991740282409,0.016913698141856,0.0056378993806206,0.0056378993806798,0.0056378993805556,-0.0013702162470399,0.001370216246232,6.2826215996344e-12,-7.1390194960901e-12,6.589328112314e-14,-8.584812445755e-13,-0.0013945426086737,0.0013945426126588,-0.0013945426131851,0.001394542608045,-0.0013945426094804,0.0013945426129596,-0.0013945426139377,0.0013945426085144,-0.0013434796215346,0.0013434796341523,-0.0013434796353162,0.001343479620186,-7.4622437982801e-13,2.280956788924e-13,4.2633871093915e-13,1.7142567482801e-13,-0.0013702162467119,0.0013702162465906,-0.0013945426107929,0.0013945426109769,-0.0013945426110036,0.001394542611078,-0.001394542610504,0.0013945426115261,-0.0013945426104747,0.0013945426113474,-0.0013434796275869,0.0013434796273748,-0.0013434796267161,0.0013434796260661,-0.0013434796285745,0.0013434796256875,-0.0013434796277833,0.0013434796260065,-6.9910421931657e-12,6.9428266072952e-12,-0.0013702162466632,0.0013702162465887,-1.7173719472306e-13,1.0735245575028e-13,-0.0013945426134503,0.0013945426086824,-0.0013945426134521,0.0013945426082823,-0.0013945426088033,0.0013945426134034,-0.0013945426085011,0.0013945426133043,-0.0013434796190861,0.0013434796332147,-0.0013434796331764,0.0013434796190001,0.7178221261394,0.43927619685027,1368840,32768,0.0056929518154923,0.0056929518155555,0.0056929518154509,18.238496597228,18.242034065286,6.1107972777824e-05,6.1107972777824e-05,6.1107972777824e-05,275275.4016212,0.017225727977212
24883200,0.99991897524952,0.016913722970363,0.0056379076567894,0.0056379076568487,0.0056379076567244,-0.0013692663523514,0.0013692663515391,6.2996371974667e-12,-7.1167772343994e-12,2.8598302812068e-14,-8.6333715505429e-13,-0.0013941429930664,0.0013941429970988,-0.0013941429976497,0.0013941429925026,-0.0013941429939958,0.0013941429973245,-0.0013941429983669,0.0013941429929289,-0.0013420297183755,0.001342029731114,-0.0013420297321133,0.0013420297171121,-7.2434025425538e-13,2.1800969289471e-13,4.1102279647688e-13,1.470500959558e-13,-0.0013692663520449,0.0013692663518779,-0.001394142995243,0.0013941429953446,-0.0013941429953578,0.0013941429955087,-0.0013941429948685,0.0013941429959309,-0.0013941429949909,0.0013941429956701,-0.0013420297245904,0.0013420297244778,-0.0013420297234026,0.0013420297227978,-0.0013420297254577,0.001342029722182,-0.0013420297244929,0.0013420297229416,-6.9778673603537e-12,6.9503797589046e-12,-0.0013692663519578,0.0013692663519063,-1.5935639647736e-13,1.2881959406159e-13,-0.0013941429978968,0.0013941429930357,-0.0013941429977536,0.001394142992694,-0.001394142993171,0.0013941429977261,-0.0013941429929332,0.0013941429977426,-0.0013420297158188,0.0013420297299913,-0.0013420297299822,0.0013420297158402,0.72017119042164,0.4910714493357,1368840,32768,0.0056890155675908,0.0056890155676579,0.0056890155675363,18.319105794699,18.322643199978,6.1752846357594e-05,6.1752846357594e-05,6.1752846357594e-05,307091.26965907,0.017213718778415
24969600,0.99992053248621,0.016913747618466,0.005637915872824,0.0056379158728833,0.005637915872759,-0.0013697289223358,0.0013697289215564,6.3155947099756e-12,-7.1269523941435e-12,6.1531002623048e-14,-8.641233663302e-13,-0.0013945259760893,0.0013945259801881,-0.0013945259806885,0.0013945259756059,-0.0013945259770951,0.0013945259804107,-0.0013945259813656,0.0013945259760858,-0.0013425659465988,0.001342565959229,-0.0013425659602371,0.0013425659449193,-6.7581553077002e-13,2.9981884074022e-13,4.5030544935998e-13,2.0259507556539e-13,-0.0013697289220099,0.0013697289219167,-0.001394525978288,0.0013945259785428,-0.0013945259784756,0.0013945259786315,-0.0013945259780645,0.0013945259790371,-0.0013945259779978,0.0013945259788085,-0.0013425659523121,0.0013425659525588,-0.0013425659513658,0.0013425659507754,-0.0013425659536384,0.0013425659504658,-0.0013425659524558,0.001342565951108,-7.0411458390043e-12,6.914550206414e-12,-0.0013697289219959,0.0013697289218324,-2.3617216745534e-13,3.5781524546045e-14,-0.0013945259810111,0.0013945259760153,-0.001394525980943,0.0013945259757883,-0.0013945259762935,0.001394525980873,-0.0013945259759476,0.0013945259808238,-0.0013425659438642,0.001342565958078,-0.0013425659577413,0.0013425659435588,0.72224657756266,0.53635853196323,1368840,32768,0.0056909321600613,0.0056909321601327,0.005690932159929,18.47176845906,18.478395690412,6.297414767248e-05,6.297414767248e-05,6.297414767248e-05,301923.54616336,0.017219567011611
25056000,0.9999220860981,0.016913772285278,0.0056379240950944,0.0056379240951537,0.0056379240950294,-0.0013704017238324,0.0013704017231126,6.40245805636e-12,-7.0790462105857e-12,8.689569833724e-14,-8.8721289625503e-13,-0.0013951299324511,0.0013951299352139,-0.0013951299364011,0.0013951299312307,-0.0013951299322738,0.0013951299360738,-0.0013951299362527,0.001395129931811,-0.0013433023854964,0.0013433023990662,-0.0013433023999286,0.0013433023851152,-6.8114830903377e-13,3.4909339425996e-13,4.3366910464771e-13,1.6146321446845e-13,-0.0013704017234371,0.0013704017234252,-0.0013951299341341,0.0013951299341667,-0.0013951299335782,0.0013951299348731,-0.0013951299337164,0.0013951299340483,-0.0013951299329582,0.0013951299346757,-0.0013433023908767,0.0013433023917943,-0.0013433023905754,0.0013433023901887,-0.0013433023931886,0.0013433023898321,-0.0013433023910223,0.0013433023908773,-7.0718141962247e-12,6.9210783599246e-12,-0.0013704017235404,0.0013704017232893,-3.1575508919289e-13,-1.984674663669e-14,-0.001395129936384,0.0013951299316066,-0.0013951299366241,0.0013951299312409,-0.0013951299319056,0.0013951299360969,-0.0013951299313203,0.0013951299363636,-0.0013433023823718,0.0013433023967184,-0.001343302397186,0.0013433023826819,0.72443199073083,0.58164561459079,1368840,32768,0.0056937197195306,0.0056937197193592,0.0056937197192917,18.746247570122,18.758168153745,6.5169980560977e-05,6.5169980560977e-05,6.5169980560977e-05,297467.01854563,0.017228073259561
25142400,0.99992363598888,0.016913796972724,0.0056379323242433,0.0056379323243025,0.0056379323241783,-0.0013710809378559,0.0013710809372435,6.4937183272449e-12,-7.0789130970052e-12,2.0673650787101e-13,-8.3579411412235e-13,-0.0013957420863103,0.0013957420901873,-0.001395742090585,0.0013957420855038,-0.0013957420871937,0.0013957420906442,-0.0013957420906913,0.0013957420860538,-0.0013440439180947,0.0013440439294628,-0.0013440439314787,0.0013440439163854,-6.7234122514297e-13,4.2403445780309e-13,5.4796693645682e-13,3.0304591862579e-13,-0.0013710809374386,0.0013710809375837,-0.0013957420883925,0.0013957420883012,-0.0013957420885435,0.0013957420886918,-0.0013957420875708,0.0013957420889515,-0.0013957420879979,0.001395742089244,-0.0013440439235927,0.0013440439211795,-0.001344043922529,0.0013440439200355,-0.0013440439233775,0.0013440439196127,-0.0013440439237105,0.0013440439220995,-6.9297424187729e-12,7.1571710886302e-12,-0.0013710809374555,0.0013710809374716,-8.7277039628701e-14,1.8213864167187e-13,-0.0013957420908947,0.0013957420861129,-0.0013957420906625,0.0013957420854911,-0.0013957420862963,0.0013957420906208,-0.0013957420861033,0.0013957420907232,-0.0013440439151289,0.0013440439283674,-0.0013440439276016,0.0013440439129881,0.72672661393619,0.62693269721832,1368840,32768,0.0056965338268824,0.0056965338267228,0.0056965338265254,19.02568723277,19.037940617079,6.7405497862155e-05,6.7405497862155e-05,6.7405497862155e-05,293134.8934171,0.017236660638414
25228800,0.99992518159705,0.016913821676045,0.0056379405586836,0.0056379405587428,0.0056379405586186,-0.001371757449107,0.0013717574482076,6.3499801889346e-12,-7.2429428507147e-12,8.2917702215232e-14,-9.8780688200134e-13,-0.0013963519501311,0.0013963519540039,-0.0013963519545846,0.0013963519493588,-0.0013963519512571,0.0013963519542574,-0.0013963519555847,0.0013963519498717,-0.0013447822502501,0.0013447822635908,-0.0013447822641274,0.0013447822493368,-9.9294040164643e-13,1.2709235270998e-13,2.6460235775607e-13,2.2886359660952e-15,-0.0013717574488564,0.0013717574484282,-0.0013963519523286,0.0013963519521438,-0.0013963519526248,0.001396351952326,-0.001396351952131,0.0013963519528216,-0.001396351952005,0.0013963519528561,-0.0013447822569092,0.0013447822561809,-0.0013447822557928,0.0013447822549081,-0.0013447822576735,0.0013447822537606,-0.0013447822566933,0.0013447822546981,-6.9815858349921e-12,7.1247185212104e-12,-0.0013717574486435,0.0013717574486107,-1.4840602512133e-13,1.3891990315114e-13,-0.0013963519546832,0.0013963519496811,-0.0013963519548357,0.001396351949789,-0.0013963519501262,0.0013963519547007,-0.0013963519501688,0.0013963519545495,-0.0013447822471554,0.0013447822614837,-0.001344782261927,0.0013447822476073,0.72915724911702,0.67221977984587,1368840,32768,0.005699336721527,0.0056993367214649,0.005699336721402,19.305437233043,19.317713080413,6.9643497864339e-05,6.9643497864339e-05,6.9643497864339e-05,288892.44763313,0.017245213890886
25315200,0.99992672232913,0.016913846392577,0.0056379487975275,0.0056379487975868,0.0056379487974625,-0.0013724307278018,0.00137243072698,6.3528478660349e-12,-7.2020446295391e-12,8.7172572231873e-14,-9.5614714330227e-13,-0.0013969602737608,0.0013969602778532,-0.0013969602784312,0.0013969602731751,-0.0013969602745942,0.0013969602779517,-0.0013969602791936,0.0013969602738168,-0.0013455157521658,0.0013455157646195,-0.0013455157656252,0.0013455157501827,-7.1768492815926e-13,3.7585163563758e-13,5.3521876708111e-13,2.4665681774471e-13,-0.0013724307274016,0.0013724307274628,-0.0013969602757425,0.0013969602763125,-0.0013969602761807,0.0013969602763571,-0.0013969602755383,0.001396960276878,-0.0013969602753111,0.0013969602766001,-0.0013455157578481,0.0013455157579606,-0.0013455157567191,0.0013455157566099,-0.0013455157586046,0.0013455157556723,-0.0013455157577938,0.0013455157564275,-6.9588609998085e-12,7.1060436211275e-12,-0.0013724307273593,0.0013724307273731,-1.7099948196556e-13,1.4028156743558e-13,-0.0013969602785562,0.0013969602738046,-0.0013969602784983,0.0013969602732726,-0.0013969602736175,0.0013969602783952,-0.0013969602734566,0.0013969602785173,-0.0013455157491839,0.001345515763572,-0.001345515762866,0.0013455157491239,0.73180545632363,0.71750686247341,1368840,32768,0.0057021262111815,0.0057021262113523,0.0057021262110791,19.585207914761,19.597485543747,7.1881663318087e-05,7.1881663318087e-05,7.1881663318087e-05,284748.66819812,0.017253726325632
25401600,0.99992825758688,0.016913871313187,0.0056379571043974,0.0056379571044567,0.0056379571043324,-0.0013731010804264,0.0013731010795273,6.3218484012826e-12,-7.168644532242e-12,-3.9194684982219e-15,-9.9816874192422e-13,-0.0013975673467039,0.0013975673509426,-0.001397567351456,0.0013975673459315,-0.0013975673479348,0.0013975673513866,-0.0013975673521764,0.0013975673467405,-0.0013462445192174,0.0013462445319396,-0.0013462445327908,0.0013462445181852,-8.1297281129748e-13,2.3069077608455e-13,4.486623819075e-13,1.6187711358883e-13,-0.0013731010800584,0.0013731010799168,-0.0013975673490803,0.0013975673489916,-0.0013975673492277,0.0013975673493202,-0.0013975673487419,0.0013975673497068,-0.0013975673485533,0.0013975673492406,-0.0013462445257874,0.0013462445257978,-0.0013462445245692,0.0013462445239603,-0.0013462445264942,0.0013462445229962,-0.0013462445254649,0.0013462445239728,-7.0253211459672e-12,6.9770750904393e-12,-0.0013731010799669,0.0013731010799827,-1.2912831992435e-13,1.8088282709497e-13,-0.0013975673516417,0.0013975673468589,-0.0013975673515552,0.0013975673464056,-0.0013975673469172,0.0013975673514738,-0.0013975673466804,0.0013975673517468,-0.0013462445168004,0.0013462445309916,-0.0013462445309203,0.0013462445172144,0.74041592426397,0.86167391963175,1368840,32768,0.005704903563502,0.0057049035635464,0.0057049035634935,19.864978259888,19.877258007081,7.4119826079102e-05,7.4119826079102e-05,7.4119826079102e-05,280683.02917924,0.017262201814691
25488000,0.99992978626597,0.016913896368076,0.0056379654560272,0.0056379654560864,0.0056379654559621,-0.0013740131645833,0.0013740131637337,6.3665253893724e-12,-7.1665814187982e-12,7.0206149367975e-14,-9.2700503357372e-13,-0.0013982900620742,0.0013982900663013,-0.001398290066776,0.0013982900616193,-0.0013982900631812,0.0013982900663031,-0.0013982900676063,0.0013982900619993,-0.0013473303017662,0.0013473303149724,-0.0013473303156594,0.0013473303016678,-6.6703026974195e-13,3.8031914621703e-13,5.1397194556869e-13,1.591936955654e-13,-0.0013740131641918,0.0013740131641612,-0.0013982900641906,0.0013982900645154,-0.0013982900643011,0.0013982900646214,-0.0013982900637923,0.001398290065115,-0.0013982900640665,0.0013982900648647,-0.0013473303080806,0.0013473303085422,-0.001347330307861,0.001347330307125,-0.0013473303095671,0.0013473303074398,-0.0013473303083317,0.0013473303075176,-6.9893960081614e-12,7.0557313346039e-12,-0.0013740131641341,0.0013740131641642,-2.0183551053429e-13,1.7593559587655e-13,-0.001398290066897,0.0013982900622422,-0.0013982900669055,0.0013982900618797,-0.0013982900623761,0.0013982900669604,-0.0013982900619808,0.0013982900671207,-0.001347330300157,0.0013473303135488,-0.0013473303147224,0.0013473303005631,0.74755615254781,0.95250232212385,1368840,32768,0.0057086826028851,0.0057086826029597,0.0057086826028464,20.139386879307,20.157030470414,7.6315095034452e-05,7.6315095034452e-05,7.6315095034452e-05,269465.18892355,0.017273733568799
25574400,0.99993130823728,0.016913921345977,0.0056379737819943,0.0056379737820536,0.0056379737819293,-0.0013747825542489,0.0013747825536045,6.4753406533761e-12,-7.0487272544561e-12,6.7870985411513e-14,-7.3816003795283e-13,-0.0013989444560786,0.0013989444602843,-0.0013989444606556,0.0013989444557218,-0.0013989444568761,0.0013989444607014,-0.0013989444614144,0.0013989444561579,-0.0013482016498798,0.0013482016630984,-0.0013482016641918,0.0013482016499325,-6.5424080751006e-13,2.0139078882611e-13,4.6615720039398e-13,1.326913581348e-13,-0.0013747825540069,0.0013747825538758,-0.001398944458501,0.001398944458543,-0.0013989444584446,0.0013989444587035,-0.0013989444579128,0.0013989444591251,-0.0013989444581886,0.0013989444588993,-0.0013482016564145,0.00134820165649,-0.0013482016553813,0.0013482016547695,-0.0013482016576367,0.0013482016544317,-0.0013482016566119,0.0013482016551169,-7.1412130173148e-12,6.8948604549812e-12,-0.0013747825539712,0.0013747825538364,-2.3053410440018e-13,1.2670192346086e-13,-0.0013989444611623,0.0013989444562913,-0.0013989444608442,0.0013989444558128,-0.001398944456616,0.0013989444609813,-0.0013989444560736,0.0013989444609098,-0.0013482016480265,0.0013482016611929,-0.0013482016625081,0.0013482016476377,0.74842915817034,0.89921598704721,1368840,32768,0.0057118702900016,0.0057118702900624,0.005711870289907,20.418664662522,20.436802933748,7.8549317300173e-05,7.8549317300173e-05,7.8549317300173e-05,262404.76142703,0.017283461319168
25660800,0.99993282294088,0.016913946225169,0.0056379820750583,0.0056379820751175,0.0056379820749933,-0.0013752174410706,0.0013752174403054,6.4161736961802e-12,-7.1941672819513e-12,1.2112959369171e-13,-8.3113378590394e-13,-0.0013994241505135,0.0013994241546155,-0.0013994241550158,0.0013994241498684,-0.0013994241513596,0.0013994241547651,-0.001399424155856,0.001399424150238,-0.001348586932889,0.0013485869453196,-0.0013485869466864,0.0013485869316337,-7.2813737355011e-13,2.7473907749801e-13,4.2123445510595e-13,1.3615101715047e-13,-0.0013752174407834,0.0013752174406335,-0.0013994241526515,0.0013994241527821,-0.0013994241527641,0.0013994241529364,-0.0013994241522347,0.0013994241533519,-0.0013994241524269,0.0013994241531121,-0.0013485869391955,0.001348586939016,-0.0013485869377424,0.0013485869371386,-0.0013485869403542,0.0013485869368262,-0.0013485869388722,0.0013485869373833,-7.0399128178487e-12,7.082181467747e-12,-0.0013752174406634,0.0013752174406907,-1.1726318239615e-13,1.918348454595e-13,-0.001399424155326,0.0013994241503423,-0.0013994241551334,0.001399424150186,-0.0013994241506018,0.0013994241552163,-0.0013994241502817,0.0013994241552332,-0.0013485869305469,0.0013485869445537,-0.0013485869445543,0.0013485869302805,0.74897587378366,0.86523706048209,1368840,32768,0.0057136718071213,0.0057136718072061,0.0057136718070761,20.698375739091,20.716575397082,8.0787005912729e-05,8.0787005912729e-05,8.0787005912729e-05,264363.87464909,0.017288959953594
25747200,0.99993431810232,0.016913970741326,0.0056379902471106,0.0056379902471699,0.0056379902470456,-0.0013754425543698,0.0013754425535347,6.3723318590476e-12,-7.2123079630601e-12,5.493438061591e-14,-9.0603373305609e-13,-0.0013996833575515,0.0013996833616302,-0.0013996833621854,0.0013996833569837,-0.0013996833584982,0.0013996833618403,-0.0013996833629252,0.0013996833573889,-0.0013487766442328,0.0013487766571103,-0.0013487766582014,0.0013487766429905,-7.3732818101254e-13,2.7400521756398e-13,4.4057377606768e-13,1.5227434812319e-13,-0.0013754425540322,0.0013754425539032,-0.0013996833597507,0.0013996833598645,-0.0013996833598642,0.001399683360027,-0.0013996833593456,0.0013996833604789,-0.0013996833594719,0.0013996833602046,-0.0013487766505589,0.0013487766505198,-0.0013487766492903,0.0013487766487673,-0.0013487766514653,0.0013487766481067,-0.0013487766503749,0.0013487766489893,-7.063388747734e-12,7.0333398715889e-12,-0.0013754425539602,0.0013754425539181,-1.6135301195271e-13,1.510332389794e-13,-0.0013996833624325,0.0013996833575172,-0.0013996833622864,0.0013996833571745,-0.0013996833576468,0.0013996833622578,-0.0013996833574014,0.0013996833622843,-0.0013487766416871,0.0013487766560024,-0.0013487766560351,0.0013487766416756,0.74771686877934,0.81827565817244,1368840,32768,0.0057146043083123,0.0057146043083765,0.0057146043082583,20.850697415671,20.860888516826,8.2005579325363e-05,8.2005579325363e-05,8.2005579325363e-05,265655.93623691,0.017291806282546
25833600,0.99993577579904,0.016913994633454,0.0056379982111531,0.0056379982112124,0.0056379982110881,-0.0013752429606767,0.0013752429598406,6.3658266460127e-12,-7.2171054047368e-12,3.994672083157e-14,-9.0608202569843e-13,-0.0013995401520819,0.001399540156162,-0.0013995401566871,0.0013995401515003,-0.0013995401530029,0.0013995401564003,-0.0013995401574135,0.0013995401519143,-0.0013485233707535,0.0013485233836336,-0.0013485233848808,0.0013485233695159,-7.4181339693345e-13,2.5454328270097e-13,4.3275869128374e-13,1.4726441293798e-13,-0.0013752429603401,0.0013752429602019,-0.0013995401542467,0.001399540154374,-0.0013995401543706,0.0013995401545768,-0.0013995401538707,0.0013995401549807,-0.0013995401539739,0.0013995401547054,-0.0013485233770555,0.0013485233769487,-0.001348523375777,0.0013485233751787,-0.0013485233779634,0.0013485233746524,-0.0013485233769897,0.0013485233754449,-7.0631618134902e-12,7.0318778868398e-12,-0.0013752429602647,0.0013752429602222,-1.5885108838476e-13,1.5071527810465e-13,-0.0013995401569568,0.0013995401520401,-0.0013995401567759,0.0013995401516833,-0.0013995401521502,0.0013995401567708,-0.0013995401519104,0.001399540156771,-0.0013485233682039,0.001348523382502,-0.0013485233825158,0.0013485233681269,0.74742157016783,0.79960567941862,1368840,32768,0.0057137772682471,0.0057137772682983,0.0057137772681841,20.80371653542,20.801103794807,8.1629732283361e-05,8.1629732283361e-05,8.1629732283361e-05,268266.72556789,0.017289282768066
25920000,0.99993719604783,0.016914017891322,0.0056380059637759,0.0056380059638351,0.0056380059637109,-0.0013750861820921,0.0013750861812694,6.3785521984323e-12,-7.2077758662184e-12,5.7484185074075e-14,-8.9085878487563e-13,-0.0013994060474121,0.0013994060514924,-0.001399406052097,0.0013994060468289,-0.0013994060483126,0.001399406051741,-0.0013994060527555,0.0013994060472167,-0.0013483441978875,0.0013483442107675,-0.0013483442116674,0.0013483441965585,-7.4936460742563e-13,2.495215537584e-13,4.1841462948499e-13,1.353582472514e-13,-0.0013750861817742,0.0013750861816164,-0.0013994060495553,0.0013994060497183,-0.0013994060497746,0.0013994060498322,-0.0013994060491709,0.0013994060503369,-0.0013994060492785,0.0013994060501103,-0.0013483442040092,0.0013483442039617,-0.0013483442027893,0.0013483442022659,-0.0013483442052124,0.0013483442015456,-0.0013483442041699,0.0013483442024088,-7.0592839319568e-12,7.0392532497628e-12,-0.0013750861816926,0.0013750861816472,-1.6025133972569e-13,1.4676736929879e-13,-0.0013994060523489,0.0013994060473818,-0.0013994060521438,0.0013994060470742,-0.0013994060475167,0.0013994060521082,-0.0013994060472236,0.0013994060521251,-0.001348344195123,0.0013483442093779,-0.0013483442094025,0.001348344195265,0.74679298422632,0.7809357006648,1368840,32768,0.0057131276934815,0.0057131276935418,0.0057131276934368,20.745086252916,20.741319072787,8.1160690023322e-05,8.1160690023322e-05,8.1160690023322e-05,269070.23149497,0.017287300542653
26006400,0.99993857983203,0.016914040391894,0.0056380134639666,0.0056380134640258,0.0056380134639016,-0.0013749249564235,0.0013749249555663,6.3449349901208e-12,-7.1987573770212e-12,3.3564386395741e-14,-9.2662822155566e-13,-0.0013992683481452,0.0013992683522312,-0.001399268352838,0.0013992683475087,-0.0013992683489407,0.0013992683523737,-0.0013992683533498,0.0013992683478494,-0.0013481600514398,0.0013481600642724,-0.0013481600653341,0.0013481600498446,-7.2527878440746e-13,2.8552945374177e-13,4.3222370762713e-13,1.4565643264891e-13,-0.001374924956078,0.0013749249559411,-0.0013992683503518,0.0013992683504376,-0.0013992683504461,0.001399268350501,-0.0013992683498258,0.0013992683509861,-0.0013992683500086,0.0013992683507085,-0.0013481600576432,0.0013481600573634,-0.0013481600563946,0.001348160055674,-0.0013481600585084,0.00134816005502,-0.0013481600571905,0.0013481600561308,-7.0285968106038e-12,7.0270178588397e-12,-0.0013749249559897,0.0013749249559758,-1.400766619306e-13,1.7062584632105e-13,-0.0013992683529064,0.0013992683481057,-0.0013992683528088,0.0013992683477529,-0.0013992683482221,0.001399268352755,-0.0013992683479275,0.0013992683528872,-0.0013481600483952,0.0013481600628885,-0.0013481600627946,0.0013481600484594,0.74152877986941,0.69652168285282,1368840,32768,0.0057124597014397,0.0057124597015003,0.0057124597013895,20.685411303379,20.681534350768,8.0683290427026e-05,8.0683290427026e-05,8.0683290427026e-05,269975.93539859,0.017285262086197
26092800,0.99993992818815,0.016914061991197,0.0056380206637341,0.0056380206637933,0.0056380206636691,-0.0013745826065049,0.001374582605667,6.3470701013652e-12,-7.1967702024339e-12,4.5939184824732e-14,-9.2808453000761e-13,-0.001399039395264,0.0013990393993804,-0.0013990393998793,0.0013990393947071,-0.0013990393962741,0.0013990393995446,-0.0013990394006061,0.0013990393951392,-0.0013477133757667,0.0013477133886667,-0.0013477133898786,0.0013477133745424,-7.21645395405e-13,3.027816325819e-13,4.4089900142639e-13,1.5290594647535e-13,-0.0013745826061654,0.0013745826060409,-0.0013990393974856,0.001399039397596,-0.0013990393975921,0.0013990393977327,-0.0013990393970669,0.0013990393981656,-0.0013990393971746,0.0013990393979248,-0.0013477133819534,0.0013477133820871,-0.0013477133809319,0.0013477133802934,-0.0013477133830235,0.0013477133797285,-0.0013477133817691,0.0013477133805023,-7.0520162716259e-12,7.0040899416248e-12,-0.0013745826060955,0.0013745826060535,-1.5623672707523e-13,1.5599073459013e-13,-0.0013990394001436,0.00139903939524,-0.0013990393999809,0.0013990393949039,-0.0013990393953731,0.0013990393999694,-0.0013990393951488,0.0013990394000038,-0.0013477133733172,0.0013477133876367,-0.0013477133876981,0.0013477133731813,0.73054861404477,0.53839686589601,1368840,32768,0.0057110411918277,0.0057110411918989,0.0057110411917804,20.625636157485,20.621749628748,8.0205089259881e-05,8.0205089259881e-05,8.0205089259881e-05,276113.24060599,0.017280933637558
26179200,0.9999412421282,0.01691408340348,0.005638027801162,0.0056380278012212,0.005638027801097,-0.0013739943605485,0.0013739943597067,6.3567533349608e-12,-7.2003406227718e-12,5.7102843782613e-14,-9.2653963602659e-13,-0.0013986891347091,0.0013986891387841,-0.0013986891393377,0.0013986891341433,-0.0013986891356638,0.0013986891389827,-0.0013986891400793,0.0013986891345391,-0.0013469083902632,0.0013469084031073,-0.0013469084041772,0.0013469083890038,-7.5318643184798e-13,2.8087089017534e-13,4.1564006718714e-13,1.6124783869509e-13,-0.0013739943602115,0.001373994360076,-0.0013986891369069,0.0013986891370102,-0.001398689137019,0.0013986891371808,-0.0013986891365046,0.0013986891376249,-0.00139868913662,0.0013986891373702,-0.0013469083965162,0.0013469083964252,-0.0013469083953485,0.0013469083947491,-0.0013469083974388,0.0013469083941018,-0.0013469083963935,0.0013469083949787,-7.0535529305644e-12,7.0155816787954e-12,-0.0013739943601421,0.0013739943600864,-1.5541042878867e-13,1.2323670579147e-13,-0.0013986891395852,0.0013986891346761,-0.0013986891394458,0.0013986891343283,-0.0013986891348121,0.0013986891394147,-0.0013986891345744,0.0013986891394272,-0.0013469083877043,0.0013469084019737,-0.0013469084020336,0.0013469083877053,0.74324493865038,0.78002189925125,1368840,32768,0.0057086037911743,0.005708603791241,0.0057086037911191,20.565852549012,20.561964906728,7.9726820392097e-05,7.9726820392097e-05,7.9726820392097e-05,289578.58766823,0.01727349628
26265600,0.99994252263323,0.016914104511288,0.0056380348370978,0.005638034837157,0.0056380348370328,-0.0013745558148333,0.0013745558140189,6.3256382855042e-12,-7.1497116400407e-12,5.2836974102004e-14,-9.0116799934797e-13,-0.0013989224252761,0.0013989224292984,-0.0013989224298427,0.0013989224246877,-0.0013989224261928,0.0013989224296084,-0.0013989224305921,0.0013989224251565,-0.0013477754983887,0.00134777551095,-0.0013477755120461,0.0013477754969783,-7.3044124434491e-13,2.7400115886444e-13,4.0172049242059e-13,1.6283273145418e-13,-0.001374555814514,0.0013745558143692,-0.0013989224274767,0.0013989224275552,-0.0013989224275591,0.0013989224277285,-0.0013989224270763,0.0013989224281313,-0.0013989224271957,0.0013989224278621,-0.0013477755046694,0.0013477755042412,-0.0013477755034121,0.0013477755027124,-0.0013477755053181,0.001347775501959,-0.0013477755041611,0.001347775502967,-7.0228014582361e-12,6.9645355029269e-12,-0.0013745558144527,0.0013745558143723,-1.6070609053925e-13,1.0243654710439e-13,-0.0013989224301132,0.0013989224252582,-0.0013989224300391,0.0013989224248597,-0.0013989224254277,0.00139892242995,-0.0013989224251309,0.0013989224299534,-0.0013477754957714,0.0013477755098534,-0.0013477755097339,0.0013477754955991,0.75194074913185,0.92560067273982,1368840,32768,0.0057109304479355,0.0057109304479998,0.0057109304478793,20.506069051947,20.502180184709,7.9248552415573e-05,7.9248552415573e-05,7.9248552415573e-05,270180.28229754,0.017280594785045
26352000,0.99994377065361,0.016914125110611,0.0056380417035389,0.0056380417035981,0.0056380417034739,-0.001374801158625,0.0013748011577887,6.3217049350771e-12,-7.1731064547569e-12,5.4997261047897e-14,-9.0948127479488e-13,-0.0013989916326926,0.0013989916367461,-0.0013989916372645,0.0013989916320975,-0.0013989916336577,0.0013989916369319,-0.0013989916380739,0.0013989916325465,-0.0013481831198245,0.0013481831325309,-0.0013481831336429,0.0013481831183346,-7.1444370364703e-13,3.0053740702381e-13,4.2698951458696e-13,1.913764771094e-13,-0.0013748011582774,0.0013748011581679,-0.0013989916349154,0.0013989916349727,-0.0013989916349884,0.0013989916351198,-0.001398991634498,0.0013989916355917,-0.0013989916345551,0.0013989916353384,-0.0013481831260651,0.0013481831258191,-0.0013481831247885,0.0013481831242413,-0.0013481831267386,0.001348183123434,-0.001348183125683,0.0013481831243714,-7.0299754743689e-12,6.9768387741292e-12,-0.0013748011582311,0.0013748011581596,-1.501671772017e-13,1.0972479504165e-13,-0.0013989916375549,0.0013989916326211,-0.0013989916374186,0.0013989916322421,-0.0013989916328219,0.0013989916373817,-0.0013989916325874,0.0013989916374157,-0.0013481831171345,0.0013481831314713,-0.0013481831312638,0.0013481831170172,0.75272444877698,0.8874016471762,1368840,32768,0.0057119471927167,0.005711947192782,0.005711947192669,20.446283565983,20.442395462689,7.877026852786e-05,7.877026852786e-05,7.877026852786e-05,259724.47689518,0.01728369665734
26438400,0.99994498711034,0.016914145315297,0.0056380484384341,0.0056380484384934,0.0056380484383691,-0.0013746111965131,0.0013746111956781,6.3357233891759e-12,-7.1770336877238e-12,4.5831658697816e-14,-9.123154235077e-13,-0.0013988331076713,0.0013988331117365,-0.0013988331122875,0.0013988331071142,-0.0013988331086445,0.0013988331119461,-0.0013988331130252,0.0013988331075243,-0.0013479580246586,0.0013479580374942,-0.0013479580384815,0.0013479580232669,-7.2703814242498e-13,2.8137987462621e-13,4.0650584623132e-13,1.8700314012361e-13,-0.0013746111961744,0.0013746111960506,-0.0013988331098773,0.0013988331099719,-0.0013988331099676,0.0013988331101588,-0.0013988331094829,0.0013988331105665,-0.001398833109572,0.0013988331103468,-0.0013479580309522,0.0013479580307838,-0.0013479580296565,0.0013479580291842,-0.0013479580317436,0.0013479580285185,-0.001347958030691,0.0013479580293129,-7.0309748556032e-12,6.9938672539209e-12,-0.0013746111961144,0.0013746111960492,-1.4621241566401e-13,9.7654369667216e-14,-0.0013988331125302,0.0013988331076522,-0.0013988331124151,0.0013988331072806,-0.0013988331077678,0.0013988331123635,-0.001398833107562,0.0013988331123553,-0.0013479580220845,0.0013479580364378,-0.0013479580363859,0.0013479580221144,0.75734697557175,0.931364395653,1368840,32768,0.005711160055848,0.0057111600559179,0.0057111600557911,20.386499002423,20.38261074067,7.829199201938e-05,7.829199201938e-05,7.829199201938e-05,260998.74546658,0.017281294909286
26524800,0.99994618010327,0.016914165177725,0.0056380550592436,0.0056380550593028,0.0056380550591786,-0.0013747998010618,0.0013747998002356,6.3367958858237e-12,-7.1707885843898e-12,5.3967645443124e-14,-9.0206514841127e-13,-0.0013989618695163,0.0013989618735787,-0.0013989618741335,0.0013989618689487,-0.0013989618704539,0.0013989618737886,-0.0013989618748578,0.0013989618693629,-0.0013481972882881,0.0013481973010587,-0.0013481973021151,0.001348197287018,-7.3472355469974e-13,2.7165452467015e-13,4.0906750326857e-13,1.7394874480878e-13,-0.0013747998007318,0.0013747998005979,-0.0013989618717041,0.0013989618718144,-0.0013989618718057,0.0013989618719884,-0.0013989618713151,0.0013989618724126,-0.0013989618714204,0.0013989618721628,-0.0013481972945275,0.0013481972944133,-0.0013481972932957,0.0013481972927753,-0.0013481972954264,0.001348197292148,-0.0013481972943614,0.0013481972929886,-7.0243255293238e-12,6.9953836781834e-12,-0.0013747998006631,0.0013747998006075,-1.4861134237844e-13,1.1080446794074e-13,-0.0013989618743683,0.0013989618694822,-0.0013989618742374,0.0013989618691273,-0.0013989618696078,0.0013989618742029,-0.0013989618693827,0.001398961874209,-0.0013481972857574,0.0013481972999578,-0.0013481972999839,0.0013481972857348,0.75917778062397,0.91692149253238,1368840,32768,0.0057119414914052,0.0057119414914722,0.0057119414913497,20.425543890354,20.427870385526,7.8604351122828e-05,7.8604351122828e-05,7.8604351122828e-05,257170.89997234,0.017283679504591
26611200,0.99994736022685,0.016914184819322,0.0056380616064425,0.0056380616065017,0.0056380616063775,-0.0013751279656707,0.0013751279648631,6.3351935818318e-12,-7.1564484342362e-12,8.55780915304e-14,-8.9451743781218e-13,-0.0013992935675923,0.0013992935717131,-0.0013992935722047,0.0013992935670728,-0.0013992935685512,0.0013992935718687,-0.0013992935729563,0.0013992935674519,-0.001348516400346,0.0013485164138596,-0.0013485164149112,0.0013485163996641,-7.3860131858965e-13,2.9181249709323e-13,4.2610365929629e-13,1.9769143125071e-13,-0.0013751279653408,0.001375127965217,-0.0013992935698094,0.0013992935698786,-0.0013992935699293,0.0013992935700569,-0.0013992935694367,0.0013992935705342,-0.001399293569549,0.0013992935702736,-0.0013485164070271,0.0013485164068823,-0.0013485164056479,0.0013485164051288,-0.0013485164081149,0.0013485164045685,-0.0013485164070297,0.001348516405531,-7.0234012046201e-12,6.9805096619861e-12,-0.0013751279652848,0.0013751279652105,-1.3761664884702e-13,1.151308945949e-13,-0.0013992935724618,0.0013992935675518,-0.0013992935723869,0.0013992935672575,-0.0013992935677335,0.0013992935722381,-0.00139929356757,0.001399293572273,-0.0013485163980949,0.0013485164123899,-0.0013485164130349,0.0013485163981065,0.75888695109683,0.87726751581882,1368840,32768,0.0057133009881788,0.0057133009882284,0.005713300988099,20.606403440798,20.617856096652,8.0051227526379e-05,8.0051227526379e-05,8.0051227526379e-05,256964.1172686,0.017287828711776
26697600,0.99994852790514,0.016914204222894,0.0056380680743,0.0056380680743592,0.0056380680742349,-0.0013754087838384,0.0013754087830424,6.3906268883823e-12,-7.1415335957567e-12,3.646529777489e-14,-8.8508619651836e-13,-0.0013996128776187,0.0013996128816921,-0.0013996128822595,0.0013996128769039,-0.0013996128783075,0.0013996128816923,-0.0013996128829304,0.0013996128774748,-0.0013487578131585,0.0013487578260864,-0.0013487578275037,0.0013487578123772,-7.432412356669e-13,2.2804838621952e-13,3.5724470406657e-13,1.5217438058889e-13,-0.0013754087835647,0.0013754087833799,-0.0013996128797568,0.0013996128799712,-0.001399612879935,0.0013996128799611,-0.001399612879312,0.0013996128804334,-0.00139961287968,0.0013996128801597,-0.0013487578197095,0.0013487578193208,-0.0013487578183337,0.001348757817695,-0.0013487578205225,0.0013487578168653,-0.0013487578197245,0.0013487578179369,-7.0930737820531e-12,6.9510113866676e-12,-0.0013754087834964,0.0013754087833648,-1.6398575505363e-13,6.4713905387553e-14,-0.0013996128824781,0.0013996128774959,-0.0013996128824006,0.0013996128772383,-0.0013996128778444,0.0013996128821623,-0.001399612877505,0.0013996128822363,-0.0013487578106519,0.0013487578248334,-0.0013487578251902,0.0013487578104557,0.75768466288469,0.83761353910524,1368840,32768,0.0057144642846194,0.0057144642847515,0.0057144642845791,20.795560432739,20.807841807777,8.1564483461908e-05,8.1564483461908e-05,8.1564483461908e-05,258693.46899009,0.017291379333772
26784000,0.99994968299975,0.016914223367373,0.0056380744557928,0.005638074455852,0.0056380744557278,-0.0013756837083797,0.0013756837076114,6.3475372635643e-12,-7.1377702989581e-12,7.020338474655e-14,-8.6751932140963e-13,-0.0013999325599663,0.0013999325641007,-0.0013999325646314,0.0013999325596074,-0.0013999325609399,0.0013999325640906,-0.0013999325653476,0.001399932560002,-0.0013489890919244,0.0013489891050005,-0.0013489891062818,0.0013489890910599,-7.4868133418151e-13,2.3940974502016e-13,3.0214309326531e-13,1.5127664330827e-13,-0.0013756837080962,0.0013756837078979,-0.0013999325620589,0.0013999325624143,-0.0013999325621597,0.0013999325624753,-0.0013999325617384,0.0013999325627228,-0.0013999325620706,0.0013999325625319,-0.0013489890985591,0.0013489890978306,-0.0013489890969474,0.001348989096447,-0.001348989099188,0.0013489890957091,-0.0013489890980158,0.0013489890966248,-7.05904976264e-12,6.9387038803005e-12,-0.0013756837080381,0.0013756837079389,-1.0762994727311e-13,6.7959335653651e-14,-0.0013999325649503,0.0013999325600972,-0.0013999325647884,0.0013999325596952,-0.001399932560259,0.0013999325646112,-0.0013999325600097,0.0013999325647773,-0.0013489890894434,0.0013489891038603,-0.0013489891041224,0.0013489890893303,0.75573598348383,0.7979595623917,1368840,32768,0.0057156031796985,0.0057156031797046,0.0057156031796693,20.985461185424,20.997827518903,8.3083689483386e-05,8.3083689483386e-05,8.3083689483386e-05,260785.42533676,0.017294855444258
26870400,0.99995082532826,0.016914242236442,0.0056380807454825,0.0056380807455417,0.0056380807454175,-0.0013759522539412,0.0013759522531136,6.3349550597067e-12,-7.1769696896789e-12,9.6946803047596e-14,-8.878458769179e-13,-0.0014002505824679,0.0014002505867113,-0.0014002505871494,0.0014002505821059,-0.0014002505835499,0.0014002505867462,-0.0014002505880461,0.001400250582354,-0.0013492106610502,0.0013492106741044,-0.0013492106751905,0.0013492106597822,-7.3631588840798e-13,2.9872558002094e-13,3.5351699441613e-13,2.3284003395561e-13,-0.0013759522536216,0.0013759522534817,-0.0014002505849161,0.0014002505848522,-0.0014002505847648,0.0014002505849428,-0.0014002505844298,0.0014002505854748,-0.0014002505844741,0.0014002505853307,-0.001349210667563,0.0013492106669107,-0.0013492106660283,0.0013492106658507,-0.0013492106684472,0.0013492106649996,-0.0013492106671983,0.0013492106660826,-7.0639842589533e-12,6.9604398339291e-12,-0.0013759522535787,0.0013759522534589,-1.4556493544408e-13,-2.2575780913625e-16,-0.0014002505872881,0.0014002505825664,-0.0014002505874243,0.0014002505819674,-0.0014002505827626,0.0014002505873059,-0.0014002505825843,0.0014002505873914,-0.0013492106585292,0.0013492106729144,-0.0013492106730223,0.0013492106585437,0.75321654451039,0.75830558567814,1368840,32768,0.0057167156587987,0.0057167156588991,0.0057167156587632,21.175433362033,21.187813230028,8.4603466896258e-05,8.4603466896258e-05,8.4603466896258e-05,263176.25732537,0.017298250904085
26956800,0.9999519547097,0.016914260818634,0.0056380869395466,0.0056380869396058,0.0056380869394816,-0.0013762151427113,0.0013762151418814,6.3346987145967e-12,-7.1856775413071e-12,1.0980558669117e-13,-9.0860530155526e-13,-0.0014005667758278,0.0014005667799377,-0.0014005667804175,0.0014005667753327,-0.0014005667765775,0.00140056678004,-0.0014005667810632,0.0014005667756766,-0.0013494238617057,0.0013494238752954,-0.0013494238759601,0.0013494238609795,-6.8975613430592e-13,3.7952334699873e-13,4.0703735940572e-13,2.876633297298e-13,-0.0013762151423324,0.001376215142278,-0.0014005667779777,0.0014005667779782,-0.0014005667779678,0.0014005667780963,-0.0014005667776824,0.0014005667787364,-0.0014005667775874,0.001400566778575,-0.0013494238686679,0.0013494238685472,-0.0013494238671701,0.0013494238668613,-0.001349423869262,0.0013494238659859,-0.0013494238680284,0.0013494238673573,-7.0991972420444e-12,6.9332124304135e-12,-0.0013762151423739,0.0013762151422016,-1.5193647609201e-13,-7.86887725826e-15,-0.0014005667805502,0.0014005667756843,-0.0014005667804873,0.0014005667753616,-0.0014005667757628,0.001400566780329,-0.0014005667757933,0.001400566780428,-0.0013494238596354,0.0013494238738631,-0.0013494238745728,0.0013494238597631,0.75029979032809,0.71865160896458,1368840,32768,0.0057178047102234,0.00571780471026,0.0057178047101878,21.365412306268,21.377798941154,8.612329845014e-05,8.612329845014e-05,8.612329845014e-05,265814.72242133,0.017301574845362
27043200,0.99995307096893,0.016914279106213,0.0056380930354061,0.0056380930354653,0.0056380930353411,-0.0013764731233284,0.001376473122519,6.3725560874917e-12,-7.1713395675576e-12,1.243043202354e-13,-8.5776497233948e-13,-0.0014008815637245,0.0014008815675882,-0.0014008815682569,0.0014008815631849,-0.0014008815644416,0.0014008815680448,-0.0014008815690831,0.0014008815632108,-0.0013496296067517,0.0013496296195344,-0.0013496296211446,0.0013496296062283,-7.4481956980282e-13,2.8747457079037e-13,3.3371098182916e-13,2.3006429522311e-13,-0.0013764731230189,0.0013764731228798,-0.001400881565966,0.0014008815659197,-0.0014008815655063,0.0014008815661249,-0.0014008815654243,0.0014008815665545,-0.0014008815656094,0.0014008815666123,-0.0013496296144498,0.0013496296132882,-0.0013496296128065,0.001349629611359,-0.0013496296141738,0.0013496296104964,-0.0013496296133489,0.0013496296108704,-7.1629682350608e-12,6.8933326193026e-12,-0.0013764731230364,0.0013764731227812,-2.0859992153323e-13,-7.9970645186978e-14,-0.0014008815686584,0.0014008815632932,-0.001400881568491,0.0014008815630614,-0.001400881563561,0.00140088156818,-0.001400881563302,0.001400881568123,-0.0013496296044227,0.0013496296180019,-0.0013496296184322,0.0013496296040321,0.74711825113403,0.67899763225101,1368840,32768,0.0057188734321088,0.0057188734322149,0.005718873432047,21.555391665543,21.567784652279,8.7643133324343e-05,8.7643133324343e-05,8.7643133324343e-05,268660.29281142,0.017304836735807
27129600,0.99995417393727,0.01691429709384,0.0056380990312818,0.005638099031341,0.0056380990312168,-0.0013767266965142,0.0013767266958057,6.4303699095544e-12,-7.1106185990121e-12,1.4285810637115e-13,-7.9268213704601e-13,-0.001401194195859,0.0014011941996851,-0.0014011942001436,0.0014011941950081,-0.0014011941966333,0.0014011941998458,-0.0014011942007179,0.0014011941953883,-0.0013498293415345,0.0013498293557756,-0.0013498293562781,0.001349829340667,-6.288743471439e-13,3.5686156871227e-13,5.1537746145467e-13,2.9569087861133e-13,-0.0013767266961549,0.0013767266962168,-0.0014011941975548,0.0014011941979588,-0.0014011941975663,0.0014011941983044,-0.0014011941973965,0.0014011941985562,-0.0014011941974968,0.0014011941983215,-0.0013498293483279,0.0013498293478233,-0.0013498293473958,0.0013498293469953,-0.0013498293495677,0.0013498293464678,-0.0013498293483041,0.0013498293466049,-7.1010695966099e-12,6.9528317134108e-12,-0.0013767266962267,0.0013767266960536,-2.3413349444128e-13,1.0673085709264e-14,-0.0014011942006402,0.0014011941956886,-0.001401194200465,0.0014011941954015,-0.0014011941957814,0.0014011942002564,-0.001401194195696,0.0014011942003777,-0.0013498293393093,0.0013498293542352,-0.001349829354734,0.0013498293393001,0.74375512122734,0.63934365553745,1368840,32768,0.0057199238958432,0.0057199238959504,0.0057199238957613,21.745370846579,21.757770363405,8.9162966772631e-05,8.9162966772631e-05,8.9162966772631e-05,271671.15621732,0.017308042904408
27216000,0.99995526345267,0.016914314777711,0.0056381049259055,0.0056381049259648,0.0056381049258405,-0.0013769760858154,0.0013769760849895,6.3344235465323e-12,-7.1933781295888e-12,6.8699430691314e-14,-8.8947323896781e-13,-0.0014015049719354,0.0014015049760341,-0.0014015049766215,0.001401504971353,-0.001401504972635,0.0014015049761643,-0.0014015049770348,0.001401504971838,-0.0013500231620434,0.0013500231740168,-0.0013500231757888,0.0013500231604644,-7.7914408003612e-13,2.2850113709417e-13,3.1433175032197e-13,2.2536152712475e-13,-0.0013769760855457,0.0013769760853607,-0.0014015049741643,0.001401504974211,-0.0014015049742377,0.0014015049742546,-0.0014015049740042,0.0014015049746868,-0.0014015049737633,0.001401504974438,-0.001350023167759,0.0013500231676864,-0.0013500231672693,0.001350023166435,-0.001350023169363,0.0013500231658608,-0.0013500231679921,0.0013500231663437,-7.1093787545356e-12,6.9307420352941e-12,-0.0013769760855134,0.0013769760853182,-1.5048334401361e-13,-3.6226893293277e-14,-0.0014015049768072,0.001401504971826,-0.0014015049767847,0.0014015049714673,-0.0014015049721202,0.0014015049767305,-0.0014015049721791,0.0014015049768862,-0.0013500231597856,0.0013500231732914,-0.0013500231731842,0.0013500231588933,0.74026144464378,0.59968967882389,1368840,32768,0.0057209570255746,0.0057209570257848,0.0057209570256298,21.935349824362,21.94775607453,9.0682798594897e-05,9.0682798594897e-05,9.0682798594897e-05,274834.92585043,0.017311196177415
27302400,0.99995633733046,0.016914332193043,0.0056381107310163,0.0056381107310755,0.0056381107309513,-0.0013771610051406,0.0013771610043586,6.3643588673229e-12,-7.1594735771143e-12,6.1181542710573e-14,-8.7093968750803e-13,-0.0014017539020971,0.0014017539062208,-0.0014017539067877,0.0014017539016618,-0.0014017539030153,0.0014017539063195,-0.0014017539076638,0.0014017539021623,-0.001350150599143,0.001350150611654,-0.0013501506127736,0.0013501505976461,-7.8585255156751e-13,1.9610789139147e-13,2.8057578154364e-13,1.5997917156965e-13,-0.0013771610048978,0.0013771610046671,-0.0014017539044106,0.0014017539044073,-0.0014017539045846,0.0014017539045702,-0.0014017539041489,0.0014017539050661,-0.001401753904124,0.0014017539048402,-0.0013501506057222,0.0013501506049831,-0.0013501506044148,0.0013501506034703,-0.0013501506062921,0.0013501506028709,-0.0013501506053456,0.0013501506034877,-7.0638675566361e-12,6.9715248188199e-12,-0.0013771610048061,0.0013771610046769,-1.3845735845803e-13,6.6331797138541e-15,-0.0014017539070367,0.0014017539022134,-0.0014017539069432,0.0014017539019391,-0.0014017539021111,0.0014017539068776,-0.0014017539021905,0.0014017539070579,-0.0013501505966088,0.0013501506106623,-0.0013501506104988,0.0013501505965032,0.73966770828937,0.60576459798307,1368840,32768,0.0057217230600841,0.00572172306022,0.0057217230600507,22.094095493897,22.104535214245,9.1952763951174e-05,9.1952763951174e-05,9.1952763951174e-05,278158.39061745,0.017313534309675
27388800,0.99995739290377,0.016914349416192,0.005638116472066,0.0056381164721252,0.005638116472001,-0.0013773989123322,0.0013773989115272,6.3644612171374e-12,-7.1682648967808e-12,1.5530054979245e-14,-8.792461984557e-13,-0.0014019921303706,0.0014019921344743,-0.0014019921350364,0.0014019921298739,-0.0014019921313413,0.0014019921347922,-0.0014019921357676,0.0014019921303162,-0.0013503901143466,0.0013503901272316,-0.0013503901282189,0.0013503901132403,-6.8606948222472e-13,2.589850293616e-13,3.5310868336034e-13,2.7088240119917e-13,-0.0013773989119962,0.001377398911875,-0.0014019921316288,0.0014019921316947,-0.0014019921316764,0.0014019921319053,-0.0014019921312961,0.0014019921322501,-0.001401992131291,0.001401992132045,-0.0013503901212517,0.001350390121053,-0.0013503901200801,0.0013503901196734,-0.0013503901230314,0.0013503901200128,-0.001350390122227,0.0013503901209147,-7.0949421955625e-12,6.9499858885841e-12,-0.0013773989119698,0.0013773989118353,-9.9941388035668e-14,7.2179853778543e-15,-0.0014019921342477,0.001401992129297,-0.0014019921341772,0.0014019921288835,-0.0014019921293972,0.0014019921340198,-0.0014019921292488,0.0014019921340486,-0.0013503901136185,0.0013503901276834,-0.0013503901278928,0.0013503901135134,0.74421447285586,0.6936596777507,1368840,32768,0.0057227087169517,0.0057227087169753,0.0057227087168385,22.211649453038,22.219426561152,9.2893195624304e-05,9.2893195624304e-05,9.2893195624304e-05,277696.52087778,0.017316542376343
27475200,0.99995843014358,0.016914366363298,0.0056381221211013,0.0056381221211605,0.0056381221210363,-0.001377863932001,0.0013778639311853,6.3381894903088e-12,-7.1750344546814e-12,2.4489075404968e-14,-8.7872850838843e-13,-0.0014023399970564,0.001402340001171,-0.0014023400017075,0.00140233999651,-0.0014023399980059,0.0014023400013869,-0.0014023400024115,0.0014023399969565,-0.0013509649890823,0.0013509650017694,-0.0013509650027607,0.0013509649877682,-7.2367353932894e-13,2.2973333474549e-13,3.1608360856861e-13,2.5024991386044e-13,-0.0013778639316814,0.0013778639315334,-0.0014023399991906,0.0014023399992081,-0.0014023399992249,0.0014023399994512,-0.0014023399987826,0.0014023399997929,-0.0014023399988569,0.0014023399996374,-0.0013509649954825,0.0013509649951561,-0.001350964994055,0.0013509649936566,-0.001350964996391,0.0013509649932042,-0.001350964995403,0.001350964994104,-7.0505863153101e-12,6.9746489586737e-12,-0.0013778639316343,0.0013778639315188,-8.9519500534825e-14,1.3373709089426e-15,-0.0014023400017995,0.0014023399969001,-0.0014023400017433,0.0014023399964902,-0.0014023399970307,0.0014023400016252,-0.0014023399968716,0.0014023400015605,-0.0013509649869313,0.0013509650009563,-0.0013509650010181,0.0013509649867986,0.74522278457373,0.71481564294861,1368840,32768,0.0057246354508435,0.0057246354509024,0.0057246354507745,22.326779507266,22.334317908059,9.3814236058128e-05,9.3814236058128e-05,9.3814236058128e-05,270550.96853725,0.017322421946565
27561600,0.99995944917196,0.016914383041258,0.0056381276804211,0.0056381276804803,0.0056381276803561,-0.001378142655141,0.0013781426543393,6.3555023731768e-12,-7.1592004678106e-12,4.174725406181e-14,-8.5547339528676e-13,-0.0014025917063776,0.0014025917104425,-0.0014025917110021,0.0014025917057883,-0.0014025917072845,0.0014025917106853,-0.0014025917116972,0.0014025917062306,-0.0013512693638859,0.0013512693767247,-0.0013512693777435,0.0013512693627125,-7.3021066315371e-13,2.1740012328135e-13,3.1602225750167e-13,2.2690427411253e-13,-0.0013781426548436,0.0013781426546713,-0.0014025917085697,0.0014025917086173,-0.0014025917086276,0.0014025917088552,-0.0014025917082054,0.0014025917091867,-0.0014025917082735,0.0014025917090165,-0.0013512693703107,0.001351269370052,-0.0013512693690055,0.0013512693685616,-0.0013512693711466,0.0013512693677775,-0.0013512693701383,0.0013512693685693,-7.0487847821104e-12,6.9779530930287e-12,-0.0013781426547777,0.0013781426546763,-9.6876187557792e-14,1.7129035543251e-14,-0.0014025917112122,0.0014025917063277,-0.0014025917111412,0.0014025917059099,-0.0014025917064412,0.0014025917110786,-0.0014025917062804,0.001402591711009,-0.0013512693615662,0.0013512693756172,-0.0013512693758123,0.0013512693614364,0.74641617883809,0.73597160814651,1368840,32768,0.0057257902176337,0.0057257902177054,0.0057257902175794,22.441691211387,22.449209254966,9.4733529691093e-05,9.4733529691093e-05,9.4733529691093e-05,268637.07259435,0.017325946084901
27648000,0.99996045012702,0.016914399454737,0.005638133151581,0.0056381331516402,0.0056381331515159,-0.0013784215478942,0.0013784215470781,6.348111363673e-12,-7.152648785607e-12,4.1980305765769e-14,-8.9484972177878e-13,-0.0014028433130959,0.0014028433171579,-0.0014028433177056,0.0014028433125334,-0.0014028433140371,0.0014028433173701,-0.0014028433184302,0.0014028433129501,-0.0013515738907481,0.0013515739035753,-0.0013515739045551,0.0013515738894778,-7.3417983601585e-13,2.5295927226787e-13,3.4570273313645e-13,2.3650177503311e-13,-0.0013784215475735,0.0013784215474311,-0.0014028433153024,0.0014028433153673,-0.0014028433153706,0.0014028433155819,-0.0014028433149119,0.0014028433159635,-0.0014028433149904,0.0014028433157602,-0.0013515738970445,0.0013515738968093,-0.0013515738957296,0.0013515738952787,-0.0013515738977897,0.0013515738945736,-0.0013515738969063,0.0013515738953936,-7.0438384038071e-12,6.9689786613091e-12,-0.0013784215475237,0.0013784215474222,-1.080225823372e-13,2.5986529658769e-14,-0.0014028433179539,0.0014028433130601,-0.0014028433178606,0.0014028433126735,-0.0014028433131984,0.001402843317786,-0.0014028433130109,0.0014028433177469,-0.0013515738882118,0.001351573902373,-0.0013515739024809,0.0013515738881664,0.7478212615592,0.75712757334442,1368840,32768,0.0057269456816664,0.0057269456817332,0.0057269456816117,22.556581741351,22.564100601873,9.5652653930809e-05,9.5652653930809e-05,9.5652653930809e-05,266698.69007693,0.017329472377607
27734400,0.99996143315099,0.016914415610138,0.0056381385367145,0.0056381385367738,0.0056381385366495,-0.0013787006196677,0.0013787006188523,6.3450759858135e-12,-7.1485934977286e-12,3.8720464175222e-14,-9.05016058263e-13,-0.0014030946875887,0.0014030946916406,-0.0014030946921834,0.0014030946870283,-0.0014030946885136,0.0014030946918789,-0.0014030946928996,0.0014030946874509,-0.0013518785782844,0.0013518785911639,-0.0013518785921739,0.0013518785770799,-7.3869863914599e-13,2.5543107910881e-13,3.2933967419314e-13,2.3601899566404e-13,-0.0013787006193456,0.0013787006192009,-0.001403094689785,0.0014030946898577,-0.0014030946898693,0.0014030946900722,-0.0014030946893995,0.0014030946904417,-0.0014030946894773,0.0014030946902434,-0.0013518785846161,0.0013518785843054,-0.0013518785833109,0.0013518785827492,-0.0013518785854088,0.0013518785820618,-0.0013518785844267,0.0013518785830846,-7.0421178093113e-12,6.9636898817012e-12,-0.0013787006193018,0.0013787006191907,-1.0381094629391e-13,1.4279622590861e-14,-0.0014030946924494,0.0014030946875691,-0.0014030946923931,0.0014030946871745,-0.0014030946877032,0.0014030946922771,-0.0014030946875194,0.0014030946922348,-0.0013518785757908,0.0013518785899338,-0.0013518785901164,0.001351878575697,0.7494670527328,0.77828353854232,1368840,32768,0.0057281018815946,0.0057281018816495,0.005728101881538,22.67147007882,22.67899194878,9.6571760630554e-05,9.6571760630554e-05,9.6571760630554e-05,264731.07019096,0.017333000943614
27820800,0.99996239838909,0.016914431514132,0.005638143838046,0.0056381438381052,0.005638143837981,-0.0013789798653572,0.0013789798645208,6.3206566729832e-12,-7.1510898920537e-12,4.2145300725287e-14,-9.1988619222591e-13,-0.0014033462579875,0.0014033462620851,-0.0014033462626257,0.0014033462574994,-0.001403346259066,0.0014033462623987,-0.0014033462634867,0.0014033462578928,-0.001352182998478,0.0013521830110833,-0.0013521830120708,0.0013521829971269,-7.653287962012e-13,2.4683522405922e-13,3.3763256790975e-13,2.3021567295157e-13,-0.0013789798650068,0.0013789798648788,-0.0014033462602701,0.0014033462604221,-0.001403346260362,0.0014033462605873,-0.0014033462598942,0.0014033462609579,-0.0014033462599286,0.001403346260719,-0.0013521830045015,0.0013521830041933,-0.0013521830032083,0.0013521830027228,-0.0013521830054363,0.0013521830018651,-0.0013521830044234,0.001352183002925,-7.0543060252049e-12,6.9296241870907e-12,-0.0013789798649846,0.0013789798648428,-1.3804495929184e-13,-5.8414980168336e-15,-0.0014033462629782,0.0014033462579812,-0.0014033462627989,0.0014033462576265,-0.0014033462581593,0.0014033462626997,-0.0014033462579608,0.0014033462626892,-0.0013521829956855,0.0013521830096308,-0.0013521830097378,0.0013521829955468,0.75137673536216,0.79943950374023,1368840,32768,0.0057292587961219,0.0057292587961373,0.0057292587960171,22.786358075641,22.793883295686,9.749086460513e-05,9.749086460513e-05,9.749086460513e-05,262736.49171819,0.017336531719664
27907200,0.99996334598934,0.016914447173348,0.0056381490577846,0.0056381490578438,0.0056381490577196,-0.0013792592576117,0.0013792592566393,6.2455724373433e-12,-7.2274850876446e-12,-4.2752458647617e-14,-9.5997467343268e-13,-0.0014035978319673,0.0014035978360242,-0.0014035978366199,0.0014035978313301,-0.001403597832968,0.0014035978360797,-0.0014035978374507,0.0014035978316099,-0.0013524871978782,0.0013524872108436,-0.0013524872119441,0.0013524871966515,-6.9190771563541e-13,2.7498783460453e-13,3.7634347355345e-13,2.7788527550146e-13,-0.0013792592571697,0.001379259257122,-0.001403597833907,0.0014035978343831,-0.0014035978342258,0.0014035978343263,-0.0014035978337888,0.0014035978348639,-0.0014035978337272,0.0014035978347774,-0.0013524872042098,0.0013524872039146,-0.0013524872029226,0.0013524872027687,-0.0013524872046823,0.0013524872019599,-0.0013524872040721,0.0013524872031135,-7.1019842157278e-12,6.8835855053055e-12,-0.0013792592572317,0.0013792592569982,-1.8692737773222e-13,-6.3109866154556e-14,-0.0014035978367249,0.0014035978319314,-0.0014035978368553,0.0014035978316185,-0.0014035978319733,0.0014035978368248,-0.0014035978318665,0.0014035978366793,-0.0013524871954587,0.0013524872093296,-0.0013524872098941,0.0013524871953807,0.75355989701493,0.82059546893813,1368840,32768,0.0057304163114137,0.0057304163114977,0.00573041631137,22.901245909669,22.908774642593,9.8409967277347e-05,9.8409967277347e-05,9.8409967277347e-05,260710.8494137,0.017340064359134
27993600,0.99996427610243,0.016914462594016,0.0056381541980072,0.0056381541980664,0.0056381541979422,-0.0013795387265421,0.0013795387256692,6.3050204447769e-12,-7.1789093951281e-12,2.161051628415e-14,-9.1112522457334e-13,-0.0014038484718765,0.0014038484758795,-0.0014038484763303,0.0014038484711544,-0.0014038484726105,0.0014038484758582,-0.0014038484770977,0.0014038484714965,-0.0013527917859315,0.0013527917987815,-0.0013527918002115,0.0013527917849441,-6.7652445028949e-13,3.0618664620813e-13,3.6895772859465e-13,2.7539420454315e-13,-0.0013795387261694,0.0013795387261163,-0.0014038484739614,0.0014038484741604,-0.0014038484739895,0.0014038484741234,-0.0014038484734648,0.001403848474741,-0.001403848473758,0.0014038484746493,-0.0013527917925723,0.0013527917921561,-0.0013527917912798,0.0013527917906223,-0.0013527917929328,0.0013527917903158,-0.0013527917922725,0.0013527917908762,-7.0371869011236e-12,6.9593896601289e-12,-0.0013795387261164,0.0013795387260612,-5.5542773794622e-14,6.2521001791017e-14,-0.0014038484766937,0.0014038484717576,-0.0014038484765929,0.0014038484714117,-0.0014038484718569,0.0014038484765326,-0.0014038484716154,0.0014038484765623,-0.0013527917836509,0.0013527917977009,-0.001352791797832,0.0013527917833998,0.75600938322139,0.84175143413604,1368840,32768,0.0057315741381634,0.0057315741383174,0.0057315741380937,23.016133599498,23.0236659895,9.9329068795984e-05,9.9329068795984e-05,9.9329068795984e-05,258644.14229369,0.01734359797727
28080000,0.99996518810285,0.016914477768734,0.0056381592562466,0.0056381592563059,0.0056381592561816,-0.001379790634328,0.0013797906335086,6.3273828792669e-12,-7.156616899678e-12,3.0699062164723e-14,-8.5829154448835e-13,-0.0014040715935486,0.0014040715975819,-0.0014040715980701,0.0014040715927925,-0.0014040715944514,0.0014040715976738,-0.0014040715987599,0.0014040715935495,-0.0013530683717651,0.001353068384492,-0.0013530683852853,0.0013530683701094,-6.9625452401986e-13,2.4325962740889e-13,3.5981591963535e-13,2.3559130284741e-13,-0.0013797906339892,0.0013797906338523,-0.0014040715955477,0.0014040715956801,-0.0014040715958173,0.0014040715958617,-0.0014040715952408,0.0014040715963941,-0.0014040715954465,0.0014040715962002,-0.0013530683778868,0.0013530683775541,-0.0013530683766248,0.0013530683760564,-0.001353068378324,0.0013530683754382,-0.0013530683774353,0.001353068376041,-6.9725299351731e-12,7.0237194301927e-12,-0.0013797906338822,0.001379790633919,-3.035839610125e-14,1.1889148559378e-13,-0.0014040715983317,0.0014040715935165,-0.0014040715983364,0.0014040715931107,-0.0014040715937902,0.0014040715983469,-0.0014040715933045,0.0014040715981631,-0.0013530683687039,0.0013530683832381,-0.0013530683827694,0.0013530683689732,0.75870349025884,0.86290739933395,1368840,32768,0.0057326177763074,0.0057326177763173,0.0057326177762341,23.116780301119,23.123413297331,0.00010013424240895,0.00010013424240895,0.00010013424240895,256558.46094512,0.01734678311926
28166400,0.99996608127263,0.016914492687567,0.0056381642291908,0.00563816422925,0.0056381642291258,-0.0013800089318477,0.0013800089310353,6.3099856460346e-12,-7.1461766892075e-12,2.5431105450126e-14,-8.6054894611452e-13,-0.001404261070591,0.0014042610745812,-0.0014042610751314,0.0014042610701026,-0.0014042610715385,0.0014042610748065,-0.0014042610759174,0.0014042610704238,-0.001353310991642,0.0013533110041169,-0.0013533110052224,0.0013533109900974,-7.5563279828964e-13,1.8086894516611e-13,3.1696375815123e-13,2.0356598708118e-13,-0.0013800089315782,0.0013800089313611,-0.0014042610728105,0.0014042610727986,-0.0014042610729674,0.0014042610730342,-0.0014042610724508,0.0014042610734435,-0.0014042610726219,0.0014042610731591,-0.0013533109976629,0.0013533109973803,-0.0013533109964995,0.001353310995938,-0.0013533109983831,0.0013533109954514,-0.0013533109977085,0.001353310995994,-6.9790820291287e-12,6.9901843664305e-12,-0.0013800089314324,0.0013800089314014,-4.5993889035908e-14,9.216347858664e-14,-0.0014042610755497,0.0014042610705076,-0.0014042610753366,0.0014042610701818,-0.0014042610707177,0.001404261075282,-0.0014042610705328,0.0014042610752385,-0.0013533109890536,0.0013533110030083,-0.0013533110029142,0.0013533109888225,0.76161266501596,0.88406336453187,1368840,32768,0.0057335221669254,0.0057335221670421,0.0057335221668238,23.200144865844,23.205654901351,0.00010080115892675,0.00010080115892675,0.00010080115892675,254457.48452839,0.017349543295926
28252800,0.99996695582908,0.016914507355276,0.0056381691184272,0.0056381691184864,0.0056381691183621,-0.0013802248235414,0.001380224822721,6.3164551542779e-12,-7.1294594940239e-12,3.4377773312035e-15,-8.7065299038408e-13,-0.0014044477787571,0.0014044477826129,-0.001404447783158,0.0014044477784069,-0.0014044477799195,0.0014044477832823,-0.0014044477843877,0.0014044477784991,-0.001353551106294,0.0013535511196347,-0.0013535511202411,0.0013535511054969,-7.16390938278e-13,2.0647210418365e-13,3.3110614964029e-13,2.179926345923e-13,-0.0013802248232197,0.0013802248230451,-0.001404447781069,0.0014044477809712,-0.001404447781136,0.0014044477812922,-0.0014044477803901,0.0014044477815574,-0.0014044477809762,0.0014044477811832,-0.0013535511128305,0.0013535511123589,-0.0013535511112895,0.0013535511113697,-0.0013535511134912,0.0013535511099406,-0.0013535511123993,0.0013535511108701,-7.0407473805887e-12,6.9176803460845e-12,-0.0013802248231989,0.0013802248230729,-1.2165681287964e-13,1.6380146656587e-14,-0.0014044477836259,0.0014044477787176,-0.0014044477836731,0.0014044477781776,-0.001404447779107,0.0014044477834245,-0.0014044477787189,0.0014044477834871,-0.001353551103761,0.0013535511178638,-0.0013535511184332,0.001353551104023,0.76470634460547,0.90521932972977,1368840,32768,0.0057344165874656,0.0057344165874705,0.0057344165874852,23.282486504131,23.287896505372,0.00010145989203305,0.00010145989203305,0.00010145989203305,252340.24618626,0.01735227305692
28339200,0.999967812041,0.016914521776754,0.0056381739255867,0.0056381739256459,0.0056381739255217,-0.0013804399387229,0.0013804399379275,6.3380570237674e-12,-7.1117375060068e-12,2.0992299876119e-14,-8.5483259133347e-13,-0.0014046329396406,0.0014046329436645,-0.0014046329442976,0.0014046329390994,-0.001404632940554,0.0014046329439244,-0.0014046329449774,0.0014046329395721,-0.0013537907527629,0.0013537907657633,-0.0013537907667093,0.0013537907518402,-7.1686286503743e-13,2.089169118494e-13,3.1409499284887e-13,2.1053459772432e-13,-0.001380439938435,0.0013804399382504,-0.0014046329418727,0.0014046329418958,-0.0014046329418711,0.0014046329421408,-0.0014046329415213,0.0014046329424509,-0.0014046329415985,0.0014046329422495,-0.0013537907593464,0.0013537907589278,-0.0013537907579159,0.0013537907573896,-0.0013537907600368,0.0013537907566116,-0.0013537907590426,0.0013537907576906,-7.0296042504154e-12,6.932406572679e-12,-0.0013804399383631,0.0013804399382664,-1.0025193737213e-13,2.8154551662479e-14,-0.0014046329445423,0.0014046329396731,-0.0014046329443437,0.0014046329392856,-0.0014046329397501,0.0014046329444052,-0.0014046329395675,0.0014046329443133,-0.0013537907502122,0.0013537907644303,-0.0013537907646543,0.0013537907501977,0.76795500292729,0.92637529492767,1368840,32768,0.0057353077872468,0.0057353077873193,0.0057353077872036,23.36473563519,23.370138109392,0.00010211788508152,0.00010211788508152,0.00010211788508152,250213.75164475,0.017354993002329
28425600,0.99996865018037,0.016914535956311,0.0056381786521056,0.0056381786521648,0.0056381786520406,-0.0013806542728769,0.0013806542720255,6.291355097538e-12,-7.1428883778984e-12,1.3344533510132e-14,-8.7706979435512e-13,-0.0014048184927627,0.0014048184967478,-0.0014048184973627,0.0014048184921783,-0.0014048184936898,0.001404818496959,-0.0014048184980501,0.0014048184926183,-0.0013540284278641,0.00135402844086,-0.0013540284419604,0.0013540284267751,-7.1105448365596e-13,2.2972380562484e-13,3.182021909062e-13,2.0463801315505e-13,-0.0013806542725653,0.0013806542723793,-0.0014048184949596,0.0014048184949836,-0.0014048184949415,0.0014048184951776,-0.0014048184945452,0.0014048184955618,-0.0014048184945872,0.0014048184953388,-0.0013540284341933,0.0013540284342634,-0.0013540284328881,0.0013540284323911,-0.0013540284349984,0.0013540284320728,-0.001354028433778,0.0013540284326647,-7.0113339262084e-12,6.9353443652844e-12,-0.0013806542724837,0.0013806542723948,-1.0043572587516e-13,3.813754080666e-14,-0.001404818497599,0.0014048184927868,-0.0014048184974486,0.0014048184923039,-0.0014048184928377,0.0014048184974143,-0.0014048184926762,0.0014048184973505,-0.0013540284253075,0.0013540284396086,-0.0013540284398394,0.0013540284253076,0.7713310034914,0.94753126012557,1368840,32768,0.0057361957491054,0.0057361957491929,0.0057361957490561,23.446975756605,23.452379713412,0.00010277580605284,0.00010277580605284,0.00010277580605284,248109.40677973,0.017357703080185
28512000,0.9999694705182,0.016914549897681,0.0056381832992289,0.0056381832992882,0.0056381832991639,-0.001380867724773,0.0013808677240529,6.3589099749593e-12,-7.0864972770784e-12,5.6823675840414e-14,-8.1551990995596e-13,-0.0014050036552932,0.0014050036594477,-0.0014050036599327,0.0014050036548365,-0.0014050036562251,0.0014050036596615,-0.0014050036606337,0.0014050036552575,-0.0013542646029155,0.0013542646157828,-0.0013542646167674,0.0013542646017651,-6.6679501222302e-13,2.5607305949675e-13,3.6960085600638e-13,2.6410575527988e-13,-0.0013808677244893,0.0013808677243829,-0.0014050036575739,0.001405003657671,-0.0014050036576259,0.0014050036578834,-0.0014050036571455,0.0014050036582003,-0.0014050036573115,0.0014050036579967,-0.001354264609161,0.0013542646090031,-0.0013542646079158,0.0013542646074264,-0.0013542646099079,0.0013542646069447,-0.0013542646088968,0.0013542646075808,-7.0235273184145e-12,6.9341161381e-12,-0.0013808677244527,0.0013808677243429,-1.1355032523316e-13,1.6569464402472e-14,-0.0014050036602866,0.0014050036552867,-0.0014050036601122,0.0014050036549608,-0.0014050036554556,0.0014050036600258,-0.0014050036552893,0.0014050036599684,-0.0013542646005276,0.0013542646146007,-0.0013542646147293,0.0013542646003591,0.77480855588606,0.96868722532347,1368840,32768,0.0057370800542682,0.0057370800543639,0.0057370800542054,23.529214952909,23.534621317433,0.00010343371962327,0.00010343371962327,0.00010343371962327,246024.97884268,0.017360402009332
28598400,0.99997027332412,0.016914563574022,0.0056381878580092,0.0056381878580684,0.0056381878579442,-0.0013810802005159,0.0013810801996838,6.3098731788821e-12,-7.149418060774e-12,-1.1944517456132e-14,-8.6906115666056e-13,-0.0014051883911698,0.001405188395205,-0.0014051883957796,0.0014051883905341,-0.0014051883921368,0.0014051883954903,-0.0014051883965215,0.0014051883910226,-0.0013544991624819,0.0013544991753867,-0.0013544991762397,0.0013544991612039,-7.0118504986627e-13,2.0628011004894e-13,3.3519878931884e-13,2.2610126923201e-13,-0.0013810802002017,0.0013810802000173,-0.0014051883934208,0.001405188393412,-0.0014051883934706,0.0014051883936288,-0.00140518839301,0.0014051883939899,-0.0014051883930421,0.0014051883938066,-0.0013544991688968,0.0013544991685506,-0.001354499167323,0.0013544991668496,-0.0013544991695557,0.0013544991661532,-0.0013544991685419,0.0013544991672561,-7.0071318192857e-12,6.9647164679868e-12,-0.0013810802001226,0.0013810802000456,-9.6701898764548e-14,3.7333300669762e-14,-0.001405188396027,0.0014051883911233,-0.0014051883958799,0.0014051883907176,-0.0014051883912694,0.0014051883958692,-0.0014051883911462,0.0014051883958336,-0.0013544991599019,0.0013544991742027,-0.0013544991742025,0.0013544991599325,0.77665751204088,0.9587823118705,1368840,32768,0.0057379603133386,0.0057379603133785,0.0057379603132734,23.611454802765,23.616862921454,0.00010409163842212,0.00010409163842212,0.00010409163842212,243966.15150154,0.017363088599436
28684800,0.99997105886625,0.016914576943491,0.0056381923144989,0.0056381923145581,0.0056381923144339,-0.0013812251166632,0.0013812251158504,6.3096931255591e-12,-7.1365852763362e-12,1.2874077294011e-14,-8.5609255284251e-13,-0.0014053376662268,0.0014053376703097,-0.0014053376708309,0.001405337665726,-0.0014053376671985,0.0014053376704796,-0.0014053376715335,0.001405337666133,-0.0013546359481952,0.0013546359610543,-0.0013546359620518,0.0013546359470756,-6.7147525159786e-13,2.4753137926275e-13,3.9943406226946e-13,2.3852280152744e-13,-0.0013812251163239,0.0013812251162239,-0.0014053376684748,0.0014053376685461,-0.0014053376684926,0.0014053376687703,-0.0014053376680432,0.0014053376691315,-0.0014053376681045,0.001405337668936,-0.0013546359544206,0.0013546359544659,-0.0013546359532138,0.0013546359527779,-0.0013546359553825,0.0013546359520811,-0.0013546359543244,0.0013546359530083,-7.006157378466e-12,6.9524155202429e-12,-0.0013812251162859,0.0013812251161993,-1.3095796991215e-13,5.4562186103844e-14,-0.0014053376711129,0.0014053376662134,-0.0014053376710373,0.0014053376658714,-0.0014053376663502,0.0014053376709847,-0.0014053376661301,0.0014053376709306,-0.0013546359457917,0.0013546359598646,-0.0013546359601057,0.0013546359457125,0.77589798326819,0.91361234623909,1368840,32768,0.0057385606227242,0.005738560622795,0.0057385606226654,23.693695696846,23.699104525474,0.00010474956557477,0.00010474956557477,0.00010474956557477,243737.5676397,0.017364920981608
28771200,0.99997182741109,0.016914589994558,0.0056381966648547,0.005638196664914,0.0056381966647897,-0.0013812889825182,0.0013812889817485,6.3481257749974e-12,-7.1062419680093e-12,6.330277202612e-14,-8.3140507173399e-13,-0.0014054465683685,0.0014054465724737,-0.0014054465728866,0.0014054465677468,-0.0014054465692833,0.0014054465726904,-0.0014054465737033,0.001405446568242,-0.0013546546238744,0.0013546546364889,-0.0013546546376474,0.0013546546225432,-6.990057635008e-13,2.461678915046e-13,3.6529825215385e-13,2.3033028709725e-13,-0.0013812889822159,0.0013812889820952,-0.0014054465705919,0.001405446570543,-0.0014054465705511,0.0014054465709339,-0.0014054465702275,0.0014054465712915,-0.0014054465703147,0.0014054465710222,-0.0013546546302946,0.0013546546298271,-0.0013546546289646,0.0013546546283707,-0.0013546546308043,0.0013546546276578,-0.0013546546300509,0.0013546546286381,-7.0106854166081e-12,6.9558222691102e-12,-0.0013812889821596,0.0013812889820805,-1.0767623997655e-13,5.1771124310042e-14,-0.0014054465731866,0.0014054465683667,-0.0014054465730446,0.0014054465679887,-0.0014054465685409,0.0014054465730124,-0.001405446568264,0.0014054465729879,-0.0013546546213047,0.0013546546354016,-0.0013546546353776,0.0013546546211342,0.77417287570617,0.86844238060769,1368840,32768,0.0057388250978857,0.0057388250979775,0.0057388250978309,23.775936885743,23.781346129494,0.00010540749508594,0.00010540749508594,0.00010540749508594,245817.33829578,0.017365728573937
28857600,0.99997258035887,0.016914602823687,0.0056382009412309,0.0056382009412901,0.0056382009411659,-0.0013813940143285,0.0013813940134695,6.3057875389897e-12,-7.1598758589425e-12,1.9631988491522e-14,-8.8834097943992e-13,-0.0014056022580476,0.0014056022620878,-0.0014056022626305,0.001405602257432,-0.0014056022590084,0.0014056022622087,-0.0014056022633512,0.0014056022578847,-0.0013547103758349,0.0013547103884974,-0.0013547103895557,0.0013547103745377,-6.9660148400871e-13,2.6186258851296e-13,3.8932687103722e-13,2.3711055055309e-13,-0.0013813940139638,0.0013813940138646,-0.0014056022601629,0.001405602260283,-0.0014056022602311,0.0014056022605267,-0.001405602259877,0.0014056022609053,-0.0014056022599078,0.0014056022607268,-0.001354710382116,0.0013547103819377,-0.0013547103807487,0.0013547103804668,-0.0013547103828928,0.0013547103796368,-0.0013547103818782,0.001354710380602,-7.0203852379323e-12,6.9576408900232e-12,-0.0013813940139468,0.001381394013845,-1.2941010543364e-13,4.7309437082113e-14,-0.0014056022628629,0.0014056022580524,-0.0014056022627485,0.0014056022576061,-0.0014056022581337,0.0014056022626955,-0.0014056022579584,0.0014056022626986,-0.0013547103732903,0.0013547103874018,-0.0013547103875226,0.0013547103732074,0.77679404009746,0.90021254758509,1368840,32768,0.0057392601341749,0.0057392601342377,0.0057392601341621,23.883510322957,23.890533391068,0.00010626808258366,0.00010626808258366,0.00010626808258366,248243.69903248,0.017367056674264
28944000,0.99997331913643,0.016914615267795,0.005638205089267,0.0056382050893262,0.0056382050892019,-0.0013817274334077,0.0013817274325834,6.3029640958322e-12,-7.1443793323508e-12,3.4459711985335e-14,-8.952512977462e-13,-0.0014059030315111,0.0014059030355889,-0.0014059030362008,0.0014059030309779,-0.0014059030325247,0.0014059030358144,-0.0014059030368635,0.0014059030314423,-0.0013550721438273,0.0013550721564698,-0.0013550721575955,0.0013550721426032,-7.3339883046327e-13,2.4639353167027e-13,3.765353500447e-13,2.0461116103419e-13,-0.0013817274330909,0.0013817274329371,-0.0014059030337609,0.001405903033791,-0.0014059030338313,0.0014059030339975,-0.0014059030334034,0.0014059030343765,-0.0014059030334618,0.0014059030341342,-0.0013550721501529,0.0013550721499215,-0.0013550721487836,0.0013550721483445,-0.0013550721509066,0.0013550721476814,-0.0013550721498738,0.0013550721486156,-7.0335417183638e-12,6.926018326659e-12,-0.0013817274330396,0.0013817274329316,-1.4548090859928e-13,5.1175730734201e-14,-0.0014059030363964,0.0014059030315349,-0.0014059030363503,0.0014059030311633,-0.0014059030316827,0.0014059030362173,-0.0014059030314734,0.0014059030362163,-0.0013550721414606,0.0013550721554243,-0.0013550721555595,0.0013550721413152,0.76796940181663,0.76205462782228,1368840,32768,0.0057406414927355,0.0057406414928119,0.0057406414926944,24.019404197488,24.0282795395,0.0001073552335799,0.0001073552335799,0.0001073552335799,245906.28193655,0.017371272504889
29030400,0.99997404391465,0.016914627332745,0.005638209110917,0.0056382091109762,0.005638209110852,-0.0013816605619149,0.0013816605611822,6.3616221862208e-12,-7.106437491448e-12,1.2055337600064e-13,-8.548304737511e-13,-0.0014059988640173,0.0014059988682723,-0.0014059988686739,0.0014059988634906,-0.0014059988648468,0.0014059988683644,-0.0014059988694476,0.0014059988639255,-0.0013548544712539,0.0013548544839542,-0.0013548544853139,0.0013548544702273,-8.7766965838263e-13,1.4803541879604e-13,3.2516115478521e-13,1.0989499572449e-13,-0.0013816605616866,0.0013816605614281,-0.0014059988663034,0.0014059988664677,-0.0014059988662444,0.0014059988665456,-0.0014059988659696,0.001405998867013,-0.0014059988660274,0.0014059988668881,-0.0013548544785476,0.0013548544776869,-0.0013548544769848,0.0013548544761264,-0.00135485447892,0.0013548544747894,-0.0013548544779217,0.0013548544759446,-6.9773306708668e-12,7.0028214215537e-12,-0.0013816605615788,0.001381660561543,-1.0541142681209e-13,1.3412457905676e-13,-0.0014059988689041,0.0014059988639264,-0.0014059988686904,0.0014059988637344,-0.0014059988642407,0.001405998868692,-0.001405998863995,0.0014059988685895,-0.0013548544693274,0.0013548544832551,-0.0013548544832289,0.0013548544689878,0.75893556273843,0.64315694384155,1368840,32768,0.0057403641981644,0.0057403641982008,0.0057403641982158,24.156980857997,24.166025687932,0.00010845584686398,0.00010845584686398,0.00010845584686398,254906.44309543,0.017370427085401
29116800,0.9999747547967,0.016914639072601,0.0056382130242022,0.0056382130242614,0.0056382130241371,-0.0013816038111487,0.0013816038102641,6.292103015866e-12,-7.1593762859688e-12,8.4398715794813e-14,-9.6264353307732e-13,-0.0014061077559532,0.0014061077598116,-0.0014061077605664,0.0014061077553329,-0.0014061077568558,0.001406107760022,-0.001406107761214,0.0014061077557804,-0.0013546464587745,0.0013546464715892,-0.001354646472522,0.0013546464570776,-7.0928124370958e-13,3.8820896401204e-13,4.6494823732697e-13,2.8574068258299e-13,-0.0013816038107246,0.001381603810743,-0.0014061077582572,0.0014061077581766,-0.0014061077582025,0.0014061077583713,-0.0014061077575179,0.0014061077588841,-0.0014061077577047,0.0014061077584768,-0.0013546464648637,0.001354646464734,-0.0013546464631858,0.0013546464631205,-0.0013546464658438,0.0013546464625396,-0.0013546464645669,0.0013546464633188,-7.0895900061271e-12,6.8741845866148e-12,-0.0013816038108089,0.0013816038106176,-1.9332677047045e-13,1.0492914742775e-14,-0.0014061077607933,0.0014061077560105,-0.0014061077607427,0.0014061077555307,-0.0014061077561875,0.0014061077606342,-0.0014061077557725,0.0014061077604618,-0.0013546464561388,0.0013546464705608,-0.001354646470002,0.0013546464559061,0.75302572875136,0.57925683324609,1368840,32768,0.005740128882543,0.0057401288826566,0.0057401288825715,24.294708249106,24.303771836363,0.00010955766599285,0.00010955766599285,0.00010955766599285,263979.26737582,0.01736970962475
29203200,0.99997545188305,0.016914650587604,0.0056382168625364,0.0056382168625957,0.0056382168624714,-0.0013816757921813,0.0013816757913429,6.3471031003571e-12,-7.1367795056967e-12,5.9404773460242e-14,-1.0103447817193e-12,-0.0014062826093951,0.0014062826135291,-0.0014062826138684,0.0014062826088373,-0.0014062826101903,0.0014062826133372,-0.001406282614645,0.0014062826093065,-0.001354625876748,0.0013546258900193,-0.0013546258910408,0.0013546258756815,-8.1342879736742e-13,3.0639993380999e-13,3.3393397501687e-13,1.2503041570074e-13,-0.0013816757918673,0.0013816757917001,-0.0014062826114742,0.0014062826115397,-0.0014062826117668,0.0014062826117353,-0.0014062826110686,0.0014062826123267,-0.0014062826113287,0.0014062826119348,-0.0013546258831289,0.0013546258825575,-0.0013546258822426,0.0013546258812312,-0.0013546258837972,0.0013546258803434,-0.0013546258832107,0.0013546258816236,-7.0869999087822e-12,6.9088919380937e-12,-0.001381675791806,0.0013816757916659,-1.8505167032791e-13,4.863539657496e-14,-0.0014062826141861,0.0014062826092189,-0.0014062826138972,0.0014062826086649,-0.0014062826093553,0.0014062826138964,-0.0014062826092781,0.0014062826138331,-0.0013546258738031,0.0013546258882787,-0.001354625888352,0.0013546258739021,0.7533174124857,0.60854115325236,1368840,32768,0.005740426991896,0.0057404269919855,0.0057404269917877,24.432449110455,24.441517984795,0.00011065959288364,0.00011065959288364,0.00011065959288364,269491.07081338,0.01737061983453
29289600,0.99997613527707,0.016914661755546,0.005638220585184,0.0056382205852432,0.005638220585119,-0.0013820129172456,0.0013820129163911,6.3717613470646e-12,-7.1638819130309e-12,1.1023510298151e-13,-1.0391978414546e-12,-0.0014065908528767,0.0014065908569207,-0.0014065908575017,0.0014065908524206,-0.0014065908539154,0.0014065908569781,-0.0014065908582444,0.0014065908526882,-0.0013549925483507,0.0013549925625488,-0.0013549925636507,0.0013549925480336,-8.7162116668931e-13,3.2804280204699e-13,3.1278688575182e-13,1.516490436964e-13,-0.0013820129169404,0.0013820129167444,-0.0014065908551874,0.0014065908551929,-0.0014065908553852,0.0014065908555811,-0.0014065908545013,0.0014065908558684,-0.0014065908547962,0.0014065908556186,-0.0013549925560748,0.0013549925555883,-0.0013549925543609,0.0013549925538281,-0.0013549925565493,0.0013549925529097,-0.0013549925554173,0.0013549925541825,-7.1950556077548e-12,6.8530878781636e-12,-0.0013820129169351,0.0013820129166522,-1.9479175512794e-13,-8.4427126691585e-15,-0.0014065908578683,0.0014065908528726,-0.0014065908577515,0.0014065908524361,-0.0014065908531666,0.0014065908574928,-0.0014065908529624,0.0014065908572798,-0.0013549925462632,0.0013549925608115,-0.0013549925618426,0.0013549925460307,0.74531810353553,0.51172604602814,1368840,32768,0.0057418237364417,0.0057418237365413,0.0057418237363395,24.570192134033,24.579264133228,0.00011176153707226,0.00011176153707226,0.00011176153707226,267376.4829958,0.017374882529321
29376000,0.9999768050854,0.016914672626638,0.0056382242088811,0.0056382242089403,0.0056382242088161,-0.00138198300397,0.0013819830029387,6.3074410178888e-12,-7.2870750319186e-12,4.6650045461368e-14,-1.1449364347425e-12,-0.001406709914533,0.0014067099186545,-0.0014067099194133,0.0014067099140979,-0.0014067099158089,0.0014067099188517,-0.0014067099202199,0.0014067099143554,-0.0013548279185592,0.0013548279318217,-0.0013548279327363,0.0013548279179819,-8.1809789002396e-13,4.2384058137294e-13,3.4594863738895e-13,1.8769985413359e-13,-0.0013819830035588,0.0013819830034109,-0.0014067099167782,0.0014067099168051,-0.0014067099172616,0.0014067099170341,-0.0014067099166934,0.0014067099176789,-0.0014067099165639,0.001406709917296,-0.0013548279254578,0.0013548279251926,-0.0013548279242795,0.0013548279238267,-0.0013548279265558,0.0013548279229509,-0.0013548279254896,0.0013548279242465,-7.143528240704e-12,6.9625230055838e-12,-0.0013819830035234,0.0013819830033795,-1.1522439173863e-13,6.8205534014813e-14,-0.0014067099196809,0.0014067099145312,-0.0014067099193609,0.0014067099143443,-0.0014067099148757,0.001406709919264,-0.0014067099146326,0.0014067099194124,-0.0013548279167685,0.0013548279306306,-0.0013548279316247,0.0013548279170267,0.74020403249154,0.4603940011284,1368840,32768,0.0057416996332276,0.0057416996333541,0.0057416996332158,24.707934718478,24.71701028166,0.00011286347774782,0.00011286347774782,0.00011286347774782,275786.47811149,0.017374504374279
29462400,0.99997746141799,0.016914683121956,0.0056382277073207,0.0056382277073799,0.0056382277072557,-0.001382075778278,0.0013820757773844,6.3301982050253e-12,-7.2036818148183e-12,1.6199034542379e-13,-1.0559550942379e-12,-0.0014068945110018,0.0014068945150284,-0.0014068945155426,0.001406894510003,-0.0014068945119785,0.0014068945151976,-0.001406894516289,0.0014068945106579,-0.0013548395162728,0.0013548395284425,-0.0013548395303319,0.0013548395155869,-8.6993560053514e-13,3.9931562471118e-13,3.7283925707545e-13,2.0230808433278e-13,-0.0013820757779265,0.001382075777785,-0.0014068945130998,0.0014068945128441,-0.0014068945131807,0.0014068945133477,-0.0014068945127215,0.0014068945138535,-0.0014068945126659,0.0014068945136145,-0.0013548395230439,0.0013548395223623,-0.0013548395215406,0.0013548395205411,-0.0013548395238437,0.0013548395201565,-0.0013548395221841,0.0013548395206852,-7.0595436887273e-12,6.9858593220871e-12,-0.001382075777839,0.0013820757778275,-1.0134602159567e-13,9.3860279691707e-14,-0.0014068945155008,0.0014068945109396,-0.0014068945155004,0.0014068945103625,-0.0014068945109278,0.0014068945154634,-0.0014068945105028,0.0014068945155396,-0.001354839514071,0.0013548395274435,-0.0013548395282056,0.001354839513753,0.72939130232821,0.32867198137889,1368840,32768,0.0057420838995252,0.0057420838996268,0.0057420838995336,24.845676673088,24.854756430093,0.00011396541338471,0.00011396541338471,0.00011396541338471,280749.60538871,0.017375677493539
29548800,0.99997810438799,0.016914693360383,0.0056382311201296,0.0056382311201888,0.0056382311200646,-0.0013818797068427,0.0013818797059827,6.32099507441e-12,-7.1629905284974e-12,1.7960745429203e-13,-1.0647811187265e-12,-0.0014069333988083,0.0014069334027997,-0.0014069334033651,0.0014069333982031,-0.0014069333998709,0.0014069334029632,-0.0014069334040197,0.0014069333985001,-0.0013544302939597,0.0013544303066973,-0.0013544303081563,0.0013544302926768,-8.5511796496844e-13,4.3846107590334e-13,3.7822935711747e-13,2.0367263088211e-13,-0.0013818797064815,0.0013818797063922,-0.0014069334008507,0.0014069334010401,-0.0014069334010391,0.0014069334012046,-0.0014069334005016,0.0014069334018185,-0.0014069334004893,0.0014069334013867,-0.0013544303000767,0.0013544303001122,-0.0013544302992173,0.0013544302990945,-0.0013544303020327,0.0013544302981585,-0.0013544302996279,0.0013544302991078,-7.0792274991651e-12,6.9169178987885e-12,-0.0013818797064537,0.0013818797063442,-1.5366215866771e-13,4.485627673036e-14,-0.0014069334036027,0.0014069333987894,-0.0014069334036653,0.0014069333983336,-0.0014069333987957,0.0014069334033161,-0.001406933398779,0.0014069334034861,-0.0013544302919844,0.0013544303057791,-0.0013544303060938,0.0013544302915014,0.72638015437419,0.31012996753391,1368840,32768,0.0057412713422889,0.0057412713423887,0.0057412713422319,24.98341908284,24.992502578523,0.00011506735266272,0.00011506735266272,0.00011506735266272,294270.42081946,0.017373198410171
29635200,0.99997873359193,0.016914703434945,0.0056382344783171,0.0056382344783763,0.0056382344782521,-0.0013820359335506,0.0013820359326127,6.2759159221354e-12,-7.2139352074665e-12,1.3726804184966e-13,-1.1056392823024e-12,-0.0014071400448045,0.0014071400488515,-0.0014071400494153,0.0014071400442266,-0.0014071400458488,0.0014071400489627,-0.0014071400502439,0.0014071400445464,-0.0013545445943496,0.0013545446069387,-0.0013545446081906,0.0013545445928802,-8.2156440177147e-13,4.7192070079359e-13,3.7483301969678e-13,3.0496809519874e-13,-0.0013820359331204,0.0013820359330778,-0.00140714004704,0.0014071400470705,-0.0014071400470702,0.0014071400472957,-0.0014071400465479,0.0014071400477696,-0.0014071400465955,0.0014071400475669,-0.0013545446004808,0.001354544600349,-0.0013545445990869,0.001354544598914,-0.001354544601323,0.0013545445980832,-0.0013545446000732,0.001354544599114,-7.0600513791001e-12,6.9417626692096e-12,-0.0013820359331354,0.0013820359330022,-1.0907075619856e-13,-1.3994984227544e-14,-0.001407140049674,0.0014071400447831,-0.0014071400495997,0.0014071400443685,-0.0014071400449125,0.0014071400494963,-0.0014071400447541,0.001407140049447,-0.0013545445916951,0.0013545446057875,-0.0013545446059473,0.0013545445915589,0.73052675526421,0.39400691979345,1368840,32768,0.0057419185496929,0.0057419185497651,0.0057419185496397,25.107154419637,25.115347663448,0.0001160572353571,0.0001160572353571,0.0001160572353571,296692.55359453,0.017375173820195
29721600,0.99997934866448,0.016914713341995,0.005638237780667,0.0056382377807262,0.005638237780602,-0.0013825320094202,0.0013825320084996,6.2719367495787e-12,-7.1861030577196e-12,1.293598128524e-13,-1.0787747500542e-12,-0.0014074956890302,0.0014074956930635,-0.0014074956936296,0.001407495688454,-0.0014074956900562,0.0014074956931885,-0.0014074956944436,0.0014074956887803,-0.0013551744337369,0.0013551744463202,-0.0013551744475652,0.0013551744323263,-8.2819302280106e-13,4.3035949987151e-13,3.8831631367376e-13,2.7697168576394e-13,-0.0013825320090045,0.0013825320089476,-0.0014074956912221,0.0014074956912896,-0.0014074956912876,0.0014074956914996,-0.0014074956907509,0.0014074956919764,-0.0014074956908232,0.0014074956917655,-0.0013551744398698,0.0013551744397874,-0.001355174438509,0.0013551744382513,-0.0013551744408631,0.0013551744374033,-0.0013551744395688,0.0013551744384909,-7.0304816941984e-12,6.9393642718907e-12,-0.0013825320090009,0.0013825320088928,-1.0898567056257e-13,2.7234815053918e-14,-0.0014074956938758,0.0014074956889909,-0.0014074956937789,0.0014074956885996,-0.0014074956891357,0.0014074956936968,-0.0014074956889442,0.0014074956936639,-0.0013551744311536,0.0013551744452156,-0.0013551744453699,0.0013551744310392,0.73490041842848,0.47788387205298,1368840,32768,0.0057439739204843,0.0057439739205511,0.0057439739204301,25.216462852723,25.223709057216,0.00011693170282178,0.00011693170282178,0.00011693170282178,288113.32362711,0.017381446311367
29808000,0.9999799497739,0.016914723085078,0.0056382410283613,0.0056382410284205,0.0056382410282963,-0.0013830104500518,0.0013830104491768,6.2941040723822e-12,-7.1604397828915e-12,1.1470626050836e-13,-1.0409122008468e-12,-0.001407842649885,0.0014078426537671,-0.0014078426542803,0.0014078426491054,-0.0014078426508146,0.0014078426537243,-0.0014078426552143,0.0014078426495032,-0.0013557782488231,0.001355778261058,-0.0013557782624496,0.0013557782472299,-8.2307970842107e-13,3.8277277714264e-13,3.8102333058703e-13,2.1906286660333e-13,-0.0013830104497028,0.0013830104495964,-0.001407842651956,0.0014078426520414,-0.0014078426519895,0.0014078426522332,-0.0014078426516876,0.0014078426525233,-0.0014078426516434,0.0014078426524791,-0.0013557782545019,0.0013557782548251,-0.0013557782535664,0.0013557782530825,-0.0013557782556726,0.0013557782523066,-0.0013557782545793,0.0013557782532295,-6.9965281432208e-12,6.9702985915744e-12,-0.0013830104496153,0.0013830104495811,-9.8942036212239e-14,8.7675468633439e-14,-0.0014078426545677,0.0014078426497494,-0.0014078426544733,0.0014078426493882,-0.0014078426499618,0.0014078426544436,-0.0014078426496745,0.0014078426545406,-0.0013557782461165,0.0013557782600624,-0.0013557782599876,0.0013557782459201,0.73942731381542,0.56176082431253,1368840,32768,0.0057459562147216,0.0057459562148676,0.005745956214655,25.324908836714,25.332070450982,0.00011779927069371,0.00011779927069371,0.00011779927069371,280061.74660502,0.017387495845912
29894400,0.99998053711894,0.016914732666182,0.0056382442220627,0.0056382442221219,0.0056382442219977,-0.0013834730735353,0.0013834730726092,6.2328363558336e-12,-7.194210221816e-12,1.0840762939781e-13,-1.0258245441173e-12,-0.001408179560281,0.001408179564208,-0.0014081795648726,0.0014081795596173,-0.0014081795613088,0.001408179564371,-0.001408179565515,0.0014081795600669,-0.00135636030108,0.001356360313719,-0.0013563603149272,0.0013563602993783,-7.9909200005262e-13,3.8594426849105e-13,4.2653017567827e-13,3.1521384102176e-13,-0.0013834730731061,0.0013834730730836,-0.0014081795622511,0.0014081795624361,-0.0014081795624132,0.0014081795627175,-0.001408179561778,0.001408179563098,-0.0014081795619722,0.0014081795629169,-0.001356360306978,0.0013563603073701,-0.0013563603059004,0.0013563603054451,-0.0013563603085012,0.0013563603050568,-0.0013563603070073,0.001356360305787,-6.9780144735065e-12,6.9611347538763e-12,-0.0013834730731008,0.0013834730730355,-8.5620737286425e-14,5.0063441184472e-14,-0.0014081795649784,0.0014081795601904,-0.0014081795646886,0.0014081795597432,-0.0014081795602906,0.0014081795646891,-0.0014081795601697,0.0014081795647733,-0.0013563602983671,0.0013563603128426,-0.0013563603126103,0.0013563602982837,0.74408184274857,0.64563777657207,1368840,32768,0.0057478729640719,0.0057478729641655,0.0057478729640549,25.433276082216,25.44043184475,0.00011866620865773,0.00011866620865773,0.00011866620865773,272487.60702924,0.017393345399145
29980800,0.99998111090107,0.01691474212296,0.005638247374322,0.0056382473743812,0.005638247374257,-0.0013839208999482,0.0013839208990688,6.2799649749102e-12,-7.1666222410805e-12,9.8887802574922e-14,-9.9860361099221e-13,-0.0014085088292905,0.0014085088333507,-0.0014085088338722,0.0014085088287353,-0.0014085088303765,0.0014085088335988,-0.0014085088346798,0.0014085088291556,-0.001356920618012,0.0013569206304889,-0.0013569206317119,0.0013569206166914,-7.9436143868567e-13,3.5426700091571e-13,3.2619732901316e-13,2.4379452283291e-13,-0.0013839208995964,0.0013839208994385,-0.001408508831451,0.0014085088315744,-0.001408508831656,0.0014085088316825,-0.001408508831042,0.0014085088322685,-0.0014085088312696,0.0014085088319917,-0.0013569206242682,0.0013569206239339,-0.0013569206232262,0.0013569206228094,-0.0013569206254621,0.0013569206219109,-0.0013569206237304,0.0013569206229002,-7.010422718751e-12,6.9482605001171e-12,-0.001383920899544,0.0013839208994218,-1.2127817738787e-13,-1.4566643234342e-14,-0.001408508834117,0.0014085088290307,-0.0014085088340519,0.0014085088288003,-0.0014085088293282,0.0014085088339814,-0.001408508829211,0.0014085088338655,-0.0013569206158209,0.0013569206297181,-0.0013569206298645,0.0013569206156023,0.75169596631495,0.77423136867584,1368840,32768,0.0057497283976893,0.0057497283977265,0.0057497283975835,25.541634474817,25.548793238518,0.00011953307579853,0.00011953307579853,0.00011953307579853,265384.22435014,0.01739900787375
30067200,0.99998167132217,0.0169147513123,0.0056382504374352,0.0056382504374944,0.0056382504373702,-0.0013844686730084,0.0013844686721596,6.2680700441745e-12,-7.1414095407229e-12,1.3692999335328e-13,-9.984226753432e-13,-0.0014088894676418,0.0014088894718559,-0.0014088894722432,0.0014088894671223,-0.0014088894685762,0.0014088894716708,-0.0014088894730894,0.0014088894675155,-0.0013576254991011,0.0013576255112035,-0.0013576255126781,0.001357625497198,-8.1430850578705e-13,3.7096790247934e-13,3.2173670057641e-13,2.8402597026039e-13,-0.0013844686726407,0.0013844686725507,-0.0014088894699577,0.0014088894699659,-0.0014088894699833,0.0014088894703156,-0.0014088894693164,0.001408889470535,-0.0014088894695242,0.0014088894704343,-0.0013576255056049,0.0013576255045795,-0.0013576255034375,0.0013576255032872,-0.0013576255059148,0.0013576255024354,-0.0013576255047357,0.0013576255032895,-6.9524954883881e-12,6.9692164775734e-12,-0.0013844686725889,0.0013844686725449,-5.292829484163e-14,9.6250883131001e-15,-0.0014088894724272,0.001408889467572,-0.0014088894723179,0.0014088894673078,-0.0014088894677201,0.0014088894724632,-0.0014088894676247,0.0014088894725046,-0.0013576254962375,0.0013576255104266,-0.0013576255098309,0.0013576254958056,0.74778157734136,0.70027482735306,1368840,32768,0.0057519979629098,0.0057519979629582,0.005751997962839,25.649994367958,25.657154632284,0.00012039995494366,0.00012039995494366,0.00012039995494366,255506.86704106,0.017405934116912
30153600,0.99998221858403,0.016914760156443,0.0056382533854829,0.0056382533855421,0.0056382533854179,-0.0013844958495452,0.001384495848703,6.2712708287456e-12,-7.125431146499e-12,1.3296511447761e-13,-9.8874197108207e-13,-0.0014090022504729,0.0014090022545252,-0.0014090022550468,0.0014090022499496,-0.0014090022514772,0.0014090022546846,-0.0014090022557984,0.001409002250312,-0.0013575723938881,0.0013575724064208,-0.0013575724075426,0.0013575723923992,-7.8057665391903e-13,3.9145051204379e-13,3.5249631971469e-13,3.084573709567e-13,-0.001384495849174,0.0013844958491072,-0.0014090022527318,0.0014090022526955,-0.0014090022527437,0.0014090022529356,-0.0014090022522472,0.0014090022533712,-0.0014090022523256,0.0014090022531765,-0.0013575724000599,0.0013575723997613,-0.0013575723985989,0.0013575723983371,-0.0013575724008891,0.0013575723976736,-0.0013575723997288,0.0013575723985776,-6.9942782119546e-12,6.9144276513344e-12,-0.0013844958491694,0.0013844958490487,-8.4269690324688e-14,-1.517288941982e-14,-0.0014090022553263,0.0014090022504043,-0.0014090022552766,0.0014090022500275,-0.0014090022505787,0.0014090022551369,-0.0014090022504586,0.0014090022550542,-0.0013575723912832,0.0013575724052981,-0.0013575724053258,0.0013575723911554,0.73690064176533,0.53603222639823,1368840,32768,0.0057521103792242,0.0057521103792926,0.0057521103791621,25.758354267384,25.765516026052,0.00012126683413907,0.00012126683413907,0.00012126683413907,260192.33502004,0.017406277827493
30240000,0.99998275288828,0.016914768747132,0.0056382562490459,0.0056382562491052,0.0056382562489809,-0.0013842452179925,0.0013842452170775,6.227564869815e-12,-7.153555463791e-12,9.2011365586529e-14,-1.0413177178703e-12,-0.0014089770723191,0.0014089770762831,-0.0014089770768758,0.0014089770716974,-0.0014089770733567,0.0014089770764563,-0.0014089770776971,0.0014089770720771,-0.0013571143468745,0.0013571143593078,-0.0013571143604324,0.0013571143452494,-8.0441736677809e-13,3.7985057229634e-13,3.3185824431137e-13,2.7595492270771e-13,-0.0013842452176023,0.0013842452174856,-0.001408977074545,0.0014089770744798,-0.0014089770745157,0.0014089770747183,-0.0014089770740491,0.0014089770751568,-0.0014089770741361,0.0014089770749668,-0.0013571143527847,0.0013571143525233,-0.0013571143514986,0.0013571143512949,-0.0013571143538587,0.0013571143502403,-0.0013571143526191,0.0013571143513947,-6.9953689433394e-12,6.8974704340717e-12,-0.0013842452175702,0.0013842452174605,-8.6990989543806e-14,-5.9029961381082e-15,-0.0014089770770713,0.0014089770722544,-0.0014089770770247,0.0014089770718653,-0.0014089770723311,0.0014089770769257,-0.0014089770722225,0.001408977076833,-0.0013571143441693,0.0013571143582532,-0.0013571143582587,0.0013571143441379,0.73319467420378,0.49251518427336,1368840,32768,0.0057510717244215,0.0057510717244586,0.0057510717243402,25.866713436754,25.873877419819,0.00012213370749403,0.00012213370749403,0.00012213370749403,273085.09006425,0.017403108842142
30326400,0.99998327443638,0.016914777087345,0.0056382590291169,0.0056382590291761,0.0056382590290519,-0.0013843175742406,0.0013843175733706,6.2483174123097e-12,-7.1389088524114e-12,8.8365594609388e-14,-1.030089060898e-12,-0.0014091215456994,0.0014091215497563,-0.0014091215503847,0.0014091215453491,-0.0014091215467902,0.0014091215498695,-0.0014091215508687,0.0014091215455057,-0.0013571224286695,0.0013571224411188,-0.0013571224425329,0.0013571224274875,-7.7956683182723e-13,3.8845313302343e-13,3.4966502385589e-13,3.1745162560016e-13,-0.0013843175738202,0.001384317573773,-0.0014091215476675,0.0014091215481149,-0.0014091215477136,0.0014091215481909,-0.0014091215475851,0.0014091215486954,-0.0014091215474753,0.0014091215483695,-0.0013571224349662,0.0013571224347408,-0.0013571224335428,0.0013571224335782,-0.0013571224357471,0.0013571224324861,-0.0013571224346087,0.0013571224334801,-7.0433388896552e-12,6.8550066136652e-12,-0.0013843175738844,0.0013843175737055,-1.0470312492082e-13,-4.759889882749e-14,-0.0014091215506561,0.0014091215456642,-0.001409121550496,0.001409121545124,-0.0014091215458803,0.0014091215502187,-0.001409121545706,0.0014091215502969,-0.0013571224266162,0.0013571224401719,-0.0013571224404738,0.0013571224260076,0.72936701989838,0.44899814214849,1368840,32768,0.0057513713992463,0.005751371399209,0.0057513713992023,25.975072518031,25.982238813586,0.00012300058014424,0.00012300058014424,0.00012300058014424,276898.43557678,0.017404023805597
30412800,0.99998378436321,0.016914785177643,0.0056382617258829,0.0056382617259422,0.0056382617258179,-0.0013844444680375,0.00138444446712,6.2216185808819e-12,-7.1648487658472e-12,8.5041990260867e-14,-1.0187194670549e-12,-0.0014093218515826,0.0014093218555865,-0.0014093218560767,0.0014093218510956,-0.0014093218526812,0.0014093218558463,-0.0014093218569709,0.0014093218513332,-0.0013571836819359,0.0013571836945353,-0.0013571836958096,0.0013571836804995,-8.0785876164584e-13,3.4648529746494e-13,3.0186513116863e-13,2.9814468600214e-13,-0.0013844444676654,0.0013844444675448,-0.0014093218537653,0.0014093218538657,-0.0014093218538257,0.0014093218539843,-0.001409321853364,0.0014093218544856,-0.001409321853325,0.0014093218543076,-0.0013571836885483,0.0013571836879647,-0.0013571836869148,0.0013571836865314,-0.0013571836892255,0.0013571836857458,-0.0013571836880905,0.0013571836864514,-7.0163803602786e-12,6.882125373441e-12,-0.001384444467634,0.0013844444675153,-7.3348435726225e-14,-4.4275059192039e-14,-0.0014093218563889,0.0014093218514273,-0.0014093218563283,0.0014093218510873,-0.0014093218516522,0.0014093218562472,-0.0014093218515218,0.0014093218561982,-0.0013571836797572,0.0013571836936659,-0.0013571836938649,0.0013571836794724,0.72368414353155,0.37972806822774,1368840,32768,0.0057518970115504,0.0057518970116596,0.0057518970115337,26.114783014652,26.123956663091,0.00012411826411722,0.00012411826411722,0.00012411826411722,280886.62757991,0.017405628367442
30499200,0.99998428366214,0.016914793175198,0.0056382643917346,0.0056382643917938,0.0056382643916696,-0.0013845349965068,0.0013845349956204,6.2339872030289e-12,-7.1327412761207e-12,9.2657639960937e-14,-9.8981593827311e-13,-0.0014095345854013,0.0014095345893936,-0.0014095345899636,0.001409534584822,-0.0014095345863893,0.0014095345895459,-0.0014095345907253,0.0014095345851859,-0.0013571641235738,0.0013571641360913,-0.0013571641373477,0.0013571641221626,-7.8141604004107e-13,3.5173549001634e-13,3.191125748593e-13,3.1796149237702e-13,-0.0013845349961278,0.0013845349960317,-0.0014095345876105,0.0014095345876246,-0.001409534587628,0.0014095345878715,-0.0014095345871697,0.0014095345882788,-0.0014095345871955,0.0014095345880944,-0.0013571641296216,0.0013571641294953,-0.0013571641283083,0.001357164128106,-0.0013571641305916,0.0013571641272775,-0.0013571641294261,0.0013571641281625,-7.0157116748241e-12,6.8631215128194e-12,-0.0013845349961293,0.001384534995971,-8.6361567595744e-14,-5.9831731005217e-14,-0.0014095345901957,0.0014095345853498,-0.0014095345901436,0.0014095345849337,-0.0014095345855,0.0014095345900221,-0.0014095345853536,0.0014095345899617,-0.0013571641210082,0.0013571641349319,-0.0013571641350873,0.0013571641207312,0.73065104510792,0.50541939280744,1368840,32768,0.0057522719121686,0.0057522719122356,0.0057522719121132,26.284256995454,26.295405071381,0.00012547405596363,0.00012547405596363,0.00012547405596363,287701.11739905,0.017406773133705
30585600,0.99998477244572,0.01691480102202,0.0056382670073419,0.0056382670074012,0.0056382670072769,-0.0013852662311392,0.0013852662302106,6.2228315438267e-12,-7.1481391586671e-12,6.013439822953e-14,-1.0299311833681e-12,-0.0014100703032902,0.0014100703073138,-0.0014100703078344,0.001410070302557,-0.0014100703041438,0.0014100703074836,-0.0014100703084936,0.0014100703030027,-0.0013580793201847,0.0013580793324275,-0.0013580793338257,0.0013580793186229,-8.2881670963021e-13,3.1231463547286e-13,3.0274657482936e-13,2.3784229290474e-13,-0.0013852662307691,0.0013852662306198,-0.0014100703053768,0.0014100703053816,-0.0014100703054672,0.0014100703057026,-0.001410070305003,0.0014100703061118,-0.0014100703050482,0.0014100703058978,-0.001358079326152,0.0013580793259154,-0.0013580793249248,0.001358079324578,-0.0013580793272755,0.0013580793239599,-0.0013580793261085,0.0013580793245549,-6.9910355463099e-12,6.892387383473e-12,-0.0013852662307275,0.0013852662305983,-9.9362758653575e-14,-9.6617342524154e-15,-0.0014100703080022,0.0014100703031879,-0.0014100703080131,0.0014100703027205,-0.0014100703032539,0.0014100703079425,-0.0014100703030717,0.0014100703078697,-0.001358079317548,0.0013580793314742,-0.0013580793315334,0.0013580793171657,0.73237077148377,0.54258644128894,1368840,32768,0.0057553015498411,0.0057553015499219,0.0057553015497915,26.455518564726,26.466853479671,0.00012684414851781,0.00012684414851781,0.00012684414851781,275850.30684729,0.017416019234474
30672000,0.99998525078032,0.016914808719606,0.005638269573204,0.0056382695732632,0.0056382695731389,-0.0013857079330323,0.0013857079321365,6.2754514657359e-12,-7.1318995371294e-12,8.4184369401772e-14,-1.0048966540382e-12,-0.0014104546732777,0.0014104546772442,-0.0014104546778497,0.0014104546726544,-0.0014104546742207,0.0014104546772862,-0.0014104546785802,0.0014104546730565,-0.0013585755316145,0.0013585755441218,-0.0013585755452734,0.001358575530254,-8.3512919325875e-13,3.0542384598174e-13,3.3783706166261e-13,2.3189106294603e-13,-0.0013857079326761,0.0013857079325285,-0.0014104546753272,0.0014104546754613,-0.0014104546754887,0.0014104546756707,-0.0014104546749466,0.0014104546760289,-0.0014104546749937,0.0014104546758396,-0.0013585755376631,0.0013585755372022,-0.0013585755363235,0.0013585755360926,-0.0013585755387382,0.0013585755351517,-0.0013585755375441,0.0013585755359428,-6.9952425942581e-12,6.9240298579936e-12,-0.0013857079326158,0.0013857079325546,-8.3357247610951e-14,4.7817333330937e-14,-0.0014104546780089,0.0014104546731803,-0.0014104546778912,0.0014104546727785,-0.0014104546733004,0.001410454677927,-0.001410454673063,0.0014104546778547,-0.0013585755287107,0.0013585755427307,-0.0013585755429824,0.0013585755286968,0.73400701904955,0.57665384232419,1368840,32768,0.005757131498521,0.0057571314985951,0.0057571314985245,26.626943169695,26.638301887961,0.00012821554535756,0.00012821554535756,0.00012821554535756,272369.50603693,0.017421604390548
30758400,0.99998571873212,0.016914816281702,0.0056382720939028,0.005638272093962,0.0056382720938378,-0.0013861384078174,0.0013861384068727,6.2303406085475e-12,-7.1894437791923e-12,6.9136770272067e-14,-1.005249996185e-12,-0.0014108356297189,0.0014108356336853,-0.0014108356342078,0.0014108356289961,-0.0014108356307597,0.0014108356337536,-0.0014108356350303,0.0014108356292765,-0.0013590534703857,0.0013590534826829,-0.0013590534839682,0.0013590534692601,-7.5551341958363e-13,3.695397108155e-13,3.8750930891543e-13,2.894949796565e-13,-0.0013861384073611,0.0013861384073159,-0.0014108356318491,0.0014108356319311,-0.0014108356319881,0.0014108356321164,-0.0014108356311965,0.0014108356324645,-0.0014108356312732,0.0014108356322686,-0.0013590534764644,0.0013590534762631,-0.0013590534752018,0.0013590534749187,-0.0013590534775481,0.0013590534740242,-0.001359053476216,0.0013590534749554,-6.9634490949394e-12,6.9682105083051e-12,-0.001386138407337,0.0013861384072834,-8.6073605804543e-14,3.7244803373293e-14,-0.0014108356343442,0.001410835629642,-0.0014108356342778,0.0014108356290624,-0.0014108356296033,0.0014108356341504,-0.0014108356294344,0.0014108356342133,-0.0013590534679535,0.0013590534815747,-0.0013590534818725,0.0013590534677081,0.73704530759021,0.6323730657908,1368840,32768,0.0057589149234866,0.0057589149234594,0.0057589149233423,26.798383465251,26.809750296251,0.00012958706772201,0.00012958706772201,0.00012958706772201,269244.47792205,0.017427047613252
30844800,0.999986176371,0.016914823742602,0.0056382745808694,0.0056382745809286,0.0056382745808044,-0.0013866270070129,0.0013866270061597,6.2683802699914e-12,-7.1242549471369e-12,9.7657075466908e-14,-9.8830033751485e-13,-0.0014112463924491,0.0014112463963745,-0.0014112463969495,0.0014112463918839,-0.0014112463935966,0.0014112463967265,-0.001411246397782,0.0014112463921733,-0.0013596157467654,0.0013596157595522,-0.0013596157609032,0.0013596157455322,-7.9852798787104e-13,3.3739516339759e-13,3.2990924502843e-13,2.837197149104e-13,-0.0013866270066524,0.0013866270065405,-0.0014112463945841,0.0014112463947276,-0.0014112463946101,0.0014112463950218,-0.0014112463941392,0.0014112463953131,-0.0014112463943331,0.0014112463952912,-0.0013596157532106,0.001359615752953,-0.0013596157518696,0.0013596157516264,-0.0013596157543346,0.0013596157506251,-0.0013596157530282,0.0013596157515867,-7.022875573619e-12,6.8821078151538e-12,-0.0013866270066432,0.0013866270064777,-9.6167297449192e-14,-2.3753421408104e-14,-0.0014112463973291,0.0014112463924193,-0.0014112463972696,0.0014112463920739,-0.0014112463927004,0.0014112463970127,-0.001411246392512,0.0014112463970919,-0.0013596157445928,0.0013596157585959,-0.0013596157588529,0.0013596157441849,0.74352740690635,0.74307751585792,1368840,32768,0.0057609391831673,0.0057609391832093,0.0057609391830602,26.969824070448,26.981198704541,0.00013095859256358,0.00013095859256358,0.00013095859256358,264467.35629132,0.017433225811632
30931200,0.99998662377097,0.01691483106225,0.0056382770207521,0.0056382770208113,0.005638277020687,-0.0013872515858508,0.0013872515849829,6.2592500783243e-12,-7.17148326905e-12,7.3805509998214e-14,-9.7640923019178e-13,-0.0014117256538194,0.0014117256579026,-0.001411725658429,0.0014117256532795,-0.0014117256550987,0.0014117256581742,-0.0014117256593837,0.0014117256537974,-0.0013603762839343,0.0013603762967409,-0.0013603762973408,0.0013603762822792,-7.4869386321052e-13,3.5170643208051e-13,4.0653299246084e-13,3.1151021887076e-13,-0.0013872515854698,0.00138725158537,-0.0014117256560673,0.0014117256562336,-0.0014117256563249,0.0014117256565352,-0.001411725655885,0.0014117256569107,-0.0014117256557373,0.0014117256566331,-0.0013603762900381,0.001360376289529,-0.0013603762887075,0.0013603762886414,-0.0013603762907123,0.0013603762874509,-0.0013603762896093,0.001360376288634,-6.9340011710239e-12,7.0090054973403e-12,-0.0013872515853773,0.0013872515853692,-7.8835326928995e-14,4.0094304558282e-14,-0.0014117256587584,0.0014117256538831,-0.0014117256588143,0.0014117256535187,-0.0014117256539746,0.0014117256586938,-0.0014117256537601,0.0014117256587282,-0.0013603762810233,0.0013603762955925,-0.0013603762954073,0.0013603762811486,0.74609164961961,0.77014088914353,1368840,32768,0.0057635268713368,0.0057635268713494,0.0057635268711563,27.141265318355,27.152647112831,0.00013233012254684,0.00013233012254684,0.00013233012254684,255848.96846589,0.017441123429382
31017600,0.99998706101002,0.016914838238305,0.0056382794127703,0.0056382794128295,0.0056382794127053,-0.0013876575925801,0.0013876575918255,6.3094741910709e-12,-7.0860298795924e-12,1.7226650208249e-13,-9.5597332508289e-13,-0.0014120913391574,0.0014120913432885,-0.0014120913436985,0.0014120913386563,-0.0014120913401312,0.0014120913435972,-0.0014120913445131,0.0014120913391734,-0.0013608177323964,0.0013608177453555,-0.0013608177466435,0.0013608177310656,-8.6249073973523e-13,3.1592952504046e-13,4.0871266116758e-13,2.8646030765776e-13,-0.0013876575922751,0.0013876575921332,-0.0014120913415157,0.0014120913413472,-0.0014120913414374,0.0014120913415911,-0.0014120913410647,0.0014120913421054,-0.0014120913409812,0.001412091341847,-0.0013608177382916,0.0013608177389811,-0.0013608177372259,0.001360817737328,-0.0013608177397453,0.001360817735961,-0.0013608177381902,0.0013608177371055,-6.9481959138548e-12,6.9603954823429e-12,-0.0013876575921834,0.0013876575921876,-6.7499349705906e-14,7.9362016721336e-14,-0.0014120913440043,0.0014120913392847,-0.0014120913439248,0.0014120913388193,-0.0014120913392675,0.0014120913437008,-0.0014120913389644,0.0014120913438486,-0.0013608177299297,0.0013608177446049,-0.0013608177446225,0.0013608177298706,0.74836008832218,0.78770223647542,1368840,32768,0.0057652088740063,0.0057652088740118,0.0057652088739348,27.312706646691,27.324095521121,0.00013370165317353,0.00013370165317353,0.00013370165317353,253269.19475984,0.017446257338602
31104000,0.99998748950443,0.016914845329906,0.0056382817766374,0.0056382817766966,0.0056382817765724,-0.0013881440384164,0.0013881440375801,6.2823646663071e-12,-7.1175210352063e-12,3.5190160258877e-14,-9.8206452801455e-13,-0.0014125487485743,0.0014125487527205,-0.0014125487530824,0.0014125487483152,-0.0014125487498525,0.0014125487527086,-0.0014125487536691,0.001412548748349,-0.0013613281802155,0.0013613281940396,-0.0013613281944172,0.0013613281794042,-8.1552217459265e-13,2.513513802114e-13,4.7394616832871e-13,2.5899394085406e-13,-0.0013881440380345,0.0013881440379686,-0.0014125487508232,0.0014125487508778,-0.0014125487508425,0.00141254875117,-0.0014125487504487,0.0014125487512763,-0.0014125487502332,0.0014125487509579,-0.0013613281862462,0.0013613281861965,-0.001361328184786,0.0013613281847463,-0.0013613281886504,0.0013613281848574,-0.0013613281870428,0.0013613281855273,-7.0959099895265e-12,6.815632522399e-12,-0.0013881440381054,0.0013881440378722,-1.9237797592607e-13,4.7940976612543e-14,-0.0014125487533914,0.0014125487482626,-0.0014125487532698,0.0014125487480313,-0.0014125487485478,0.0014125487530216,-0.0014125487486297,0.001412548752734,-0.0013613281774356,0.0013613281919913,-0.0013613281929192,0.0013613281775894,0.75461542579296,0.86308056669201,1368840,32768,0.0057672240895985,0.005767224089612,0.0057672240895593,27.538150025027,27.553020224962,0.00013550520020022,0.00013550520020022,0.00013550520020022,251316.51613174,0.017452408424859
31190400,0.99998790968867,0.016914852344846,0.0056382841149505,0.0056382841150097,0.0056382841148855,-0.001388802807193,0.0013888028063674,6.2804793121387e-12,-7.0079120307449e-12,1.1850443859427e-13,-9.7102104185606e-13,-0.0014131121105789,0.001413112114657,-0.0014131121151365,0.001413112110014,-0.0014131121115638,0.0014131121147857,-0.001413112115926,0.0014131121103785,-0.0013620712920313,0.0013620713054714,-0.0013620713061306,0.0013620712910789,-7.9540270099347e-13,3.4427583555072e-13,4.4429948577922e-13,1.2056275806697e-13,-0.0013888028068647,0.0013888028067386,-0.0014131121128336,0.0014131121128541,-0.0014131121129451,0.0014131121130567,-0.0014131121125118,0.0014131121135652,-0.0014131121125059,0.0014131121133019,-0.001362071298257,0.0013620712986808,-0.001362071296989,0.0013620712964114,-0.0013620712990241,0.0013620712961327,-0.0013620712979946,0.0013620712967359,-6.9177200801648e-12,6.8826983853476e-12,-0.0013888028067609,0.0013888028067759,-1.6430121600475e-13,1.8309708298039e-13,-0.0014131121153505,0.0014131121107236,-0.0014131121152174,0.0014131121103198,-0.0014131121106746,0.0014131121153187,-0.0014131121104653,0.0014131121153632,-0.0013620712890282,0.001362071303661,-0.0013620713039416,0.0013620712895091,0.76119667369553,0.92744920702683,1368840,32768,0.005769953284789,0.0057699532848778,0.0057699532847401,27.782445267636,27.798660846662,0.00013745956214108,0.00013745956214108,0.00013745956214108,245521.60905654,0.017460738522015
31276800,0.99998832154007,0.016914859215795,0.0056382864052671,0.0056382864053263,0.0056382864052021,-0.001389433441031,0.001389433440227,6.2562529345908e-12,-7.0269960947987e-12,1.6402116573656e-13,-9.547431861922e-13,-0.0014136618216849,0.0014136618256022,-0.0014136618264085,0.0014136618212736,-0.0014136618225782,0.0014136618258871,-0.0014136618269847,0.0014136618214652,-0.0013627712310719,0.0013627712439615,-0.0013627712449536,0.001362771230103,-8.7919905283715e-13,2.9020042869375e-13,5.1696311889628e-13,2.2498342102857e-14,-0.0013894334407355,0.0013894334405683,-0.0014136618236693,0.0014136618242202,-0.0014136618238963,0.0014136618241791,-0.001413661823419,0.0014136618246897,-0.0014136618236585,0.0014136618244542,-0.0013627712369238,0.0013627712375501,-0.001362771236523,0.001362771235637,-0.0013627712388646,0.0013627712352008,-0.0013627712373154,0.0013627712362462,-6.9536820403751e-12,6.8414582334412e-12,-0.0013894334406422,0.0013894334405919,-2.5322602882452e-13,2.6534198221987e-13,-0.0014136618266132,0.0014136618217679,-0.0014136618262664,0.0014136618214737,-0.0014136618220082,0.0014136618264003,-0.0014136618217293,0.0014136618264999,-0.0013627712285304,0.0013627712427988,-0.0013627712430732,0.0013627712287188,0.76059934312601,0.86462826064948,1368840,32768,0.0057725658757397,0.0057725658758348,0.0057725658756905,28.027951766989,28.044301468363,0.00013942361413591,0.00013942361413591,0.00013942361413591,240498.47070115,0.017468712914962
31363200,0.99998872501472,0.016914865923355,0.0056382886411202,0.0056382886411794,0.0056382886410552,-0.0013897822344558,0.0013897822335952,6.2070586139141e-12,-7.0667385865752e-12,7.5078412288393e-14,-9.6667829217114e-13,-0.0014140673106756,0.0014140673146787,-0.0014140673152121,0.0014140673101185,-0.0014140673116452,0.0014140673148403,-0.0014140673159759,0.0014140673104868,-0.0013630616624661,0.0013630616749517,-0.0013630616762082,0.0013630616612424,-7.8828244792408e-13,3.0376113207063e-13,5.5995142328015e-13,7.1239323687562e-14,-0.0013897822340953,0.0013897822339893,-0.001414067312764,0.0014140673129696,-0.0014140673129441,0.0014140673130537,-0.0014140673123564,0.0014140673136095,-0.0014140673125319,0.0014140673132557,-0.0013630616684387,0.0013630616688073,-0.0013630616674521,0.0013630616668968,-0.0013630616696784,0.0013630616661738,-0.0013630616685419,0.0013630616670693,-6.8888036694236e-12,6.8971288562713e-12,-0.0013897822340061,0.0013897822340196,-2.3717778379327e-13,2.7483433929371e-13,-0.0014140673154808,0.0014140673106605,-0.0014140673152533,0.0014140673103791,-0.0014140673107759,0.0014140673152914,-0.0014140673104582,0.0014140673153933,-0.0013630616599737,0.0013630616740184,-0.0013630616739876,0.0013630616599918,0.7578786579993,0.79905950129701,1368840,32768,0.0057740106408542,0.005774010640924,0.005774010640802,28.273571590538,28.289942090064,0.00014138857272431,0.00014138857272431,0.00014138857272431,243268.18797424,0.01747312354748
31449600,0.99998912007324,0.016914872455722,0.005638290818576,0.0056382908186352,0.005638290818511,-0.0013901096167346,0.0013901096159576,6.2950874541053e-12,-7.0330882028066e-12,1.1191022827817e-13,-9.6558767842982e-13,-0.0014144644090127,0.0014144644127087,-0.0014144644135003,0.0014144644085819,-0.0014144644099807,0.0014144644129306,-0.0014144644142842,0.0014144644087761,-0.0013633219388277,0.0013633219516822,-0.0013633219530246,0.0013633219381021,-8.3724795206154e-13,2.902103107448e-13,5.0494939767192e-13,2.7091584135407e-14,-0.0013901096164551,0.0013901096162557,-0.0014144644110529,0.0014144644110452,-0.0014144644112151,0.0014144644111168,-0.0014144644106327,0.0014144644115666,-0.0014144644102132,0.0014144644114823,-0.0013633219456384,0.0013633219457327,-0.0013633219444677,0.0013633219435178,-0.0013633219467535,0.0013633219426552,-0.0013633219458275,0.0013633219438347,-6.8905647920931e-12,6.9493936713818e-12,-0.0013901096163014,0.0013901096163489,-1.9147459175913e-13,3.0922399459569e-13,-0.0014144644136445,0.0014144644088482,-0.0014144644134758,0.00141446440871,-0.0014144644088937,0.0014144644136224,-0.0014144644086371,0.0014144644136421,-0.0013633219368854,0.0013633219510117,-0.0013633219512969,0.0013633219368949,0.75384300275949,0.73349074194454,1368840,32768,0.0057753667327598,0.0057753667327982,0.0057753667326731,28.519202147145,28.535582711764,0.00014335361717716,0.00014335361717716,0.00014335361717716,246923.39231918,0.017477263432184
31536000,0.99998950668332,0.016914878807565,0.005638292935857,0.0056382929359163,0.005638292935792,-0.0013904234685738,0.0013904234677776,6.2771876479909e-12,-7.0781462380793e-12,1.2866542230084e-13,-9.3831492335847e-13,-0.0014148579779069,0.0014148579821395,-0.0014148579828105,0.0014148579775161,-0.0014148579790246,0.0014148579820435,-0.001414857983062,0.0014148579777901,-0.0013635618063973,0.0013635618186237,-0.0013635618207702,0.0013635618054362,-6.9771494999309e-13,4.1792935019229e-13,6.4688729686065e-13,2.3999646239046e-13,-0.0013904234681402,0.0013904234682421,-0.0014148579799162,0.0014148579806595,-0.0014148579802077,0.001414857980433,-0.0014148579796319,0.0014148579811124,-0.001414857980033,0.0014148579809567,-0.001363561812505,0.0013635618129775,-0.0013635618108572,0.0013635618111207,-0.0013635618136407,0.0013635618106957,-0.0013635618128988,0.0013635618113258,-6.8952324730281e-12,6.9724117034909e-12,-0.0013904234681324,0.0013904234681776,-1.736324603534e-13,2.5602876673222e-13,-0.0014148579830479,0.0014148579780649,-0.0014148579827932,0.0014148579778976,-0.0014148579779261,0.0014148579826918,-0.0014148579777804,0.0014148579828309,-0.0013635618038873,0.0013635618182214,-0.0013635618179908,0.0013635618035785,0.74907249262447,0.66792198259207,1368840,32768,0.0057766667913431,0.005776666791407,0.0057766667912574,28.764832750051,28.781223333465,0.00014531866200041,0.00014531866200041,0.00014531866200041,251177.17792279,0.017481232227574
31622400,0.99998988481983,0.016914884976557,0.0056382949921876,0.0056382949922468,0.0056382949921226,-0.0013907255999107,0.0013907255991199,6.3114672478315e-12,-7.0623946016339e-12,6.2751259462686e-14,-8.9797239108926e-13,-0.0014152477933264,0.0014152477973046,-0.0014152477976624,0.0014152477925417,-0.0014152477948378,0.0014152477974511,-0.0014152477988846,0.0014152477930644,-0.0013637838322659,0.0013637838460422,-0.0013637838463949,0.0013637838318952,-5.541131604586e-13,4.5466311035407e-13,6.4869662393989e-13,2.4645952965407e-13,-0.0013907255994479,0.0013907255996032,-0.0014152477952833,0.001415247795493,-0.0014152477957172,0.0014152477961672,-0.0014152477946616,0.001415247796068,-0.0014152477954874,0.0014152477958693,-0.0013637838392454,0.001363783839794,-0.0013637838380085,0.001363783837935,-0.0013637838398987,0.001363783836994,-0.0013637838387778,0.0013637838384329,-6.89900471073e-12,6.9868652031228e-12,-0.00139072559949,0.0013907255995035,-1.6023989889873e-13,2.6611519389291e-13,-0.0014152477979089,0.0014152477932032,-0.0014152477976083,0.0014152477928314,-0.0014152477937624,0.0014152477976661,-0.0014152477930253,0.0014152477978988,-0.0013637838302601,0.0013637838446926,-0.0013637838455626,0.0013637838314064,0.74386089670854,0.60235322323961,1368840,32768,0.0057779183037819,0.0057779183038243,0.0057779183037053,29.010462596437,29.026863955166,0.0001472837007715,0.0001472837007715,0.0001472837007715,255898.20632967,0.017485052823169
31708800,0.99999025436636,0.016914890960324,0.0056382969867765,0.0056382969868357,0.0056382969867114,-0.0013910075257743,0.0013910075247318,6.0741880259606e-12,-7.2110115320769e-12,-3.3697205867609e-14,-1.0244704090146e-12,-0.0014156234305514,0.0014156234344645,-0.0014156234351314,0.0014156234303548,-0.001415623431728,0.0014156234347411,-0.0014156234364904,0.0014156234305662,-0.0013639807767746,0.0013639807892139,-0.0013639807897122,0.0013639807741333,-7.6056773576598e-13,2.8045602049638e-13,4.3367410449497e-13,4.2440527000444e-14,-0.0013910075253473,0.0013910075252345,-0.0014156234323049,0.0014156234331219,-0.0014156234328935,0.001415623433453,-0.0014156234322182,0.001415623433776,-0.0014156234324653,0.0014156234331487,-0.0013639807822635,0.0013639807822352,-0.001363980781343,0.0013639807812284,-0.0013639807834086,0.0013639807809117,-0.0013639807820568,0.0013639807818367,-6.834928256457e-12,6.9619018186783e-12,-0.0013910075252271,0.0013910075252864,-1.9513430348686e-13,2.2066364123017e-13,-0.0014156234353929,0.0014156234303586,-0.0014156234352711,0.0014156234299939,-0.0014156234309236,0.001415623435416,-0.0014156234299732,0.0014156234353677,-0.0013639807744654,0.0013639807896438,-0.0013639807887868,0.0013639807752058,0.73835139477962,0.53678446388713,1368840,32768,0.0057790861124269,0.0057790861125837,0.0057790861124424,29.251402026556,29.267511874844,0.00014921121621244,0.00014921121621244,0.00014921121621244,261020.82531284,0.017488617919146
31795200,0.99999061078263,0.016914896676371,0.0056382988921255,0.0056382988921847,0.0056382988920605,-0.0013908479694728,0.0013908479686565,6.2245744317591e-12,-7.0689422839596e-12,6.8420321570847e-14,-9.1999812998276e-13,-0.0014155695668003,0.0014155695707898,-0.0014155695713279,0.0014155695662903,-0.0014155695677519,0.0014155695710177,-0.0014155695720429,0.0014155695667137,-0.0013637271521372,0.0013637271647712,-0.0013637271658526,0.0013637271507684,-7.6176722853406e-13,2.773619973696e-13,4.5249088259649e-13,6.2147807309499e-14,-0.0013908479691687,0.0013908479690017,-0.0014155695689739,0.001415569569068,-0.0014155695691283,0.0014155695691978,-0.0014155695685593,0.0014155695696678,-0.0014155695686828,0.0014155695693117,-0.0013637271583726,0.0013637271581052,-0.0013637271570924,0.0013637271565741,-0.0013637271592581,0.0013637271559722,-0.0013637271581578,0.0013637271568533,-6.8885506183306e-12,6.9168764000562e-12,-0.0013908479690591,0.0013908479690541,-2.1319692815666e-13,2.0098924226955e-13,-0.0014155695716155,0.0014155695667339,-0.0014155695713772,0.0014155695664524,-0.0014155695668805,0.0014155695714138,-0.001415569566581,0.0014155695714484,-0.0013637271497688,0.001363727163954,-0.0013637271637837,0.0013637271497858,0.73133574683105,0.45226358797313,1368840,32768,0.0057784249985223,0.0057784249986073,0.0057784249984889,29.269665847806,29.271394129255,0.00014935732678245,0.00014935732678245,0.00014935732678245,266675.50171613,0.017486600368617
31881600,0.99999095426593,0.016914902309345,0.0056383007697836,0.0056383007698428,0.0056383007697186,-0.0013905920930915,0.0013905920922412,6.2174399438305e-12,-7.0767258108841e-12,6.5338592186153e-14,-9.3473162106119e-13,-0.0014154524915105,0.001415452495498,-0.0014154524960587,0.0014154524909401,-0.0014154524924668,0.0014154524956831,-0.0014154524967947,0.0014154524913235,-0.0013633463829991,0.0013633463954884,-0.0013633463965507,0.0013633463816313,-7.5772982246228e-13,2.9289122884459e-13,4.9213952429888e-13,8.5190721011362e-14,-0.0013905920927474,0.0013905920926177,-0.0014154524936304,0.0014154524937827,-0.0014154524937933,0.001415452493906,-0.0014154524932226,0.001415452494407,-0.0014154524933873,0.0014154524941008,-0.0013633463890101,0.0013633463890493,-0.0013633463879971,0.0013633463872394,-0.0013633463899993,0.0013633463866126,-0.0013633463889444,0.0013633463874617,-6.8880575157475e-12,6.9180235708933e-12,-0.0013905920926533,0.0013905920926532,-2.0694791317742e-13,2.235858166656e-13,-0.0014154524962967,0.0014154524914708,-0.0014154524961128,0.001415452491175,-0.00141545249161,0.0014154524961319,-0.0014154524913198,0.0014154524961894,-0.0013633463803349,0.0013633463944589,-0.0013633463943234,0.0013633463804617,0.74789616125412,0.76226457269966,1368840,32768,0.0057773648340227,0.0057773648340896,0.0057773648339685,29.274871966769,29.275276383666,0.00014939897573415,0.00014939897573415,0.00014939897573415,274387.26419561,0.017483364823406
31968000,0.9999912852593,0.016914907753762,0.0056383025845893,0.0056383025846485,0.0056383025845242,-0.0013914447145873,0.0013914447137419,6.2260693272676e-12,-7.0696120282053e-12,6.3048309211549e-14,-9.3693190678515e-13,-0.0014158934768057,0.0014158934807994,-0.0014158934813431,0.0014158934762358,-0.0014158934777576,0.0014158934809878,-0.0014158934821029,0.0014158934766346,-0.0013645865606415,0.0013645865732135,-0.0013645865742697,0.0013645865593448,-7.5749750602998e-13,2.9281570174013e-13,4.9372709344679e-13,9.3121684608221e-14,-0.0013914447142442,0.0013914447141157,-0.0014158934789285,0.0014158934790813,-0.001415893479086,0.0014158934792038,-0.0014158934785179,0.0014158934797069,-0.0014158934786851,0.0014158934793985,-0.001364586566665,0.001364586566707,-0.0013645865656106,0.0013645865649122,-0.0013645865676897,0.0013645865643105,-0.0013645865666122,0.0013645865651902,-6.8923296793535e-12,6.9153693872709e-12,-0.0013914447141505,0.0013914447141509,-2.0122214691918e-13,2.2294213044742e-13,-0.0014158934815834,0.0014158934767699,-0.0014158934814001,0.001415893476479,-0.0014158934769074,0.0014158934814136,-0.0014158934766181,0.0014158934814915,-0.001364586557965,0.0013645865721181,-0.0013645865720409,0.0013645865581043,0.75022057323177,0.78347041116358,1368840,32768,0.0057808976505669,0.0057808976506302,0.0057808976505094,29.278884608314,29.279158638077,0.00014943107686651,0.00014943107686651,0.00014943107686651,250276.12079595,0.017494146178572
32054400,0.99999160421199,0.016914913020151,0.0056383043400522,0.0056383043401114,0.0056383043399872,-0.0013915109986252,0.0013915109977834,6.2243326744388e-12,-7.0710672190443e-12,6.9830925536688e-14,-9.351692547506e-13,-0.0014159241714602,0.0014159241754534,-0.0014159241760065,0.0014159241709088,-0.0014159241724112,0.0014159241756477,-0.001415924176744,0.00141592417129,-0.001364683154956,0.0013646831675088,-0.001364683168601,0.0013646831536628,-7.5822536614729e-13,2.971418636965e-13,4.9661824041835e-13,9.7129650402911e-14,-0.0013915109982845,0.0013915109981588,-0.001415924173593,0.001415924173755,-0.00141592417373,0.0014159241738654,-0.0014159241731815,0.0014159241743705,-0.0014159241733476,0.0014159241740615,-0.0013646831610054,0.0013646831610704,-0.0013646831599515,0.0013646831592626,-0.0013646831620559,0.0013646831586421,-0.0013646831609287,0.0013646831594841,-6.8909547801792e-12,6.9164741476389e-12,-0.0013915109981927,0.0013915109981918,-2.0352142961885e-13,2.1954785178736e-13,-0.001415924176249,0.001415924171424,-0.0014159241760661,0.001415924171131,-0.0014159241715476,0.0014159241760729,-0.0014159241712728,0.0014159241761508,-0.0013646831523709,0.0013646831665055,-0.0013646831664259,0.0013646831524615,0.75282616863466,0.80523991285448,1368840,32768,0.0057811722577035,0.0057811722577752,0.0057811722576536,29.28277988932,29.283040892488,0.00014946223911456,0.00014946223911456,0.00014946223911456,248110.75648999,0.017494984336623
32140800,0.9999919115592,0.016914918117255,0.0056383060390868,0.005638306039146,0.0056383060390218,-0.0013915779514427,0.0013915779506019,6.2242441477314e-12,-7.0689466955896e-12,6.2314625742723e-14,-9.2771701182327e-13,-0.0014159590093469,0.0014159590133365,-0.0014159590138876,0.0014159590087836,-0.0014159590103055,0.0014159590135309,-0.0014159590146313,0.0014159590091792,-0.0013647772956892,0.0013647773082536,-0.0013647773093378,0.0013647772943893,-7.497474192604e-13,2.9062994498409e-13,4.9768344317126e-13,9.7981771430022e-14,-0.0013915779511005,0.0013915779509764,-0.0014159590114706,0.0014159590116321,-0.001415959011631,0.0014159590117512,-0.0014159590110665,0.001415959012247,-0.0014159590112338,0.0014159590119426,-0.001364777301722,0.0013647773017959,-0.0013647773006745,0.001364777299994,-0.0013647773027532,0.0013647772993656,-0.0013647773016711,0.0013647773002382,-6.8930406576336e-12,6.9122163071248e-12,-0.0013915779510107,0.0013915779510072,-2.0201335804234e-13,2.2132020940776e-13,-0.0014159590141354,0.0014159590093144,-0.001415959013947,0.0014159590090168,-0.00141595900945,0.0014159590139654,-0.0014159590091648,0.0014159590140296,-0.00136477729307,0.001364777307201,-0.0013647773071184,0.0013647772931579,0.75611982388447,0.83311157431456,1368840,32768,0.0057814496354019,0.0057814496354688,0.0057814496353466,29.28666340952,29.286923146899,0.00014949330727616,0.00014949330727616,0.00014949330727616,245959.41012226,0.017495830965104
32227200,0.99999220772072,0.016914923052732,0.0056383076842459,0.0056383076843051,0.0056383076841809,-0.0013916585875364,0.0013916585866945,6.2219619233342e-12,-7.06648953536e-12,6.4841195616571e-14,-9.3204676190532e-13,-0.0014160011440977,0.0014160011480834,-0.0014160011486349,0.0014160011435336,-0.0014160011450574,0.0014160011482776,-0.0014160011493809,0.0014160011439283,-0.001364890403549,0.0013648904161121,-0.00136489041719,0.0013648904022458,-7.512666375552e-13,2.9596478200848e-13,5.0185746271665e-13,9.9595869179268e-14,-0.001391658587192,0.0013916585870711,-0.0014160011462179,0.0014160011463811,-0.0014160011463787,0.0014160011464989,-0.001416001145813,0.0014160011469968,-0.0014160011459799,0.0014160011466915,-0.0013648904095755,0.0013648904096575,-0.0013648904085214,0.0013648904078609,-0.0013648904106261,0.0013648904072364,-0.0013648904095305,0.001364890408106,-6.8903197407557e-12,6.9102257502879e-12,-0.0013916585871034,0.0013916585871006,-2.0357792789287e-13,2.2230782629556e-13,-0.0014160011488798,0.0014160011440627,-0.0014160011486911,0.0014160011437654,-0.0014160011441981,0.0014160011487109,-0.0014160011439122,0.0014160011487761,-0.0013648904009355,0.0013648904150698,-0.0013648904149841,0.0013648904010341,0.75977565125527,0.86098323577464,1368840,32768,0.0057817837054689,0.0057817837055355,0.0057817837054134,29.290545738565,29.29080540131,0.00014952436590852,0.00014952436590852,0.00014952436590852,243403.49304017,0.017496850621633
32313600,0.99999249310123,0.016914927833484,0.0056383092778298,0.0056383092778891,0.0056383092777648,-0.0013917384413564,0.0013917384405121,6.2210468336425e-12,-7.0668282897172e-12,6.8849308465592e-14,-9.3773088237699e-13,-0.0014160426408738,0.0014160426448617,-0.0014160426454123,0.0014160426403113,-0.0014160426418394,0.0014160426450523,-0.0014160426461616,0.0014160426407034,-0.001365001982864,0.0013650019954313,-0.0013650019965163,0.0013650019815749,-7.5453142017128e-13,3.0237758610172e-13,5.0160782328414e-13,1.0149013484016e-13,-0.0013917384410089,0.0013917384408919,-0.0014160426429968,0.0014160426431595,-0.0014160426431564,0.0014160426432781,-0.0014160426425886,0.0014160426437797,-0.0014160426427553,0.0014160426434755,-0.0013650019888982,0.001365001988974,-0.0013650019878405,0.0013650019871813,-0.0013650019899433,0.0013650019865367,-0.0013650019888424,0.001365001987434,-6.8912457712897e-12,6.9087534423247e-12,-0.0013917384409227,0.0013917384409191,-2.018700683021e-13,2.2188448628713e-13,-0.0014160426456618,0.0014160426408438,-0.0014160426454725,0.0014160426405448,-0.0014160426409799,0.0014160426454908,-0.001416042640693,0.0014160426455557,-0.0013650019802447,0.0013650019943681,-0.0013650019943047,0.0013650019803414,0.76373522567092,0.88885489723472,1368840,32768,0.0057821145293824,0.0057821145294495,0.0057821145293272,29.294427939855,29.294687655721,0.00014955542351884,0.00014955542351884,0.00014955542351884,240837.68306338,0.017497860388639
32400000,0.99999276809087,0.016914932465654,0.0056383108218867,0.005638310821946,0.0056383108218217,-0.001391817229852,0.001391817229006,6.2201019801541e-12,-7.068228129306e-12,6.7114185001835e-14,-9.4114971911035e-13,-0.001416083463183,0.001416083467173,-0.0014160834677224,0.0014160834626223,-0.0014160834641495,0.0014160834673634,-0.0014160834684713,0.0014160834630129,-0.0013651117310548,0.0013651117436077,-0.0013651117446909,0.0013651117297495,-7.5422169433907e-13,3.0437281926636e-13,5.0214710092722e-13,1.0615499233197e-13,-0.0013918172295026,0.0013918172293877,-0.0014160834653067,0.0014160834654707,-0.001416083465465,0.0014160834655891,-0.0014160834648977,0.0014160834660912,-0.0014160834650643,0.0014160834657867,-0.001365111737069,0.001365111737159,-0.001365111736002,0.0013651117353639,-0.0013651117381068,0.0013651117347141,-0.0013651117370288,0.0013651117356222,-6.891324180659e-12,6.9091509301817e-12,-0.0013918172294177,0.0013918172294136,-2.0014417985034e-13,2.19496706291e-13,-0.0014160834679713,0.0014160834631517,-0.001416083467782,0.0014160834628538,-0.0014160834632873,0.0014160834677992,-0.0014160834630028,0.0014160834678641,-0.0013651117284302,0.0013651117425563,-0.0013651117424801,0.0013651117285295,0.76793670653174,0.91672655869479,1368840,32768,0.0057824409358701,0.005782440935937,0.0057824409358149,29.298310121379,29.298569910132,0.00014958648097103,0.00014958648097103,0.00014958648097103,238279.41059262,0.017498856686504
32486400,0.99999303304817,0.016914936901608,0.0056383123005378,0.005638312300597,0.0056383123004728,-0.0013918924244792,0.0013918924236294,6.2178580487047e-12,-7.0618543240214e-12,7.1615576899167e-14,-9.4884542518828e-13,-0.0014161216838162,0.0014161216877745,-0.001416121688343,0.001416121683228,-0.0014161216847562,0.0014161216879767,-0.0014161216890954,0.0014161216836292,-0.0013652167552439,0.0013652167678574,-0.0013652167689211,0.0013652167540134,-7.6136709369909e-13,3.0934796139683e-13,5.0114771969293e-13,1.107896154533e-13,-0.0013918924241268,0.0013918924240162,-0.00141612168593,0.0014161216860763,-0.0014161216860821,0.0014161216862064,-0.0014161216855126,0.0014161216866991,-0.001416121685685,0.0014161216864155,-0.0013652167613258,0.0013652167614147,-0.0013652167602625,0.00136521675964,-0.0013652167623605,0.0013652167589634,-0.0013652167612239,0.0013652167598584,-6.8839505235662e-12,6.9079725544156e-12,-0.0013918924240376,0.0013918924240401,-1.9287740184542e-13,2.2109783384824e-13,-0.0014161216885919,0.0014161216837862,-0.0014161216883979,0.0014161216834588,-0.0014161216838987,0.0014161216884177,-0.0014161216836365,0.0014161216884862,-0.0013652167526901,0.0013652167667963,-0.0013652167668128,0.0013652167528197,0.76322619990769,0.81481010692511,1368840,32768,0.0057827524515431,0.0057827524516143,0.005782752451479,29.301025329259,29.301209604224,0.00014960820263407,0.00014960820263407,0.00014960820263407,235750.23981965,0.017499807541655
32572800,0.99999328795315,0.016914941130477,0.005638313710161,0.0056383137102202,0.005638313710096,-0.0013916246387521,0.0013916246378953,6.1972545604801e-12,-7.0593535768881e-12,7.8177847014555e-14,-9.6439336197419e-13,-0.0014159605136652,0.0014159605176433,-0.0014159605181861,0.0014159605131662,-0.0014159605147607,0.0014159605178545,-0.0014159605190765,0.0014159605135628,-0.0013648480276896,0.0013648480403258,-0.0013648480414196,0.0013648480265797,-7.7742427963367e-13,3.15228958207e-13,4.8044708737715e-13,1.0190503392999e-13,-0.0013916246384041,0.0013916246382776,-0.0014159605159107,0.001415960515963,-0.0014159605159988,0.0014159605161111,-0.0014159605153945,0.0014159605166009,-0.0014159605155922,0.0014159605163363,-0.0013648480340492,0.0013648480338589,-0.0013648480326873,0.0013648480319421,-0.0013648480350263,0.001364848031263,-0.0013648480335935,0.0013648480324665,-6.8652561534899e-12,6.9035458955293e-12,-0.0013916246383122,0.0013916246383128,-1.8468088753742e-13,2.1758817635998e-13,-0.0014159605185521,0.0014159605136531,-0.0014159605183551,0.0014159605133186,-0.0014159605138757,0.0014159605183256,-0.0014159605135012,0.0014159605183872,-0.0013648480251022,0.0013648480390594,-0.0013648480391855,0.0013648480251948,0.75626102459284,0.71055228244282,1368840,32768,0.0057816428973772,0.005781642897448,0.0057816428973309,29.27723693605,29.275707101139,0.0001494178954884,0.0001494178954884,0.0001494178954884,241477.42358987,0.017496421390294
32659200,0.99999353317795,0.016914945155593,0.0056383150518662,0.0056383150519254,0.0056383150518012,-0.0013913211096698,0.0013913211088346,6.2087120928133e-12,-7.0409331396198e-12,8.0319252184332e-14,-9.6272894223283e-13,-0.0014157842498625,0.0014157842538378,-0.0014157842543663,0.0014157842493247,-0.0014157842507293,0.0014157842540575,-0.0014157842550464,0.0014157842495928,-0.0013644275293217,0.0013644275417711,-0.0013644275430767,0.0013644275280683,-7.8177482319813e-13,3.1152771833616e-13,4.9344027867937e-13,9.9019004449148e-14,-0.0013913211093273,0.0013913211092135,-0.001415784251964,0.0014157842520672,-0.0014157842520643,0.0014157842522611,-0.001415784251462,0.0014157842527757,-0.0014157842516739,0.0014157842524841,-0.0013644275354965,0.0013644275356068,-0.0013644275343642,0.0013644275336925,-0.0013644275364763,0.0013644275329295,-0.0013644275353303,0.0013644275339943,-6.8742880540422e-12,6.8875093854337e-12,-0.001391321109247,0.0013913211092518,-1.9552387982086e-13,2.2238152992632e-13,-0.001415784254623,0.0014157842497976,-0.001415784254467,0.001415784249557,-0.0014157842499126,0.0014157842544424,-0.0014157842496176,0.0014157842545027,-0.0013644275269013,0.0013644275409691,-0.0013644275408681,0.0013644275268636,0.74829752847862,0.60629445796055,1368840,32768,0.005780385295932,0.0057803852960076,0.0057803852959208,29.251891820742,29.250204598055,0.00014921513456593,0.00014921513456593,0.00014921513456593,248463.68235947,0.01749258325201
32745600,0.99999376910111,0.016914948983432,0.0056383163278125,0.0056383163278718,0.0056383163277475,-0.0013909913960663,0.001390991395204,6.2018878895233e-12,-7.0655060359935e-12,7.8687596147951e-14,-9.7018871434192e-13,-0.0014155993423337,0.001415599346315,-0.0014155993468655,0.0014155993417655,-0.0014155993433102,0.0014155993464897,-0.0014155993476287,0.0014155993421431,-0.0013639663382762,0.0013639663507831,-0.0013639663519107,0.0013639663369703,-7.7305288376504e-13,3.2619627022197e-13,5.0426188926307e-13,1.1088131853418e-13,-0.0013909913957053,0.0013909913955972,-0.0014155993444533,0.0014155993446086,-0.0014155993446098,0.0014155993447324,-0.0014155993440304,0.0014155993452442,-0.0014155993441941,0.0014155993449401,-0.0013639663442531,0.0013639663443664,-0.0013639663432078,0.0013639663425624,-0.0013639663453356,0.0013639663418936,-0.0013639663442065,0.0013639663428527,-6.885263306991e-12,6.8942352093761e-12,-0.0013909913956259,0.0013909913956178,-2.0095897848821e-13,2.1607395791243e-13,-0.0014155993471121,0.0014155993422995,-0.0014155993469272,0.0014155993419986,-0.0014155993424328,0.0014155993469421,-0.0014155993421501,0.0014155993470054,-0.0013639663356403,0.0013639663497157,-0.0013639663496737,0.0013639663357198,0.73975111797237,0.50203663347824,1368840,32768,0.0057790192282612,0.0057790192283278,0.0057790192282063,29.226404544098,29.22470209497,0.00014901123635278,0.00014901123635278,0.00014901123635278,256419.87644334,0.017488414015648
32832000,0.99999399608767,0.016914952624059,0.005638317541355,0.0056383175414143,0.00563831754129,-0.0013906343929075,0.0013906343920195,6.1736493992486e-12,-7.0870132613155e-12,8.3916554053935e-14,-1.0003839095465e-12,-0.0014153981816343,0.0014153981855373,-0.0014153981861259,0.0014153981810224,-0.0014153981825544,0.0014153981857986,-0.0014153981869648,0.0014153981813956,-0.0013634680031456,0.0013634680156233,-0.0013634680167684,0.0013634680017405,-8.1254850073047e-13,3.2204175008089e-13,4.8247064320597e-13,1.0592582286235e-13,-0.0013906343925454,0.0013906343924057,-0.0014153981837196,0.001415398183862,-0.0014153981839132,0.0014153981840088,-0.0014153981832413,0.0014153981844542,-0.0014153981834682,0.0014153981841948,-0.0013634680092564,0.001363468009136,-0.0013634680079765,0.001363468007485,-0.0013634680102152,0.0013634680065351,-0.0013634680089934,0.0013634680077457,-6.8622708329247e-12,6.9104792425438e-12,-0.0013906343924386,0.0013906343924669,-1.6902160121199e-13,2.3077871457456e-13,-0.0014153981863756,0.0014153981815821,-0.0014153981861831,0.0014153981813126,-0.0014153981817266,0.0014153981862296,-0.0014153981814009,0.0014153981863136,-0.0013634680004578,0.0013634680146719,-0.0013634680144728,0.0013634680005521,0.73135296815737,0.40460927212686,1368840,32768,0.0057775401030693,0.0057775401031192,0.0057775401030249,29.200903419243,29.199199591886,0.00014880722735394,0.00014880722735394,0.00014880722735394,265262.75529137,0.017483899691016
32918400,0.99999421448805,0.016914956175501,0.0056383187251688,0.005638318725228,0.0056383187251038,-0.0013902697454473,0.0013902697445557,6.1817109765024e-12,-7.0969684277802e-12,8.9305742359108e-14,-9.9951734778406e-13,-0.0014151973723084,0.0014151973762593,-0.0014151973768167,0.001415197371716,-0.0014151973732339,0.0014151973763916,-0.0014151973775973,0.0014151973720327,-0.0013629556130013,0.0013629556254028,-0.0013629556266209,0.0013629556116207,-7.9457704974596e-13,3.4487711129981e-13,4.7878219706194e-13,1.2185277748129e-13,-0.0013902697450774,0.0013902697449606,-0.0014151973744481,0.001415197374558,-0.0014151973745436,0.0014151973747064,-0.0014151973739664,0.0014151973751897,-0.0014151973741557,0.0014151973749107,-0.0013629556190217,0.0013629556190739,-0.0013629556178736,0.0013629556171992,-0.001362955619992,0.0013629556166177,-0.0013629556188498,0.0013629556175839,-6.8998953894027e-12,6.8906303783248e-12,-0.0013902697450121,0.0013902697449662,-2.0311535378889e-13,1.776641018954e-13,-0.001415197377077,0.0014151973722691,-0.0014151973769164,0.0014151973719042,-0.001415197372399,0.0014151973768804,-0.0014151973721134,0.0014151973769052,-0.0013629556104218,0.0013629556244226,-0.0013629556243847,0.0013629556103625,0.74157911983001,0.59136693301626,1368840,32768,0.005776029317513,0.0057760293175853,0.0057760293174619,29.175400853832,29.1736970888,0.00014860320683066,0.00014860320683066,0.00014860320683066,274498.78903776,0.01747928871801
33004800,0.99999442463847,0.016914959598603,0.0056383198662028,0.005638319866262,0.0056383198661378,-0.0013907646502983,0.001390764649428,6.2093161331838e-12,-7.0739832476087e-12,9.4378763852372e-14,-9.8942630311737e-13,-0.0014154272200792,0.001415427224096,-0.0014154272246388,0.0014154272195178,-0.001415427221074,0.0014154272242398,-0.0014154272254113,0.0014154272199075,-0.0013636992134594,0.0013636992260434,-0.0013636992272073,0.00136369921221,-7.9328826558802e-13,3.4101364109087e-13,4.7572905503922e-13,1.3096938132824e-13,-0.0013907646499333,0.0013907646498194,-0.0014154272221953,0.0014154272223513,-0.001415427222375,0.0014154272224849,-0.0014154272218115,0.0014154272229807,-0.0014154272219521,0.0014154272227253,-0.0013636992195224,0.0013636992196096,-0.0013636992184064,0.0013636992178818,-0.0013636992206278,0.0013636992171566,-0.0013636992194025,0.0013636992182291,-6.8883308603382e-12,6.9069593206633e-12,-0.0013907646498505,0.0013907646498423,-1.778084798377e-13,1.906567049803e-13,-0.0014154272248621,0.00141542722008,-0.0014154272246739,0.0014154272197181,-0.0014154272201978,0.0014154272247368,-0.0014154272199281,0.0014154272247503,-0.0013636992109114,0.0013636992249766,-0.0013636992250312,0.0013636992109582,0.74293816215861,0.62503185655508,1368840,32768,0.0057780799769402,0.0057780799769947,0.0057780799768708,29.149898230259,29.148194585715,0.00014839918584207,0.00014839918584207,0.00014839918584207,258678.21914213,0.017485546737067
33091200,0.99999462686161,0.016914962938072,0.0056383209793592,0.0056383209794184,0.0056383209792941,-0.0013908042160852,0.0013908042152234,6.2168654907914e-12,-7.0735620251827e-12,9.1334503911247e-14,-9.7848810785996e-13,-0.0014154198266641,0.0014154198306656,-0.00141541983121,0.0014154198260994,-0.001415419827638,0.0014154198308319,-0.0014154198319979,0.0014154198264782,-0.0013637833956423,0.0013637834081128,-0.0013637834091775,0.0013637833942885,-7.8111960792039e-13,3.3901481980055e-13,4.8278057491424e-13,1.6424377658301e-13,-0.0013908042157176,0.001390804215624,-0.0014154198287957,0.0014154198289224,-0.0014154198289358,0.0014154198290731,-0.0014154198283766,0.0014154198295801,-0.0014154198285289,0.0014154198292924,-0.0013637834015333,0.0013637834017134,-0.001363783400501,0.0013637833999966,-0.001363783402707,0.0013637833992684,-0.0013637834014686,0.001363783400161,-6.9048454146534e-12,6.8976191354113e-12,-0.0013908042156565,0.0013908042156268,-1.7534937849097e-13,1.671023363148e-13,-0.0014154198314514,0.0014154198266312,-0.0014154198313079,0.0014154198263016,-0.0014154198267553,0.0014154198312917,-0.0014154198265094,0.0014154198313234,-0.0013637833929417,0.0013637834069874,-0.0013637834069462,0.0013637833930519,0.75302747849061,0.79978099776202,1368840,32768,0.0057782439618997,0.005778243961968,0.0057782439618476,29.124396140821,29.12269208263,0.00014819516912657,0.00014819516912657,0.00014819516912657,255887.75073028,0.017486047009123
33177600,0.99999482146705,0.016914966164288,0.0056383220547646,0.0056383220548238,0.0056383220546996,-0.0013911912731269,0.0013911912722626,6.2029073289683e-12,-7.0705231768409e-12,8.9748317074048e-14,-9.7540479028849e-13,-0.0014155909738701,0.0014155909778505,-0.0014155909784023,0.0014155909733041,-0.0014155909748535,0.0014155909780223,-0.001415590979171,0.001415590973678,-0.001364372142283,0.0013643721547911,-0.0013643721559052,0.0013643721409175,-7.7441590094933e-13,3.410871094347e-13,4.7522377635749e-13,1.5060245802181e-13,-0.00139119127276,0.0013911912726617,-0.0014155909760043,0.0014155909761391,-0.001415590976138,0.0014155909762851,-0.0014155909755751,0.0014155909767782,-0.001415590975719,0.0014155909764996,-0.0013643721482923,0.0013643721483462,-0.0013643721471675,0.001364372146631,-0.0013643721493262,0.0013643721459077,-0.0013643721481474,0.0013643721468618,-6.8950358319765e-12,6.890434884297e-12,-0.0013911912726959,0.0013911912726668,-1.7914208615577e-13,1.6940929525055e-13,-0.0014155909786493,0.0014155909738377,-0.0014155909784872,0.0014155909735144,-0.0014155909739745,0.0014155909784822,-0.0014155909737136,0.0014155909785207,-0.0013643721396544,0.0013643721537432,-0.0013643721536932,0.0013643721397085,0.75593956102134,0.82129808892253,1368840,32768,0.0057798477588874,0.0057798477589543,0.0057798477588322,29.098893767799,29.097189579545,0.00014799115014239,0.00014799115014239,0.00014799115014239,243311.04832465,0.017490941290687
33264000,0.99999500885237,0.016914969284159,0.0056383230947217,0.0056383230947809,0.0056383230946567,-0.0013912192096011,0.0013912192087353,6.2028873295793e-12,-7.0691716298945e-12,8.8500237554962e-14,-9.8049734059693e-13,-0.0014155866780252,0.0014155866820084,-0.0014155866825589,0.0014155866774622,-0.001415586679009,0.0014155866821769,-0.0014155866833274,0.0014155866778308,-0.0013644271419334,0.0013644271544433,-0.0013644271555653,0.0013644271405921,-7.7481382996935e-13,3.4451588704084e-13,4.7278835075807e-13,1.5322631904113e-13,-0.0013912192092323,0.0013912192091364,-0.0014155866801565,0.0014155866802925,-0.0014155866802889,0.0014155866804384,-0.0014155866797244,0.0014155866809331,-0.0014155866798676,0.0014155866806557,-0.0013644271479443,0.0013644271479941,-0.0013644271468153,0.0013644271462759,-0.0013644271489881,0.0013644271455656,-0.0013644271478251,0.0013644271465219,-6.8960129785959e-12,6.8881193373883e-12,-0.0013912192091701,0.0013912192091394,-1.7634340694761e-13,1.6717595171296e-13,-0.0014155866828043,0.0014155866779897,-0.0014155866826418,0.0014155866776666,-0.0014155866781269,0.0014155866826344,-0.0014155866778674,0.0014155866826728,-0.001364427139314,0.0013644271533798,-0.0013644271533606,0.0013644271393618,0.75905499281825,0.84281518008304,1368840,32768,0.0057799634995095,0.0057799634995765,0.005779963499454,29.082801471208,29.081704558562,0.00014786241176966,0.00014786241176966,0.00014786241176966,241140.03989143,0.017491294545542
33350400,0.99999519071883,0.016914972325453,0.0056383241084863,0.0056383241085455,0.0056383241084213,-0.0013915132716947,0.0013915132708191,6.2005959878135e-12,-7.0873333691834e-12,1.0568588901569e-13,-1.0109162936717e-12,-0.0014158456756307,0.001415845679612,-0.0014158456801655,0.0014158456750762,-0.0014158456766226,0.0014158456797728,-0.0014158456809368,0.0014158456754295,-0.0013647495325233,0.0013647495449948,-0.0013647495462251,0.0013647495312767,-8.0377753338338e-13,3.6311849521452e-13,4.5152085340669e-13,1.7967542280387e-13,-0.0013915132713145,0.0013915132712329,-0.0014158456777462,0.0014158456778852,-0.0014158456778705,0.0014158456780497,-0.0014158456773064,0.001415845678535,-0.0014158456774366,0.0014158456782774,-0.0013647495385583,0.0013647495385755,-0.0013647495374972,0.001364749536875,-0.0013647495396091,0.0013647495361429,-0.0013647495384842,0.0013647495371691,-6.9245789294551e-12,6.8754652827845e-12,-0.0013915132712706,0.0013915132712156,-1.5999649456986e-13,1.3606981374883e-13,-0.001415845680409,0.0014158456755787,-0.0014158456802471,0.0014158456752271,-0.0014158456757211,0.0014158456802327,-0.0014158456754746,0.0014158456802465,-0.0013647495299448,0.0013647495438378,-0.0013647495439746,0.0013647495298561,0.76237038151743,0.86433227124354,1368840,32768,0.0057811817116185,0.005781181711688,0.0057811817115616,29.205061563006,29.212920771612,0.00014884049250405,0.00014884049250405,0.00014884049250405,238910.13078151,0.017495013037189
33436800,0.99999536726305,0.016914975291348,0.005638325097118,0.0056383250971772,0.0056383250970529,-0.0013918219908922,0.0013918219901442,6.245999012547e-12,-7.039214721528e-12,1.8220043390181e-13,-9.4811768271443e-13,-0.0014161241160854,0.001416124120131,-0.001416124120791,0.0014161241158675,-0.0014161241170419,0.0014161241205305,-0.0014161241213113,0.0014161241159101,-0.001365082672437,0.0013650826861999,-0.0013650826870042,0.0013650826707717,-7.4589294877653e-13,4.339758011607e-13,4.422093143384e-13,1.4699559762069e-13,-0.0013918219906075,0.0013918219905374,-0.0014161241186135,0.0014161241186523,-0.0014161241182906,0.0014161241187069,-0.0014161241178446,0.0014161241189113,-0.001416124118664,0.0014161241190704,-0.0013650826783391,0.0013650826789797,-0.0013650826778688,0.001365082676792,-0.0013650826802521,0.001365082676723,-0.0013650826789437,0.0013650826777488,-6.7387446653879e-12,7.0588750032729e-12,-0.0013918219904158,0.001391821990612,-3.5157720073432e-14,2.8328743399864e-13,-0.0014161241207545,0.0014161241160964,-0.0014161241205448,0.0014161241160482,-0.0014161241163332,0.0014161241209154,-0.0014161241157889,0.0014161241208187,-0.0013650826696929,0.0013650826846967,-0.0013650826845414,0.0013650826702923,0.76586133069776,0.88584936240405,1368840,32768,0.0057824606326073,0.0057824606328318,0.0057824606325895,29.335447889512,29.344136984661,0.0001498835831161,0.0001498835831161,0.0001498835831161,236788.89078134,0.01749891690449
33523200,0.99999553859833,0.016914978183492,0.0056383260611659,0.0056383260612251,0.0056383260611008,-0.0013921310494007,0.0013921310485062,6.1882537178026e-12,-7.1104390750847e-12,1.1256409065606e-13,-1.0185825300617e-12,-0.0014164029997287,0.001416403003309,-0.0014164030041193,0.0014164029994845,-0.0014164030008757,0.0014164030041161,-0.0014164030048179,0.0014164029994299,-0.0013654158971772,0.0013654159098798,-0.0013654159103777,0.0013654158955636,-7.0547288946395e-13,4.7753858799452e-13,4.6225411374825e-13,1.9110857352897e-13,-0.0013921310489771,0.0013921310489311,-0.0014164030020286,0.0014164030018113,-0.0014164030021002,0.0014164030024761,-0.00141640300184,0.001416403002462,-0.0014164030022183,0.0014164030022283,-0.0013654159036828,0.0013654159046885,-0.0013654159015711,0.0013654159016775,-0.0013654159047043,0.0013654159016577,-0.0013654159032658,0.001365415903144,-6.9120366067321e-12,6.8980937679704e-12,-0.001392131048995,0.0013921310489831,-1.3405846342949e-13,1.6081205789025e-13,-0.0014164030039924,0.0014164029997345,-0.001416403004704,0.0014164029993974,-0.0014164030001008,0.00141640300423,-0.0014164029993395,0.0014164030043039,-0.0013654158949475,0.0013654159092824,-0.0013654159094884,0.0013654158956474,0.76950074916033,0.90736645356456,1368840,32768,0.0057837409542402,0.0057837409542426,0.0057837409543876,29.466577162687,29.475353197709,0.0001509326173015,0.0001509326173015,0.0001509326173015,234688.84968005,0.017502825069907
33609600,0.99999570483026,0.016914980985671,0.0056383269952256,0.0056383269952849,0.0056383269951606,-0.0013924390784659,0.0013924390775785,6.1990666227699e-12,-7.0897187668994e-12,1.2085683731834e-13,-1.0217609035528e-12,-0.001416680383373,0.0014166803873578,-0.0014166803879061,0.0014166803828059,-0.0014166803843894,0.0014166803875079,-0.0014166803887003,0.0014166803831594,-0.0013657482827729,0.0013657482952151,-0.0013657482964171,0.0013657482813569,-7.9065072851591e-13,4.0238041343693e-13,4.4339568986015e-13,1.9094334328252e-13,-0.001392439078075,0.0013924390780017,-0.001416680385534,0.0014166803856379,-0.0014166803856394,0.0014166803858086,-0.001416680385072,0.0014166803862999,-0.0014166803851983,0.0014166803860398,-0.0013657482887588,0.0013657482888163,-0.0013657482876487,0.0013657482871783,-0.0013657482897943,0.0013657482864147,-0.0013657482885059,0.0013657482873768,-6.924304584895e-12,6.8766215121684e-12,-0.0013924390780392,0.0013924390779783,-1.6361758983024e-13,1.1310451532293e-13,-0.0014166803881546,0.0014166803833411,-0.0014166803880177,0.0014166803829916,-0.0014166803834787,0.001416680387993,-0.0014166803832379,0.0014166803880017,-0.0013657482801332,0.0013657482941633,-0.0013657482941678,0.0013657482801032,0.76843341849442,0.85812931190057,1368840,32768,0.0057850170081285,0.0057850170081956,0.005785017008073,29.597782952575,29.606569410759,0.0001519822636206,0.0001519822636206,0.0001519822636206,232604.18611918,0.017506720224995
33696000,0.99999586606318,0.016914983726508,0.005638327908838,0.0056383279088972,0.005638327908773,-0.0013925918679086,0.0013925918670822,6.2190555415339e-12,-7.0532880563032e-12,1.556963612301e-13,-1.0217223164963e-12,-0.0014168803799424,0.0014168803839514,-0.0014168803842639,0.0014168803794593,-0.0014168803809478,0.0014168803841844,-0.0014168803852758,0.0014168803797421,-0.0013658542786327,0.0013658542911849,-0.0013658542922801,0.0013658542769628,-7.7998270147563e-13,4.4779520251688e-13,4.5802333123104e-13,2.3166689332367e-13,-0.0013925918675479,0.0013925918675026,-0.0014168803821893,0.0014168803821606,-0.0014168803822298,0.0014168803824317,-0.0014168803817632,0.0014168803828774,-0.0014168803817971,0.0014168803826601,-0.0013658542847554,0.0013658542846971,-0.0013658542834492,0.0013658542830994,-0.001365854285506,0.0013658542821442,-0.0013658542843558,0.0013658542830873,-6.8651827439678e-12,6.9192629742069e-12,-0.0013925918675066,0.0013925918674744,-1.2015703516741e-13,1.3059033408435e-13,-0.0014168803847214,0.0014168803797489,-0.0014168803845944,0.0014168803795182,-0.001416880380053,0.0014168803844587,-0.0014168803796674,0.0014168803844523,-0.0013658542758948,0.0013658542900944,-0.0013658542899651,0.0013658542759198,0.77489380907663,0.94143566578772,1368840,32768,0.0057856498413009,0.0057856498414246,0.0057856498412807,29.728990318902,29.737785623809,0.00015303192255121,0.00015303192255121,0.00015303192255121,234904.01859551,0.017508652377033
33782400,0.99999602240094,0.016914986386737,0.005638328795581,0.0056383287956402,0.005638328795516,-0.0013930264611063,0.0013930264602188,6.1951344487774e-12,-7.0897149434868e-12,1.1505630863816e-13,-1.0259884214639e-12,-0.0014172255332768,0.0014172255372667,-0.0014172255378165,0.0014172255327167,-0.0014172255342846,0.0014172255374167,-0.0014172255386079,0.0014172255330637,-0.001366369106291,0.0013663691187154,-0.0013663691198765,0.0013663691048414,-7.9998220815149e-13,3.9135945600196e-13,4.2935561877468e-13,2.2033571007177e-13,-0.0013930264607147,0.0013930264606427,-0.0014172255354366,0.0014172255355334,-0.0014172255355299,0.0014172255357235,-0.0014172255349802,0.0014172255361975,-0.0014172255350872,0.0014172255359601,-0.0013663691123205,0.0013663691122917,-0.0013663691110814,0.001366369110667,-0.0013663691133136,0.0013663691098703,-0.0013663691120486,0.0013663691108643,-6.9178501350152e-12,6.8792361087648e-12,-0.0013930264606811,0.0013930264606174,-1.359411412091e-13,9.7484551325638e-14,-0.0014172255380668,0.001417225533251,-0.0014172255379454,0.0014172255328867,-0.0014172255333884,0.0014172255379041,-0.0014172255331622,0.0014172255379011,-0.0013663691036983,0.0013663691177092,-0.0013663691176982,0.0013663691036728,0.77568247360133,0.9123616557077,1368840,32768,0.0057874503310268,0.0057874503310938,0.0057874503309719,29.860202853814,29.869001836858,0.00015408162283051,0.00015408162283051,0.00015408162283051,229465.50038396,0.017514147956276
33868800,0.99999617394681,0.016914988944289,0.0056383296480983,0.0056383296481576,0.0056383296480333,-0.001393226462621,0.0013932264617194,6.1881413094719e-12,-7.1022259730481e-12,9.9379552258189e-14,-1.0255717283112e-12,-0.0014174492664789,0.0014174492704587,-0.0014174492710286,0.0014174492659329,-0.0014174492674669,0.0014174492706321,-0.0014174492718477,0.0014174492662651,-0.0013665431134752,0.0013665431258807,-0.0013665431270245,0.0013665431119758,-7.7898676131269e-13,3.9623013073561e-13,4.2073173516959e-13,2.158942575198e-13,-0.0013932264622239,0.0013932264621506,-0.0014174492686696,0.0014174492687733,-0.001417449268788,0.0014174492689562,-0.0014174492681931,0.0014174492693958,-0.001417449268324,0.0014174492691509,-0.0013665431194799,0.0013665431195088,-0.0013665431183869,0.0013665431178662,-0.0013665431202987,0.0013665431171563,-0.0013665431192015,0.0013665431180642,-6.9220601828717e-12,6.8806312132042e-12,-0.0013932264621958,0.001393226462122,-1.5135358213431e-13,7.7800152670505e-14,-0.0014174492713085,0.0014174492664844,-0.0014174492711663,0.0014174492661138,-0.0014174492666085,0.0014174492711155,-0.0014174492663929,0.0014174492711179,-0.0013665431109156,0.0013665431249701,-0.0013665431249474,0.001366543110919,0.76926648009838,0.79912606441465,1368840,32768,0.0057882787742164,0.0057882787742871,0.0057882787741697,29.991420414689,30.000218049907,0.00015513136331751,0.00015513136331751,0.00015513136331751,230381.24370562,0.017516677124191
33955200,0.99999632080338,0.016914991416294,0.0056383304721,0.0056383304721592,0.005638330472035,-0.0013932301726947,0.0013932301718288,6.2154969443642e-12,-7.0828823286891e-12,1.0763965285896e-13,-9.996164035815e-13,-0.0014175744460361,0.0014175744500948,-0.0014175744506455,0.00141757444546,-0.0014175744469877,0.0014175744503395,-0.0014175744513902,0.0014175744459302,-0.0013664332051414,0.0013664332174242,-0.0013664332190668,0.0013664332035491,-7.8907192380613e-13,3.6824433862352e-13,4.4619939832643e-13,1.9902983153997e-13,-0.0013932301723097,0.0013932301722499,-0.0014175744481736,0.0014175744483721,-0.0014175744482123,0.0014175744484869,-0.001417574447742,0.0014175744489993,-0.0014175744478521,0.0014175744487002,-0.0013664332111509,0.0013664332109756,-0.0013664332102572,0.001366433209442,-0.0013664332117521,0.0013664332089792,-0.0013664332107053,0.001366433209497,-6.9320379368817e-12,6.8785790406025e-12,-0.0013932301723104,0.0013932301722018,-1.9550802736397e-13,7.6041706389831e-14,-0.0014175744508172,0.0014175744459631,-0.0014175744507196,0.0014175744456826,-0.001417574446185,0.0014175744505688,-0.0014175744459283,0.0014175744505864,-0.0013664332025619,0.0013664332165864,-0.0013664332164618,0.0013664332021695,0.76728907595336,0.77434335722282,1368840,32768,0.0057882939348598,0.0057882939349344,0.0057882939348367,30.12263461844,30.131434262956,0.00015618107694751,0.00015618107694751,0.00015618107694751,237005.56095286,0.017516724142857
34041600,0.99999646316754,0.01691499380578,0.0056383312685953,0.0056383312686545,0.0056383312685303,-0.0013934432298785,0.0013934432290327,6.2131358988455e-12,-7.0644374804018e-12,1.3765479474051e-13,-9.8763076973439e-13,-0.0014178215119565,0.0014178215158773,-0.0014178215164777,0.001417821511447,-0.0014178215129831,0.0014178215161798,-0.0014178215171547,0.0014178215116033,-0.0013666150184443,0.0013666150308576,-0.0013666150325277,0.0013666150168021,-7.5854594458914e-13,4.1683679533379e-13,4.5215559872154e-13,1.8995713811629e-13,-0.0013934432294811,0.0013934432294323,-0.0014178215140826,0.0014178215142693,-0.0014178215140024,0.0014178215142391,-0.0014178215136666,0.0014178215147783,-0.001417821513921,0.0014178215144992,-0.0013666150242479,0.0013666150246476,-0.0013666150230158,0.0013666150230569,-0.0013666150254616,0.0013666150225982,-0.0013666150242202,0.0013666150237039,-6.8692480315408e-12,6.9205083185154e-12,-0.0013934432294011,0.0013934432294212,-1.5271365823198e-13,1.3391808536501e-13,-0.0014178215166124,0.001417821511982,-0.0014178215164333,0.001417821511679,-0.0014178215119215,0.0014178215166361,-0.0014178215116956,0.0014178215165763,-0.0013666150159728,0.0013666150305688,-0.0013666150300196,0.0013666150159277,0.7651535367322,0.75098643361818,1368840,32768,0.0057891765192541,0.0057891765192584,0.00578917651907,30.265684709688,30.275253871846,0.0001573254776775,0.0001573254776775,0.0001573254776775,238598.73149224,0.017519418391052
34128000,0.99999660212184,0.016914996130931,0.0056383320436455,0.0056383320437047,0.0056383320435805,-0.0013939040082511,0.001393904007139,6.0738200372024e-12,-7.2113011702875e-12,5.2674684942179e-14,-1.1690387572567e-12,-0.0014183122613956,0.0014183122648401,-0.0014183122655839,0.0014183122606863,-0.0014183122625154,0.0014183122654293,-0.0014183122669177,0.0014183122606389,-0.0013670479723862,0.001367047983733,-0.0013670479856032,0.001367047970828,-7.5540665813924e-13,5.173801943902e-13,4.4853623870227e-13,1.8601305272304e-13,-0.0013939040077246,0.0013939040076621,-0.0014183122637014,0.0014183122633028,-0.0014183122639167,0.001418312263508,-0.0014183122635637,0.0014183122638635,-0.0014183122632513,0.0014183122635347,-0.0013670479774538,0.0013670479778452,-0.0013670479758403,0.0013670479762452,-0.0013670479789022,0.001367047975589,-0.0013670479777127,0.001367047976303,-7.0221633600825e-12,6.7753863695384e-12,-0.0013939040077526,0.0013939040074891,-2.8347939872249e-13,5.2866032037833e-15,-0.0014183122659641,0.001418312260967,-0.0014183122659154,0.0014183122605516,-0.0014183122616599,0.0014183122657845,-0.0014183122612823,0.0014183122657621,-0.0013670479691996,0.0013670479825487,-0.0013670479829586,0.001367047968794,0.76284119406508,0.72762951001354,1368840,32768,0.0057910853264475,0.0057910853264403,0.00579108532614,30.535934136911,30.55378250381,0.00015948747309529,0.00015948747309529,0.00015948747309529,240088.79974679,0.017525245209444
34214400,0.99999673771643,0.016914998386447,0.0056383327954844,0.0056383327955436,0.0056383327954194,-0.0013943782454406,0.0013943782441568,5.9808577594891e-12,-7.2523173290367e-12,-1.7388527615947e-14,-1.3236954443657e-12,-0.0014188199197793,0.001418819923719,-0.0014188199246498,0.0014188199190938,-0.0014188199207295,0.0014188199237372,-0.001418819925518,0.0014188199191052,-0.0013674924174409,0.0013674924300067,-0.0013674924316329,0.0013674924163527,-8.6351926713795e-13,4.9793108266486e-13,3.495581741789e-13,1.6001349405054e-13,-0.0013943782448954,0.0013943782447284,-0.001418819921762,0.001418819921807,-0.0014188199217516,0.0014188199220176,-0.0014188199216009,0.0014188199226571,-0.0014188199211997,0.0014188199220518,-0.0013674924235133,0.0013674924237732,-0.0013674924225867,0.0013674924216395,-0.0013674924257758,0.0013674924217017,-0.0013674924235562,0.0013674924231411,-7.0496312268404e-12,6.6953635200639e-12,-0.0013943782450005,0.001394378244678,-2.6560238602942e-13,-5.0916238661506e-14,-0.0014188199247078,0.0014188199193922,-0.0014188199247153,0.0014188199188193,-0.001418819920035,0.0014188199243075,-0.0014188199194531,0.0014188199241277,-0.0013674924153578,0.0013674924289354,-0.001367492429819,0.0013674924152804,0.75834979506985,0.67431668349712,1368840,32768,0.0057930498782874,0.005793049878342,0.0057930498784553,30.813685848511,30.832311135774,0.00016170948678809,0.00016170948678809,0.00016170948678809,241696.5567413,0.017531242261106
34300800,0.99999686994746,0.016915000570083,0.0056383335233628,0.005638333523422,0.0056383335232978,-0.0013947775298606,0.0013947775289305,6.1062782809194e-12,-7.0212213300373e-12,1.9825194353921e-13,-1.1668382950675e-12,-0.0014192899111204,0.0014192899148098,-0.0014192899150804,0.0014192899103327,-0.0014192899119837,0.00141928991493,-0.0014192899160182,0.0014192899104526,-0.0013678281435415,0.0013678281553766,-0.0013678281571337,0.0013678281426562,-7.9078769491991e-13,6.2549959729901e-13,5.738172643941e-13,3.537313996309e-13,-0.0013947775292588,0.0013947775294723,-0.0014192899130257,0.0014192899130702,-0.001419289912873,0.0014192899133268,-0.0014192899121648,0.0014192899141461,-0.0014192899125202,0.00141928991399,-0.0013678281494515,0.00136782814994,-0.0013678281485635,0.0013678281481671,-0.0013678281503725,0.0013678281476785,-0.0013678281493082,0.0013678281487243,-6.7712098500694e-12,6.8687496350018e-12,-0.0013947775293576,0.0013947775294113,-8.7410064976633e-14,1.5594567714308e-13,-0.0014192899152044,0.001419289910808,-0.001419289915231,0.0014192899105525,-0.0014192899106937,0.0014192899154356,-0.0014192899106887,0.0014192899152354,-0.001367828141606,0.0013678281546414,-0.0013678281556302,0.0013678281416897,0.75287685979394,0.61110028707411,1368840,32768,0.0057947038722679,0.0057947038721435,0.0057947038722221,31.092125598181,31.110839767739,0.00016393700478545,0.00016393700478545,0.00016393700478545,245498.20707713,0.017536291532819
34387200,0.99999699880952,0.016915002704255,0.0056383342347536,0.0056383342348128,0.0056383342346886,-0.0013951436451051,0.0013951436442861,6.1929441039263e-12,-6.9388201414547e-12,2.307388922617e-13,-1.1184194801114e-12,-0.0014197414777127,0.0014197414817291,-0.0014197414823965,0.0014197414770499,-0.0014197414789405,0.0014197414818946,-0.0014197414834845,0.001419741477692,-0.0013681175112546,0.0013681175233691,-0.0013681175246426,0.0013681175101924,-8.7643654899445e-13,5.2192299678718e-13,5.2969149475902e-13,3.2096104780148e-13,-0.0013951436446674,0.0013951436447375,-0.0014197414800711,0.0014197414800691,-0.0014197414805138,0.001419741480319,-0.0014197414796932,0.0014197414809164,-0.0014197414794845,0.001419741480583,-0.0013681175170477,0.0013681175178793,-0.0013681175156351,0.0013681175154128,-0.0013681175179977,0.0013681175150132,-0.0013681175170165,0.0013681175159047,-6.8705860494888e-12,6.7740193230654e-12,-0.0013951436447909,0.0013951436446785,-1.1432224282807e-13,1.1875698970254e-13,-0.0014197414827972,0.0014197414778563,-0.0014197414822448,0.0014197414776254,-0.0014197414779619,0.0014197414822594,-0.0014197414780396,0.0014197414824119,-0.0013681175094524,0.0013681175224778,-0.0013681175229524,0.0013681175086479,0.75509894474181,0.6669037967163,1368840,32768,0.0057962204380666,0.005796220438095,0.0057962204382287,31.370630230536,31.389368399703,0.00016616504184429,0.00016616504184429,0.00016616504184429,250283.0463979,0.017540921371642
34473600,0.99999712430038,0.016915004789977,0.0056383349299942,0.0056383349300534,0.0056383349299291,-0.0013958186665462,0.0013958186654398,6.0243968999865e-12,-7.1230229259508e-12,7.9074172573601e-14,-1.2939092954886e-12,-0.0014203564142731,0.0014203564181562,-0.001420356419009,0.0014203564135486,-0.0014203564154776,0.0014203564183793,-0.0014203564195876,0.0014203564139242,-0.0013688513220217,0.0013688513336324,-0.0013688513344953,0.0013688513203446,-1.0346759501835e-12,3.8816908287744e-13,3.6131172688064e-13,1.8048575099008e-13,-0.0013958186661043,0.0013958186659089,-0.0014203564167424,0.001420356416576,-0.0014203564169163,0.0014203564166544,-0.0014203564160579,0.0014203564173694,-0.0014203564159136,0.0014203564171369,-0.0013688513275402,0.0013688513278231,-0.0013688513263262,0.0013688513260125,-0.0013688513289493,0.0013688513253413,-0.001368851327878,0.0013688513264746,-6.8809611443015e-12,6.7787321790909e-12,-0.0013958186660907,0.0013958186659302,-1.7290692369452e-13,3.2913318050138e-14,-0.0014203564194637,0.0014203564142633,-0.0014203564190175,0.0014203564139236,-0.0014203564144357,0.0014203564186351,-0.0014203564141287,0.0014203564186713,-0.0013688513192396,0.0013688513324885,-0.0013688513328394,0.0013688513192513,0.75783068676421,0.72270730635844,1368840,32768,0.0057990169043917,0.0057990169044479,0.005799016904464,31.649140449334,31.667897031668,0.00016839312359467,0.00016839312359467,0.00016839312359467,246345.41986018,0.017549457502962
34560000,0.99999724642136,0.016915006829043,0.0056383356096831,0.0056383356097423,0.005638335609618,-0.0013964918265691,0.0013964918255832,6.0505756884778e-12,-7.0318060655045e-12,1.4409600973052e-13,-1.1954858316696e-12,-0.0014209632424436,0.0014209632464928,-0.0014209632470318,0.0014209632419203,-0.0014209632438326,0.0014209632467403,-0.0014209632478753,0.0014209632425175,-0.0013695875850173,0.0013695875970264,-0.0013695875978706,0.001369587583631,-8.3048959970103e-13,5.5891663136292e-13,4.9264059722674e-13,3.2260914451208e-13,-0.0013964918260737,0.0013964918261341,-0.00142096324484,0.0014209632448532,-0.0014209632447313,0.0014209632450852,-0.0014209632441915,0.0014209632454543,-0.0014209632441357,0.0014209632452344,-0.0013695875909269,0.0013695875910633,-0.0013695875891651,0.0013695875893792,-0.0013695875921598,0.0013695875888658,-0.0013695875909418,0.0013695875901443,-6.7932546472042e-12,6.8012994896751e-12,-0.00139649182607,0.0013964918260788,-6.8829956115617e-14,1.2549734261292e-13,-0.0014209632473555,0.0014209632424344,-0.0014209632470374,0.0014209632423301,-0.001420963242708,0.0014209632469783,-0.0014209632422942,0.0014209632471332,-0.0013695875828322,0.0013695875963975,-0.0013695875964481,0.0013695875831982,0.76127760621242,0.77851081600059,1368840,32768,0.0058018056354561,0.0058018056355709,0.0058018056354489,31.927649494422,31.946425663632,0.00017062119595537,0.00017062119595537,0.00017062119595537,242329.84394984,0.017557970129497
34646400,0.99999736517732,0.016915008823462,0.0056383362744894,0.0056383362745486,0.0056383362744244,-0.0013971631060293,0.0013971631050881,6.0824177157257e-12,-7.0120139054355e-12,2.0664468714665e-13,-1.1818123670316e-12,-0.0014215683631616,0.0014215683670971,-0.0014215683676196,0.001421568362448,-0.0014215683641382,0.0014215683669744,-0.0014215683684204,0.0014215683626908,-0.0013703206331867,0.0013703206452345,-0.0013703206464607,0.0013703206319971,-8.9135562263875e-13,5.4779997096926e-13,4.8331026461494e-13,2.4842346965706e-13,-0.0013971631055797,0.0013971631055649,-0.0014215683653336,0.0014215683653752,-0.0014215683651217,0.0014215683656038,-0.0014215683646052,0.0014215683661246,-0.001421568365,0.0014215683657809,-0.001370320638723,0.0013703206395816,-0.0013703206378181,0.001370320637448,-0.0013703206404825,0.0013703206368609,-0.0013703206385745,0.0013703206382398,-6.8293524856165e-12,6.7771978142e-12,-0.0013971631056052,0.0013971631055191,-1.5116964657695e-13,1.0731972145618e-13,-0.0014215683676764,0.0014215683629352,-0.0014215683677251,0.0014215683625775,-0.0014215683633287,0.001421568367614,-0.0014215683629655,0.0014215683676691,-0.001370320630762,0.0013703206442327,-0.0013703206446709,0.0013703206308561,0.76566262112517,0.83431432564275,1368840,32768,0.0058045865527929,0.0058045865528492,0.0058045865528072,32.206156210655,32.224954295597,0.00017284924968524,0.00017284924968524,0.00017284924968524,238298.14099993,0.017566459027531
34732800,0.99999748132472,0.016915010787677,0.0056383369292277,0.0056383369292869,0.0056383369291627,-0.0013980585308992,0.0013980585298911,6.0435174923361e-12,-7.083284904626e-12,1.6330877573488e-13,-1.2339611856857e-12,-0.0014223929237342,0.0014223929277154,-0.0014223929282812,0.0014223929231812,-0.0014223929248163,0.0014223929277789,-0.0014223929291564,0.0014223929234778,-0.0013712794816694,0.0013712794932176,-0.0013712794945239,0.0013712794798725,-8.3646641711336e-13,6.1101980435263e-13,6.0650156002895e-13,2.1910624763101e-13,-0.0013980585303872,0.0013980585304319,-0.0014223929259338,0.0014223929260318,-0.0014223929260642,0.0014223929261465,-0.001422392925304,0.0014223929267792,-0.0014223929255047,0.0014223929264768,-0.0013712794870841,0.0013712794873455,-0.0013712794862019,0.0013712794858711,-0.0013712794883955,0.0013712794848151,-0.0013712794871022,0.0013712794859677,-6.7818325843756e-12,6.8572494569126e-12,-0.0013980585303682,0.0013980585303986,-1.6216998699469e-13,2.4867131502673e-13,-0.0014223929284804,0.0014223929236213,-0.0014223929282765,0.0014223929233704,-0.001422392923824,0.0014223929282863,-0.0014223929235184,0.001422392928378,-0.0013712794791261,0.0013712794927277,-0.0013712794924104,0.0013712794792754,0.77095584733303,0.89011783528492,1368840,32768,0.0058082959814883,0.0058082959815479,0.0058082959814396,32.601613430453,32.628077043768,0.00017601290744362,0.00017601290744362,0.00017601290744362,234127.13720889,0.0175777825107
34819200,0.99999759509935,0.016915012708226,0.0056383375694107,0.0056383375694699,0.0056383375693457,-0.0013990445219495,0.0013990445209764,6.065245240333e-12,-7.0152219250797e-12,8.3812498409234e-14,-1.0901001099546e-12,-0.0014233112056232,0.0014233112095034,-0.0014233112101044,0.0014233112050277,-0.0014233112066719,0.0014233112095862,-0.0014233112109521,0.001423311205309,-0.0013723249867793,0.0013723249989165,-0.0013723250000977,0.0013723249854709,-7.9723217451607e-13,4.2716677387769e-13,6.2577911817161e-13,6.0400801855787e-15,-0.0013990445215028,0.0013990445214573,-0.0014233112076412,0.0014233112078735,-0.0014233112078683,0.0014233112078787,-0.0014233112071041,0.0014233112085904,-0.0014233112074045,0.0014233112081969,-0.0013723249927862,0.0013723249929195,-0.0013723249914388,0.0013723249909386,-0.0013723249936195,0.0013723249903903,-0.0013723249924707,0.0013723249914958,-6.7752935488446e-12,6.8173285588215e-12,-0.0013990445214382,0.001399044521458,-2.8721251997231e-13,3.5522961856723e-13,-0.0014233112103716,0.0014233112055119,-0.0014233112100946,0.0014233112053168,-0.0014233112057497,0.0014233112101152,-0.0014233112053566,0.0014233112102821,-0.0013723249842226,0.0013723249980526,-0.001372324998086,0.0013723249845707,0.76949572779252,0.83758763975058,1368840,32768,0.0058123805491377,0.0058123805492084,0.0058123805490762,33.04516736761,33.075062787206,0.00017956133894088,0.00017956133894088,0.00017956133894088,229990.43738539,0.017590251410958
34905600,0.99999770643028,0.016915014584436,0.0056383381948141,0.0056383381948733,0.0056383381947491,-0.0013997998213998,0.001399799820766,6.2713850017283e-12,-6.7803213952473e-12,2.9023989807622e-13,-9.3014476118661e-13,-0.001424115207573,0.0014241152112564,-0.001424115212496,0.0014241152072305,-0.0014241152086005,0.0014241152115138,-0.0014241152125654,0.001424115206727,-0.0013730323424957,0.0013730323540448,-0.0013730323555949,0.0013730323425439,-6.0554614803966e-13,6.6768548501969e-13,7.2449130846431e-13,1.6381652492938e-13,-0.0013997998209188,0.0013997998212732,-0.0014241152099256,0.0014241152104925,-0.001424115209899,0.001424115209818,-0.0014241152092209,0.0014241152108372,-0.0014241152092767,0.001424115210482,-0.0013730323485479,0.0013730323483368,-0.0013730323476026,0.0013730323467732,-0.0013730323495836,0.0013730323462723,-0.0013730323471491,0.0013730323489107,-6.6986114208427e-12,6.8646767888362e-12,-0.0013997998210796,0.0013997998211447,-2.2474357541451e-13,3.6102029460723e-13,-0.0014241152121822,0.0014241152071894,-0.0014241152119575,0.0014241152077251,-0.0014241152079996,0.0014241152112571,-0.0014241152070798,0.0014241152125777,-0.0013730323401529,0.0013730323532229,-0.0013730323533005,0.0013730323399871,0.76818887624198,0.80613688129706,1368840,32768,0.0058155092644992,0.0058155092645535,0.0058155092646204,33.491794936806,33.522048530644,0.00018313435949444,0.00018313435949444,0.00018313435949444,232471.7528022,0.017599803132645
34992000,0.99999781523294,0.016915016407949,0.0056383388026517,0.0056383388027109,0.0056383388025867,-0.0014005939621026,0.001400593961027,6.0321910736445e-12,-7.0999545130279e-12,3.2089607919799e-14,-1.3008454953572e-12,-0.0014249445344742,0.0014249445383581,-0.0014249445391433,0.0014249445339395,-0.0014249445354691,0.0014249445383468,-0.0014249445398401,0.0014249445343448,-0.0013737933219879,0.0013737933332383,-0.0013737933350339,0.001373793319863,-8.8013070084653e-13,5.042575952766e-13,6.1642069818256e-13,3.0300691981718e-14,-0.0014005939616225,0.0014005939615858,-0.001424944536452,0.0014249445371365,-0.0014249445368292,0.0014249445368088,-0.0014249445357991,0.0014249445376411,-0.0014249445361398,0.0014249445374585,-0.0013737933264817,0.0013737933273299,-0.0013737933258576,0.0013737933260545,-0.0013737933277724,0.0013737933249814,-0.0013737933270135,0.0013737933272987,-6.813895251942e-12,6.8302392820549e-12,-0.0014005939615677,0.0014005939615191,-2.9629912473571e-13,3.130250549465e-13,-0.0014249445393683,0.0014249445342215,-0.0014249445389383,0.0014249445344493,-0.0014249445346566,0.0014249445388866,-0.0014249445342463,0.0014249445391632,-0.0013737933188865,0.0013737933325852,-0.0013737933318931,0.0013737933191834,0.76399337136536,0.74465079368024,1368840,32768,0.005818798926901,0.005818798927064,0.0058187989268125,33.938715449306,33.969034274082,0.00018670972359444,0.00018670972359444,0.00018670972359444,234093.60790115,0.01760984609254
35078400,0.99999792142657,0.016915018179916,0.0056383393933074,0.0056383393933666,0.0056383393932423,-0.0014013121437891,0.0014013121427606,6.0968146876728e-12,-7.1050044175803e-12,1.3124140242995e-13,-1.2888820373032e-12,-0.0014257351259347,0.0014257351296055,-0.0014257351302212,0.0014257351253436,-0.0014257351269244,0.0014257351298707,-0.0014257351311872,0.0014257351256821,-0.0013744451755892,0.0013744451876276,-0.0013744451886908,0.0013744451738202,-1.0025154326652e-12,4.6805228955913e-13,6.5964517182221e-13,2.5467810211174e-14,-0.0014013121433418,0.0014013121432276,-0.001425735127893,0.0014257351281492,-0.0014257351280693,0.001425735128351,-0.0014257351271405,0.0014257351287467,-0.0014257351275646,0.001425735128337,-0.0013744451812919,0.0013744451811784,-0.0013744451808077,0.0013744451793368,-0.001374445182516,0.0013744451777217,-0.0013744451812477,0.0013744451800998,-6.7126528154172e-12,7.0011684426393e-12,-0.0014013121431271,0.0014013121433218,-2.4609009976343e-13,4.1070248273283e-13,-0.0014257351302994,0.0014257351257242,-0.0014257351299326,0.0014257351252396,-0.0014257351256916,0.0014257351303178,-0.0014257351253863,0.0014257351304234,-0.0013744451725402,0.0013744451868486,-0.0013744451866062,0.0013744451732828,0.76065629563435,0.70622966914048,1368840,32768,0.005821773879728,0.005821773879769,0.0058217738795195,34.38566151757,34.416020017521,0.00019028529214056,0.00019028529214056,0.00019028529214056,237961.38606471,0.01761892852954
35164800,0.99999802493623,0.01691501989881,0.0056383399662719,0.0056383399663311,0.0056383399662069,-0.0014020776008831,0.0014020775998651,6.0703006153065e-12,-7.1158236752947e-12,2.2443073203049e-13,-1.2301824187715e-12,-0.0014265515381656,0.0014265515422115,-0.0014265515425601,0.0014265515376205,-0.0014265515394846,0.001426551542284,-0.0014265515438698,0.0014265515379239,-0.0013751651412336,0.0013751651536673,-0.0013751651549079,0.0013751651398555,-9.4613950785219e-13,5.5822712301516e-13,6.8950978889042e-13,1.0005335520338e-13,-0.001402077600388,0.0014020776003981,-0.00142655154048,0.0014265515407348,-0.0014265515405798,0.0014265515404746,-0.0014265515399861,0.0014265515409701,-0.0014265515398117,0.001426551540697,-0.0013751651468512,0.0013751651482333,-0.0013751651464309,0.001375165145479,-0.0013751651485962,0.0013751651451929,-0.0013751651467901,0.0013751651467849,-6.804684121571e-12,6.8935436128569e-12,-0.0014020776003397,0.0014020776004235,-2.1951758800602e-13,3.9364565086616e-13,-0.001426551542735,0.0014265515380698,-0.0014265515426351,0.0014265515379892,-0.0014265515384321,0.0014265515428019,-0.0014265515379892,0.0014265515428586,-0.0013751651380813,0.0013751651525182,-0.001375165152622,0.0013751651387721,0.75704962508676,0.66780854460072,1368840,32768,0.0058249447112539,0.0058249447113324,0.0058249447112851,34.832609557409,34.863005760959,0.00019386087645927,0.00019386087645927,0.00019386087645927,240597.52788129,0.017628608866615
35251200,0.99999812569315,0.016915021563561,0.0056383405211888,0.005638340521248,0.0056383405211238,-0.001402839429401,0.0014028394284658,6.0326370011982e-12,-7.1540719774236e-12,2.6943041614455e-13,-1.1323229377233e-12,-0.001427366048516,0.001427366052365,-0.0014273660529787,0.0014273660477623,-0.0014273660495984,0.0014273660524618,-0.0014273660536731,0.0014273660482823,-0.0013758803618399,0.0013758803737168,-0.0013758803754201,0.0013758803597624,-9.4286531375893e-13,5.0948178862226e-13,6.7278209402767e-13,9.4765104991092e-14,-0.0014028394290311,0.0014028394289229,-0.0014273660504984,0.0014273660507193,-0.0014273660508029,0.0014273660506799,-0.0014273660501135,0.0014273660514395,-0.0014273660503672,0.0014273660511669,-0.0013758803668902,0.0013758803682112,-0.0013758803663603,0.0013758803656658,-0.001375880369036,0.0013758803646711,-0.0013758803669321,0.0013758803664748,-6.804828117172e-12,6.8944016160572e-12,-0.0014028394288956,0.0014028394289381,-2.0944474866552e-13,3.9124410658463e-13,-0.0014273660530643,0.00142736604847,-0.001427366053228,0.0014273660482383,-0.0014273660488046,0.0014273660528952,-0.0014273660484328,0.001427366053092,-0.0013758803587868,0.0013758803731143,-0.0013758803723815,0.0013758803585079,0.75326375741303,0.62938742006096,1368840,32768,0.0058281005035975,0.0058281005037782,0.005828100503529,35.279557136657,35.309991504398,0.00019743645709325,0.00019743645709325,0.00019743645709325,243372.07171722,0.017638243373835
35337600,0.99999822330482,0.016915023167919,0.005638341055975,0.0056383410560343,0.00563834105591,-0.0014034762156266,0.0014034762145228,6.0434299067765e-12,-7.0619871434932e-12,9.31341548155e-14,-1.2902309372717e-12,-0.0014280594889007,0.0014280594924413,-0.0014280594927778,0.0014280594883578,-0.0014280594898344,0.0014280594924279,-0.0014280594941756,0.0014280594880632,-0.0013764677562078,0.0013764677688606,-0.0013764677700342,0.0013764677549992,-8.7590765338714e-13,5.5781848843984e-13,7.4181569098102e-13,1.6731085935633e-13,-0.0014034762151035,0.0014034762151228,-0.0014280594905861,0.0014280594914105,-0.0014280594909561,0.0014280594911768,-0.0014280594905758,0.0014280594916782,-0.001428059490253,0.0014280594915594,-0.0013764677618117,0.0013764677624146,-0.0013764677612983,0.0013764677610938,-0.0013764677631046,0.0013764677598121,-0.0013764677628406,0.0013764677614314,-6.7296718249099e-12,6.8886023226334e-12,-0.0014034762149382,0.0014034762151471,-7.0318675342149e-14,5.2711063242612e-13,-0.0014280594933621,0.0014280594888882,-0.0014280594928772,0.0014280594882788,-0.0014280594887709,0.0014280594931794,-0.0014280594883817,0.0014280594931816,-0.0013764677531531,0.0013764677681655,-0.0013764677682487,0.0013764677547154,0.74935537445137,0.59096629552119,1368840,32768,0.0058307383018985,0.005830738302058,0.0058307383017659,35.663538358134,35.689862697491,0.00020050830686507,0.00020050830686507,0.00020050830686507,246319.67801393,0.017646296585776
35424000,0.99999831724869,0.016915024703721,0.005638341567909,0.0056383415679682,0.005638341567844,-0.0014039150667835,0.0014039150658128,5.9980213528002e-12,-7.0004262594301e-12,1.3060789237148e-13,-1.2104274928592e-12,-0.0014285574984724,0.0014285575021667,-0.0014285575029876,0.0014285574981261,-0.0014285574996797,0.0014285575024444,-0.0014285575035445,0.0014285574983351,-0.0013768554772202,0.0013768554898087,-0.001376855491396,0.0013768554761237,-9.9700383633482e-13,3.9425195587337e-13,6.0267538279839e-13,-1.0240069525846e-14,-0.0014039150663898,0.0014039150661873,-0.0014285575007305,0.0014285575004862,-0.0014285575007848,0.0014285575006548,-0.0014285574999211,0.0014285575013762,-0.0014285575001165,0.0014285575009266,-0.0013768554831979,0.001376855483266,-0.0013768554821044,0.0013768554816196,-0.0013768554837449,0.0013768554802408,-0.0013768554838422,0.0013768554815752,-6.6961517901004e-12,6.8153110322203e-12,-0.0014039150662258,0.0014039150663331,-2.3895634710645e-13,3.9602572521535e-13,-0.0014285575027248,0.0014285574983144,-0.0014285575027542,0.001428557498201,-0.0014285574989808,0.0014285575029367,-0.0014285574984974,0.0014285575031774,-0.0013768554742894,0.0013768554887794,-0.0013768554887638,0.0013768554748848,0.74536386860559,0.55254517098144,1368840,32768,0.0058325561579203,0.0058325561578802,0.0058325561578429,35.946798434233,35.96637022589,0.00020277438747386,0.00020277438747386,0.00020277438747386,249410.34504156,0.017651846624464
35510400,0.9999984075533,0.016915026189248,0.0056383420630846,0.0056383420631438,0.0056383420630195,-0.0014043386690035,0.001404338668063,6.0502412869288e-12,-6.9949423681357e-12,1.6661373359422e-13,-1.1492853607094e-12,-0.0014290406028133,0.0014290406067726,-0.0014290406072894,0.0014290406022895,-0.0014290406038862,0.0014290406068462,-0.0014290406081457,0.0014290406025804,-0.0013772274354767,0.0013772274475497,-0.0013772274488005,0.00137722743395,-8.8555735859527e-13,4.8049320361539e-13,6.6160952357732e-13,7.1322174097715e-14,-0.001404338668551,0.0014043386685465,-0.0014290406048915,0.0014290406051184,-0.0014290406051052,0.0014290406051988,-0.0014290406043699,0.0014290406058498,-0.0014290406045778,0.0014290406054902,-0.0013772274410152,0.0013772274415646,-0.0013772274400597,0.0013772274394924,-0.0013772274424196,0.0013772274386858,-0.0013772274411373,0.0013772274399568,-6.7284768025934e-12,6.8287491216959e-12,-0.0014043386684866,0.0014043386685522,-2.5538172767528e-13,3.5759769328299e-13,-0.0014290406075416,0.0014290406028026,-0.001429040607311,0.0014290406025509,-0.0014290406029137,0.0014290406073653,-0.0014290406025832,0.0014290406074936,-0.0013772274326878,0.0013772274466831,-0.0013772274464805,0.0013772274329196,0.75005025175094,0.64701585131699,1368840,32768,0.0058343108486901,0.0058343108487543,0.0058343108486329,36.22392647224,36.242877754288,0.00020499141177792,0.00020499141177792,0.00020499141177792,252577.36188402,0.017657203824952
35596800,0.99999849428128,0.016915027585185,0.0056383425283968,0.005638342528456,0.0056383425283318,-0.0014051176349282,0.0014051176339127,6.0166092555407e-12,-7.0641516067821e-12,2.0442057862105e-13,-1.2266285273405e-12,-0.001429699608628,0.001429699612505,-0.001429699613184,0.001429699607848,-0.0014296996095558,0.0014296996125558,-0.0014296996140082,0.001429699608261,-0.0013781203327497,0.0013781203448049,-0.0013781203462053,0.0013781203310533,-9.1385064131373e-13,5.6800441256097e-13,7.0045783678802e-13,1.4849849288474e-13,-0.0014051176344107,0.0014051176344699,-0.0014296996106789,0.0014296996109275,-0.0014296996108578,0.0014296996110522,-0.0014296996101999,0.0014296996117133,-0.0014296996104833,0.0014296996113206,-0.0013781203382049,0.001378120338934,-0.0013781203371134,0.0013781203371515,-0.0013781203395309,0.0013781203359492,-0.0013781203386158,0.0013781203378614,-6.7262973397628e-12,6.8662887984139e-12,-0.0014051176343518,0.0014051176344619,-2.2727476279436e-13,3.4727171461691e-13,-0.0014296996133126,0.0014296996087163,-0.0014296996131394,0.0014296996083224,-0.0014296996086693,0.0014296996131651,-0.0014296996082974,0.001429699613281,-0.0013781203301106,0.0013781203442875,-0.0013781203438878,0.001378120330331,0.73390818443511,0.42619644272479,1368840,32768,0.0058375378603673,0.0058375378604496,0.0058375378603112,36.500484389439,36.519385282687,0.00020720387511551,0.00020720387511551,0.00020720387511551,245466.55023308,0.017667055119256
35683200,0.99999857750062,0.016915028932814,0.0056383429776067,0.005638342977666,0.0056383429775417,-0.0014050265104521,0.0014050265094762,6.0605520307662e-12,-7.0374716571304e-12,1.5983464657303e-13,-1.1946135053774e-12,-0.0014299235424364,0.0014299235463547,-0.0014299235469388,0.0014299235418922,-0.0014299235434942,0.0014299235464692,-0.0014299235477927,0.0014299235421886,-0.0013777426220996,0.0013777426343478,-0.0013777426357325,0.0013777426205619,-8.9129691854977e-13,5.1342484463519e-13,6.3586010432205e-13,8.1801883361555e-14,-0.0014050265099865,0.0014050265099723,-0.0014299235445726,0.0014299235447686,-0.0014299235447475,0.0014299235447855,-0.0014299235439954,0.0014299235454432,-0.0014299235442547,0.0014299235450842,-0.0013777426277692,0.0013777426284007,-0.001377742626958,0.0013777426263709,-0.0013777426292944,0.0013777426253863,-0.0013777426278501,0.0013777426267555,-6.783820406002e-12,6.8270712611887e-12,-0.0014050265099266,0.0014050265099697,-2.589717062392e-13,3.1798396227881e-13,-0.0014299235471541,0.0014299235424099,-0.0014299235469114,0.0014299235421534,-0.0014299235425769,0.0014299235469817,-0.0014299235421928,0.0014299235471118,-0.0013777426194412,0.0013777426336187,-0.0013777426333807,0.0013777426195861,0.73830504670954,0.51863330302199,1368840,32768,0.005837159964434,0.0058371599644971,0.0058371599643679,36.776983794605,36.795892811086,0.00020941587035684,0.00020941587035684,0.00020941587035684,263534.07483203,0.017665902889566
35769600,0.99999865728201,0.01691503023208,0.0056383434106953,0.0056383434107545,0.0056383434106302,-0.0014058247406197,0.0014058247396836,6.0763479599761e-12,-7.0409069639488e-12,1.8101447013219e-13,-1.1115769832626e-12,-0.0014305935914234,0.0014305935954915,-0.00143059359591,0.0014305935910465,-0.0014305935925166,0.0014305935957047,-0.0014305935969529,0.0014305935911208,-0.0013786630062642,0.0013786630188972,-0.0013786630200081,0.0013786630055379,-8.0532272147306e-13,5.3785380422959e-13,6.3693651261498e-13,7.5301317243506e-14,-0.0014058247401701,0.001405824740189,-0.0014305935935634,0.0014305935936806,-0.001430593593685,0.0014305935937341,-0.0014305935932258,0.0014305935945836,-0.0014305935931467,0.001430593594024,-0.0013786630118836,0.0013786630126311,-0.001378663011018,0.0013786630104789,-0.0013786630135428,0.0013786630098692,-0.0013786630122467,0.0013786630111199,-6.7550415204713e-12,6.874621602676e-12,-0.0014058247401145,0.0014058247401763,-2.4706986394996e-13,3.3772724148813e-13,-0.001430593596271,0.0014305935915115,-0.0014305935959232,0.0014305935913204,-0.0014305935915298,0.0014305935959969,-0.0014305935911832,0.0014305935960336,-0.0013786630036295,0.0013786630173924,-0.0013786630177843,0.0013786630040811,0.74267460397438,0.60432253861509,1368840,32768,0.0058404667791867,0.0058404667793023,0.0058404667791609,37.053475954346,37.072400339486,0.00021162780763477,0.00021162780763477,0.00021162780763477,255806.62131011,0.017675997878675
35856000,0.99999873369839,0.016915031484731,0.0056383438282455,0.0056383438283047,0.0056383438281805,-0.0014065901526242,0.0014065901517297,6.0972926730706e-12,-6.9163020646606e-12,1.7008686278662e-13,-1.0919678176033e-12,-0.0014312430301956,0.0014312430342381,-0.0014312430346362,0.0014312430295471,-0.001431243031423,0.0014312430339699,-0.0014312430352834,0.0014312430299273,-0.001379538269873,0.0013795382824813,-0.0013795382838992,0.0013795382690872,-7.3420648226065e-13,5.7700978451186e-13,7.6546046864929e-13,1.80841269541e-13,-0.001406590152127,0.00140659015227,-0.0014312430319874,0.0014312430324731,-0.0014312430322487,0.0014312430321852,-0.0014312430315655,0.0014312430333887,-0.0014312430322762,0.0014312430326948,-0.0013795382760928,0.0013795382769234,-0.0013795382751328,0.001379538275006,-0.0013795382777526,0.0013795382741364,-0.0013795382758685,0.0013795382757769,-6.8288597359637e-12,6.6956908041832e-12,-0.0014065901522136,0.0014065901521177,-4.1072827606251e-13,1.9755655301821e-13,-0.0014312430350393,0.0014312430301908,-0.0014312430344759,0.0014312430299744,-0.0014312430303093,0.0014312430347489,-0.0014312430300094,0.0014312430349923,-0.0013795382680812,0.0013795382816199,-0.0013795382821958,0.0013795382682589,0.74747646745215,0.69001177420815,1368840,32768,0.0058436376039582,0.0058436376040475,0.0058436376039116,37.329965884415,37.348907867883,0.00021383972707532,0.00021383972707532,0.00021383972707532,248988.86570274,0.017685677884455
35942400,0.99999880682475,0.016915032692871,0.0056383442309589,0.0056383442310181,0.0056383442308938,-0.0014073434470869,0.0014073434462048,6.0615898814135e-12,-6.9346886794328e-12,1.92032604124e-13,-1.0823604640425e-12,-0.0014318871977252,0.0014318872017434,-0.0014318872021428,0.0014318871971177,-0.0014318871987603,0.0014318872015721,-0.0014318872029601,0.0014318871974475,-0.0013803944687243,0.0013803944806234,-0.0013803944822702,0.0013803944671962,-8.6191761018512e-13,4.6234028758628e-13,6.5088608646508e-13,5.8893906713929e-14,-0.0014073434466667,0.0014073434466454,-0.0014318871995694,0.0014318871999128,-0.0014318871997641,0.0014318872000242,-0.0014318871992558,0.0014318872007781,-0.0014318871994142,0.0014318872002736,-0.0013803944742502,0.0013803944752231,-0.001380394473668,0.0013803944735018,-0.0013803944759073,0.0013803944722644,-0.0013803944746501,0.001380394473704,-6.6869995991053e-12,6.8213559946097e-12,-0.0014073434465895,0.0014073434466704,-2.752733847047e-13,3.3940686664732e-13,-0.0014318872023196,0.0014318871977249,-0.001431887202118,0.0014318871974702,-0.0014318871976698,0.00143188720215,-0.0014318871973439,0.001431887202356,-0.0013803944664757,0.0013803944802832,-0.0013803944802001,0.0013803944662887,0.75328020660781,0.77570100980123,1368840,32768,0.0058467582082885,0.0058467582083305,0.0058467582082228,37.606452505661,37.625415396281,0.00021605162004529,0.00021605162004529,0.00021605162004529,242532.47314749,0.01769520470859
36028800,0.99999887673797,0.016915033856232,0.0056383446187461,0.0056383446188053,0.0056383446186811,-0.0014080870871247,0.0014080870862542,6.0638426361228e-12,-6.972803456229e-12,2.2231497313606e-13,-1.0356865957795e-12,-0.0014325244051,0.0014325244090677,-0.0014325244095224,0.0014325244044356,-0.0014325244058395,0.0014325244090238,-0.0014325244102511,0.0014325244049478,-0.0013812359465278,0.0013812359586423,-0.0013812359597857,0.0013812359447312,-8.3119287233418e-13,4.7673978886787e-13,6.8237968318085e-13,3.7222215828033e-14,-0.0014080870867086,0.0014080870867386,-0.0014325244065031,0.0014325244073679,-0.0014325244069623,0.0014325244071396,-0.0014325244061938,0.0014325244081092,-0.0014325244067622,0.0014325244077911,-0.0013812359519549,0.0013812359523632,-0.0013812359518862,0.0013812359502215,-0.0013812359543792,0.0013812359499533,-0.0013812359517781,0.0013812359505167,-6.702200428848e-12,6.846767924175e-12,-0.0014080870866315,0.001408087086707,-2.7574798785296e-13,3.9174423836477e-13,-0.0014325244095208,0.0014325244045369,-0.0014325244096446,0.0014325244046648,-0.0014325244049765,0.0014325244094442,-0.0014325244047717,0.0014325244096337,-0.0013812359431195,0.0013812359575123,-0.001381235957062,0.0013812359437738,0.75863260015911,0.83080222133199,1368840,32768,0.0058498387862012,0.0058498387863425,0.0058498387861175,37.882937251011,37.90192292468,0.00021826349800809,0.00021826349800809,0.00021826349800809,236254.39938968,0.017704609495139
36115200,0.99999894294241,0.016915034952681,0.0056383449842288,0.0056383449842881,0.0056383449841638,-0.001408437745037,0.0014084377441194,6.0576894123348e-12,-6.9804167530597e-12,1.4290022273158e-13,-1.0862377573586e-12,-0.0014328080812522,0.0014328080851576,-0.0014328080857136,0.0014328080806897,-0.0014328080822811,0.0014328080852749,-0.0014328080865235,0.0014328080810041,-0.001381645764728,0.0013816457768707,-0.0013816457780625,0.0013816457632039,-8.3665382315294e-13,4.4283053065479e-13,6.2432439790643e-13,3.4693851891345e-14,-0.0014084377446199,0.0014084377445688,-0.0014328080832917,0.001432808083524,-0.0014328080835135,0.0014328080835819,-0.001432808082816,0.0014328080842136,-0.0014328080830463,0.0014328080838506,-0.0013816457703337,0.0013816457707478,-0.0013816457695455,0.0013816457687515,-0.0013816457717616,0.001381645768022,-0.0013816457703877,0.0013816457691305,-6.7242436377961e-12,6.8259755005457e-12,-0.0014084377445322,0.0014084377445976,-2.5980741600296e-13,3.5269054907523e-13,-0.0014328080859521,0.0014328080812134,-0.0014328080857022,0.0014328080809744,-0.0014328080813523,0.0014328080857806,-0.0014328080809991,0.001432808085907,-0.0013816457619177,0.0013816457759812,-0.0013816457757022,0.0013816457621839,0.75497882799195,0.75354661301225,1368840,32768,0.0058512913885171,0.0058512913885842,0.0058512913884622,37.994753570087,38.002827568812,0.00021915802856069,0.00021915802856069,0.00021915802856069,232036.16420874,0.017709044287707
36201600,0.99999900482127,0.016915035975759,0.0056383453252549,0.0056383453253141,0.0056383453251898,-0.0014080182992811,0.0014080182983623,6.0512019046414e-12,-6.9929084890928e-12,1.4391195652969e-13,-1.0807363960097e-12,-0.0014324764765063,0.0014324764804022,-0.0014324764809591,0.0014324764759445,-0.0014324764775571,0.0014324764805509,-0.0014324764817952,0.0014324764762846,-0.001381144960577,0.0013811449726601,-0.0013811449740194,0.0013811449590246,-8.1988412957322e-13,4.5506898030796e-13,6.3062602892534e-13,5.6009935993726e-14,-0.0014080182988589,0.0014080182988137,-0.0014324764785821,0.0014324764788044,-0.0014324764787893,0.0014324764788402,-0.0014324764781112,0.0014324764794666,-0.0014324764783371,0.001432476479122,-0.001381144966302,0.0013811449667124,-0.0013811449654404,0.0013811449646904,-0.0013811449676957,0.0013811449639271,-0.0013811449661734,0.001381144965049,-6.7396496377416e-12,6.8165702584577e-12,-0.0014080182987781,0.0014080182988333,-2.5783671150074e-13,3.3962221300981e-13,-0.0014324764812353,0.0014324764764772,-0.0014324764809897,0.001432476476237,-0.0014324764766179,0.0014324764810572,-0.0014324764762877,0.0014324764811682,-0.0013811449578886,0.0013811449719066,-0.0013811449716067,0.0013811449579734,0.7536486513213,0.73045191308876,1368840,32768,0.005849553713447,0.0058495537135076,0.0058495537133808,37.86483719829,37.856521076302,0.00021811869758632,0.00021811869758632,0.00021811869758632,236533.72775316,0.01770373962021
36288000,0.99999906263598,0.016915036929808,0.0056383456432713,0.0056383456433305,0.0056383456432063,-0.0014076857947785,0.0014076857938402,6.0601966298587e-12,-7.0112792808189e-12,1.230458880914e-13,-1.0897434737908e-12,-0.0014321706770262,0.0014321706809024,-0.0014321706814783,0.0014321706764541,-0.0014321706780637,0.0014321706810528,-0.0014321706822916,0.0014321706767721,-0.00138078770339,0.0013807877156906,-0.0013807877168289,0.001380787701978,-8.1737008872838e-13,4.4581596886346e-13,6.2432478024769e-13,5.2315107691723e-14,-0.0014076857943417,0.0014076857943015,-0.0014321706790572,0.0014321706792889,-0.0014321706792681,0.0014321706793503,-0.0014321706786015,0.0014321706799802,-0.0014321706788102,0.001432170679607,-0.0013807877091206,0.0013807877095357,-0.0013807877082307,0.0013807877075296,-0.0013807877105033,0.0013807877067937,-0.0013807877091953,0.0013807877079903,-6.7559040823559e-12,6.8277750926283e-12,-0.0014076857942658,0.0014076857943201,-2.5894267771423e-13,3.3626610965411e-13,-0.0014321706817148,0.0014321706769705,-0.0014321706814685,0.0014321706767362,-0.0014321706771061,0.001432170681543,-0.0014321706767394,0.001432170681677,-0.0013807877006346,0.0013807877147449,-0.0013807877146213,0.0013807877009683,0.75224739143617,0.71149841764089,1368840,32768,0.0058481763097291,0.0058481763097797,0.0058481763096613,37.720078173496,37.710214583792,0.00021696062538797,0.00021696062538797,0.00021696062538797,237791.68767759,0.017699534434938
36374400,0.99999911667437,0.016915037819616,0.0056383459398738,0.0056383459399331,0.0056383459398088,-0.0014073580209291,0.0014073580200238,6.0854229768582e-12,-6.9908769040975e-12,1.2993426589148e-13,-1.063403866683e-12,-0.00143186572051,0.0014318657244249,-0.0014318657249848,0.001431865719947,-0.001431865721522,0.0014318657245598,-0.001431865725781,0.0014318657202735,-0.0013804391255859,0.0013804391379266,-0.0013804391390795,0.0013804391242437,-8.2002647816574e-13,4.2368140976493e-13,6.0811968706687e-13,3.5302392124388e-14,-0.0014073580205218,0.001407358020466,-0.0014318657225677,0.001431865722803,-0.0014318657227723,0.0014318657228513,-0.0014318657221038,0.0014318657234842,-0.0014318657223261,0.0014318657231186,-0.0013804391314229,0.0013804391317231,-0.0013804391305203,0.0013804391297184,-0.0013804391327558,0.0013804391290653,-0.0013804391313181,0.0013804391301445,-6.7526582403377e-12,6.835655528357e-12,-0.001407358020435,0.0014073580204945,-2.5556410445674e-13,3.4013660906007e-13,-0.0014318657252285,0.0014318657204696,-0.0014318657249748,0.0014318657202443,-0.0014318657206107,0.0014318657250509,-0.0014318657202589,0.0014318657251699,-0.001380439122855,0.0013804391369282,-0.0013804391368114,0.0013804391231313,0.75063324236266,0.69254492219303,1368840,32768,0.0058468185149006,0.0058468185149728,0.0058468185148521,37.573923347251,37.563908091282,0.000215791386778,0.000215791386778,0.000215791386778,238870.13929755,0.017695389081072
36460800,0.99999916720608,0.016915038649711,0.0056383462165723,0.0056383462166315,0.0056383462165073,-0.0014070283728926,0.0014070283719821,6.0719938576968e-12,-6.9969910114334e-12,1.1725971191394e-13,-1.0501673886954e-12,-0.0014315599039805,0.0014315599078905,-0.0014315599084538,0.0014315599034169,-0.001431559904996,0.001431559908026,-0.0014315599092547,0.001431559903747,-0.0013800881098676,0.0013800881220398,-0.0013800881231898,0.0013800881083004,-8.086694721733e-13,4.091853820204e-13,6.0321201346352e-13,2.2924211445782e-14,-0.0014070283724884,0.0014070283724189,-0.0014315599060351,0.0014315599062504,-0.0014315599062632,0.0014315599063185,-0.001431559905568,0.0014315599069413,-0.001431559905786,0.0014315599065674,-0.0013800881155138,0.0013800881158205,-0.0013800881146988,0.0013800881138963,-0.00138008811674,0.0013800881132819,-0.0013800881154967,0.0013800881142521,-6.7396084037071e-12,6.8415039379273e-12,-0.0014070283723947,0.0014070283724542,-2.6399790563343e-13,3.3914743339636e-13,-0.0014315599086884,0.0014315599039404,-0.0014315599084472,0.0014315599037037,-0.0014315599040847,0.0014315599085241,-0.0014315599037259,0.0014315599086431,-0.0013800881070487,0.0013800881211769,-0.0013800881208371,0.0013800881073181,0.74886371757554,0.67359142674518,1368840,32768,0.0058454529579013,0.0058454529579686,0.0058454529578479,37.427627872279,37.417601598772,0.00021462102297823,0.00021462102297823,0.00021462102297823,240022.01784703,0.017691220033744
36547200,0.99999921448032,0.016915039414539,0.0056383464715149,0.0056383464715741,0.0056383464714499,-0.0014066973682995,0.0014066973673908,6.0745753670688e-12,-6.9888655537782e-12,1.0246639913361e-13,-1.0340964090645e-12,-0.0014312535333522,0.0014312535372439,-0.0014312535378138,0.0014312535328072,-0.0014312535343331,0.0014312535373266,-0.0014312535386251,0.0014312535331138,-0.0013797352964165,0.0013797353085136,-0.0013797353097981,0.0013797352949606,-7.8227633728899e-13,4.0481604491241e-13,6.2363383076749e-13,5.1833563579036e-14,-0.0014066973678932,0.0014066973678282,-0.0014312535353872,0.0014312535355966,-0.0014312535356134,0.0014312535356708,-0.0014312535349482,0.0014312535363055,-0.0014312535352187,0.0014312535359085,-0.0013797353021336,0.0013797353024433,-0.001379735301185,0.0013797353004837,-0.0013797353033331,0.0013797352998879,-0.0013797353019857,0.0013797353008816,-6.7244135149594e-12,6.8511238205171e-12,-0.0014066973677904,0.0014066973678727,-2.4187740492896e-13,3.5268834326027e-13,-0.0014312535380396,0.0014312535333017,-0.001431253537798,0.0014312535330859,-0.0014312535334451,0.0014312535379148,-0.0014312535331083,0.0014312535380081,-0.001379735293653,0.0013797353076689,-0.0013797353074156,0.0013797352938327,0.73751417166123,0.51734844106458,1368840,32768,0.0058440817817716,0.005844081781836,0.0058440817817153,37.281316819964,37.271295106262,0.00021345053455971,0.00021345053455971,0.00021345053455971,241232.70992436,0.017687033840487
36633600,0.99999925872726,0.016915040126597,0.0056383467088676,0.0056383467089269,0.0056383467088026,-0.0014059977770117,0.0014059977761192,6.0884469433016e-12,-6.9893355394205e-12,1.2722081937365e-13,-1.0277400150127e-12,-0.0014307604051568,0.0014307604091441,-0.0014307604097009,0.001430760404711,-0.0014307604063915,0.0014307604094061,-0.0014307604105499,0.0014307604051384,-0.0013788474554718,0.0013788474670717,-0.0013788474686601,0.0013788474533099,-7.3283025959743e-13,4.7242203841924e-13,6.4646207455678e-13,4.7205146150482e-14,-0.0014059977765866,0.0014059977765897,-0.0014307604073228,0.0014307604075192,-0.0014307604076363,0.0014307604075357,-0.001430760406917,0.0014307604082082,-0.0014307604073337,0.0014307604078515,-0.0013788474605631,0.0013788474608505,-0.001378847459643,0.0013788474586242,-0.0013788474614221,0.0013788474587063,-0.0013788474600299,0.001378847459386,-6.7438018638351e-12,6.8467300429793e-12,-0.00140599777653,0.0014059977766046,-2.712308611422e-13,3.5004962975351e-13,-0.0014307604100361,0.0014307604053231,-0.0014307604097995,0.0014307604050362,-0.0014307604052917,0.0014307604099844,-0.0014307604049238,0.0014307604099009,-0.0013788474518576,0.0013788474660893,-0.0013788474653077,0.001378847451969,0.73361145468044,0.48156401590332,1368840,32768,0.0058411835129316,0.0058411835130257,0.0058411835129392,37.135005469628,37.124988613752,0.00021228004375702,0.00021228004375702,0.00021228004375702,253120.76411292,0.017678186293372
36720000,0.99999930015953,0.016915040797049,0.0056383469323516,0.0056383469324108,0.0056383469322866,-0.0014056044830172,0.0014056044821435,6.0772538146558e-12,-6.9504321984791e-12,6.4220626339242e-14,-9.4716400596625e-13,-0.0014304286221664,0.0014304286260442,-0.0014304286266266,0.001430428621559,-0.0014304286231322,0.0014304286262187,-0.0014304286273804,0.0014304286219547,-0.0013784006644554,0.0013784006769389,-0.0013784006780665,0.0013784006631295,-7.2973788347916e-13,3.3224208552646e-13,6.4318840985911e-13,-5.4626125327015e-14,-0.0014056044826548,0.00140560448254,-0.0014304286241369,0.0014304286243769,-0.0014304286244232,0.001430428624455,-0.0014304286237662,0.0014304286250341,-0.0014304286240195,0.0014304286246397,-0.0013784006702768,0.0013784006706061,-0.0013784006694997,0.0013784006684552,-0.0013784006716564,0.0013784006679957,-0.0013784006703198,0.0013784006689909,-6.7063514196852e-12,6.8335998558622e-12,-0.0014056044825154,0.0014056044826104,-2.9910515666042e-13,4.2068132494488e-13,-0.0014304286268128,0.0014304286220832,-0.0014304286265646,0.0014304286218649,-0.0014304286222072,0.0014304286266698,-0.001430428621868,0.0014304286268244,-0.0013784006616153,0.0013784006759067,-0.0013784006756571,0.0013784006618961,0.73780776492892,0.56834652841547,1368840,32768,0.0058395542858152,0.0058395542858857,0.0058395542857432,36.988694349921,36.978682121242,0.00021110955479936,0.00021110955479936,0.00021110955479936,256352.7785777,0.017673212392913
36806400,0.99999933897361,0.016915041416471,0.0056383471388257,0.005638347138885,0.0056383471387607,-0.0014055574016003,0.0014055574007643,6.0898216071889e-12,-6.9193487362928e-12,5.7247015848844e-14,-9.2871998118325e-13,-0.0014302652407828,0.001430265244677,-0.001430265245221,0.0014302652402088,-0.0014302652417155,0.0014302652448652,-0.0014302652459682,0.0014302652406124,-0.0013784633412273,0.001378463353425,-0.0013784633545255,0.0013784633399468,-7.4204136055756e-13,2.9443053476103e-13,6.3391504609518e-13,-8.8700996127808e-14,-0.0014055574012686,0.0014055574011269,-0.0014302652427752,0.0014302652430522,-0.001430265243061,0.0014302652430654,-0.0014302652424004,0.0014302652436599,-0.0014302652426565,0.0014302652432474,-0.0013784633469619,0.0013784633472458,-0.0013784633461878,0.0013784633451873,-0.0013784633482189,0.0013784633447083,-0.0013784633470557,0.0013784633455168,-6.6980060863941e-12,6.8231671157517e-12,-0.0014055574011142,0.0014055574012235,-3.0676659907921e-13,4.3800141347512e-13,-0.0014302652454569,0.0014302652407475,-0.0014302652451649,0.0014302652405514,-0.0014302652408789,0.0014302652453105,-0.001430265240477,0.0014302652454713,-0.0013784633384862,0.0013784633524422,-0.001378463352145,0.0013784633387614,0.72764537940429,0.43194025391056,1368840,32768,0.0058393594511403,0.0058393594512041,0.0058393594510845,36.842382874804,36.832375628732,0.00020993906299843,0.00020993906299843,0.00020993906299843,249450.80011842,0.017672616871025
36892800,0.99999937558078,0.016915042004212,0.0056383473347393,0.0056383473347985,0.0056383473346743,-0.0014051095910221,0.0014051095901824,6.082163488198e-12,-6.9281734078816e-12,5.8552446557067e-14,-9.1836247406857e-13,-0.0014300132462829,0.00143001325017,-0.0014300132507279,0.0014300132457119,-0.0014300132472358,0.0014300132503744,-0.0014300132514643,0.0014300132461126,-0.0013778372457688,0.0013778372580537,-0.0013778372591339,0.0013778372444589,-7.5486685110056e-13,2.7248679336256e-13,6.440859118528e-13,-6.0698704519771e-14,-0.0014051095906881,0.0014051095905486,-0.0014300132483086,0.0014300132485631,-0.0014300132485685,0.001430013248579,-0.001430013247911,0.0014300132491716,-0.0014300132481799,0.0014300132487643,-0.0013778372515088,0.0013778372518625,-0.0013778372507747,0.001377837249789,-0.0013778372527424,0.0013778372492421,-0.0013778372516639,0.0013778372500946,-6.6916423984474e-12,6.8310833150938e-12,-0.0014051095905338,0.0014051095906445,-2.9920585946638e-13,4.2784457670069e-13,-0.0014300132509666,0.0014300132462528,-0.001430013250676,0.001430013246062,-0.001430013246379,0.0014300132508093,-0.0014300132459907,0.0014300132509756,-0.0013778372430295,0.0013778372571094,-0.001377837256795,0.0013778372433344,0.73199885043289,0.52015280790737,1368840,32768,0.0058375041843317,0.0058375041843982,0.0058375041842774,36.814515183615,36.812326948776,0.00020971612146892,0.00020971612146892,0.00020971612146892,260776.85147458,0.017666953600441
36979200,0.99999941040335,0.016915042566767,0.0056383475222574,0.0056383475223167,0.0056383475221924,-0.0014056146203172,0.0014056146194761,6.0503370487092e-12,-6.9209514520368e-12,7.2156383907296e-14,-8.8076850489146e-13,-0.0014303911338068,0.0014303911377919,-0.0014303911384753,0.001430391133164,-0.0014303911349558,0.001430391138049,-0.0014303911391707,0.0014303911334735,-0.0013784613288006,0.0013784613409758,-0.0013784613420422,0.0013784613275017,-7.4416629564225e-13,2.5927078533783e-13,6.8123298291763e-13,-3.4823200880999e-14,-0.0014056146199551,0.0014056146198661,-0.0014303911357676,0.0014303911361295,-0.0014303911361424,0.0014303911361948,-0.0014303911354814,0.0014303911367891,-0.0014303911357482,0.0014303911363712,-0.0013784613346787,0.0013784613351218,-0.0013784613341531,0.0013784613330966,-0.0013784613355445,0.0013784613323246,-0.0013784613345429,0.001378461333077,-6.6336553463827e-12,6.8495496921351e-12,-0.0014056146197779,0.0014056146199871,-2.1832374212425e-13,5.1879944515072e-13,-0.0014303911382595,0.0014303911337785,-0.0014303911382494,0.0014303911334771,-0.0014303911338967,0.001430391138484,-0.0014303911334765,0.0014303911386982,-0.0013784613262897,0.0013784613403264,-0.0013784613400131,0.0013784613267894,0.73667737515158,0.60836536190415,1368840,32768,0.0058395964353944,0.0058395964354521,0.0058395964353357,36.946347363645,36.954970547508,0.00021077077890916,0.00021077077890916,0.00021077077890916,253307.21262671,0.017673340506611
37065600,0.9999994435316,0.016915043105719,0.0056383477019081,0.0056383477019673,0.0056383477018431,-0.0014061242436988,0.0014061242428906,6.0868094639137e-12,-6.8437291052441e-12,4.7612663112883e-14,-9.2129314924434e-13,-0.0014307825019009,0.0014307825058716,-0.0014307825063587,0.0014307825014441,-0.0014307825031801,0.0014307825062805,-0.001430782506775,0.0014307825019401,-0.0013790821410049,0.0013790821528148,-0.0013790821540369,0.0013790821390715,-7.2781097175675e-13,2.9073958869337e-13,6.7466397771388e-13,-9.7444081973713e-15,-0.0014061242433561,0.0014061242432951,-0.001430782504165,0.0014307825045161,-0.0014307825041519,0.0014307825043726,-0.0014307825035546,0.0014307825049257,-0.0014307825038514,0.0014307825047034,-0.0013790821461428,0.0013790821469533,-0.0013790821457695,0.0013790821451351,-0.0013790821474006,0.0013790821444421,-0.0013790821467298,0.0013790821448284,-6.7114487345539e-12,6.7305480628473e-12,-0.0014061242432905,0.0014061242432868,-3.5407380093549e-13,3.523846760665e-13,-0.0014307825066979,0.0014307825018839,-0.0014307825063603,0.0014307825015598,-0.0014307825020503,0.0014307825065179,-0.0014307825017537,0.0014307825066629,-0.0013790821380804,0.0013790821521416,-0.0013790821514904,0.0013790821382701,0.74179144798894,0.69657791590102,1368840,32768,0.00584170768673,0.0058417076868579,0.0058417076867052,37.087964966272,37.097614146242,0.00021190371973017,0.00021190371973017,0.00021190371973017,246335.91546743,0.017679785558655
37152000,0.99999947503517,0.016915043622618,0.0056383478742079,0.0056383478742671,0.0056383478741429,-0.0014066224957308,0.0014066224949354,6.1008276239039e-12,-6.8770870861807e-12,5.6152872803575e-14,-9.1018719440599e-13,-0.0014311689440801,0.0014311689479894,-0.0014311689484659,0.0014311689434396,-0.0014311689448406,0.0014311689481145,-0.0014311689489747,0.0014311689437549,-0.0013796848790367,0.0013796848915046,-0.0013796848918778,0.0013796848776,-7.4744834243679e-13,2.6764488245609e-13,6.9015926904925e-13,-3.8899899870055e-14,-0.0014066224953957,0.0014066224953066,-0.0014311689458354,0.0014311689463632,-0.001431168946193,0.0014311689462751,-0.001431168945542,0.0014311689469529,-0.0014311689458396,0.0014311689464923,-0.0013796848843096,0.0013796848851734,-0.0013796848837838,0.0013796848831422,-0.0013796848858481,0.0013796848825858,-0.001379684885006,0.0013796848838008,-6.6340280997012e-12,6.8560506111835e-12,-0.001406622495244,0.0014066224953986,-2.964261796778e-13,4.5495036628448e-13,-0.0014311689485714,0.0014311689439321,-0.0014311689483497,0.001431168943886,-0.0014311689440931,0.0014311689484168,-0.0014311689437577,0.0014311689486432,-0.0013796848759012,0.0013796848903378,-0.001379684889763,0.0013796848769335,0.74806143952201,0.78479046989785,1368840,32768,0.0058437718121335,0.0058437718122081,0.0058437718120845,37.230498753795,37.240257744974,0.00021304399003036,0.00021304399003036,0.00021304399003036,239748.85676509,0.017686086830253
37238400,0.99999950498004,0.016915044119322,0.005638348039776,0.0056383480398353,0.005638348039711,-0.0014071109908912,0.0014071109900966,6.0579182876958e-12,-6.8380175738451e-12,7.6941296555028e-14,-8.5755956684977e-13,-0.0014315485401103,0.001431548543975,-0.0014315485444684,0.0014315485395517,-0.0014315485410149,0.0014315485441736,-0.0014315485452185,0.0014315485400529,-0.001380272208709,0.0013802722210671,-0.0013802722218308,0.0013802722072735,-7.4098609867743e-13,2.4395490028643e-13,6.9854630694865e-13,-1.153970041125e-13,-0.001407110990585,0.0014071109904394,-0.0014315485421686,0.0014315485423601,-0.0014315485424148,0.0014315485424467,-0.0014315485417639,0.0014315485430013,-0.0014315485420526,0.0014315485425722,-0.0013802722141507,0.0013802722146649,-0.0013802722135707,0.0013802722124468,-0.0013802722157395,0.0013802722121356,-0.0013802722146413,0.0013802722130324,-6.6027487611459e-12,6.8051836945447e-12,-0.0014071109904154,0.0014071109905371,-3.5950969369622e-13,4.7629430247718e-13,-0.0014315485447499,0.0014315485399861,-0.0014315485445239,0.0014315485398836,-0.0014315485401591,0.0014315485446314,-0.0014315485398171,0.0014315485446983,-0.0013802722056704,0.001380272220072,-0.0013802722194625,0.0013802722062759,0.75619177548645,0.87300302389465,1368840,32768,0.0058457954893321,0.0058457954894078,0.005845795489259,37.37312219805,37.382901343708,0.0002141849775844,0.0002141849775844,0.0002141849775844,233331.7167971,0.017692264737489
37324800,0.99999953343016,0.016915044588324,0.0056383481961099,0.0056383481961691,0.0056383481960449,-0.0014075921160613,0.0014075921152357,6.0403155313303e-12,-6.8566370050343e-12,4.5552961329477e-14,-8.8760123733265e-13,-0.0014319238917044,0.0014319238955241,-0.0014319238960979,0.0014319238911268,-0.0014319238926588,0.0014319238958462,-0.0014319238968967,0.0014319238915605,-0.0013808453730313,0.0013808453852391,-0.0013808453859228,0.0013808453715796,-7.1462158056595e-13,2.6924965696074e-13,7.2101870866749e-13,-5.6058375690397e-14,-0.0014075921157287,0.0014075921156099,-0.0014319238937271,0.0014319238939799,-0.0014319238940072,0.0014319238939514,-0.0014319238933505,0.001431923894547,-0.0014319238936572,0.0014319238941125,-0.0013808453786001,0.0013808453793592,-0.0013808453778656,0.0013808453771754,-0.0013808453797331,0.0013808453767022,-0.0013808453785562,0.0013808453770721,-6.604265479517e-12,6.8046854156491e-12,-0.0014075921155665,0.0014075921157079,-3.1209102465695e-13,4.8722305684653e-13,-0.0014319238963269,0.0014319238916827,-0.0014319238960573,0.0014319238914664,-0.0014319238918117,0.0014319238961947,-0.0014319238913422,0.0014319238963568,-0.0013808453701617,0.0013808453842917,-0.0013808453838064,0.0013808453708697,0.75145807645717,0.76558456952602,1368840,32768,0.0058477885977597,0.0058477885978458,0.0058477885977129,37.515764417648,37.525544942441,0.00021532611534118,0.00021532611534118,0.00021532611534118,226954.46835362,0.017698349476905
37411200,0.99999956044751,0.016915045028767,0.0056383483429244,0.0056383483429836,0.0056383483428594,-0.0014076413376219,0.0014076413368634,6.0713409952884e-12,-6.8400466883277e-12,1.0674009210463e-13,-9.1451829738788e-13,-0.0014320795807462,0.0014320795845557,-0.0014320795851084,0.001432079580217,-0.0014320795819387,0.0014320795849669,-0.0014320795860173,0.001432079580764,-0.0013807926327835,0.001380792645334,-0.0013807926455297,0.0013807926309625,-7.6833476319451e-13,3.0271098768123e-13,6.4982279541848e-13,-1.0148425266692e-13,-0.0014076413373454,0.0014076413371645,-0.0014320795829385,0.0014320795830753,-0.0014320795831389,0.0014320795830652,-0.0014320795824409,0.0014320795836298,-0.0014320795826712,0.0014320795833332,-0.0013807926386798,0.0013807926383961,-0.0013807926379657,0.001380792636198,-0.0013807926396075,0.001380792635723,-0.0013807926378239,0.0013807926366367,-6.6324257957093e-12,6.7908623379346e-12,-0.0014076413371602,0.0014076413372991,-2.9479781765844e-13,4.7852405788909e-13,-0.0014320795854504,0.0014320795807355,-0.0014320795850902,0.0014320795805337,-0.0014320795810109,0.001432079585328,-0.0014320795804967,0.0014320795854826,-0.0013807926292726,0.0013807926438803,-0.0013807926431568,0.0013807926300023,0.7430462670646,0.6370642416937,1368840,32768,0.0058479922649273,0.0058479922649781,0.0058479922648736,37.658406895931,37.668188541172,0.00021646725516745,0.00021646725516745,0.00021646725516745,232804.46760235,0.017698972089871
37497600,0.99999958609217,0.016915045444359,0.0056383484814549,0.0056383484815142,0.0056383484813899,-0.0014076082475618,0.0014076082466879,6.0384006486522e-12,-6.8735270184677e-12,6.6685727502682e-14,-9.2932937433141e-13,-0.0014321991114145,0.0014321991150206,-0.0014321991156558,0.0014321991107794,-0.0014321991121749,0.0014321991152233,-0.0014321991163762,0.0014321991109007,-0.0013806193185382,0.0013806193313951,-0.0013806193315325,0.0013806193176689,-7.429376861166e-13,3.0400188942154e-13,6.310207815718e-13,-8.9028603766678e-14,-0.0014076082472337,0.0014076082470563,-0.0014321991132165,0.0014321991135815,-0.0014321991135861,0.0014321991137135,-0.001432199113097,0.0014321991141511,-0.0014321991132109,0.001432199113662,-0.0013806193241444,0.001380619324505,-0.0013806193231981,0.0013806193228868,-0.0013806193253159,0.0013806193222523,-0.001380619324316,0.001380619323055,-6.6204459852137e-12,6.8038784697125e-12,-0.0014076082470294,0.0014076082471784,-2.7998782891696e-13,4.6216841048407e-13,-0.0014321991159222,0.0014321991112128,-0.0014321991156533,0.0014321991111194,-0.0014321991113862,0.0014321991158302,-0.0014321991108873,0.0014321991160972,-0.0013806193152422,0.0013806193294009,-0.0013806193296266,0.0013806193166662,0.73870642454115,0.58517435017954,1368840,32768,0.0058478549586322,0.0058478549587156,0.0058478549585455,37.801047210621,37.810832139907,0.00021760837768496,0.00021760837768496,0.00021760837768496,241395.97319548,0.017698553713255
37584000,0.99999961042235,0.016915045836491,0.0056383486121655,0.0056383486122247,0.0056383486121004,-0.0014077451004993,0.0014077450996724,6.0808214703722e-12,-6.8791450821339e-12,1.2298318412461e-13,-9.2261987341971e-13,-0.0014324079824317,0.0014324079862784,-0.0014324079867835,0.0014324079818431,-0.0014324079834196,0.0014324079864259,-0.0014324079876371,0.0014324079821735,-0.0013806913746372,0.00138069138676,-0.0013806913878193,0.0013806913734644,-7.6141126882015e-13,3.3516087871228e-13,6.4054319655091e-13,-4.1433204832268e-14,-0.0014077451001422,0.0014077451000627,-0.0014324079842746,0.0014324079845886,-0.0014324079846416,0.001432407984707,-0.0014324079838319,0.0014324079854301,-0.0014324079841822,0.0014324079847371,-0.0013806913803251,0.0013806913806518,-0.0013806913797967,0.0013806913785159,-0.001380691381804,0.0013806913777722,-0.0013806913808444,0.0013806913786913,-6.6385277857683e-12,6.8333377756333e-12,-0.0014077451000093,0.0014077451001583,-2.7543814437729e-13,4.2833726753168e-13,-0.0014324079869207,0.0014324079822088,-0.0014324079867567,0.0014324079821779,-0.001432407982484,0.0014324079868309,-0.0014324079820357,0.0014324079870217,-0.0013806913720478,0.0013806913859726,-0.0013806913859516,0.0013806913724072,0.73474886513695,0.54243370808786,1368840,32768,0.0058484217721573,0.0058484217722259,0.005848421772149,37.943687153374,37.953475738639,0.00021874949722699,0.00021874949722699,0.00021874949722699,245308.13103407,0.01770028454836
37670400,0.99999963336532,0.016915046204201,0.0056383487347356,0.0056383487347948,0.0056383487346706,-0.0014076935340422,0.001407693533176,6.0534665413407e-12,-6.9193603241741e-12,8.669052813446e-14,-9.6442389045333e-13,-0.0014324214264827,0.0014324214303276,-0.0014324214309035,0.0014324214259486,-0.0014324214274457,0.001432421430512,-0.0014324214316594,0.001432421426203,-0.0013805824063752,0.001380582418641,-0.001380582419879,0.0013805824051572,-7.4200459697478e-13,3.5937225671836e-13,6.5468735269195e-13,-1.1207569381154e-14,-0.0014076935336625,0.001407693533587,-0.0014324214284472,0.0014324214287555,-0.0014324214286884,0.0014324214287716,-0.0014324214280867,0.0014324214293626,-0.0014324214283453,0.0014324214289623,-0.0013805824122291,0.0013805824126529,-0.0013805824114904,0.0013805824104691,-0.0013805824134738,0.0013805824100764,-0.0013805824122918,0.0013805824108287,-6.6805747953787e-12,6.8040616111765e-12,-0.0014076935335454,0.0014076935336574,-2.744360573433e-13,4.1399349984158e-13,-0.0014324214311375,0.0014324214264551,-0.001432421430908,0.0014324214262139,-0.0014324214265972,0.0014324214309644,-0.0014324214261405,0.0014324214311584,-0.0013805824038783,0.0013805824177718,-0.0013805824176804,0.0013805824040621,0.73067330476296,0.49969306599618,1368840,32768,0.005848208093346,0.0058482080934109,0.0058482080933143,37.979346794408,37.982050903069,0.00021903477435526,0.00021903477435526,0.00021903477435526,248787.86796742,0.017699632432011
37756800,0.99999965484735,0.016915046546529,0.0056383488488449,0.0056383488489041,0.0056383488487799,-0.0014073809760878,0.0014073809751925,6.0514420149533e-12,-6.9387478495455e-12,7.0691546304138e-14,-9.7824811519158e-13,-0.0014321769860387,0.0014321769899039,-0.001432176990642,0.0014321769854716,-0.0014321769870132,0.0014321769900705,-0.0014321769912011,0.001432176985743,-0.0013802101389125,0.0013802101511661,-0.0013802101522694,0.0013802101377317,-7.4887362242488e-13,3.5057164321812e-13,6.148607752489e-13,-4.0763048834486e-14,-0.001407380975715,0.0014073809755923,-0.0014321769879982,0.0014321769882744,-0.0014321769883848,0.0014321769884291,-0.0014321769877155,0.00143217698892,-0.0014321769878363,0.0014321769885831,-0.0013802101445731,0.0013802101450487,-0.001380210143862,0.0013802101429508,-0.0013802101461025,0.0013802101426083,-0.0013802101447523,0.0013802101436681,-6.6822490971711e-12,6.8196900455033e-12,-0.0014073809755829,0.0014073809756994,-2.6108378877535e-13,4.168744118317e-13,-0.001432176990686,0.0014321769858992,-0.0014321769903474,0.0014321769858589,-0.0014321769860967,0.0014321769905332,-0.0014321769857314,0.0014321769907102,-0.0013802101365899,0.0013802101503736,-0.0013802101501955,0.0013802101368464,0.72651025516032,0.4569524239045,1368840,32768,0.0058469132877446,0.0058469132878005,0.0058469132877488,37.882283179171,37.875956105864,0.00021825826543336,0.00021825826543336,0.00021825826543336,252447.71956661,0.017695679547816
37843200,0.99999967495911,0.016915046865654,0.0056383489552199,0.0056383489552792,0.0056383489551549,-0.0014070479034845,0.001407047902619,6.0992869650876e-12,-6.9209420993813e-12,6.8635256181213e-14,-9.8150930968197e-13,-0.0014319112785169,0.0014319112824367,-0.0014319112829254,0.0014319112779715,-0.0014319112796225,0.0014319112825655,-0.0014319112836173,0.001431911278308,-0.0013798175631068,0.0013798175755003,-0.0013798175763923,0.0013798175616798,-7.1549858318589e-13,3.8455142868841e-13,6.914455238727e-13,-5.3070437558091e-15,-0.0014070479031047,0.0014070479030509,-0.0014319112805412,0.0014319112808407,-0.0014319112808245,0.0014319112808679,-0.0014319112801759,0.0014319112814765,-0.0014319112803535,0.0014319112809789,-0.0013798175686281,0.0013798175693274,-0.0013798175680151,0.0013798175671672,-0.0013798175698136,0.001379817566416,-0.0013798175688507,0.0013798175677783,-6.7074859732606e-12,6.8250457348318e-12,-0.0014070479029859,0.0014070479030934,-2.8505611526076e-13,4.3409447400591e-13,-0.0014319112831268,0.001431911278478,-0.0014319112828101,0.001431911278297,-0.0014319112785906,0.0014319112830617,-0.0014319112782805,0.0014319112831869,-0.0013798175603018,0.0013798175746188,-0.0013798175742407,0.0013798175609055,0.72344192709174,0.43132005729132,1368840,32768,0.0058455335082624,0.0058455335083703,0.0058455335082124,37.777041717484,37.769861308659,0.00021741633373987,0.00021741633373987,0.00021741633373987,256196.3419107,0.017691467208906
37929600,0.9999996937936,0.01691504716647,0.0056383490554919,0.0056383490555512,0.0056383490554269,-0.0014067601993105,0.0014067601984555,6.0928022220156e-12,-6.935908583342e-12,7.958256880715e-14,-9.5694835411995e-13,-0.0014316680937577,0.0014316680976528,-0.0014316680982094,0.0014316680931887,-0.0014316680947314,0.0014316680978326,-0.0014316680989652,0.0014316680935671,-0.0013794916101267,0.0013794916224521,-0.0013794916234929,0.0013794916088348,-7.6658046384597e-13,3.2021545293183e-13,6.4286983135617e-13,-3.4870934716881e-14,-0.001406760198957,0.0014067601988407,-0.0014316680957824,0.0014316680960303,-0.0014316680960367,0.0014316680960564,-0.0014316680953718,0.001431668096661,-0.001431668095632,0.0014316680962608,-0.0013794916158561,0.0013794916162664,-0.0013794916150969,0.0013794916141792,-0.0013794916171034,0.0013794916135786,-0.0013794916160007,0.001379491614561,-6.7118622513331e-12,6.8287992672228e-12,-0.001406760198821,0.0014067601989185,-2.8624969644473e-13,4.1378418270666e-13,-0.0014316680984445,0.0014316680937219,-0.0014316680981653,0.0014316680935171,-0.0014316680938549,0.0014316680982801,-0.0014316680934777,0.0014316680984466,-0.0013794916073768,0.001379491621459,-0.0013794916212243,0.0013794916077405,0.72823088124353,0.52548026821167,1368840,32768,0.0058443416954404,0.0058443416955061,0.0058443416953855,37.67103086611,37.663766511454,0.00021656824692888,0.00021656824692888,0.00021656824692888,258590.83608445,0.017687828639742
38016000,0.99999971143784,0.01691504744887,0.0056383491496251,0.0056383491496844,0.0056383491495601,-0.0014068204071484,0.001406820406282,6.0908813395207e-12,-6.9380329302094e-12,7.9339752695604e-14,-9.5753304214048e-13,-0.0014315990052426,0.0014315990091269,-0.0014315990097083,0.0014315990046218,-0.0014315990062013,0.0014315990092943,-0.0014315990103862,0.0014315990049812,-0.001379673893665,0.0013796739058923,-0.0013796739070174,0.001379673892144,-7.7221652696223e-13,3.153422488637e-13,6.1642837441865e-13,-5.5202195963747e-14,-0.0014068204068024,0.0014068204066624,-0.001431599007221,0.0014315990074618,-0.0014315990075543,0.0014315990075179,-0.0014315990068954,0.0014315990080557,-0.0014315990070941,0.0014315990077155,-0.0013796738994372,0.0013796738996944,-0.0013796738987249,0.0013796738975951,-0.0013796739004405,0.0013796738971257,-0.0013796738994382,0.0013796738981105,-6.7120071292601e-12,6.82894279225e-12,-0.0014068204066558,0.0014068204067452,-2.9799513174739e-13,3.9584937766147e-13,-0.0014315990098913,0.0014315990051515,-0.0014315990096534,0.0014315990049727,-0.0014315990052611,0.0014315990097576,-0.0014315990048948,0.0014315990099139,-0.0013796738908423,0.0013796739050009,-0.0013796739046743,0.0013796738912375,0.72979385216343,0.56198697248515,1368840,32768,0.0058445913105215,0.0058445913105928,0.0058445913104609,37.564942595076,37.557671714249,0.0002157195407606,0.0002157195407606,0.0002157195407606,250796.9466549,0.017688589998509
38102400,0.9999997279726,0.016915047713688,0.005638349237898,0.0056383492379573,0.005638349237833,-0.0014067133393987,0.0014067133385379,6.0914899679864e-12,-6.9480377422163e-12,7.4418373628592e-14,-9.6645412254878e-13,-0.0014314406426513,0.0014314406465453,-0.0014314406471066,0.0014314406420903,-0.0014314406435969,0.0014314406467152,-0.0014314406478482,0.0014314406424328,-0.0013796154712176,0.0013796154834928,-0.0013796154845744,0.001379615469881,-7.7566024528841e-13,3.1579358801677e-13,6.1657028184818e-13,-4.3491789002759e-14,-0.0014067133390456,0.0014067133389233,-0.0014314406446803,0.0014314406449292,-0.0014314406449507,0.0014314406449644,-0.0014314406442635,0.0014314406455682,-0.0014314406445132,0.001431440645185,-0.001379615476956,0.0013796154772467,-0.0013796154761857,0.0013796154751736,-0.0013796154781345,0.001379615474572,-0.001379615477047,0.0013796154755964,-6.7178154812307e-12,6.8337392339573e-12,-0.0014067133389082,0.0014067133390016,-2.8536739986888e-13,3.9720977727866e-13,-0.0014314406473428,0.0014314406426105,-0.0014314406470706,0.0014314406424079,-0.0014314406427507,0.0014314406471904,-0.0014314406423602,0.0014314406473276,-0.0013796154684168,0.0013796154824838,-0.0013796154822274,0.0013796154687305,0.7301994199374,0.57718443256635,1368840,32768,0.0058441478731218,0.0058441478731888,0.0058441478730663,37.458846364071,37.451576917044,0.00021487077091257,0.00021487077091257,0.00021487077091257,247777.41090711,0.017687235870838
38188800,0.99999974347286,0.016915047962069,0.0056383493206914,0.0056383493207507,0.0056383493206264,-0.0014065487292327,0.0014065487283718,6.0872959784628e-12,-6.9400853969197e-12,8.1178814160598e-14,-9.7467628313212e-13,-0.0014312556810206,0.0014312556849013,-0.0014312556854564,0.0014312556804513,-0.001431255681999,0.0014312556850919,-0.0014312556862326,0.0014312556808355,-0.0013794710161595,0.0013794710285069,-0.0013794710296325,0.0013794710149054,-7.7336499187741e-13,3.3283242043331e-13,6.4240399264605e-13,-2.0289733103758e-14,-0.0014065487288734,0.001406548728763,-0.001431255683044,0.0014312556832953,-0.0014312556832876,0.001431255683323,-0.0014312556826394,0.0014312556839196,-0.0014312556828858,0.0014312556835219,-0.0013794710219936,0.0013794710223808,-0.0013794710211491,0.0013794710203342,-0.0013794710232387,0.0013794710196957,-0.0013794710220815,0.0013794710207404,-6.7128695146795e-12,6.826479779258e-12,-0.001406548728744,0.0014065487288306,-2.8786382360484e-13,3.9718154284709e-13,-0.0014312556856853,0.0014312556809764,-0.0014312556854327,0.0014312556807633,-0.0014312556810971,0.0014312556855369,-0.001431255680733,0.0014312556856779,-0.0013794710135169,0.0013794710275754,-0.0013794710273839,0.0013794710137816,0.73055192435285,0.59029928701811,1368840,32768,0.0058434660276136,0.0058434660276796,0.0058434660275517,37.352749327886,37.345482119839,0.00021402199462308,0.00021402199462308,0.00021402199462308,246439.74407804,0.017685154037649
38275200,0.99999975800817,0.016915048195124,0.0056383493983766,0.0056383493984358,0.0056383493983116,-0.0014063785224423,0.0014063785215627,6.0704166705847e-12,-6.9493421729551e-12,7.8798298648418e-14,-1.00008150702e-12,-0.0014310678502089,0.0014310678541035,-0.001431067854647,0.0014310678496292,-0.001431067851204,0.0014310678542708,-0.0014310678554076,0.0014310678500155,-0.0013793182148586,0.0013793182271557,-0.0013793182283665,0.0013793182136077,-7.8128624988842e-13,3.4798031061684e-13,6.3569772692963e-13,-2.0133737869305e-14,-0.0014063785220676,0.0014063785219678,-0.0014310678522382,0.0014310678524895,-0.0014310678524847,0.0014310678525052,-0.001431067851802,0.0014310678531216,-0.0014310678520612,0.0014310678527299,-0.0013793182206901,0.0013793182210444,-0.0013793182199061,0.0013793182189706,-0.0013793182219078,0.0013793182183701,-0.0013793182207123,0.0013793182193892,-6.7197368342994e-12,6.8120447202392e-12,-0.0014063785219488,0.0014063785220307,-2.7746670005336e-13,4.00855724721e-13,-0.0014310678548905,0.001431067850177,-0.0014310678546224,0.0014310678499634,-0.0014310678503131,0.0014310678547198,-0.0014310678499373,0.0014310678548676,-0.0013793182122809,0.0013793182262614,-0.0013793182261297,0.0013793182124806,0.73097102129508,0.60341414146987,1368840,32768,0.0058427609926621,0.0058427609927251,0.0058427609926096,37.246652227654,37.239387322635,0.00021317321782123,0.00021317321782123,0.00021317321782123,245257.62960984,0.017683001429459
38361600,0.99999977168403,0.016915048415834,0.0056383494719465,0.0056383494720057,0.0056383494718815,-0.0014063175100181,0.0014063175091571,6.079434042169e-12,-6.9217440160598e-12,1.0559818581261e-13,-9.9138465505577e-13,-0.0014309878688046,0.0014309878727173,-0.0014309878731883,0.0014309878682372,-0.0014309878698761,0.0014309878728887,-0.0014309878740636,0.0014309878685663,-0.0013792752776336,0.0013792752901215,-0.0013792752913724,0.0013792752765986,-7.8011702090168e-13,3.6709431493243e-13,6.4945763010344e-13,-1.0825022244177e-14,-0.0014063175096514,0.0014063175095549,-0.0014309878708576,0.0014309878711183,-0.0014309878711143,0.0014309878711104,-0.0014309878704345,0.0014309878717007,-0.0014309878706771,0.0014309878712957,-0.0013792752835419,0.0013792752840269,-0.0013792752829284,0.0013792752818158,-0.0013792752847976,0.0013792752812866,-0.0013792752835828,0.0013792752823391,-6.7037113238677e-12,6.8094159770161e-12,-0.0014063175095272,0.0014063175096195,-2.8552727733767e-13,3.9735227292552e-13,-0.0014309878734855,0.0014309878688039,-0.0014309878732579,0.001430987868559,-0.0014309878688822,0.0014309878733579,-0.0014309878685339,0.0014309878734994,-0.0013792752751411,0.0013792752890606,-0.0013792752891889,0.001379275275294,0.73575591755192,0.68645999815631,1368840,32768,0.0058425082860491,0.0058425082861136,0.0058425082859904,37.197134081782,37.1936084,0.00021277707265426,0.00021277707265426,0.00021277707265426,244039.74912301,0.017682229789779
38448000,0.99999978458482,0.01691504862626,0.0056383495420886,0.0056383495421478,0.0056383495420235,-0.0014065192658092,0.0014065192649377,6.0702067358216e-12,-6.9368894357306e-12,8.9291036925996e-14,-9.9323501029339e-13,-0.0014310842126022,0.0014310842164981,-0.0014310842170535,0.0014310842120413,-0.0014310842135966,0.0014310842166652,-0.001431084217823,0.0014310842124033,-0.0013795747087753,0.001379574721009,-0.0013795747221483,0.0013795747074233,-7.8232724749842e-13,3.5053211501391e-13,6.3849890606141e-13,-4.9242319210361e-15,-0.0014065192654362,0.0014065192653431,-0.0014310842146413,0.0014310842148794,-0.0014310842148767,0.0014310842149176,-0.0014310842142102,0.0014310842155247,-0.0014310842144512,0.0014310842151433,-0.0013795747144533,0.0013795747148842,-0.0013795747136728,0.0013795747128178,-0.00137957471574,0.001379574712217,-0.0013795747146045,0.0013795747132251,-6.7074032699048e-12,6.81165429099e-12,-0.0014065192653206,0.0014065192653999,-2.8196803312896e-13,3.8412244179366e-13,-0.0014310842172906,0.0014310842125679,-0.0014310842170272,0.0014310842123532,-0.0014310842127015,0.0014310842171235,-0.0014310842123365,0.0014310842172672,-0.0013795747060556,0.0013795747200713,-0.0013795747198405,0.0013795747063192,0.7436226287714,0.79944244,1368840,32768,0.0058433441998025,0.0058433441998695,0.0058433441997478,37.19394480891,37.1936084,0.00021275155847128,0.00021275155847128,0.00021275155847128,237853.28992826,0.017684781294537
38534400,0.99999979675647,0.016915048825409,0.0056383496084716,0.0056383496085308,0.0056383496084065,-0.0014067856222774,0.0014067856214068,6.0667731348334e-12,-6.9387220856267e-12,9.2093304259829e-14,-9.8880020459719e-13,-0.0014312160228128,0.0014312160267033,-0.0014312160272572,0.001431216022249,-0.0014312160238021,0.0014312160268712,-0.0014312160280293,0.0014312160226132,-0.0013799629333209,0.0013799629455471,-0.0013799629466813,0.0013799629319674,-7.7974097356614e-13,3.5149985015615e-13,6.2887281777886e-13,-4.0081128490214e-16,-0.001406785621905,0.0014067856218115,-0.0014312160248508,0.001431216025089,-0.0014312160250852,0.0014312160251295,-0.0014312160244192,0.0014312160257326,-0.0014312160246614,0.0014312160253506,-0.0013799629390331,0.0013799629394059,-0.001379962938214,0.0013799629373782,-0.0013799629402883,0.0013799629367638,-0.0013799629391177,0.0013799629377418,-6.7100860703001e-12,6.8074381550842e-12,-0.0014067856217919,0.0014067856218658,-2.7724791261952e-13,3.7471455272763e-13,-0.0014312160275011,0.001431216022777,-0.0014312160272381,0.0014312160225585,-0.0014312160229157,0.0014312160273319,-0.0014312160225516,0.0014312160274739,-0.0013799629305988,0.0013799629446006,-0.0013799629443723,0.0013799629308546,0.74587018641163,0.79944244,1368840,32768,0.0058444477375322,0.0058444477375993,0.0058444477374775,37.193642394494,37.1936084,0.00021274913915595,0.00021274913915595,0.00021274913915595,229909.06350521,0.0176881497929
38620800,0.99999980824037,0.016915049013812,0.0056383496712727,0.0056383496713319,0.0056383496712077,-0.0014067966342509,0.0014067966333801,6.0646387882715e-12,-6.9374763589769e-12,9.2585759803885e-14,-9.8893172999095e-13,-0.0014312177079342,0.0014312177118236,-0.0014312177123778,0.0014312177073711,-0.0014312177089243,0.0014312177119914,-0.00143121771315,0.0014312177077348,-0.0013799779357398,0.0013799779479629,-0.0013799779491016,0.0013799779343861,-7.7936780849549e-13,3.5250293715959e-13,6.2405208269606e-13,3.7471502330149e-15,-0.0014067966338778,0.0014067966337845,-0.0014312177099405,0.0014312177101757,-0.0014312177101727,0.0014312177102191,-0.0014312177095086,0.0014312177108201,-0.0014312177097485,0.0014312177104405,-0.0013799779414872,0.0013799779418475,-0.0013799779406548,0.0013799779398283,-0.0013799779427802,0.0013799779392566,-0.0013799779416067,0.0013799779402283,-6.7099996611751e-12,6.80417649002e-12,-0.0014067966337662,0.0014067966338373,-2.7393716081954e-13,3.690919597881e-13,-0.0014312177125892,0.0014312177078658,-0.0014312177123288,0.0014312177076449,-0.0014312177080053,0.0014312177124202,-0.0014312177076436,0.0014312177125594,-0.0013799779330961,0.0013799779470893,-0.0013799779468668,0.0013799779333422,0.74780418427333,0.79944244,1368840,32768,0.0058444933114663,0.0058444933115309,0.0058444933114094,37.193611884379,37.1936084,0.00021274889507503,0.00021274889507503,0.00021274889507503,229066.60930758,0.017688289074961
38707200,0.99999981907539,0.016915049191971,0.0056383497306589,0.0056383497307181,0.0056383497305939,-0.0014068055050508,0.0014068055041797,6.0629946620278e-12,-6.936734558109e-12,9.2356296225605e-14,-9.8896619952616e-13,-0.0014312191079032,0.0014312191117924,-0.0014312191123462,0.0014312191073395,-0.0014312191088925,0.0014312191119598,-0.0014312191131182,0.0014312191077031,-0.001379989689624,0.0013799897018399,-0.001379989702975,0.0013799896882643,-7.7987670471376e-13,3.5179689990501e-13,6.1904385334109e-13,8.8267009385805e-15,-0.0014068055046779,0.0014068055045845,-0.0014312191099223,0.0014312191101543,-0.0014312191101505,0.0014312191102012,-0.0014312191094902,0.0014312191107983,-0.0014312191097264,0.0014312191104228,-0.0013799896953614,0.0013799896957099,-0.001379989694521,0.0013799896937047,-0.0013799896966327,0.0013799896931136,-0.0013799896954586,0.0013799896940854,-6.7105193511813e-12,6.8012969015188e-12,-0.0014068055045681,0.0014068055046354,-2.7136223948162e-13,3.6162174682151e-13,-0.0014312191125691,0.0014312191078464,-0.0014312191123125,0.0014312191076216,-0.0014312191079854,0.0014312191123997,-0.0014312191076274,0.0014312191125353,-0.0013799896869541,0.001379989700939,-0.001379989700718,0.0013799896871969,0.74948454217116,0.79944244,1368840,32768,0.0058445300232098,0.0058445300232757,0.005844530023154,37.193608759179,37.1936084,0.00021274887007343,0.00021274887007343,0.00021274887007343,228341.71425951,0.017688401274999
38793600,0.99999982929819,0.016915049360394,0.0056383497867999,0.0056383497868591,0.0056383497867348,-0.0014068125928075,0.001406812591936,6.0623196238262e-12,-6.936811732222e-12,9.1866370016044e-14,-9.9042862543829e-13,-0.001431220496467,0.001431220500358,-0.0014312205009129,0.001431220495905,-0.0014312204974588,0.0014312205005266,-0.0014312205016957,0.001431220496275,-0.0013799984875318,0.0013799984997486,-0.001379998500869,0.0013799984861573,-7.7856886231451e-13,3.5402271426085e-13,6.1659025182634e-13,1.0885314519937e-14,-0.0014068125924316,0.0014068125923399,-0.001431220498403,0.0014312204986259,-0.0014312204986309,0.0014312204986723,-0.001431220497979,0.001431220499269,-0.0014312204982126,0.0014312204989022,-0.001379998493357,0.0013799984936975,-0.0013799984924988,0.0013799984916928,-0.0013799984947253,0.0013799984912172,-0.0013799984935479,0.001379998492184,-6.7123264724455e-12,6.7989258268947e-12,-0.0014068125923266,0.0014068125923907,-2.7117345113133e-13,3.5726508579686e-13,-0.0014312205010479,0.0014312204963242,-0.0014312205007978,0.0014312204961058,-0.001431220496468,0.0014312205008843,-0.0014312204961095,0.0014312205010093,-0.0013799984850356,0.0013799984990275,-0.0013799984987933,0.0013799984852843,0.75095690831545,0.79944244,1368840,32768,0.0058445593550872,0.0058445593551448,0.0058445593550327,37.193608437719,37.1936084,0.00021274886750175,0.00021274886750175,0.00021274886750175,227713.19804135,0.01768849092391
38880000,0.99999983894338,0.016915049519576,0.0056383498398607,0.0056383498399199,0.0056383498397956,-0.0014068182204702,0.0014068182196025,6.0638742233931e-12,-6.933504068563e-12,9.2506762217207e-14,-9.8717966586824e-13,-0.001431221373065,0.0014312213769678,-0.0014312213775193,0.0014312213725121,-0.0014312213740645,0.0014312213771309,-0.0014312213782916,0.0014312213728844,-0.0013800054133655,0.0013800054255908,-0.0013800054266981,0.0013800054120094,-7.7999567166764e-13,3.5005407079431e-13,6.1286548326253e-13,1.1072661737784e-14,-0.0014068182201004,0.0014068182200036,-0.0014312213750176,0.0014312213752332,-0.0014312213752425,0.0014312213752913,-0.0014312213745808,0.0014312213758888,-0.001431221374815,0.001431221375507,-0.0013800054191846,0.0013800054195151,-0.0013800054183332,0.0013800054174854,-0.0013800054205279,0.0013800054170122,-0.0013800054193419,0.001380005417989,-6.7103134751177e-12,6.7991841425328e-12,-0.0014068182199896,0.0014068182200553,-2.6714525066067e-13,3.5742681615023e-13,-0.0014312213776574,0.0014312213729376,-0.0014312213773895,0.0014312213727098,-0.0014312213730701,0.0014312213774834,-0.0014312213727205,0.0014312213776065,-0.0013800054108376,0.0013800054248269,-0.0013800054246131,0.0013800054111038,0.75225771863505,0.79944244,1368840,32768,0.0058445826432053,0.00584458264327,0.0058445826431474,37.193608404602,37.1936084,0.00021274886723682,0.00021274886723682,0.00021274886723682,227156.37707514,0.017688562104541
