time,ASR_ext,ASR_strain,ASR_strain_xx,ASR_strain_yy,ASR_strain_zz,disp_x_101,disp_x_102,disp_x_103,disp_x_104,disp_x_105,disp_x_106,disp_x_p1_neg,disp_x_p1_pos,disp_x_p2_neg,disp_x_p2_pos,disp_x_p3_neg,disp_x_p3_pos,disp_x_p4_neg,disp_x_p4_pos,disp_x_p5_neg,disp_x_p5_pos,disp_x_p6_neg,disp_x_p6_pos,disp_y_101,disp_y_102,disp_y_103,disp_y_104,disp_y_105,disp_y_106,disp_y_p1_neg,disp_y_p1_pos,disp_y_p2_neg,disp_y_p2_pos,disp_y_p3_neg,disp_y_p3_pos,disp_y_p4_neg,disp_y_p4_pos,disp_y_p5_neg,disp_y_p5_pos,disp_y_p6_neg,disp_y_p6_pos,disp_y_p7_neg,disp_y_p7_pos,disp_y_p8_neg,disp_y_p8_pos,disp_z_101,disp_z_102,disp_z_103,disp_z_104,disp_z_105,disp_z_106,disp_z_p1_neg,disp_z_p1_pos,disp_z_p2_neg,disp_z_p2_pos,disp_z_p3_neg,disp_z_p3_pos,disp_z_p4_neg,disp_z_p4_pos,disp_z_p5_neg,disp_z_p5_pos,disp_z_p6_neg,disp_z_p6_pos,humidity,humidity_bc,ndof,nelem,strain_xx,strain_yy,strain_zz,temp,temp_bc,thermal_strain_xx,thermal_strain_yy,thermal_strain_zz,vonmises,vstrain
2419200,0,0,0,0,0,0,0,0,0,0,0,0,0,0,0,0,0,0,0,0,0,0,0,0,0,0,0,0,0,0,0,0,0,0,0,0,0,0,0,0,0,0,0,0,0,0,0,0,0,0,0,0,0,0,0,0,0,0,0,0,0,0,0,0,0,0,0,0,0,0,0,0,0,0,0,0,0
2505600,0.0094350757504544,0.00019292019385112,6.4306731283708e-05,6.4306731283708e-05,6.4306731283708e-05,-5.2471450560834e-05,5.2471450560507e-05,-1.63543717087e-16,-1.6314207494513e-16,3.2797527469814e-16,-6.6068110341051e-16,-5.1465291121405e-05,5.1465291121406e-05,-5.1465291121405e-05,5.1465291121408e-05,-5.146529112173e-05,5.1465291121076e-05,-5.1465291121728e-05,5.1465291121077e-05,-5.3205837838167e-05,5.320583783751e-05,-5.3205837838168e-05,5.3205837837508e-05,-3.2774182594748e-16,6.6071235245587e-16,1.7698724022012e-16,1.509733290449e-16,-5.2471450560507e-05,5.2471450560834e-05,-5.1465291121406e-05,5.1465291121412e-05,-5.1465291121415e-05,5.1465291121404e-05,-5.1465291121081e-05,5.1465291121742e-05,-5.1465291121091e-05,5.1465291121734e-05,-5.3205837837491e-05,5.3205837838177e-05,-5.3205837837516e-05,5.3205837838153e-05,-5.3205837838135e-05,5.3205837837491e-05,-5.3205837837173e-05,5.3205837838464e-05,4.7379067307898e-18,4.3518891115984e-18,-5.2471450560666e-05,5.2471450560675e-05,-8.3802586947317e-18,1.7532552627846e-17,-5.1465291121411e-05,5.1465291121411e-05,-5.1465291121403e-05,5.146529112142e-05,-5.1465291121411e-05,5.146529112141e-05,-5.1465291121403e-05,5.1465291121419e-05,-5.320583783781e-05,5.3205837837829e-05,-5.3205837837808e-05,5.3205837837825e-05,0.81632500510695,0.89000107803841,1270536,32768,0.00021860705956598,0.00021860705956598,0.00021860705956598,29.88804505053,31.134358786665,0.00015430436040424,0.00015430436040424,0.00015430436040424,314527.86005962,0.00065603663623056
2592000,0.020797460729201,0.0004262109450319,0.00014207031501064,0.00014207031501063,0.00014207031501063,-7.4577419934551e-05,7.4577419934675e-05,5.7148989431719e-17,5.7726177681367e-17,5.0668305059237e-16,-3.8622349525498e-16,-7.3817978302403e-05,7.3817978302805e-05,-7.3817978302452e-05,7.3817978302879e-05,-7.3817978302741e-05,7.3817978302526e-05,-7.381797830283e-05,7.3817978302513e-05,-7.5194138365179e-05,7.5194138365051e-05,-7.5194138365253e-05,7.5194138364919e-05,-2.3286788604593e-16,6.5966550943621e-16,2.1431514399593e-16,1.95802841887e-16,-7.4577419934421e-05,7.457741993483e-05,-7.3817978302346e-05,7.381797830253e-05,-7.3817978302378e-05,7.3817978302485e-05,-7.3817978302075e-05,7.3817978302828e-05,-7.3817978302051e-05,7.3817978302763e-05,-7.5194138364371e-05,7.5194138365013e-05,-7.5194138364455e-05,7.5194138365002e-05,-7.5194138365413e-05,7.5194138365069e-05,-7.5194138364601e-05,7.5194138365883e-05,-1.254741080286e-17,-1.3174229889261e-17,-7.4577419934643e-05,7.457741993461e-05,-1.7754972303666e-17,1.3051071886948e-19,-7.3817978302439e-05,7.3817978302387e-05,-7.3817978302563e-05,7.3817978302451e-05,-7.3817978302486e-05,7.381797830247e-05,-7.3817978302447e-05,7.3817978302436e-05,-7.519413836532e-05,7.5194138365255e-05,-7.5194138365199e-05,7.5194138365216e-05,0.823493973571,0.89156329086413,1270536,32768,0.00031069090998213,0.00031069090998219,0.00031069090998219,31.683708466874,31.842440124136,0.00016866966773499,0.00016866966773499,0.00016866966773499,203181.80015859,0.0009325075007336
2678400,0.033279230581084,0.00068428822625075,0.00022809607541691,0.00022809607541692,0.00022809607541692,-9.6778040623129e-05,9.6778040623016e-05,-5.8194913361814e-17,-5.7114064028078e-17,3.655035400001e-16,-4.8480320430077e-16,-9.5874706253553e-05,9.5874706253733e-05,-9.587470625356e-05,9.5874706253676e-05,-9.5874706253845e-05,9.5874706253431e-05,-9.5874706253807e-05,9.587470625351e-05,-9.7541208458423e-05,9.7541208457947e-05,-9.7541208458422e-05,9.7541208458044e-05,-2.9892469158527e-16,5.5101625506694e-16,1.2054411157778e-16,1.1176129165161e-16,-9.6778040622965e-05,9.67780406232e-05,-9.5874706253743e-05,9.5874706253677e-05,-9.5874706253815e-05,9.5874706253768e-05,-9.5874706253437e-05,9.5874706253936e-05,-9.5874706253505e-05,9.5874706254039e-05,-9.7541208457544e-05,9.7541208458087e-05,-9.7541208457571e-05,9.7541208458048e-05,-9.7541208458309e-05,9.7541208457758e-05,-9.7541208457558e-05,9.7541208458673e-05,-7.5078588753591e-17,-7.5385564669805e-17,-9.6778040623152e-05,9.6778040623006e-05,-6.7657859569421e-17,-5.8233515123733e-17,-9.5874706253811e-05,9.5874706253644e-05,-9.5874706253847e-05,9.5874706253719e-05,-9.5874706253864e-05,9.5874706253662e-05,-9.587470625388e-05,9.5874706253657e-05,-9.7541208457949e-05,9.7541208457846e-05,-9.7541208458042e-05,9.7541208457958e-05,0.82856962933399,0.89127806232602,1270536,32768,0.00040316045187649,0.00040316045187653,0.00040316045187651,32.491670326842,32.550521461607,0.00017513336261474,0.00017513336261474,0.00017513336261474,225640.87451225,0.0012102134718163
2764800,0.046390845321616,0.00095660871175491,0.00031886957058499,0.00031886957058496,0.00031886957058496,-0.00011921988340359,0.00011921988340349,-5.1380783293516e-17,-4.9774214726024e-17,3.362581098985e-16,-4.3923658162394e-16,-0.00011813998412867,0.00011813998412882,-0.00011813998412868,0.00011813998412882,-0.00011813998412893,0.00011813998412856,-0.00011813998412893,0.00011813998412857,-0.00012014471799015,0.0001201447179898,-0.00012014471799017,0.00012014471798979,-3.0959348330807e-16,4.6595635358854e-16,7.7019705924382e-17,6.8845323293219e-17,-0.00011921988340346,0.00011921988340361,-0.00011813998412877,0.00011813998412866,-0.00011813998412879,0.00011813998412867,-0.00011813998412851,0.00011813998412891,-0.00011813998412852,0.00011813998412893,-0.00012014471798968,0.00012014471799009,-0.00012014471798971,0.00012014471799008,-0.00012014471799023,0.00012014471798965,-0.0001201447179895,0.00012014471799042,-9.553016985418e-18,-9.6798513460094e-18,-0.00011921988340354,0.00011921988340353,-9.8765365138832e-18,-5.0549926322685e-19,-0.00011813998412873,0.00011813998412871,-0.00011813998412874,0.00011813998412872,-0.00011813998412874,0.00011813998412872,-0.00011813998412874,0.00011813998412871,-0.00012014471798993,0.00012014471798991,-0.00012014471798992,0.00012014471798993,0.83258672990354,0.89099283378791,1270536,32768,0.00049662602165983,0.0004966260216598,0.0004966260216598,32.83026939697,32.854492038584,0.00017784215517576,0.00017784215517576,0.00017784215517576,256335.68122008,0.0014909890946069
2851200,0.059641370421871,0.0012328144009527,0.00041093813365092,0.00041093813365089,0.00041093813365089,-0.00014114177108505,0.00014114177108498,-3.8370151347626e-17,-3.6745200988745e-17,3.3398979684097e-16,-4.1065289601238e-16,-0.00013989248962339,0.00013989248962356,-0.0001398924896234,0.00013989248962356,-0.00013989248962365,0.00013989248962331,-0.00013989248962364,0.00013989248962332,-0.00014221722685206,0.00014221722685174,-0.00014221722685207,0.00014221722685173,-3.0982877023786e-16,4.3510435491945e-16,6.1707673696456e-17,5.3759387099391e-17,-0.00014114177108495,0.00014114177108507,-0.00013989248962351,0.00013989248962338,-0.00013989248962353,0.00013989248962339,-0.00013989248962326,0.00013989248962362,-0.00013989248962327,0.00013989248962364,-0.00014221722685163,0.00014221722685199,-0.00014221722685166,0.00014221722685199,-0.00014221722685215,0.00014221722685157,-0.00014221722685145,0.00014221722685231,-8.2975406334764e-18,-8.4188604566508e-18,-0.00014114177108501,0.000141141771085,-8.5438566381033e-18,6.1579001156725e-19,-0.00013989248962346,0.00013989248962344,-0.00013989248962347,0.00013989248962345,-0.00013989248962347,0.00013989248962345,-0.00013989248962347,0.00013989248962344,-0.00014221722685184,0.00014221722685183,-0.00014221722685184,0.00014221722685185,0.83593413265122,0.89070760524979,1270536,32768,0.00058791764161674,0.00058791764161671,0.0005879176416167,32.734779413275,32.729407863211,0.0001770782353062,0.0001770782353062,0.0001770782353062,282045.87254644,0.0017653101179592
2937600,0.072991080339184,0.001511971344249,0.00050399044808303,0.00050399044808299,0.00050399044808299,-0.00016325068245502,0.00016325068245496,-2.9763796618797e-17,-2.8076348169189e-17,3.317766291576e-16,-3.9120128436341e-16,-0.0001618226368024,0.00016182263680257,-0.00016182263680241,0.00016182263680258,-0.00016182263680264,0.00016182263680233,-0.00016182263680264,0.00016182263680234,-0.00016447813693546,0.00016447813693516,-0.00016447813693547,0.00016447813693515,-3.1185076729077e-16,4.1175580349579e-16,4.9969061714759e-17,4.0601700822381e-17,-0.00016325068245494,0.00016325068245503,-0.00016182263680253,0.00016182263680238,-0.00016182263680255,0.00016182263680239,-0.00016182263680228,0.00016182263680261,-0.00016182263680229,0.00016182263680263,-0.00016447813693506,0.00016447813693539,-0.00016447813693509,0.00016447813693538,-0.00016447813693555,0.00016447813693497,-0.00016447813693488,0.00016447813693569,-6.8490554719391e-18,-6.9556698620015e-18,-0.00016325068245499,0.00016325068245498,-7.9593156718991e-18,2.5201435995782e-18,-0.00016182263680246,0.00016182263680245,-0.00016182263680247,0.00016182263680246,-0.00016182263680247,0.00016182263680246,-0.00016182263680247,0.00016182263680245,-0.00016447813693524,0.00016447813693524,-0.00016447813693524,0.00016447813693525,0.8388111724683,0.89042237671169,1270536,32768,0.00067997964905314,0.0006799796490531,0.0006799796490531,32.612468298898,32.604323687838,0.00017609974639118,0.00017609974639118,0.00017609974639118,307843.6833615,0.0020420222235688
3024000,0.086426848255011,0.0017928995848087,0.00059763319493626,0.00059763319493621,0.00059763319493621,-0.00018549958385432,0.00018549958385427,-2.3400020439556e-17,-2.1738306497894e-17,3.2954140332457e-16,-3.7585616491098e-16,-0.00018391283835737,0.00018391283835756,-0.00018391283835738,0.00018391283835756,-0.00018391283835762,0.00018391283835732,-0.00018391283835761,0.00018391283835733,-0.00018685177362628,0.00018685177362601,-0.00018685177362629,0.000186851773626,-3.1176988740865e-16,3.9445118508118e-16,4.217518216537e-17,3.1263750796226e-17,-0.00018549958385425,0.00018549958385432,-0.00018391283835751,0.00018391283835735,-0.00018391283835753,0.00018391283835736,-0.00018391283835727,0.00018391283835758,-0.00018391283835728,0.00018391283835759,-0.00018685177362591,0.00018685177362622,-0.00018685177362594,0.00018685177362621,-0.00018685177362639,0.00018685177362581,-0.00018685177362573,0.0001868517736265,-6.2277509229548e-18,-6.3453943878512e-18,-0.00018549958385429,0.00018549958385428,-8.0843118533516e-18,3.83076532569e-18,-0.00018391283835744,0.00018391283835743,-0.00018391283835745,0.00018391283835744,-0.00018391283835745,0.00018391283835744,-0.00018391283835745,0.00018391283835742,-0.00018685177362608,0.00018685177362608,-0.00018685177362608,0.00018685177362609,0.83891132534319,0.87677430802203,1270536,32768,0.00077261601771871,0.00077261601771867,0.00077261601771866,32.487657672971,32.479239512465,0.00017510126138377,0.00017510126138377,0.00017510126138377,325284.40314316,0.0023205378646844
3110400,0.099938423557901,0.0020741545811311,0.00069138486037706,0.00069138486037701,0.000691384860377,-0.00020777992902453,0.00020777992902449,-1.8833983458263e-17,-1.7139182292099e-17,3.2879142623586e-16,-3.6601823015902e-16,-0.00020608017095537,0.00020608017095555,-0.00020608017095538,0.00020608017095556,-0.0002060801709556,0.00020608017095532,-0.0002060801709556,0.00020608017095533,-0.00020920427034709,0.00020920427034683,-0.0002092042703471,0.00020920427034682,-3.1224046126824e-16,3.8361328087759e-16,3.5381272067602e-17,2.6966087969229e-17,-0.00020777992902447,0.00020777992902453,-0.00020608017095551,0.00020608017095534,-0.00020608017095553,0.00020608017095535,-0.00020608017095527,0.00020608017095556,-0.00020608017095528,0.00020608017095558,-0.00020920427034673,0.00020920427034702,-0.00020920427034676,0.00020920427034702,-0.0002092042703472,0.00020920427034661,-0.00020920427034655,0.0002092042703473,-5.5292428501322e-18,-5.6910026143648e-18,-0.0002077799290245,0.0002077799290245,-6.1946636984527e-18,3.1690208356476e-18,-0.00020608017095543,0.00020608017095542,-0.00020608017095544,0.00020608017095543,-0.00020608017095544,0.00020608017095543,-0.00020608017095544,0.00020608017095542,-0.00020920427034689,0.00020920427034688,-0.00020920427034688,0.0002092042703469,0.83525576244756,0.84958561210054,1270536,32768,0.00086537471703785,0.0008653747170378,0.0008653747170378,32.362598223499,32.354155337091,0.00017410078578799,0.00017410078578799,0.00017410078578799,328772.7306912,0.0025994988205121
3196800,0.11351592583626,0.0023551399066126,0.00078504663553758,0.00078504663553752,0.00078504663553752,-0.00023004401862141,0.00023004401862138,-1.4426029882925e-17,-1.269446513398e-17,3.2354893933141e-16,-3.5177234183172e-16,-0.00022827968428284,0.00022827968428303,-0.00022827968428285,0.00022827968428303,-0.00022827968428307,0.0002282796842828,-0.00022827968428307,0.00022827968428281,-0.00023149194104316,0.00023149194104292,-0.00023149194104318,0.00023149194104291,-3.0869645188823e-16,3.6783067479008e-16,2.9892469158527e-17,2.0580253640319e-17,-0.00023004401862135,0.00023004401862141,-0.00022827968428298,0.00022827968428281,-0.000228279684283,0.00022827968428282,-0.00022827968428275,0.00022827968428303,-0.00022827968428276,0.00022827968428304,-0.00023149194104282,0.0002314919410431,-0.00023149194104285,0.00023149194104309,-0.00023149194104328,0.0002314919410427,-0.00023149194104265,0.00023149194104337,-4.650593221687e-18,-4.8344111355877e-18,-0.00023004401862138,0.00023004401862138,-5.9373186189917e-18,4.36751363428e-18,-0.0002282796842829,0.00022827968428289,-0.00022827968428291,0.0002282796842829,-0.00022827968428291,0.0002282796842829,-0.00022827968428291,0.00022827968428289,-0.00023149194104297,0.00023149194104297,-0.00023149194104296,0.00023149194104298,0.83036995201464,0.82666567875123,1270536,32768,0.00095805716134019,0.00095805716134014,0.00095805716134013,32.237513609258,32.229071161718,0.00017310010887406,0.00017310010887406,0.00017310010887406,319610.94236559,0.0028783079209273
3283200,0.12714912151046,0.0026328608109546,0.00087762027031825,0.00087762027031819,0.00087762027031818,-0.00025204877640179,0.00025204877640176,-1.1558470426074e-17,-9.7717603029598e-18,3.2087255050501e-16,-3.4309981265388e-16,-0.00025032948216026,0.00025032948216046,-0.00025032948216027,0.00025032948216046,-0.00025032948216049,0.00025032948216023,-0.00025032948216049,0.00025032948216024,-0.00025340404563769,0.00025340404563745,-0.0002534040456377,0.00025340404563744,-3.0681415644989e-16,3.5852581198843e-16,2.7521218069209e-17,1.5800987878902e-17,-0.00025204877640174,0.00025204877640178,-0.00025032948216041,0.00025032948216023,-0.00025032948216043,0.00025032948216024,-0.00025032948216018,0.00025032948216045,-0.00025032948216019,0.00025032948216046,-0.00025340404563736,0.00025340404563763,-0.00025340404563739,0.00025340404563762,-0.0002534040456378,0.00025340404563723,-0.00025340404563719,0.00025340404563789,-4.6285350720189e-18,-4.8822037932019e-18,-0.00025204877640176,0.00025204877640176,-7.102724193122e-18,5.5071847004642e-18,-0.00025032948216033,0.00025032948216032,-0.00025032948216034,0.00025032948216033,-0.00025032948216034,0.00025032948216033,-0.00025032948216034,0.00025032948216032,-0.0002534040456375,0.0002534040456375,-0.00025340404563749,0.00025340404563751,0.81721011915912,0.76479338888033,1270536,32768,0.0010496516486501,0.00104965164865,0.00104965164865,32.11242643997,32.103986986345,0.00017209941151976,0.00017209941151976,0.00017209941151976,285079.32065447,0.0031539201722108
3369600,0.14082829604634,0.0029075953457551,0.00096919844858506,0.000969198448585,0.000969198448585,-0.00027381639443653,0.00027381639443651,-9.8894037678562e-18,-8.0585773454055e-18,3.1794616931572e-16,-3.3682794543159e-16,-0.00027222837070246,0.00027222837070265,-0.00027222837070247,0.00027222837070266,-0.00027222837070269,0.00027222837070244,-0.00027222837070269,0.00027222837070245,-0.00027500640937871,0.00027500640937848,-0.00027500640937872,0.00027500640937847,-3.0525538054001e-16,3.5106280468406e-16,2.3241937033601e-17,1.4448088032593e-17,-0.00027381639443649,0.00027381639443653,-0.00027222837070261,0.00027222837070243,-0.00027222837070263,0.00027222837070244,-0.00027222837070239,0.00027222837070264,-0.0002722283707024,0.00027222837070266,-0.00027500640937839,0.00027500640937864,-0.00027500640937842,0.00027500640937864,-0.00027500640937883,0.00027500640937825,-0.00027500640937822,0.0002750064093789,-4.8674983600898e-18,-5.1469015892188e-18,-0.00027381639443651,0.0002738163944365,-5.9740822017719e-18,3.6690055614574e-18,-0.00027222837070253,0.00027222837070252,-0.00027222837070254,0.00027222837070253,-0.00027222837070254,0.00027222837070253,-0.00027222837070254,0.00027222837070252,-0.00027500640937852,0.00027500640937852,-0.00027500640937852,0.00027500640937854,0.80543206920969,0.73261215393987,1270536,32768,0.001140250826592,0.001140250826592,0.001140250826592,31.987339011309,31.978902810972,0.00017109871209047,0.00017109871209047,0.00017109871209047,240581.89640845,0.0034266118445259
3456000,0.15454222588092,0.0031788212552018,0.0010596070850673,0.0010596070850672,0.0010596070850672,-0.00029529843881046,0.00029529843881044,-7.5953562023758e-18,-5.8380569454854e-18,3.1424040017148e-16,-3.2857819745573e-16,-0.00029393240845179,0.00029393240845199,-0.0002939324084518,0.00029393240845199,-0.00029393240845201,0.00029393240845177,-0.00029393240845201,0.00029393240845178,-0.0002962500744672,0.00029625007446698,-0.00029625007446721,0.00029625007446697,-3.0285839494275e-16,3.415925057599e-16,1.9433229857579e-17,1.1337888929394e-17,-0.00029529843881042,0.00029529843881045,-0.00029393240845194,0.00029393240845176,-0.00029393240845196,0.00029393240845177,-0.00029393240845172,0.00029393240845197,-0.00029393240845173,0.00029393240845198,-0.00029625007446689,0.00029625007446713,-0.00029625007446692,0.00029625007446713,-0.00029625007446732,0.00029625007446675,-0.00029625007446672,0.00029625007446739,-5.3601303693436e-18,-5.5660064329124e-18,-0.00029529843881044,0.00029529843881043,-6.1064310997804e-18,2.9410866224108e-18,-0.00029393240845186,0.00029393240845185,-0.00029393240845187,0.00029393240845186,-0.00029393240845187,0.00029393240845186,-0.00029393240845187,0.00029393240845185,-0.00029625007446702,0.00029625007446701,-0.00029625007446701,0.00029625007446703,0.79287083888995,0.70043091899941,1270536,32768,0.0012296533997752,0.0012296533997751,0.0012296533997751,31.862251556598,31.853818635599,0.00017009801245278,0.00017009801245278,0.00017009801245278,209303.67376806,0.0036957744213876
3542400,0.1684175934358,0.0034486119758502,0.0011495373252835,0.0011495373252834,0.0011495373252834,-0.00031690833548065,0.00031690833548063,-7.4556545878113e-18,-5.6101227322485e-18,3.1387276434368e-16,-3.2771057690212e-16,-0.00031585374688912,0.00031585374688931,-0.00031585374688913,0.00031585374688931,-0.00031585374688934,0.00031585374688909,-0.00031585374688934,0.00031585374688911,-0.00031755195008417,0.00031755195008395,-0.00031755195008419,0.00031755195008395,-3.0300544927387e-16,3.4027636949637e-16,1.7572992568904e-17,1.1904048104208e-17,-0.00031690833548061,0.00031690833548064,-0.00031585374688926,0.00031585374688908,-0.00031585374688928,0.00031585374688909,-0.00031585374688905,0.00031585374688929,-0.00031585374688905,0.0003158537468893,-0.00031755195008387,0.0003175519500841,-0.00031755195008389,0.0003175519500841,-0.00031755195008429,0.00031755195008372,-0.00031755195008369,0.00031755195008436,-4.5807424144048e-18,-4.8086766276416e-18,-0.00031690833548063,0.00031690833548062,-4.1836957203793e-18,2.4190437469329e-18,-0.00031585374688918,0.00031585374688917,-0.00031585374688919,0.00031585374688918,-0.00031585374688919,0.00031585374688918,-0.00031585374688919,0.00031585374688917,-0.00031755195008399,0.00031755195008399,-0.00031755195008398,0.000317551950084,0.77944564919747,0.66824968405895,1270536,32768,0.0013195800151672,0.0013195800151671,0.0013195800151671,31.866077898626,31.866037061444,0.00017012862318901,0.00017012862318901,0.00017012862318901,213492.57821442,0.0039665874792393
3628800,0.18258708368004,0.0037197663445555,0.0012399221148519,0.0012399221148518,0.0012399221148518,-0.00033887750403012,0.00033887750403011,-7.1836040752383e-18,-5.3160140700075e-18,3.1266691882849e-16,-3.2599739394457e-16,-0.00033822451378942,0.00033822451378962,-0.00033822451378944,0.00033822451378962,-0.00033822451378964,0.0003382245137894,-0.00033822451378964,0.00033822451378942,-0.00033914961835906,0.00033914961835884,-0.00033914961835907,0.00033914961835883,-3.0188783635735e-16,3.3865141913749e-16,1.8330322374175e-17,1.0609969990347e-17,-0.00033887750403008,0.00033887750403011,-0.00033822451378957,0.00033822451378939,-0.00033822451378959,0.0003382245137894,-0.00033822451378936,0.0003382245137896,-0.00033822451378936,0.00033822451378961,-0.00033914961835875,0.00033914961835899,-0.00033914961835878,0.00033914961835898,-0.00033914961835918,0.00033914961835861,-0.00033914961835858,0.00033914961835925,-4.4630989495083e-18,-4.7645603283054e-18,-0.0003388775040301,0.0003388775040301,-4.9998472580983e-18,3.6690055614574e-18,-0.00033822451378949,0.00033822451378948,-0.0003382245137895,0.00033822451378949,-0.0003382245137895,0.00033822451378949,-0.0003382245137895,0.00033822451378948,-0.00033914961835888,0.00033914961835887,-0.00033914961835887,0.00033914961835889,0.76722953489703,0.64735214500615,1270536,32768,0.0014109934038477,0.0014109934038476,0.0014109934038476,32.003033557052,32.011945642157,0.00017122426845641,0.00017122426845641,0.00017122426845641,243008.0895751,0.0042419528277187
3715200,0.19704744300636,0.0039938075067562,0.0013312691689188,0.0013312691689187,0.0013312691689187,-0.0003610924890851,0.00036109248908509,-7.2130149414624e-18,-5.2571923375592e-18,3.1247574819803e-16,-3.2534300217108e-16,-0.0003609015363708,0.00036090153637099,-0.00036090153637081,0.00036090153637099,-0.00036090153637102,0.00036090153637077,-0.00036090153637102,0.00036090153637079,-0.0003609763726212,0.00036097637262098,-0.00036097637262121,0.00036097637262097,-3.0154961139578e-16,3.3802643823023e-16,1.8300911507951e-17,1.030850861155e-17,-0.00036109248908507,0.0003610924890851,-0.00036090153637095,0.00036090153637076,-0.00036090153637097,0.00036090153637077,-0.00036090153637073,0.00036090153637097,-0.00036090153637074,0.00036090153637099,-0.00036097637262089,0.00036097637262113,-0.00036097637262092,0.00036097637262112,-0.00036097637262132,0.00036097637262075,-0.00036097637262073,0.00036097637262139,-4.1395794210432e-18,-4.4630989495083e-18,-0.00036109248908508,0.00036109248908508,-4.8307347773097e-18,4.0807576885949e-18,-0.00036090153637086,0.00036090153637085,-0.00036090153637087,0.00036090153637086,-0.00036090153637087,0.00036090153637087,-0.00036090153637087,0.00036090153637085,-0.00036097637262102,0.00036097637262102,-0.00036097637262101,0.00036097637262103,0.76016952268346,0.65446358265355,1270536,32768,0.0015034211189862,0.0015034211189861,0.0015034211189861,32.148102199377,32.15785422287,0.00017238481759501,0.00017238481759501,0.00017238481759501,291690.48461631,0.0045204505073548
3801600,0.21178832713121,0.0042711618501616,0.0014237206167206,0.0014237206167205,0.0014237206167205,-0.00038358377485866,0.00038358377485865,-7.8085849825006e-18,-5.8748205282655e-18,3.1334336875164e-16,-3.2754881713789e-16,-0.00038389782842241,0.0003838978284226,-0.00038389782842242,0.00038389782842261,-0.00038389782842263,0.00038389782842239,-0.00038389782842263,0.0003838978284224,-0.00038307695472369,0.00038307695472346,-0.0003830769547237,0.00038307695472346,-3.0325544163677e-16,3.3938669079309e-16,1.8631783752972e-17,9.558531522835e-18,-0.00038358377485863,0.00038358377485866,-0.00038389782842256,0.00038389782842237,-0.00038389782842258,0.00038389782842238,-0.00038389782842234,0.00038389782842258,-0.00038389782842235,0.0003838978284226,-0.00038307695472337,0.00038307695472361,-0.0003830769547234,0.00038307695472361,-0.00038307695472381,0.00038307695472324,-0.00038307695472321,0.00038307695472388,-4.3013391852757e-18,-4.6175059971849e-18,-0.00038358377485864,0.00038358377485864,-5.5880645825805e-18,4.3969245005041e-18,-0.00038389782842248,0.00038389782842247,-0.00038389782842249,0.00038389782842248,-0.00038389782842248,0.00038389782842248,-0.00038389782842248,0.00038389782842246,-0.00038307695472351,0.0003830769547235,-0.0003830769547235,0.00038307695472352,0.75514537423976,0.66157502030094,1270536,32768,0.0015969896878846,0.0015969896878846,0.0015969896878846,32.293923186594,32.303762803583,0.00017355138549275,0.00017355138549275,0.00017355138549275,345624.19724328,0.0048024645149807
3888000,0.22679748233351,0.0045520198612468,0.001517339953749,0.0015173399537489,0.0015173399537489,-0.00040636094640897,0.00040636094640896,-7.2424258076865e-18,-5.5513009998003e-18,3.1476979576351e-16,-3.2812232902926e-16,-0.00040721272518691,0.00040721272518711,-0.00040721272518692,0.00040721272518711,-0.00040721272518713,0.00040721272518689,-0.00040721272518714,0.0004072127251869,-0.00040546257859143,0.00040546257859121,-0.00040546257859144,0.0004054625785912,-3.0415247305661e-16,3.4043077654405e-16,2.0675838955548e-17,7.3527165560269e-18,-0.00040636094640894,0.00040636094640897,-0.00040721272518707,0.00040721272518688,-0.00040721272518709,0.00040721272518689,-0.00040721272518685,0.00040721272518709,-0.00040721272518686,0.0004072127251871,-0.00040546257859111,0.00040546257859136,-0.00040546257859115,0.00040546257859135,-0.00040546257859155,0.00040546257859098,-0.00040546257859095,0.00040546257859162,-3.9189979243623e-18,-3.9851723733666e-18,-0.00040636094640895,0.00040636094640895,-7.3380111229149e-18,6.9262589957774e-18,-0.00040721272518698,0.00040721272518697,-0.00040721272518699,0.00040721272518698,-0.00040721272518699,0.00040721272518698,-0.00040721272518699,0.00040721272518697,-0.00040546257859125,0.00040546257859124,-0.00040546257859124,0.00040546257859126,0.75149665489676,0.66868645794834,1270536,32768,0.0016917386578555,0.0016917386578555,0.0016917386578555,32.439818897466,32.449671384295,0.00017471855117973,0.00017471855117973,0.00017471855117973,402230.63469254,0.0050881170227888
3974400,0.24206150248457,0.0048364568138515,0.0016121522712839,0.0016121522712838,0.0016121522712838,-0.00042942990313428,0.00042942990313427,-6.1468710408385e-18,-4.5145679654005e-18,3.1319631442052e-16,-3.2435038543602e-16,-0.00043083696057559,0.00043083696057578,-0.0004308369605756,0.00043083696057579,-0.00043083696057581,0.00043083696057557,-0.00043083696057581,0.00043083696057558,-0.00042814517733623,0.00042814517733602,-0.00042814517733625,0.00042814517733601,-3.0162313856134e-16,3.3758527523686e-16,2.3955150539536e-17,3.5072457972248e-18,-0.00042942990313424,0.00042942990313427,-0.00043083696057574,0.00043083696057556,-0.00043083696057576,0.00043083696057557,-0.00043083696057553,0.00043083696057577,-0.00043083696057554,0.00043083696057578,-0.00042814517733591,0.00042814517733616,-0.00042814517733596,0.00042814517733615,-0.00042814517733635,0.00042814517733578,-0.00042814517733576,0.00042814517733642,-2.5293344952733e-18,-2.5587453614974e-18,-0.00042942990313426,0.00042942990313426,-9.3379500261542e-18,1.206580786844e-17,-0.00043083696057566,0.00043083696057565,-0.00043083696057566,0.00043083696057566,-0.00043083696057567,0.00043083696057566,-0.00043083696057566,0.00043083696057565,-0.00042814517733605,0.00042814517733605,-0.00042814517733604,0.00042814517733607,0.74887652282743,0.67579789559573,1270536,32768,0.0017876922300995,0.0017876922300994,0.0017876922300994,32.585722157324,32.595579965008,0.00017588577725859,0.00017588577725859,0.00017588577725859,456250.00552299,0.0053774840809597
4060800,0.25756645446787,0.0051245194958645,0.0017081731652882,0.0017081731652881,0.0017081731652881,-0.00045279426768661,0.0004527942676866,-4.6028005640728e-18,-2.7057996926179e-18,3.1122578638351e-16,-3.1895349148389e-16,-0.00045476171613061,0.0004547617161308,-0.00045476171613062,0.00045476171613081,-0.00045476171613083,0.00045476171613059,-0.00045476171613083,0.00045476171613061,-0.00045113352482329,0.00045113352482308,-0.00045113352482331,0.00045113352482307,-2.9924085839718e-16,3.3263689699466e-16,1.7131829575543e-17,7.9703447467332e-18,-0.00045279426768658,0.00045279426768661,-0.00045476171613076,0.00045476171613058,-0.00045476171613078,0.00045476171613059,-0.00045476171613055,0.00045476171613078,-0.00045476171613056,0.0004547617161308,-0.00045113352482298,0.00045113352482322,-0.00045113352482301,0.00045113352482321,-0.00045113352482342,0.00045113352482285,-0.00045113352482283,0.00045113352482348,-4.0145832395907e-18,-4.3454554846119e-18,-0.00045279426768659,0.00045279426768659,-5.2866032037834e-18,4.8674983600898e-18,-0.00045476171613068,0.00045476171613067,-0.00045476171613069,0.00045476171613068,-0.00045476171613069,0.00045476171613068,-0.00045476171613069,0.00045476171613067,-0.00045113352482312,0.00045113352482311,-0.00045113352482311,0.00045113352482313,0.74707193205324,0.68290933324313,1270536,32768,0.0018848651251477,0.0018848651251477,0.0018848651251477,32.731626183144,32.741488545721,0.00017705300946515,0.00017705300946515,0.00017705300946515,502104.99843709,0.0056706132531746
4147200,0.27329728153438,0.0054162039716547,0.0018054013238849,0.0018054013238849,0.0018054013238849,-0.00047645353711134,0.00047645353711148,6.6343561485031e-17,6.815968247437e-17,3.7873842980095e-16,-2.4571308186931e-16,-0.00047897671426027,0.00047897671426064,-0.00047897671426025,0.00047897671426062,-0.00047897671426043,0.00047897671426038,-0.00047897671426044,0.00047897671426038,-0.00047443081692515,0.00047443081692512,-0.00047443081692512,0.00047443081692507,-2.7057996926179e-16,3.5537149658589e-16,4.2189887598482e-17,3.7248862072832e-17,-0.00047645353711138,0.00047645353711146,-0.00047897671426075,0.00047897671426057,-0.00047897671426078,0.00047897671426054,-0.00047897671426046,0.00047897671426081,-0.00047897671426052,0.00047897671426079,-0.00047443081692478,0.00047443081692509,-0.00047443081692474,0.00047443081692511,-0.0004744308169252,0.0004744308169247,-0.00047443081692471,0.00047443081692539,-1.2265066487109e-16,-1.2325358762868e-16,-0.00047645353711154,0.0004764535371113,-1.2139335034e-16,-1.1562882056008e-16,-0.00047897671426076,0.00047897671426047,-0.00047897671426076,0.00047897671426052,-0.00047897671426077,0.00047897671426053,-0.00047897671426078,0.00047897671426055,-0.00047443081692505,0.0004744308169248,-0.0004744308169251,0.00047443081692481,0.74593885387003,0.69002077089052,1270536,32768,0.0019832548979441,0.0019832548979441,0.0019832548979441,32.877530286371,32.887397126434,0.00017822024229096,0.00017822024229096,0.00017822024229096,538411.64605465,0.0059675003886628
4233600,0.28923764695434,0.0057114533839169,0.001903817794639,0.001903817794639,0.001903817794639,-0.00050040295130308,0.000500402951303,-3.777090494831e-17,-3.6197423605321e-17,2.7635920447483e-16,-3.3673236011636e-16,-0.0005034688482265,0.00050346884822661,-0.00050346884822652,0.0005034688482266,-0.00050346884822675,0.0005034688482264,-0.00050346884822669,0.00050346884822636,-0.0004980354453041,0.00049803544530379,-0.00049803544530415,0.00049803544530386,-2.6602128499705e-16,3.492834472775e-16,3.8888517864826e-17,2.6300667120908e-17,-0.00050040295130301,0.00050040295130309,-0.00050346884822674,0.00050346884822669,-0.00050346884822674,0.0005034688482266,-0.00050346884822648,0.00050346884822678,-0.00050346884822651,0.00050346884822681,-0.00049803544530373,0.00049803544530403,-0.00049803544530367,0.00049803544530396,-0.00049803544530399,0.00049803544530345,-0.00049803544530351,0.00049803544530411,-3.3138693518013e-17,-3.3660736393491e-17,-0.00050040295130308,0.00050040295130302,-3.6454768684781e-17,-2.2006680652189e-17,-0.00050346884822676,0.00050346884822662,-0.0005034688482267,0.00050346884822659,-0.00050346884822668,0.00050346884822661,-0.00050346884822665,0.00050346884822664,-0.00049803544530369,0.00049803544530366,-0.0004980354453037,0.0004980354453037,0.74537356849621,0.69713220853792,1270536,32768,0.0020828413989318,0.0020828413989319,0.0020828413989319,33.02343439698,33.033305707146,0.00017938747517584,0.00017938747517584,0.00017938747517584,565234.15524645,0.0062680879215031
4320000,0.30545766570953,0.0060117293711816,0.0020039097903939,0.0020039097903939,0.0020039097903939,-0.0005249090601376,0.00052490906013767,4.2954570120309e-17,4.4006008587821e-17,3.4028372221293e-16,-2.7674154573574e-16,-0.00052849806868036,0.00052849806868054,-0.00052849806868038,0.00052849806868059,-0.00052849806868052,0.00052849806868036,-0.00052849806868049,0.0005284980686804,-0.00052221576410253,0.00052221576410256,-0.0005222157641027,0.00052221576410257,-3.1518154789065e-16,3.0385836439437e-16,4.3969245005041e-18,-1.2918722988939e-17,-0.00052490906013765,0.00052490906013764,-0.00052849806868052,0.00052849806868024,-0.0005284980686804,0.00052849806868027,-0.00052849806868034,0.00052849806868056,-0.00052849806868022,0.00052849806868047,-0.00052221576410236,0.00052221576410269,-0.00052221576410261,0.00052221576410281,-0.00052221576410285,0.00052221576410224,-0.00052221576410245,0.000522215764103,-5.2608686958373e-17,-5.4233637317255e-17,-0.0005249090601377,0.0005249090601376,-5.5983583857589e-17,-3.7182687623828e-17,-0.00052849806868051,0.0005284980686804,-0.00052849806868052,0.00052849806868037,-0.00052849806868051,0.00052849806868034,-0.00052849806868042,0.00052849806868036,-0.00052221576410272,0.00052221576410242,-0.00052221576410272,0.00052221576410251,0.74516038402244,0.70348514477375,1270536,32768,0.0021847324738312,0.0021847324738313,0.0021847324738313,33.247050919845,33.262008750992,0.00018117640735876,0.00018117640735876,0.00018117640735876,582753.3545176,0.006575724485807
4406400,0.32202299732451,0.0063182427507422,0.002106080916914,0.0021060809169141,0.0021060809169141,-0.00055006097014162,0.00055006097014173,5.0557279039241e-17,5.091020943393e-17,3.6548883456699e-16,-2.632713690051e-16,-0.00055415725836059,0.00055415725836088,-0.00055415725836055,0.00055415725836088,-0.00055415725836076,0.00055415725836064,-0.00055415725836075,0.0005541572583607,-0.00054705461520844,0.00054705461520826,-0.00054705461520842,0.00054705461520823,-3.0302015470698e-16,3.2748999540544e-16,1.5043658073631e-17,2.4999236290492e-19,-0.00055006097014167,0.0005500609701417,-0.00055415725836102,0.00055415725836086,-0.00055415725836107,0.00055415725836079,-0.00055415725836079,0.00055415725836107,-0.00055415725836079,0.00055415725836106,-0.00054705461520841,0.0005470546152086,-0.00054705461520839,0.00054705461520859,-0.00054705461520867,0.00054705461520808,-0.00054705461520807,0.00054705461520882,2.5366872118293e-18,6.3233362381831e-19,-0.00055006097014169,0.0005500609701417,-4.8380874938657e-18,1.0499679242006e-17,-0.000554157258361,0.00055415725836096,-0.00055415725836103,0.00055415725836094,-0.00055415725836098,0.00055415725836095,-0.00055415725836098,0.00055415725836096,-0.00054705461520853,0.00054705461520848,-0.00054705461520842,0.00054705461520855,0.74487408674984,0.70739061052005,1270536,32768,0.0022892978459866,0.0022892978459866,0.0022892978459866,33.544652209022,33.564636033845,0.00018355721767217,0.00018355721767217,0.00018355721767217,593508.15803488,0.0068915333005185
4492800,0.33891915406118,0.0066308076511624,0.0022102692170541,0.0022102692170542,0.0022102692170542,-0.00057570883052329,0.00057570883052325,-2.3308111482605e-17,-2.2572839827003e-17,2.8722651954464e-16,-3.2324012523606e-16,-0.00058029771278092,0.00058029771278114,-0.00058029771278096,0.00058029771278111,-0.00058029771278121,0.00058029771278099,-0.00058029771278119,0.00058029771278091,-0.00057240021375684,0.00057240021375649,-0.00057240021375682,0.00057240021375654,-2.5810976198277e-16,3.5357743374622e-16,4.5263323118902e-17,3.286664300544e-17,-0.00057570883052324,0.00057570883052331,-0.00058029771278104,0.00058029771278085,-0.0005802977127811,0.00058029771278091,-0.00058029771278078,0.00058029771278113,-0.00058029771278087,0.00058029771278112,-0.00057240021375672,0.00057240021375701,-0.00057240021375678,0.00057240021375704,-0.00057240021375725,0.00057240021375669,-0.0005724002137566,0.00057240021375723,-5.942465520581e-17,-6.1012841981911e-17,-0.00057570883052332,0.00057570883052322,-5.5101257870866e-17,-4.1278150745535e-17,-0.00058029771278109,0.000580297712781,-0.00058029771278108,0.0005802977127809,-0.00058029771278108,0.00058029771278094,-0.00058029771278104,0.00058029771278091,-0.0005724002137569,0.00057240021375685,-0.00057240021375688,0.00057240021375683,0.7447385714248,0.71129607626636,1270536,32768,0.0023959137923113,0.0023959137923113,0.0023959137923113,33.846790614766,33.867263316698,0.00018597432491813,0.00018597432491813,0.00018597432491813,599343.4414178,0.0072136373241242
4579200,0.35612456968241,0.006949111810485,0.002316370603495,0.002316370603495,0.002316370603495,-0.00060182094121168,0.00060182094121166,-3.544009380005e-18,-3.264606150876e-18,3.0546125660358e-16,-3.0347602313346e-16,-0.00060688334281803,0.00060688334281819,-0.00060688334281806,0.00060688334281822,-0.00060688334281816,0.00060688334281804,-0.00060688334281826,0.000606883342818,-0.00059822338183928,0.00059822338183903,-0.0005982233818393,0.00059822338183907,-2.7434456013848e-16,3.3376921534429e-16,3.2998991903449e-17,2.892558693141e-17,-0.00060182094121164,0.0006018209412117,-0.00060688334281797,0.00060688334281779,-0.00060688334281792,0.0006068833428177,-0.00060688334281771,0.00060688334281791,-0.00060688334281767,0.00060688334281797,-0.00059822338183913,0.00059822338183928,-0.00059822338183915,0.00059822338183932,-0.00059822338183959,0.00059822338183907,-0.000598223381839,0.00059822338183973,-2.6190376372568e-17,-2.7719741416221e-17,-0.00060182094121169,0.00060182094121165,-1.4881898309398e-17,-9.9114619175243e-18,-0.0006068833428179,0.00060688334281777,-0.00060688334281784,0.00060688334281773,-0.00060688334281789,0.00060688334281779,-0.00060688334281785,0.00060688334281787,-0.00059822338183926,0.00059822338183922,-0.00059822338183931,0.00059822338183925,0.74477366897677,0.71520154201266,1270536,32768,0.0025044479044444,0.0025044479044444,0.0025044479044444,34.149351707617,34.169890599551,0.00018839481366093,0.00018839481366093,0.00018839481366093,600237.62822818,0.0075416423024556
4665600,0.37361489812053,0.0072727954334587,0.0024242651444862,0.0024242651444862,0.0024242651444862,-0.00062836787074981,0.00062836787074986,2.019055966285e-17,2.083759871978e-17,3.2325483066917e-16,-2.8050613661243e-16,-0.00063388222621786,0.00063388222621807,-0.00063388222621786,0.00063388222621814,-0.000633882226218,0.00063388222621789,-0.00063388222621807,0.00063388222621784,-0.00062449603825381,0.0006244960382537,-0.00062449603825383,0.00062449603825361,-3.1028463866434e-16,2.9468217413245e-16,-3.6469474117894e-18,-5.3086613534514e-18,-0.00062836787074984,0.00062836787074982,-0.0006338822262182,0.00063388222621798,-0.00063388222621824,0.00063388222621797,-0.00063388222621797,0.00063388222621809,-0.00063388222621793,0.00063388222621818,-0.00062449603825359,0.00062449603825374,-0.00062449603825355,0.00062449603825374,-0.00062449603825383,0.00062449603825326,-0.00062449603825332,0.00062449603825395,-6.0395213791205e-17,-6.171870277129e-17,-0.00062836787074989,0.00062836787074977,-6.1556943007057e-17,-5.7579123350247e-17,-0.0006338822262181,0.00063388222621799,-0.00063388222621809,0.00063388222621802,-0.00063388222621812,0.00063388222621802,-0.0006338822262181,0.00063388222621802,-0.00062449603825363,0.00062449603825349,-0.00062449603825364,0.00062449603825346,0.74497907735001,0.71910700775897,1270536,32768,0.0026147772474912,0.0026147772474912,0.0026147772474912,34.451954974893,34.472517882404,0.00019081563979914,0.00019081563979914,0.00019081563979914,596670.21748273,0.0078751822138934
4752000,0.39136343284255,0.0076014540807064,0.0025338180269021,0.0025338180269021,0.0025338180269021,-0.0006553171839455,0.00065531718394563,6.6218565303578e-17,6.6880309793621e-17,3.6210658495121e-16,-2.3327228545651e-16,-0.00066125993496664,0.00066125993496696,-0.00066125993496655,0.00066125993496693,-0.00066125993496681,0.00066125993496676,-0.00066125993496678,0.00066125993496672,-0.0006511868548484,0.00065118685484833,-0.00065118685484847,0.0006511868548483,-2.693741237466e-16,3.2453420334992e-16,2.7969733779126e-17,2.2705188725011e-17,-0.00065531718394554,0.00065531718394558,-0.00066125993496685,0.00066125993496673,-0.0006612599349669,0.00066125993496667,-0.00066125993496665,0.0006612599349669,-0.0006612599349667,0.00066125993496692,-0.00065118685484794,0.00065118685484814,-0.00065118685484796,0.00065118685484817,-0.00065118685484843,0.00065118685484793,-0.00065118685484795,0.00065118685484851,4.9601425886958e-17,4.8351464072433e-17,-0.00065531718394551,0.0006553171839456,4.9866123682975e-17,5.6505626733067e-17,-0.00066125993496671,0.00066125993496686,-0.00066125993496676,0.00066125993496686,-0.00066125993496677,0.00066125993496683,-0.00066125993496676,0.00066125993496681,-0.00065118685484814,0.00065118685484825,-0.00065118685484815,0.00065118685484835,0.7453480769104,0.72301247350527,1270536,32768,0.0027267664491079,0.0027267664491079,0.0027267664491079,34.754562520179,34.775145165257,0.00019323650016143,0.00019323650016143,0.00019323650016143,589140.1296434,0.00821385302143
4838400,0.40934122448869,0.0079346388022496,0.0026448796007499,0.0026448796007499,0.0026448796007499,-0.00068263291072021,0.00068263291072015,-3.1513743159131e-17,-3.0910820401537e-17,2.7478572313184e-16,-3.2844584855772e-16,-0.00068897873861193,0.00068897873861207,-0.00068897873861188,0.00068897873861203,-0.0006889787386121,0.00068897873861186,-0.00068897873861216,0.00068897873861183,-0.00067826082320742,0.00067826082320716,-0.00067826082320748,0.00067826082320712,-3.1587270324692e-16,2.8577068166654e-16,-1.3117246335952e-17,-1.5087774372967e-17,-0.00068263291072019,0.00068263291072016,-0.00068897873861214,0.00068897873861195,-0.00068897873861226,0.00068897873861191,-0.00068897873861194,0.00068897873861209,-0.0006889787386119,0.00068897873861213,-0.00067826082320713,0.00067826082320725,-0.00067826082320717,0.00067826082320725,-0.00067826082320763,0.00067826082320703,-0.00067826082320702,0.00067826082320762,-6.5997983806898e-17,-6.6880309793621e-17,-0.00068263291072024,0.00068263291072011,-6.5380355616191e-17,-6.3689230808305e-17,-0.00068897873861211,0.00068897873861196,-0.00068897873861215,0.00068897873861198,-0.00068897873861211,0.00068897873861203,-0.0006889787386121,0.000688978738612,-0.00067826082320732,0.0006782608232072,-0.00067826082320732,0.00067826082320721,0.74587191833681,0.72691793925158,1270536,32768,0.0028402655018181,0.002840265501818,0.0028402655018181,35.057170497762,35.07777244811,0.0001956573639821,0.0001956573639821,0.0001956573639821,578123.04387833,0.00855720593963
4924800,0.42751719639025,0.0082718570502473,0.0027572856834157,0.0027572856834158,0.0027572856834158,-0.00071027557273934,0.00071027557273936,1.0411446643334e-17,1.0617322706903e-17,3.1099049945371e-16,-2.8734416300953e-16,-0.00071699754253743,0.00071699754253761,-0.00071699754253743,0.00071699754253766,-0.0007169975425376,0.00071699754253746,-0.00071699754253767,0.00071699754253747,-0.00070567930334722,0.00070567930334708,-0.00070567930334724,0.00070567930334704,-2.727857842286e-16,3.2412245122278e-16,2.8234431575143e-17,2.5190406920948e-17,-0.00071027557273934,0.00071027557273939,-0.00071699754253769,0.00071699754253758,-0.00071699754253767,0.00071699754253751,-0.00071699754253745,0.00071699754253772,-0.00071699754253744,0.00071699754253775,-0.00070567930334726,0.00070567930334748,-0.00070567930334719,0.00070567930334751,-0.00070567930334749,0.00070567930334695,-0.00070567930334699,0.00070567930334758,-2.5043352589828e-17,-2.6190376372568e-17,-0.0007102755727394,0.00071027557273935,-2.1852273604512e-17,-2.0484668325091e-17,-0.00071699754253762,0.00071699754253756,-0.00071699754253767,0.00071699754253759,-0.00071699754253764,0.00071699754253754,-0.00071699754253762,0.00071699754253755,-0.00070567930334729,0.00070567930334724,-0.00070567930334723,0.00070567930334723,0.74654145535096,0.73082340499788,1270536,32768,0.0029551098841957,0.0029551098841958,0.0029551098841958,35.359778515147,35.380399730963,0.00019807822812117,0.00019807822812117,0.00019807822812117,564071.11335112,0.0089047477053584
5011200,0.44585828787076,0.0086120856739201,0.00287069522464,0.00287069522464,0.00287069522464,-0.00073816300009828,0.00073816300009833,1.761710886824e-17,1.7175945874879e-17,3.1993140278584e-16,-2.7853560857541e-16,-0.00074524475741502,0.00074524475741516,-0.00074524475741496,0.00074524475741522,-0.00074524475741519,0.00074524475741502,-0.00074524475741528,0.00074524475741503,-0.0007333470416848,0.00073334704168468,-0.00073334704168483,0.00073334704168468,-3.0687297818234e-16,2.9031466049817e-16,-5.3968939521238e-18,-3.7351800104617e-18,-0.00073816300009831,0.0007381630000983,-0.00074524475741507,0.00074524475741477,-0.00074524475741503,0.00074524475741475,-0.00074524475741479,0.00074524475741501,-0.00074524475741477,0.00074524475741495,-0.00073334704168462,0.00073334704168483,-0.00073334704168462,0.00073334704168489,-0.00073334704168499,0.00073334704168442,-0.00073334704168444,0.00073334704168505,-8.749732701672e-18,-1.0926136802256e-17,-0.00073816300009831,0.00073816300009831,-7.9409338805091e-19,-2.7646214250661e-18,-0.00074524475741493,0.00074524475741492,-0.00074524475741495,0.0007452447574149,-0.00074524475741489,0.00074524475741491,-0.00074524475741494,0.00074524475741491,-0.00073334704168469,0.00073334704168472,-0.0007333470416847,0.0007333470416847,0.746282822191,0.72885757449027,1270536,32768,0.0030709578009217,0.0030709578009217,0.0030709578009217,35.662386532184,35.683027013817,0.00020049909225747,0.00020049909225747,0.00020049909225747,549784.10933755,0.0092554477188539
5097600,0.46421412892792,0.0089485111668867,0.0029828370556289,0.0029828370556289,0.0029828370556289,-0.00076555082759293,0.00076555082759292,-1.0896725936032e-17,-1.1205540031385e-17,2.9257929719742e-16,-3.1275515142716e-16,-0.00077307818014773,0.00077307818014794,-0.00077307818014777,0.00077307818014794,-0.00077307818014795,0.00077307818014774,-0.00077307818014803,0.00077307818014774,-0.0007604051957006,0.00076040519570046,-0.00076040519570066,0.00076040519570049,-2.9604977941187e-16,3.062112336923e-16,5.8086460792613e-18,4.3233973349438e-18,-0.00076555082759292,0.00076555082759294,-0.00077307818014826,0.0007730781801481,-0.0007730781801483,0.00077307818014807,-0.000773078180148,0.00077307818014829,-0.00077307818014808,0.00077307818014833,-0.00076040519570036,0.00076040519570063,-0.00076040519570036,0.00076040519570048,-0.0007604051957011,0.00076040519570046,-0.00076040519570058,0.00076040519570104,-2.7322694722196e-17,-2.9249106459875e-17,-0.00076555082759294,0.0007655508275929,-2.7057996926179e-17,-2.5293344952733e-17,-0.00077307818014822,0.00077307818014818,-0.00077307818014817,0.00077307818014817,-0.00077307818014823,0.00077307818014815,-0.00077307818014813,0.00077307818014816,-0.00076040519570073,0.0007604051957007,-0.00076040519570078,0.00076040519570069,0.73725814253934,0.68033219149736,1270536,32768,0.0031847171815016,0.0031847171815017,0.0031847171815016,35.864769846626,35.878820791791,0.00020211815877301,0.00020211815877301,0.00020211815877301,555986.21671226,0.0095999442089075
5184000,0.48245129021914,0.0092816131238049,0.0030938710412683,0.0030938710412683,0.0030938710412683,-0.00079247202034017,0.00079247202034019,1.2779021374375e-17,1.1852579088315e-17,3.2610768469291e-16,-2.8735886844264e-16,-0.00080046343732981,0.00080046343732995,-0.00080046343732972,0.00080046343733004,-0.00080046343732997,0.00080046343732978,-0.00080046343732994,0.00080046343732986,-0.00078699336365954,0.00078699336365935,-0.00078699336365965,0.00078699336365942,-2.7143288438229e-16,3.3726910842495e-16,3.3778379858388e-17,3.1940200719381e-17,-0.00079247202034014,0.00079247202034021,-0.00080046343732978,0.00080046343732963,-0.00080046343732983,0.00080046343732969,-0.00080046343732958,0.00080046343732981,-0.00080046343732961,0.00080046343732984,-0.00078699336365935,0.00078699336365963,-0.00078699336365932,0.00078699336365959,-0.00078699336365948,0.00078699336365911,-0.00078699336365905,0.00078699336365966,-1.0176159713541e-17,-1.2793726807487e-17,-0.00079247202034018,0.00079247202034017,2.3087529985925e-18,2.6910942595059e-18,-0.00080046343732983,0.00080046343732975,-0.00080046343732976,0.00080046343732973,-0.00080046343732973,0.00080046343732978,-0.00080046343732969,0.00080046343732966,-0.00078699336365933,0.0007869933636593,-0.00078699336365923,0.00078699336365939,0.73476987385438,0.68861650922473,1270536,32768,0.0032965256916016,0.0032965256916016,0.0032965256916016,35.979150756502,35.987182183576,0.00020303320605201,0.00020303320605201,0.00020303320605201,568329.32944966,0.0099386475694323
5270400,0.50053480999346,0.0096202501499483,0.0032067500499828,0.0032067500499828,0.0032067500499828,-0.00081986782494898,0.00081986782494899,8.1468099440778e-18,7.1174296262341e-18,3.1446098166816e-16,-2.9969672682366e-16,-0.00082808465940923,0.00082808465940943,-0.00082808465940923,0.00082808465940945,-0.00082808465940942,0.00082808465940924,-0.00082808465940944,0.00082808465940924,-0.0008143381748794,0.00081433817487922,-0.00081433817487943,0.00081433817487922,-2.9034407136439e-16,3.2031374404676e-16,1.4837782010062e-17,1.3323122399521e-17,-0.00081986782494898,0.00081986782494901,-0.00082808465940942,0.00082808465940923,-0.00082808465940943,0.00082808465940922,-0.00082808465940918,0.00082808465940942,-0.00082808465940919,0.00082808465940945,-0.00081433817487919,0.00081433817487941,-0.0008143381748792,0.0008143381748794,-0.0008143381748796,0.00081433817487905,-0.00081433817487904,0.00081433817487966,-1.3837812558443e-17,-1.632303075438e-17,-0.00081986782494901,0.00081986782494898,-1.1970222553212e-17,-1.0999663967816e-17,-0.00082808465940935,0.00082808465940931,-0.00082808465940935,0.00082808465940931,-0.00082808465940935,0.00082808465940932,-0.00082808465940934,0.00082808465940931,-0.00081433817487932,0.0008143381748793,-0.00081433817487931,0.00081433817487931,0.75331616848491,0.80400170950033,1270536,32768,0.003410292676583,0.0034102926765831,0.0034102926765831,36.088078773434,36.095543575362,0.00020390463018747,0.00020390463018747,0.00020390463018747,530665.36564703,0.010283399626597
5356800,0.51843787839718,0.009954125363247,0.003318041787749,0.003318041787749,0.003318041787749,-0.00084695049566009,0.00084695049566011,7.6909415176042e-18,6.6909720659845e-18,3.1599034671181e-16,-3.0249075911495e-16,-0.00085539041919857,0.00085539041919878,-0.00085539041919858,0.00085539041919879,-0.00085539041919877,0.00085539041919859,-0.00085539041919879,0.00085539041919858,-0.00084131034976383,0.00084131034976364,-0.00084131034976386,0.00084131034976364,-2.9143227341468e-16,3.2351952846518e-16,1.6278914455044e-17,1.3205478934624e-17,-0.0008469504956601,0.00084695049566013,-0.00085539041919877,0.00085539041919858,-0.00085539041919878,0.00085539041919857,-0.00085539041919853,0.00085539041919877,-0.00085539041919854,0.0008553904191988,-0.00084131034976361,0.00084131034976383,-0.00084131034976363,0.00084131034976383,-0.00084131034976402,0.00084131034976347,-0.00084131034976347,0.00084131034976409,-1.2867253973047e-17,-1.5058363506743e-17,-0.00084695049566013,0.0008469504956601,-1.1999633419436e-17,-9.4114771917145e-18,-0.0008553904191987,0.00085539041919866,-0.0008553904191987,0.00085539041919866,-0.0008553904191987,0.00085539041919866,-0.00085539041919868,0.00085539041919866,-0.00084131034976374,0.00084131034976373,-0.00084131034976373,0.00084131034976374,0.74989212737385,0.74770296004574,1270536,32768,0.0035227465474286,0.0035227465474286,0.0035227465474286,36.196494955933,36.203904967147,0.00020477195964746,0.00020477195964746,0.00020477195964746,493105.25264217,0.010624288383127
5443200,0.53613353644302,0.010278688570813,0.0034262295236044,0.0034262295236044,0.0034262295236044,-0.00087319715287679,0.0008731971528767,-4.5498610048695e-17,-4.6292703436745e-17,2.7057996926179e-16,-3.6004782431553e-16,-0.00088200031146544,0.00088200031146558,-0.00088200031146547,0.00088200031146563,-0.00088200031146565,0.00088200031146539,-0.00088200031146562,0.0008820003114654,-0.00086726236937423,0.00086726236937398,-0.00086726236937431,0.00086726236937393,-2.6872708468967e-16,3.584302266732e-16,4.7763246747951e-17,4.6263292570521e-17,-0.0008731971528767,0.00087319715287679,-0.00088200031146554,0.00088200031146544,-0.00088200031146557,0.00088200031146546,-0.00088200031146532,0.00088200031146564,-0.00088200031146533,0.00088200031146565,-0.00086726236937401,0.00086726236937426,-0.00086726236937401,0.00086726236937428,-0.00086726236937409,0.0008672623693736,-0.0008672623693735,0.00086726236937427,8.2497479758622e-18,6.7350883653207e-18,-0.00087319715287673,0.00087319715287676,1.0102632547981e-17,1.2249625782341e-17,-0.00088200031146553,0.0008820003114655,-0.00088200031146547,0.00088200031146551,-0.00088200031146552,0.00088200031146552,-0.00088200031146549,0.00088200031146551,-0.00086726236937384,0.00086726236937388,-0.00086726236937382,0.00086726236937388,0.73725457188297,0.67633392771571,1270536,32768,0.0036317169070395,0.0036317169070395,0.0036317169070395,36.304859727727,36.312266358933,0.00020563887782182,0.00020563887782182,0.00020563887782182,497050.58832619,0.010954727565812
5529600,0.55359506081309,0.010590797053369,0.0035302656844562,0.0035302656844562,0.0035302656844562,-0.00089841360780063,0.00089841360780063,-2.3528692979286e-19,-1.4117215787572e-18,3.1299043835695e-16,-3.1556388915156e-16,-0.00090776964125108,0.00090776964125128,-0.00090776964125109,0.0009077696412513,-0.00090776964125129,0.00090776964125109,-0.0009077696412513,0.00090776964125108,-0.00089199091955447,0.00089199091955427,-0.0008919909195545,0.00089199091955426,-2.9087346695642e-16,3.337839207774e-16,2.2175793132977e-17,1.8322969657619e-17,-0.00089841360780063,0.00089841360780067,-0.00090776964125127,0.00090776964125109,-0.00090776964125128,0.00090776964125109,-0.00090776964125103,0.00090776964125129,-0.00090776964125104,0.00090776964125131,-0.00089199091955424,0.00089199091955447,-0.00089199091955426,0.00089199091955447,-0.00089199091955464,0.0008919909195541,-0.00089199091955408,0.00089199091955473,-8.6026783705515e-18,-1.0617322706903e-17,-0.00089841360780065,0.00089841360780064,-8.7938490010082e-18,-5.1174907229947e-18,-0.0009077696412512,0.00090776964125117,-0.0009077696412512,0.00090776964125117,-0.0009077696412512,0.00090776964125118,-0.00090776964125119,0.00090776964125117,-0.00089199091955436,0.00089199091955436,-0.00089199091955435,0.00089199091955437,0.71857263251145,0.60141412576628,1270536,32768,0.0037363987457581,0.0037363987457581,0.0037363987457581,36.413219248034,36.420627750718,0.00020650575398427,0.00020650575398427,0.00020650575398427,535141.88109395,0.011272264878968
5616000,0.57079734605524,0.010889935635282,0.0036299785450938,0.0036299785450939,0.0036299785450939,-0.00092255719833228,0.00092255719833228,4.4116299336161e-20,-1.1176129165161e-18,3.1249045363114e-16,-3.1507860985887e-16,-0.00093265571817569,0.00093265571817589,-0.0009326557181757,0.00093265571817591,-0.0009326557181759,0.0009326557181757,-0.00093265571817591,0.00093265571817569,-0.00091549132599658,0.00091549132599638,-0.00091549132599661,0.00091549132599637,-2.9093228868887e-16,3.3301923825557e-16,2.1572870375383e-17,1.739652737156e-17,-0.00092255719833228,0.00092255719833231,-0.00093265571817588,0.0009326557181757,-0.0009326557181759,0.0009326557181757,-0.00093265571817564,0.0009326557181759,-0.00093265571817566,0.00093265571817592,-0.00091549132599635,0.00091549132599658,-0.00091549132599637,0.00091549132599658,-0.00091549132599676,0.00091549132599621,-0.00091549132599619,0.00091549132599684,-8.1762208103019e-18,-9.7497021532917e-18,-0.0009225571983323,0.00092255719833229,-8.7056164023359e-18,-4.5586842647367e-18,-0.00093265571817581,0.00093265571817578,-0.00093265571817581,0.00093265571817579,-0.00093265571817581,0.00093265571817579,-0.0009326557181758,0.00093265571817578,-0.00091549132599647,0.00091549132599647,-0.00091549132599646,0.00091549132599648,0.69949358183578,0.54799038503428,1270536,32768,0.0038366163118193,0.0038366163118194,0.0038366163118194,36.521578229161,36.528989142504,0.00020737262583329,0.00020737262583329,0.00020737262583329,600081.71698814,0.011576354831096
5702400,0.58771703698109,0.011176078725723,0.003725359575241,0.0037253595752411,0.0037253595752411,-0.00094564640168588,0.00094564640168588,1.4705433112054e-20,-1.1470237827402e-18,3.1260809709604e-16,-3.15490361986e-16,-0.00095665402715749,0.00095665402715768,-0.00095665402715749,0.0009566540271577,-0.00095665402715769,0.00095665402715749,-0.00095665402715771,0.00095665402715749,-0.00093782230485395,0.00093782230485375,-0.00093782230485398,0.00093782230485375,-2.9116757561867e-16,3.3331334691781e-16,2.1117001948909e-17,1.7793574065585e-17,-0.00094564640168588,0.00094564640168591,-0.00095665402715767,0.00095665402715749,-0.00095665402715769,0.00095665402715749,-0.00095665402715743,0.00095665402715769,-0.00095665402715745,0.00095665402715771,-0.00093782230485372,0.00093782230485395,-0.00093782230485374,0.00093782230485395,-0.00093782230485413,0.00093782230485358,-0.00093782230485356,0.00093782230485421,-8.0879882116296e-18,-9.6026478221712e-18,-0.0009456464016859,0.00094564640168589,-8.3379805745345e-18,-4.926320092538e-18,-0.0009566540271576,0.00095665402715757,-0.0009566540271576,0.00095665402715758,-0.0009566540271576,0.00095665402715758,-0.00095665402715759,0.00095665402715757,-0.00093782230485384,0.00093782230485384,-0.00093782230485383,0.00093782230485385,0.68090202188525,0.50714110322116,1270536,32768,0.0039324476186029,0.003932447618603,0.003932447618603,36.629937154662,36.637350534289,0.00020823949723729,0.00020823949723729,0.00020823949723729,681111.70435571,0.011867222133925
5788800,0.60433261324299,0.011448799923251,0.0038162666410835,0.0038162666410836,0.0038162666410836,-0.00096764740170893,0.00096764740170894,1.6175976423259e-19,-7.0586078937858e-19,3.1228457756758e-16,-3.1474038489729e-16,-0.00097972172883352,0.00097972172883371,-0.00097972172883353,0.00097972172883373,-0.00097972172883372,0.00097972172883352,-0.00097972172883374,0.00097972172883352,-0.00095896022586086,0.00095896022586066,-0.00095896022586089,0.00095896022586066,-2.9081464522398e-16,3.3272512959333e-16,2.0675838955548e-17,1.7911217530482e-17,-0.00096764740170893,0.00096764740170897,-0.0009797217288337,0.00097972172883353,-0.00097972172883372,0.00097972172883352,-0.00097972172883347,0.00097972172883372,-0.00097972172883348,0.00097972172883375,-0.00095896022586064,0.00095896022586086,-0.00095896022586066,0.00095896022586086,-0.00095896022586104,0.0009589602258605,-0.00095896022586048,0.00095896022586112,-8.3526860076466e-18,-9.7497021532917e-18,-0.00096764740170896,0.00096764740170894,-8.1762208103019e-18,-5.5439482832443e-18,-0.00097972172883364,0.0009797217288336,-0.00097972172883364,0.00097972172883361,-0.00097972172883363,0.00097972172883361,-0.00097972172883363,0.0009797217288336,-0.00095896022586076,0.00095896022586076,-0.00095896022586075,0.00095896022586077,0.66158207459865,0.46629182140805,1270536,32768,0.0040237535610295,0.0040237535610296,0.0040237535610296,36.738296074236,36.745711926074,0.00020910636859389,0.00020910636859389,0.00020910636859389,774326.77206638,0.012144433097327
5875200,0.62056511609918,0.011711666606299,0.0039038888687664,0.0039038888687665,0.0039038888687665,-0.00098872663906381,0.00098872663906381,4.4116299336161e-19,-8.8232598672323e-20,3.1293161662451e-16,-3.1479920662974e-16,-0.0010018938215615,0.0010018938215617,-0.0010018938215616,0.0010018938215618,-0.0010018938215618,0.0010018938215615,-0.0010018938215618,0.0010018938215615,-0.00097921908274323,0.00097921908274303,-0.00097921908274326,0.00097921908274303,-2.9131462994979e-16,3.3310747085424e-16,2.0955242184677e-17,1.7661225167577e-17,-0.00098872663906381,0.00098872663906385,-0.0010018938215617,0.0010018938215615,-0.0010018938215617,0.0010018938215615,-0.0010018938215615,0.0010018938215617,-0.0010018938215615,0.0010018938215618,-0.00097921908274301,0.00097921908274323,-0.00097921908274303,0.00097921908274324,-0.00097921908274342,0.00097921908274287,-0.00097921908274285,0.0009792190827435,-7.4703600209233e-18,-8.9703141983528e-18,-0.00098872663906384,0.00098872663906382,-7.9703447467332e-18,-4.4998625322885e-18,-0.0010018938215617,0.0010018938215616,-0.0010018938215617,0.0010018938215616,-0.0010018938215617,0.0010018938215616,-0.0010018938215617,0.0010018938215616,-0.00097921908274313,0.00097921908274313,-0.00097921908274312,0.00097921908274314,0.65346455814859,0.49184196051334,1270536,32768,0.004111226178233,0.0041112261782331,0.0041112261782331,36.784579614672,36.787895818362,0.00020947663691738,0.00020947663691738,0.00020947663691738,857899.96923921,0.012410077649924
5961600,0.63635539222036,0.011960139664696,0.0039867132215651,0.0039867132215652,0.0039867132215652,-0.0010086494138474,0.0010086494138474,-8.8232598672323e-20,-5.5880645825805e-19,3.1287279489206e-16,-3.1588740868003e-16,-0.0010229738589469,0.0010229738589471,-0.0010229738589469,0.0010229738589472,-0.0010229738589471,0.0010229738589469,-0.0010229738589472,0.0010229738589469,-0.00099827220136143,0.00099827220136123,-0.00099827220136146,0.00099827220136123,-2.915793277458e-16,3.3384274250985e-16,2.1219939980694e-17,1.761710886824e-17,-0.0010086494138473,0.0010086494138474,-0.0010229738589471,0.0010229738589469,-0.0010229738589471,0.0010229738589469,-0.0010229738589469,0.0010229738589471,-0.0010229738589469,0.0010229738589472,-0.0009982722013612,0.00099827220136143,-0.00099827220136122,0.00099827220136143,-0.00099827220136162,0.00099827220136107,-0.00099827220136105,0.0009982722013617,-7.367421989139e-18,-8.749732701672e-18,-0.0010086494138474,0.0010086494138474,-8.1321045109658e-18,-4.4116299336162e-18,-0.0010229738589471,0.001022973858947,-0.0010229738589471,0.001022973858947,-0.0010229738589471,0.001022973858947,-0.001022973858947,0.001022973858947,-0.00099827220136133,0.00099827220136133,-0.00099827220136132,0.00099827220136134,0.6356868646691,0.44077103288462,1270536,32768,0.0041938925114747,0.0041938925114748,0.0041938925114748,36.780618277264,36.78047504981,0.00020944494621811,0.00020944494621811,0.00020944494621811,932496.4846749,0.012661191555902
6048000,0.65169384820763,0.012196053744965,0.0040653512483217,0.0040653512483218,0.0040653512483218,-0.001027433709873,0.001027433709873,3.3822496157724e-19,-8.8232598672323e-20,3.139021752099e-16,-3.1653444773696e-16,-0.001043003793628,0.0010430037936282,-0.001043003793628,0.0010430037936282,-0.0010430037936282,0.001043003793628,-0.0010430037936282,0.001043003793628,-0.0010161344233469,0.0010161344233467,-0.0010161344233469,0.0010161344233467,-2.9240283200008e-16,3.3475447936279e-16,2.1940506203184e-17,1.6940658945086e-17,-0.001027433709873,0.001027433709873,-0.0010430037936281,0.001043003793628,-0.0010430037936282,0.001043003793628,-0.0010430037936279,0.0010430037936282,-0.0010430037936279,0.0010430037936282,-0.0010161344233466,0.0010161344233469,-0.0010161344233467,0.0010161344233469,-0.001016134423347,0.0010161344233465,-0.0010161344233465,0.0010161344233471,-6.823320963993e-18,-8.0732827785176e-18,-0.001027433709873,0.001027433709873,-8.2644534089743e-18,-3.0881409535313e-18,-0.0010430037936281,0.0010430037936281,-0.0010430037936281,0.0010430037936281,-0.0010430037936281,0.0010430037936281,-0.0010430037936281,0.0010430037936281,-0.0010161344233468,0.0010161344233468,-0.0010161344233467,0.0010161344233468,0.62194257043869,0.42834657677503,1270536,32768,0.0042718284202579,0.0042718284202579,0.0042718284202579,36.773525376704,36.773054281258,0.00020938820301363,0.00020938820301363,0.00020938820301363,1020341.3269131,0.012897994066701
6134400,0.66657523901337,0.012422050629761,0.0041406835432536,0.0041406835432536,0.0041406835432536,-0.0010454782844732,0.0010454782844732,1.7646519734465e-19,-2.3528692979286e-19,3.139021752099e-16,-3.1669620750119e-16,-0.0010622466421556,0.0010622466421558,-0.0010622466421556,0.0010622466421558,-0.0010622466421558,0.0010622466421556,-0.0010622466421559,0.0010622466421556,-0.0010333371965649,0.0010333371965647,-0.0010333371965649,0.0010333371965647,-2.9240283200008e-16,3.3504858802503e-16,2.2028738801857e-17,1.6852426346414e-17,-0.0010454782844732,0.0010454782844732,-0.0010622466421558,0.0010622466421556,-0.0010622466421558,0.0010622466421556,-0.0010622466421556,0.0010622466421558,-0.0010622466421556,0.0010622466421559,-0.0010333371965647,0.0010333371965649,-0.0010333371965647,0.0010333371965649,-0.0010333371965651,0.0010333371965645,-0.0010333371965645,0.0010333371965652,-6.4409797030796e-18,-7.5880034858198e-18,-0.0010454782844732,0.0010454782844732,-7.9409338805091e-18,-2.7057996926179e-18,-0.0010622466421557,0.0010622466421557,-0.0010622466421557,0.0010622466421557,-0.0010622466421557,0.0010622466421557,-0.0010622466421557,0.0010622466421557,-0.0010333371965648,0.0010333371965648,-0.0010333371965648,0.0010333371965648,0.61473971052951,0.44713313593456,1270536,32768,0.0043466894235426,0.0043466894235427,0.0043466894235427,36.766137658209,36.765633512706,0.00020932910126567,0.00020932910126567,0.00020932910126567,1087362.0285876,0.013125506373192
6220800,0.68099677182457,0.012639367389872,0.0042131224632907,0.0042131224632907,0.0042131224632907,-0.0010629091175135,0.0010629091175135,-2.9410866224108e-20,-8.8232598672323e-20,3.1396099694235e-16,-3.1728442482567e-16,-0.0010807874723931,0.0010807874723933,-0.0010807874723931,0.0010807874723934,-0.0010807874723933,0.0010807874723931,-0.0010807874723934,0.0010807874723931,-0.0010500222431895,0.0010500222431893,-0.0010500222431895,0.0010500222431893,-2.9269694066232e-16,3.3587209227931e-16,2.2734599591235e-17,1.6587728550397e-17,-0.0010629091175135,0.0010629091175136,-0.0010807874723933,0.0010807874723931,-0.0010807874723933,0.0010807874723931,-0.0010807874723931,0.0010807874723933,-0.0010807874723931,0.0010807874723934,-0.0010500222431893,0.0010500222431895,-0.0010500222431893,0.0010500222431895,-0.0010500222431897,0.0010500222431891,-0.0010500222431891,0.0010500222431898,-6.1321656077264e-18,-7.2203676580184e-18,-0.0010629091175135,0.0010629091175135,-8.3379805745345e-18,-1.8234737058947e-18,-0.0010807874723933,0.0010807874723932,-0.0010807874723933,0.0010807874723932,-0.0010807874723933,0.0010807874723932,-0.0010807874723932,0.0010807874723932,-0.0010500222431894,0.0010500222431894,-0.0010500222431894,0.0010500222431894,0.61042739770734,0.46591969509408,1270536,32768,0.0044189988557739,0.0044189988557739,0.0044189988557739,36.758720262575,36.758212744154,0.0002092697621006,0.0002092697621006,0.0002092697621006,1129444.0718746,0.01334531292724
6307200,0.6949573160085,0.012848880122984,0.0042829600409948,0.0042829600409948,0.0042829600409948,-0.0010797402903228,0.0010797402903228,5.8821732448215e-20,-2.9410866224108e-20,3.1446098166816e-16,-3.1775499868526e-16,-0.001098643703597,0.0010986437035972,-0.001098643703597,0.0010986437035972,-0.0010986437035972,0.001098643703597,-0.0010986437035972,0.001098643703597,-0.0010661860685117,0.0010661860685115,-0.0010661860685118,0.0010661860685115,-2.9246165373253e-16,3.3684265086471e-16,2.3175762584597e-17,1.7558287135792e-17,-0.0010797402903228,0.0010797402903229,-0.0010986437035972,0.001098643703597,-0.0010986437035972,0.001098643703597,-0.001098643703597,0.0010986437035972,-0.001098643703597,0.0010986437035973,-0.0010661860685115,0.0010661860685117,-0.0010661860685115,0.0010661860685117,-0.0010661860685119,0.0010661860685114,-0.0010661860685113,0.001066186068512,-5.7792352130372e-18,-6.8968481295532e-18,-0.0010797402903229,0.0010797402903229,-7.8232904156126e-18,-1.9411171707911e-18,-0.0010986437035971,0.0010986437035971,-0.0010986437035971,0.0010986437035971,-0.0010986437035971,0.0010986437035971,-0.0010986437035971,0.0010986437035971,-0.0010661860685116,0.0010661860685116,-0.0010661860685116,0.0010661860685116,0.60817730044645,0.4847062542536,1270536,32768,0.0044888157089257,0.0044888157089258,0.0044888157089258,36.751299830316,36.750791975602,0.00020921039864253,0.00020921039864253,0.00020921039864253,1154914.6603034,0.013557587854606
6393600,0.70845715921985,0.013050128571933,0.004350042857311,0.004350042857311,0.004350042857311,-0.0010959241151007,0.0010959241151007,-1.7646519734465e-19,-1.4705433112054e-19,3.1381394261123e-16,-3.1740206829057e-16,-0.0011157894010472,0.0011157894010474,-0.0011157894010472,0.0011157894010474,-0.0011157894010474,0.0011157894010472,-0.0011157894010475,0.0011157894010472,-0.0010817470322742,0.001081747032274,-0.0010817470322743,0.001081747032274,-2.9228518853518e-16,3.3607796834288e-16,2.3028708253476e-17,1.7087713276207e-17,-0.0010959241151007,0.0010959241151008,-0.0011157894010474,0.0011157894010472,-0.0011157894010474,0.0011157894010472,-0.0011157894010472,0.0011157894010474,-0.0011157894010472,0.0011157894010475,-0.001081747032274,0.0010817470322742,-0.001081747032274,0.0010817470322742,-0.0010817470322744,0.0010817470322739,-0.0010817470322738,0.0010817470322745,-5.4263048183479e-18,-6.4703905693037e-18,-0.0010959241151008,0.0010959241151008,-7.7203523838283e-18,-1.4705433112054e-18,-0.0011157894010473,0.0011157894010473,-0.0011157894010473,0.0011157894010473,-0.0011157894010473,0.0011157894010473,-0.0011157894010473,0.0011157894010473,-0.0010817470322741,0.0010817470322741,-0.0010817470322741,0.0010817470322741,0.60425497655563,0.48538089711844,1270536,32768,0.0045559426758369,0.0045559426758369,0.0045559426758369,36.743879085966,36.743371207051,0.00020915103268773,0.00020915103268773,0.00020915103268773,1170127.6110837,0.013761726477237
6480000,0.72149795824589,0.013247674387174,0.0044158914623912,0.0044158914623913,0.0044158914623913,-0.0011117862562478,0.0011117862562478,-3.823412609134e-19,-2.9410866224108e-19,3.1416687300592e-16,-3.1825498341107e-16,-0.0011324595112984,0.0011324595112986,-0.0011324595112984,0.0011324595112986,-0.0011324595112986,0.0011324595112984,-0.0011324595112986,0.0011324595112984,-0.0010971388105094,0.0010971388105092,-0.0010971388105094,0.0010971388105092,-2.9216754507029e-16,3.3731322472429e-16,2.3587514711734e-17,1.7675930600689e-17,-0.0011117862562478,0.0011117862562479,-0.0011324595112986,0.0011324595112984,-0.0011324595112986,0.0011324595112984,-0.0011324595112984,0.0011324595112986,-0.0011324595112984,0.0011324595112986,-0.0010971388105092,0.0010971388105094,-0.0010971388105092,0.0010971388105094,-0.0010971388105096,0.001097138810509,-0.001097138810509,0.0010971388105097,-6.0880493083903e-18,-6.9997861613376e-18,-0.0011117862562479,0.0011117862562479,-8.455624039431e-18,-2.2499312661442e-18,-0.0011324595112985,0.0011324595112985,-0.0011324595112985,0.0011324595112985,-0.0011324595112985,0.0011324595112985,-0.0011324595112985,0.0011324595112985,-0.0010971388105093,0.0010971388105093,-0.0010971388105093,0.0010971388105093,0.61393249003305,0.56135094059269,1270536,32768,0.0046217312361701,0.0046217312361702,0.0046217312361702,36.736458309501,36.735950438499,0.00020909166647601,0.00020909166647601,0.00020909166647601,1167662.617374,0.013961833598098
6566400,0.73408319089917,0.013442233385089,0.0044807444616963,0.0044807444616963,0.0044807444616963,-0.0011275949041547,0.0011275949041547,-2.6469779601697e-19,8.8232598672323e-20,3.1404922954102e-16,-3.1746089002302e-16,-0.0011488457393183,0.0011488457393185,-0.0011488457393183,0.0011488457393185,-0.0011488457393185,0.0011488457393183,-0.0011488457393185,0.0011488457393183,-0.0011126732531968,0.0011126732531966,-0.0011126732531968,0.0011126732531966,-2.9234401026763e-16,3.3646030960379e-16,2.3175762584597e-17,1.6705372015293e-17,-0.0011275949041547,0.0011275949041548,-0.0011488457393185,0.0011488457393183,-0.0011488457393185,0.0011488457393183,-0.0011488457393182,0.0011488457393185,-0.0011488457393183,0.0011488457393185,-0.0011126732531965,0.0011126732531968,-0.0011126732531966,0.0011126732531968,-0.001112673253197,0.0011126732531964,-0.0011126732531964,0.001112673253197,-5.2057233216671e-18,-6.6174449004242e-18,-0.0011275949041547,0.0011275949041547,-8.205631676526e-18,-1.2058455151884e-18,-0.0011488457393184,0.0011488457393184,-0.0011488457393184,0.0011488457393184,-0.0011488457393184,0.0011488457393184,-0.0011488457393184,0.0011488457393184,-0.0011126732531967,0.0011126732531967,-0.0011126732531967,0.0011126732531967,0.62631025833527,0.61978136300686,1270536,32768,0.0046872938957188,0.0046872938957189,0.0046872938957189,36.729623143346,36.729153963061,0.00020903698514677,0.00020903698514677,0.00020903698514677,1126546.5972685,0.014161291723011
6652800,0.7465262155343,0.013639473058371,0.004546491019457,0.004546491019457,0.004546491019457,-0.0011444674318332,0.0011444674318332,-6.0292275759421e-18,-5.4115993852358e-18,3.0928466921272e-16,-3.2299013287315e-16,-0.001166126636708,0.0011661266367082,-0.001166126636708,0.0011661266367082,-0.0011661266367082,0.001166126636708,-0.0011661266367083,0.001166126636708,-0.0011293992334279,0.0011293992334277,-0.0011293992334279,0.0011293992334277,-2.9681446193369e-16,3.329310056569e-16,1.7205356741103e-17,1.4381913583589e-17,-0.0011444674318332,0.0011444674318332,-0.0011661266367082,0.001166126636708,-0.0011661266367082,0.001166126636708,-0.001166126636708,0.0011661266367082,-0.001166126636708,0.0011661266367083,-0.0011293992334277,0.001129399233428,-0.0011293992334277,0.0011293992334279,-0.0011293992334281,0.0011293992334276,-0.0011293992334275,0.0011293992334282,-1.7205356741103e-17,-1.8381791390067e-17,-0.0011444674318332,0.0011444674318332,-1.7514170836456e-17,-1.4131921220684e-17,-0.0011661266367082,0.0011661266367081,-0.0011661266367082,0.0011661266367081,-0.0011661266367082,0.0011661266367081,-0.0011661266367081,0.0011661266367081,-0.0011293992334278,0.0011293992334278,-0.0011293992334278,0.0011293992334278,0.64171142327044,0.67821178542102,1270536,32768,0.0047572643560011,0.0047572643560011,0.004757264356001,37.168829067482,37.197859537707,0.00021255063253985,0.00021255063253985,0.00021255063253985,1069883.2038482,0.014374200908411
6739200,0.75882018673155,0.013840001564428,0.0046133338548093,0.0046133338548094,0.0046133338548094,-0.0011616531921116,0.0011616531921116,-7.8527012818367e-18,-7.4997708871475e-18,3.0752001723927e-16,-3.2816644532859e-16,-0.0011835714459972,0.0011835714459974,-0.0011835714459972,0.0011835714459974,-0.0011835714459974,0.0011835714459972,-0.0011835714459974,0.0011835714459972,-0.0011465521364108,0.0011465521364107,-0.0011465521364109,0.0011465521364107,-2.852265806414e-16,3.4772467136763e-16,3.0057905281038e-17,2.8734416300953e-17,-0.0011616531921116,0.0011616531921117,-0.0011835714459973,0.0011835714459971,-0.0011835714459973,0.0011835714459971,-0.001183571445997,0.0011835714459973,-0.0011835714459971,0.0011835714459973,-0.0011465521364107,0.0011465521364109,-0.0011465521364107,0.0011465521364109,-0.001146552136411,0.0011465521364105,-0.0011465521364105,0.0011465521364111,-8.8820815996805e-18,-1.0087927114869e-17,-0.0011616531921116,0.0011616531921116,-1.0205570579765e-17,-8.2938642751984e-18,-0.0011835714459972,0.0011835714459972,-0.0011835714459972,0.0011835714459972,-0.0011835714459972,0.0011835714459972,-0.0011835714459972,0.0011835714459972,-0.0011465521364108,0.0011465521364107,-0.0011465521364107,0.0011465521364107,0.65967566587509,0.73664220783519,1270536,32768,0.0048285290358247,0.0048285290358248,0.0048285290358248,37.634716470876,37.666565112353,0.00021627773176701,0.00021627773176701,0.00021627773176701,1001779.3493872,0.014591092722117
6825600,0.77094055494038,0.014048629384882,0.0046828764616274,0.0046828764616275,0.0046828764616275,-0.0011794802681226,0.0011794802681226,-1.1676113890971e-17,-1.1440826961178e-17,3.065788695201e-16,-3.3140164061325e-16,-0.001201390403553,0.0012013904035532,-0.001201390403553,0.0012013904035532,-0.0012013904035532,0.001201390403553,-0.0012013904035532,0.001201390403553,-0.0011645906948384,0.0011645906948382,-0.0011645906948385,0.0011645906948382,-2.9899086603428e-16,3.3637207700512e-16,1.6087743824587e-17,1.5028952640519e-17,-0.0011794802681226,0.0011794802681226,-0.0012013904035532,0.001201390403553,-0.0012013904035532,0.001201390403553,-0.001201390403553,0.0012013904035532,-0.0012013904035529,0.0012013904035532,-0.0011645906948383,0.0011645906948385,-0.0011645906948383,0.0011645906948385,-0.0011645906948387,0.0011645906948381,-0.0011645906948381,0.0011645906948387,-1.2146687750556e-17,-1.2705494208815e-17,-0.0011794802681226,0.0011794802681226,-1.1499648693626e-17,-9.3526554592662e-18,-0.0012013904035531,0.0012013904035531,-0.0012013904035531,0.0012013904035531,-0.0012013904035531,0.0012013904035531,-0.0012013904035531,0.0012013904035531,-0.0011645906948384,0.0011645906948383,-0.0011645906948383,0.0011645906948383,0.69529555197101,0.88014327974572,1270536,32768,0.0049024482744535,0.0049024482744536,0.0049024482744536,38.103096235434,38.135270687,0.00022002476988347,0.00022002476988347,0.00022002476988347,912406.85431777,0.014816109745755
6912000,0.78286177901711,0.014248026130341,0.0047493420434468,0.0047493420434469,0.0047493420434469,-0.0011966989011572,0.0011966989011572,8.8526707334564e-18,1.038203577711e-17,3.230489546056e-16,-3.0849057582467e-16,-0.0012187094725755,0.0012187094725757,-0.0012187094725755,0.0012187094725758,-0.0012187094725757,0.0012187094725755,-0.0012187094725758,0.0012187094725755,-0.001181785531435,0.0011817855314348,-0.0011817855314351,0.0011817855314348,-2.6569776546859e-16,3.6334184133263e-16,4.6557401232762e-17,4.5204501386453e-17,-0.0011966989011572,0.0011966989011573,-0.0012187094725755,0.0012187094725754,-0.0012187094725756,0.0012187094725754,-0.0012187094725753,0.0012187094725756,-0.0012187094725753,0.0012187094725756,-0.0011817855314348,0.001181785531435,-0.0011817855314348,0.001181785531435,-0.0011817855314352,0.0011817855314346,-0.0011817855314346,0.0011817855314353,-7.9703447467332e-18,-1.0264392312214e-17,-0.0011966989011572,0.0011966989011572,-6.9997861613376e-18,-5.0733744236586e-18,-0.0012187094725755,0.0012187094725754,-0.0012187094725755,0.0012187094725754,-0.0012187094725755,0.0012187094725754,-0.0012187094725755,0.0012187094725754,-0.0011817855314349,0.0011817855314349,-0.0011817855314349,0.0011817855314349,0.67511468573955,0.66927950108049,1270536,32768,0.0049738389687112,0.0049738389687112,0.0049738389687112,38.571726799629,38.603976261646,0.00022377381439703,0.00022377381439703,0.00022377381439703,835937.66633064,0.015033479421088
6998400,0.7945587877157,0.014440166279221,0.0048133887597404,0.0048133887597405,0.0048133887597405,-0.0012127807208961,0.0012127807208961,-7.2056622249064e-18,-5.1763124554429e-18,3.1093167772127e-16,-3.2246073728112e-16,-0.0012351371967543,0.0012351371967545,-0.0012351371967543,0.0012351371967545,-0.0012351371967545,0.0012351371967543,-0.0012351371967545,0.0012351371967543,-0.0011975718972857,0.0011975718972854,-0.0011975718972857,0.0011975718972855,-2.6940353461283e-16,3.6113602636582e-16,4.3851601540145e-17,4.1263445312423e-17,-0.0012127807208961,0.0012127807208962,-0.0012351371967545,0.0012351371967544,-0.0012351371967545,0.0012351371967543,-0.0012351371967543,0.0012351371967545,-0.0012351371967543,0.0012351371967546,-0.0011975718972854,0.0011975718972857,-0.0011975718972854,0.0011975718972856,-0.0011975718972858,0.0011975718972853,-0.0011975718972852,0.0011975718972859,-4.646916863409e-18,-7.1174296262341e-18,-0.0012127807208961,0.0012127807208961,-3.9998778064786e-18,-1.1323183496281e-18,-0.0012351371967544,0.0012351371967544,-0.0012351371967544,0.0012351371967544,-0.0012351371967544,0.0012351371967544,-0.0012351371967544,0.0012351371967544,-0.0011975718972855,0.0011975718972855,-0.0011975718972855,0.0011975718972855,0.66252468836265,0.61390026052372,1270536,32768,0.0050405114288218,0.0050405114288218,0.0050405114288218,39.040383075758,39.072681836293,0.00022752306460607,0.00022752306460607,0.00022752306460607,826269.66910656,0.01523652550227
7084800,0.80600734018918,0.01462580598777,0.00487526866259,0.0048752686625901,0.0048752686625901,-0.0012284778151546,0.0012284778151546,-3.7351800104617e-18,-1.911706304567e-18,3.1210811237023e-16,-3.2575475429822e-16,-0.0012511803485465,0.0012511803485467,-0.0012511803485465,0.0012511803485467,-0.0012511803485467,0.0012511803485465,-0.0012511803485467,0.0012511803485465,-0.0012129983743754,0.0012129983743751,-0.0012129983743754,0.0012129983743752,-2.9410866224108e-16,3.4148956772811e-16,1.9293528243015e-17,1.7764163199361e-17,-0.0012284778151546,0.0012284778151547,-0.0012511803485466,0.0012511803485464,-0.0012511803485466,0.0012511803485465,-0.0012511803485464,0.0012511803485467,-0.0012511803485464,0.0012511803485467,-0.0012129983743751,0.0012129983743753,-0.0012129983743751,0.0012129983743753,-0.0012129983743756,0.001212998374375,-0.001212998374375,0.0012129983743757,-1.0617322706903e-17,-1.3381944131969e-17,-0.0012284778151546,0.0012284778151546,-1.2087866018108e-17,-1.0146748847317e-17,-0.0012511803485466,0.0012511803485465,-0.0012511803485466,0.0012511803485465,-0.0012511803485466,0.0012511803485465,-0.0012511803485466,0.0012511803485465,-0.0012129983743753,0.0012129983743753,-0.0012129983743753,0.0012129983743753,0.6539693663662,0.59419810702723,1270536,32768,0.0051055845283306,0.0051055845283307,0.0051055845283307,39.509041989354,39.541387410939,0.00023127233591483,0.00023127233591483,0.00023127233591483,809940.85540586,0.015434740774847
7171200,0.81718485335289,0.014802692964774,0.0049342309882581,0.0049342309882581,0.0049342309882581,-0.0012435341246706,0.0012435341246706,-2.7646214250661e-18,-9.7055858539555e-19,3.1528448592243e-16,-3.214607678295e-16,-0.0012666453729551,0.0012666453729553,-0.0012666453729551,0.0012666453729553,-0.0012666453729554,0.0012666453729551,-0.0012666453729554,0.0012666453729551,-0.0012277217175087,0.0012277217175085,-0.0012277217175088,0.0012277217175085,-2.8710887607974e-16,3.4745997357161e-16,2.5763918812318e-17,2.4852181959371e-17,-0.0012435341246706,0.0012435341246706,-0.0012666453729553,0.0012666453729552,-0.0012666453729553,0.0012666453729551,-0.0012666453729551,0.0012666453729554,-0.0012666453729551,0.0012666453729554,-0.0012277217175085,0.0012277217175087,-0.0012277217175085,0.0012277217175088,-0.0012277217175089,0.0012277217175083,-0.0012277217175083,0.0012277217175089,1.0793787904248e-17,8.3820968738707e-18,-0.0012435341246706,0.0012435341246706,1.0411446643334e-17,1.1896695387652e-17,-0.0012666453729553,0.0012666453729553,-0.0012666453729553,0.0012666453729553,-0.0012666453729552,0.0012666453729553,-0.0012666453729552,0.0012666453729553,-0.0012277217175086,0.0012277217175086,-0.0012277217175086,0.0012277217175086,0.63821023237163,0.53332239675741,1270536,32768,0.0051679970164211,0.0051679970164212,0.0051679970164212,39.977701159414,40.010092985586,0.00023502160927531,0.00023502160927531,0.00023502160927531,797312.71072605,0.01562488932737
7257600,0.82807014379723,0.014969613052973,0.0049898710176576,0.0049898710176576,0.0049898710176576,-0.0012577080938122,0.0012577080938122,-1.0529090108231e-17,-8.2644534089743e-18,3.0504950447644e-16,-3.3066636895764e-16,-0.0012813527001991,0.0012813527001993,-0.0012813527001991,0.0012813527001993,-0.0012813527001993,0.0012813527001991,-0.0012813527001993,0.0012813527001991,-0.0012414468176206,0.0012414468176204,-0.0012414468176206,0.0012414468176204,-2.8910881498298e-16,3.4434242175185e-16,2.4528662430906e-17,2.6646244799042e-17,-0.0012577080938122,0.0012577080938122,-0.0012813527001993,0.0012813527001991,-0.0012813527001993,0.0012813527001991,-0.0012813527001991,0.0012813527001993,-0.0012813527001991,0.0012813527001994,-0.0012414468176204,0.0012414468176206,-0.0012414468176204,0.0012414468176206,-0.0012414468176207,0.0012414468176202,-0.0012414468176202,0.0012414468176208,-5.470421117684e-18,-7.4703600209233e-18,-0.0012577080938122,0.0012577080938122,-3.3822496157724e-18,-5.2939559203394e-18,-0.0012813527001992,0.0012813527001992,-0.0012813527001992,0.0012813527001992,-0.0012813527001992,0.0012813527001992,-0.0012813527001992,0.0012813527001992,-0.0012414468176204,0.0012414468176205,-0.0012414468176205,0.0012414468176205,0.61842693396385,0.46898638272369,1270536,32768,0.0052267481099416,0.0052267481099416,0.0052267481099416,40.446360339556,40.478798560232,0.00023877088271644,0.00023877088271644,0.00023877088271644,801054.64810658,0.015803916801775
7344000,0.83854484943526,0.015125417526965,0.0050418058423218,0.0050418058423218,0.0050418058423218,-0.0012706044449609,0.0012706044449609,-1.3234889800848e-17,-1.0440857509558e-17,3.047553958142e-16,-3.3051931462652e-16,-0.0012948747872465,0.0012948747872467,-0.0012948747872465,0.0012948747872467,-0.0012948747872467,0.0012948747872465,-0.0012948747872467,0.0012948747872465,-0.001253830817518,0.0012538308175178,-0.001253830817518,0.0012538308175178,-2.8657948048771e-16,3.4654823671866e-16,2.6793299130162e-17,2.9352044491659e-17,-0.0012706044449609,0.0012706044449609,-0.0012948747872466,0.0012948747872465,-0.0012948747872466,0.0012948747872464,-0.0012948747872464,0.0012948747872467,-0.0012948747872464,0.0012948747872467,-0.0012538308175177,0.001253830817518,-0.0012538308175177,0.0012538308175179,-0.0012538308175181,0.0012538308175176,-0.0012538308175176,0.0012538308175182,-3.5881256793411e-18,-6.1762819070626e-18,-0.0012706044449609,0.0012706044449609,-1.1764346489643e-18,-2.3528692979286e-18,-0.0012948747872466,0.0012948747872465,-0.0012948747872466,0.0012948747872465,-0.0012948747872466,0.0012948747872465,-0.0012948747872466,0.0012948747872466,-0.0012538308175179,0.0012538308175178,-0.0012538308175178,0.0012538308175179,0.59995525652199,0.42818194048028,1270536,32768,0.0052802002050316,0.0052802002050316,0.0052802002050316,40.737777711934,40.75839951913,0.00024110222169547,0.00024110222169547,0.00024110222169547,814680.21027985,0.015966825843295
7430400,0.8484758426236,0.015269100514705,0.0050897001715683,0.0050897001715683,0.0050897001715683,-0.0012820798621801,0.0012820798621801,-3.2351952846518e-18,-8.5291512049912e-19,3.1363747741388e-16,-3.2169605475929e-16,-0.0013070082702696,0.0013070082702697,-0.0013070082702696,0.0013070082702698,-0.0013070082702698,0.0013070082702695,-0.0013070082702698,0.0013070082702695,-0.0012647896508966,0.0012647896508964,-0.0012647896508966,0.0012647896508964,-2.8916763671543e-16,3.4407772395584e-16,2.405808857132e-17,2.5881562277215e-17,-0.0012820798621801,0.0012820798621801,-0.0013070082702697,0.0013070082702695,-0.0013070082702697,0.0013070082702695,-0.0013070082702695,0.0013070082702697,-0.0013070082702695,0.0013070082702698,-0.0012647896508964,0.0012647896508966,-0.0012647896508964,0.0012647896508966,-0.0012647896508968,0.0012647896508962,-0.0012647896508962,0.0012647896508969,-7.2938948235787e-18,-1.0087927114869e-17,-0.0012820798621801,0.0012820798621801,-7.1174296262341e-18,-8.1026936447417e-18,-0.0013070082702697,0.0013070082702696,-0.0013070082702697,0.0013070082702696,-0.0013070082702696,0.0013070082702696,-0.0013070082702696,0.0013070082702696,-0.0012647896508965,0.0012647896508965,-0.0012647896508965,0.0012647896508965,0.58368533830387,0.40318419993588,1270536,32768,0.0053277602596851,0.0053277602596851,0.0053277602596851,40.784539751005,40.788401559428,0.00024147631800804,0.00024147631800804,0.00024147631800804,829248.25862986,0.016111800580492
7516800,0.85787382737469,0.015401467188625,0.0051338223962081,0.0051338223962082,0.0051338223962082,-0.0012926489935155,0.0012926489935155,-3.3822496157724e-18,-7.646825218268e-19,3.1369629914633e-16,-3.2149017869572e-16,-0.0013182373043136,0.0013182373043138,-0.0013182373043136,0.0013182373043138,-0.0013182373043138,0.0013182373043136,-0.0013182373043138,0.0013182373043136,-0.0012748560617813,0.0012748560617811,-0.0012748560617814,0.0012748560617811,-2.8957938884256e-16,3.4351891749758e-16,2.3734569042855e-17,2.5322755818957e-17,-0.0012926489935155,0.0012926489935155,-0.0013182373043138,0.0013182373043136,-0.0013182373043138,0.0013182373043136,-0.0013182373043135,0.0013182373043138,-0.0013182373043136,0.0013182373043138,-0.0012748560617811,0.0012748560617814,-0.0012748560617811,0.0012748560617814,-0.0012748560617815,0.001274856061781,-0.001274856061781,0.0012748560617816,-6.4409797030796e-18,-8.9997250645769e-18,-0.0012926489935155,0.0012926489935155,-6.1762819070626e-18,-7.0291970275617e-18,-0.0013182373043137,0.0013182373043137,-0.0013182373043137,0.0013182373043137,-0.0013182373043137,0.0013182373043137,-0.0013182373043137,0.0013182373043137,-0.0012748560617812,0.0012748560617813,-0.0012748560617812,0.0012748560617813,0.56836289329143,0.38129582520854,1270536,32768,0.0053715620446177,0.0053715620446177,0.0053715620446177,40.816142556517,40.818403599726,0.00024172914045214,0.00024172914045214,0.00024172914045214,841972.87887976,0.01624533833685
7603200,0.86675818239279,0.01552356760002,0.00517452253334,0.00517452253334,0.00517452253334,-0.0013023998114195,0.0013023998114195,-3.4410713482206e-18,-7.0586078937858e-19,3.1328454701919e-16,-3.214607678295e-16,-0.0013286447952104,0.0013286447952106,-0.0013286447952104,0.0013286447952106,-0.0013286447952106,0.0013286447952104,-0.0013286447952106,0.0013286447952104,-0.0012841190489776,0.0012841190489773,-0.0012841190489776,0.0012841190489773,-2.899911409697e-16,3.4260718064463e-16,2.30581191197e-17,2.5028647156716e-17,-0.0013023998114195,0.0013023998114196,-0.0013286447952106,0.0013286447952104,-0.0013286447952106,0.0013286447952104,-0.0013286447952103,0.0013286447952106,-0.0013286447952104,0.0013286447952106,-0.0012841190489773,0.0012841190489776,-0.0012841190489773,0.0012841190489776,-0.0012841190489777,0.0012841190489772,-0.0012841190489772,0.0012841190489778,-6.7350883653207e-18,-9.4997097903868e-18,-0.0013023998114196,0.0013023998114196,-6.558623167976e-18,-7.4850654540354e-18,-0.0013286447952105,0.0013286447952105,-0.0013286447952105,0.0013286447952105,-0.0013286447952105,0.0013286447952105,-0.0013286447952105,0.0013286447952105,-0.0012841190489775,0.0012841190489775,-0.0012841190489775,0.0012841190489775,0.55472228490059,0.36716775327241,1270536,32768,0.0054119706495127,0.0054119706495128,0.0054119706495128,40.846307502584,40.848405640024,0.00024197046002067,0.00024197046002067,0.00024197046002067,853798.40792168,0.016368547628687
7689600,0.87514925919135,0.015636632079228,0.0052122106930759,0.0052122106930759,0.0052122106930759,-0.0013114486186633,0.0013114486186633,-4.2351647362715e-18,-1.6764193747741e-18,3.1234339930002e-16,-3.2222545035132e-16,-0.0013383223865806,0.0013383223865808,-0.0013383223865806,0.0013383223865808,-0.0013383223865808,0.0013383223865806,-0.0013383223865808,0.0013383223865806,-0.0012927152886885,0.0012927152886883,-0.0012927152886885,0.0012927152886883,-2.8893234978563e-16,3.4334245230023e-16,2.3999266838872e-17,2.5675686213646e-17,-0.0013114486186633,0.0013114486186634,-0.0013383223865808,0.0013383223865806,-0.0013383223865808,0.0013383223865806,-0.0013383223865805,0.0013383223865808,-0.0013383223865806,0.0013383223865808,-0.0012927152886883,0.0012927152886885,-0.0012927152886883,0.0012927152886885,-0.0012927152886887,0.0012927152886882,-0.0012927152886881,0.0012927152886888,-6.0586384421662e-18,-8.6762055361118e-18,-0.0013114486186634,0.0013114486186634,-5.9115841110456e-18,-6.7792046646568e-18,-0.0013383223865807,0.0013383223865807,-0.0013383223865807,0.0013383223865807,-0.0013383223865807,0.0013383223865807,-0.0013383223865807,0.0013383223865807,-0.0012927152886884,0.0012927152886884,-0.0012927152886884,0.0012927152886884,0.54397473329525,0.3653920339003,1270536,32768,0.0054494684967205,0.0054494684967205,0.0054494684967205,40.876326232517,40.878407680322,0.00024221060986013,0.00024221060986013,0.00024221060986013,862322.75016353,0.016482895584846
7776000,0.88306757165665,0.01574146436992,0.0052471547899733,0.0052471547899734,0.0052471547899734,-0.0013198806447276,0.0013198806447276,-3.8822343415822e-18,-1.4411324449813e-18,3.1228457756758e-16,-3.2149017869572e-16,-0.0013473405711427,0.0013473405711429,-0.0013473405711427,0.0013473405711429,-0.0013473405711429,0.0013473405711427,-0.0013473405711429,0.0013473405711426,-0.0013007367847707,0.0013007367847705,-0.0013007367847708,0.0013007367847705,-2.8904999325053e-16,3.4284246757442e-16,2.3322816915717e-17,2.5410988417629e-17,-0.0013198806447275,0.0013198806447276,-0.0013473405711428,0.0013473405711426,-0.0013473405711428,0.0013473405711426,-0.0013473405711426,0.0013473405711429,-0.0013473405711426,0.0013473405711429,-0.0013007367847705,0.0013007367847708,-0.0013007367847705,0.0013007367847708,-0.0013007367847709,0.0013007367847704,-0.0013007367847704,0.001300736784771,-5.8821732448215e-18,-8.470329472543e-18,-0.0013198806447276,0.0013198806447276,-5.6174754488046e-18,-6.9115535626653e-18,-0.0013473405711428,0.0013473405711427,-0.0013473405711428,0.0013473405711427,-0.0013473405711428,0.0013473405711427,-0.0013473405711428,0.0013473405711427,-0.0013007367847707,0.0013007367847707,-0.0013007367847706,0.0013007367847707,0.53455563850073,0.3636163145282,1270536,32768,0.0054844091088529,0.005484409108853,0.005484409108853,40.906329837199,40.908409720621,0.00024245063869759,0.00024245063869759,0.00024245063869759,865886.38242179,0.016589457309272
7862400,0.89053359622832,0.015838732161185,0.0052795773870615,0.0052795773870616,0.0052795773870616,-0.0013277177105193,0.0013277177105193,-4.4704516660644e-18,-1.8528845721188e-18,3.1163753851064e-16,-3.2190193082286e-16,-0.0013557282496614,0.0013557282496616,-0.0013557282496614,0.0013557282496616,-0.0013557282496616,0.0013557282496614,-0.0013557282496616,0.0013557282496614,-0.0013081936878496,0.0013081936878494,-0.0013081936878496,0.0013081936878493,-2.8928528018032e-16,3.4231307198239e-16,2.3175762584597e-17,2.4822771093147e-17,-0.0013277177105193,0.0013277177105194,-0.0013557282496616,0.0013557282496614,-0.0013557282496616,0.0013557282496614,-0.0013557282496613,0.0013557282496616,-0.0013557282496614,0.0013557282496616,-0.0013081936878493,0.0013081936878496,-0.0013081936878494,0.0013081936878496,-0.0013081936878497,0.0013081936878492,-0.0013081936878492,0.0013081936878498,-5.999816709718e-18,-8.3526860076466e-18,-0.0013277177105194,0.0013277177105193,-5.7939406461492e-18,-6.558623167976e-18,-0.0013557282496615,0.0013557282496615,-0.0013557282496615,0.0013557282496615,-0.0013557282496615,0.0013557282496615,-0.0013557282496615,0.0013557282496615,-0.0013081936878495,0.0013081936878495,-0.0013081936878495,0.0013081936878495,0.52606272259481,0.36184059515609,1270536,32768,0.0055168831801875,0.0055168831801876,0.0055168831801876,40.936331869869,40.938411760919,0.00024269065495895,0.00024269065495895,0.00024269065495895,866864.62250512,0.016688506875371
7948800,0.89756764335069,0.015929012947077,0.0053096709823589,0.005309670982359,0.005309670982359,-0.0013350015233957,0.0013350015233957,-3.823412609134e-18,-1.2940781138607e-18,3.1246104276492e-16,-3.2160782216062e-16,-0.0013635272895084,0.0013635272895086,-0.0013635272895084,0.0013635272895086,-0.0013635272895086,0.0013635272895084,-0.0013635272895086,0.0013635272895084,-0.0013151256681829,0.0013151256681827,-0.001315125668183,0.0013151256681827,-2.8969703230746e-16,3.4201896332015e-16,2.291106478858e-17,2.4587484163354e-17,-0.0013350015233957,0.0013350015233958,-0.0013635272895086,0.0013635272895084,-0.0013635272895086,0.0013635272895084,-0.0013635272895083,0.0013635272895086,-0.0013635272895083,0.0013635272895086,-0.0013151256681827,0.001315125668183,-0.0013151256681827,0.001315125668183,-0.0013151256681831,0.0013151256681826,-0.0013151256681825,0.0013151256681832,-5.7645297799251e-18,-8.3232751414225e-18,-0.0013350015233958,0.0013350015233957,-5.7939406461492e-18,-6.3821579706314e-18,-0.0013635272895085,0.0013635272895085,-0.0013635272895085,0.0013635272895085,-0.0013635272895085,0.0013635272895085,-0.0013635272895085,0.0013635272895085,-0.0013151256681828,0.0013151256681828,-0.0013151256681828,0.0013151256681829,0.51827076599334,0.36006487578398,1270536,32768,0.0055470637789212,0.0055470637789213,0.0055470637789213,40.966333738924,40.968413801217,0.00024293066991139,0.00024293066991139,0.00024293066991139,865750.3023861,0.016780569954381
8035200,0.90418976024487,0.016012821318609,0.0053376071062031,0.0053376071062032,0.0053376071062032,-0.0013417711756299,0.0013417711756299,-4.2057538700474e-18,-1.7352411072224e-18,3.115787167782e-16,-3.2172546562551e-16,-0.0013707772595467,0.0013707772595469,-0.0013707772595467,0.0013707772595469,-0.0013707772595469,0.0013707772595467,-0.0013707772595469,0.0013707772595467,-0.0013215701862473,0.001321570186247,-0.0013215701862473,0.001321570186247,-2.8934410191277e-16,3.4187190898903e-16,2.30581191197e-17,2.4293375501113e-17,-0.0013417711756299,0.00134177117563,-0.0013707772595468,0.0013707772595467,-0.0013707772595468,0.0013707772595467,-0.0013707772595466,0.0013707772595469,-0.0013707772595466,0.0013707772595469,-0.001321570186247,0.0013215701862473,-0.0013215701862471,0.0013215701862473,-0.0013215701862475,0.0013215701862469,-0.0013215701862469,0.0013215701862475,-5.8233515123733e-18,-8.4409186063189e-18,-0.00134177117563,0.0013417711756299,-5.9704058434939e-18,-6.4556851361916e-18,-0.0013707772595468,0.0013707772595467,-0.0013707772595468,0.0013707772595467,-0.0013707772595468,0.0013707772595467,-0.0013707772595468,0.0013707772595467,-0.0013215701862472,0.0013215701862472,-0.0013215701862472,0.0013215701862472,0.51103570360572,0.35828915641187,1270536,32768,0.0055751130968979,0.0055751130968979,0.0055751130968979,40.996335590938,40.998415841515,0.0002431706847275,0.0002431706847275,0.0002431706847275,862896.95945378,0.016866139399652
8121600,0.91043041173614,0.016090756350277,0.0053635854500924,0.0053635854500925,0.0053635854500925,-0.0013481377946111,0.0013481377946111,-8.0291664791814e-18,-5.5586537163563e-18,3.0693179991479e-16,-3.245194979168e-16,-0.0013775900048064,0.0013775900048066,-0.0013775900048065,0.0013775900048066,-0.0013775900048067,0.0013775900048064,-0.0013775900048067,0.0013775900048064,-0.0013276369512029,0.0013276369512027,-0.0013276369512029,0.0013276369512026,-2.8810884553136e-16,3.4137192426322e-16,2.2705188725011e-17,2.4528662430906e-17,-0.0013481377946111,0.0013481377946112,-0.0013775900048066,0.0013775900048065,-0.0013775900048066,0.0013775900048064,-0.0013775900048064,0.0013775900048067,-0.0013775900048064,0.0013775900048067,-0.0013276369512026,0.0013276369512029,-0.0013276369512026,0.0013276369512029,-0.0013276369512031,0.0013276369512025,-0.0013276369512025,0.0013276369512031,-1.1146718298937e-17,-1.3499587596865e-17,-0.0013481377946112,0.0013481377946111,-1.1205540031385e-17,-1.202904428566e-17,-0.0013775900048066,0.0013775900048065,-0.0013775900048066,0.0013775900048065,-0.0013775900048066,0.0013775900048065,-0.0013775900048066,0.0013775900048065,-0.0013276369512028,0.0013276369512028,-0.0013276369512028,0.0013276369512028,0.50425769113015,0.35651343703977,1270536,32768,0.0056014917619634,0.0056014917619635,0.0056014917619635,41.059585236626,41.063890215266,0.00024367668189301,0.00024367668189301,0.00024367668189301,858521.83643426,0.016946618848869
8208000,0.91631976675408,0.01616337490463,0.0053877916348765,0.0053877916348765,0.0053877916348765,-0.001354162455285,0.001354162455285,-5.1763124554429e-18,-2.7940322912902e-18,3.0951995614251e-16,-3.2101960483614e-16,-0.0013840291785149,0.0013840291785151,-0.0013840291785149,0.0013840291785151,-0.0013840291785151,0.0013840291785149,-0.0013840291785151,0.0013840291785149,-0.0013333845493068,0.0013333845493066,-0.0013333845493068,0.0013333845493066,-2.9281458412722e-16,3.354897510184e-16,1.8999419580774e-17,2.0440552025755e-17,-0.001354162455285,0.0013541624552851,-0.0013840291785151,0.0013840291785149,-0.0013840291785151,0.0013840291785149,-0.0013840291785148,0.0013840291785151,-0.0013840291785148,0.0013840291785151,-0.0013333845493066,0.0013333845493068,-0.0013333845493066,0.0013333845493069,-0.001333384549307,0.0013333845493065,-0.0013333845493065,0.0013333845493071,-4.8822037932019e-18,-7.1468404924582e-18,-0.001354162455285,0.001354162455285,-5.5586537163563e-18,-6.0439330090541e-18,-0.001384029178515,0.001384029178515,-0.001384029178515,0.001384029178515,-0.001384029178515,0.001384029178515,-0.001384029178515,0.001384029178515,-0.0013333845493068,0.0013333845493068,-0.0013333845493068,0.0013333845493068,0.4978637603611,0.35473771766766,1270536,32768,0.0056264529553211,0.0056264529553212,0.0056264529553212,41.165043575522,41.172251607191,0.00024452034860417,0.00024452034860417,0.00024452034860417,852913.71966598,0.017022779574788
8294400,0.92187324873896,0.016231176393347,0.0054103921311157,0.0054103921311158,0.0054103921311158,-0.0013598084734149,0.0013598084734149,-2.6763888263938e-18,-2.9410866224108e-19,3.1204929063778e-16,-3.1822557254485e-16,-0.0013900572118565,0.0013900572118567,-0.0013900572118565,0.0013900572118567,-0.0013900572118567,0.0013900572118565,-0.0013900572118567,0.0013900572118565,-0.0013387782286086,0.0013387782286084,-0.0013387782286086,0.0013387782286084,-2.8316782000571e-16,3.4516592600613e-16,2.8675594568505e-17,3.0028494414814e-17,-0.0013598084734149,0.0013598084734149,-0.0013900572118567,0.0013900572118565,-0.0013900572118567,0.0013900572118565,-0.0013900572118564,0.0013900572118567,-0.0013900572118564,0.0013900572118567,-0.0013387782286084,0.0013387782286086,-0.0013387782286084,0.0013387782286086,-0.0013387782286088,0.0013387782286083,-0.0013387782286082,0.0013387782286089,-6.9997861613376e-18,-9.2350119943698e-18,-0.0013598084734149,0.0013598084734149,-7.1468404924582e-18,-7.66153065138e-18,-0.0013900572118566,0.0013900572118566,-0.0013900572118566,0.0013900572118566,-0.0013900572118566,0.0013900572118566,-0.0013900572118566,0.0013900572118566,-0.0013387782286085,0.0013387782286085,-0.0013387782286085,0.0013387782286085,0.4929071531126,0.35907401629265,1270536,32768,0.0056498448022437,0.0056498448022437,0.0056498448022437,41.273125031013,41.280612999116,0.0002453850002481,0.0002453850002481,0.0002453850002481,846136.45672157,0.017094157149579
8380800,0.92710535023859,0.016294552803265,0.0054315176010881,0.0054315176010882,0.0054315176010882,-0.0013651245271798,0.0013651245271798,-4.8527929269778e-18,-2.4116910303768e-18,3.082846997611e-16,-3.2228427208377e-16,-0.0013957142853267,0.0013957142853269,-0.0013957142853267,0.0013957142853269,-0.0013957142853269,0.0013957142853267,-0.0013957142853269,0.0013957142853267,-0.0013438734690942,0.001343873469094,-0.0013438734690942,0.0013438734690939,-2.8346192866795e-16,3.4522474773858e-16,2.7528570785765e-17,2.8381485906264e-17,-0.0013651245271798,0.0013651245271798,-0.0013957142853269,0.0013957142853267,-0.0013957142853269,0.0013957142853267,-0.0013957142853266,0.0013957142853269,-0.0013957142853266,0.0013957142853269,-0.0013438734690939,0.0013438734690942,-0.001343873469094,0.0013438734690942,-0.0013438734690943,0.0013438734690938,-0.0013438734690938,0.0013438734690944,-7.5291817533716e-18,-9.9996945161966e-18,-0.0013651245271798,0.0013651245271798,-8.4409186063189e-18,-8.2350425427501e-18,-0.0013957142853268,0.0013957142853268,-0.0013957142853268,0.0013957142853268,-0.0013957142853268,0.0013957142853268,-0.0013957142853268,0.0013957142853268,-0.0013438734690941,0.0013438734690941,-0.0013438734690941,0.0013438734690941,0.48898207988463,0.3649459305384,1270536,32768,0.0056718690968857,0.0056718690968857,0.0056718690968857,41.38145563842,41.388974391042,0.00024625164510736,0.00024625164510736,0.00024625164510736,836940.41096043,0.017161366338489
8467200,0.93203033931919,0.016353825503745,0.0054512751679149,0.0054512751679149,0.0054512751679149,-0.001370123757046,0.001370123757046,-5.8233515123733e-18,-3.558714813117e-18,3.0934349094516e-16,-3.2178428735796e-16,-0.0014010189518396,0.0014010189518398,-0.0014010189518396,0.0014010189518398,-0.0014010189518398,0.0014010189518396,-0.0014010189518398,0.0014010189518396,-0.0013486770748001,0.0013486770747999,-0.0013486770748002,0.0013486770747999,-2.8610890662812e-16,3.4319539796911e-16,2.5352166685181e-17,2.6058027474559e-17,-0.001370123757046,0.001370123757046,-0.0014010189518398,0.0014010189518396,-0.0014010189518398,0.0014010189518396,-0.0014010189518395,0.0014010189518398,-0.0014010189518396,0.0014010189518398,-0.0013486770747999,0.0013486770748002,-0.0013486770747999,0.0013486770748002,-0.0013486770748003,0.0013486770747998,-0.0013486770747997,0.0013486770748004,-5.6468863150287e-18,-8.1468099440778e-18,-0.001370123757046,0.001370123757046,-5.4410102514599e-18,-5.3968939521238e-18,-0.0014010189518397,0.0014010189518397,-0.0014010189518397,0.0014010189518397,-0.0014010189518397,0.0014010189518397,-0.0014010189518397,0.0014010189518397,-0.0013486770748,0.0013486770748,-0.0013486770748,0.0013486770748,0.48576534093533,0.37081784478414,1270536,32768,0.0056925803672393,0.0056925803672393,0.0056925803672393,41.489811614172,41.497335782967,0.00024711849291338,0.00024711849291338,0.00024711849291338,826243.21354199,0.017224572700694
8553600,0.936662271231,0.016409277963587,0.0054697593211958,0.0054697593211958,0.0054697593211958,-0.0013748218806487,0.0013748218806487,-4.9410255256501e-18,-2.3234584317045e-18,3.1046110386168e-16,-3.2119607003348e-16,-0.00140599124038,0.0014059912403802,-0.00140599124038,0.0014059912403802,-0.0014059912403802,0.00140599124038,-0.0014059912403802,0.00140599124038,-0.0013532007991634,0.0013532007991632,-0.0013532007991634,0.0013532007991632,-2.8616772836057e-16,3.4328363056778e-16,2.5793329678542e-17,2.72050512573e-17,-0.0013748218806487,0.0013748218806487,-0.0014059912403801,0.00140599124038,-0.0014059912403802,0.00140599124038,-0.0014059912403799,0.0014059912403802,-0.0014059912403799,0.0014059912403802,-0.0013532007991632,0.0013532007991634,-0.0013532007991632,0.0013532007991634,-0.0013532007991636,0.001353200799163,-0.001353200799163,0.0013532007991637,-5.3233667865635e-18,-7.6174143520439e-18,-0.0013748218806487,0.0013748218806487,-5.2645450541153e-18,-5.5439482832443e-18,-0.0014059912403801,0.00140599124038,-0.0014059912403801,0.00140599124038,-0.0014059912403801,0.0014059912403801,-0.0014059912403801,0.00140599124038,-0.0013532007991633,0.0013532007991633,-0.0013532007991633,0.0013532007991633,0.48312848828669,0.37668975902989,1270536,32768,0.0057120438104689,0.005712043810469,0.005712043810469,41.598170217623,41.605697174892,0.00024798536174098,0.00024798536174098,0.00024798536174098,814639.97541972,0.017283974458539
8640000,0.94101494766332,0.016461165651701,0.0054870552172337,0.0054870552172337,0.0054870552172337,-0.0013792375092003,0.0013792375092003,-3.3234278833242e-18,-9.9996945161966e-19,3.1163753851064e-16,-3.1993140278584e-16,-0.0014106524638561,0.0014106524638563,-0.0014106524638561,0.0014106524638563,-0.0014106524638563,0.0014106524638561,-0.0014106524638563,0.0014106524638561,-0.0013574611780974,0.0013574611780972,-0.0013574611780975,0.0013574611780972,-2.9057935829418e-16,3.3928375276131e-16,2.0469962891979e-17,2.176404100584e-17,-0.0013792375092002,0.0013792375092003,-0.0014106524638563,0.0014106524638561,-0.0014106524638563,0.0014106524638561,-0.001410652463856,0.0014106524638563,-0.001410652463856,0.0014106524638563,-0.0013574611780972,0.0013574611780974,-0.0013574611780972,0.0013574611780975,-0.0013574611780976,0.0013574611780971,-0.001357461178097,0.0013574611780977,-9.6761749877314e-18,-1.1911400820764e-17,-0.0013792375092003,0.0013792375092003,-9.823229318852e-18,-1.0264392312214e-17,-0.0014106524638562,0.0014106524638562,-0.0014106524638562,0.0014106524638562,-0.0014106524638562,0.0014106524638562,-0.0014106524638562,0.0014106524638562,-0.0013574611780973,0.0013574611780973,-0.0013574611780973,0.0013574611780973,0.48098780890795,0.38256167327564,1270536,32768,0.0057303366012818,0.0057303366012819,0.0057303366012819,41.706529094408,41.714058566817,0.00024885223275527,0.00024885223275527,0.00024885223275527,802409.44686901,0.017339806493323
8726400,0.94510187663352,0.016509721689741,0.0055032405632471,0.0055032405632472,0.0055032405632472,-0.0013833882496995,0.0013833882496995,-5.2939559203394e-18,-3.1469626859795e-18,3.0999053000209e-16,-3.2234309381622e-16,-0.0014150226627616,0.0014150226627618,-0.0014150226627616,0.0014150226627618,-0.0014150226627618,0.0014150226627616,-0.0014150226627618,0.0014150226627616,-0.0013614740256361,0.0013614740256359,-0.0013614740256361,0.0013614740256359,-2.8793238033401e-16,3.4231307198239e-16,2.4734538494475e-17,2.6646244799042e-17,-0.0013833882496995,0.0013833882496995,-0.0014150226627618,0.0014150226627616,-0.0014150226627618,0.0014150226627616,-0.0014150226627615,0.0014150226627618,-0.0014150226627615,0.0014150226627618,-0.0013614740256358,0.0013614740256361,-0.0013614740256359,0.0013614740256361,-0.0013614740256363,0.0013614740256357,-0.0013614740256357,0.0013614740256363,-8.73502726856e-18,-1.1117307432713e-17,-0.0013833882496995,0.0013833882496995,-9.1467793956975e-18,-1.0029105382421e-17,-0.0014150226627617,0.0014150226627617,-0.0014150226627617,0.0014150226627617,-0.0014150226627617,0.0014150226627617,-0.0014150226627617,0.0014150226627616,-0.001361474025636,0.001361474025636,-0.001361474025636,0.001361474025636,0.47928251025542,0.38843358752138,1270536,32768,0.0057475317433478,0.0057475317433479,0.0057475317433479,41.814887999489,41.822419958742,0.00024971910399591,0.00024971910399591,0.00024971910399591,789763.91347358,0.017392291051327
8812800,0.94893623781841,0.016553589817086,0.0055178632723618,0.0055178632723619,0.0055178632723619,-0.0013871616712224,0.0013871616712224,-2.6469779601697e-19,2.0293497694634e-18,3.1510802072509e-16,-3.1725501395945e-16,-0.001419030537156,0.0014190305371562,-0.001419030537156,0.0014190305371562,-0.0014190305371562,0.001419030537156,-0.0014190305371562,0.001419030537156,-0.0013650806966609,0.0013650806966607,-0.0013650806966609,0.0013650806966607,-2.8587361969833e-16,3.445188869492e-16,2.5881562277215e-17,2.8410896772488e-17,-0.0013871616712223,0.0013871616712224,-0.0014190305371562,0.001419030537156,-0.0014190305371562,0.001419030537156,-0.001419030537156,0.0014190305371562,-0.001419030537156,0.0014190305371563,-0.0013650806966607,0.0013650806966609,-0.0013650806966607,0.0013650806966609,-0.0013650806966611,0.0013650806966605,-0.0013650806966605,0.0013650806966612,-8.0585773454055e-18,-1.038203577711e-17,-0.0013871616712224,0.0013871616712224,-7.4703600209233e-18,-8.6467946698877e-18,-0.0014190305371561,0.0014190305371561,-0.0014190305371561,0.0014190305371561,-0.0014190305371561,0.0014190305371561,-0.0014190305371561,0.0014190305371561,-0.0013650806966608,0.0013650806966608,-0.0013650806966608,0.0013650806966608,0.46148460297074,0.303444394553,1270536,32768,0.0057631633831802,0.0057631633831803,0.0057631633831803,41.923246907318,41.930781350667,0.00025058597525854,0.00025058597525854,0.00025058597525854,779168.85467605,0.017440006367871
8899200,0.95251150052395,0.016593319955716,0.0055311066519053,0.0055311066519053,0.0055311066519053,-0.0013900558839241,0.0013900558839241,-4.7645603283054e-18,-2.4999236290492e-18,3.1046110386168e-16,-3.2201957428775e-16,-0.0014222728909073,0.0014222728909075,-0.0014222728909074,0.0014222728909075,-0.0014222728909076,0.0014222728909073,-0.0014222728909076,0.0014222728909073,-0.0013677052072077,0.0013677052072075,-0.0013677052072077,0.0013677052072075,-2.8916763671543e-16,3.4134251339699e-16,2.2734599591235e-17,2.4763949360699e-17,-0.0013900558839241,0.0013900558839241,-0.0014222728909075,0.0014222728909073,-0.0014222728909075,0.0014222728909073,-0.0014222728909073,0.0014222728909075,-0.0014222728909073,0.0014222728909076,-0.0013677052072075,0.0013677052072077,-0.0013677052072075,0.0013677052072077,-0.0013677052072079,0.0013677052072073,-0.0013677052072073,0.0013677052072079,-6.823320963993e-18,-9.2056011281457e-18,-0.0013900558839241,0.0013900558839241,-6.4703905693037e-18,-7.6762360844921e-18,-0.0014222728909074,0.0014222728909074,-0.0014222728909074,0.0014222728909074,-0.0014222728909074,0.0014222728909074,-0.0014222728909074,0.0014222728909074,-0.0013677052072076,0.0013677052072076,-0.0013677052072076,0.0013677052072076,0.44817360637107,0.27958262364292,1270536,32768,0.0057751525284528,0.0057751525284529,0.0057751525284529,41.925662524305,41.926091268594,0.00025060530019444,0.00025060530019444,0.00025060530019444,787467.20859583,0.017476604799012
8985600,0.9558230365917,0.016629884481523,0.0055432948271743,0.0055432948271744,0.0055432948271744,-0.0013926127275334,0.0013926127275334,-4.3528082011679e-18,-2.1175823681358e-18,3.1275515142716e-16,-3.2328424153539e-16,-0.0014250964400208,0.001425096440021,-0.0014250964400208,0.001425096440021,-0.001425096440021,0.0014250964400208,-0.001425096440021,0.0014250964400208,-0.0013700840247397,0.0013700840247394,-0.0013700840247397,0.0013700840247395,-2.9193225814049e-16,3.4190131985525e-16,2.1558164942271e-17,2.2940475654804e-17,-0.0013926127275334,0.0013926127275335,-0.001425096440021,0.0014250964400208,-0.001425096440021,0.0014250964400208,-0.0014250964400207,0.001425096440021,-0.0014250964400207,0.001425096440021,-0.0013700840247395,0.0013700840247397,-0.0013700840247395,0.0013700840247397,-0.0013700840247399,0.0013700840247393,-0.0013700840247393,0.0013700840247399,-1.6175976423259e-18,-3.8822343415822e-18,-0.0013926127275335,0.0013926127275335,-2.0587606356875e-18,-2.7646214250661e-18,-0.0014250964400209,0.0014250964400209,-0.0014250964400209,0.0014250964400209,-0.0014250964400209,0.0014250964400209,-0.0014250964400209,0.0014250964400209,-0.0013700840247396,0.0013700840247396,-0.0013700840247396,0.0013700840247396,0.44532477694223,0.31372910299747,1270536,32768,0.005785744076388,0.005785744076388,0.005785744076388,41.80423135515,41.796109633982,0.0002496338508412,0.0002496338508412,0.0002496338508412,787745.36719512,0.017508938119774
9072000,0.95888951487024,0.016663373392803,0.0055544577976008,0.0055544577976009,0.0055544577976009,-0.0013951530243179,0.0013951530243179,-1.7646519734465e-19,2.4116910303768e-18,3.1693149443098e-16,-3.187843790031e-16,-0.0014277954377685,0.0014277954377687,-0.0014277954377685,0.0014277954377687,-0.0014277954377687,0.0014277954377685,-0.0014277954377687,0.0014277954377685,-0.0013725383173043,0.0013725383173041,-0.0013725383173043,0.001372538317304,-2.9034407136439e-16,3.4319539796911e-16,2.4263964634889e-17,2.5352166685181e-17,-0.0013951530243179,0.001395153024318,-0.0014277954377687,0.0014277954377685,-0.0014277954377687,0.0014277954377685,-0.0014277954377684,0.0014277954377687,-0.0014277954377685,0.0014277954377687,-0.001372538317304,0.0013725383173043,-0.001372538317304,0.0013725383173043,-0.0013725383173045,0.0013725383173039,-0.0013725383173039,0.0013725383173045,-6.6468557666483e-18,-9.0291359308011e-18,-0.0013951530243179,0.0013951530243179,-6.7939100977689e-18,-7.1468404924582e-18,-0.0014277954377686,0.0014277954377686,-0.0014277954377686,0.0014277954377686,-0.0014277954377686,0.0014277954377686,-0.0014277954377686,0.0014277954377686,-0.0013725383173041,0.0013725383173042,-0.0013725383173042,0.0013725383173042,0.44045967503092,0.31420980998412,1270536,32768,0.0057962670095811,0.0057962670095812,0.0057962670095812,41.675066313043,41.666127999369,0.00024860053050434,0.00024860053050434,0.00024860053050434,775664.58637838,0.017541063169083
9158400,0.96172950841799,0.016694005127348,0.0055646683757826,0.0055646683757827,0.0055646683757827,-0.0013973782922461,0.0013973782922461,-2.8822648899626e-18,-1.7646519734465e-19,3.1440215993571e-16,-3.2084313963879e-16,-0.0014301899930813,0.0014301899930815,-0.0014301899930813,0.0014301899930815,-0.0014301899930815,0.0014301899930813,-0.0014301899930815,0.0014301899930813,-0.0013746536376817,0.0013746536376815,-0.0013746536376817,0.0013746536376815,-2.8787355860157e-16,3.453718020697e-16,2.5293344952733e-17,2.7440338187092e-17,-0.0013973782922461,0.0013973782922461,-0.0014301899930815,0.0014301899930813,-0.0014301899930815,0.0014301899930813,-0.0014301899930813,0.0014301899930815,-0.0014301899930813,0.0014301899930816,-0.0013746536376815,0.0013746536376818,-0.0013746536376815,0.0013746536376817,-0.0013746536376819,0.0013746536376814,-0.0013746536376813,0.001374653637682,-7.5585926195957e-18,-9.9114619175243e-18,-0.0013973782922461,0.0013973782922461,-7.2938948235787e-18,-8.6467946698877e-18,-0.0014301899930814,0.0014301899930814,-0.0014301899930814,0.0014301899930814,-0.0014301899930814,0.0014301899930814,-0.0014301899930814,0.0014301899930814,-0.0013746536376816,0.0013746536376816,-0.0013746536376816,0.0013746536376816,0.43494476560821,0.30977246867508,1270536,32768,0.0058054848183863,0.0058054848183863,0.0058054848183863,41.545164882879,41.536146364756,0.00024756131906303,0.00024756131906303,0.00024756131906303,767909.54457107,0.017569204730648
9244800,0.96436029951455,0.016722018132056,0.0055740060440187,0.0055740060440187,0.0055740060440187,-0.0013993717706172,0.0013993717706172,-3.0587300873072e-18,-5.8821732448215e-19,3.1328454701919e-16,-3.2104901570236e-16,-0.0014323460613905,0.0014323460613907,-0.0014323460613905,0.0014323460613907,-0.0014323460613907,0.0014323460613905,-0.0014323460613907,0.0014323460613905,-0.0013765386792742,0.001376538679274,-0.0013765386792742,0.001376538679274,-2.9081464522398e-16,3.4181308725658e-16,2.1558164942271e-17,2.2058149668081e-17,-0.0013993717706172,0.0013993717706173,-0.0014323460613907,0.0014323460613905,-0.0014323460613907,0.0014323460613905,-0.0014323460613904,0.0014323460613907,-0.0014323460613904,0.0014323460613907,-0.001376538679274,0.0013765386792742,-0.001376538679274,0.0013765386792742,-0.0013765386792744,0.0013765386792739,-0.0013765386792738,0.0013765386792745,-7.7350578169403e-18,-1.0117337981093e-17,-0.0013993717706172,0.0013993717706172,-8.8232598672323e-18,-8.3820968738707e-18,-0.0014323460613906,0.0014323460613906,-0.0014323460613906,0.0014323460613906,-0.0014323460613906,0.0014323460613906,-0.0014323460613906,0.0014323460613906,-0.0013765386792741,0.0013765386792741,-0.0013765386792741,0.0013765386792741,0.4293500918533,0.30533512736604,1270536,32768,0.0058137423880224,0.0058137423880225,0.0058137423880225,41.415188363967,41.406164730143,0.00024652150691173,0.00024652150691173,0.00024652150691173,761499.22308918,0.017594415427349
9331200,0.96679786840854,0.016747637819335,0.0055825459397785,0.0055825459397785,0.0055825459397785,-0.0014011698445529,0.0014011698445529,-2.6175670939456e-18,-2.9410866224108e-20,3.131669035543e-16,-3.1957847239115e-16,-0.0014342948927142,0.0014342948927144,-0.0014342948927142,0.0014342948927144,-0.0014342948927144,0.0014342948927142,-0.0014342948927144,0.0014342948927142,-0.0013782361446986,0.0013782361446984,-0.0013782361446986,0.0013782361446984,-2.8952056711012e-16,3.412248699321e-16,2.3234584317045e-17,2.4587484163354e-17,-0.0014011698445529,0.0014011698445529,-0.0014342948927144,0.0014342948927142,-0.0014342948927144,0.0014342948927142,-0.0014342948927141,0.0014342948927144,-0.0014342948927141,0.0014342948927144,-0.0013782361446983,0.0013782361446986,-0.0013782361446984,0.0013782361446986,-0.0013782361446987,0.0013782361446982,-0.0013782361446982,0.0013782361446988,-6.823320963993e-18,-9.0585467970252e-18,-0.0014011698445529,0.0014011698445529,-7.911523014285e-18,-8.4115077400948e-18,-0.0014342948927143,0.0014342948927143,-0.0014342948927143,0.0014342948927143,-0.0014342948927143,0.0014342948927143,-0.0014342948927143,0.0014342948927143,-0.0013782361446985,0.0013782361446985,-0.0013782361446985,0.0013782361446985,0.42376095990168,0.30089778605699,1270536,32768,0.0058211904674393,0.0058211904674394,0.0058211904674394,41.285204061222,41.276183095531,0.00024548163248978,0.00024548163248978,0.00024548163248978,755567.36839246,0.017617155300595
9417600,0.96905697458038,0.016771072169966,0.0055903573899886,0.0055903573899886,0.0055903573899886,-0.0014027915182047,0.0014027915182047,-2.4999236290492e-18,-2.6469779601697e-19,3.1234339930002e-16,-3.1990199191962e-16,-0.0014360556222176,0.0014360556222178,-0.0014360556222176,0.0014360556222178,-0.0014360556222178,0.0014360556222176,-0.0014360556222178,0.0014360556222176,-0.0013797651183157,0.0013797651183155,-0.0013797651183157,0.0013797651183155,-2.9028524963194e-16,3.3998961355068e-16,2.1322878012478e-17,2.2881653922356e-17,-0.0014027915182047,0.0014027915182047,-0.0014360556222178,0.0014360556222176,-0.0014360556222178,0.0014360556222176,-0.0014360556222175,0.0014360556222178,-0.0014360556222175,0.0014360556222178,-0.0013797651183155,0.0013797651183157,-0.0013797651183155,0.0013797651183157,-0.0013797651183159,0.0013797651183153,-0.0013797651183153,0.0013797651183159,-1.0264392312214e-17,-1.2176098616781e-17,-0.0014027915182047,0.0014027915182047,-9.5879423890591e-18,-1.038203577711e-17,-0.0014360556222177,0.0014360556222177,-0.0014360556222177,0.0014360556222177,-0.0014360556222177,0.0014360556222177,-0.0014360556222177,0.0014360556222177,-0.0013797651183156,0.0013797651183156,-0.0013797651183156,0.0013797651183156,0.41820466030945,0.29646044474795,1270536,32768,0.005827907795323,0.0058279077953231,0.0058279077953231,41.155218948489,41.146201460918,0.00024444175158791,0.00024444175158791,0.00024444175158791,750008.86939813,0.017637664585725
9504000,0.97115124324934,0.016792511589508,0.0055975038631692,0.0055975038631692,0.0055975038631692,-0.0014042528189935,0.0014042528189935,1.4705433112054e-19,2.4999236290492e-18,3.1493155552774e-16,-3.1728442482567e-16,-0.0014376449830372,0.0014376449830374,-0.0014376449830372,0.0014376449830374,-0.0014376449830374,0.0014376449830372,-0.0014376449830374,0.0014376449830372,-0.0013811411457502,0.00138114114575,-0.0013811411457502,0.00138114114575,-2.8769709340422e-16,3.4263659151085e-16,2.3969855972648e-17,2.5910973143439e-17,-0.0014042528189935,0.0014042528189935,-0.0014376449830374,0.0014376449830372,-0.0014376449830374,0.0014376449830372,-0.0014376449830371,0.0014376449830374,-0.0014376449830372,0.0014376449830374,-0.00138114114575,0.0013811411457502,-0.00138114114575,0.0013811411457502,-0.0013811411457504,0.0013811411457498,-0.0013811411457498,0.0013811411457505,-9.1761902619216e-18,-1.1440826961178e-17,-0.0014042528189935,0.0014042528189935,-8.9114924659046e-18,-9.8526401850761e-18,-0.0014376449830373,0.0014376449830373,-0.0014376449830373,0.0014376449830373,-0.0014376449830373,0.0014376449830373,-0.0014376449830373,0.0014376449830373,-0.0013811411457501,0.0013811411457501,-0.0013811411457501,0.0013811411457501,0.41269003238502,0.29202310343891,1270536,32768,0.0058339607760913,0.0058339607760914,0.0058339607760914,41.025233751704,41.016219826305,0.00024340187001363,0.00024340187001363,0.00024340187001363,744791.03586403,0.017656145892744
9590400,0.9730932480514,0.016812129935167,0.0056040433117223,0.0056040433117224,0.0056040433117224,-0.0014055679722829,0.0014055679722829,-5.735118913701e-18,-3.4704822144447e-18,3.0857880842334e-16,-3.2351952846518e-16,-0.0014390780240019,0.0014390780240021,-0.0014390780240019,0.0014390780240021,-0.0014390780240021,0.0014390780240019,-0.0014390780240021,0.0014390780240019,-0.0013823778702917,0.0013823778702914,-0.0013823778702917,0.0013823778702914,-2.9004996270215e-16,3.4016607874803e-16,2.1322878012478e-17,2.3146351718373e-17,-0.0014055679722829,0.0014055679722829,-0.0014390780240021,0.0014390780240019,-0.0014390780240021,0.0014390780240019,-0.0014390780240018,0.0014390780240021,-0.0014390780240018,0.0014390780240021,-0.0013823778702914,0.0013823778702917,-0.0013823778702914,0.0013823778702917,-0.0013823778702918,0.0013823778702913,-0.0013823778702913,0.0013823778702919,-6.2351036395108e-18,-8.4997403387671e-18,-0.0014055679722829,0.0014055679722829,-5.6174754488046e-18,-6.9997861613376e-18,-0.001439078024002,0.001439078024002,-0.001439078024002,0.001439078024002,-0.001439078024002,0.001439078024002,-0.001439078024002,0.001439078024002,-0.0013823778702915,0.0013823778702916,-0.0013823778702915,0.0013823778702916,0.40721916063927,0.28758576212987,1270536,32768,0.005839408346601,0.0058394083466011,0.0058394083466011,40.895248546513,40.886238191692,0.00024236198837211,0.00024236198837211,0.00024236198837211,739899.99691268,0.017672779058845
9676800,0.97488709245183,0.016830011821041,0.005610003940347,0.005610003940347,0.005610003940347,-0.0014065868135067,0.0014065868135067,1.0293803178438e-18,3.2351952846518e-18,3.1575505978202e-16,-3.1681385096609e-16,-0.0014402072409406,0.0014402072409408,-0.0014402072409406,0.0014402072409408,-0.0014402072409408,0.0014402072409406,-0.0014402072409408,0.0014402072409406,-0.001383323303269,0.0013833233032688,-0.001383323303269,0.0013833233032688,-2.9099111042132e-16,3.395190396911e-16,2.0705249821772e-17,2.2234614865425e-17,-0.0014065868135067,0.0014065868135067,-0.0014402072409408,0.0014402072409406,-0.0014402072409408,0.0014402072409406,-0.0014402072409405,0.0014402072409408,-0.0014402072409405,0.0014402072409408,-0.0013833233032688,0.001383323303269,-0.0013833233032688,0.001383323303269,-0.0013833233032692,0.0013833233032686,-0.0013833233032686,0.0013833233032693,-6.5880340342001e-18,-8.7938490010082e-18,-0.0014065868135067,0.0014065868135067,-7.1762513586823e-18,-7.7938795493885e-18,-0.0014402072409407,0.0014402072409407,-0.0014402072409407,0.0014402072409407,-0.0014402072409407,0.0014402072409407,-0.0014402072409407,0.0014402072409407,-0.0013833233032689,0.0013833233032689,-0.0013833233032689,0.0013833233032689,0.4017914532568,0.28314842082083,1270536,32768,0.0058436284685202,0.0058436284685202,0.0058436284685202,40.684056417785,40.669624716922,0.00024067245134228,0.00024067245134228,0.00024067245134228,735464.15719154,0.017685664916097
9763200,0.97653760443866,0.016846442446799,0.0056154808155995,0.0056154808155995,0.0056154808155995,-0.0014073208514468,0.0014073208514468,-4.8527929269778e-18,-2.5587453614974e-18,3.0940231267761e-16,-3.2125489176593e-16,-0.0014410376915541,0.0014410376915542,-0.0014410376915541,0.0014410376915543,-0.0014410376915543,0.0014410376915541,-0.0014410376915543,0.001441037691554,-0.0013839955974882,0.001383995597488,-0.0013839955974882,0.001383995597488,-2.9075582349153e-16,3.3822496157724e-16,2.0058210764841e-17,2.0911125885341e-17,-0.0014073208514468,0.0014073208514469,-0.0014410376915542,0.001441037691554,-0.0014410376915542,0.001441037691554,-0.001441037691554,0.0014410376915543,-0.001441037691554,0.0014410376915543,-0.001383995597488,0.0013839955974883,-0.001383995597488,0.0013839955974883,-0.0013839955974884,0.0013839955974879,-0.0013839955974878,0.0013839955974885,-6.1174601746144e-18,-8.1468099440778e-18,-0.0014073208514469,0.0014073208514468,-6.558623167976e-18,-6.3527471044073e-18,-0.0014410376915542,0.0014410376915541,-0.0014410376915542,0.0014410376915541,-0.0014410376915541,0.0014410376915541,-0.0014410376915541,0.0014410376915541,-0.0013839955974881,0.0013839955974881,-0.0013839955974881,0.0013839955974881,0.40120108397712,0.30515093879817,1270536,32768,0.0058466688546085,0.0058466688546086,0.0058466688546086,40.385412686168,40.364967028842,0.00023828330148935,0.00023828330148935,0.00023828330148935,731143.46305924,0.017694948876384
9849600,0.9780571560094,0.016861612102837,0.0056205373676123,0.0056205373676123,0.0056205373676123,-0.0014080526041721,0.0014080526041721,-9.7055858539555e-18,-7.1762513586823e-18,3.04990682744e-16,-3.2513712610751e-16,-0.001441814574356,0.0014418145743562,-0.001441814574356,0.0014418145743562,-0.0014418145743562,0.001441814574356,-0.0014418145743562,0.0014418145743559,-0.0013847090259247,0.0013847090259245,-0.0013847090259247,0.0013847090259245,-2.8863824112339e-16,3.3975432662089e-16,2.3205173450821e-17,2.5793329678542e-17,-0.0014080526041721,0.0014080526041721,-0.0014418145743561,0.0014418145743559,-0.0014418145743561,0.0014418145743559,-0.0014418145743559,0.0014418145743561,-0.0014418145743559,0.0014418145743562,-0.0013847090259245,0.0013847090259247,-0.0013847090259245,0.0013847090259247,-0.0013847090259249,0.0013847090259243,-0.0013847090259243,0.001384709025925,-3.0881409535313e-18,-5.4410102514599e-18,-0.0014080526041721,0.0014080526041721,-2.0293497694634e-18,-4.2351647362715e-18,-0.001441814574356,0.001441814574356,-0.001441814574356,0.001441814574356,-0.001441814574356,0.001441814574356,-0.001441814574356,0.001441814574356,-0.0013847090259246,0.0013847090259246,-0.0013847090259246,0.0013847090259246,0.40230914814046,0.32514777092601,1270536,32768,0.0058496998002998,0.0058496998002999,0.0058496998002999,40.08131200156,40.060309340762,0.00023585049601248,0.00023585049601248,0.00023585049601248,721861.70274653,0.017704204085703
9936000,0.97945736942281,0.016875645044385,0.0056252150147949,0.005625215014795,0.005625215014795,-0.0014087044118327,0.0014087044118327,-7.8232904156126e-18,-5.0880798567706e-18,3.0628476085786e-16,-3.2484301744527e-16,-0.0014424971553523,0.0014424971553524,-0.0014424971553523,0.0014424971553525,-0.0014424971553525,0.0014424971553522,-0.0014424971553525,0.0014424971553522,-0.0013853483606614,0.0013853483606611,-0.0013853483606614,0.0013853483606611,-2.9193225814049e-16,3.3719558125939e-16,1.8881776115877e-17,2.1381699744926e-17,-0.0014087044118327,0.0014087044118327,-0.0014424971553524,0.0014424971553522,-0.0014424971553524,0.0014424971553522,-0.0014424971553522,0.0014424971553524,-0.0014424971553522,0.0014424971553524,-0.0013853483606612,0.0013853483606614,-0.0013853483606612,0.0013853483606614,-0.0013853483606615,0.001385348360661,-0.001385348360661,0.0013853483606616,-7.2350730911305e-18,-9.823229318852e-18,-0.0014087044118327,0.0014087044118327,-6.6468557666483e-18,-8.2938642751984e-18,-0.0014424971553523,0.0014424971553523,-0.0014424971553523,0.0014424971553523,-0.0014424971553523,0.0014424971553523,-0.0014424971553523,0.0014424971553523,-0.0013853483606613,0.0013853483606613,-0.0013853483606613,0.0013853483606613,0.40383252008833,0.33996392803986,1270536,32768,0.0058523995849296,0.0058523995849297,0.0058523995849297,39.776693366423,39.755651652682,0.00023341354693139,0.00023341354693139,0.00023341354693139,712019.74607251,0.017712448182349
10022400,0.98074878353648,0.016888660651287,0.0056295535504289,0.005629553550429,0.005629553550429,-0.0014092614610221,0.0014092614610221,-6.4115688368555e-18,-3.2351952846518e-18,3.0863763015579e-16,-3.2234309381622e-16,-0.0014430814300465,0.0014430814300467,-0.0014430814300465,0.0014430814300467,-0.0014430814300467,0.0014430814300465,-0.0014430814300467,0.0014430814300465,-0.0013858915916656,0.0013858915916654,-0.0013858915916657,0.0013858915916654,-2.8399132425998e-16,3.4531298033725e-16,2.7822679448006e-17,2.9881440083693e-17,-0.0014092614610221,0.0014092614610222,-0.0014430814300466,0.0014430814300465,-0.0014430814300467,0.0014430814300465,-0.0014430814300464,0.0014430814300467,-0.0014430814300464,0.0014430814300467,-0.0013858915916654,0.0013858915916657,-0.0013858915916654,0.0013858915916657,-0.0013858915916659,0.0013858915916653,-0.0013858915916653,0.0013858915916659,-3.9116452078063e-18,-6.7939100977689e-18,-0.0014092614610221,0.0014092614610221,-3.7940017429099e-18,-4.911614659426e-18,-0.0014430814300466,0.0014430814300466,-0.0014430814300466,0.0014430814300466,-0.0014430814300466,0.0014430814300466,-0.0014430814300466,0.0014430814300466,-0.0013858915916656,0.0013858915916656,-0.0013858915916656,0.0013858915916656,0.40605930420857,0.35478008515371,1270536,32768,0.005854706855892,0.0058547068558921,0.0058547068558921,39.472022132433,39.450993964602,0.00023097617705947,0.00023097617705947,0.00023097617705947,702768.18903261,0.017719493780992
10108800,0.98194092898452,0.016900762229663,0.0056335874098877,0.0056335874098878,0.0056335874098878,-0.0014097446893958,0.0014097446893958,-1.2940781138607e-18,1.911706304567e-18,3.1328454701919e-16,-3.1578447064824e-16,-0.0014435853822356,0.0014435853822358,-0.0014435853822356,0.0014435853822358,-0.0014435853822358,0.0014435853822356,-0.0014435853822358,0.0014435853822356,-0.0013863645067384,0.0013863645067382,-0.0013863645067384,0.0013863645067382,-2.802267333833e-16,3.4713645404314e-16,3.0793176936641e-17,3.2322541980294e-17,-0.0014097446893957,0.0014097446893958,-0.0014435853822357,0.0014435853822356,-0.0014435853822357,0.0014435853822356,-0.0014435853822355,0.0014435853822358,-0.0014435853822355,0.0014435853822358,-0.0013863645067381,0.0013863645067384,-0.0013863645067382,0.0013863645067384,-0.0013863645067386,0.001386364506738,-0.001386364506738,0.0013863645067387,-6.7056774990965e-18,-9.8820510513002e-18,-0.0014097446893958,0.0014097446893958,-7.5291817533716e-18,-8.3526860076466e-18,-0.0014435853822357,0.0014435853822357,-0.0014435853822357,0.0014435853822356,-0.0014435853822357,0.0014435853822356,-0.0014435853822357,0.0014435853822356,-0.0013863645067383,0.0013863645067383,-0.0013863645067383,0.0013863645067383,0.40893100784246,0.36959624226756,1270536,32768,0.005856708350496,0.0058567083504961,0.0058567083504961,39.167345475267,39.146336276522,0.00022853876380213,0.00022853876380213,0.00022853876380213,693573.323424,0.017725605714146
10195200,0.98304242736523,0.016912039498776,0.005637346499592,0.005637346499592,0.005637346499592,-0.0014101611389576,0.0014101611389576,-1.0646733573127e-17,-7.3233056898028e-18,3.0440246541951e-16,-3.264606150876e-16,-0.0014440168932406,0.0014440168932408,-0.0014440168932406,0.0014440168932408,-0.0014440168932408,0.0014440168932406,-0.0014440168932408,0.0014440168932406,-0.0013867739413167,0.0013867739413165,-0.0013867739413167,0.0013867739413165,-2.9393219704373e-16,3.3484271196147e-16,1.7323000205999e-17,1.797003926293e-17,-0.0014101611389576,0.0014101611389576,-0.0014440168932408,0.0014440168932406,-0.0014440168932408,0.0014440168932406,-0.0014440168932405,0.0014440168932408,-0.0014440168932405,0.0014440168932408,-0.0013867739413165,0.0013867739413167,-0.0013867739413165,0.0013867739413167,-0.0013867739413169,0.0013867739413164,-0.0013867739413163,0.001386773941317,-7.4997708871475e-18,-1.0499679242006e-17,-0.0014101611389576,0.0014101611389576,-7.9997556129573e-18,-7.5291817533716e-18,-0.0014440168932407,0.0014440168932406,-0.0014440168932407,0.0014440168932407,-0.0014440168932407,0.0014440168932407,-0.0014440168932407,0.0014440168932406,-0.0013867739413166,0.0013867739413166,-0.0013867739413166,0.0013867739413166,0.41238653499626,0.38441239938141,1270536,32768,0.0058584332395141,0.0058584332395142,0.0058584332395142,38.862668260928,38.841678588442,0.00022610134608742,0.00022610134608742,0.00022610134608742,684444.85174695,0.01773087304218
10281600,0.98406108293331,0.016922570681601,0.005640856893867,0.0056408568938671,0.0056408568938671,-0.0014105165938858,0.0014105165938858,-4.1175212713751e-18,-8.8232598672323e-19,3.1181400370799e-16,-3.2043138751165e-16,-0.0014443826341579,0.0014443826341581,-0.0014443826341579,0.0014443826341581,-0.0014443826341581,0.0014443826341579,-0.0014443826341581,0.0014443826341579,-0.0013871252516594,0.0013871252516591,-0.0013871252516594,0.0013871252516591,-2.8722651954464e-16,3.4319539796911e-16,2.4411018966009e-17,2.4234553768665e-17,-0.0014105165938858,0.0014105165938859,-0.0014443826341581,0.0014443826341579,-0.0014443826341581,0.0014443826341579,-0.0014443826341578,0.0014443826341581,-0.0014443826341578,0.0014443826341581,-0.0013871252516591,0.0013871252516594,-0.0013871252516592,0.0013871252516594,-0.0013871252516596,0.001387125251659,-0.001387125251659,0.0013871252516596,-3.6763582780135e-18,-6.8821426964412e-18,-0.0014105165938858,0.0014105165938858,-5.9115841110456e-18,-4.5586842647367e-18,-0.001444382634158,0.001444382634158,-0.001444382634158,0.001444382634158,-0.001444382634158,0.001444382634158,-0.001444382634158,0.001444382634158,-0.0013871252516593,0.0013871252516593,-0.0013871252516593,0.0013871252516593,0.41637243071766,0.39922855649526,1270536,32768,0.0058599054828576,0.0058599054828577,0.0058599054828577,38.557990993387,38.537020900362,0.00022366392794709,0.00022366392794709,0.00022366392794709,675407.26161149,0.017735368917957
10368000,0.98500396500126,0.016932424324138,0.0056441414413793,0.0056441414413794,0.0056441414413794,-0.0014108161076932,0.0014108161076932,-6.4409797030796e-18,-3.0587300873072e-18,3.0869645188823e-16,-3.2269602421091e-16,-0.0014446884430734,0.0014446884430735,-0.0014446884430734,0.0014446884430735,-0.0014446884430736,0.0014446884430733,-0.0014446884430736,0.0014446884430733,-0.0013874230599747,0.0013874230599745,-0.0013874230599747,0.0013874230599745,-2.9299104932456e-16,3.3640148787134e-16,1.9058241313222e-17,1.9028830446998e-17,-0.0014108161076932,0.0014108161076932,-0.0014446884430735,0.0014446884430734,-0.0014446884430736,0.0014446884430733,-0.0014446884430733,0.0014446884430736,-0.0014446884430733,0.0014446884430736,-0.0013874230599745,0.0013874230599747,-0.0013874230599745,0.0013874230599747,-0.0013874230599749,0.0013874230599743,-0.0013874230599743,0.001387423059975,-7.4703600209233e-18,-1.0499679242006e-17,-0.0014108161076932,0.0014108161076932,-9.4408880579386e-18,-8.5291512049912e-18,-0.0014446884430735,0.0014446884430734,-0.0014446884430735,0.0014446884430734,-0.0014446884430735,0.0014446884430734,-0.0014446884430735,0.0014446884430734,-0.0013874230599746,0.0013874230599746,-0.0013874230599746,0.0013874230599746,0.42084321751189,0.41404471360911,1270536,32768,0.0058611460134491,0.0058611460134491,0.0058611460134491,38.253313724866,38.232363212283,0.00022122650979893,0.00022122650979893,0.00022122650979893,666482.19175632,0.017739157254439
10454400,0.98588376980893,0.016941727062415,0.0056472423541381,0.0056472423541382,0.0056472423541382,-0.0014113329065176,0.0014113329065176,-7.7350578169403e-18,-4.6175059971849e-18,3.0787294763396e-16,-3.2346070673274e-16,-0.0014452046524055,0.0014452046524057,-0.0014452046524055,0.0014452046524057,-0.0014452046524057,0.0014452046524055,-0.0014452046524057,0.0014452046524055,-0.0013879426478299,0.0013879426478297,-0.00138794264783,0.0013879426478297,-2.8993231923725e-16,3.39636683156e-16,2.2440490928994e-17,2.2175793132977e-17,-0.0014113329065176,0.0014113329065177,-0.0014452046524057,0.0014452046524055,-0.0014452046524057,0.0014452046524055,-0.0014452046524054,0.0014452046524057,-0.0014452046524054,0.0014452046524057,-0.0013879426478297,0.00138794264783,-0.0013879426478297,0.0013879426478299,-0.0013879426478301,0.0013879426478296,-0.0013879426478295,0.0013879426478302,-2.2940475654804e-18,-5.3821885190117e-18,-0.0014113329065177,0.0014113329065176,-3.9410560740304e-18,-2.735210558842e-18,-0.0014452046524056,0.0014452046524056,-0.0014452046524056,0.0014452046524056,-0.0014452046524056,0.0014452046524056,-0.0014452046524056,0.0014452046524056,-0.0013879426478298,0.0013879426478298,-0.0013879426478298,0.0013879426478298,0.42576013988272,0.42886087072296,1270536,32768,0.0058632866304358,0.0058632866304359,0.0058632866304359,38.084938764886,38.073038917348,0.00021987951011909,0.00021987951011909,0.00021987951011909,657487.48277983,0.017745693635145
10540800,0.98671096801776,0.016950377181739,0.0056501257272463,0.0056501257272463,0.0056501257272463,-0.0014120562696142,0.0014120562696142,-5.5880645825805e-18,-2.6175670939456e-18,3.0934349094516e-16,-3.2234309381622e-16,-0.0014459296497112,0.0014459296497114,-0.0014459296497113,0.0014459296497115,-0.0014459296497115,0.0014459296497112,-0.0014459296497115,0.0014459296497112,-0.0013886647513755,0.0013886647513752,-0.0013886647513755,0.0013886647513752,-2.8640301529036e-16,3.4351891749758e-16,2.5969794875887e-17,2.5469810150077e-17,-0.0014120562696142,0.0014120562696142,-0.0014459296497114,0.0014459296497112,-0.0014459296497114,0.0014459296497112,-0.0014459296497112,0.0014459296497114,-0.0014459296497112,0.0014459296497115,-0.0013886647513752,0.0013886647513755,-0.0013886647513753,0.0013886647513755,-0.0013886647513757,0.0013886647513751,-0.0013886647513751,0.0013886647513757,-3.7351800104617e-18,-6.9409644288894e-18,-0.0014120562696142,0.0014120562696142,-5.5880645825805e-18,-4.1763430038233e-18,-0.0014459296497113,0.0014459296497113,-0.0014459296497113,0.0014459296497113,-0.0014459296497113,0.0014459296497113,-0.0014459296497113,0.0014459296497113,-0.0013886647513754,0.0013886647513754,-0.0013886647513754,0.0013886647513754,0.42103184666373,0.38822628619046,1270536,32768,0.0058662828865745,0.0058662828865746,0.0058662828865746,38.051789853875,38.049168904199,0.000219614318831,0.000219614318831,0.000219614318831,648803.2163466,0.01775484257028
10627200,0.98748908239729,0.016958458939714,0.0056528196465712,0.0056528196465713,0.0056528196465713,-0.0014125506473799,0.0014125506473799,-5.1174907229947e-18,-1.9411171707911e-18,3.1028463866434e-16,-3.2151958956195e-16,-0.0014464949957229,0.0014464949957231,-0.0014464949957229,0.0014464949957231,-0.0014464949957231,0.0014464949957229,-0.0014464949957232,0.0014464949957229,-0.0013890962587005,0.0013890962587003,-0.0013890962587006,0.0013890962587003,-2.8657948048771e-16,3.4334245230023e-16,2.6146260073232e-17,2.5587453614974e-17,-0.0014125506473798,0.0014125506473799,-0.0014464949957231,0.0014464949957229,-0.0014464949957231,0.0014464949957229,-0.0014464949957228,0.0014464949957231,-0.0014464949957229,0.0014464949957231,-0.0013890962587003,0.0013890962587006,-0.0013890962587003,0.0013890962587006,-0.0013890962587007,0.0013890962587002,-0.0013890962587001,0.0013890962587008,-4.7939711945296e-18,-7.7056469507162e-18,-0.0014125506473799,0.0014125506473799,-6.4703905693037e-18,-4.9410255256501e-18,-0.001446494995723,0.001446494995723,-0.001446494995723,0.001446494995723,-0.001446494995723,0.001446494995723,-0.001446494995723,0.001446494995723,-0.0013890962587004,0.0013890962587004,-0.0013890962587004,0.0013890962587005,0.418138688676,0.37898076647405,1270536,32768,0.0058683306245106,0.0058683306245107,0.0058683306245107,38.027038393602,38.02529889105,0.00021941630714882,0.00021941630714882,0.00021941630714882,648801.09190736,0.017761095100925
10713600,0.98822106907264,0.016965984717399,0.0056553282391329,0.005655328239133,0.005655328239133,-0.0014130715882459,0.0014130715882459,-5.2057233216671e-18,-1.9705280370152e-18,3.1022581693189e-16,-3.2143135696327e-16,-0.0014470620999761,0.0014470620999763,-0.0014470620999761,0.0014470620999763,-0.0014470620999763,0.0014470620999761,-0.0014470620999764,0.0014470620999761,-0.0013895854526908,0.0013895854526906,-0.0013895854526908,0.0013895854526906,-2.8769709340422e-16,3.4234248284861e-16,2.4969825424267e-17,2.4469840698458e-17,-0.0014130715882459,0.001413071588246,-0.0014470620999763,0.0014470620999761,-0.0014470620999763,0.0014470620999761,-0.0014470620999761,0.0014470620999763,-0.0014470620999761,0.0014470620999764,-0.0013895854526906,0.0013895854526908,-0.0013895854526906,0.0013895854526908,-0.001389585452691,0.0013895854526905,-0.0013895854526904,0.0013895854526911,-4.1175212713751e-18,-7.1468404924582e-18,-0.001413071588246,0.0014130715882459,-5.7939406461492e-18,-4.0292886727028e-18,-0.0014470620999762,0.0014470620999762,-0.0014470620999762,0.0014470620999762,-0.0014470620999762,0.0014470620999762,-0.0014470620999762,0.0014470620999762,-0.0013895854526907,0.0013895854526907,-0.0013895854526907,0.0013895854526907,0.41390982573135,0.36416572583627,1270536,32768,0.0058704884292239,0.005870488429224,0.005870488429224,38.003079114303,38.001428877901,0.00021922463291442,0.00021922463291442,0.00021922463291442,646359.44435088,0.017767683820632
10800000,0.98890967863394,0.016972978502813,0.0056576595009376,0.0056576595009377,0.0056576595009377,-0.0014135314414272,0.0014135314414272,-5.7645297799251e-18,-2.6763888263938e-18,3.0981406480475e-16,-3.2263720247846e-16,-0.0014475713112816,0.0014475713112818,-0.0014475713112816,0.0014475713112818,-0.0014475713112818,0.0014475713112816,-0.0014475713112818,0.0014475713112816,-0.0013900109041458,0.0013900109041456,-0.0013900109041458,0.0013900109041456,-2.8763827167177e-16,3.4296011103932e-16,2.5763918812318e-17,2.4763949360699e-17,-0.0014135314414271,0.0014135314414272,-0.0014475713112817,0.0014475713112816,-0.0014475713112817,0.0014475713112816,-0.0014475713112815,0.0014475713112818,-0.0014475713112815,0.0014475713112818,-0.0013900109041456,0.0013900109041458,-0.0013900109041456,0.0013900109041458,-0.001390010904146,0.0013900109041455,-0.0013900109041454,0.0013900109041461,-4.8527929269778e-18,-7.911523014285e-18,-0.0014135314414272,0.0014135314414272,-6.823320963993e-18,-4.7645603283054e-18,-0.0014475713112817,0.0014475713112816,-0.0014475713112817,0.0014475713112817,-0.0014475713112817,0.0014475713112816,-0.0014475713112817,0.0014475713112816,-0.0013900109041457,0.0013900109041457,-0.0013900109041457,0.0013900109041457,0.40887072067372,0.34935068519849,1270536,32768,0.0058723931984526,0.0058723931984527,0.0058723931984527,37.97919982476,37.977558864752,0.00021903359859808,0.00021903359859808,0.00021903359859808,645006.02619403,0.017773499924498
10886400,0.9895574962946,0.016979466143168,0.0056598220477225,0.0056598220477226,0.0056598220477226,-0.0014139453989049,0.0014139453989049,-5.6762971812528e-18,-2.4999236290492e-18,3.1034346039678e-16,-3.2278425680958e-16,-0.0014480337367199,0.00144803373672,-0.0014480337367199,0.0014480337367201,-0.0014480337367201,0.0014480337367199,-0.0014480337367201,0.0014480337367198,-0.0013903919469013,0.0013903919469011,-0.0013903919469014,0.0013903919469011,-2.8981467577236e-16,3.4137192426322e-16,2.3852212507751e-17,2.2999297387252e-17,-0.0014139453989049,0.0014139453989049,-0.00144803373672,0.0014480337367198,-0.00144803373672,0.0014480337367198,-0.0014480337367198,0.00144803373672,-0.0014480337367198,0.0014480337367201,-0.0013903919469011,0.0013903919469014,-0.0013903919469011,0.0013903919469014,-0.0013903919469015,0.001390391946901,-0.0013903919469009,0.0013903919469016,-3.9410560740304e-18,-6.7644992315448e-18,-0.0014139453989049,0.0014139453989049,-5.7645297799251e-18,-4.0586995389269e-18,-0.00144803373672,0.0014480337367199,-0.00144803373672,0.0014480337367199,-0.0014480337367199,0.0014480337367199,-0.0014480337367199,0.0014480337367199,-0.0013903919469012,0.0013903919469012,-0.0013903919469012,0.0013903919469012,0.40315943386567,0.33453564456071,1270536,32768,0.0058741078645532,0.0058741078645532,0.0058741078645532,37.955328747153,37.953688851603,0.00021884262997722,0.00021884262997722,0.00021884262997722,644217.27566256,0.017778735576917
10972800,0.99016695408135,0.016985474456635,0.0056618248188782,0.0056618248188782,0.0056618248188782,-0.0014143172896343,0.0014143172896343,-5.4410102514599e-18,-2.4116910303768e-18,3.1069639079147e-16,-3.2284307854203e-16,-0.0014484527009701,0.0014484527009703,-0.0014484527009701,0.0014484527009703,-0.0014484527009703,0.0014484527009701,-0.0014484527009704,0.0014484527009701,-0.0013907323824506,0.0013907323824504,-0.0013907323824506,0.0013907323824504,-2.8934410191277e-16,3.4222483938372e-16,2.4675716762026e-17,2.3822801641527e-17,-0.0014143172896343,0.0014143172896344,-0.0014484527009703,0.0014484527009701,-0.0014484527009703,0.0014484527009701,-0.0014484527009701,0.0014484527009703,-0.0014484527009701,0.0014484527009704,-0.0013907323824504,0.0013907323824506,-0.0013907323824504,0.0013907323824506,-0.0013907323824508,0.0013907323824502,-0.0013907323824502,0.0013907323824509,-3.9116452078063e-18,-6.9703752951135e-18,-0.0014143172896343,0.0014143172896343,-5.6468863150287e-18,-3.8528234753581e-18,-0.0014484527009702,0.0014484527009702,-0.0014484527009702,0.0014484527009702,-0.0014484527009702,0.0014484527009702,-0.0014484527009702,0.0014484527009702,-0.0013907323824505,0.0013907323824505,-0.0013907323824505,0.0013907323824505,0.39687334320837,0.31972060392292,1270536,32768,0.0058756482865311,0.0058756482865311,0.0058756482865311,37.931458516371,37.929818838454,0.00021865166813096,0.00021865166813096,0.00021865166813096,643919.25577711,0.017783439198987
11059200,0.99074033984714,0.01699103043577,0.0056636768119231,0.0056636768119232,0.0056636768119232,-0.0014146502789801,0.0014146502789801,-3.3528387495483e-18,-2.6469779601697e-19,3.1281397315961e-16,-3.2078431790634e-16,-0.0014488311634778,0.001448831163478,-0.0014488311634778,0.001448831163478,-0.001448831163478,0.0014488311634778,-0.001448831163478,0.0014488311634778,-0.001391035265919,0.0013910352659188,-0.001391035265919,0.0013910352659188,-2.8787355860157e-16,3.4378361529359e-16,2.5999205742111e-17,2.5087468889164e-17,-0.0014146502789801,0.0014146502789801,-0.001448831163478,0.0014488311634778,-0.001448831163478,0.0014488311634778,-0.0014488311634777,0.001448831163478,-0.0014488311634778,0.001448831163478,-0.0013910352659187,0.001391035265919,-0.0013910352659188,0.001391035265919,-0.0013910352659192,0.0013910352659186,-0.0013910352659186,0.0013910352659192,-3.7351800104617e-18,-6.7056774990965e-18,-0.0014146502789801,0.0014146502789801,-5.5880645825805e-18,-3.5881256793411e-18,-0.0014488311634779,0.0014488311634779,-0.0014488311634779,0.0014488311634779,-0.0014488311634779,0.0014488311634779,-0.0014488311634779,0.0014488311634779,-0.0013910352659189,0.0013910352659189,-0.0013910352659189,0.0013910352659189,0.39008597762369,0.30490556328514,1270536,32768,0.0058770275751434,0.0058770275751435,0.0058770275751435,37.907588373022,37.905948825305,0.00021846070698417,0.00021846070698417,0.00021846070698417,644064.1780256,0.017787650819774
11145600,0.99127980558451,0.0169961702483,0.0056653900827667,0.0056653900827667,0.0056653900827667,-0.0014149479373504,0.0014149479373504,-5.4410102514599e-18,-2.3528692979286e-18,3.1081403425637e-16,-3.230489546056e-16,-0.0014491723906108,0.001449172390611,-0.0014491723906108,0.001449172390611,-0.001449172390611,0.0014491723906108,-0.001449172390611,0.0014491723906108,-0.0013913043292528,0.0013913043292526,-0.0013913043292528,0.0013913043292526,-2.8775591513667e-16,3.4401890222339e-16,2.6322725270576e-17,2.5146290621612e-17,-0.0014149479373503,0.0014149479373504,-0.001449172390611,0.0014491723906108,-0.001449172390611,0.0014491723906108,-0.0014491723906107,0.001449172390611,-0.0014491723906107,0.001449172390611,-0.0013913043292525,0.0013913043292528,-0.0013913043292526,0.0013913043292528,-0.001391304329253,0.0013913043292524,-0.0013913043292524,0.001391304329253,-3.4998930806688e-18,-6.4998014355278e-18,-0.0014149479373504,0.0014149479373504,-5.5586537163563e-18,-3.4998930806688e-18,-0.0014491723906109,0.0014491723906109,-0.0014491723906109,0.0014491723906109,-0.0014491723906109,0.0014491723906109,-0.0014491723906109,0.0014491723906109,-0.0013913043292527,0.0013913043292527,-0.0013913043292527,0.0013913043292527,0.38356279567438,0.29399228489918,1270536,32768,0.0058782605201807,0.0058782605201807,0.0058782605201807,37.883718238705,37.882078812156,0.00021826974590964,0.00021826974590964,0.00021826974590964,644606.4098222,0.017791415590601
11232000,0.99178647158367,0.017001025027697,0.0056670083425656,0.0056670083425657,0.0056670083425657,-0.0014151714045168,0.0014151714045168,-4.1175212713751e-18,-7.646825218268e-19,3.1275515142716e-16,-3.214607678295e-16,-0.0014494305246364,0.0014494305246366,-0.0014494305246364,0.0014494305246366,-0.0014494305246366,0.0014494305246364,-0.0014494305246367,0.0014494305246364,-0.0013915077159347,0.0013915077159345,-0.0013915077159347,0.0013915077159345,-2.9004996270215e-16,3.4228366111617e-16,2.4293375501113e-17,2.3116940852149e-17,-0.0014151714045168,0.0014151714045168,-0.0014494305246366,0.0014494305246364,-0.0014494305246366,0.0014494305246364,-0.0014494305246364,0.0014494305246366,-0.0014494305246364,0.0014494305246367,-0.0013915077159345,0.0013915077159347,-0.0013915077159345,0.0013915077159347,-0.0013915077159349,0.0013915077159343,-0.0013915077159343,0.001391507715935,-5.5586537163563e-18,-8.5585620712153e-18,-0.0014151714045168,0.0014151714045168,-7.6174143520439e-18,-5.7645297799251e-18,-0.0014494305246365,0.0014494305246365,-0.0014494305246365,0.0014494305246365,-0.0014494305246365,0.0014494305246365,-0.0014494305246365,0.0014494305246365,-0.0013915077159346,0.0013915077159346,-0.0013915077159346,0.0013915077159346,0.3857443658603,0.33161180199135,1270536,32768,0.0058791861585712,0.0058791861585713,0.0058791861585713,37.825999504446,37.822117327325,0.00021780799603557,0.00021780799603557,0.00021780799603557,644797.16338146,0.017794242024421
11318400,0.99226162533495,0.017005596084324,0.005668532028108,0.0056685320281081,0.0056685320281081,-0.0014155036216868,0.0014155036216868,-4.646916863409e-18,-1.3234889800848e-18,3.1222575583513e-16,-3.2201957428775e-16,-0.0014497301771202,0.0014497301771204,-0.0014497301771202,0.0014497301771204,-0.0014497301771204,0.0014497301771202,-0.0014497301771204,0.0014497301771202,-0.0013918784913256,0.0013918784913254,-0.0013918784913256,0.0013918784913254,-2.9346162318415e-16,3.3904846583151e-16,2.0440552025755e-17,2.0381730293307e-17,-0.0014155036216868,0.0014155036216868,-0.0014497301771203,0.0014497301771202,-0.0014497301771204,0.0014497301771202,-0.0014497301771201,0.0014497301771204,-0.0014497301771201,0.0014497301771204,-0.0013918784913254,0.0013918784913256,-0.0013918784913254,0.0013918784913256,-0.0013918784913258,0.0013918784913252,-0.0013918784913252,0.0013918784913258,-5.0880798567706e-18,-8.205631676526e-18,-0.0014155036216868,0.0014155036216868,-6.6468557666483e-18,-5.5880645825805e-18,-0.0014497301771203,0.0014497301771202,-0.0014497301771203,0.0014497301771202,-0.0014497301771203,0.0014497301771202,-0.0014497301771203,0.0014497301771202,-0.0013918784913255,0.0013918784913255,-0.0013918784913255,0.0013918784913255,0.38728441747968,0.34600422993901,1270536,32768,0.005880562250151,0.0058805622501511,0.0058805622501511,37.73732428149,37.731315367919,0.00021709859425192,0.00021709859425192,0.00021709859425192,637258.53302075,0.017798444256762
11404800,0.99270729053192,0.017009900821896,0.005669966940632,0.005669966940632,0.005669966940632,-0.0014157584424949,0.0014157584424949,-5.5292428501322e-18,-2.4116910303768e-18,3.1151989504575e-16,-3.2337247413406e-16,-0.0014499684904183,0.0014499684904185,-0.0014499684904183,0.0014499684904185,-0.0014499684904185,0.0014499684904183,-0.0014499684904185,0.0014499684904183,-0.0013921479033828,0.0013921479033826,-0.0013921479033829,0.0013921479033826,-2.9063818002663e-16,3.4222483938372e-16,2.3793390775303e-17,2.3234584317045e-17,-0.0014157584424949,0.0014157584424949,-0.0014499684904185,0.0014499684904183,-0.0014499684904185,0.0014499684904183,-0.0014499684904182,0.0014499684904185,-0.0014499684904183,0.0014499684904185,-0.0013921479033826,0.0013921479033828,-0.0013921479033826,0.0013921479033829,-0.001392147903383,0.0013921479033825,-0.0013921479033824,0.0013921479033831,-4.382219067392e-18,-7.5880034858198e-18,-0.0014157584424949,0.0014157584424949,-6.2351036395108e-18,-4.9704363918742e-18,-0.0014499684904184,0.0014499684904184,-0.0014499684904184,0.0014499684904184,-0.0014499684904184,0.0014499684904184,-0.0014499684904184,0.0014499684904184,-0.0013921479033827,0.0013921479033827,-0.0013921479033827,0.0013921479033827,0.38881650482658,0.35610410304841,1270536,32768,0.0058816177149948,0.0058816177149948,0.0058816177149948,37.646722691764,37.640513408512,0.00021637378153411,0.00021637378153411,0.00021637378153411,631690.38618815,0.017801667413597
11491200,0.99312539878371,0.017013959588664,0.005671319862888,0.005671319862888,0.005671319862888,-0.0014159771384228,0.0014159771384228,-6.823320963993e-18,-3.4998930806688e-18,3.1046110386168e-16,-3.2496066091017e-16,-0.0014501766868123,0.0014501766868125,-0.0014501766868123,0.0014501766868125,-0.0014501766868125,0.0014501766868123,-0.0014501766868125,0.0014501766868123,-0.0013923739393004,0.0013923739393001,-0.0013923739393004,0.0013923739393001,-2.8805002379891e-16,3.4546003466837e-16,2.6410957869249e-17,2.6410957869249e-17,-0.0014159771384228,0.0014159771384228,-0.0014501766868125,0.0014501766868123,-0.0014501766868125,0.0014501766868123,-0.0014501766868122,0.0014501766868125,-0.0014501766868123,0.0014501766868125,-0.0013923739393001,0.0013923739393004,-0.0013923739393002,0.0013923739393004,-0.0013923739393005,0.0013923739393,-0.0013923739393,0.0013923739393006,-5.4115993852358e-18,-8.5585620712153e-18,-0.0014159771384228,0.0014159771384228,-6.5292123017519e-18,-5.4998319839081e-18,-0.0014501766868124,0.0014501766868124,-0.0014501766868124,0.0014501766868124,-0.0014501766868124,0.0014501766868124,-0.0014501766868124,0.0014501766868124,-0.0013923739393002,0.0013923739393002,-0.0013923739393002,0.0013923739393003,0.39073372237707,0.3662039761578,1270536,32768,0.0058825235365915,0.0058825235365916,0.0058825235365916,37.555939419892,37.549711449105,0.00021564751535913,0.00021564751535913,0.00021564751535913,626734.64966694,0.017804433617019
11577600,0.99351775338715,0.017017791140674,0.0056725970468911,0.0056725970468912,0.0056725970468912,-0.0014161751134418,0.0014161751134418,-5.0586689905465e-18,-1.8234737058947e-18,3.1222575583513e-16,-3.2369599366253e-16,-0.0014503653832122,0.0014503653832124,-0.0014503653832122,0.0014503653832124,-0.0014503653832124,0.0014503653832122,-0.0014503653832124,0.0014503653832122,-0.0013925779558356,0.0013925779558354,-0.0013925779558356,0.0013925779558354,-2.9110875388622e-16,3.4275423497575e-16,2.3528692979286e-17,2.3587514711734e-17,-0.0014161751134418,0.0014161751134418,-0.0014503653832123,0.0014503653832122,-0.0014503653832124,0.0014503653832122,-0.0014503653832121,0.0014503653832124,-0.0014503653832121,0.0014503653832124,-0.0013925779558353,0.0013925779558356,-0.0013925779558354,0.0013925779558356,-0.0013925779558358,0.0013925779558352,-0.0013925779558352,0.0013925779558358,-4.4410407998403e-18,-7.5291817533716e-18,-0.0014161751134418,0.0014161751134418,-5.6468863150287e-18,-4.9410255256501e-18,-0.0014503653832123,0.0014503653832123,-0.0014503653832123,0.0014503653832123,-0.0014503653832123,0.0014503653832122,-0.0014503653832123,0.0014503653832122,-0.0013925779558355,0.0013925779558355,-0.0013925779558355,0.0013925779558355,0.39304577768134,0.37630384926719,1270536,32768,0.0058833435268385,0.0058833435268386,0.0058833435268386,37.465137818177,37.458909489699,0.00021492110254541,0.00021492110254541,0.00021492110254541,621852.67571423,0.017806937730995
11664000,0.99388603463932,0.017021412398196,0.0056738041327321,0.0056738041327322,0.0056738041327322,-0.0014163549443211,0.0014163549443211,-5.2939559203394e-18,-2.0587606356875e-18,3.1234339930002e-16,-3.2287248940825e-16,-0.0014505365220586,0.0014505365220588,-0.0014505365220586,0.0014505365220588,-0.0014505365220589,0.0014505365220586,-0.0014505365220589,0.0014505365220586,-0.0013927632983036,0.0013927632983034,-0.0013927632983037,0.0013927632983034,-2.899911409697e-16,3.4360715009625e-16,2.4234553768665e-17,2.4469840698458e-17,-0.0014163549443211,0.0014163549443212,-0.0014505365220588,0.0014505365220586,-0.0014505365220588,0.0014505365220586,-0.0014505365220586,0.0014505365220588,-0.0014505365220586,0.0014505365220589,-0.0013927632983034,0.0013927632983036,-0.0013927632983034,0.0013927632983037,-0.0013927632983038,0.0013927632983033,-0.0013927632983032,0.0013927632983039,-4.1469321375992e-18,-7.3527165560269e-18,-0.0014163549443212,0.0014163549443211,-4.8822037932019e-18,-4.2351647362715e-18,-0.0014505365220587,0.0014505365220587,-0.0014505365220587,0.0014505365220587,-0.0014505365220587,0.0014505365220587,-0.0014505365220587,0.0014505365220587,-0.0013927632983035,0.0013927632983035,-0.0013927632983035,0.0013927632983035,0.39572992222903,0.38640372237658,1270536,32768,0.0058840883600299,0.00588408836003,0.00588408836003,37.3743343369,37.368107530292,0.0002141946746952,0.0002141946746952,0.0002141946746952,616993.48576847,0.017809212349411
11750400,0.99423180816137,0.017024838575717,0.0056749461919055,0.0056749461919056,0.0056749461919056,-0.0014165180340286,0.0014165180340286,-3.3528387495483e-18,0,3.1363747741388e-16,-3.2169605475929e-16,-0.0014506913282488,0.001450691328249,-0.0014506913282488,0.001450691328249,-0.001450691328249,0.0014506913282488,-0.001450691328249,0.0014506913282488,-0.0013929316071055,0.0013929316071053,-0.0013929316071056,0.0013929316071053,-2.9246165373253e-16,3.4104840473475e-16,2.176404100584e-17,2.2116971400529e-17,-0.0014165180340286,0.0014165180340286,-0.001450691328249,0.0014506913282488,-0.001450691328249,0.0014506913282488,-0.0014506913282487,0.001450691328249,-0.0014506913282487,0.001450691328249,-0.0013929316071053,0.0013929316071056,-0.0013929316071053,0.0013929316071056,-0.0013929316071057,0.0013929316071052,-0.0013929316071052,0.0013929316071058,-4.9998472580983e-18,-8.4115077400948e-18,-0.0014165180340286,0.0014165180340286,-6.2056927732867e-18,-5.5880645825805e-18,-0.0014506913282489,0.0014506913282489,-0.0014506913282489,0.0014506913282489,-0.0014506913282489,0.0014506913282489,-0.0014506913282489,0.0014506913282489,-0.0013929316071054,0.0013929316071054,-0.0013929316071054,0.0013929316071055,0.39875791962526,0.39650359548597,1270536,32768,0.0058847638481466,0.0058847638481466,0.0058847638481466,37.283530662178,37.277305570885,0.00021346824529743,0.00021346824529743,0.00021346824529743,612148.73269466,0.01781127521792
11836800,0.9945565329491,0.017028094801412,0.0056760316004706,0.0056760316004707,0.0056760316004707,-0.0014166663424544,0.0014166663424544,-4.0292886727028e-18,-8.5291512049912e-19,3.1340219048409e-16,-3.2243132641489e-16,-0.0014508314288657,0.0014508314288658,-0.0014508314288657,0.0014508314288659,-0.0014508314288659,0.0014508314288657,-0.0014508314288659,0.0014508314288656,-0.0013930852506926,0.0013930852506924,-0.0013930852506926,0.0013930852506924,-2.8834413246115e-16,3.4557767813327e-16,2.5734507946094e-17,2.6116849207008e-17,-0.0014166663424544,0.0014166663424545,-0.0014508314288658,0.0014508314288656,-0.0014508314288658,0.0014508314288656,-0.0014508314288656,0.0014508314288658,-0.0014508314288656,0.0014508314288659,-0.0013930852506924,0.0013930852506926,-0.0013930852506924,0.0013930852506926,-0.0013930852506928,0.0013930852506922,-0.0013930852506922,0.0013930852506929,-3.8528234753581e-18,-7.0291970275617e-18,-0.0014166663424544,0.0014166663424544,-4.9410255256501e-18,-4.3528082011679e-18,-0.0014508314288657,0.0014508314288657,-0.0014508314288657,0.0014508314288657,-0.0014508314288657,0.0014508314288657,-0.0014508314288657,0.0014508314288657,-0.0013930852506925,0.0013930852506925,-0.0013930852506925,0.0013930852506925,0.40351767013228,0.41440432049797,1270536,32768,0.005885378111026,0.0058853781110261,0.0058853781110261,37.192726967634,37.186503611479,0.00021274181574107,0.00021274181574107,0.00021274181574107,607308.37259903,0.017813151123663
11923200,0.99486156887835,0.017031223108919,0.0056770743696397,0.0056770743696398,0.0056770743696398,-0.0014168301756049,0.0014168301756049,-3.6175365455652e-18,-3.2351952846518e-19,3.1434333820326e-16,-3.2131371349838e-16,-0.0014509774398697,0.0014509774398699,-0.0014509774398697,0.0014509774398699,-0.0014509774398699,0.0014509774398697,-0.0014509774398699,0.0014509774398697,-0.0013932633169084,0.0013932633169082,-0.0013932633169084,0.0013932633169082,-2.8928528018032e-16,3.4463653041409e-16,2.5352166685181e-17,2.5410988417629e-17,-0.0014168301756049,0.0014168301756049,-0.0014509774398698,0.0014509774398697,-0.0014509774398699,0.0014509774398697,-0.0014509774398696,0.0014509774398699,-0.0014509774398696,0.0014509774398699,-0.0013932633169082,0.0013932633169084,-0.0013932633169082,0.0013932633169084,-0.0013932633169086,0.001393263316908,-0.001393263316908,0.0013932633169087,-7.382127422251e-18,-1.0529090108231e-17,-0.0014168301756049,0.0014168301756049,-8.8232598672323e-18,-7.646825218268e-18,-0.0014509774398698,0.0014509774398697,-0.0014509774398698,0.0014509774398698,-0.0014509774398698,0.0014509774398697,-0.0014509774398698,0.0014509774398697,-0.0013932633169083,0.0013932633169083,-0.0013932633169083,0.0013932633169083,0.412661795596,0.45157405799106,1270536,32768,0.0058860566822807,0.0058860566822807,0.0058860566822807,37.101923271167,37.095701652072,0.00021201538616933,0.00021201538616933,0.00021201538616933,601356.51679092,0.017815223423783
12009600,0.99514852325248,0.017034246968121,0.0056780823227069,0.005678082322707,0.005678082322707,-0.0014170969239194,0.0014170969239194,-6.8821426964412e-18,-3.4116604819965e-18,3.1140225158085e-16,-3.2528418043863e-16,-0.0014512022683114,0.0014512022683116,-0.0014512022683114,0.0014512022683116,-0.0014512022683116,0.0014512022683114,-0.0014512022683117,0.0014512022683114,-0.0013935645929438,0.0013935645929435,-0.0013935645929438,0.0013935645929435,-2.9063818002663e-16,3.442836000194e-16,2.4381608099785e-17,2.4381608099785e-17,-0.0014170969239194,0.0014170969239194,-0.0014512022683116,0.0014512022683114,-0.0014512022683116,0.0014512022683114,-0.0014512022683114,0.0014512022683116,-0.0014512022683114,0.0014512022683117,-0.0013935645929435,0.0013935645929438,-0.0013935645929435,0.0013935645929438,-0.0013935645929439,0.0013935645929434,-0.0013935645929434,0.001393564592944,-8.205631676526e-18,-1.1440826961178e-17,-0.0014170969239194,0.0014170969239194,-9.0585467970252e-18,-7.9997556129573e-18,-0.0014512022683115,0.0014512022683115,-0.0014512022683115,0.0014512022683115,-0.0014512022683115,0.0014512022683115,-0.0014512022683115,0.0014512022683115,-0.0013935645929437,0.0013935645929437,-0.0013935645929437,0.0013935645929437,0.4239850608976,0.48874379548415,1270536,32768,0.0058871615413581,0.0058871615413582,0.0058871615413582,37.033449284937,37.028705240894,0.00021146759427949,0.00021146759427949,0.00021146759427949,592521.25718669,0.017818597503325
12096000,0.99541878905888,0.017037182579268,0.005679060859756,0.005679060859756,0.005679060859756,-0.0014174029755154,0.0014174029755154,-5.6762971812528e-18,-2.2646366992563e-18,3.1246104276492e-16,-3.2443126531813e-16,-0.0014514635116504,0.0014514635116505,-0.0014514635116504,0.0014514635116506,-0.0014514635116506,0.0014514635116503,-0.0014514635116506,0.0014514635116503,-0.0013939041594837,0.0013939041594835,-0.0013939041594837,0.0013939041594835,-2.9375573184639e-16,3.412248699321e-16,2.0911125885341e-17,2.1234645413806e-17,-0.0014174029755154,0.0014174029755155,-0.0014514635116505,0.0014514635116503,-0.0014514635116505,0.0014514635116503,-0.0014514635116503,0.0014514635116505,-0.0014514635116503,0.0014514635116506,-0.0013939041594835,0.0013939041594837,-0.0013939041594835,0.0013939041594837,-0.0013939041594839,0.0013939041594833,-0.0013939041594833,0.0013939041594839,-3.5293039468929e-18,-6.7644992315448e-18,-0.0014174029755154,0.0014174029755154,-4.8527929269778e-18,-4.0586995389269e-18,-0.0014514635116505,0.0014514635116504,-0.0014514635116505,0.0014514635116504,-0.0014514635116505,0.0014514635116504,-0.0014514635116505,0.0014514635116504,-0.0013939041594836,0.0013939041594836,-0.0013939041594836,0.0013939041594836,0.43697944550552,0.52591353297724,1270536,32768,0.0058884291829584,0.0058884291829585,0.0058884291829585,36.983796602161,36.980347930741,0.00021107037281729,0.00021107037281729,0.00021107037281729,583060.04612567,0.017822468679576
12182400,0.99567338670843,0.017040039326795,0.0056800131089316,0.0056800131089317,0.0056800131089317,-0.0014177061127524,0.0014177061127524,-6.4703905693037e-18,-3.3528387495483e-18,3.1169636024309e-16,-3.2540182390353e-16,-0.0014517231242688,0.001451723124269,-0.0014517231242688,0.001451723124269,-0.001451723124269,0.0014517231242688,-0.0014517231242691,0.0014517231242688,-0.0013942378613634,0.0013942378613632,-0.0013942378613634,0.0013942378613632,-2.9210872333784e-16,3.4296011103932e-16,2.2793421323683e-17,2.2999297387252e-17,-0.0014177061127524,0.0014177061127524,-0.001451723124269,0.0014517231242688,-0.001451723124269,0.0014517231242688,-0.0014517231242688,0.001451723124269,-0.0014517231242688,0.0014517231242691,-0.0013942378613632,0.0013942378613634,-0.0013942378613632,0.0013942378613634,-0.0013942378613636,0.0013942378613631,-0.001394237861363,0.0013942378613637,-2.8234431575143e-18,-6.0880493083903e-18,-0.0014177061127524,0.0014177061127524,-3.7940017429099e-18,-2.8234431575143e-18,-0.0014517231242689,0.0014517231242689,-0.0014517231242689,0.0014517231242689,-0.0014517231242689,0.0014517231242689,-0.0014517231242689,0.0014517231242689,-0.0013942378613633,0.0013942378613633,-0.0013942378613633,0.0013942378613633,0.45135804830608,0.56308327047033,1270536,32768,0.0058896847382666,0.0058896847382666,0.0058896847382666,36.935316035159,36.931990620589,0.00021068252828127,0.00021068252828127,0.00021068252828127,573344.4324343,0.017826302982372
12268800,0.9959132572774,0.017042817768118,0.0056809392560394,0.0056809392560395,0.0056809392560395,-0.0014180004177502,0.0014180004177502,-5.2939559203394e-18,-1.9705280370152e-18,3.1234339930002e-16,-3.2384304799365e-16,-0.0014519763581018,0.001451976358102,-0.0014519763581018,0.001451976358102,-0.001451976358102,0.0014519763581018,-0.001451976358102,0.0014519763581018,-0.00139455976834,0.0013945597683398,-0.00139455976834,0.0013945597683398,-2.916969712107e-16,3.4243071544729e-16,2.2881653922356e-17,2.3322816915717e-17,-0.0014180004177502,0.0014180004177502,-0.0014519763581019,0.0014519763581018,-0.001451976358102,0.0014519763581018,-0.0014519763581017,0.001451976358102,-0.0014519763581017,0.001451976358102,-0.0013945597683397,0.00139455976834,-0.0013945597683398,0.00139455976834,-0.0013945597683402,0.0013945597683396,-0.0013945597683396,0.0013945597683402,-5.8527623785974e-18,-9.1173685294734e-18,-0.0014180004177502,0.0014180004177502,-6.7350883653207e-18,-5.9704058434939e-18,-0.0014519763581019,0.0014519763581018,-0.0014519763581019,0.0014519763581019,-0.0014519763581019,0.0014519763581018,-0.0014519763581019,0.0014519763581018,-0.0013945597683399,0.0013945597683399,-0.0013945597683399,0.0013945597683399,0.4658844178647,0.59448294252411,1270536,32768,0.0058909037001224,0.0058909037001224,0.0058909037001224,36.886945848463,36.883633310436,0.00021029556678771,0.00021029556678771,0.00021029556678771,563524.39249049,0.017830025561214
12355200,0.99613928242029,0.017045446815548,0.0056818156051825,0.0056818156051826,0.0056818156051826,-0.0014182613475644,0.0014182613475644,-2.7646214250661e-18,3.823412609134e-19,3.147550903304e-16,-3.2160782216062e-16,-0.0014522065935255,0.0014522065935256,-0.0014522065935255,0.0014522065935257,-0.0014522065935257,0.0014522065935254,-0.0014522065935257,0.0014522065935254,-0.0013948384820643,0.0013948384820641,-0.0013948384820643,0.0013948384820641,-2.9234401026763e-16,3.4190131985525e-16,2.2205203999201e-17,2.2352258330322e-17,-0.0014182613475644,0.0014182613475645,-0.0014522065935256,0.0014522065935254,-0.0014522065935256,0.0014522065935254,-0.0014522065935254,0.0014522065935256,-0.0014522065935254,0.0014522065935257,-0.0013948384820641,0.0013948384820643,-0.0013948384820641,0.0013948384820643,-0.0013948384820645,0.0013948384820639,-0.0013948384820639,0.0013948384820646,-3.9410560740304e-18,-7.0291970275617e-18,-0.0014182613475644,0.0014182613475644,-5.2939559203394e-18,-4.5586842647367e-18,-0.0014522065935256,0.0014522065935255,-0.0014522065935256,0.0014522065935255,-0.0014522065935256,0.0014522065935255,-0.0014522065935255,0.0014522065935255,-0.0013948384820642,0.0013948384820642,-0.0013948384820642,0.0013948384820642,0.46778080709018,0.5528617812204,1270536,32768,0.0058919844053586,0.0058919844053586,0.0058919844053586,36.838586777537,36.835276000283,0.00020990869422029,0.00020990869422029,0.00020990869422029,554412.12266615,0.017833325975755
12441600,0.99635228940459,0.017047789821421,0.0056825966071403,0.0056825966071403,0.0056825966071403,-0.0014182790145576,0.0014182790145576,-5.9409949772697e-18,-2.7057996926179e-18,3.1193164717289e-16,-3.2484301744527e-16,-0.0014522741763152,0.0014522741763154,-0.0014522741763153,0.0014522741763155,-0.0014522741763155,0.0014522741763152,-0.0014522741763155,0.0014522741763152,-0.0013948018505488,0.0013948018505486,-0.0013948018505488,0.0013948018505486,-2.9281458412722e-16,3.4178367639036e-16,2.2205203999201e-17,2.2322847464098e-17,-0.0014182790145576,0.0014182790145576,-0.0014522741763154,0.0014522741763152,-0.0014522741763154,0.0014522741763152,-0.0014522741763152,0.0014522741763154,-0.0014522741763152,0.0014522741763155,-0.0013948018505486,0.0013948018505488,-0.0013948018505486,0.0013948018505488,-0.001394801850549,0.0013948018505485,-0.0013948018505484,0.0013948018505491,-4.3233973349438e-18,-7.4115382884751e-18,-0.0014182790145576,0.0014182790145576,-5.470421117684e-18,-4.382219067392e-18,-0.0014522741763153,0.0014522741763153,-0.0014522741763153,0.0014522741763153,-0.0014522741763153,0.0014522741763153,-0.0014522741763153,0.0014522741763153,-0.0013948018505487,0.0013948018505487,-0.0013948018505487,0.0013948018505487,0.44230413562357,0.38766121643206,1270536,32768,0.0058920574763043,0.0058920574763044,0.0058920574763044,36.790228844422,36.78691869013,0.00020952183075537,0.00020952183075537,0.00020952183075537,553862.58991187,0.017833549181984
12528000,0.9965530546363,0.017050007288715,0.0056833357629049,0.005683335762905,0.005683335762905,-0.0014178348994131,0.0014178348994131,-4.9410255256501e-18,-1.8234737058947e-18,3.1269632969471e-16,-3.2416656752211e-16,-0.0014520321808115,0.0014520321808116,-0.0014520321808115,0.0014520321808117,-0.0014520321808117,0.0014520321808114,-0.0014520321808117,0.0014520321808114,-0.0013941782570248,0.0013941782570246,-0.0013941782570248,0.0013941782570246,-2.9399101877618e-16,3.4078370693874e-16,2.076407155422e-17,2.141111061115e-17,-0.0014178348994131,0.0014178348994132,-0.0014520321808116,0.0014520321808114,-0.0014520321808116,0.0014520321808114,-0.0014520321808114,0.0014520321808116,-0.0014520321808114,0.0014520321808117,-0.0013941782570246,0.0013941782570248,-0.0013941782570246,0.0013941782570249,-0.001394178257025,0.0013941782570245,-0.0013941782570244,0.0013941782570251,-3.264606150876e-18,-6.4115688368555e-18,-0.0014178348994131,0.0014178348994131,-4.3233973349438e-18,-4.0586995389269e-18,-0.0014520321808115,0.0014520321808115,-0.0014520321808115,0.0014520321808115,-0.0014520321808115,0.0014520321808115,-0.0014520321808115,0.0014520321808115,-0.0013941782570247,0.0013941782570247,-0.0013941782570247,0.0013941782570247,0.44413242668506,0.44416568327059,1270536,32768,0.0058902178565353,0.0058902178565354,0.0058902178565354,36.741871028294,36.738561379977,0.00020913496822635,0.00020913496822635,0.00020913496822635,571050.11105229,0.017827930917774
12614400,0.99674230686181,0.017052004740527,0.0056840015801757,0.0056840015801757,0.0056840015801757,-0.0014179794598159,0.0014179794598159,-6.1762819070626e-18,-2.7057996926179e-18,3.1234339930002e-16,-3.2443126531813e-16,-0.0014521632335509,0.0014521632335511,-0.0014521632335509,0.0014521632335511,-0.0014521632335511,0.0014521632335509,-0.0014521632335512,0.0014521632335509,-0.0013943644338525,0.0013943644338523,-0.0013943644338525,0.0013943644338523,-2.934028014517e-16,3.4163662205923e-16,2.141111061115e-17,2.241108006277e-17,-0.0014179794598159,0.0014179794598159,-0.0014521632335511,0.0014521632335509,-0.0014521632335511,0.0014521632335509,-0.0014521632335509,0.0014521632335511,-0.0014521632335509,0.0014521632335511,-0.0013943644338523,0.0013943644338525,-0.0013943644338523,0.0013943644338525,-0.0013943644338527,0.0013943644338522,-0.0013943644338521,0.0013943644338528,-4.9998472580983e-18,-8.205631676526e-18,-0.0014179794598159,0.0014179794598159,-5.9704058434939e-18,-5.9409949772698e-18,-0.001452163233551,0.001452163233551,-0.001452163233551,0.001452163233551,-0.001452163233551,0.001452163233551,-0.001452163233551,0.001452163233551,-0.0013943644338524,0.0013943644338524,-0.0013943644338524,0.0013943644338524,0.42447728674109,0.34134742341345,1270536,32768,0.0058908167386163,0.0058908167386164,0.0058908167386164,36.693513224225,36.690204069824,0.0002087481057938,0.0002087481057938,0.0002087481057938,565901.66994243,0.017829759690776
12700800,0.9969207302095,0.017053870184299,0.0056846233947661,0.0056846233947662,0.0056846233947662,-0.0014176685045076,0.0014176685045076,-6.4998014355278e-18,-2.8528540237384e-18,3.1199046890533e-16,-3.2501948264261e-16,-0.0014519844108306,0.0014519844108308,-0.0014519844108306,0.0014519844108308,-0.0014519844108308,0.0014519844108306,-0.0014519844108308,0.0014519844108306,-0.0013939457171904,0.0013939457171902,-0.0013939457171904,0.0013939457171902,-2.9140286254846e-16,3.4401890222339e-16,2.3205173450821e-17,2.455807329713e-17,-0.0014176685045076,0.0014176685045076,-0.0014519844108308,0.0014519844108306,-0.0014519844108308,0.0014519844108306,-0.0014519844108305,0.0014519844108308,-0.0014519844108306,0.0014519844108308,-0.0013939457171902,0.0013939457171904,-0.0013939457171902,0.0013939457171904,-0.0013939457171906,0.0013939457171901,-0.00139394571719,0.0013939457171907,-4.7057385958572e-18,-8.0585773454055e-18,-0.0014176685045076,0.0014176685045076,-5.7645297799251e-18,-5.9409949772698e-18,-0.0014519844108307,0.0014519844108307,-0.0014519844108307,0.0014519844108307,-0.0014519844108307,0.0014519844108307,-0.0014519844108307,0.0014519844108307,-0.0013939457171903,0.0013939457171903,-0.0013939457171903,0.0013939457171903,0.42046828823614,0.36632788116199,1270536,32768,0.005889528749929,0.0058895287499291,0.0058895287499291,36.645155421416,36.641846759671,0.00020836124337132,0.00020836124337132,0.00020836124337132,577939.39082592,0.017825826060827
12787200,0.9970880663338,0.017055607979174,0.0056852026597246,0.0056852026597246,0.0056852026597246,-0.0014175250059559,0.0014175250059559,-5.999816709718e-18,-2.470512762825e-18,3.1175518197554e-16,-3.2416656752211e-16,-0.0014518416033854,0.0014518416033856,-0.0014518416033854,0.0014518416033856,-0.0014518416033856,0.0014518416033854,-0.0014518416033856,0.0014518416033854,-0.001393825956606,0.0013938259566058,-0.001393825956606,0.0013938259566058,-2.949909882278e-16,3.3896023323284e-16,1.8852365249653e-17,2.0028799898617e-17,-0.0014175250059558,0.0014175250059559,-0.0014518416033856,0.0014518416033854,-0.0014518416033856,0.0014518416033854,-0.0014518416033854,0.0014518416033856,-0.0014518416033854,0.0014518416033856,-0.0013938259566058,0.001393825956606,-0.0013938259566058,0.001393825956606,-0.0013938259566062,0.0013938259566056,-0.0013938259566056,0.0013938259566063,-5.8233515123733e-18,-9.293833726818e-18,-0.0014175250059559,0.0014175250059559,-6.9409644288894e-18,-7.3233056898028e-18,-0.0014518416033855,0.0014518416033855,-0.0014518416033855,0.0014518416033855,-0.0014518416033855,0.0014518416033855,-0.0014518416033855,0.0014518416033855,-0.0013938259566059,0.0013938259566059,-0.0013938259566059,0.0013938259566059,0.41770830080179,0.37449136351002,1270536,32768,0.0058889344440822,0.0058889344440822,0.0058889344440823,36.495996582481,36.486035919083,0.00020716797265984,0.00020716797265984,0.00020716797265984,576400.07273954,0.017824011284742
12873600,0.99724441753626,0.017057226475882,0.0056857421586272,0.0056857421586273,0.0056857421586273,-0.0014172197335313,0.0014172197335313,-8.470329472543e-18,-5.0292581243224e-18,3.0899056055048e-16,-3.2716647587697e-16,-0.0014515327173459,0.0014515327173461,-0.0014515327173459,0.0014515327173461,-0.0014515327173461,0.0014515327173459,-0.0014515327173461,0.0014515327173459,-0.0013935350884148,0.0013935350884145,-0.0013935350884148,0.0013935350884145,-2.9269694066232e-16,3.4178367639036e-16,2.1616986674719e-17,2.3675747310407e-17,-0.0014172197335313,0.0014172197335313,-0.001451532717346,0.0014515327173459,-0.0014515327173461,0.0014515327173459,-0.0014515327173458,0.0014515327173461,-0.0014515327173458,0.0014515327173461,-0.0013935350884145,0.0013935350884148,-0.0013935350884145,0.0013935350884148,-0.001393535088415,0.0013935350884144,-0.0013935350884144,0.0013935350884151,4.9998472580983e-19,-2.8528540237384e-18,-0.0014172197335313,0.0014172197335313,3.2351952846518e-19,-9.1173685294734e-19,-0.001451532717346,0.001451532717346,-0.001451532717346,0.001451532717346,-0.001451532717346,0.001451532717346,-0.001451532717346,0.0014515327173459,-0.0013935350884147,0.0013935350884147,-0.0013935350884147,0.0013935350884147,0.41636160152651,0.38265484585804,1270536,32768,0.0058876699902951,0.0058876699902951,0.0058876699902951,36.268552585907,36.25320763594,0.00020534842068726,0.00020534842068726,0.00020534842068726,574911.7266136,0.017820150287794
12960000,0.99739056215144,0.017058738106354,0.0056862460354515,0.0056862460354515,0.0056862460354515,-0.0014169118776838,0.0014169118776838,-4.8233820607537e-18,-1.4705433112054e-18,3.1322572528675e-16,-3.2246073728112e-16,-0.0014512134353727,0.0014512134353729,-0.0014512134353727,0.0014512134353729,-0.0014512134353729,0.0014512134353727,-0.0014512134353729,0.0014512134353727,-0.0013932421559361,0.0013932421559359,-0.0013932421559361,0.0013932421559359,-2.9310869278946e-16,3.4075429607251e-16,2.0734660687996e-17,2.2705188725011e-17,-0.0014169118776838,0.0014169118776838,-0.0014512134353729,0.0014512134353727,-0.0014512134353729,0.0014512134353727,-0.0014512134353726,0.0014512134353729,-0.0014512134353727,0.0014512134353729,-0.0013932421559359,0.0013932421559361,-0.0013932421559359,0.0013932421559361,-0.0013932421559363,0.0013932421559358,-0.0013932421559357,0.0013932421559364,-4.3233973349438e-18,-7.4997708871475e-18,-0.0014169118776838,0.0014169118776838,-4.7939711945295e-18,-5.8527623785974e-18,-0.0014512134353728,0.0014512134353728,-0.0014512134353728,0.0014512134353728,-0.0014512134353728,0.0014512134353728,-0.0014512134353728,0.0014512134353728,-0.001393242155936,0.001393242155936,-0.001393242155936,0.001393242155936,0.41602604393231,0.39081832820607,1270536,32768,0.0058863948178196,0.0058863948178197,0.0058863948178197,36.036223816272,36.020379352797,0.00020348979053017,0.00020348979053017,0.00020348979053017,572803.64004868,0.017816256600841
13046400,0.99752725344753,0.017060153453913,0.0056867178179711,0.0056867178179712,0.0056867178179712,-0.0014166042055343,0.0014166042055343,-3.7351800104617e-18,-2.9410866224108e-19,3.1375512087878e-16,-3.2143135696327e-16,-0.0014508916582976,0.0014508916582978,-0.0014508916582976,0.0014508916582978,-0.0014508916582978,0.0014508916582976,-0.0014508916582978,0.0014508916582976,-0.0013929480533768,0.0013929480533766,-0.0013929480533768,0.0013929480533766,-2.9187343640804e-16,3.4148956772811e-16,2.141111061115e-17,2.2999297387252e-17,-0.0014166042055343,0.0014166042055344,-0.0014508916582978,0.0014508916582976,-0.0014508916582978,0.0014508916582976,-0.0014508916582975,0.0014508916582978,-0.0014508916582975,0.0014508916582978,-0.0013929480533766,0.0013929480533768,-0.0013929480533766,0.0013929480533768,-0.001392948053377,0.0013929480533764,-0.0013929480533764,0.001392948053377,-2.7057996926179e-18,-5.8527623785974e-18,-0.0014166042055344,0.0014166042055343,-2.735210558842e-18,-3.4410713482206e-18,-0.0014508916582977,0.0014508916582977,-0.0014508916582977,0.0014508916582977,-0.0014508916582977,0.0014508916582977,-0.0014508916582977,0.0014508916582977,-0.0013929480533767,0.0013929480533767,-0.0013929480533767,0.0013929480533767,0.41646052644367,0.39898181055409,1270536,32768,0.0058851203888012,0.0058851203888013,0.0058851203888013,35.80343554932,35.787551069655,0.00020162748439456,0.00020162748439456,0.00020162748439456,570368.58739853,0.017812365236318
13132800,0.99765518647164,0.017061481475834,0.0056871604919447,0.0056871604919447,0.0056871604919447,-0.0014162946352312,0.0014162946352312,-4.5292733985126e-18,-1.3234889800848e-18,3.1269632969471e-16,-3.221960394851e-16,-0.0014505672301512,0.0014505672301514,-0.0014505672301512,0.0014505672301514,-0.0014505672301514,0.0014505672301512,-0.0014505672301514,0.0014505672301512,-0.0013926505335178,0.0013926505335176,-0.0013926505335178,0.0013926505335176,-2.9199107987294e-16,3.412248699321e-16,2.0911125885341e-17,2.30581191197e-17,-0.0014162946352312,0.0014162946352312,-0.0014505672301514,0.0014505672301512,-0.0014505672301514,0.0014505672301512,-0.0014505672301511,0.0014505672301514,-0.0014505672301511,0.0014505672301514,-0.0013926505335176,0.0013926505335178,-0.0013926505335176,0.0013926505335178,-0.001392650533518,0.0013926505335174,-0.0013926505335174,0.001392650533518,-6.9409644288894e-18,-1.0058516248645e-17,-0.0014162946352312,0.0014162946352312,-6.9703752951135e-18,-8.3526860076466e-18,-0.0014505672301513,0.0014505672301513,-0.0014505672301513,0.0014505672301513,-0.0014505672301513,0.0014505672301513,-0.0014505672301513,0.0014505672301512,-0.0013926505335177,0.0013926505335177,-0.0013926505335177,0.0013926505335177,0.41750880666346,0.40714529290212,1270536,32768,0.0058838380834652,0.0058838380834652,0.0058838380834652,35.570601108496,35.554722786512,0.00019976480886797,0.00019976480886797,0.00019976480886797,567730.59958078,0.017808449866163
13219200,0.99777500013046,0.017062729873711,0.0056875766245704,0.0056875766245705,0.0056875766245705,-0.0014159817590393,0.0014159817590393,-8.7938490010082e-18,-5.3527776527876e-18,3.0869645188823e-16,-3.2625473902403e-16,-0.0014502396763945,0.0014502396763946,-0.0014502396763945,0.0014502396763947,-0.0014502396763947,0.0014502396763944,-0.0014502396763947,0.0014502396763944,-0.0013923483191451,0.0013923483191449,-0.0013923483191451,0.0013923483191449,-2.9063818002663e-16,3.4222483938372e-16,2.1940506203184e-17,2.4528662430906e-17,-0.0014159817590393,0.0014159817590394,-0.0014502396763946,0.0014502396763944,-0.0014502396763946,0.0014502396763944,-0.0014502396763944,0.0014502396763947,-0.0014502396763944,0.0014502396763947,-0.0013923483191449,0.0013923483191451,-0.0013923483191449,0.0013923483191451,-0.0013923483191453,0.0013923483191447,-0.0013923483191447,0.0013923483191454,-5.176312455443e-18,-8.4115077400948e-18,-0.0014159817590394,0.0014159817590393,-5.4115993852358e-18,-6.9997861613376e-18,-0.0014502396763946,0.0014502396763945,-0.0014502396763946,0.0014502396763945,-0.0014502396763946,0.0014502396763945,-0.0014502396763946,0.0014502396763945,-0.001392348319145,0.001392348319145,-0.001392348319145,0.001392348319145,0.41906317161689,0.41530877525015,1270536,32768,0.0058825420736676,0.0058825420736676,0.0058825420736676,35.337761956345,35.32189450337,0.00019790209565076,0.00019790209565076,0.00019790209565076,564956.70301732,0.017804492687342
13305600,0.99788728184379,0.017063898456211,0.0056879661520703,0.0056879661520704,0.0056879661520704,-0.0014156642589948,0.0014156642589948,-7.4409491546992e-18,-4.088110405151e-18,3.0893173881803e-16,-3.2607827382668e-16,-0.0014499083253284,0.0014499083253286,-0.0014499083253284,0.0014499083253286,-0.0014499083253286,0.0014499083253284,-0.0014499083253287,0.0014499083253284,-0.0013920400749619,0.0013920400749617,-0.0013920400749619,0.0013920400749617,-2.8893234978563e-16,3.4416595655451e-16,2.4116910303768e-17,2.6616833932817e-17,-0.0014156642589948,0.0014156642589949,-0.0014499083253286,0.0014499083253284,-0.0014499083253286,0.0014499083253284,-0.0014499083253284,0.0014499083253286,-0.0014499083253284,0.0014499083253287,-0.0013920400749617,0.001392040074962,-0.0013920400749617,0.001392040074962,-0.0013920400749621,0.0013920400749616,-0.0013920400749615,0.0013920400749622,-7.0880187600099e-18,-1.0234981445989e-17,-0.0014156642589949,0.0014156642589948,-6.9115535626653e-18,-8.3820968738707e-18,-0.0014499083253285,0.0014499083253285,-0.0014499083253285,0.0014499083253285,-0.0014499083253285,0.0014499083253285,-0.0014499083253285,0.0014499083253285,-0.0013920400749618,0.0013920400749618,-0.0013920400749618,0.0013920400749618,0.41857179953886,0.40983348306016,1270536,32768,0.005881226901622,0.0058812269016221,0.0058812269016221,35.104922323465,35.089066220227,0.00019603937858772,0.00019603937858772,0.00019603937858772,562094.62757919,0.017800477033173
13392000,0.99799257201947,0.0170649836707,0.0056883278902332,0.0056883278902332,0.0056883278902332,-0.0014152957825178,0.0014152957825177,-7.8232904156126e-18,-4.4998625322885e-18,3.098728865372e-16,-3.2528418043863e-16,-0.0014495425216122,0.0014495425216123,-0.0014495425216122,0.0014495425216124,-0.0014495425216124,0.0014495425216121,-0.0014495425216124,0.0014495425216121,-0.0013916658242544,0.0013916658242542,-0.0013916658242544,0.0013916658242542,-2.9493216649535e-16,3.3819555071101e-16,1.8881776115877e-17,2.1999327935633e-17,-0.0014152957825177,0.0014152957825178,-0.0014495425216123,0.0014495425216121,-0.0014495425216123,0.0014495425216121,-0.0014495425216121,0.0014495425216123,-0.0014495425216121,0.0014495425216124,-0.0013916658242542,0.0013916658242544,-0.0013916658242542,0.0013916658242544,-0.0013916658242546,0.001391665824254,-0.001391665824254,0.0013916658242547,-3.0881409535313e-18,-6.4409797030796e-18,-0.0014152957825178,0.0014152957825178,-3.2351952846518e-18,-5.3233667865635e-18,-0.0014495425216123,0.0014495425216122,-0.0014495425216123,0.0014495425216122,-0.0014495425216122,0.0014495425216122,-0.0014495425216122,0.0014495425216122,-0.0013916658242543,0.0013916658242543,-0.0013916658242543,0.0013916658242543,0.41450670286381,0.38837101080074,1270536,32768,0.0058797005695304,0.0058797005695305,0.0058797005695305,34.872082643312,34.856237937084,0.00019417666114649,0.00019417666114649,0.00019417666114649,560938.41853583,0.017795816559974
13478400,0.99809136813366,0.017065987909044,0.0056886626363481,0.0056886626363481,0.0056886626363481,-0.0014148584796392,0.0014148584796392,-6.293925371959e-18,-3.1175518197554e-18,3.1046110386168e-16,-3.2404892405722e-16,-0.0014491297396056,0.0014491297396058,-0.0014491297396056,0.0014491297396058,-0.0014491297396058,0.0014491297396056,-0.0014491297396058,0.0014491297396056,-0.0013912053164742,0.001391205316474,-0.0013912053164742,0.001391205316474,-2.9028524963194e-16,3.4260718064463e-16,2.1646397540943e-17,2.5116879755388e-17,-0.0014148584796392,0.0014148584796392,-0.0014491297396058,0.0014491297396056,-0.0014491297396058,0.0014491297396056,-0.0014491297396055,0.0014491297396058,-0.0014491297396055,0.0014491297396058,-0.001391205316474,0.0013912053164742,-0.001391205316474,0.0013912053164742,-0.0013912053164744,0.0013912053164738,-0.0013912053164738,0.0013912053164745,-5.6762971812528e-18,-8.8232598672323e-18,-0.0014148584796392,0.0014148584796392,-5.2351341878912e-18,-7.8821121480609e-18,-0.0014491297396057,0.0014491297396057,-0.0014491297396057,0.0014491297396057,-0.0014491297396057,0.0014491297396057,-0.0014491297396057,0.0014491297396057,-0.0013912053164741,0.0013912053164741,-0.0013912053164741,0.0013912053164741,0.40878378333568,0.36690853854131,1270536,32768,0.0058778891524169,0.0058778891524169,0.0058778891524169,34.639242960329,34.623409653942,0.00019231394368263,0.00019231394368263,0.00019231394368263,562274.18075073,0.017790285494408
13564800,0.99818436184458,0.017066921768611,0.0056889739228703,0.0056889739228703,0.0056889739228703,-0.0014144887928783,0.0014144887928783,-4.1763430038233e-18,-1.1470237827402e-18,3.1234339930002e-16,-3.2240191554867e-16,-0.0014487879621933,0.0014487879621935,-0.0014487879621933,0.0014487879621935,-0.0014487879621935,0.0014487879621933,-0.0014487879621935,0.0014487879621933,-0.0013908130104756,0.0013908130104754,-0.0013908130104756,0.0013908130104754,-2.9428512743842e-16,3.3819555071101e-16,1.7881806664257e-17,2.1528754076047e-17,-0.0014144887928783,0.0014144887928783,-0.0014487879621935,0.0014487879621933,-0.0014487879621935,0.0014487879621933,-0.0014487879621932,0.0014487879621935,-0.0014487879621933,0.0014487879621935,-0.0013908130104754,0.0013908130104756,-0.0013908130104754,0.0013908130104756,-0.0013908130104758,0.0013908130104753,-0.0013908130104752,0.0013908130104759,-3.9998778064786e-18,-6.8821426964412e-18,-0.0014144887928783,0.0014144887928783,-3.558714813117e-18,-6.0292275759421e-18,-0.0014487879621934,0.0014487879621934,-0.0014487879621934,0.0014487879621934,-0.0014487879621934,0.0014487879621934,-0.0014487879621934,0.0014487879621934,-0.0013908130104755,0.0013908130104755,-0.0013908130104755,0.0013908130104755,0.40386344252009,0.35653166287173,1270536,32768,0.0058763578407354,0.0058763578407355,0.0058763578407355,34.452681061769,34.439893091613,0.00019082144849415,0.00019082144849415,0.00019082144849415,564366.76867089,0.017785609631758
13651200,0.99827209517228,0.017067797568422,0.0056892658561405,0.0056892658561406,0.0056892658561406,-0.0014142082957972,0.0014142082957972,-7.4115382884751e-18,-4.2939864687197e-18,3.098728865372e-16,-3.2513712610751e-16,-0.0014485236094784,0.0014485236094786,-0.0014485236094784,0.0014485236094786,-0.0014485236094786,0.0014485236094784,-0.0014485236094786,0.0014485236094784,-0.0013905228536393,0.0013905228536391,-0.0013905228536393,0.0013905228536391,-2.8987349750481e-16,3.4334245230023e-16,2.291106478858e-17,2.5940384009663e-17,-0.0014142082957972,0.0014142082957972,-0.0014485236094786,0.0014485236094784,-0.0014485236094786,0.0014485236094784,-0.0014485236094783,0.0014485236094786,-0.0014485236094783,0.0014485236094786,-0.0013905228536391,0.0013905228536393,-0.0013905228536391,0.0013905228536393,-0.0013905228536395,0.001390522853639,-0.0013905228536389,0.0013905228536396,-4.2351647362715e-18,-7.1468404924582e-18,-0.0014142082957972,0.0014142082957972,-3.8822343415822e-18,-6.2056927732867e-18,-0.0014485236094785,0.0014485236094785,-0.0014485236094785,0.0014485236094785,-0.0014485236094785,0.0014485236094785,-0.0014485236094785,0.0014485236094785,-0.0013905228536392,0.0013905228536392,-0.0013905228536392,0.0013905228536392,0.40147864666091,0.36076519790321,1270536,32768,0.0058751959852269,0.0058751959852269,0.0058751959852269,34.299198612369,34.288689134044,0.00018959358889895,0.00018959358889895,0.00018959358889895,565499.37957746,0.017782061908332
13737600,0.99835490871992,0.017068621240345,0.0056895404134481,0.0056895404134482,0.0056895404134482,-0.001413981943063,0.0014139819430629,-7.8232904156126e-18,-4.7645603283054e-18,3.0957877787496e-16,-3.262253281578e-16,-0.0014482942298004,0.0014482942298006,-0.0014482942298004,0.0014482942298006,-0.0014482942298006,0.0014482942298004,-0.0014482942298006,0.0014482942298004,-0.0013903036352671,0.0013903036352669,-0.0013903036352671,0.0013903036352669,-2.9599095767942e-16,3.3760733338653e-16,1.6587728550397e-17,2.1087591082685e-17,-0.001413981943063,0.001413981943063,-0.0014482942298005,0.0014482942298004,-0.0014482942298006,0.0014482942298004,-0.0014482942298003,0.0014482942298006,-0.0014482942298003,0.0014482942298006,-0.0013903036352669,0.0013903036352671,-0.0013903036352669,0.0013903036352671,-0.0013903036352673,0.0013903036352667,-0.0013903036352667,0.0013903036352674,-3.0881409535313e-18,-5.9115841110456e-18,-0.001413981943063,0.001413981943063,-2.0881715019116e-18,-5.4998319839081e-18,-0.0014482942298005,0.0014482942298005,-0.0014482942298005,0.0014482942298005,-0.0014482942298005,0.0014482942298005,-0.0014482942298005,0.0014482942298004,-0.001390303635267,0.001390303635267,-0.001390303635267,0.001390303635267,0.40002225375328,0.3649987329347,1270536,32768,0.0058742584022417,0.0058742584022418,0.0058742584022418,34.147775596323,34.137485176475,0.00018838220477059,0.00018838220477059,0.00018838220477059,564674.32980421,0.017779199101971
13824000,0.9984331104073,0.017069397398119,0.0056897991327064,0.0056897991327065,0.0056897991327065,-0.0014137639066016,0.0014137639066016,-9.3820663254903e-18,-6.1174601746144e-18,3.0752001723927e-16,-3.2760763887034e-16,-0.0014480688316865,0.0014480688316867,-0.0014480688316865,0.0014480688316867,-0.0014480688316867,0.0014480688316865,-0.0014480688316867,0.0014480688316865,-0.0013900937848992,0.0013900937848989,-0.0013900937848992,0.0013900937848989,-2.9175579294315e-16,3.4154838946056e-16,2.1117001948909e-17,2.4999236290492e-17,-0.0014137639066016,0.0014137639066017,-0.0014480688316867,0.0014480688316865,-0.0014480688316867,0.0014480688316865,-0.0014480688316864,0.0014480688316867,-0.0014480688316864,0.0014480688316867,-0.001390093784899,0.0013900937848992,-0.001390093784899,0.0013900937848992,-0.0013900937848994,0.0013900937848988,-0.0013900937848988,0.0013900937848994,-7.0291970275617e-18,-1.0058516248645e-17,-0.0014137639066017,0.0014137639066016,-6.1174601746144e-18,-9.2350119943698e-18,-0.0014480688316866,0.0014480688316866,-0.0014480688316866,0.0014480688316866,-0.0014480688316866,0.0014480688316866,-0.0014480688316866,0.0014480688316866,-0.0013900937848991,0.0013900937848991,-0.0013900937848991,0.0013900937848991,0.39917545765037,0.36923226796619,1270536,32768,0.0058733552536237,0.0058733552536237,0.0058733552536237,33.996545378167,33.986281218906,0.00018717236302533,0.00018717236302533,0.00018717236302533,563418.44216275,0.017776441485163
13910400,0.99850698639761,0.017070129901266,0.0056900433004221,0.0056900433004222,0.0056900433004222,-0.0014135481171814,0.0014135481171814,-7.646825218268e-18,-4.3528082011679e-18,3.0999053000209e-16,-3.2557828910087e-16,-0.0014478441472209,0.0014478441472211,-0.0014478441472209,0.0014478441472211,-0.0014478441472211,0.0014478441472209,-0.0014478441472211,0.0014478441472209,-0.0013898857318256,0.0013898857318254,-0.0013898857318256,0.0013898857318254,-2.9434394917087e-16,3.3910728756396e-16,1.7940628396706e-17,2.2175793132977e-17,-0.0014135481171814,0.0014135481171814,-0.0014478441472211,0.0014478441472209,-0.0014478441472211,0.0014478441472209,-0.0014478441472208,0.0014478441472211,-0.0014478441472209,0.0014478441472211,-0.0013898857318254,0.0013898857318256,-0.0013898857318254,0.0013898857318256,-0.0013898857318258,0.0013898857318252,-0.0013898857318252,0.0013898857318259,-7.2644839573546e-18,-1.0176159713541e-17,-0.0014135481171814,0.0014135481171814,-6.4703905693037e-18,-9.8526401850761e-18,-0.001447844147221,0.001447844147221,-0.001447844147221,0.001447844147221,-0.001447844147221,0.001447844147221,-0.001447844147221,0.001447844147221,-0.0013898857318255,0.0013898857318255,-0.0013898857318255,0.0013898857318255,0.39877872846764,0.37346580299768,1270536,32768,0.0058724614027677,0.0058724614027678,0.0058724614027678,33.845334436131,33.835077261337,0.00018596267548905,0.00018596267548905,0.00018596267548905,561945.09775983,0.017773712290502
13996800,0.99857680343039,0.017070822096398,0.0056902740321327,0.0056902740321328,0.0056902740321328,-0.0014133322029791,0.0014133322029791,-3.3822496157724e-18,-2.9410866224108e-19,3.1322572528675e-16,-3.2128430263215e-16,-0.0014476190010472,0.0014476190010474,-0.0014476190010472,0.0014476190010474,-0.0014476190010474,0.0014476190010472,-0.0014476190010474,0.0014476190010472,-0.0013896767870045,0.0013896767870042,-0.0013896767870045,0.0013896767870042,-2.9240283200008e-16,3.3984255921956e-16,1.8970008714549e-17,2.3175762584597e-17,-0.0014133322029791,0.0014133322029791,-0.0014476190010473,0.0014476190010472,-0.0014476190010474,0.0014476190010472,-0.0014476190010471,0.0014476190010474,-0.0014476190010471,0.0014476190010474,-0.0013896767870042,0.0013896767870045,-0.0013896767870043,0.0013896767870045,-0.0013896767870047,0.0013896767870041,-0.0013896767870041,0.0013896767870047,-3.3528387495483e-18,-6.3233362381831e-18,-0.0014133322029791,0.0014133322029791,-2.8234431575143e-18,-6.293925371959e-18,-0.0014476190010473,0.0014476190010473,-0.0014476190010473,0.0014476190010473,-0.0014476190010473,0.0014476190010472,-0.0014476190010473,0.0014476190010472,-0.0013896767870044,0.0013896767870044,-0.0013896767870044,0.0013896767870044,0.39873759342804,0.37769933802917,1270536,32768,0.0058715670274052,0.0058715670274053,0.0058715670274053,33.694125452416,33.683873303768,0.00018475300361933,0.00018475300361933,0.00018475300361933,560342.95714731,0.017770981519501
14083200,0.99864281030205,0.01707147298416,0.00569049099472,0.00569049099472,0.00569049099472,-0.0014131147392666,0.0014131147392666,-7.2644839573546e-18,-4.2351647362715e-18,3.0922584748027e-16,-3.2593121949556e-16,-0.0014473926247591,0.0014473926247593,-0.0014473926247591,0.0014473926247593,-0.0014473926247593,0.0014473926247591,-0.0014473926247593,0.0014473926247591,-0.0013894654070829,0.0013894654070827,-0.0013894654070829,0.0013894654070827,-2.9434394917087e-16,3.387837680355e-16,1.797003926293e-17,2.241108006277e-17,-0.0014131147392666,0.0014131147392666,-0.0014473926247593,0.0014473926247591,-0.0014473926247593,0.0014473926247591,-0.001447392624759,0.0014473926247593,-0.001447392624759,0.0014473926247593,-0.0013894654070827,0.0013894654070829,-0.0013894654070827,0.0013894654070829,-0.0013894654070831,0.0013894654070826,-0.0013894654070825,0.0013894654070832,-6.2645145057349e-18,-9.2644228605939e-18,-0.0014131147392666,0.0014131147392666,-5.5292428501322e-18,-9.2056011281457e-18,-0.0014473926247592,0.0014473926247592,-0.0014473926247592,0.0014473926247592,-0.0014473926247592,0.0014473926247592,-0.0014473926247592,0.0014473926247591,-0.0013894654070828,0.0013894654070828,-0.0013894654070828,0.0013894654070828,0.39657886259947,0.36864124454675,1270536,32768,0.0058706662272409,0.0058706662272409,0.0058706662272409,33.542916668938,33.532669346199,0.00018354333335151,0.00018354333335151,0.00018354333335151,558660.10444651,0.017768231153895
14169600,0.99870523916897,0.017072074172429,0.0056906913908096,0.0056906913908097,0.0056906913908097,-0.0014128493081694,0.0014128493081694,-4.6763277296331e-18,-1.5293650436536e-18,3.1281397315961e-16,-3.2254896987979e-16,-0.0014471342269066,0.0014471342269067,-0.0014471342269066,0.0014471342269068,-0.0014471342269068,0.0014471342269065,-0.0014471342269068,0.0014471342269065,-0.0013891915198956,0.0013891915198954,-0.0013891915198956,0.0013891915198954,-2.9446159263577e-16,3.3890141150039e-16,1.8293558791395e-17,2.2352258330322e-17,-0.0014128493081694,0.0014128493081694,-0.0014471342269067,0.0014471342269065,-0.0014471342269067,0.0014471342269065,-0.0014471342269065,0.0014471342269067,-0.0014471342269065,0.0014471342269068,-0.0013891915198954,0.0013891915198956,-0.0013891915198954,0.0013891915198956,-0.0013891915198958,0.0013891915198953,-0.0013891915198952,0.0013891915198959,-2.5587453614974e-18,-5.7645297799251e-18,-0.0014128493081694,0.0014128493081694,-1.6764193747741e-18,-4.5880951309608e-18,-0.0014471342269067,0.0014471342269066,-0.0014471342269066,0.0014471342269066,-0.0014471342269066,0.0014471342269066,-0.0014471342269066,0.0014471342269066,-0.0013891915198955,0.0013891915198955,-0.0013891915198955,0.0013891915198955,0.3872831370627,0.32446844578257,1270536,32768,0.0058695667315619,0.005869566731562,0.005869566731562,33.391707906447,33.381465388631,0.00018233366325157,0.00018233366325157,0.00018233366325157,558692.47228578,0.017764874036097
14256000,0.99876430674428,0.017072624622183,0.0056908748740608,0.0056908748740609,0.0056908748740609,-0.0014124491757086,0.0014124491757086,-4.0586995389269e-18,-9.4114771917145e-19,3.1251986449737e-16,-3.221960394851e-16,-0.0014467854777833,0.0014467854777835,-0.0014467854777833,0.0014467854777835,-0.0014467854777835,0.0014467854777833,-0.0014467854777835,0.0014467854777833,-0.0013887453144862,0.001388745314486,-0.0013887453144862,0.001388745314486,-2.9652035327145e-16,3.3613679007533e-16,1.482307657695e-17,1.97641021026e-17,-0.0014124491757086,0.0014124491757087,-0.0014467854777835,0.0014467854777833,-0.0014467854777835,0.0014467854777833,-0.0014467854777832,0.0014467854777835,-0.0014467854777832,0.0014467854777835,-0.001388745314486,0.0013887453144862,-0.001388745314486,0.0013887453144862,-0.0013887453144864,0.0013887453144858,-0.0013887453144858,0.0013887453144865,-7.5291817533716e-18,-1.0470268375782e-17,-0.0014124491757087,0.0014124491757086,-6.4409797030796e-18,-1.0529090108231e-17,-0.0014467854777834,0.0014467854777834,-0.0014467854777834,0.0014467854777834,-0.0014467854777834,0.0014467854777834,-0.0014467854777834,0.0014467854777833,-0.0013887453144861,0.0013887453144861,-0.0013887453144861,0.0013887453144861,0.37477772250492,0.28029564701839,1270536,32768,0.0058679092842968,0.0058679092842969,0.0058679092842969,33.240499146648,33.230261431062,0.00018112399317318,0.00018112399317318,0.00018112399317318,563933.40646479,0.017759813049483
14342400,0.9988198431683,0.017073145172978,0.0056910483909928,0.0056910483909928,0.0056910483909928,-0.0014117772562682,0.0014117772562682,-1.0676144439351e-17,-7.7644686831644e-18,3.0599065219562e-16,-3.2831349965971e-16,-0.001446177164612,0.0014461771646121,-0.001446177164612,0.0014461771646122,-0.0014461771646122,0.0014461771646119,-0.0014461771646122,0.0014461771646119,-0.0013880241038793,0.0013880241038791,-0.0013880241038793,0.0013880241038791,-2.9104993215377e-16,3.4166603292546e-16,2.0058210764841e-17,2.4911003691819e-17,-0.0014117772562682,0.0014117772562682,-0.0014461771646121,0.0014461771646119,-0.0014461771646121,0.0014461771646119,-0.0014461771646119,0.0014461771646121,-0.0014461771646119,0.0014461771646122,-0.0013880241038791,0.0013880241038793,-0.0013880241038791,0.0013880241038793,-0.0013880241038795,0.001388024103879,-0.0013880241038789,0.0013880241038796,-9.5291206566109e-18,-1.2323152947901e-17,-0.0014117772562682,0.0014117772562682,-7.9703447467332e-18,-1.1764346489643e-17,-0.0014461771646121,0.001446177164612,-0.0014461771646121,0.001446177164612,-0.0014461771646121,0.001446177164612,-0.0014461771646121,0.001446177164612,-0.0013880241038792,0.0013880241038792,-0.0013880241038792,0.0013880241038792,0.37697613766621,0.33016534651402,1270536,32768,0.0058651260437468,0.0058651260437469,0.0058651260437469,32.967838884222,32.949677023916,0.00017894271107377,0.00017894271107377,0.00017894271107377,571022.46969844,0.017751314659028
14428800,0.99887186469754,0.017073633188015,0.0056912110626715,0.0056912110626716,0.0056912110626716,-0.0014112727543706,0.0014112727543706,-2.0293497694634e-17,-1.7440643670896e-17,2.9693210539859e-16,-3.3819555071101e-16,-0.0014456222826292,0.0014456222826294,-0.0014456222826292,0.0014456222826294,-0.0014456222826294,0.0014456222826292,-0.0014456222826294,0.0014456222826292,-0.0013875759953038,0.0013875759953036,-0.0013875759953038,0.0013875759953036,-2.9975554855611e-16,3.3384274250985e-16,1.2234920349229e-17,1.6587728550397e-17,-0.0014112727543706,0.0014112727543706,-0.0014456222826294,0.0014456222826292,-0.0014456222826294,0.0014456222826292,-0.0014456222826291,0.0014456222826294,-0.0014456222826291,0.0014456222826294,-0.0013875759953036,0.0013875759953038,-0.0013875759953036,0.0013875759953038,-0.001387575995304,0.0013875759953035,-0.0013875759953034,0.0013875759953041,-9.0291359308011e-18,-1.1352594362506e-17,-0.0014112727543706,0.0014112727543706,-8.7644381347841e-18,-1.2176098616781e-17,-0.0014456222826293,0.0014456222826293,-0.0014456222826293,0.0014456222826293,-0.0014456222826293,0.0014456222826293,-0.0014456222826293,0.0014456222826293,-0.0013875759953037,0.0013875759953037,-0.0013875759953037,0.0013875759953037,0.37732221315654,0.34057045049571,1270536,32768,0.0058630362911551,0.0058630362911552,0.0058630362911552,32.615337253285,32.591717354755,0.00017612269802628,0.00017612269802628,0.00017612269802628,565654.05363107,0.017744934358281
14515200,0.99892062121988,0.017074091772078,0.0056913639240261,0.0056913639240261,0.0056913639240261,-0.0014106730815289,0.0014106730815289,-7.911523014285e-18,-5.1174907229947e-18,3.0781412590151e-16,-3.2596063036179e-16,-0.0014449985607559,0.001444998560756,-0.0014449985607559,0.0014449985607561,-0.0014449985607561,0.0014449985607558,-0.0014449985607561,0.0014449985607558,-0.0013869956869666,0.0013869956869664,-0.0013869956869666,0.0013869956869663,-2.932851579868e-16,3.3851907023948e-16,1.747005453712e-17,2.2587545260115e-17,-0.0014106730815289,0.0014106730815289,-0.001444998560756,0.0014449985607558,-0.001444998560756,0.0014449985607558,-0.0014449985607558,0.001444998560756,-0.0014449985607558,0.0014449985607561,-0.0013869956869664,0.0013869956869666,-0.0013869956869664,0.0013869956869666,-0.0013869956869668,0.0013869956869662,-0.0013869956869662,0.0013869956869668,-1.0440857509558e-17,-1.3146657202176e-17,-0.0014106730815289,0.0014106730815289,-9.7938184526279e-18,-1.3911339724003e-17,-0.0014449985607559,0.0014449985607559,-0.0014449985607559,0.0014449985607559,-0.0014449985607559,0.0014449985607559,-0.0014449985607559,0.0014449985607559,-0.0013869956869665,0.0013869956869665,-0.0013869956869665,0.0013869956869665,0.37829066123826,0.3509755544774,1270536,32768,0.0058605522584357,0.0058605522584358,0.0058605522584358,32.257865570039,32.233757685593,0.00017326292456031,0.00017326292456031,0.00017326292456031,563218.6970774,0.017737350150956
14601600,0.99896635463901,0.017074523721775,0.0056915079072585,0.0056915079072585,0.0056915079072585,-0.0014100698047373,0.0014100698047373,-6.7644992315448e-18,-3.6763582780135e-18,3.1004935173454e-16,-3.246371413817e-16,-0.0014443735232921,0.0014443735232923,-0.0014443735232921,0.0014443735232923,-0.0014443735232923,0.0014443735232921,-0.0014443735232923,0.0014443735232921,-0.0013864078684369,0.0013864078684367,-0.0013864078684369,0.0013864078684367,-3.016966657269e-16,3.3104871021856e-16,1.0499679242006e-17,1.5234828704088e-17,-0.0014100698047373,0.0014100698047373,-0.0014443735232923,0.0014443735232921,-0.0014443735232923,0.0014443735232921,-0.0014443735232921,0.0014443735232923,-0.0014443735232921,0.0014443735232923,-0.0013864078684367,0.0013864078684369,-0.0013864078684367,0.0013864078684369,-0.0013864078684371,0.0013864078684365,-0.0013864078684365,0.0013864078684371,5.1174907229947e-18,2.3528692979286e-18,-0.0014100698047373,0.0014100698047373,5.2351341878912e-18,1.4411324449813e-18,-0.0014443735232922,0.0014443735232922,-0.0014443735232922,0.0014443735232922,-0.0014443735232922,0.0014443735232922,-0.0014443735232922,0.0014443735232922,-0.0013864078684368,0.0013864078684368,-0.0013864078684368,0.0013864078684368,0.37986548773988,0.36138065845909,1270536,32768,0.0058580532796024,0.0058580532796025,0.0058580532796025,31.89993031999,31.875798016432,0.00017039944255992,0.00017039944255992,0.00017039944255992,560723.89465372,0.017729720384537
14688000,0.99900928750438,0.017074931486817,0.0056916438289391,0.0056916438289391,0.0056916438289391,-0.0014094653628591,0.0014094653628591,7.646825218268e-19,4.0292886727028e-18,3.1840203774219e-16,-3.1681385096609e-16,-0.0014437489927181,0.0014437489927183,-0.0014437489927181,0.0014437489927183,-0.0014437489927183,0.0014437489927181,-0.0014437489927183,0.0014437489927181,-0.0013858166474515,0.0013858166474513,-0.0013858166474515,0.0013858166474513,-2.9557920555228e-16,3.376955659852e-16,1.7352411072224e-17,2.0969947617789e-17,-0.0014094653628591,0.0014094653628591,-0.0014437489927182,0.0014437489927181,-0.0014437489927182,0.001443748992718,-0.001443748992718,0.0014437489927182,-0.001443748992718,0.0014437489927183,-0.0013858166474512,0.0013858166474515,-0.0013858166474513,0.0013858166474515,-0.0013858166474517,0.0013858166474511,-0.0013858166474511,0.0013858166474517,-4.646916863409e-18,-7.7350578169403e-18,-0.0014094653628591,0.0014094653628591,-5.0586689905465e-18,-7.2644839573546e-18,-0.0014437489927182,0.0014437489927181,-0.0014437489927182,0.0014437489927181,-0.0014437489927182,0.0014437489927181,-0.0014437489927182,0.0014437489927181,-0.0013858166474514,0.0013858166474513,-0.0013858166474513,0.0013858166474514,0.38197963059437,0.37178576244079,1270536,32768,0.0058555494594854,0.0058555494594854,0.0058555494594854,31.541948953962,31.517838347271,0.0001675355916317,0.0001675355916317,0.0001675355916317,558109.34798186,0.017722075914299
14774400,0.9990496237807,0.017075317197548,0.0056917723991827,0.0056917723991827,0.0056917723991827,-0.0014088596949878,0.0014088596949878,-7.0291970275617e-18,-4.2351647362715e-18,3.1010817346699e-16,-3.2651943682004e-16,-0.001443124850159,0.0014431248501592,-0.001443124850159,0.0014431248501592,-0.0014431248501592,0.001443124850159,-0.0014431248501593,0.001443124850159,-0.0013852225389235,0.0013852225389233,-0.0013852225389235,0.0013852225389233,-2.9893204430183e-16,3.3569562708196e-16,1.6175976423259e-17,1.8793543517205e-17,-0.0014088596949878,0.0014088596949878,-0.0014431248501592,0.001443124850159,-0.0014431248501592,0.001443124850159,-0.001443124850159,0.0014431248501592,-0.001443124850159,0.0014431248501592,-0.0013852225389233,0.0013852225389235,-0.0013852225389233,0.0013852225389235,-0.0013852225389237,0.0013852225389231,-0.0013852225389231,0.0013852225389237,2.470512762825e-18,-1.1764346489643e-19,-0.0014088596949878,0.0014088596949878,2.6763888263938e-18,1.0293803178438e-18,-0.0014431248501591,0.0014431248501591,-0.0014431248501591,0.0014431248501591,-0.0014431248501591,0.0014431248501591,-0.0014431248501591,0.0014431248501591,-0.0013852225389234,0.0013852225389234,-0.0013852225389234,0.0013852225389234,0.38456911852127,0.38219086642248,1270536,32768,0.0058530405477835,0.0058530405477836,0.0058530405477836,31.183962937454,31.159878678109,0.00016467170349963,0.00016467170349963,0.00016467170349963,555382.76329101,0.017714415972734
14860800,0.99908755048167,0.017075682717491,0.0056918942391636,0.0056918942391636,0.0056918942391636,-0.0014082524679049,0.0014082524679049,3.2351952846518e-18,6.2351036395108e-18,3.2269602421091e-16,-3.1431392733704e-16,-0.0014425007539716,0.0014425007539718,-0.0014425007539716,0.0014425007539718,-0.0014425007539718,0.0014425007539716,-0.0014425007539718,0.0014425007539716,-0.0013846255074298,0.0013846255074296,-0.0013846255074298,0.0013846255074296,-2.9922615296407e-16,3.3560739448329e-16,1.3911339724003e-17,1.8146504460274e-17,-0.0014082524679049,0.0014082524679049,-0.0014425007539718,0.0014425007539716,-0.0014425007539718,0.0014425007539716,-0.0014425007539716,0.0014425007539718,-0.0014425007539716,0.0014425007539718,-0.0013846255074296,0.0013846255074298,-0.0013846255074296,0.0013846255074298,-0.00138462550743,0.0013846255074294,-0.0013846255074294,0.0013846255074301,-1.1764346489643e-18,-4.2351647362715e-18,-0.0014082524679049,0.0014082524679049,-9.7055858539555e-19,-4.5292733985126e-18,-0.0014425007539717,0.0014425007539717,-0.0014425007539717,0.0014425007539717,-0.0014425007539717,0.0014425007539717,-0.0014425007539717,0.0014425007539717,-0.0013846255074297,0.0013846255074297,-0.0013846255074297,0.0013846255074297,0.38758033517797,0.39259597040417,1270536,32768,0.005850525165729,0.0058505251657291,0.0058505251657291,30.825976456966,30.801919008948,0.00016180781165573,0.00016180781165573,0.00016180781165573,552561.21217885,0.017706736346881
14947200,0.99912310611959,0.017076028394032,0.0056920094646774,0.0056920094646774,0.0056920094646774,-0.0014075151012315,0.0014075151012315,-9.5291206566109e-18,-6.2645145057349e-18,3.0951995614251e-16,-3.2578416516444e-16,-0.0014417498192884,0.0014417498192886,-0.0014417498192884,0.0014417498192886,-0.0014417498192886,0.0014417498192884,-0.0014417498192886,0.0014417498192884,-0.0013838959975037,0.0013838959975035,-0.0013838959975037,0.0013838959975035,-2.9316751452191e-16,3.403719548116e-16,1.8264147925171e-17,2.3528692979286e-17,-0.0014075151012315,0.0014075151012315,-0.0014417498192886,0.0014417498192884,-0.0014417498192886,0.0014417498192884,-0.0014417498192883,0.0014417498192886,-0.0014417498192883,0.0014417498192886,-0.0013838959975035,0.0013838959975037,-0.0013838959975035,0.0013838959975037,-0.0013838959975039,0.0013838959975033,-0.0013838959975033,0.0013838959975039,-1.2587850743918e-17,-1.5499526500105e-17,-0.0014075151012315,0.0014075151012315,-1.1234950897609e-17,-1.5411293901432e-17,-0.0014417498192885,0.0014417498192885,-0.0014417498192885,0.0014417498192885,-0.0014417498192885,0.0014417498192885,-0.0014417498192885,0.0014417498192885,-0.0013838959975036,0.0013838959975036,-0.0013838959975035,0.0013838959975036,0.39096919454233,0.40300107438586,1270536,32768,0.0058474706806213,0.0058474706806214,0.0058474706806214,30.401618037066,30.373290336527,0.00015841294429653,0.00015841294429653,0.00015841294429653,549733.7536338,0.01769741088728
15033600,0.99915614030405,0.017076346807935,0.0056921156026449,0.0056921156026449,0.0056921156026449,-0.0014064374036373,0.0014064374036373,-9.9996945161966e-18,-6.6174449004242e-18,3.0775530416906e-16,-3.2575475429822e-16,-0.0014406630684718,0.001440663068472,-0.0014406630684718,0.001440663068472,-0.001440663068472,0.0014406630684718,-0.001440663068472,0.0014406630684718,-0.0013828230370402,0.00138282303704,-0.0013828230370402,0.00138282303704,-2.8805002379891e-16,3.4419536742073e-16,2.2616956126339e-17,2.9763796618797e-17,-0.0014064374036373,0.0014064374036374,-0.001440663068472,0.0014406630684718,-0.001440663068472,0.0014406630684718,-0.0014406630684717,0.001440663068472,-0.0014406630684717,0.001440663068472,-0.00138282303704,0.0013828230370402,-0.00138282303704,0.0013828230370402,-0.0013828230370403,0.0013828230370398,-0.0013828230370398,0.0013828230370404,5.2939559203394e-19,-2.9410866224108e-18,-0.0014064374036374,0.0014064374036374,1.8528845721188e-18,-4.8233820607537e-18,-0.0014406630684719,0.0014406630684719,-0.0014406630684719,0.0014406630684719,-0.0014406630684719,0.0014406630684719,-0.0014406630684719,0.0014406630684719,-0.0013828230370401,0.0013828230370401,-0.0013828230370401,0.0013828230370401,0.38760205030044,0.37427876945462,1270536,32768,0.0058430063893295,0.0058430063893296,0.0058430063893296,29.802513241535,29.762787601846,0.00015362010593228,0.00015362010593228,0.00015362010593228,546969.3020072,0.017683781355846
15120000,0.99918684937735,0.017076634053456,0.0056922113511519,0.005692211351152,0.005692211351152,-0.0014052088982952,0.0014052088982952,-8.3232751414225e-18,-4.7057385958572e-18,3.0928466921272e-16,-3.2272543507713e-16,-0.0014394657009161,0.0014394657009163,-0.0014394657009161,0.0014394657009163,-0.0014394657009163,0.0014394657009161,-0.0014394657009163,0.0014394657009161,-0.0013815628196311,0.0013815628196309,-0.0013815628196311,0.0013815628196308,-2.9140286254846e-16,3.3863671370438e-16,1.6175976423259e-17,2.4646305895802e-17,-0.0014052088982952,0.0014052088982953,-0.0014394657009162,0.0014394657009161,-0.0014394657009162,0.0014394657009161,-0.001439465700916,0.0014394657009162,-0.001439465700916,0.0014394657009163,-0.0013815628196309,0.0013815628196311,-0.0013815628196309,0.0013815628196311,-0.0013815628196313,0.0013815628196307,-0.0013815628196307,0.0013815628196313,-4.646916863409e-18,-7.8821121480609e-18,-0.0014052088982953,0.0014052088982952,-2.6469779601697e-18,-9.9996945161966e-18,-0.0014394657009162,0.0014394657009162,-0.0014394657009162,0.0014394657009162,-0.0014394657009162,0.0014394657009162,-0.0014394657009162,0.0014394657009161,-0.001381562819631,0.0013815628196309,-0.0013815628196309,0.001381562819631,0.3761091956157,0.31554913324883,1270536,32768,0.0058379173959177,0.0058379173959178,0.0058379173959178,29.192994101149,29.152284867166,0.00014874395280919,0.00014874395280919,0.00014874395280919,548994.47618666,0.017668244437397
15206400,0.99921542807358,0.017076889954665,0.005692296651555,0.005692296651555,0.005692296651555,-0.0014038443626621,0.0014038443626621,-8.0879882116296e-18,-4.1175212713751e-18,3.0893173881803e-16,-3.2163723302684e-16,-0.0014381753705544,0.0014381753705546,-0.0014381753705544,0.0014381753705546,-0.0014381753705546,0.0014381753705544,-0.0014381753705546,0.0014381753705544,-0.0013801341492436,0.0013801341492434,-0.0013801341492436,0.0013801341492434,-2.9681446193369e-16,3.3204867967018e-16,1.138200522873e-17,1.8381791390067e-17,-0.0014038443626621,0.0014038443626621,-0.0014381753705546,0.0014381753705544,-0.0014381753705546,0.0014381753705544,-0.0014381753705543,0.0014381753705546,-0.0014381753705544,0.0014381753705546,-0.0013801341492434,0.0013801341492436,-0.0013801341492434,0.0013801341492436,-0.0013801341492438,0.0013801341492433,-0.0013801341492433,0.0013801341492439,-6.7939100977689e-18,-1.0587911840679e-17,-0.0014038443626621,0.0014038443626621,-5.2645450541153e-18,-1.1587881292298e-17,-0.0014381753705545,0.0014381753705545,-0.0014381753705545,0.0014381753705545,-0.0014381753705545,0.0014381753705545,-0.0014381753705545,0.0014381753705545,-0.0013801341492435,0.0013801341492435,-0.0013801341492435,0.0013801341492435,0.36004014259886,0.25467942007145,1270536,32768,0.0058322649262833,0.0058322649262834,0.0058322649262833,28.582518076391,28.541782132486,0.00014386014461112,0.00014386014461112,0.00014386014461112,556380.14602202,0.017650987141442
15292800,0.99924205343674,0.017077148170525,0.0056923827235082,0.0056923827235082,0.0056923827235082,-0.00140242688182,0.00140242688182,-1.5293650436536e-18,2.1469932343599e-18,3.1546095111978e-16,-3.1849027034086e-16,-0.0014368448659617,0.0014368448659619,-0.0014368448659617,0.0014368448659619,-0.0014368448659619,0.0014368448659617,-0.0014368448659619,0.0014368448659617,-0.0013786499725138,0.0013786499725136,-0.0013786499725139,0.0013786499725136,-3.0851998669089e-16,3.2384304799365e-16,-4.9998472580983e-19,1.0764377038023e-17,-0.00140242688182,0.00140242688182,-0.0014368448659619,0.0014368448659616,-0.0014368448659619,0.0014368448659617,-0.0014368448659616,0.0014368448659618,-0.0014368448659616,0.0014368448659619,-0.0013786499725137,0.0013786499725139,-0.0013786499725137,0.0013786499725139,-0.001378649972514,0.0013786499725135,-0.0013786499725135,0.0013786499725141,-3.2940170171001e-18,-7.2056622249064e-18,-0.00140242688182,0.00140242688182,1.3234889800848e-18,-9.3820663254903e-18,-0.0014368448659618,0.0014368448659617,-0.0014368448659618,0.0014368448659618,-0.0014368448659618,0.0014368448659618,-0.0014368448659618,0.0014368448659618,-0.0013786499725138,0.0013786499725138,-0.0013786499725137,0.0013786499725137,0.39002799219372,0.46598060193548,1270536,32768,0.0058263931611202,0.0058263931611203,0.0058263931611203,27.971947845115,27.931279397805,0.00013897558276092,0.00013897558276092,0.00013897558276092,566313.11083799,0.017633060429733
15379200,0.99926688541549,0.01707740791303,0.0056924693043432,0.0056924693043432,0.0056924693043432,-0.0014019220341396,0.0014019220341396,4.5586842647367e-18,8.5585620712153e-18,3.2081372877257e-16,-3.1201987977156e-16,-0.0014361141671411,0.0014361141671413,-0.0014361141671411,0.0014361141671413,-0.0014361141671413,0.0014361141671411,-0.0014361141671413,0.0014361141671411,-0.0013783621165828,0.0013783621165826,-0.0013783621165828,0.0013783621165826,-2.8540304583874e-16,3.451365151399e-16,2.6940353461283e-17,3.8498823887357e-17,-0.0014019220341395,0.0014019220341396,-0.0014361141671412,0.0014361141671411,-0.0014361141671413,0.0014361141671411,-0.001436114167141,0.0014361141671413,-0.001436114167141,0.0014361141671413,-0.0013783621165826,0.0013783621165828,-0.0013783621165826,0.0013783621165828,-0.001378362116583,0.0013783621165824,-0.0013783621165824,0.001378362116583,-9.9702836499725e-18,-1.4234859252468e-17,-0.0014019220341396,0.0014019220341396,-8.5291512049912e-18,-1.9234706510566e-17,-0.0014361141671412,0.0014361141671411,-0.0014361141671412,0.0014361141671412,-0.0014361141671412,0.0014361141671412,-0.0014361141671412,0.0014361141671411,-0.0013783621165827,0.0013783621165827,-0.0013783621165827,0.0013783621165827,0.42073324127692,0.58118402251387,1270536,32768,0.0058243018656483,0.0058243018656484,0.0058243018656484,27.361368225314,27.320776663125,0.00013409094580251,0.00013409094580251,0.00013409094580251,540554.07997831,0.017626677230288
15465600,0.99929006862,0.017077664918402,0.0056925549728008,0.0056925549728008,0.0056925549728008,-0.0014012117376863,0.0014012117376863,-2.4116910303768e-18,9.1173685294734e-19,3.1357865568144e-16,-3.1828439427729e-16,-0.0014352540140902,0.0014352540140904,-0.0014352540140902,0.0014352540140904,-0.0014352540140904,0.0014352540140902,-0.0014352540140904,0.0014352540140902,-0.0013777619136618,0.0013777619136616,-0.0013777619136618,0.0013777619136616,-3.04990682744e-16,3.2569593256577e-16,2.5293344952733e-18,1.0793787904248e-17,-0.0014012117376863,0.0014012117376863,-0.0014352540140904,0.0014352540140902,-0.0014352540140904,0.0014352540140902,-0.0014352540140902,0.0014352540140904,-0.0014352540140902,0.0014352540140904,-0.0013777619136615,0.0013777619136617,-0.0013777619136616,0.0013777619136618,-0.001377761913662,0.0013777619136614,-0.0013777619136614,0.001377761913662,-1.1676113890971e-17,-1.5440704767657e-17,-0.0014012117376863,0.0014012117376863,-9.7055858539555e-18,-1.6175976423259e-17,-0.0014352540140903,0.0014352540140903,-0.0014352540140903,0.0014352540140903,-0.0014352540140903,0.0014352540140903,-0.0014352540140903,0.0014352540140903,-0.0013777619136617,0.0013777619136617,-0.0013777619136617,0.0013777619136617,0.44579681249385,0.63479025455408,1270536,32768,0.0058213593107949,0.0058213593107949,0.0058213593107949,26.75078769955,26.710273928445,0.0001292063015964,0.0001292063015964,0.0001292063015964,521815.75424423,0.017617695183324
15552000,0.99931173397407,0.017077915205186,0.0056926384017286,0.0056926384017286,0.0056926384017286,-0.0014003173069271,0.0014003173069271,9.7055858539555e-19,4.5880951309608e-18,3.1581388151447e-16,-3.1569623804957e-16,-0.001434283545855,0.0014342835458552,-0.001434283545855,0.0014342835458552,-0.0014342835458552,0.001434283545855,-0.0014342835458552,0.001434283545855,-0.0013769052004643,0.001376905200464,-0.0013769052004643,0.0013769052004641,-2.9552038381983e-16,3.3416626203831e-16,1.3146657202176e-17,2.026408682841e-17,-0.0014003173069271,0.0014003173069272,-0.0014342835458552,0.001434283545855,-0.0014342835458552,0.001434283545855,-0.001434283545855,0.0014342835458552,-0.001434283545855,0.0014342835458552,-0.0013769052004641,0.0013769052004643,-0.0013769052004641,0.0013769052004643,-0.0013769052004645,0.0013769052004639,-0.0013769052004639,0.0013769052004645,-1.761710886824e-17,-2.1087591082685e-17,-0.0014003173069272,0.0014003173069271,-1.7646519734465e-17,-2.3822801641527e-17,-0.0014342835458551,0.0014342835458551,-0.0014342835458552,0.0014342835458551,-0.0014342835458551,0.0014342835458551,-0.0014342835458551,0.0014342835458551,-0.0013769052004642,0.0013769052004641,-0.0013769052004642,0.0013769052004641,0.46446913682159,0.65271059529583,1270536,32768,0.0058176539310387,0.0058176539310387,0.0058176539310387,26.140207118985,26.099771193764,0.00012432165695188,0.00012432165695188,0.00012432165695188,509573.75690614,0.017606384165913
15638400,0.99933246246022,0.017078163341697,0.0056927211138991,0.0056927211138992,0.0056927211138992,-0.0014000352212284,0.0014000352212284,-9.1173685294734e-19,2.6469779601697e-18,3.1546095111978e-16,-3.1693149443098e-16,-0.0014339679841178,0.001433967984118,-0.0014339679841178,0.001433967984118,-0.001433967984118,0.0014339679841178,-0.001433967984118,0.0014339679841178,-0.0013766270773424,0.0013766270773422,-0.0013766270773424,0.0013766270773422,-2.918146146756e-16,3.3837201590836e-16,1.8293558791395e-17,2.5293344952733e-17,-0.0014000352212284,0.0014000352212284,-0.001433967984118,0.0014339679841178,-0.001433967984118,0.0014339679841178,-0.0014339679841177,0.001433967984118,-0.0014339679841177,0.001433967984118,-0.0013766270773422,0.0013766270773424,-0.0013766270773422,0.0013766270773424,-0.0013766270773426,0.001376627077342,-0.001376627077342,0.0013766270773427,-3.4116604819965e-18,-6.9409644288894e-18,-0.0014000352212284,0.0014000352212284,-1.64700850855e-18,-7.4409491546992e-18,-0.0014339679841179,0.0014339679841179,-0.0014339679841179,0.0014339679841179,-0.0014339679841179,0.0014339679841179,-0.0014339679841179,0.0014339679841178,-0.0013766270773423,0.0013766270773423,-0.0013766270773423,0.0013766270773423,0.48114874870943,0.67063093603758,1270536,32768,0.0058164852353195,0.0058164852353196,0.0058164852353196,25.914201466228,25.898385522375,0.00012251361172983,0.00012251361172983,0.00012251361172983,501533.22704984,0.017602816806034
15724800,0.99935236016089,0.017078419131224,0.0056928063770748,0.0056928063770748,0.0056928063770748,-0.0013998141677332,0.0013998141677332,-5.1763124554429e-18,-1.64700850855e-18,3.1063756905903e-16,-3.2151958956195e-16,-0.0014337374274971,0.0014337374274973,-0.0014337374274971,0.0014337374274973,-0.0014337374274973,0.0014337374274971,-0.0014337374274973,0.0014337374274971,-0.0013763999764829,0.0013763999764827,-0.0013763999764829,0.0013763999764827,-2.9234401026763e-16,3.378132094501e-16,1.7705341466913e-17,2.4587484163354e-17,-0.0013998141677332,0.0013998141677332,-0.0014337374274973,0.0014337374274971,-0.0014337374274973,0.0014337374274971,-0.0014337374274971,0.0014337374274973,-0.0014337374274971,0.0014337374274973,-0.0013763999764827,0.0013763999764829,-0.0013763999764827,0.0013763999764829,-0.0013763999764831,0.0013763999764826,-0.0013763999764825,0.0013763999764832,-5.5586537163563e-18,-9.293833726818e-18,-0.0013998141677332,0.0013998141677332,-4.1469321375992e-18,-1.0146748847317e-17,-0.0014337374274972,0.0014337374274972,-0.0014337374274972,0.0014337374274972,-0.0014337374274972,0.0014337374274972,-0.0014337374274972,0.0014337374274972,-0.0013763999764828,0.0013763999764828,-0.0013763999764828,0.0013763999764828,0.51663374314828,0.79804980302726,1270536,32768,0.0058155693694507,0.0058155693694508,0.0058155693694508,25.737782411439,25.725959239622,0.00012110225929151,0.00012110225929151,0.00012110225929151,494969.84883298,0.017600021333613
15811200,0.99937147022505,0.017078678237467,0.0056928927458222,0.0056928927458223,0.0056928927458223,-0.0013998450426387,0.0013998450426387,-3.2057844184277e-18,2.3528692979286e-19,3.1204929063778e-16,-3.190196659329e-16,-0.0014336770558786,0.0014336770558788,-0.0014336770558787,0.0014336770558789,-0.0014336770558788,0.0014336770558786,-0.0014336770558789,0.0014336770558786,-0.0013765046694224,0.0013765046694221,-0.0013765046694224,0.0013765046694222,-2.8893234978563e-16,3.403719548116e-16,1.9587636905256e-17,2.7469749053317e-17,-0.0013998450426387,0.0013998450426388,-0.0014336770558788,0.0014336770558786,-0.0014336770558788,0.0014336770558786,-0.0014336770558786,0.0014336770558788,-0.0014336770558786,0.0014336770558789,-0.0013765046694222,0.0013765046694224,-0.0013765046694222,0.0013765046694224,-0.0013765046694226,0.001376504669422,-0.001376504669422,0.0013765046694226,-1.0176159713541e-17,-1.3940750590227e-17,-0.0013998450426387,0.0013998450426387,-8.8232598672323e-18,-1.5852456894794e-17,-0.0014336770558787,0.0014336770558787,-0.0014336770558787,0.0014336770558787,-0.0014336770558787,0.0014336770558787,-0.0014336770558787,0.0014336770558787,-0.0013765046694223,0.0013765046694223,-0.0013765046694223,0.0013765046694223,0.54485477905654,0.84262532356392,1270536,32768,0.005815697109091,0.005815697109091,0.005815697109091,25.564971973742,25.553532956869,0.00011971977578993,0.00011971977578993,0.00011971977578993,479136.20429081,0.017600412325142
15897600,0.99938982960014,0.017078934768658,0.0056929782562194,0.0056929782562195,0.0056929782562195,-0.0013997125529572,0.0013997125529572,-6.3233362381831e-18,-2.6763888263938e-18,3.0904938228292e-16,-3.2204898515398e-16,-0.0014335134506066,0.0014335134506068,-0.0014335134506067,0.0014335134506068,-0.0014335134506068,0.0014335134506066,-0.0014335134506069,0.0014335134506066,-0.0013763830235113,0.0013763830235111,-0.0013763830235113,0.0013763830235111,-2.9093228868887e-16,3.3825437244346e-16,1.7117124142431e-17,2.570509707987e-17,-0.0013997125529572,0.0013997125529573,-0.0014335134506068,0.0014335134506066,-0.0014335134506068,0.0014335134506066,-0.0014335134506066,0.0014335134506068,-0.0014335134506066,0.0014335134506068,-0.0013763830235111,0.0013763830235113,-0.0013763830235111,0.0013763830235114,-0.0013763830235115,0.001376383023511,-0.0013763830235109,0.0013763830235116,-2.7057996926179e-18,-6.5880340342001e-18,-0.0013997125529572,0.0013997125529572,-7.0586078937858e-19,-8.4997403387671e-18,-0.0014335134506067,0.0014335134506067,-0.0014335134506067,0.0014335134506067,-0.0014335134506067,0.0014335134506067,-0.0014335134506067,0.0014335134506067,-0.0013763830235112,0.0013763830235112,-0.0013763830235112,0.0013763830235112,0.56140722017266,0.82628061128145,1270536,32768,0.0058151480666551,0.0058151480666551,0.0058151480666551,25.392502263321,25.381106674116,0.00011834001810657,0.00011834001810657,0.00011834001810657,468915.0270474,0.017598736983037
15984000,0.99940747294125,0.017079186558725,0.0056930621862416,0.0056930621862417,0.0056930621862417,-0.0013994169161528,0.0013994169161528,-6.7350883653207e-18,-3.1763735522036e-18,3.0869645188823e-16,-3.2201957428775e-16,-0.0014332468281682,0.0014332468281683,-0.0014332468281682,0.0014332468281684,-0.0014332468281684,0.0014332468281682,-0.0014332468281684,0.0014332468281681,-0.0013760493800734,0.0013760493800732,-0.0013760493800734,0.0013760493800732,-2.8910881498298e-16,3.3998961355068e-16,1.9411171707911e-17,2.7469749053317e-17,-0.0013994169161528,0.0013994169161529,-0.0014332468281683,0.0014332468281681,-0.0014332468281683,0.0014332468281681,-0.0014332468281681,0.0014332468281683,-0.0014332468281681,0.0014332468281684,-0.0013760493800732,0.0013760493800734,-0.0013760493800732,0.0013760493800734,-0.0013760493800736,0.001376049380073,-0.001376049380073,0.0013760493800736,-4.8822037932019e-18,-8.73502726856e-18,-0.0013994169161529,0.0013994169161528,-2.7646214250661e-18,-9.6467641215073e-18,-0.0014332468281683,0.0014332468281682,-0.0014332468281683,0.0014332468281682,-0.0014332468281682,0.0014332468281682,-0.0014332468281683,0.0014332468281682,-0.0013760493800733,0.0013760493800733,-0.0013760493800733,0.0013760493800733,0.57333206933823,0.80993589899898,1270536,32768,0.0058139232142433,0.0058139232142434,0.0058139232142434,25.220066078545,25.208680391364,0.00011696052862836,0.00011696052862836,0.00011696052862836,464447.94880509,0.017594998174626
16070400,0.99942443306368,0.017079432332459,0.0056931441108198,0.0056931441108198,0.0056931441108198,-0.0013990781371754,0.0013990781371754,-4.1469321375992e-18,-3.2351952846518e-19,3.1128460811596e-16,-3.1993140278584e-16,-0.0014329513589976,0.0014329513589978,-0.0014329513589976,0.0014329513589978,-0.0014329513589978,0.0014329513589976,-0.0014329513589978,0.0014329513589976,-0.0013756706933993,0.0013756706933991,-0.0013756706933993,0.0013756706933991,-2.8716769781219e-16,3.4246012631351e-16,2.1587575808495e-17,2.9175579294315e-17,-0.0013990781371754,0.0013990781371754,-0.0014329513589978,0.0014329513589976,-0.0014329513589978,0.0014329513589976,-0.0014329513589975,0.0014329513589978,-0.0014329513589976,0.0014329513589978,-0.0013756706933991,0.0013756706933993,-0.0013756706933991,0.0013756706933993,-0.0013756706933995,0.0013756706933989,-0.0013756706933989,0.0013756706933996,-6.9997861613376e-18,-1.0705555305575e-17,-0.0013990781371754,0.0013990781371754,-4.9998472580983e-18,-1.1558470426074e-17,-0.0014329513589977,0.0014329513589977,-0.0014329513589977,0.0014329513589977,-0.0014329513589977,0.0014329513589977,-0.0014329513589977,0.0014329513589977,-0.0013756706933992,0.0013756706933992,-0.0013756706933992,0.0013756706933992,0.58214308132466,0.79359118671651,1270536,32768,0.005812519698607,0.005812519698607,0.005812519698607,25.047633225662,25.036254108611,0.00011558106580529,0.00011558106580529,0.00011558106580529,461543.75803223,0.017590713790815
16156800,0.99944074107895,0.017079671297172,0.0056932237657241,0.0056932237657241,0.0056932237657241,-0.0013987165624428,0.0013987165624428,-7.646825218268e-19,2.9704974886349e-18,3.1422569473837e-16,-3.1610799017671e-16,-0.0014326373692576,0.0014326373692578,-0.0014326373692576,0.0014326373692578,-0.0014326373692578,0.0014326373692576,-0.0014326373692578,0.0014326373692576,-0.0013752721765245,0.0013752721765243,-0.0013752721765245,0.0013752721765243,-2.901087844346e-16,3.3819555071101e-16,1.7881806664257e-17,2.5763918812318e-17,-0.0013987165624428,0.0013987165624428,-0.0014326373692578,0.0014326373692576,-0.0014326373692578,0.0014326373692576,-0.0014326373692575,0.0014326373692578,-0.0014326373692576,0.0014326373692578,-0.0013752721765243,0.0013752721765245,-0.0013752721765243,0.0013752721765245,-0.0013752721765247,0.0013752721765241,-0.0013752721765241,0.0013752721765248,-5.470421117684e-18,-8.9997250645769e-18,-0.0013987165624428,0.0013987165624428,-3.1763735522036e-18,-1.0146748847317e-17,-0.0014326373692577,0.0014326373692577,-0.0014326373692577,0.0014326373692577,-0.0014326373692577,0.0014326373692577,-0.0014326373692577,0.0014326373692577,-0.0013752721765244,0.0013752721765244,-0.0013752721765244,0.0013752721765244,0.58862440292033,0.77724647443404,1270536,32768,0.0058110217907754,0.0058110217907755,0.0058110217907755,24.87520070541,24.863827825858,0.00011420160564328,0.00011420160564328,0.00011420160564328,459506.26501453,0.017586141150698
16243200,0.99945642649518,0.017079902953209,0.0056933009844031,0.0056933009844032,0.0056933009844032,-0.0013983413549356,0.0013983413549356,-3.7940017429099e-18,1.4705433112054e-19,3.114610733133e-16,-3.1910789853157e-16,-0.0014323097043233,0.0014323097043235,-0.0014323097043233,0.0014323097043235,-0.0014323097043235,0.0014323097043233,-0.0014323097043235,0.0014323097043232,-0.0013748638552489,0.0013748638552487,-0.0013748638552489,0.0013748638552487,-2.9163814947825e-16,3.3734263559051e-16,1.6499495951724e-17,2.4646305895802e-17,-0.0013983413549356,0.0013983413549357,-0.0014323097043234,0.0014323097043232,-0.0014323097043234,0.0014323097043232,-0.0014323097043232,0.0014323097043234,-0.0014323097043232,0.0014323097043235,-0.0013748638552487,0.0013748638552489,-0.0013748638552487,0.0013748638552489,-0.0013748638552491,0.0013748638552485,-0.0013748638552485,0.0013748638552491,-6.1174601746144e-18,-9.9408727837484e-18,-0.0013983413549357,0.0013983413549356,-4.4116299336161e-18,-1.1470237827402e-17,-0.0014323097043234,0.0014323097043233,-0.0014323097043234,0.0014323097043233,-0.0014323097043234,0.0014323097043233,-0.0014323097043234,0.0014323097043233,-0.0013748638552488,0.0013748638552488,-0.0013748638552488,0.0013748638552488,0.59325369209353,0.76090176215158,1270536,32768,0.0058094674382922,0.0058094674382922,0.0058094674382922,24.702768219105,24.691401543106,0.00011282214575284,0.00011282214575284,0.00011282214575284,458038.98034763,0.017581396131554
16329600,0.99947151730854,0.017080126996499,0.0056933756654997,0.0056933756654998,0.0056933756654998,-0.0013979574039881,0.0013979574039881,-6.3233362381831e-18,-2.4411018966009e-18,3.0951995614251e-16,-3.2196075255531e-16,-0.0014319712378467,0.0014319712378469,-0.0014319712378467,0.0014319712378469,-0.0014319712378469,0.0014319712378467,-0.0014319712378469,0.0014319712378467,-0.0013744504737072,0.001374450473707,-0.0013744504737072,0.001374450473707,-2.9310869278946e-16,3.3631325527267e-16,1.5793635162346e-17,2.30581191197e-17,-0.0013979574039881,0.0013979574039882,-0.0014319712378469,0.0014319712378467,-0.0014319712378469,0.0014319712378467,-0.0014319712378467,0.0014319712378469,-0.0014319712378467,0.0014319712378469,-0.001374450473707,0.0013744504737072,-0.001374450473707,0.0013744504737072,-0.0013744504737074,0.0013744504737069,-0.0013744504737068,0.0013744504737075,-4.7645603283054e-18,-8.5879729374394e-18,-0.0013979574039882,0.0013979574039881,-3.1469626859795e-18,-9.5879423890591e-18,-0.0014319712378468,0.0014319712378468,-0.0014319712378468,0.0014319712378468,-0.0014319712378468,0.0014319712378468,-0.0014319712378468,0.0014319712378468,-0.0013744504737071,0.0013744504737071,-0.0013744504737071,0.0013744504737071,0.59635258854611,0.74455704986911,1270536,32768,0.0058078768879622,0.0058078768879622,0.0058078768879622,24.530335736992,24.518975260353,0.00011144268589594,0.00011144268589594,0.00011144268589594,456989.99844682,0.017576540563047
16416000,0.99948608944088,0.017080330506625,0.0056934435022084,0.0056934435022085,0.0056934435022085,-0.0013976769396104,0.0013976769396104,-6.3527471044073e-18,-2.5587453614974e-18,3.0993170826965e-16,-3.2240191554867e-16,-0.0014317321354747,0.0014317321354748,-0.0014317321354747,0.0014317321354748,-0.0014317321354749,0.0014317321354746,-0.0014317321354749,0.0014317321354746,-0.0013741444945265,0.0013741444945263,-0.0013741444945265,0.0013741444945263,-2.9246165373253e-16,3.3798967464745e-16,1.6646550282845e-17,2.3969855972648e-17,-0.0013976769396104,0.0013976769396105,-0.0014317321354748,0.0014317321354746,-0.0014317321354748,0.0014317321354746,-0.0014317321354746,0.0014317321354748,-0.0014317321354746,0.0014317321354749,-0.0013741444945263,0.0013741444945265,-0.0013741444945263,0.0013741444945265,-0.0013741444945267,0.0013741444945261,-0.0013741444945261,0.0013741444945268,-4.6763277296331e-18,-8.2938642751984e-18,-0.0013976769396105,0.0013976769396104,-2.8822648899626e-18,-9.0879576632493e-18,-0.0014317321354747,0.0014317321354747,-0.0014317321354747,0.0014317321354747,-0.0014317321354747,0.0014317321354747,-0.0014317321354747,0.0014317321354747,-0.0013741444945264,0.0013741444945264,-0.0013741444945264,0.0013741444945264,0.56094335060752,0.52307539463863,1270536,32768,0.0058067150560797,0.0058067150560797,0.0058067150560797,24.415100585428,24.407384604394,0.00011052080468343,0.00011052080468343,0.00011052080468343,456228.15956805,0.017572993697314
16502400,0.99950016835242,0.01708053621353,0.0056935120711766,0.0056935120711766,0.0056935120711766,-0.0013968776622498,0.0013968776622497,-6.0880493083903e-18,-2.4999236290492e-18,3.1140225158085e-16,-3.2113724830103e-16,-0.0014311606459145,0.0014311606459147,-0.0014311606459145,0.0014311606459147,-0.0014311606459147,0.0014311606459145,-0.0014311606459148,0.0014311606459145,-0.0013731512647734,0.0013731512647731,-0.0013731512647734,0.0013731512647731,-2.9852029217469e-16,3.3204867967018e-16,1.1146718298937e-17,1.8352380523843e-17,-0.0013968776622498,0.0013968776622498,-0.0014311606459147,0.0014311606459145,-0.0014311606459147,0.0014311606459145,-0.0014311606459145,0.0014311606459147,-0.0014311606459145,0.0014311606459148,-0.0013731512647731,0.0013731512647733,-0.0013731512647731,0.0013731512647733,-0.0013731512647736,0.001373151264773,-0.001373151264773,0.0013731512647736,-9.9408727837484e-18,-1.3558409329314e-17,-0.0013968776622498,0.0013968776622498,-7.3527165560269e-18,-1.3470176730641e-17,-0.0014311606459146,0.0014311606459146,-0.0014311606459146,0.0014311606459146,-0.0014311606459146,0.0014311606459146,-0.0014311606459146,0.0014311606459146,-0.0013731512647732,0.0013731512647732,-0.0013731512647733,0.0013731512647732,0.58687342824665,0.73248561102731,1270536,32768,0.0058034040465964,0.0058034040465965,0.0058034040465965,24.305838468714,24.298625293851,0.00010964670774971,0.00010964670774971,0.00010964670774971,474506.67337547,0.017562884938595
16588800,0.99951377350678,0.01708074846419,0.0056935828213966,0.0056935828213966,0.0056935828213966,-0.0013970781615992,0.0013970781615992,-6.3527471044073e-18,-2.9116757561867e-18,3.1028463866434e-16,-3.2254896987979e-16,-0.0014312189225578,0.0014312189225579,-0.0014312189225578,0.001431218922558,-0.001431218922558,0.0014312189225578,-0.001431218922558,0.0014312189225577,-0.0013735174902226,0.0013735174902224,-0.0013735174902226,0.0013735174902224,-2.9052053656174e-16,3.4028372221293e-16,1.9469993440359e-17,2.6087438340784e-17,-0.0013970781615992,0.0013970781615993,-0.0014312189225579,0.0014312189225578,-0.001431218922558,0.0014312189225578,-0.0014312189225577,0.001431218922558,-0.0014312189225577,0.001431218922558,-0.0013735174902224,0.0013735174902226,-0.0013735174902224,0.0013735174902226,-0.0013735174902228,0.0013735174902222,-0.0013735174902222,0.0013735174902228,-9.1467793956975e-18,-1.2558439877694e-17,-0.0013970781615993,0.0013970781615992,-7.7056469507162e-18,-1.367605279421e-17,-0.0014312189225579,0.0014312189225578,-0.0014312189225579,0.0014312189225578,-0.0014312189225579,0.0014312189225578,-0.0014312189225579,0.0014312189225578,-0.0013735174902225,0.0013735174902225,-0.0013735174902225,0.0013735174902225,0.62674101721478,0.90536956812686,1270536,32768,0.0058042347804016,0.0058042347804017,0.0058042347804017,24.197029140324,24.189865983308,0.00010877623312259,0.00010877623312259,0.00010877623312259,458453.56840922,0.017565421458785
16675200,0.99952692317959,0.01708096156038,0.0056936538534599,0.0056936538534599,0.0056936538534599,-0.0013973026600718,0.0013973026600718,-9.2056011281457e-18,-5.7057080474769e-18,3.0716708684458e-16,-3.2590180862934e-16,-0.0014312921004463,0.0014312921004464,-0.0014312921004463,0.0014312921004464,-0.0014312921004465,0.0014312921004462,-0.0014312921004465,0.0014312921004462,-0.0013738741583205,0.0013738741583202,-0.0013738741583205,0.0013738741583202,-2.8934410191277e-16,3.4181308725658e-16,2.1146412815133e-17,2.7881501180454e-17,-0.0013973026600718,0.0013973026600719,-0.0014312921004464,0.0014312921004462,-0.0014312921004464,0.0014312921004462,-0.0014312921004462,0.0014312921004464,-0.0014312921004462,0.0014312921004465,-0.0013738741583202,0.0013738741583205,-0.0013738741583202,0.0013738741583205,-0.0013738741583206,0.0013738741583201,-0.00137387415832,0.0013738741583207,-3.4410713482206e-18,-7.0291970275617e-18,-0.0013973026600719,0.0013973026600718,-1.6764193747741e-18,-7.4115382884751e-18,-0.0014312921004464,0.0014312921004463,-0.0014312921004464,0.0014312921004463,-0.0014312921004463,0.0014312921004463,-0.0014312921004463,0.0014312921004463,-0.0013738741583203,0.0013738741583203,-0.0013738741583203,0.0013738741583203,0.650942432955,0.93026865924923,1270536,32768,0.0058051647322064,0.0058051647322064,0.0058051647322064,24.088262692149,24.081106672765,0.00010790610153719,0.00010790610153719,0.00010790610153719,440984.83172792,0.017568261221613
16761600,0.99953963483209,0.01708117211031,0.00569372403677,0.0056937240367701,0.0056937240367701,-0.0013972383950728,0.0013972383950728,-4.646916863409e-18,-9.7055858539555e-19,3.1181400370799e-16,-3.2125489176593e-16,-0.0014311886650924,0.0014311886650926,-0.0014311886650924,0.0014311886650926,-0.0014311886650926,0.0014311886650924,-0.0014311886650926,0.0014311886650924,-0.0013738238253887,0.0013738238253885,-0.0013738238253887,0.0013738238253885,-2.9022642789949e-16,3.409895830023e-16,1.9969978166169e-17,2.6646244799042e-17,-0.0013972383950728,0.0013972383950729,-0.0014311886650926,0.0014311886650924,-0.0014311886650926,0.0014311886650924,-0.0014311886650923,0.0014311886650926,-0.0014311886650924,0.0014311886650926,-0.0013738238253885,0.0013738238253887,-0.0013738238253885,0.0013738238253887,-0.0013738238253889,0.0013738238253883,-0.0013738238253883,0.001373823825389,-4.7351494620813e-18,-8.4409186063189e-18,-0.0013972383950728,0.0013972383950728,-3.2351952846518e-18,-8.9703141983528e-18,-0.0014311886650925,0.0014311886650925,-0.0014311886650925,0.0014311886650925,-0.0014311886650925,0.0014311886650925,-0.0014311886650925,0.0014311886650925,-0.0013738238253886,0.0013738238253886,-0.0013738238253886,0.0013738238253886,0.66522380652023,0.91509256745446,1270536,32768,0.0058048983804337,0.0058048983804338,0.0058048983804338,23.979500453808,23.972347362222,0.00010703600363047,0.00010703600363047,0.00010703600363047,433035.58592743,0.017567448605117
16848000,0.99955192517855,0.017081378789857,0.0056937929299523,0.0056937929299524,0.0056937929299524,-0.001397047443853,0.001397047443853,-6.4998014355278e-18,-2.8528540237384e-18,3.1051992559413e-16,-3.2322541980294e-16,-0.0014310103492439,0.0014310103492441,-0.0014310103492439,0.0014310103492441,-0.0014310103492441,0.0014310103492439,-0.0014310103492441,0.0014310103492439,-0.0013736074649438,0.0013736074649436,-0.0013736074649439,0.0013736074649436,-2.9028524963194e-16,3.4169544379168e-16,2.0352319427083e-17,2.7116818658627e-17,-0.001397047443853,0.001397047443853,-0.0014310103492441,0.0014310103492439,-0.0014310103492441,0.0014310103492439,-0.0014310103492438,0.0014310103492441,-0.0014310103492438,0.0014310103492441,-0.0013736074649436,0.0013736074649439,-0.0013736074649436,0.0013736074649439,-0.001373607464944,0.0013736074649435,-0.0013736074649434,0.0013736074649441,-4.7057385958572e-18,-8.1468099440778e-18,-0.001397047443853,0.001397047443853,-3.2940170171001e-18,-9.2056011281457e-18,-0.001431010349244,0.001431010349244,-0.001431010349244,0.001431010349244,-0.001431010349244,0.001431010349244,-0.001431010349244,0.001431010349244,-0.0013736074649437,0.0013736074649437,-0.0013736074649437,0.0013736074649437,0.67532882741139,0.89991647565968,1270536,32768,0.0058041072503002,0.0058041072503002,0.0058041072503002,23.870738632571,23.86358805168,0.00010616590906057,0.00010616590906057,0.00010616590906057,429317.54288374,0.017565033726828
16934400,0.99956381022395,0.017081580840274,0.0056938602800913,0.0056938602800914,0.0056938602800914,-0.0013968198694655,0.0013968198694655,-5.2057233216671e-18,-1.8234737058947e-18,3.1240222103247e-16,-3.221960394851e-16,-0.0014308098494801,0.0014308098494803,-0.0014308098494801,0.0014308098494803,-0.0014308098494803,0.0014308098494801,-0.0014308098494803,0.0014308098494801,-0.00137335123984,0.0013733512398398,-0.0013733512398401,0.0013733512398398,-2.9252047546497e-16,3.3987197008579e-16,1.7940628396706e-17,2.4734538494475e-17,-0.0013968198694655,0.0013968198694655,-0.0014308098494803,0.0014308098494801,-0.0014308098494803,0.0014308098494801,-0.00143080984948,0.0014308098494803,-0.0014308098494801,0.0014308098494803,-0.0013733512398398,0.0013733512398401,-0.0013733512398398,0.0013733512398401,-0.0013733512398402,0.0013733512398397,-0.0013733512398396,0.0013733512398403,-7.6762360844921e-18,-1.1264361763833e-17,-0.0013968198694655,0.0013968198694655,-6.2645145057349e-18,-1.2205509483005e-17,-0.0014308098494802,0.0014308098494802,-0.0014308098494802,0.0014308098494802,-0.0014308098494802,0.0014308098494802,-0.0014308098494802,0.0014308098494802,-0.0013733512398399,0.0013733512398399,-0.0013733512398399,0.0013733512398399,0.68269027242777,0.88474038386491,1270536,32768,0.0058031644471565,0.0058031644471565,0.0058031644471565,23.761976852933,23.754828741137,0.00010529581482346,0.00010529581482346,0.00010529581482346,426870.10828704,0.017562155715332
17020800,0.99957530529702,0.017081775059042,0.0056939250196807,0.0056939250196808,0.0056939250196808,-0.0013965734875718,0.0013965734875718,-4.9410255256501e-18,-1.2940781138607e-18,3.1222575583513e-16,-3.2204898515398e-16,-0.001430595719966,0.0014305957199662,-0.001430595719966,0.0014305957199662,-0.0014305957199662,0.001430595719966,-0.0014305957199662,0.001430595719966,-0.0013730777010964,0.0013730777010962,-0.0013730777010964,0.0013730777010962,-2.9199107987294e-16,3.402543113467e-16,1.8764132650981e-17,2.555804274875e-17,-0.0013965734875718,0.0013965734875718,-0.0014305957199662,0.001430595719966,-0.0014305957199662,0.001430595719966,-0.0014305957199659,0.0014305957199662,-0.0014305957199659,0.0014305957199662,-0.0013730777010962,0.0013730777010964,-0.0013730777010962,0.0013730777010965,-0.0013730777010966,0.0013730777010961,-0.001373077701096,0.0013730777010967,-8.8526707334564e-18,-1.2176098616781e-17,-0.0013965734875718,0.0013965734875718,-7.2644839573546e-18,-1.31760680684e-17,-0.0014305957199661,0.0014305957199661,-0.0014305957199661,0.0014305957199661,-0.0014305957199661,0.0014305957199661,-0.0014305957199661,0.001430595719966,-0.0013730777010963,0.0013730777010963,-0.0013730777010963,0.0013730777010963,0.67846847249695,0.8168373588107,1270536,32768,0.0058021437623568,0.0058021437623569,0.0058021437623569,23.653215077627,23.646069430594,0.00010442572062102,0.00010442572062102,0.00010442572062102,425115.26407088,0.017559039879622
17107200,0.99958642508141,0.017081962034896,0.0056939873449653,0.0056939873449654,0.0056939873449654,-0.0013962010846817,0.0013962010846817,-3.1469626859795e-18,6.1762819070626e-19,3.1387276434368e-16,-3.2096078310369e-16,-0.001430298304686,0.0014302983046861,-0.001430298304686,0.0014302983046862,-0.0014302983046862,0.001430298304686,-0.0014302983046862,0.001430298304686,-0.001372643292582,0.0013726432925818,-0.0013726432925821,0.0013726432925818,-2.9369691011394e-16,3.3925434189508e-16,1.6646550282845e-17,2.3616925577958e-17,-0.0013962010846817,0.0013962010846817,-0.0014302983046861,0.0014302983046859,-0.0014302983046861,0.0014302983046859,-0.0014302983046859,0.0014302983046861,-0.0014302983046859,0.0014302983046862,-0.0013726432925818,0.001372643292582,-0.0013726432925818,0.0013726432925821,-0.0013726432925822,0.0013726432925817,-0.0013726432925816,0.0013726432925823,-4.4116299336162e-18,-7.5291817533716e-18,-0.0013962010846817,0.0013962010846817,-2.735210558842e-18,-8.73502726856e-18,-0.0014302983046861,0.001430298304686,-0.0014302983046861,0.001430298304686,-0.0014302983046861,0.001430298304686,-0.0014302983046861,0.001430298304686,-0.0013726432925819,0.0013726432925819,-0.0013726432925819,0.0013726432925819,0.67519680390905,0.78518100685759,1270536,32768,0.005800601054328,0.005800601054328,0.005800601054328,23.544453302955,23.537310120051,0.00010355562642364,0.00010355562642364,0.00010355562642364,427694.45330525,0.01755433019067
17193600,0.99959699111097,0.017082137616371,0.0056940458721236,0.0056940458721236,0.0056940458721236,-0.0013952922171476,0.0013952922171476,-3.4998930806688e-18,3.823412609134e-19,3.1340219048409e-16,-3.2104901570236e-16,-0.0014294504522274,0.0014294504522276,-0.0014294504522274,0.0014294504522276,-0.0014294504522276,0.0014294504522274,-0.0014294504522276,0.0014294504522273,-0.0013716945935854,0.0013716945935852,-0.0013716945935854,0.0013716945935852,-2.8163845496206e-16,3.509892775185e-16,2.849912937116e-17,3.6175365455652e-17,-0.0013952922171476,0.0013952922171477,-0.0014294504522275,0.0014294504522274,-0.0014294504522275,0.0014294504522274,-0.0014294504522273,0.0014294504522276,-0.0014294504522273,0.0014294504522276,-0.0013716945935852,0.0013716945935854,-0.0013716945935852,0.0013716945935854,-0.0013716945935856,0.0013716945935851,-0.001371694593585,0.0013716945935857,-9.0879576632493e-18,-1.2470207279022e-17,-0.0013952922171476,0.0013952922171476,-6.7644992315448e-18,-1.4058394055123e-17,-0.0014294504522275,0.0014294504522274,-0.0014294504522275,0.0014294504522274,-0.0014294504522275,0.0014294504522274,-0.0014294504522275,0.0014294504522274,-0.0013716945935853,0.0013716945935853,-0.0013716945935853,0.0013716945935853,0.66737341866259,0.73653500939555,1270536,32768,0.005796836017791,0.005796836017791,0.005796836017791,23.134017043033,23.10775799277,0.00010027213634426,0.00010027213634426,0.00010027213634426,429310.42338204,0.017542836704843
17280000,0.99960702184959,0.017082301275372,0.0056941004251241,0.0056941004251241,0.0056941004251241,-0.0013942945806677,0.0013942945806677,-1.5264239570312e-17,-1.1176129165161e-17,3.0052023107793e-16,-3.3034284942918e-16,-0.001428516093822,0.0014285160938221,-0.001428516093822,0.0014285160938222,-0.0014285160938222,0.0014285160938219,-0.0014285160938222,0.0014285160938219,-0.0013706540063485,0.0013706540063483,-0.0013706540063486,0.0013706540063483,-2.868147674175e-16,3.420777850526e-16,2.176404100584e-17,3.0352013943279e-17,-0.0013942945806677,0.0013942945806677,-0.0014285160938221,0.0014285160938219,-0.0014285160938221,0.0014285160938219,-0.0014285160938219,0.0014285160938221,-0.0014285160938219,0.0014285160938222,-0.0013706540063483,0.0013706540063485,-0.0013706540063483,0.0013706540063485,-0.0013706540063487,0.0013706540063481,-0.0013706540063481,0.0013706540063488,-9.558531522835e-18,-1.3881928857779e-17,-0.0013942945806677,0.0013942945806677,-7.4115382884751e-18,-1.4970130908071e-17,-0.001428516093822,0.001428516093822,-0.001428516093822,0.001428516093822,-0.0014285160938221,0.001428516093822,-0.0014285160938221,0.001428516093822,-0.0013706540063484,0.0013706540063484,-0.0013706540063484,0.0013706540063484,0.65525533296421,0.67931440928827,1270536,32768,0.0057927032767568,0.0057927032767568,0.0057927032767568,22.699109751355,22.670708850427,9.6792878010837e-05,9.6792878010837e-05,9.6792878010837e-05,432268.70821373,0.017530220645775
17366400,0.99961654880755,0.017082453138087,0.0056941510460289,0.005694151046029,0.005694151046029,-0.0013932587481205,0.0013932587481205,-1.7940628396706e-18,2.3822801641527e-18,3.146374468655e-16,-3.173138356919e-16,-0.0014275492657366,0.0014275492657368,-0.0014275492657366,0.0014275492657368,-0.0014275492657368,0.0014275492657366,-0.0014275492657368,0.0014275492657366,-0.0013695714915075,0.0013695714915073,-0.0013695714915075,0.0013695714915073,-2.9681446193369e-16,3.3334275778404e-16,1.2793726807487e-17,2.0587606356875e-17,-0.0013932587481205,0.0013932587481205,-0.0014275492657368,0.0014275492657366,-0.0014275492657368,0.0014275492657366,-0.0014275492657365,0.0014275492657368,-0.0014275492657365,0.0014275492657368,-0.0013695714915073,0.0013695714915075,-0.0013695714915073,0.0013695714915075,-0.0013695714915077,0.0013695714915072,-0.0013695714915071,0.0013695714915078,-4.5880951309608e-18,-8.6762055361118e-18,-0.0013932587481205,0.0013932587481205,-3.2940170171001e-18,-9.9996945161966e-18,-0.0014275492657367,0.0014275492657367,-0.0014275492657367,0.0014275492657367,-0.0014275492657367,0.0014275492657367,-0.0014275492657367,0.0014275492657366,-0.0013695714915074,0.0013695714915074,-0.0013695714915074,0.0013695714915074,0.64018039515228,0.62191897194069,1270536,32768,0.0057884123167241,0.0057884123167242,0.0057884123167242,22.262229141722,22.233659708085,9.3297833133777e-05,9.3297833133777e-05,9.3297833133777e-05,436639.7944296,0.017517121630309
17452800,0.99962560231791,0.017082593560924,0.0056941978536414,0.0056941978536415,0.0056941978536415,-0.0013922065370231,0.0013922065370231,-5.2645450541153e-18,-8.5291512049912e-19,3.1257868622982e-16,-3.2099019396991e-16,-0.0014265655265505,0.0014265655265507,-0.0014265655265505,0.0014265655265507,-0.0014265655265507,0.0014265655265505,-0.0014265655265507,0.0014265655265505,-0.0013684747219849,0.0013684747219847,-0.0013684747219849,0.0013684747219847,-2.9316751452191e-16,3.3881317890172e-16,1.6058332958363e-17,2.3822801641527e-17,-0.0013922065370231,0.0013922065370231,-0.0014265655265507,0.0014265655265505,-0.0014265655265507,0.0014265655265505,-0.0014265655265504,0.0014265655265507,-0.0014265655265504,0.0014265655265507,-0.0013684747219847,0.0013684747219849,-0.0013684747219847,0.0013684747219849,-0.0013684747219851,0.0013684747219845,-0.0013684747219845,0.0013684747219852,-1.2911370272383e-17,-1.7146535008655e-17,-0.0013922065370231,0.0013922065370231,-1.1676113890971e-17,-1.8175915326499e-17,-0.0014265655265506,0.0014265655265506,-0.0014265655265506,0.0014265655265506,-0.0014265655265506,0.0014265655265506,-0.0014265655265506,0.0014265655265506,-0.0013684747219848,0.0013684747219848,-0.0013684747219848,0.0013684747219848,0.62292518927808,0.56601547915426,1270536,32768,0.0057840535154536,0.0057840535154537,0.0057840535154537,21.82516065387,21.796610565742,8.9801285230957e-05,8.9801285230957e-05,8.9801285230957e-05,441908.31133907,0.017503815605328
17539200,0.99963421065101,0.017082723128419,0.0056942410428062,0.0056942410428062,0.0056942410428062,-0.0013911462419957,0.0013911462419957,-5.7057080474769e-18,-9.9996945161966e-19,3.1093167772127e-16,-3.2287248940825e-16,-0.0014255702611183,0.0014255702611184,-0.0014255702611183,0.0014255702611185,-0.0014255702611185,0.0014255702611182,-0.0014255702611185,0.0014255702611182,-0.0013673736209885,0.0013673736209883,-0.0013673736209885,0.0013673736209883,-2.9281458412722e-16,3.3857789197193e-16,1.6852426346414e-17,2.4999236290492e-17,-0.0013911462419957,0.0013911462419958,-0.0014255702611184,0.0014255702611182,-0.0014255702611184,0.0014255702611182,-0.0014255702611182,0.0014255702611184,-0.0014255702611182,0.0014255702611185,-0.0013673736209883,0.0013673736209885,-0.0013673736209883,0.0013673736209886,-0.0013673736209887,0.0013673736209882,-0.0013673736209881,0.0013673736209888,-3.2057844184277e-18,-7.382127422251e-18,-0.0013911462419958,0.0013911462419957,-4.7057385958572e-19,-7.4703600209234e-18,-0.0014255702611183,0.0014255702611183,-0.0014255702611183,0.0014255702611183,-0.0014255702611183,0.0014255702611183,-0.0014255702611183,0.0014255702611183,-0.0013673736209884,0.0013673736209884,-0.0013673736209884,0.0013673736209884,0.6045182206287,0.51484623117264,1270536,32768,0.005779661228894,0.005779661228894,0.005779661228894,21.388073787597,21.359561423399,8.6304590300775e-05,8.6304590300775e-05,8.6304590300775e-05,447847.74358232,0.017490407473311
17625600,0.99964240009324,0.01708284291154,0.0056942809705134,0.0056942809705134,0.0056942809705134,-0.001390090077101,0.001390090077101,-9.4114771917145e-18,-5.2645450541153e-18,3.0763766070417e-16,-3.2551946736842e-16,-0.0014245716113618,0.001424571611362,-0.0014245716113618,0.001424571611362,-0.001424571611362,0.0014245716113618,-0.001424571611362,0.0014245716113618,-0.0013662831891286,0.0013662831891284,-0.0013662831891286,0.0013662831891284,-2.9128521908356e-16,3.4004843528313e-16,1.8675900052308e-17,2.5822740544767e-17,-0.001390090077101,0.0013900900771011,-0.001424571611362,0.0014245716113618,-0.001424571611362,0.0014245716113618,-0.0014245716113617,0.001424571611362,-0.0014245716113617,0.001424571611362,-0.0013662831891284,0.0013662831891286,-0.0013662831891284,0.0013662831891286,-0.0013662831891288,0.0013662831891282,-0.0013662831891282,0.0013662831891289,-7.1174296262341e-18,-1.0999663967816e-17,-0.001390090077101,0.001390090077101,-5.2939559203394e-18,-1.1440826961178e-17,-0.0014245716113619,0.0014245716113619,-0.0014245716113619,0.0014245716113619,-0.0014245716113619,0.0014245716113619,-0.0014245716113619,0.0014245716113619,-0.0013662831891285,0.0013662831891285,-0.0013662831891285,0.0013662831891285,0.58748811654318,0.47920502092113,1270536,32768,0.0057752860503903,0.0057752860503904,0.0057752860503904,20.950985124445,20.922512281056,8.2807880995557e-05,8.2807880995557e-05,8.2807880995557e-05,454070.88088213,0.017477051703424
17712000,0.9996501954092,0.017082953582404,0.0056943178608014,0.0056943178608015,0.0056943178608015,-0.0013890755813835,0.0013890755813835,-3.5881256793411e-18,7.3527165560269e-19,3.1263750796226e-16,-3.1999022451829e-16,-0.0014235949440794,0.0014235949440796,-0.0014235949440794,0.0014235949440796,-0.0014235949440796,0.0014235949440794,-0.0014235949440796,0.0014235949440794,-0.001365250845248,0.0013652508452478,-0.001365250845248,0.0013652508452478,-2.901087844346e-16,3.4060724174139e-16,1.9293528243015e-17,2.5822740544767e-17,-0.0013890755813835,0.0013890755813835,-0.0014235949440795,0.0014235949440794,-0.0014235949440796,0.0014235949440794,-0.0014235949440793,0.0014235949440796,-0.0014235949440793,0.0014235949440796,-0.0013652508452478,0.001365250845248,-0.0013652508452478,0.001365250845248,-0.0013652508452482,0.0013652508452476,-0.0013652508452476,0.0013652508452483,-1.7940628396706e-18,-5.8527623785974e-18,-0.0013890755813835,0.0013890755813835,-1.1176129165161e-18,-6.8527318302171e-18,-0.0014235949440795,0.0014235949440795,-0.0014235949440795,0.0014235949440795,-0.0014235949440795,0.0014235949440795,-0.0014235949440795,0.0014235949440795,-0.0013652508452479,0.0013652508452479,-0.0013652508452479,0.0013652508452479,0.57027813485952,0.44356381066962,1270536,32768,0.0057710834846795,0.0057710834846795,0.0057710834846795,20.514547890647,20.486155652505,7.9316383125175e-05,7.9316383125175e-05,7.9316383125175e-05,459331.58927421,0.017464223041545
17798400,0.99965762661219,0.017083055816773,0.0056943519389244,0.0056943519389245,0.0056943519389245,-0.0013880984596574,0.0013880984596574,-7.3233056898028e-18,-3.2057844184277e-18,3.0869645188823e-16,-3.2369599366253e-16,-0.001422648975871,0.0014226489758712,-0.001422648975871,0.0014226489758712,-0.0014226489758712,0.001422648975871,-0.0014226489758712,0.001422648975871,-0.0013642585531369,0.0013642585531367,-0.001364258553137,0.0013642585531367,-2.9222636680273e-16,3.3804849637989e-16,1.6528906817949e-17,2.3793390775303e-17,-0.0013880984596574,0.0013880984596575,-0.0014226489758712,0.001422648975871,-0.0014226489758712,0.001422648975871,-0.0014226489758709,0.0014226489758712,-0.0014226489758709,0.0014226489758712,-0.0013642585531367,0.001364258553137,-0.0013642585531367,0.001364258553137,-0.0013642585531371,0.0013642585531366,-0.0013642585531365,0.0013642585531372,-9.9114619175243e-18,-1.4293680984916e-17,-0.0013880984596575,0.0013880984596574,-8.4997403387671e-18,-1.5058363506743e-17,-0.0014226489758711,0.0014226489758711,-0.0014226489758711,0.0014226489758711,-0.0014226489758711,0.0014226489758711,-0.0014226489758711,0.001422648975871,-0.0013642585531368,0.0013642585531368,-0.0013642585531368,0.0013642585531368,0.55265296882269,0.40792260041811,1270536,32768,0.0057670357299267,0.0057670357299267,0.0057670357299267,20.094062596151,20.066711756922,7.5952500769208e-05,7.5952500769208e-05,7.5952500769208e-05,464698.64410713,0.017451867077631
17884800,0.99966471451232,0.017083150123256,0.0056943833744186,0.0056943833744186,0.0056943833744186,-0.0013871253152999,0.0013871253152999,-5.999816709718e-18,-1.7058302409982e-18,3.1104932118616e-16,-3.2151958956195e-16,-0.0014217037286544,0.0014217037286545,-0.0014217037286544,0.0014217037286546,-0.0014217037286546,0.0014217037286543,-0.0014217037286546,0.0014217037286543,-0.0013632708975289,0.0013632708975286,-0.0013632708975289,0.0013632708975286,-2.9069700175908e-16,3.4034254394537e-16,1.8764132650981e-17,2.6146260073232e-17,-0.0013871253152999,0.0013871253152999,-0.0014217037286545,0.0014217037286543,-0.0014217037286545,0.0014217037286543,-0.0014217037286543,0.0014217037286545,-0.0014217037286543,0.0014217037286546,-0.0013632708975286,0.0013632708975289,-0.0013632708975286,0.0013632708975289,-0.001363270897529,0.0013632708975285,-0.0013632708975285,0.0013632708975291,-3.3822496157724e-18,-7.4703600209233e-18,-0.0013871253152999,0.0013871253152999,-2.1469932343599e-18,-8.3820968738707e-18,-0.0014217037286544,0.0014217037286544,-0.0014217037286544,0.0014217037286544,-0.0014217037286544,0.0014217037286544,-0.0014217037286544,0.0014217037286544,-0.0013632708975288,0.0013632708975287,-0.0013632708975287,0.0013632708975288,0.53452523417127,0.37228139016661,1270536,32768,0.0057630044335843,0.0057630044335843,0.0057630044335843,19.674516809992,19.647267861338,7.2596134479934e-05,7.2596134479934e-05,7.2596134479934e-05,470347.01514168,0.017439561504753
17971200,0.99967147815047,0.01708323842605,0.0056944128086833,0.0056944128086834,0.0056944128086834,-0.0013861526713907,0.0013861526713907,-6.558623167976e-18,-2.2058149668081e-18,3.1140225158085e-16,-3.2275484594336e-16,-0.0014207566546671,0.0014207566546672,-0.0014207566546671,0.0014207566546673,-0.0014207566546673,0.0014207566546671,-0.0014207566546673,0.001420756654667,-0.0013622841981875,0.0013622841981873,-0.0013622841981876,0.0013622841981873,-2.918146146756e-16,3.4040136567782e-16,1.8970008714549e-17,2.5352166685181e-17,-0.0013861526713907,0.0013861526713908,-0.0014207566546672,0.001420756654667,-0.0014207566546672,0.001420756654667,-0.001420756654667,0.0014207566546672,-0.001420756654667,0.0014207566546673,-0.0013622841981873,0.0013622841981875,-0.0013622841981873,0.0013622841981876,-0.0013622841981877,0.0013622841981872,-0.0013622841981871,0.0013622841981878,-6.3821579706314e-18,-1.0470268375782e-17,-0.0013861526713907,0.0013861526713907,-5.4998319839081e-18,-1.0823198770472e-17,-0.0014207566546672,0.0014207566546671,-0.0014207566546672,0.0014207566546671,-0.0014207566546672,0.0014207566546671,-0.0014207566546672,0.0014207566546671,-0.0013622841981874,0.0013622841981874,-0.0013622841981874,0.0013622841981874,0.52453685717938,0.38445515783111,1270536,32768,0.0057589751941875,0.0057589751941875,0.0057589751941875,19.255063162207,19.227823965754,6.9240505297657e-05,6.9240505297657e-05,6.9240505297657e-05,476331.66761609,0.0174272623537
18057600,0.99967793528262,0.017083322687711,0.0056944408959036,0.0056944408959036,0.0056944408959036,-0.0013853339025425,0.0013853339025425,-5.735118913701e-18,-1.4117215787572e-18,3.1187282544044e-16,-3.2243132641489e-16,-0.00141990882195,0.0014199088219502,-0.00141990882195,0.0014199088219502,-0.0014199088219502,0.00141990882195,-0.0014199088219503,0.00141990882195,-0.0013614985071191,0.0013614985071189,-0.0013614985071191,0.0013614985071189,-2.9146168428091e-16,3.4075429607251e-16,1.9381760841687e-17,2.570509707987e-17,-0.0013853339025425,0.0013853339025426,-0.0014199088219502,0.00141990882195,-0.0014199088219502,0.00141990882195,-0.00141990882195,0.0014199088219502,-0.00141990882195,0.0014199088219503,-0.0013614985071189,0.0013614985071191,-0.0013614985071189,0.0013614985071192,-0.0013614985071193,0.0013614985071188,-0.0013614985071187,0.0013614985071194,-6.3233362381831e-18,-1.0499679242006e-17,-0.0013853339025426,0.0013853339025426,-5.4115993852358e-18,-1.0558500974455e-17,-0.0014199088219501,0.0014199088219501,-0.0014199088219501,0.0014199088219501,-0.0014199088219501,0.0014199088219501,-0.0014199088219501,0.0014199088219501,-0.001361498507119,0.001361498507119,-0.001361498507119,0.001361498507119,0.52434282438387,0.43343334366343,1270536,32768,0.0057555833927438,0.0057555833927439,0.0057555833927439,18.835618315531,18.808380070171,6.5884946524248e-05,6.5884946524248e-05,6.5884946524248e-05,477237.34934339,0.017416909294799
18144000,0.99968410250933,0.017083403481474,0.005694467827158,0.005694467827158,0.005694467827158,-0.0013846608191843,0.0013846608191843,-5.6468863150287e-18,-1.2646672476366e-18,3.1204929063778e-16,-3.2257838074601e-16,-0.0014191583369973,0.0014191583369975,-0.0014191583369973,0.0014191583369975,-0.0014191583369975,0.0014191583369973,-0.0014191583369975,0.0014191583369973,-0.0013608933853437,0.0013608933853435,-0.0013608933853437,0.0013608933853435,-2.9175579294315e-16,3.4090135040363e-16,1.9205295644342e-17,2.5587453614974e-17,-0.0013846608191843,0.0013846608191844,-0.0014191583369974,0.0014191583369973,-0.0014191583369975,0.0014191583369973,-0.0014191583369972,0.0014191583369975,-0.0014191583369972,0.0014191583369975,-0.0013608933853435,0.0013608933853437,-0.0013608933853435,0.0013608933853438,-0.0013608933853439,0.0013608933853434,-0.0013608933853433,0.001360893385344,-6.2645145057349e-18,-1.0617322706903e-17,-0.0013846608191843,0.0013846608191843,-5.3527776527876e-18,-1.0646733573127e-17,-0.0014191583369974,0.0014191583369974,-0.0014191583369974,0.0014191583369974,-0.0014191583369974,0.0014191583369973,-0.0014191583369974,0.0014191583369973,-0.0013608933853436,0.0013608933853436,-0.0013608933853436,0.0013608933853436,0.52641398209298,0.46764876411549,1270536,32768,0.0057527950671721,0.0057527950671722,0.0057527950671722,18.41617432673,18.388936174587,6.2529394613836e-05,6.2529394613836e-05,6.2529394613836e-05,473016.4358928,0.017408398665748
18230400,0.99968999536453,0.017083480765981,0.0056944935886603,0.0056944935886604,0.0056944935886604,-0.001383976668801,0.001383976668801,-5.2645450541153e-18,-9.4114771917145e-19,3.1251986449737e-16,-3.2199016342153e-16,-0.0014184059161438,0.001418405916144,-0.0014184059161438,0.001418405916144,-0.001418405916144,0.0014184059161438,-0.001418405916144,0.0014184059161438,-0.0013602594796804,0.0013602594796802,-0.0013602594796804,0.0013602594796802,-2.9228518853518e-16,3.4016607874803e-16,1.8352380523843e-17,2.4852181959371e-17,-0.001383976668801,0.0013839766688011,-0.001418405916144,0.0014184059161438,-0.001418405916144,0.0014184059161438,-0.0014184059161437,0.001418405916144,-0.0014184059161438,0.001418405916144,-0.0013602594796802,0.0013602594796804,-0.0013602594796802,0.0013602594796804,-0.0013602594796806,0.0013602594796801,-0.00136025947968,0.0013602594796807,-2.9410866224108e-18,-7.1468404924582e-18,-0.0013839766688011,0.001383976668801,-1.8234737058947e-18,-7.3527165560269e-18,-0.0014184059161439,0.0014184059161439,-0.0014184059161439,0.0014184059161439,-0.0014184059161439,0.0014184059161439,-0.0014184059161439,0.0014184059161439,-0.0013602594796803,0.0013602594796803,-0.0013602594796803,0.0013602594796803,0.52697668113137,0.47962916559167,1270536,32768,0.0057499608261756,0.0057499608261756,0.0057499608261756,17.996730421997,17.969492279003,5.9173843375978e-05,5.9173843375978e-05,5.9173843375978e-05,468953.34142242,0.017399748049409
18316800,0.99969563910696,0.017083554920793,0.0056945183069308,0.0056945183069309,0.0056945183069309,-0.0013832942344673,0.0013832942344673,-5.6762971812528e-18,-1.4411324449813e-18,3.1210811237023e-16,-3.2246073728112e-16,-0.0014176798801555,0.0014176798801557,-0.0014176798801555,0.0014176798801557,-0.0014176798801557,0.0014176798801555,-0.0014176798801557,0.0014176798801555,-0.001359601765563,0.0013596017655627,-0.001359601765563,0.0013596017655627,-2.9204990160539e-16,3.4040136567782e-16,1.8822954383429e-17,2.5175701487836e-17,-0.0013832942344673,0.0013832942344674,-0.0014176798801556,0.0014176798801555,-0.0014176798801557,0.0014176798801555,-0.0014176798801554,0.0014176798801557,-0.0014176798801554,0.0014176798801557,-0.0013596017655627,0.001359601765563,-0.0013596017655627,0.001359601765563,-0.0013596017655631,0.0013596017655626,-0.0013596017655625,0.0013596017655632,-5.6468863150287e-18,-9.8820510513002e-18,-0.0013832942344673,0.0013832942344673,-4.6763277296331e-18,-9.823229318852e-18,-0.0014176798801556,0.0014176798801555,-0.0014176798801556,0.0014176798801556,-0.0014176798801556,0.0014176798801555,-0.0014176798801556,0.0014176798801555,-0.0013596017655628,0.0013596017655628,-0.0013596017655628,0.0013596017655628,0.52793783384439,0.49160956706785,1270536,32768,0.0057471336610514,0.0057471336610514,0.0057471336610514,17.607584095351,17.582248155016,5.6060672762811e-05,5.6060672762811e-05,5.6060672762811e-05,466662.09130687,0.017391119036602
18403200,0.99970113881003,0.017083627388893,0.0056945424629642,0.0056945424629643,0.0056945424629643,-0.001383126485173,0.001383126485173,-6.1468710408385e-18,-1.7058302409982e-18,3.1151989504575e-16,-3.2287248940825e-16,-0.0014174698508156,0.0014174698508158,-0.0014174698508157,0.0014174698508158,-0.0014174698508159,0.0014174698508156,-0.0014174698508159,0.0014174698508156,-0.0013594578627287,0.0013594578627284,-0.0013594578627287,0.0013594578627284,-2.9199107987294e-16,3.4057783087517e-16,1.8793543517205e-17,2.5116879755388e-17,-0.001383126485173,0.001383126485173,-0.0014174698508158,0.0014174698508156,-0.0014174698508158,0.0014174698508156,-0.0014174698508156,0.0014174698508158,-0.0014174698508156,0.0014174698508159,-0.0013594578627284,0.0013594578627287,-0.0013594578627284,0.0013594578627287,-0.0013594578627288,0.0013594578627283,-0.0013594578627283,0.0013594578627289,-5.7057080474769e-18,-9.9408727837484e-18,-0.001383126485173,0.001383126485173,-4.7351494620813e-18,-9.9114619175243e-18,-0.0014174698508157,0.0014174698508157,-0.0014174698508157,0.0014174698508157,-0.0014174698508157,0.0014174698508157,-0.0014174698508157,0.0014174698508157,-0.0013594578627285,0.0013594578627285,-0.0013594578627285,0.0013594578627285,0.52944556179733,0.50358996854403,1270536,32768,0.0057464387358525,0.0057464387358526,0.0057464387358526,17.488346827887,17.480018791454,5.5106774623095e-05,5.5106774623095e-05,5.5106774623095e-05,464269.36449024,0.017388997935379
18489600,0.99970650408428,0.017083698363025,0.0056945661210081,0.0056945661210082,0.0056945661210082,-0.0013829860500424,0.0013829860500424,-5.735118913701e-18,-1.4999541774295e-18,3.1187282544044e-16,-3.2266661334469e-16,-0.001417298319712,0.0014172983197122,-0.001417298319712,0.0014172983197122,-0.0014172983197122,0.001417298319712,-0.0014172983197123,0.001417298319712,-0.0013593341272707,0.0013593341272704,-0.0013593341272707,0.0013593341272704,-2.9210872333784e-16,3.4031313307915e-16,1.9146473911894e-17,2.5234523220284e-17,-0.0013829860500424,0.0013829860500425,-0.0014172983197122,0.001417298319712,-0.0014172983197122,0.001417298319712,-0.001417298319712,0.0014172983197122,-0.001417298319712,0.0014172983197123,-0.0013593341272704,0.0013593341272707,-0.0013593341272704,0.0013593341272707,-0.0013593341272708,0.0013593341272703,-0.0013593341272703,0.0013593341272709,-5.8527623785974e-18,-1.0029105382421e-17,-0.0013829860500424,0.0013829860500424,-4.9998472580983e-18,-9.9996945161966e-18,-0.0014172983197121,0.0014172983197121,-0.0014172983197121,0.0014172983197121,-0.0014172983197121,0.0014172983197121,-0.0014172983197121,0.0014172983197121,-0.0013593341272705,0.0013593341272705,-0.0013593341272705,0.0013593341272705,0.53150944183777,0.51557037002021,1270536,32768,0.0057458569376885,0.0057458569376885,0.0057458569376886,17.384590540697,17.377789427893,5.4276724325573e-05,5.4276724325573e-05,5.4276724325573e-05,462094.818242,0.017387222252781
18576000,0.99971173926769,0.017083766001923,0.0056945886673077,0.0056945886673077,0.0056945886673077,-0.0013828468783244,0.0013828468783243,-5.5586537163563e-18,-1.3823107125331e-18,3.1210811237023e-16,-3.221960394851e-16,-0.0014171326279705,0.0014171326279707,-0.0014171326279705,0.0014171326279707,-0.0014171326279707,0.0014171326279705,-0.0014171326279707,0.0014171326279705,-0.0013592090644616,0.0013592090644614,-0.0013592090644616,0.0013592090644614,-2.9199107987294e-16,3.4040136567782e-16,1.9175884778118e-17,2.5234523220284e-17,-0.0013828468783243,0.0013828468783244,-0.0014171326279707,0.0014171326279705,-0.0014171326279707,0.0014171326279705,-0.0014171326279704,0.0014171326279707,-0.0014171326279705,0.0014171326279707,-0.0013592090644614,0.0013592090644616,-0.0013592090644614,0.0013592090644616,-0.0013592090644618,0.0013592090644612,-0.0013592090644612,0.0013592090644619,-5.2645450541153e-18,-9.6467641215073e-18,-0.0013828468783244,0.0013828468783244,-4.4410407998403e-18,-9.4408880579386e-18,-0.0014171326279706,0.0014171326279706,-0.0014171326279706,0.0014171326279706,-0.0014171326279706,0.0014171326279706,-0.0014171326279706,0.0014171326279706,-0.0013592090644615,0.0013592090644615,-0.0013592090644615,0.0013592090644615,0.51911282509141,0.44491818485885,1270536,32768,0.0057452803642168,0.0057452803642169,0.0057452803642169,17.2822145703,17.275560064332,5.34577165624e-05,5.34577165624e-05,5.34577165624e-05,459893.34439801,0.017385462552272
18662400,0.99971684812826,0.017083833638972,0.0056946112129905,0.0056946112129905,0.0056946112129905,-0.0013824720002562,0.0013824720002562,-5.2057233216671e-18,-9.1173685294734e-19,3.1263750796226e-16,-3.2213721775265e-16,-0.0014168133832352,0.0014168133832354,-0.0014168133832352,0.0014168133832354,-0.0014168133832354,0.0014168133832352,-0.0014168133832355,0.0014168133832352,-0.0013587763174584,0.0013587763174582,-0.0013587763174584,0.0013587763174582,-2.9210872333784e-16,3.4046018741027e-16,1.9234706510566e-17,2.4999236290492e-17,-0.0013824720002562,0.0013824720002562,-0.0014168133832354,0.0014168133832352,-0.0014168133832354,0.0014168133832352,-0.0014168133832352,0.0014168133832354,-0.0014168133832352,0.0014168133832355,-0.0013587763174582,0.0013587763174584,-0.0013587763174582,0.0013587763174584,-0.0013587763174586,0.001358776317458,-0.001358776317458,0.0013587763174587,-6.3527471044073e-18,-1.0558500974455e-17,-0.0013824720002562,0.0013824720002562,-5.470421117684e-18,-1.0293803178438e-17,-0.0014168133832353,0.0014168133832353,-0.0014168133832353,0.0014168133832353,-0.0014168133832353,0.0014168133832353,-0.0014168133832353,0.0014168133832353,-0.0013587763174583,0.0013587763174583,-0.0013587763174583,0.0013587763174583,0.53191617332912,0.54534554436908,1270536,32768,0.0057437273256108,0.0057437273256108,0.0057437273256108,17.179970898247,17.17333070077,5.2639767185977e-05,5.2639767185977e-05,5.2639767185977e-05,465966.82384119,0.017380722035542
18748800,0.9997218342714,0.017083902327298,0.0056946341090994,0.0056946341090994,0.0056946341090994,-0.001382535968417,0.001382535968417,-6.2056927732867e-18,-1.9411171707911e-18,3.1163753851064e-16,-3.230489546056e-16,-0.0014167840587086,0.0014167840587088,-0.0014167840587086,0.0014167840587088,-0.0014167840587088,0.0014167840587086,-0.0014167840587088,0.0014167840587086,-0.0013589264089505,0.0013589264089503,-0.0013589264089505,0.0013589264089503,-2.9316751452191e-16,3.3972491575467e-16,1.8175915326499e-17,2.4087499437544e-17,-0.001382535968417,0.0013825359684171,-0.0014167840587088,0.0014167840587086,-0.0014167840587088,0.0014167840587086,-0.0014167840587085,0.0014167840587088,-0.0014167840587085,0.0014167840587088,-0.0013589264089503,0.0013589264089505,-0.0013589264089503,0.0013589264089505,-0.0013589264089507,0.0013589264089502,-0.0013589264089501,0.0013589264089508,-5.9704058434939e-18,-1.0264392312214e-17,-0.001382535968417,0.001382535968417,-5.4115993852358e-18,-1.0087927114869e-17,-0.0014167840587087,0.0014167840587087,-0.0014167840587087,0.0014167840587087,-0.0014167840587087,0.0014167840587087,-0.0014167840587087,0.0014167840587087,-0.0013589264089504,0.0013589264089504,-0.0013589264089504,0.0013589264089504,0.55350340941735,0.64489692877595,1270536,32768,0.0057439923483328,0.0057439923483329,0.0057439923483329,17.077740132017,17.071101337209,5.1821921056133e-05,5.1821921056133e-05,5.1821921056133e-05,456790.64182163,0.017381531395985
18835200,0.99972670118207,0.017083971141178,0.0056946570470594,0.0056946570470595,0.0056946570470595,-0.0013826497859644,0.0013826497859644,2.9704974886349e-18,7.3233056898028e-18,3.2128430263215e-16,-3.1413746213969e-16,-0.0014167910099446,0.0014167910099448,-0.0014167910099446,0.0014167910099448,-0.0014167910099448,0.0014167910099446,-0.0014167910099448,0.0014167910099446,-0.0013591232867453,0.0013591232867451,-0.0013591232867453,0.0013591232867451,-2.9257929719742e-16,3.4040136567782e-16,1.9087652179446e-17,2.4587484163354e-17,-0.0013826497859644,0.0013826497859644,-0.0014167910099448,0.0014167910099446,-0.0014167910099448,0.0014167910099446,-0.0014167910099446,0.0014167910099448,-0.0014167910099446,0.0014167910099449,-0.0013591232867451,0.0013591232867453,-0.0013591232867451,0.0013591232867453,-0.0013591232867455,0.0013591232867449,-0.0013591232867449,0.0013591232867455,-2.6469779601697e-18,-6.7939100977689e-18,-0.0013826497859644,0.0013826497859644,-1.6175976423259e-18,-6.2351036395108e-18,-0.0014167910099447,0.0014167910099447,-0.0014167910099447,0.0014167910099447,-0.0014167910099447,0.0014167910099447,-0.0014167910099447,0.0014167910099447,-0.0013591232867452,0.0013591232867452,-0.0013591232867452,0.0013591232867452,0.56803532056645,0.67141121253251,1270536,32768,0.0057444637956769,0.0057444637956769,0.0057444637956769,16.975510630779,16.968871973648,5.1004085046231e-05,5.1004085046231e-05,5.1004085046231e-05,445420.30158098,0.017382971049675
18921600,0.99973145223232,0.017084039957865,0.0056946799859549,0.0056946799859549,0.0056946799859549,-0.0013825982285147,0.0013825982285147,-4.6175059971849e-18,-2.6469779601697e-19,3.1357865568144e-16,-3.2163723302684e-16,-0.0014166955311821,0.0014166955311823,-0.0014166955311821,0.0014166955311823,-0.0014166955311823,0.0014166955311821,-0.0014166955311823,0.001416695531182,-0.0013590908495485,0.0013590908495483,-0.0013590908495485,0.0013590908495483,-2.9257929719742e-16,3.4057783087517e-16,1.9322939109239e-17,2.4881592825595e-17,-0.0013825982285147,0.0013825982285147,-0.0014166955311822,0.0014166955311821,-0.0014166955311822,0.0014166955311821,-0.001416695531182,0.0014166955311823,-0.001416695531182,0.0014166955311823,-0.0013590908495483,0.0013590908495485,-0.0013590908495483,0.0013590908495485,-0.0013590908495487,0.0013590908495482,-0.0013590908495481,0.0013590908495488,-5.9704058434939e-18,-1.0146748847317e-17,-0.0013825982285147,0.0013825982285147,-5.2057233216671e-18,-9.7938184526279e-18,-0.0014166955311822,0.0014166955311821,-0.0014166955311822,0.0014166955311821,-0.0014166955311822,0.0014166955311821,-0.0014166955311822,0.0014166955311821,-0.0013590908495484,0.0013590908495484,-0.0013590908495484,0.0013590908495484,0.58183347061537,0.69792549628906,1270536,32768,0.0057442500871481,0.0057442500871482,0.0057442500871482,16.8732812537,16.866642610087,5.0186250029597e-05,5.0186250029597e-05,5.0186250029597e-05,439399.50848309,0.017382319249875
19008000,0.99973609068577,0.01708410974458,0.0056947032481933,0.0056947032481934,0.0056947032481934,-0.0013825207245782,0.0013825207245782,-4.646916863409e-18,-5.2939559203394e-19,3.1328454701919e-16,-3.2193134168908e-16,-0.0014165885493399,0.0014165885493401,-0.0014165885493399,0.0014165885493401,-0.0014165885493401,0.0014165885493399,-0.0014165885493401,0.0014165885493399,-0.0013590245742644,0.0013590245742642,-0.0013590245742644,0.0013590245742642,-2.9240283200008e-16,3.4107781560098e-16,1.961704777148e-17,2.4763949360699e-17,-0.0013825207245782,0.0013825207245782,-0.00141658854934,0.0014165885493399,-0.00141658854934,0.0014165885493399,-0.0014165885493398,0.0014165885493401,-0.0014165885493398,0.0014165885493401,-0.0013590245742642,0.0013590245742644,-0.0013590245742642,0.0013590245742644,-0.0013590245742646,0.001359024574264,-0.001359024574264,0.0013590245742646,-6.1468710408385e-18,-1.0176159713541e-17,-0.0013825207245782,0.0013825207245782,-5.5292428501322e-18,-9.7349967201796e-18,-0.00141658854934,0.0014165885493399,-0.00141658854934,0.0014165885493399,-0.00141658854934,0.0014165885493399,-0.00141658854934,0.0014165885493399,-0.0013590245742643,0.0013590245742643,-0.0013590245742643,0.0013590245742643,0.60430968524453,0.77244247275956,1270536,32768,0.0057439288968959,0.005743928896896,0.005743928896896,16.771051888811,16.764413246525,4.9368415110488e-05,4.9368415110488e-05,4.9368415110488e-05,434088.71501862,0.017381339351872
19094400,0.99974063059158,0.017084179505148,0.005694726501716,0.005694726501716,0.005694726501716,-0.0013826138626554,0.0013826138626554,-5.2645450541153e-18,-9.4114771917145e-19,3.1281397315961e-16,-3.2249014814734e-16,-0.0014166213155707,0.0014166213155709,-0.0014166213155707,0.0014166213155709,-0.0014166213155709,0.0014166213155707,-0.0014166213155709,0.0014166213155707,-0.0013591600122295,0.0013591600122293,-0.0013591600122295,0.0013591600122293,-2.9193225814049e-16,3.4154838946056e-16,2.011703249729e-17,2.5410988417629e-17,-0.0013826138626554,0.0013826138626554,-0.0014166213155709,0.0014166213155707,-0.0014166213155709,0.0014166213155707,-0.0014166213155706,0.0014166213155709,-0.0014166213155707,0.0014166213155709,-0.0013591600122293,0.0013591600122295,-0.0013591600122293,0.0013591600122295,-0.0013591600122297,0.0013591600122291,-0.0013591600122291,0.0013591600122297,-5.7645297799251e-18,-9.9702836499725e-18,-0.0013826138626554,0.0013826138626554,-5.2057233216671e-18,-9.4114771917145e-18,-0.0014166213155708,0.0014166213155708,-0.0014166213155708,0.0014166213155708,-0.0014166213155708,0.0014166213155708,-0.0014166213155708,0.0014166213155708,-0.0013591600122294,0.0013591600122294,-0.0013591600122294,0.0013591600122294,0.61714714123453,0.77233723771011,1270536,32768,0.0057443146401249,0.0057443146401249,0.0057443146401249,16.706842212133,16.702590596921,4.8854737697059e-05,4.8854737697059e-05,4.8854737697059e-05,425200.69714123,0.017382517322226
19180800,0.99974515156374,0.017084253030577,0.0056947510101924,0.0056947510101924,0.0056947510101924,-0.0013830769347194,0.0013830769347193,-4.8233820607537e-18,-5.5880645825805e-19,3.1351983394899e-16,-3.2222545035132e-16,-0.0014170752560732,0.0014170752560734,-0.0014170752560732,0.0014170752560734,-0.0014170752560734,0.0014170752560732,-0.0014170752560735,0.0014170752560732,-0.0013596159333102,0.00135961593331,-0.0013596159333102,0.00135961593331,-2.9263811892987e-16,3.411072264672e-16,1.9852334701273e-17,2.4528662430906e-17,-0.0013830769347193,0.0013830769347194,-0.0014170752560734,0.0014170752560732,-0.0014170752560734,0.0014170752560732,-0.0014170752560732,0.0014170752560734,-0.0014170752560732,0.0014170752560735,-0.00135961593331,0.0013596159333102,-0.00135961593331,0.0013596159333102,-0.0013596159333104,0.0013596159333099,-0.0013596159333098,0.0013596159333105,-6.558623167976e-18,-1.0499679242006e-17,-0.0013830769347194,0.0013830769347194,-5.9409949772697e-18,-9.7349967201796e-18,-0.0014170752560733,0.0014170752560733,-0.0014170752560733,0.0014170752560733,-0.0014170752560733,0.0014170752560733,-0.0014170752560733,0.0014170752560733,-0.0013596159333101,0.0013596159333101,-0.0013596159333101,0.0013596159333101,0.653033251774,0.91425068683464,1270536,32768,0.0057462329562277,0.0057462329562277,0.0057462329562277,16.915531236747,16.928491014325,5.0524249893977e-05,5.0524249893977e-05,5.0524249893977e-05,421182.22555515,0.017388372542741
19267200,0.99974965698953,0.01708432769657,0.0056947758988567,0.0056947758988568,0.0056947758988568,-0.0013838442118499,0.0013838442118499,-5.4410102514599e-18,-1.1176129165161e-18,3.131669035543e-16,-3.2357835019763e-16,-0.0014177476205909,0.0014177476205911,-0.0014177476205909,0.0014177476205911,-0.0014177476205911,0.0014177476205909,-0.0014177476205911,0.0014177476205909,-0.0013604610865052,0.001360461086505,-0.0013604610865053,0.001360461086505,-2.9563802728473e-16,3.3904846583151e-16,1.6911248078862e-17,2.2352258330322e-17,-0.0013838442118499,0.00138384421185,-0.0014177476205911,0.0014177476205909,-0.0014177476205911,0.0014177476205909,-0.0014177476205908,0.0014177476205911,-0.0014177476205909,0.0014177476205911,-0.001360461086505,0.0013604610865053,-0.001360461086505,0.0013604610865053,-0.0013604610865055,0.0013604610865049,-0.0013604610865049,0.0013604610865055,-6.8527318302171e-18,-1.0940842235368e-17,-0.00138384421185,0.0013838442118499,-6.0586384421662e-18,-1.0411446643334e-17,-0.001417747620591,0.001417747620591,-0.001417747620591,0.001417747620591,-0.001417747620591,0.001417747620591,-0.001417747620591,0.001417747620591,-0.0013604610865052,0.0013604610865052,-0.0013604610865052,0.0013604610865052,0.66540955902663,0.87574310507145,1270536,32768,0.0057494115003866,0.0057494115003867,0.0057494115003867,17.13988620138,17.154391431729,5.2319089611036e-05,5.2319089611036e-05,5.2319089611036e-05,408003.24059309,0.017398074935959
19353600,0.99975414606909,0.017084402697237,0.0056948008990789,0.005694800899079,0.005694800899079,-0.0013842802211668,0.0013842802211668,-4.4410407998403e-18,-2.3528692979286e-19,3.1410805127347e-16,-3.2193134168908e-16,-0.0014182082496225,0.0014182082496227,-0.0014182082496225,0.0014182082496227,-0.0014182082496227,0.0014182082496225,-0.0014182082496228,0.0014182082496225,-0.0013608581189976,0.0013608581189974,-0.0013608581189976,0.0013608581189974,-2.9257929719742e-16,3.4131310253077e-16,1.9381760841687e-17,2.4881592825595e-17,-0.0013842802211668,0.0013842802211668,-0.0014182082496227,0.0014182082496225,-0.0014182082496227,0.0014182082496225,-0.0014182082496225,0.0014182082496227,-0.0014182082496225,0.0014182082496228,-0.0013608581189974,0.0013608581189976,-0.0013608581189974,0.0013608581189976,-0.0013608581189978,0.0013608581189972,-0.0013608581189972,0.0013608581189979,-6.7939100977689e-18,-1.088202050292e-17,-0.0013842802211668,0.0013842802211668,-6.4703905693037e-18,-1.0852609636696e-17,-0.0014182082496226,0.0014182082496226,-0.0014182082496226,0.0014182082496226,-0.0014182082496226,0.0014182082496226,-0.0014182082496226,0.0014182082496226,-0.0013608581189975,0.0013608581189975,-0.0013608581189975,0.0013608581189975,0.67074246962284,0.83723552330826,1270536,32768,0.0057512176342284,0.0057512176342284,0.0057512176342284,17.365638226537,17.380291849132,5.4125105812295e-05,5.4125105812295e-05,5.4125105812295e-05,405661.25666982,0.017403587917825
19440000,0.9997586176328,0.017084477491214,0.0056948258304046,0.0056948258304047,0.0056948258304047,-0.001384655655292,0.001384655655292,-4.911614659426e-18,-7.9409338805091e-19,3.1369629914633e-16,-3.2231368295e-16,-0.0014186311723406,0.0014186311723408,-0.0014186311723406,0.0014186311723408,-0.0014186311723408,0.0014186311723406,-0.0014186311723408,0.0014186311723406,-0.0013611872020302,0.00136118720203,-0.0013611872020302,0.00136118720203,-2.9322633625435e-16,3.4087193953741e-16,1.9028830446998e-17,2.4381608099785e-17,-0.001384655655292,0.001384655655292,-0.0014186311723408,0.0014186311723406,-0.0014186311723408,0.0014186311723406,-0.0014186311723405,0.0014186311723408,-0.0014186311723406,0.0014186311723408,-0.00136118720203,0.0013611872020302,-0.00136118720203,0.0013611872020302,-0.0013611872020304,0.0013611872020298,-0.0013611872020298,0.0013611872020305,-7.0586078937858e-18,-1.1205540031385e-17,-0.001384655655292,0.001384655655292,-6.4703905693037e-18,-1.0705555305575e-17,-0.0014186311723407,0.0014186311723407,-0.0014186311723407,0.0014186311723407,-0.0014186311723407,0.0014186311723407,-0.0014186311723407,0.0014186311723407,-0.0013611872020301,0.0013611872020301,-0.0013611872020301,0.0013611872020301,0.67150101838779,0.79872794154507,1270536,32768,0.0057527728801377,0.0057527728801378,0.0057527728801378,17.591524161027,17.606192266536,5.5932193288217e-05,5.5932193288217e-05,5.5932193288217e-05,405410.94248998,0.017408334948637
19526400,0.99976307047607,0.017084551680771,0.0056948505602571,0.0056948505602571,0.0056948505602571,-0.0013850007206489,0.0013850007206489,-2.735210558842e-18,1.4117215787572e-18,3.1575505978202e-16,-3.2057844184277e-16,-0.0014190313908531,0.0014190313908532,-0.0014190313908531,0.0014190313908533,-0.0014190313908533,0.0014190313908531,-0.0014190313908533,0.001419031390853,-0.0013614876766999,0.0013614876766997,-0.0013614876766999,0.0013614876766997,-2.9252047546497e-16,3.4198955245392e-16,1.97641021026e-17,2.555804274875e-17,-0.0013850007206488,0.0013850007206489,-0.0014190313908532,0.001419031390853,-0.0014190313908532,0.001419031390853,-0.001419031390853,0.0014190313908532,-0.001419031390853,0.0014190313908533,-0.0013614876766997,0.0013614876766999,-0.0013614876766997,0.0013614876766999,-0.0013614876767001,0.0013614876766995,-0.0013614876766995,0.0013614876767001,-7.2056622249064e-18,-1.1558470426074e-17,-0.0013850007206489,0.0013850007206489,-6.5880340342001e-18,-1.1470237827402e-17,-0.0014190313908532,0.0014190313908531,-0.0014190313908532,0.0014190313908531,-0.0014190313908532,0.0014190313908531,-0.0014190313908532,0.0014190313908531,-0.0013614876766998,0.0013614876766998,-0.0013614876766998,0.0013614876766998,0.66887871722077,0.76022035978189,1270536,32768,0.0057542023615912,0.0057542023615913,0.0057542023615913,17.817423158659,17.83209268394,5.7739385269267e-05,5.7739385269267e-05,5.7739385269267e-05,406285.82757985,0.017412697996157
19612800,0.99976750339202,0.017084624950927,0.0056948749836424,0.0056948749836424,0.0056948749836424,-0.0013853278790406,0.0013853278790406,-3.7940017429099e-18,4.1175212713751e-19,3.148727337953e-16,-3.2169605475929e-16,-0.0014194152960475,0.0014194152960476,-0.0014194152960475,0.0014194152960477,-0.0014194152960477,0.0014194152960474,-0.0014194152960477,0.0014194152960474,-0.0013617738639985,0.0013617738639983,-0.0013617738639985,0.0013617738639983,-2.9304987105701e-16,3.4146015686189e-16,1.9322939109239e-17,2.4763949360699e-17,-0.0013853278790406,0.0013853278790406,-0.0014194152960476,0.0014194152960474,-0.0014194152960476,0.0014194152960474,-0.0014194152960474,0.0014194152960476,-0.0014194152960474,0.0014194152960477,-0.0013617738639983,0.0013617738639985,-0.0013617738639983,0.0013617738639986,-0.0013617738639987,0.0013617738639982,-0.0013617738639981,0.0013617738639988,-8.9703141983528e-18,-1.3234889800848e-17,-0.0013853278790406,0.0013853278790406,-8.3526860076466e-18,-1.2911370272383e-17,-0.0014194152960476,0.0014194152960475,-0.0014194152960476,0.0014194152960475,-0.0014194152960476,0.0014194152960475,-0.0014194152960476,0.0014194152960475,-0.0013617738639984,0.0013617738639984,-0.0013617738639984,0.0013617738639984,0.66357351748803,0.7217127780187,1270536,32768,0.0057555576938661,0.0057555576938662,0.0057555576938662,18.043323436707,18.057993101344,5.9546587493657e-05,5.9546587493657e-05,5.9546587493657e-05,407916.51478403,0.01741683463442
19699200,0.9997719151757,0.017084697042005,0.0056948990140016,0.0056948990140016,0.0056948990140016,-0.0013856433737409,0.0013856433737409,-5.4410102514599e-18,-1.2352563814125e-18,3.1357865568144e-16,-3.237842262612e-16,-0.0014197863386736,0.0014197863386738,-0.0014197863386736,0.0014197863386738,-0.0014197863386738,0.0014197863386736,-0.0014197863386738,0.0014197863386736,-0.001362052125789,0.0013620521257888,-0.001362052125789,0.0013620521257888,-2.9122639735111e-16,3.4401890222339e-16,2.1734630139616e-17,2.7146229524851e-17,-0.0013856433737409,0.0013856433737409,-0.0014197863386737,0.0014197863386735,-0.0014197863386737,0.0014197863386735,-0.0014197863386735,0.0014197863386737,-0.0014197863386735,0.0014197863386738,-0.0013620521257888,0.001362052125789,-0.0013620521257888,0.001362052125789,-0.0013620521257892,0.0013620521257886,-0.0013620521257886,0.0013620521257893,-7.8821121480609e-18,-1.1970222553212e-17,-0.0013856433737409,0.0013856433737409,-7.1174296262341e-18,-1.1734935623419e-17,-0.0014197863386737,0.0014197863386736,-0.0014197863386737,0.0014197863386736,-0.0014197863386737,0.0014197863386736,-0.0014197863386737,0.0014197863386736,-0.0013620521257889,0.0013620521257889,-0.0013620521257889,0.0013620521257889,0.65604456074454,0.68320519625551,1270536,32768,0.0057568647334131,0.0057568647334132,0.0057568647334132,18.269223840428,18.283893518748,6.1353790723423e-05,6.1353790723423e-05,6.1353790723423e-05,410130.90710135,0.017420823803605
19785600,0.99977630462542,0.017084767734409,0.0056949225781363,0.0056949225781363,0.0056949225781363,-0.0013859506962217,0.0013859506962217,-7.6174143520439e-18,-3.3528387495483e-18,3.1193164717289e-16,-3.2525476957241e-16,-0.0014201466899239,0.0014201466899241,-0.0014201466899239,0.0014201466899241,-0.0014201466899241,0.0014201466899239,-0.0014201466899241,0.0014201466899239,-0.0013623256165537,0.0013623256165535,-0.0013623256165537,0.0013623256165535,-2.932851579868e-16,3.4198955245392e-16,1.9499404306583e-17,2.4763949360699e-17,-0.0013859506962217,0.0013859506962217,-0.0014201466899241,0.0014201466899239,-0.0014201466899241,0.0014201466899239,-0.0014201466899238,0.0014201466899241,-0.0014201466899239,0.0014201466899241,-0.0013623256165535,0.0013623256165537,-0.0013623256165535,0.0013623256165537,-0.0013623256165539,0.0013623256165533,-0.0013623256165533,0.001362325616554,-6.1174601746144e-18,-1.0176159713541e-17,-0.0013859506962217,0.0013859506962217,-5.1174907229947e-18,-9.5879423890591e-18,-0.001420146689924,0.001420146689924,-0.001420146689924,0.001420146689924,-0.001420146689924,0.001420146689924,-0.001420146689924,0.001420146689924,-0.0013623256165536,0.0013623256165536,-0.0013623256165536,0.0013623256165536,0.64661785292591,0.64469761449232,1270536,32768,0.0057581379387478,0.0057581379387478,0.0057581379387478,18.495124256488,18.509793936152,6.3160994051905e-05,6.3160994051905e-05,6.3160994051905e-05,412838.94072625,0.0174247096487
19872000,0.99978066162198,0.017084836302815,0.0056949454342717,0.0056949454342717,0.0056949454342717,-0.0013861884109444,0.0013861884109444,-4.9410255256501e-18,-7.9409338805091e-19,3.1428451647081e-16,-3.2307836547182e-16,-0.0014204353286514,0.0014204353286515,-0.0014204353286514,0.0014204353286516,-0.0014204353286516,0.0014204353286513,-0.0014204353286516,0.0014204353286513,-0.0013625318686363,0.0013625318686361,-0.0013625318686363,0.0013625318686361,-2.9369691011394e-16,3.4181308725658e-16,1.9322939109239e-17,2.4263964634889e-17,-0.0013861884109444,0.0013861884109444,-0.0014204353286515,0.0014204353286513,-0.0014204353286515,0.0014204353286513,-0.0014204353286513,0.0014204353286515,-0.0014204353286513,0.0014204353286516,-0.0013625318686361,0.0013625318686363,-0.0013625318686361,0.0013625318686363,-0.0013625318686365,0.0013625318686359,-0.0013625318686359,0.0013625318686365,-6.7350883653207e-18,-1.0823198770472e-17,-0.0013861884109444,0.0013861884109444,-5.9704058434939e-18,-1.0117337981093e-17,-0.0014204353286515,0.0014204353286514,-0.0014204353286515,0.0014204353286514,-0.0014204353286514,0.0014204353286514,-0.0014204353286515,0.0014204353286514,-0.0013625318686362,0.0013625318686362,-0.0013625318686362,0.0013625318686362,0.63190015970538,0.58613753799082,1270536,32768,0.0057591227912134,0.0057591227912135,0.0057591227912135,18.688111774966,18.700715052263,6.4704894199728e-05,6.4704894199728e-05,6.4704894199728e-05,416020.67719404,0.017427715332467
19958400,0.99978493289929,0.017084905092339,0.005694968364113,0.0056949683641131,0.0056949683641131,-0.0013859919857038,0.0013859919857038,-5.1763124554429e-18,-1.1176129165161e-18,3.1410805127347e-16,-3.2334306326784e-16,-0.0014203084145944,0.0014203084145946,-0.0014203084145944,0.0014203084145946,-0.0014203084145946,0.0014203084145944,-0.0014203084145946,0.0014203084145944,-0.0013622879351773,0.0013622879351771,-0.0013622879351773,0.0013622879351771,-2.9416748397352e-16,3.4143074599567e-16,1.9028830446998e-17,2.4116910303768e-17,-0.0013859919857038,0.0013859919857039,-0.0014203084145946,0.0014203084145944,-0.0014203084145946,0.0014203084145944,-0.0014203084145943,0.0014203084145946,-0.0014203084145943,0.0014203084145946,-0.0013622879351771,0.0013622879351773,-0.0013622879351771,0.0013622879351773,-0.0013622879351775,0.0013622879351769,-0.0013622879351769,0.0013622879351776,-6.9997861613376e-18,-1.1087896566489e-17,-0.0013859919857038,0.0013859919857038,-6.4703905693037e-18,-1.0411446643334e-17,-0.0014203084145945,0.0014203084145945,-0.0014203084145945,0.0014203084145945,-0.0014203084145945,0.0014203084145945,-0.0014203084145945,0.0014203084145945,-0.0013622879351772,0.0013622879351772,-0.0013622879351772,0.0013622879351772,0.64670104716805,0.70684412759495,1270536,32768,0.0057583091179776,0.0057583091179777,0.0057583091179777,18.684796171784,18.685007471449,6.4678369374274e-05,6.4678369374274e-05,6.4678369374274e-05,421462.02111499,0.017425231333733
20044800,0.99978911721739,0.017084973595094,0.0056949911983646,0.0056949911983647,0.0056949911983647,-0.0013862034313363,0.0013862034313363,-4.8527929269778e-18,-9.4114771917145e-19,3.1434333820326e-16,-3.2346070673274e-16,-0.0014204299551766,0.0014204299551768,-0.0014204299551766,0.0014204299551768,-0.0014204299551769,0.0014204299551766,-0.0014204299551769,0.0014204299551766,-0.0013625949083035,0.0013625949083032,-0.0013625949083035,0.0013625949083032,-2.9363808838149e-16,3.420777850526e-16,1.9558226039032e-17,2.455807329713e-17,-0.0013862034313363,0.0013862034313363,-0.0014204299551768,0.0014204299551766,-0.0014204299551768,0.0014204299551766,-0.0014204299551766,0.0014204299551768,-0.0014204299551766,0.0014204299551769,-0.0013625949083032,0.0013625949083035,-0.0013625949083033,0.0013625949083035,-0.0013625949083036,0.0013625949083031,-0.0013625949083031,0.0013625949083037,-6.4703905693037e-18,-1.0293803178438e-17,-0.0013862034313363,0.0013862034313363,-5.735118913701e-18,-9.823229318852e-18,-0.0014204299551767,0.0014204299551767,-0.0014204299551767,0.0014204299551767,-0.0014204299551767,0.0014204299551767,-0.0014204299551767,0.0014204299551767,-0.0013625949083034,0.0013625949083033,-0.0013625949083033,0.0013625949083034,0.65743077277705,0.74287786107422,1270536,32768,0.0057591851570405,0.0057591851570405,0.0057591851570405,18.670201492782,18.669299890635,6.4561611942258e-05,6.4561611942258e-05,6.4561611942258e-05,412685.83234328,0.017427905589826
20131200,0.99979321616221,0.017085041896615,0.0056950139655383,0.0056950139655384,0.0056950139655384,-0.0013862844877897,0.0013862844877897,-4.1469321375992e-18,2.9410866224108e-20,3.1493155552774e-16,-3.2263720247846e-16,-0.001420467409184,0.0014204674091842,-0.001420467409184,0.0014204674091842,-0.0014204674091842,0.001420467409184,-0.0014204674091842,0.001420467409184,-0.0013627097773874,0.0013627097773872,-0.0013627097773874,0.0013627097773872,-2.9375573184639e-16,3.4187190898903e-16,1.9234706510566e-17,2.4352197233561e-17,-0.0013862844877897,0.0013862844877897,-0.0014204674091842,0.001420467409184,-0.0014204674091842,0.001420467409184,-0.0014204674091839,0.0014204674091842,-0.0014204674091839,0.0014204674091842,-0.0013627097773872,0.0013627097773874,-0.0013627097773872,0.0013627097773875,-0.0013627097773876,0.0013627097773871,-0.001362709777387,0.0013627097773877,-7.6174143520439e-18,-1.1587881292298e-17,-0.0013862844877897,0.0013862844877897,-7.1468404924582e-18,-1.1058485700264e-17,-0.0014204674091841,0.0014204674091841,-0.0014204674091841,0.0014204674091841,-0.0014204674091841,0.0014204674091841,-0.0014204674091841,0.001420467409184,-0.0013627097773873,0.0013627097773873,-0.0013627097773873,0.0013627097773873,0.66909434795128,0.77624390056034,1270536,32768,0.0057595209387273,0.0057595209387274,0.0057595209387274,18.654600776042,18.65359230982,6.4436806208334e-05,6.4436806208334e-05,6.4436806208334e-05,407810.21119473,0.017428930705898
20217600,0.99979723152767,0.017085110080932,0.0056950366936441,0.0056950366936442,0.0056950366936442,-0.0013863547562487,0.0013863547562487,-4.8527929269778e-18,-4.9998472580983e-19,3.1457862513306e-16,-3.2310777633805e-16,-0.0014205019646404,0.0014205019646406,-0.0014205019646404,0.0014205019646406,-0.0014205019646406,0.0014205019646404,-0.0014205019646406,0.0014205019646403,-0.001362804226761,0.0013628042267607,-0.001362804226761,0.0013628042267608,-2.9310869278946e-16,3.4260718064463e-16,2.011703249729e-17,2.4999236290492e-17,-0.0013863547562487,0.0013863547562488,-0.0014205019646405,0.0014205019646404,-0.0014205019646405,0.0014205019646403,-0.0014205019646403,0.0014205019646406,-0.0014205019646403,0.0014205019646406,-0.0013628042267608,0.001362804226761,-0.0013628042267608,0.001362804226761,-0.0013628042267612,0.0013628042267606,-0.0013628042267606,0.0013628042267612,-7.4115382884751e-18,-1.1411416094954e-17,-0.0013863547562488,0.0013863547562487,-6.9409644288894e-18,-1.088202050292e-17,-0.0014205019646405,0.0014205019646404,-0.0014205019646405,0.0014205019646404,-0.0014205019646405,0.0014205019646404,-0.0014205019646405,0.0014205019646404,-0.0013628042267609,0.0013628042267609,-0.0013628042267609,0.0013628042267609,0.68181568613066,0.80868178139082,1270536,32768,0.0057598120096221,0.0057598120096221,0.0057598120096221,18.638903625166,18.637884729006,6.4311229001328e-05,6.4311229001328e-05,6.4311229001328e-05,403156.4966488,0.01742981937104
20304000,0.99980116509071,0.017085178231072,0.0056950594103574,0.0056950594103575,0.0056950594103575,-0.0013864204203167,0.0013864204203167,-5.7939406461492e-18,-1.5293650436536e-18,3.1351983394899e-16,-3.2425480012079e-16,-0.0014205369586609,0.0014205369586611,-0.0014205369586609,0.0014205369586611,-0.0014205369586611,0.0014205369586609,-0.0014205369586611,0.0014205369586609,-0.0013628890167361,0.0013628890167359,-0.0013628890167361,0.0013628890167359,-2.9393219704373e-16,3.418424981228e-16,1.9234706510566e-17,2.4440429832233e-17,-0.0013864204203167,0.0013864204203167,-0.0014205369586611,0.0014205369586609,-0.0014205369586611,0.0014205369586609,-0.0014205369586608,0.0014205369586611,-0.0014205369586608,0.0014205369586611,-0.0013628890167359,0.0013628890167361,-0.0013628890167359,0.0013628890167361,-0.0013628890167363,0.0013628890167357,-0.0013628890167357,0.0013628890167364,-7.8232904156126e-18,-1.1823168222091e-17,-0.0013864204203167,0.0013864204203167,-7.0880187600099e-18,-1.1058485700264e-17,-0.001420536958661,0.001420536958661,-0.001420536958661,0.001420536958661,-0.001420536958661,0.001420536958661,-0.001420536958661,0.0014205369586609,-0.001362889016736,0.001362889016736,-0.001362889016736,0.001362889016736,0.69561281871662,0.84111966222131,1270536,32768,0.0057600839934375,0.0057600839934376,0.0057600839934376,18.623197066811,18.622177148191,6.4185576534489e-05,6.4185576534489e-05,6.4185576534489e-05,398527.37773479,0.017430649798209
20390400,0.99980501859114,0.01708524550567,0.0056950818352234,0.0056950818352235,0.0056950818352235,-0.0013864836671043,0.0013864836671043,-4.8233820607537e-18,-6.1762819070626e-19,3.1457862513306e-16,-3.2343129586651e-16,-0.001420573267195,0.0014205732671952,-0.001420573267195,0.0014205732671952,-0.0014205732671952,0.001420573267195,-0.0014205732671952,0.001420573267195,-0.0013629682772117,0.0013629682772115,-0.0013629682772117,0.0013629682772115,-2.9393219704373e-16,3.420777850526e-16,1.961704777148e-17,2.4499251564682e-17,-0.0013864836671043,0.0013864836671043,-0.0014205732671952,0.001420573267195,-0.0014205732671952,0.001420573267195,-0.0014205732671949,0.0014205732671952,-0.0014205732671949,0.0014205732671952,-0.0013629682772115,0.0013629682772117,-0.0013629682772115,0.0013629682772117,-0.0013629682772119,0.0013629682772113,-0.0013629682772113,0.0013629682772119,-7.3233056898028e-18,-1.1440826961178e-17,-0.0013864836671043,0.0013864836671043,-6.6762666328724e-18,-1.0852609636696e-17,-0.0014205732671951,0.0014205732671951,-0.0014205732671951,0.0014205732671951,-0.0014205732671951,0.0014205732671951,-0.0014205732671951,0.0014205732671951,-0.0013629682772116,0.0013629682772116,-0.0013629682772116,0.0013629682772116,0.70090955979346,0.82126598431432,1270536,32768,0.0057603459543769,0.0057603459543769,0.0057603459543769,18.607489586355,18.606469567377,6.4059916690835e-05,6.4059916690835e-05,6.4059916690835e-05,393853.93773291,0.01743144965186
20476800,0.99980879373049,0.01708530997924,0.0056951033264133,0.0056951033264133,0.0056951033264133,-0.0013864350356656,0.0013864350356656,-3.8822343415822e-18,1.4705433112054e-19,3.1540212938733e-16,-3.2246073728112e-16,-0.0014205391772626,0.0014205391772628,-0.0014205391772627,0.0014205391772629,-0.0014205391772629,0.0014205391772626,-0.0014205391772629,0.0014205391772626,-0.0013628991962889,0.0013628991962887,-0.0013628991962889,0.0013628991962887,-2.9399101877618e-16,3.419601415877e-16,1.9411171707911e-17,2.4381608099785e-17,-0.0013864350356656,0.0013864350356656,-0.0014205391772628,0.0014205391772626,-0.0014205391772628,0.0014205391772626,-0.0014205391772626,0.0014205391772628,-0.0014205391772626,0.0014205391772629,-0.0013628991962887,0.0013628991962889,-0.0013628991962887,0.001362899196289,-0.0013628991962891,0.0013628991962886,-0.0013628991962885,0.0013628991962892,-7.382127422251e-18,-1.1264361763833e-17,-0.0013864350356656,0.0013864350356656,-6.4409797030796e-18,-1.0646733573127e-17,-0.0014205391772628,0.0014205391772627,-0.0014205391772627,0.0014205391772627,-0.0014205391772627,0.0014205391772627,-0.0014205391772627,0.0014205391772627,-0.0013628991962888,0.0013628991962888,-0.0013628991962888,0.0013628991962888,0.68563583005834,0.7051435878032,1270536,32768,0.0057601444363022,0.0057601444363023,0.0057601444363023,18.591782015394,18.590761986563,6.3934256123151e-05,6.3934256123151e-05,6.3934256123151e-05,392709.98082508,0.017430834609914
20563200,0.99981249217267,0.017085370425607,0.0056951234752024,0.0056951234752025,0.0056951234752025,-0.0013861486998664,0.0013861486998664,-5.7645297799251e-18,-1.6175976423259e-18,3.1375512087878e-16,-3.2413715665589e-16,-0.001420350793516,0.0014203507935162,-0.001420350793516,0.0014203507935162,-0.0014203507935162,0.001420350793516,-0.0014203507935162,0.001420350793516,-0.0013625236492941,0.0013625236492938,-0.0013625236492941,0.0013625236492938,-2.9457923610066e-16,3.4128369166455e-16,1.8764132650981e-17,2.3675747310407e-17,-0.0013861486998664,0.0013861486998665,-0.0014203507935162,0.001420350793516,-0.0014203507935162,0.001420350793516,-0.0014203507935159,0.0014203507935162,-0.0014203507935159,0.0014203507935162,-0.0013625236492938,0.0013625236492941,-0.0013625236492939,0.0013625236492941,-0.0013625236492942,0.0013625236492937,-0.0013625236492937,0.0013625236492943,-7.7938795493885e-18,-1.1705524757195e-17,-0.0013861486998665,0.0013861486998664,-7.0880187600099e-18,-1.1087896566489e-17,-0.0014203507935161,0.0014203507935161,-0.0014203507935161,0.0014203507935161,-0.0014203507935161,0.0014203507935161,-0.0014203507935161,0.0014203507935161,-0.0013625236492939,0.0013625236492939,-0.0013625236492939,0.0013625236492939,0.6561306206994,0.5627439105104,1270536,32768,0.0057589582147874,0.0057589582147875,0.0057589582147875,18.576074435547,18.575054405748,6.3808595484377e-05,6.3808595484377e-05,6.3808595484377e-05,399374.96058337,0.017427213427339
20649600,0.99981610219597,0.017085425964435,0.005695141988145,0.005695141988145,0.005695141988145,-0.0013856032568795,0.0013856032568795,-5.2939559203394e-18,-1.1176129165161e-18,3.1410805127347e-16,-3.2387245885987e-16,-0.0014199503971895,0.0014199503971897,-0.0014199503971895,0.0014199503971897,-0.0014199503971897,0.0014199503971895,-0.0014199503971897,0.0014199503971895,-0.0013618612305928,0.0013618612305926,-0.0013618612305928,0.0013618612305926,-2.9440277090332e-16,3.4157780032679e-16,1.9175884778118e-17,2.3587514711734e-17,-0.0013856032568795,0.0013856032568795,-0.0014199503971897,0.0014199503971895,-0.0014199503971897,0.0014199503971895,-0.0014199503971894,0.0014199503971897,-0.0014199503971894,0.0014199503971897,-0.0013618612305926,0.0013618612305928,-0.0013618612305926,0.0013618612305928,-0.001361861230593,0.0013618612305924,-0.0013618612305924,0.0013618612305931,-7.5880034858198e-18,-1.1676113890971e-17,-0.0013856032568795,0.0013856032568795,-7.2938948235787e-18,-1.088202050292e-17,-0.0014199503971896,0.0014199503971896,-0.0014199503971896,0.0014199503971896,-0.0014199503971896,0.0014199503971896,-0.0014199503971896,0.0014199503971896,-0.0013618612305927,0.0013618612305927,-0.0013618612305927,0.0013618612305927,0.61767074231795,0.4203442332176,1270536,32768,0.0057566986593879,0.005756698659388,0.005756698659388,18.501063888917,18.496320583305,6.3208511111338e-05,6.3208511111338e-05,6.3208511111338e-05,411331.54496162,0.017420315745918
20736000,0.99981956080849,0.017085479519693,0.0056951598398977,0.0056951598398977,0.0056951598398977,-0.001384390983977,0.001384390983977,-3.2351952846518e-18,7.646825218268e-19,3.1575505978202e-16,-3.2151958956195e-16,-0.001418909145356,0.0014189091453562,-0.001418909145356,0.0014189091453562,-0.0014189091453562,0.001418909145356,-0.0014189091453562,0.001418909145356,-0.0013605226117243,0.0013605226117241,-0.0013605226117243,0.0013605226117241,-2.9475570129801e-16,3.4063665260762e-16,1.8028860995378e-17,2.3175762584597e-17,-0.001384390983977,0.0013843909839771,-0.0014189091453562,0.001418909145356,-0.0014189091453562,0.001418909145356,-0.0014189091453559,0.0014189091453562,-0.0014189091453559,0.0014189091453562,-0.0013605226117241,0.0013605226117243,-0.0013605226117241,0.0013605226117243,-0.0013605226117245,0.0013605226117239,-0.0013605226117239,0.0013605226117245,-9.4702989241627e-18,-1.3146657202176e-17,-0.0013843909839771,0.001384390983977,-8.73502726856e-18,-1.2881959406159e-17,-0.0014189091453561,0.0014189091453561,-0.0014189091453561,0.0014189091453561,-0.0014189091453561,0.0014189091453561,-0.0014189091453561,0.0014189091453561,-0.0013605226117242,0.0013605226117241,-0.0013605226117242,0.0013605226117242,0.62177294970636,0.55131483595069,1270536,32768,0.005751676647645,0.0057516766476451,0.0057516766476451,18.125604081961,18.101876137917,6.020483265569e-05,6.020483265569e-05,6.020483265569e-05,427203.22508749,0.017404986236743
20822400,0.99982287203261,0.017085532512984,0.0056951775043279,0.005695177504328,0.005695177504328,-0.0013838634855297,0.0013838634855297,-5.3233667865635e-18,-1.2352563814125e-18,3.1410805127347e-16,-3.2381363712743e-16,-0.0014182835568396,0.0014182835568398,-0.0014182835568396,0.0014182835568398,-0.0014182835568398,0.0014182835568396,-0.0014182835568398,0.0014182835568396,-0.0013601162692623,0.0013601162692621,-0.0013601162692624,0.0013601162692621,-2.9422630570597e-16,3.4190131985525e-16,1.9175884778118e-17,2.405808857132e-17,-0.0013838634855297,0.0013838634855297,-0.0014182835568398,0.0014182835568396,-0.0014182835568398,0.0014182835568396,-0.0014182835568396,0.0014182835568398,-0.0014182835568396,0.0014182835568398,-0.0013601162692621,0.0013601162692623,-0.0013601162692621,0.0013601162692624,-0.0013601162692625,0.001360116269262,-0.0013601162692619,0.0013601162692626,-7.4115382884751e-18,-1.102907483404e-17,-0.0013838634855297,0.0013838634855297,-6.6468557666483e-18,-1.0764377038023e-17,-0.0014182835568397,0.0014182835568397,-0.0014182835568397,0.0014182835568397,-0.0014182835568397,0.0014182835568397,-0.0014182835568397,0.0014182835568397,-0.0013601162692622,0.0013601162692622,-0.0013601162692622,0.0013601162692622,0.64277781458436,0.69238088739836,1270536,32768,0.0057494915326981,0.0057494915326982,0.0057494915326982,17.732864927979,17.70743169253,5.7062919423834e-05,5.7062919423834e-05,5.7062919423834e-05,419721.21428679,0.01739831692948
20908800,0.99982604306828,0.017085582921307,0.0056951943071022,0.0056951943071023,0.0056951943071023,-0.001383455887869,0.001383455887869,-4.8527929269778e-18,-9.9996945161966e-19,3.148727337953e-16,-3.2369599366253e-16,-0.0014177347005734,0.0014177347005735,-0.0014177347005734,0.0014177347005736,-0.0014177347005736,0.0014177347005733,-0.0014177347005736,0.0014177347005733,-0.0013598362710777,0.0013598362710774,-0.0013598362710777,0.0013598362710775,-2.948733447629e-16,3.4157780032679e-16,1.8764132650981e-17,2.3852212507751e-17,-0.001383455887869,0.001383455887869,-0.0014177347005735,0.0014177347005733,-0.0014177347005735,0.0014177347005733,-0.0014177347005733,0.0014177347005735,-0.0014177347005733,0.0014177347005736,-0.0013598362710774,0.0013598362710777,-0.0013598362710775,0.0013598362710777,-0.0013598362710778,0.0013598362710773,-0.0013598362710773,0.0013598362710779,-7.382127422251e-18,-1.102907483404e-17,-0.001383455887869,0.001383455887869,-6.6762666328724e-18,-1.0646733573127e-17,-0.0014177347005735,0.0014177347005734,-0.0014177347005735,0.0014177347005734,-0.0014177347005734,0.0014177347005734,-0.0014177347005734,0.0014177347005734,-0.0013598362710776,0.0013598362710775,-0.0013598362710776,0.0013598362710776,0.63840250328209,0.63314123000179,1270536,32768,0.0057478029820682,0.0057478029820683,0.0057478029820683,17.338584237293,17.312987247142,5.3908673898345e-05,5.3908673898345e-05,5.3908673898345e-05,407723.82148039,0.01739316374397
20995200,0.99982908097083,0.017085630642505,0.0056952102141683,0.0056952102141683,0.0056952102141683,-0.0013826177553903,0.0013826177553903,-4.4116299336161e-18,-7.9409338805091e-19,3.148727337953e-16,-3.2340188500029e-16,-0.0014169115132731,0.0014169115132733,-0.0014169115132731,0.0014169115132733,-0.0014169115132733,0.0014169115132731,-0.0014169115132733,0.001416911513273,-0.0013589684902574,0.0013589684902572,-0.0013589684902574,0.0013589684902572,-2.9469687956556e-16,3.4163662205923e-16,1.8911186982101e-17,2.3969855972648e-17,-0.0013826177553903,0.0013826177553904,-0.0014169115132732,0.001416911513273,-0.0014169115132732,0.001416911513273,-0.001416911513273,0.0014169115132732,-0.001416911513273,0.0014169115132733,-0.0013589684902572,0.0013589684902574,-0.0013589684902572,0.0013589684902574,-0.0013589684902576,0.001358968490257,-0.001358968490257,0.0013589684902577,-6.9997861613376e-18,-1.0705555305575e-17,-0.0013826177553904,0.0013826177553903,-6.3821579706314e-18,-1.0499679242006e-17,-0.0014169115132732,0.0014169115132731,-0.0014169115132732,0.0014169115132731,-0.0014169115132732,0.0014169115132731,-0.0014169115132732,0.0014169115132731,-0.0013589684902573,0.0013589684902573,-0.0013589684902573,0.0013589684902573,0.63077075839541,0.59471585585635,1270536,32768,0.0057443307453491,0.0057443307453492,0.0057443307453492,16.944155774576,16.918542801755,5.0753246196611e-05,5.0753246196611e-05,5.0753246196611e-05,409503.32366454,0.017382565742701
21081600,0.99983199239879,0.017085676242762,0.005695225414254,0.0056952254142541,0.0056952254142541,-0.0013817617591469,0.0013817617591469,-4.4704516660644e-18,-1.0587911840679e-18,3.1540212938733e-16,-3.2337247413406e-16,-0.0014160804785103,0.0014160804785105,-0.0014160804785103,0.0014160804785105,-0.0014160804785105,0.0014160804785103,-0.0014160804785105,0.0014160804785103,-0.001358085551374,0.0013580855513738,-0.001358085551374,0.0013580855513738,-2.9352044491659e-16,3.4319539796911e-16,2.0205265095962e-17,2.4616895029578e-17,-0.0013817617591469,0.0013817617591469,-0.0014160804785105,0.0014160804785103,-0.0014160804785105,0.0014160804785103,-0.0014160804785102,0.0014160804785105,-0.0014160804785102,0.0014160804785105,-0.0013580855513738,0.001358085551374,-0.0013580855513738,0.001358085551374,-0.0013580855513742,0.0013580855513736,-0.0013580855513736,0.0013580855513743,-6.2351036395108e-18,-9.8820510513002e-18,-0.0013817617591469,0.0013817617591469,-6.4115688368555e-18,-9.558531522835e-18,-0.0014160804785104,0.0014160804785104,-0.0014160804785104,0.0014160804785104,-0.0014160804785104,0.0014160804785104,-0.0014160804785104,0.0014160804785104,-0.0013580855513739,0.0013580855513739,-0.0013580855513739,0.0013580855513739,0.62893415930621,0.60389552379455,1270536,32768,0.0057407845405292,0.0057407845405293,0.0057407845405293,16.549712895995,16.524098356367,4.759770316796e-05,4.759770316796e-05,4.759770316796e-05,412061.2058026,0.017371741991736
21168000,0.99983478361729,0.017085719938814,0.0056952399796048,0.0056952399796048,0.0056952399796048,-0.0013810053807713,0.0013810053807713,-7.911523014285e-18,-4.3233973349438e-18,3.1140225158085e-16,-3.264606150876e-16,-0.0014153144195286,0.0014153144195287,-0.0014153144195286,0.0014153144195288,-0.0014153144195288,0.0014153144195285,-0.0014153144195288,0.0014153144195285,-0.0013573387266904,0.0013573387266902,-0.0013573387266904,0.0013573387266902,-2.9222636680273e-16,3.4363656096247e-16,2.0999358484013e-17,2.5763918812318e-17,-0.0013810053807713,0.0013810053807713,-0.0014153144195287,0.0014153144195285,-0.0014153144195287,0.0014153144195285,-0.0014153144195285,0.0014153144195287,-0.0014153144195285,0.0014153144195288,-0.0013573387266902,0.0013573387266904,-0.0013573387266902,0.0013573387266904,-0.0013573387266906,0.0013573387266901,-0.00135733872669,0.0013573387266907,-5.4115993852358e-18,-8.8526707334564e-18,-0.0013810053807713,0.0013810053807713,-5.0880798567706e-18,-8.9409033321287e-18,-0.0014153144195286,0.0014153144195286,-0.0014153144195286,0.0014153144195286,-0.0014153144195286,0.0014153144195286,-0.0014153144195286,0.0014153144195286,-0.0013573387266903,0.0013573387266903,-0.0013573387266903,0.0013573387266903,0.62864712193457,0.61307519173276,1270536,32768,0.0057376510385878,0.0057376510385878,0.0057376510385878,16.155268604395,16.12965391098,4.4442148835158e-05,4.4442148835158e-05,4.4442148835158e-05,411459.37782512,0.017362178140109
21254400,0.99983746447268,0.017085761953643,0.0056952539845475,0.0056952539845476,0.0056952539845476,-0.0013803081888284,0.0013803081888284,-5.9704058434939e-18,-2.4999236290492e-18,3.1310808182185e-16,-3.2516653697373e-16,-0.0014146022103833,0.0014146022103835,-0.0014146022103833,0.0014146022103835,-0.0014146022103835,0.0014146022103833,-0.0014146022103835,0.0014146022103833,-0.0013566535854181,0.0013566535854178,-0.0013566535854181,0.0013566535854178,-2.9281458412722e-16,3.4316598710289e-16,2.0734660687996e-17,2.5234523220284e-17,-0.0013803081888284,0.0013803081888284,-0.0014146022103835,0.0014146022103833,-0.0014146022103835,0.0014146022103833,-0.0014146022103832,0.0014146022103835,-0.0014146022103833,0.0014146022103835,-0.0013566535854178,0.0013566535854181,-0.0013566535854178,0.0013566535854181,-0.0013566535854182,0.0013566535854177,-0.0013566535854176,0.0013566535854183,-7.5585926195957e-18,-1.0911431369144e-17,-0.0013803081888284,0.0013803081888284,-7.2350730911305e-18,-1.0617322706903e-17,-0.0014146022103834,0.0014146022103834,-0.0014146022103834,0.0014146022103834,-0.0014146022103834,0.0014146022103834,-0.0014146022103834,0.0014146022103834,-0.0013566535854179,0.0013566535854179,-0.0013566535854179,0.0013566535854179,0.62934321493694,0.62225485967096,1270536,32768,0.0057347627144442,0.0057347627144443,0.0057347627144443,15.783997811008,15.75983803545,4.1471982488064e-05,4.1471982488064e-05,4.1471982488064e-05,410335.85173545,0.017353362717928
21340800,0.9998400532637,0.017085802617579,0.005695267539193,0.0056952675391931,0.0056952675391931,-0.0013797710571998,0.0013797710571998,-4.6763277296331e-18,-1.088202050292e-18,3.1493155552774e-16,-3.2354893933141e-16,-0.0014140474264168,0.001414047426417,-0.0014140474264168,0.001414047426417,-0.001414047426417,0.0014140474264168,-0.001414047426417,0.0014140474264168,-0.0013561290808371,0.0013561290808369,-0.0013561290808371,0.0013561290808369,-2.9446159263577e-16,3.4210719591882e-16,1.9469993440359e-17,2.39110342402e-17,-0.0013797710571998,0.0013797710571999,-0.001414047426417,0.0014140474264168,-0.001414047426417,0.0014140474264168,-0.0014140474264167,0.001414047426417,-0.0014140474264167,0.001414047426417,-0.0013561290808369,0.0013561290808371,-0.0013561290808369,0.0013561290808371,-0.0013561290808373,0.0013561290808367,-0.0013561290808367,0.0013561290808373,-6.6174449004242e-18,-1.0117337981093e-17,-0.0013797710571998,0.0013797710571998,-6.2645145057349e-18,-9.7055858539555e-18,-0.0014140474264169,0.0014140474264169,-0.0014140474264169,0.0014140474264169,-0.0014140474264169,0.0014140474264169,-0.0014140474264169,0.0014140474264169,-0.001356129080837,0.001356129080837,-0.001356129080837,0.001356129080837,0.63076438456229,0.63143452760917,1270536,32768,0.0057325374820218,0.0057325374820219,0.0057325374820219,15.492256896441,15.473137698729,3.9138055171526e-05,3.9138055171526e-05,3.9138055171526e-05,408923.11912402,0.01734657115932
21427200,0.99984255453887,0.017085842031832,0.0056952806772772,0.0056952806772772,0.0056952806772773,-0.0013792458391619,0.0013792458391619,-4.2057538700474e-18,-7.0586078937858e-19,3.1540212938733e-16,-3.231665980705e-16,-0.001413506856483,0.0014135068564832,-0.001413506856483,0.0014135068564832,-0.0014135068564832,0.001413506856483,-0.0014135068564832,0.001413506856483,-0.0013556140835188,0.0013556140835186,-0.0013556140835188,0.0013556140835186,-2.9428512743842e-16,3.4243071544729e-16,1.9705280370152e-17,2.4263964634889e-17,-0.0013792458391619,0.0013792458391619,-0.0014135068564832,0.001413506856483,-0.0014135068564832,0.001413506856483,-0.001413506856483,0.0014135068564832,-0.001413506856483,0.0014135068564832,-0.0013556140835186,0.0013556140835188,-0.0013556140835186,0.0013556140835188,-0.001355614083519,0.0013556140835185,-0.0013556140835184,0.0013556140835191,-6.8527318302171e-18,-1.0234981445989e-17,-0.0013792458391619,0.0013792458391619,-6.4703905693037e-18,-1.0087927114869e-17,-0.0014135068564831,0.0014135068564831,-0.0014135068564831,0.0014135068564831,-0.0014135068564831,0.0014135068564831,-0.0014135068564831,0.0014135068564831,-0.0013556140835187,0.0013556140835187,-0.0013556140835187,0.0013556140835187,0.63276389062286,0.64061419554737,1270536,32768,0.0057303615859619,0.005730361585962,0.005730361585962,15.205103527933,15.186437362008,3.6840828223459e-05,3.6840828223459e-05,3.6840828223459e-05,407433.20517748,0.017339930278967
21513600,0.99984497192956,0.017085881598276,0.005695293866092,0.005695293866092,0.005695293866092,-0.0013787231488911,0.0013787231488911,-4.7939711945295e-18,-1.1764346489643e-18,3.1493155552774e-16,-3.2404892405722e-16,-0.0014129698818646,0.0014129698818648,-0.0014129698818646,0.0014129698818648,-0.0014129698818648,0.0014129698818646,-0.0014129698818648,0.0014129698818646,-0.0013551004006967,0.0013551004006965,-0.0013551004006968,0.0013551004006965,-2.9493216649535e-16,3.420777850526e-16,1.9146473911894e-17,2.3822801641527e-17,-0.0013787231488911,0.0013787231488911,-0.0014129698818648,0.0014129698818646,-0.0014129698818648,0.0014129698818646,-0.0014129698818645,0.0014129698818648,-0.0014129698818645,0.0014129698818648,-0.0013551004006965,0.0013551004006967,-0.0013551004006965,0.0013551004006968,-0.0013551004006969,0.0013551004006964,-0.0013551004006963,0.001355100400697,-7.0291970275617e-18,-1.0440857509558e-17,-0.0013787231488911,0.0013787231488911,-6.558623167976e-18,-1.0087927114869e-17,-0.0014129698818647,0.0014129698818647,-0.0014129698818647,0.0014129698818647,-0.0014129698818647,0.0014129698818647,-0.0014129698818647,0.0014129698818647,-0.0013551004006966,0.0013551004006966,-0.0013551004006966,0.0013551004006966,0.65725350109846,0.77112383032438,1270536,32768,0.0057281961502538,0.0057281961502539,0.0057281961502539,14.918359681346,14.899737025288,3.4546877450769e-05,3.4546877450769e-05,3.4546877450769e-05,405852.53484108,0.017333321388278
21600000,0.99984730883187,0.017085919392461,0.0056953064641538,0.0056953064641538,0.0056953064641538,-0.0013784786057149,0.0013784786057149,-4.5586842647367e-18,-7.646825218268e-19,3.1563741631712e-16,-3.246371413817e-16,-0.0014126177838692,0.0014126177838694,-0.0014126177838692,0.0014126177838694,-0.0014126177838694,0.0014126177838692,-0.0014126177838695,0.0014126177838692,-0.0013549474295159,0.0013549474295157,-0.0013549474295159,0.0013549474295157,-2.9399101877618e-16,3.4416595655451e-16,1.9999389032393e-17,2.5881562277215e-17,-0.0013784786057149,0.0013784786057149,-0.0014126177838694,0.0014126177838692,-0.0014126177838694,0.0014126177838692,-0.0014126177838692,0.0014126177838694,-0.0014126177838692,0.0014126177838695,-0.0013549474295157,0.0013549474295159,-0.0013549474295157,0.0013549474295159,-0.0013549474295161,0.0013549474295155,-0.0013549474295155,0.0013549474295162,-9.9408727837484e-18,-1.352899846309e-17,-0.0013784786057149,0.0013784786057149,-8.5879729374394e-18,-1.3352533265745e-17,-0.0014126177838693,0.0014126177838693,-0.0014126177838693,0.0014126177838693,-0.0014126177838693,0.0014126177838693,-0.0014126177838693,0.0014126177838693,-0.0013549474295158,0.0013549474295158,-0.0013549474295158,0.0013549474295158,0.64941714346141,0.66996005977474,1270536,32768,0.0057271830025205,0.0057271830025205,0.0057271830025205,14.631655097835,14.613036688567,3.2253240782681e-05,3.2253240782681e-05,3.2253240782681e-05,394983.47889565,0.017330229936945
21686400,0.99984956847341,0.017085955740948,0.0056953185803159,0.0056953185803159,0.0056953185803159,-0.0013777632198905,0.0013777632198905,-5.0586689905465e-18,-1.2646672476366e-18,3.1557859458468e-16,-3.2519594783996e-16,-0.0014119611119185,0.0014119611119187,-0.0014119611119185,0.0014119611119187,-0.0014119611119187,0.0014119611119185,-0.0014119611119187,0.0014119611119185,-0.0013541631451729,0.0013541631451727,-0.0013541631451729,0.0013541631451727,-3.0134373533221e-16,3.3740145732296e-16,1.2411385546573e-17,1.811709359405e-17,-0.0013777632198905,0.0013777632198905,-0.0014119611119187,0.0014119611119185,-0.0014119611119187,0.0014119611119185,-0.0014119611119184,0.0014119611119187,-0.0014119611119184,0.0014119611119187,-0.0013541631451727,0.0013541631451729,-0.0013541631451727,0.0013541631451729,-0.0013541631451731,0.0013541631451725,-0.0013541631451725,0.0013541631451732,-6.8527318302171e-18,-1.0617322706903e-17,-0.0013777632198905,0.0013777632198905,-6.6468557666483e-18,-1.1617292158523e-17,-0.0014119611119186,0.0014119611119186,-0.0014119611119186,0.0014119611119186,-0.0014119611119186,0.0014119611119186,-0.0014119611119186,0.0014119611119186,-0.0013541631451728,0.0013541631451728,-0.0013541631451728,0.0013541631451728,0.64585282437233,0.65084678893061,1270536,32768,0.0057242191798519,0.005724219179852,0.005724219179852,14.344954344791,14.326336351846,2.9959634758323e-05,2.9959634758323e-05,2.9959634758323e-05,399224.2759204,0.01732118418734
21772800,0.99985175392752,0.017085990651977,0.0056953302173256,0.0056953302173256,0.0056953302173256,-0.0013771495520232,0.0013771495520232,-4.5586842647367e-18,-7.9409338805091e-19,3.1622563364161e-16,-3.2478419571282e-16,-0.0014113718706707,0.0014113718706709,-0.0014113718706707,0.0014113718706709,-0.0014113718706709,0.0014113718706707,-0.0014113718706709,0.0014113718706707,-0.0013535285132183,0.0013535285132181,-0.0013535285132183,0.0013535285132181,-2.9557920555228e-16,3.4346009576513e-16,1.8499434854964e-17,2.4352197233561e-17,-0.0013771495520232,0.0013771495520232,-0.0014113718706709,0.0014113718706707,-0.0014113718706709,0.0014113718706707,-0.0014113718706707,0.0014113718706709,-0.0014113718706707,0.0014113718706709,-0.0013535285132181,0.0013535285132183,-0.0013535285132181,0.0013535285132183,-0.0013535285132185,0.0013535285132179,-0.0013535285132179,0.0013535285132186,-7.7056469507162e-18,-1.138200522873e-17,-0.0013771495520232,0.0013771495520232,-6.6762666328724e-18,-1.1646703024747e-17,-0.0014113718706708,0.0014113718706708,-0.0014113718706708,0.0014113718706708,-0.0014113718706708,0.0014113718706708,-0.0014113718706708,0.0014113718706708,-0.0013535285132182,0.0013535285132182,-0.0013535285132182,0.0013535285132182,0.64139422963071,0.63173351808648,1270536,32768,0.0057216768274461,0.0057216768274461,0.0057216768274461,14.058253967206,14.039636015125,2.7666031737646e-05,2.7666031737646e-05,2.7666031737646e-05,400405.67821564,0.017313424920369
21859200,0.99985388453732,0.017086024401662,0.0056953414672207,0.0056953414672208,0.0056953414672208,-0.0013767671460148,0.0013767671460147,-4.8822037932019e-18,-1.0293803178438e-18,3.1581388151447e-16,-3.2516653697373e-16,-0.0014110086085479,0.0014110086085481,-0.0014110086085479,0.0014110086085481,-0.0014110086085481,0.0014110086085479,-0.0014110086085481,0.0014110086085479,-0.0013531316475826,0.0013531316475823,-0.0013531316475826,0.0013531316475824,-2.9504980996025e-16,3.4401890222339e-16,1.8940597848325e-17,2.5322755818957e-17,-0.0013767671460147,0.0013767671460148,-0.0014110086085481,0.0014110086085479,-0.0014110086085481,0.0014110086085479,-0.0014110086085478,0.0014110086085481,-0.0014110086085478,0.0014110086085481,-0.0013531316475824,0.0013531316475826,-0.0013531316475824,0.0013531316475826,-0.0013531316475828,0.0013531316475822,-0.0013531316475822,0.0013531316475828,-7.1468404924582e-18,-1.0646733573127e-17,-0.0013767671460148,0.0013767671460148,-5.9409949772697e-18,-1.1176129165161e-17,-0.001411008608548,0.001411008608548,-0.001411008608548,0.001411008608548,-0.001411008608548,0.001411008608548,-0.001411008608548,0.001411008608548,-0.0013531316475825,0.0013531316475824,-0.0013531316475825,0.0013531316475825,0.63602349960495,0.61262024724234,1270536,32768,0.0057200925882645,0.0057200925882646,0.0057200925882646,13.891246495584,13.880143341192,2.6329971964669e-05,2.6329971964669e-05,2.6329971964669e-05,401564.70265674,0.017308589718724
21945600,0.99985600246966,0.017086057623494,0.0056953525411645,0.0056953525411645,0.0056953525411645,-0.001376959854351,0.001376959854351,-5.2057233216671e-18,-1.5293650436536e-18,3.1563741631712e-16,-3.2563711083332e-16,-0.0014112143958735,0.0014112143958737,-0.0014112143958735,0.0014112143958737,-0.0014112143958737,0.0014112143958735,-0.0014112143958737,0.0014112143958735,-0.0013533153490842,0.0013533153490839,-0.0013533153490842,0.001353315349084,-2.9546156208739e-16,3.4378361529359e-16,1.861707831986e-17,2.4852181959371e-17,-0.001376959854351,0.001376959854351,-0.0014112143958736,0.0014112143958735,-0.0014112143958737,0.0014112143958735,-0.0014112143958734,0.0014112143958737,-0.0014112143958734,0.0014112143958737,-0.0013533153490839,0.0013533153490842,-0.001353315349084,0.0013533153490842,-0.0013533153490844,0.0013533153490838,-0.0013533153490838,0.0013533153490844,-6.5292123017519e-18,-1.0205570579765e-17,-0.001376959854351,0.001376959854351,-5.3527776527876e-18,-1.0705555305575e-17,-0.0014112143958736,0.0014112143958735,-0.0014112143958736,0.0014112143958735,-0.0014112143958736,0.0014112143958735,-0.0014112143958736,0.0014112143958735,-0.0013533153490841,0.001353315349084,-0.0013533153490841,0.0013533153490841,0.62983407304738,0.59350697639821,1270536,32768,0.0057208910159945,0.0057208910159945,0.0057208910159945,14.023047452066,14.030949381117,2.7384379616528e-05,2.7384379616528e-05,2.7384379616528e-05,402723.93962164,0.01731102614348
22032000,0.99985810987334,0.017086090316518,0.0056953634388393,0.0056953634388394,0.0056953634388394,-0.0013771842825649,0.0013771842825649,-4.9704363918742e-18,-1.2646672476366e-18,3.1587270324692e-16,-3.2531359130486e-16,-0.0014114576419146,0.0014114576419148,-0.0014114576419146,0.0014114576419148,-0.0014114576419148,0.0014114576419146,-0.0014114576419148,0.0014114576419146,-0.0013535275783176,0.0013535275783174,-0.0013535275783176,0.0013535275783174,-2.9581449248207e-16,3.4346009576513e-16,1.811709359405e-17,2.4675716762026e-17,-0.0013771842825649,0.0013771842825649,-0.0014114576419148,0.0014114576419146,-0.0014114576419148,0.0014114576419146,-0.0014114576419145,0.0014114576419148,-0.0014114576419145,0.0014114576419148,-0.0013535275783174,0.0013535275783176,-0.0013535275783174,0.0013535275783176,-0.0013535275783178,0.0013535275783172,-0.0013535275783172,0.0013535275783179,-6.3233362381831e-18,-9.9996945161966e-18,-0.0013771842825649,0.0013771842825649,-5.0586689905465e-18,-1.0529090108231e-17,-0.0014114576419147,0.0014114576419147,-0.0014114576419147,0.0014114576419147,-0.0014114576419147,0.0014114576419147,-0.0014114576419147,0.0014114576419147,-0.0013535275783175,0.0013535275783175,-0.0013535275783175,0.0013535275783175,0.62292144661894,0.57439370555408,1270536,32768,0.0057218208382639,0.005721820838264,0.005721820838264,14.172144229142,14.181755421043,2.8577153833133e-05,2.8577153833133e-05,2.8577153833133e-05,404298.33300449,0.01731386368691
22118400,0.99986020668798,0.017086122449759,0.0056953741499197,0.0056953741499198,0.0056953741499198,-0.001377410395444,0.001377410395444,-5.8821732448215e-18,-1.9999389032393e-18,3.1510802072509e-16,-3.2599004122801e-16,-0.0014117020083092,0.0014117020083094,-0.0014117020083092,0.0014117020083094,-0.0014117020083094,0.0014117020083092,-0.0014117020083095,0.0014117020083092,-0.0013537422813991,0.0013537422813988,-0.0013537422813991,0.0013537422813989,-2.9622624460921e-16,3.4296011103932e-16,1.7852395798033e-17,2.4322786367337e-17,-0.001377410395444,0.0013774103954441,-0.0014117020083094,0.0014117020083092,-0.0014117020083094,0.0014117020083092,-0.0014117020083092,0.0014117020083094,-0.0014117020083092,0.0014117020083095,-0.0013537422813988,0.0013537422813991,-0.0013537422813989,0.0013537422813991,-0.0013537422813992,0.0013537422813987,-0.0013537422813987,0.0013537422813993,-6.6468557666483e-18,-1.0234981445989e-17,-0.0013774103954441,0.001377410395444,-5.3233667865635e-18,-1.102907483404e-17,-0.0014117020083093,0.0014117020083093,-0.0014117020083093,0.0014117020083093,-0.0014117020083093,0.0014117020083093,-0.0014117020083093,0.0014117020083093,-0.001353742281399,0.0013537422813989,-0.001353742281399,0.001353742281399,0.61536673530373,0.55528043470995,1270536,32768,0.0057227576426746,0.0057227576426747,0.0057227576426747,14.322786081016,14.332561460968,2.9782288648129e-05,2.9782288648129e-05,2.9782288648129e-05,406061.34037362,0.017316722543046
22204800,0.99986229266032,0.017086154084405,0.0056953846948017,0.0056953846948017,0.0056953846948017,-0.0013776358895001,0.0013776358895001,-5.999816709718e-18,-2.3234584317045e-18,3.1493155552774e-16,-3.2637238248892e-16,-0.0014119445105879,0.0014119445105881,-0.0014119445105879,0.0014119445105881,-0.0014119445105881,0.0014119445105879,-0.0014119445105881,0.0014119445105879,-0.0013539573664462,0.001353957366446,-0.0013539573664463,0.001353957366446,-2.9693210539859e-16,3.4240130458106e-16,1.7117124142431e-17,2.3705158176631e-17,-0.0013776358895001,0.0013776358895001,-0.0014119445105881,0.0014119445105879,-0.0014119445105881,0.0014119445105879,-0.0014119445105878,0.0014119445105881,-0.0014119445105879,0.0014119445105881,-0.001353957366446,0.0013539573664462,-0.001353957366446,0.0013539573664463,-0.0013539573664464,0.0013539573664459,-0.0013539573664458,0.0013539573664465,-6.6174449004242e-18,-1.0176159713541e-17,-0.0013776358895001,0.0013776358895001,-5.4998319839081e-18,-1.1117307432713e-17,-0.001411944510588,0.001411944510588,-0.001411944510588,0.001411944510588,-0.001411944510588,0.001411944510588,-0.001411944510588,0.001411944510588,-0.0013539573664461,0.0013539573664461,-0.0013539573664461,0.0013539573664461,0.60898661763153,0.54581434588776,1270536,32768,0.0057236918872259,0.005723691887226,0.005723691887226,14.473576094589,14.483367500893,3.0988608756709e-05,3.0988608756709e-05,3.0988608756709e-05,407979.50234646,0.017319573581192
22291200,0.99986436752078,0.017086186218264,0.005695395406088,0.0056953954060881,0.0056953954060881,-0.0013778856084147,0.0013778856084147,-5.2057233216671e-18,-1.5587759098777e-18,3.1551977285223e-16,-3.2543123476975e-16,-0.0014122016175134,0.0014122016175136,-0.0014122016175134,0.0014122016175136,-0.0014122016175136,0.0014122016175134,-0.0014122016175136,0.0014122016175134,-0.0013542050838356,0.0013542050838354,-0.0013542050838356,0.0013542050838354,-2.9640270980656e-16,3.4263659151085e-16,1.7587698002016e-17,2.39110342402e-17,-0.0013778856084147,0.0013778856084148,-0.0014122016175136,0.0014122016175134,-0.0014122016175136,0.0014122016175134,-0.0014122016175133,0.0014122016175136,-0.0014122016175133,0.0014122016175136,-0.0013542050838354,0.0013542050838356,-0.0013542050838354,0.0013542050838356,-0.0013542050838358,0.0013542050838352,-0.0013542050838352,0.0013542050838358,-6.7644992315448e-18,-1.0293803178438e-17,-0.0013778856084148,0.0013778856084148,-5.6174754488046e-18,-1.0999663967816e-17,-0.0014122016175135,0.0014122016175135,-0.0014122016175135,0.0014122016175135,-0.0014122016175135,0.0014122016175135,-0.0014122016175135,0.0014122016175134,-0.0013542050838355,0.0013542050838355,-0.0013542050838355,0.0013542050838355,0.62191243344957,0.6415819639154,1270536,32768,0.005724726493378,0.0057247264933781,0.0057247264933781,14.624380563387,14.634173540819,3.2195044507097e-05,3.2195044507097e-05,3.2195044507097e-05,409213.37220131,0.01732273096947
22377600,0.99986643100028,0.017086218658986,0.005695406219662,0.0056954062196621,0.0056954062196621,-0.0013784005828515,0.0013784005828515,-5.9704058434939e-18,-2.2058149668081e-18,3.146374468655e-16,-3.2599004122801e-16,-0.0014126332838306,0.0014126332838308,-0.0014126332838306,0.0014126332838308,-0.0014126332838308,0.0014126332838306,-0.0014126332838308,0.0014126332838306,-0.0013547970991181,0.0013547970991179,-0.0013547970991181,0.0013547970991179,-2.9628506634166e-16,3.4243071544729e-16,1.797003926293e-17,2.3646336444183e-17,-0.0013784005828515,0.0013784005828516,-0.0014126332838308,0.0014126332838306,-0.0014126332838308,0.0014126332838306,-0.0014126332838305,0.0014126332838308,-0.0014126332838306,0.0014126332838308,-0.0013547970991179,0.0013547970991181,-0.0013547970991179,0.0013547970991181,-0.0013547970991183,0.0013547970991177,-0.0013547970991177,0.0013547970991184,-5.7939406461492e-18,-9.1467793956975e-18,-0.0013784005828516,0.0013784005828515,-4.7057385958572e-18,-9.3526554592662e-18,-0.0014126332838307,0.0014126332838307,-0.0014126332838307,0.0014126332838307,-0.0014126332838307,0.0014126332838307,-0.0014126332838307,0.0014126332838307,-0.001354797099118,0.001354797099118,-0.001354797099118,0.001354797099118,0.63131506093414,0.67319470915953,1270536,32768,0.0057268599869528,0.0057268599869528,0.0057268599869528,14.7751864491,14.784979580744,3.3401491592801e-05,3.3401491592801e-05,3.3401491592801e-05,401615.29234891,0.017329242741881
22464000,0.99986848283208,0.017086251361758,0.0056954171205859,0.0056954171205859,0.0056954171205859,-0.0013788077342911,0.0013788077342911,-6.3527471044073e-18,-2.4411018966009e-18,3.1422569473837e-16,-3.2610768469291e-16,-0.0014129974038164,0.0014129974038166,-0.0014129974038164,0.0014129974038166,-0.0014129974038166,0.0014129974038164,-0.0014129974038166,0.0014129974038164,-0.001355232723111,0.0013552327231108,-0.0013552327231111,0.0013552327231108,-2.949909882278e-16,3.4343068489891e-16,1.8940597848325e-17,2.4528662430906e-17,-0.0013788077342911,0.0013788077342911,-0.0014129974038165,0.0014129974038164,-0.0014129974038166,0.0014129974038164,-0.0014129974038163,0.0014129974038166,-0.0014129974038163,0.0014129974038166,-0.0013552327231108,0.001355232723111,-0.0013552327231108,0.0013552327231111,-0.0013552327231112,0.0013552327231107,-0.0013552327231106,0.0013552327231113,-7.5291817533716e-18,-1.1411416094954e-17,-0.0013788077342911,0.0013788077342911,-6.6468557666483e-18,-1.1323183496281e-17,-0.0014129974038165,0.0014129974038164,-0.0014129974038165,0.0014129974038165,-0.0014129974038165,0.0014129974038164,-0.0014129974038165,0.0014129974038164,-0.0013552327231109,0.0013552327231109,-0.0013552327231109,0.0013552327231109,0.63996843314282,0.69548811134313,1270536,32768,0.0057285467200503,0.0057285467200503,0.0057285467200503,14.925992473884,14.93578562067,3.4607939791069e-05,3.4607939791069e-05,3.4607939791069e-05,397273.34351066,0.017334390922556
22550400,0.99987052275202,0.017086284247548,0.0056954280825161,0.0056954280825161,0.0056954280825161,-0.0013791856524812,0.0013791856524812,-6.3233362381831e-18,-2.3528692979286e-18,3.1410805127347e-16,-3.2604886296046e-16,-0.001413346682756,0.0014133466827562,-0.001413346682756,0.0014133466827562,-0.0014133466827562,0.001413346682756,-0.0014133466827562,0.001413346682756,-0.0013556260722265,0.0013556260722263,-0.0013556260722265,0.0013556260722263,-2.9575567074963e-16,3.4248953717973e-16,1.7881806664257e-17,2.3675747310407e-17,-0.0013791856524812,0.0013791856524813,-0.0014133466827562,0.001413346682756,-0.0014133466827562,0.001413346682756,-0.0014133466827559,0.0014133466827562,-0.0014133466827559,0.0014133466827562,-0.0013556260722263,0.0013556260722265,-0.0013556260722263,0.0013556260722265,-0.0013556260722267,0.0013556260722262,-0.0013556260722261,0.0013556260722268,-8.1762208103019e-18,-1.1617292158523e-17,-0.0013791856524813,0.0013791856524812,-6.9115535626653e-18,-1.2146687750556e-17,-0.0014133466827561,0.0014133466827561,-0.0014133466827561,0.0014133466827561,-0.0014133466827561,0.0014133466827561,-0.0014133466827561,0.0014133466827561,-0.0013556260722264,0.0013556260722264,-0.0013556260722264,0.0013556260722264,0.6472719916599,0.70836833440602,1270536,32768,0.0057301123319112,0.0057301123319113,0.0057301123319113,15.076798512322,15.086591660595,3.5814388098577e-05,3.5814388098577e-05,3.5814388098577e-05,393747.85526282,0.017339169432817
22636800,0.99987254658442,0.017086317232656,0.005695439077552,0.0056954390775521,0.0056954390775521,-0.0013794769612225,0.0013794769612225,-4.8527929269778e-18,-1.1470237827402e-18,3.1569623804957e-16,-3.2490183917772e-16,-0.001413622857496,0.0014136228574962,-0.001413622857496,0.0014136228574962,-0.0014136228574962,0.001413622857496,-0.0014136228574962,0.001413622857496,-0.0013559224681014,0.0013559224681011,-0.0013559224681014,0.0013559224681011,-2.9616742287676e-16,3.4225425024994e-16,1.8087682727826e-17,2.3469871246838e-17,-0.0013794769612225,0.0013794769612225,-0.0014136228574962,0.001413622857496,-0.0014136228574962,0.001413622857496,-0.0014136228574959,0.0014136228574962,-0.0014136228574959,0.0014136228574962,-0.0013559224681011,0.0013559224681014,-0.0013559224681011,0.0013559224681014,-0.0013559224681015,0.001355922468101,-0.0013559224681009,0.0013559224681016,-7.0291970275617e-18,-1.0852609636696e-17,-0.0013794769612225,0.0013794769612225,-6.0586384421662e-18,-1.0852609636696e-17,-0.0014136228574961,0.0014136228574961,-0.0014136228574961,0.0014136228574961,-0.0014136228574961,0.0014136228574961,-0.0014136228574961,0.001413622857496,-0.0013559224681012,0.0013559224681012,-0.0013559224681012,0.0013559224681012,0.65436000716913,0.72124855746891,1270536,32768,0.0057313191281139,0.005731319128114,0.005731319128114,15.197374193365,15.205269359804,3.6778993546915e-05,3.6778993546915e-05,3.6778993546915e-05,391063.4390228,0.017342852816556
22723200,0.99987454545969,0.017086350165012,0.005695450055004,0.005695450055004,0.005695450055004,-0.0013796286545453,0.0013796286545452,-6.2056927732867e-18,-2.3528692979286e-18,3.1422569473837e-16,-3.263429716227e-16,-0.0014137650226713,0.0014137650226715,-0.0014137650226714,0.0014137650226715,-0.0014137650226716,0.0014137650226713,-0.0014137650226716,0.0014137650226713,-0.0013560767927854,0.0013560767927852,-0.0013560767927854,0.0013560767927852,-2.9552038381983e-16,3.4287187844065e-16,1.8764132650981e-17,2.405808857132e-17,-0.0013796286545452,0.0013796286545453,-0.0014137650226715,0.0014137650226713,-0.0014137650226715,0.0014137650226713,-0.0014137650226713,0.0014137650226715,-0.0014137650226713,0.0014137650226716,-0.0013560767927852,0.0013560767927854,-0.0013560767927852,0.0013560767927854,-0.0013560767927856,0.001356076792785,-0.001356076792785,0.0013560767927857,-7.1174296262341e-18,-1.1058485700264e-17,-0.0013796286545453,0.0013796286545453,-6.6174449004242e-18,-1.1058485700264e-17,-0.0014137650226714,0.0014137650226714,-0.0014137650226714,0.0014137650226714,-0.0014137650226714,0.0014137650226714,-0.0014137650226714,0.0014137650226714,-0.0013560767927853,0.0013560767927853,-0.0013560767927853,0.0013560767927853,0.66145355557353,0.73412878053179,1270536,32768,0.0057319475174993,0.0057319475174994,0.0057319475174994,15.249681545368,15.253228751199,3.7197452362945e-05,3.7197452362945e-05,3.7197452362945e-05,388586.26662913,0.017344770898346
22809600,0.99987651907762,0.017086383035745,0.0056954610119149,0.005695461011915,0.005695461011915,-0.0013797684477034,0.0013797684477034,-5.4998319839081e-18,-1.8822954383429e-18,3.1510802072509e-16,-3.2531359130486e-16,-0.0014138964720119,0.0014138964720121,-0.0014138964720119,0.0014138964720121,-0.0014138964720121,0.0014138964720119,-0.0014138964720121,0.0014138964720119,-0.0013562194479388,0.0013562194479386,-0.0013562194479388,0.0013562194479386,-2.965791750039e-16,3.4193073072148e-16,1.7646519734465e-17,2.3116940852149e-17,-0.0013797684477034,0.0013797684477035,-0.001413896472012,0.0014138964720119,-0.0014138964720121,0.0014138964720119,-0.0014138964720118,0.0014138964720121,-0.0014138964720118,0.0014138964720121,-0.0013562194479386,0.0013562194479388,-0.0013562194479386,0.0013562194479388,-0.001356219447939,0.0013562194479384,-0.0013562194479384,0.001356219447939,-7.8232904156126e-18,-1.1617292158523e-17,-0.0013797684477035,0.0013797684477034,-7.1174296262341e-18,-1.1676113890971e-17,-0.001413896472012,0.0014138964720119,-0.001413896472012,0.001413896472012,-0.001413896472012,0.0014138964720119,-0.001413896472012,0.0014138964720119,-0.0013562194479387,0.0013562194479386,-0.0013562194479387,0.0013562194479387,0.66864475245559,0.74700900359468,1270536,32768,0.0057325266141488,0.0057325266141489,0.0057325266141489,15.298032080667,15.301188142595,3.7584256645337e-05,3.7584256645337e-05,3.7584256645337e-05,386124.46215809,0.01734653850378
22896000,0.99987846761474,0.017086413363905,0.0056954711213017,0.0056954711213018,0.0056954711213018,-0.0013799041928255,0.0013799041928254,-5.1174907229947e-18,-1.4411324449813e-18,3.1528448592243e-16,-3.253724130373e-16,-0.0014140253908074,0.0014140253908076,-0.0014140253908074,0.0014140253908076,-0.0014140253908076,0.0014140253908074,-0.0014140253908076,0.0014140253908074,-0.0013563578129783,0.0013563578129781,-0.0013563578129784,0.0013563578129781,-2.9552038381983e-16,3.4316598710289e-16,1.8734721784757e-17,2.4411018966009e-17,-0.0013799041928254,0.0013799041928255,-0.0014140253908076,0.0014140253908074,-0.0014140253908076,0.0014140253908074,-0.0014140253908073,0.0014140253908076,-0.0014140253908074,0.0014140253908076,-0.0013563578129781,0.0013563578129783,-0.0013563578129781,0.0013563578129784,-0.0013563578129785,0.001356357812978,-0.0013563578129779,0.0013563578129786,-6.5880340342001e-18,-1.038203577711e-17,-0.0013799041928255,0.0013799041928255,-5.8527623785974e-18,-1.0734966171799e-17,-0.0014140253908075,0.0014140253908075,-0.0014140253908075,0.0014140253908075,-0.0014140253908075,0.0014140253908075,-0.0014140253908075,0.0014140253908075,-0.0013563578129782,0.0013563578129782,-0.0013563578129782,0.0013563578129782,0.62486028984309,0.47808803407847,1270536,32768,0.0057330889426016,0.0057330889426016,0.0057330889426016,15.346029046941,15.34914753399,3.7968232375528e-05,3.7968232375528e-05,3.7968232375528e-05,383684.81567846,0.017348254926224
22982400,0.99988039128883,0.017086443300913,0.0056954811003043,0.0056954811003044,0.0056954811003044,-0.0013793742752514,0.0013793742752514,-4.4998625322885e-18,-4.1175212713751e-19,3.1622563364161e-16,-3.2457831964925e-16,-0.0014137170418423,0.0014137170418425,-0.0014137170418423,0.0014137170418425,-0.0014137170418426,0.0014137170418423,-0.0014137170418426,0.0014137170418423,-0.0013556256839843,0.001355625683984,-0.0013556256839843,0.001355625683984,-2.9710857059594e-16,3.4157780032679e-16,1.7175945874879e-17,2.30581191197e-17,-0.0013793742752514,0.0013793742752515,-0.0014137170418425,0.0014137170418423,-0.0014137170418425,0.0014137170418423,-0.0014137170418423,0.0014137170418425,-0.0014137170418423,0.0014137170418426,-0.001355625683984,0.0013556256839843,-0.0013556256839841,0.0013556256839843,-0.0013556256839844,0.0013556256839839,-0.0013556256839838,0.0013556256839845,-8.4409186063189e-18,-1.1999633419436e-17,-0.0013793742752515,0.0013793742752514,-7.5585926195957e-18,-1.2264331215453e-17,-0.0014137170418424,0.0014137170418424,-0.0014137170418424,0.0014137170418424,-0.0014137170418424,0.0014137170418424,-0.0014137170418424,0.0014137170418424,-0.0013556256839841,0.0013556256839841,-0.0013556256839841,0.0013556256839841,0.62475989176924,0.56798774821511,1270536,32768,0.0057308935876635,0.0057308935876635,0.0057308935876635,15.393992106076,15.397106925386,3.8351936848609e-05,3.8351936848609e-05,3.8351936848609e-05,403208.88489632,0.017341553354105
23068800,0.99988229032105,0.017086472683225,0.0056954908944084,0.0056954908944085,0.0056954908944085,-0.0013795712775069,0.0013795712775069,-5.8527623785974e-18,-1.8234737058947e-18,3.1499037726019e-16,-3.2546064563598e-16,-0.0014138766703231,0.0014138766703233,-0.0014138766703231,0.0014138766703233,-0.0014138766703233,0.0014138766703231,-0.0014138766703233,0.0014138766703231,-0.0013558860792741,0.0013558860792739,-0.0013558860792741,0.0013558860792739,-2.951086316927e-16,3.4348950663135e-16,1.8911186982101e-17,2.455807329713e-17,-0.0013795712775069,0.0013795712775069,-0.0014138766703233,0.0014138766703231,-0.0014138766703233,0.0014138766703231,-0.001413876670323,0.0014138766703233,-0.0014138766703231,0.0014138766703233,-0.0013558860792739,0.0013558860792741,-0.0013558860792739,0.0013558860792741,-0.0013558860792743,0.0013558860792737,-0.0013558860792737,0.0013558860792743,-7.6174143520439e-18,-1.1734935623419e-17,-0.0013795712775069,0.0013795712775069,-6.7939100977689e-18,-1.1587881292298e-17,-0.0014138766703232,0.0014138766703232,-0.0014138766703232,0.0014138766703232,-0.0014138766703232,0.0014138766703232,-0.0014138766703232,0.0014138766703232,-0.001355886079274,0.001355886079274,-0.001355886079274,0.001355886079274,0.62127853541428,0.57343655006176,1270536,32768,0.0057317098757002,0.0057317098757002,0.0057317098757002,15.441951857036,15.445066316781,3.8735614856291e-05,3.8735614856291e-05,3.8735614856291e-05,399713.16448841,0.017344044681793
23155200,0.99988416493229,0.017086501607546,0.0056955005358485,0.0056955005358485,0.0056955005358485,-0.0013796636388738,0.0013796636388737,-5.3233667865635e-18,-1.3823107125331e-18,3.1534330765488e-16,-3.2504889350884e-16,-0.001413962544435,0.0014139625444352,-0.001413962544435,0.0014139625444352,-0.0014139625444352,0.001413962544435,-0.0014139625444352,0.0014139625444349,-0.0013559923069406,0.0013559923069404,-0.0013559923069406,0.0013559923069404,-2.9546156208739e-16,3.4304834363799e-16,1.8646489186084e-17,2.4646305895802e-17,-0.0013796636388737,0.0013796636388738,-0.0014139625444351,0.0014139625444349,-0.0014139625444351,0.0014139625444349,-0.0014139625444349,0.0014139625444351,-0.0014139625444349,0.0014139625444352,-0.0013559923069404,0.0013559923069406,-0.0013559923069404,0.0013559923069406,-0.0013559923069408,0.0013559923069402,-0.0013559923069402,0.0013559923069409,-7.382127422251e-18,-1.152905955985e-17,-0.0013796636388738,0.0013796636388738,-6.5880340342001e-18,-1.1499648693626e-17,-0.0014139625444351,0.001413962544435,-0.0014139625444351,0.001413962544435,-0.0014139625444351,0.001413962544435,-0.0014139625444351,0.001413962544435,-0.0013559923069405,0.0013559923069405,-0.0013559923069405,0.0013559923069405,0.61954260315024,0.5822478885742,1270536,32768,0.0057320925676173,0.0057320925676174,0.0057320925676174,15.489911283725,15.493025708177,3.9119290269798e-05,3.9119290269798e-05,3.9119290269798e-05,399485.06594284,0.017345212564557
23241600,0.99988601534287,0.017086530584928,0.0056955101949759,0.005695510194976,0.005695510194976,-0.0013797717623039,0.0013797717623039,-6.2645145057349e-18,-2.176404100584e-18,3.1451980340061e-16,-3.2607827382668e-16,-0.0014140588342276,0.0014140588342278,-0.0014140588342276,0.0014140588342278,-0.0014140588342278,0.0014140588342276,-0.0014140588342278,0.0014140588342275,-0.0013561143610121,0.0013561143610119,-0.0013561143610121,0.0013561143610119,-2.9504980996025e-16,3.4357773923003e-16,1.8999419580774e-17,2.5175701487836e-17,-0.0013797717623039,0.0013797717623039,-0.0014140588342277,0.0014140588342276,-0.0014140588342277,0.0014140588342276,-0.0014140588342275,0.0014140588342278,-0.0014140588342275,0.0014140588342278,-0.0013561143610119,0.0013561143610121,-0.0013561143610119,0.0013561143610122,-0.0013561143610123,0.0013561143610118,-0.0013561143610117,0.0013561143610124,-7.1762513586823e-18,-1.1146718298937e-17,-0.0013797717623039,0.0013797717623039,-6.4115688368555e-18,-1.1323183496281e-17,-0.0014140588342277,0.0014140588342276,-0.0014140588342277,0.0014140588342276,-0.0014140588342277,0.0014140588342276,-0.0014140588342277,0.0014140588342276,-0.001356114361012,0.001356114361012,-0.001356114361012,0.001356114361012,0.62879352310559,0.64533473333085,1270536,32768,0.005732540541735,0.005732540541735,0.005732540541735,15.537870678586,15.540985099572,3.9502965428685e-05,3.9502965428685e-05,3.9502965428685e-05,398756.15564268,0.017346579748133
23328000,0.99988784177243,0.017086559692919,0.0056955198976395,0.0056955198976396,0.0056955198976396,-0.001380015931259,0.001380015931259,-5.5880645825805e-18,-1.5881867761018e-18,3.1522566418999e-16,-3.2510771524129e-16,-0.0014142457434021,0.0014142457434023,-0.0014142457434021,0.0014142457434023,-0.0014142457434023,0.0014142457434021,-0.0014142457434023,0.0014142457434021,-0.0013564096913484,0.0013564096913482,-0.0013564096913484,0.0013564096913482,-2.9434394917087e-16,3.4410713482206e-16,1.9793512968824e-17,2.5675686213646e-17,-0.001380015931259,0.001380015931259,-0.0014142457434022,0.0014142457434021,-0.0014142457434023,0.0014142457434021,-0.001414245743402,0.0014142457434023,-0.001414245743402,0.0014142457434023,-0.0013564096913482,0.0013564096913484,-0.0013564096913482,0.0013564096913484,-0.0013564096913486,0.0013564096913481,-0.001356409691348,0.0013564096913487,-6.0586384421662e-18,-9.8526401850761e-18,-0.001380015931259,0.001380015931259,-5.2939559203394e-18,-1.0499679242006e-17,-0.0014142457434022,0.0014142457434021,-0.0014142457434022,0.0014142457434021,-0.0014142457434022,0.0014142457434021,-0.0014142457434022,0.0014142457434021,-0.0013564096913483,0.0013564096913483,-0.0013564096913483,0.0013564096913483,0.63991206299165,0.69102081424216,1270536,32768,0.0057335521029633,0.0057335521029634,0.0057335521029634,15.585830070322,15.588944490968,3.9886640562571e-05,3.9886640562571e-05,3.9886640562571e-05,393468.13291063,0.017349667350739
23414400,0.99988965087208,0.017086588059283,0.0056955293530944,0.0056955293530945,0.0056955293530945,-0.0013803518336788,0.0013803518336788,-4.5292733985126e-18,-4.9998472580983e-19,3.1599034671181e-16,-3.2387245885987e-16,-0.001414531641653,0.0014145316416532,-0.001414531641653,0.0014145316416532,-0.0014145316416532,0.001414531641653,-0.0014145316416532,0.001414531641653,-0.0013567822738983,0.0013567822738981,-0.0013567822738983,0.0013567822738981,-2.9434394917087e-16,3.4360715009625e-16,1.8940597848325e-17,2.5352166685181e-17,-0.0013803518336788,0.0013803518336788,-0.0014145316416531,0.001414531641653,-0.0014145316416532,0.001414531641653,-0.0014145316416529,0.0014145316416532,-0.0014145316416529,0.0014145316416532,-0.0013567822738981,0.0013567822738983,-0.0013567822738981,0.0013567822738983,-0.0013567822738985,0.0013567822738979,-0.0013567822738979,0.0013567822738986,-6.4998014355278e-18,-1.0499679242006e-17,-0.0013803518336788,0.0013803518336788,-5.8527623785974e-18,-1.1470237827402e-17,-0.0014145316416531,0.001414531641653,-0.0014145316416531,0.0014145316416531,-0.0014145316416531,0.001414531641653,-0.0014145316416531,0.001414531641653,-0.0013567822738982,0.0013567822738982,-0.0013567822738982,0.0013567822738982,0.62954969381451,0.60514741048134,1270536,32768,0.0057349436620009,0.005734943662001,0.005734943662001,15.689715044904,15.696340695733,4.0717720359233e-05,4.0717720359233e-05,4.0717720359233e-05,388437.99013592,0.017353914756167
23500800,0.99989145572025,0.017086615532179,0.0056955385107264,0.0056955385107265,0.0056955385107265,-0.0013806129126348,0.0013806129126348,-4.8233820607537e-18,-8.8232598672323e-19,3.1551977285223e-16,-3.2416656752211e-16,-0.001414845752168,0.0014148457521682,-0.001414845752168,0.0014148457521682,-0.0014148457521682,0.001414845752168,-0.0014148457521682,0.001414845752168,-0.0013569855752215,0.0013569855752213,-0.0013569855752216,0.0013569855752213,-2.9446159263577e-16,3.4357773923003e-16,1.8999419580774e-17,2.5999205742111e-17,-0.0013806129126348,0.0013806129126348,-0.0014148457521682,0.001414845752168,-0.0014148457521682,0.001414845752168,-0.001414845752168,0.0014148457521682,-0.001414845752168,0.0014148457521682,-0.0013569855752213,0.0013569855752215,-0.0013569855752213,0.0013569855752216,-0.0013569855752217,0.0013569855752212,-0.0013569855752211,0.0013569855752218,-7.2938948235787e-18,-1.1146718298937e-17,-0.0013806129126348,0.0013806129126348,-5.8821732448215e-18,-1.1911400820764e-17,-0.0014148457521681,0.0014148457521681,-0.0014148457521681,0.0014148457521681,-0.0014148457521681,0.0014148457521681,-0.0014148457521681,0.0014148457521681,-0.0013569855752214,0.0013569855752214,-0.0013569855752214,0.0013569855752214,0.61113905437766,0.51927400672051,1270536,32768,0.0057360252524551,0.0057360252524552,0.0057360252524552,15.908299818676,15.922241114251,4.2466398549404e-05,4.2466398549404e-05,4.2466398549404e-05,393008.70256756,0.01735721549579
23587200,0.99989325663226,0.017086643463376,0.0056955478211254,0.0056955478211254,0.0056955478211254,-0.001380816433586,0.001380816433586,-4.7057385958572e-18,-7.3527165560269e-19,3.1569623804957e-16,-3.2387245885987e-16,-0.00141512822172,0.0014151282217202,-0.00141512822172,0.0014151282217202,-0.0014151282217202,0.00141512822172,-0.0014151282217202,0.00141512822172,-0.0013571217497194,0.0013571217497192,-0.0013571217497194,0.0013571217497192,-2.9452041436821e-16,3.4325421970156e-16,1.8352380523843e-17,2.555804274875e-17,-0.001380816433586,0.001380816433586,-0.0014151282217202,0.00141512822172,-0.0014151282217202,0.00141512822172,-0.0014151282217199,0.0014151282217202,-0.0014151282217199,0.0014151282217202,-0.0013571217497192,0.0013571217497194,-0.0013571217497192,0.0013571217497194,-0.0013571217497196,0.001357121749719,-0.001357121749719,0.0013571217497197,-7.0291970275617e-18,-1.0911431369144e-17,-0.001380816433586,0.001380816433586,-5.5880645825805e-18,-1.1793757355867e-17,-0.0014151282217201,0.0014151282217201,-0.0014151282217201,0.0014151282217201,-0.0014151282217201,0.0014151282217201,-0.0014151282217201,0.0014151282217201,-0.0013571217497193,0.0013571217497193,-0.0013571217497193,0.0013571217497193,0.62271354980486,0.62948455144777,1270536,32768,0.0057368684495044,0.0057368684495045,0.0057368684495045,16.133541940358,16.148141532768,4.4268335522863e-05,4.4268335522863e-05,4.4268335522863e-05,400352.71149814,0.017359788446261
23673600,0.99989505320782,0.017086672285661,0.0056955574285536,0.0056955574285537,0.0056955574285537,-0.001381471781666,0.001381471781666,-7.0586078937858e-18,-3.1469626859795e-18,3.1351983394899e-16,-3.2604886296046e-16,-0.0014157050725721,0.0014157050725722,-0.0014157050725721,0.0014157050725723,-0.0014157050725723,0.001415705072572,-0.0014157050725723,0.001415705072572,-0.0013578589332045,0.0013578589332042,-0.0013578589332045,0.0013578589332042,-2.9381455357884e-16,3.4372479356115e-16,1.9058241313222e-17,2.6058027474559e-17,-0.001381471781666,0.001381471781666,-0.0014157050725722,0.001415705072572,-0.0014157050725722,0.001415705072572,-0.001415705072572,0.0014157050725722,-0.001415705072572,0.0014157050725723,-0.0013578589332042,0.0013578589332045,-0.0013578589332042,0.0013578589332045,-0.0013578589332046,0.0013578589332041,-0.001357858933204,0.0013578589332047,-5.9115841110456e-18,-1.0058516248645e-17,-0.001381471781666,0.001381471781666,-4.382219067392e-18,-1.0558500974455e-17,-0.0014157050725722,0.0014157050725721,-0.0014157050725722,0.0014157050725721,-0.0014157050725721,0.0014157050725721,-0.0014157050725722,0.0014157050725721,-0.0013578589332043,0.0013578589332043,-0.0013578589332043,0.0013578589332043,0.64416218409516,0.7352820555999,1270536,32768,0.0057395834913945,0.0057395834913945,0.0057395834913945,16.359379115843,16.374041951286,4.6075032926741e-05,4.6075032926741e-05,4.6075032926741e-05,392995.861094,0.017368075356339
23760000,0.99989684498146,0.017086701883619,0.0056955672945395,0.0056955672945395,0.0056955672945395,-0.0013821771802967,0.0013821771802967,-6.9997861613376e-18,-2.5293344952733e-18,3.1351983394899e-16,-3.2540182390353e-16,-0.0014163164776308,0.001416316477631,-0.0014163164776308,0.001416316477631,-0.0014163164776311,0.0014163164776308,-0.0014163164776311,0.0014163164776308,-0.0013586423223115,0.0013586423223113,-0.0013586423223116,0.0013586423223113,-2.9475570129801e-16,3.4210719591882e-16,1.8381791390067e-17,2.5587453614974e-17,-0.0013821771802967,0.0013821771802967,-0.001416316477631,0.0014163164776308,-0.001416316477631,0.0014163164776308,-0.0014163164776308,0.001416316477631,-0.0014163164776308,0.0014163164776311,-0.0013586423223113,0.0013586423223115,-0.0013586423223113,0.0013586423223116,-0.0013586423223117,0.0013586423223112,-0.0013586423223111,0.0013586423223118,-7.1468404924582e-18,-1.1087896566489e-17,-0.0013821771802967,0.0013821771802967,-6.3233362381831e-18,-1.2646672476366e-17,-0.0014163164776309,0.0014163164776309,-0.0014163164776309,0.0014163164776309,-0.0014163164776309,0.0014163164776309,-0.0014163164776309,0.0014163164776309,-0.0013586423223114,0.0013586423223114,-0.0013586423223114,0.0013586423223114,0.66320363578333,0.7891656146954,1270536,32768,0.005742505780901,0.0057425057809011,0.0057425057809011,16.585273360998,16.599942369804,4.7882186887984e-05,4.7882186887984e-05,4.7882186887984e-05,383620.99430238,0.017376995133142
23846400,0.99989863147997,0.017086732259693,0.0056955774198975,0.0056955774198976,0.0056955774198976,-0.0013827896135831,0.001382789613583,-1.0558500974455e-17,-6.7939100977689e-18,3.0993170826965e-16,-3.295193451749e-16,-0.0014168724997246,0.0014168724997248,-0.0014168724997246,0.0014168724997248,-0.0014168724997248,0.0014168724997246,-0.0014168724997248,0.0014168724997246,-0.0013592899231507,0.0013592899231505,-0.0013592899231507,0.0013592899231505,-2.9028524963194e-16,3.4713645404314e-16,2.3293406049493e-17,3.0704944337968e-17,-0.001382789613583,0.0013827896135831,-0.0014168724997248,0.0014168724997246,-0.0014168724997248,0.0014168724997246,-0.0014168724997245,0.0014168724997248,-0.0014168724997246,0.0014168724997248,-0.0013592899231504,0.0013592899231507,-0.0013592899231505,0.0013592899231507,-0.0013592899231509,0.0013592899231503,-0.0013592899231503,0.0013592899231509,7.646825218268e-19,-3.4704822144447e-18,-0.0013827896135831,0.0013827896135831,9.4114771917145e-19,-5.7057080474769e-18,-0.0014168724997247,0.0014168724997247,-0.0014168724997247,0.0014168724997247,-0.0014168724997247,0.0014168724997247,-0.0014168724997247,0.0014168724997247,-0.0013592899231505,0.0013592899231506,-0.0013592899231505,0.0013592899231506,0.68256795928882,0.83677736959159,1270536,32768,0.0057450428754342,0.0057450428754343,0.0057450428754343,16.81117317431,16.825842788321,4.9689385394482e-05,4.9689385394482e-05,4.9689385394482e-05,376958.58183299,0.017384739216197
23932800,0.99990041222825,0.017086763448737,0.0056955878162455,0.0056955878162456,0.0056955878162456,-0.0013833761441541,0.0013833761441541,-9.4114771917145e-19,3.0587300873072e-18,3.2028433318053e-16,-3.1937259632759e-16,-0.0014174170722736,0.0014174170722738,-0.0014174170722736,0.0014174170722738,-0.0014174170722738,0.0014174170722736,-0.0014174170722738,0.0014174170722736,-0.0013598994676289,0.0013598994676287,-0.0013598994676289,0.0013598994676287,-2.9457923610066e-16,3.429307001731e-16,1.8587667453636e-17,2.6322725270576e-17,-0.001383376144154,0.0013833761441541,-0.0014174170722737,0.0014174170722736,-0.0014174170722737,0.0014174170722736,-0.0014174170722735,0.0014174170722737,-0.0014174170722735,0.0014174170722738,-0.0013598994676286,0.0013598994676288,-0.0013598994676286,0.0013598994676289,-0.001359899467629,0.0013598994676285,-0.0013598994676285,0.0013598994676291,-4.7351494620813e-18,-8.9409033321287e-18,-0.0013833761441541,0.0013833761441541,-2.3822801641527e-18,-9.1173685294734e-18,-0.0014174170722737,0.0014174170722736,-0.0014174170722737,0.0014174170722736,-0.0014174170722736,0.0014174170722736,-0.0014174170722737,0.0014174170722736,-0.0013598994676287,0.0013598994676288,-0.0013598994676288,0.0013598994676288,0.70303737557097,0.88438912448778,1270536,32768,0.0057474726442737,0.0057474726442738,0.0057474726442738,17.037073533424,17.051743206839,5.1496588267394e-05,5.1496588267394e-05,5.1496588267394e-05,370920.79802669,0.01739215576151
24019200,0.99990218675018,0.017086794766094,0.0056955982553646,0.0056955982553646,0.0056955982553646,-0.0013839522764322,0.0013839522764321,-1.0911431369144e-17,-6.8821426964412e-18,3.082846997611e-16,-3.3060754722519e-16,-0.0014179587225998,0.0014179587226,-0.0014179587225998,0.0014179587226,-0.0014179587226,0.0014179587225998,-0.0014179587226,0.0014179587225998,-0.0013604938178583,0.0013604938178581,-0.0013604938178583,0.0013604938178581,-2.9634388807411e-16,3.4063665260762e-16,1.5911278627242e-17,2.3822801641527e-17,-0.0013839522764321,0.0013839522764322,-0.0014179587225999,0.0014179587225997,-0.0014179587225999,0.0014179587225997,-0.0014179587225997,0.0014179587225999,-0.0014179587225997,0.0014179587225999,-0.0013604938178581,0.0013604938178583,-0.0013604938178581,0.0013604938178583,-0.0013604938178585,0.0013604938178579,-0.0013604938178579,0.0013604938178585,-8.0879882116296e-18,-1.1793757355867e-17,-0.0013839522764322,0.0013839522764322,-5.8527623785974e-18,-1.2617261610142e-17,-0.0014179587225998,0.0014179587225998,-0.0014179587225998,0.0014179587225998,-0.0014179587225998,0.0014179587225998,-0.0014179587225998,0.0014179587225998,-0.0013604938178582,0.0013604938178582,-0.0013604938178582,0.0013604938178582,0.70836062121925,0.84208196311467,1270536,32768,0.0057498593251142,0.0057498593251143,0.0057498593251143,17.262973946109,17.277643625356,5.3303791568874e-05,5.3303791568874e-05,5.3303791568874e-05,365020.6271464,0.017399440847256
24105600,0.99990395456911,0.017086824885204,0.005695608295068,0.0056956082950681,0.0056956082950681,-0.0013843485097602,0.0013843485097602,-2.4411018966009e-18,1.4999541774295e-18,3.1781382041771e-16,-3.20607852709e-16,-0.0014183852983754,0.0014183852983756,-0.0014183852983754,0.0014183852983756,-0.0014183852983756,0.0014183852983754,-0.0014183852983756,0.0014183852983754,-0.0013608521711105,0.0013608521711103,-0.0013608521711105,0.0013608521711103,-2.9504980996025e-16,3.412248699321e-16,1.6940658945086e-17,2.4646305895802e-17,-0.0013843485097602,0.0013843485097602,-0.0014183852983756,0.0014183852983754,-0.0014183852983756,0.0014183852983754,-0.0014183852983753,0.0014183852983756,-0.0014183852983754,0.0014183852983756,-0.0013608521711103,0.0013608521711105,-0.0013608521711103,0.0013608521711105,-0.0013608521711107,0.0013608521711101,-0.0013608521711101,0.0013608521711108,-6.3527471044073e-18,-1.038203577711e-17,-0.0013843485097602,0.0013843485097602,-4.7645603283054e-18,-1.1499648693626e-17,-0.0014183852983755,0.0014183852983755,-0.0014183852983755,0.0014183852983755,-0.0014183852983755,0.0014183852983755,-0.0014183852983755,0.0014183852983755,-0.0013608521711104,0.0013608521711104,-0.0013608521711104,0.0013608521711104,0.68381265222823,0.6668147606019,1270536,32768,0.0057515007349028,0.0057515007349029,0.0057515007349029,17.488874364054,17.503544043874,5.5110994912433e-05,5.5110994912433e-05,5.5110994912433e-05,364761.56383495,0.017404450877698
24192000,0.9999057098522,0.017086854666554,0.0056956182221846,0.0056956182221847,0.0056956182221847,-0.0013843288650009,0.0013843288650009,-3.8528234753581e-18,1.7646519734465e-19,3.163432771065e-16,-3.2249014814734e-16,-0.0014185081159535,0.0014185081159537,-0.0014185081159535,0.0014185081159537,-0.0014185081159537,0.0014185081159535,-0.0014185081159537,0.0014185081159535,-0.0013607038988783,0.0013607038988781,-0.0013607038988784,0.0013607038988781,-2.949909882278e-16,3.4193073072148e-16,1.7058302409982e-17,2.4940414558043e-17,-0.0013843288650009,0.001384328865001,-0.0014185081159537,0.0014185081159535,-0.0014185081159537,0.0014185081159535,-0.0014185081159534,0.0014185081159537,-0.0014185081159535,0.0014185081159537,-0.0013607038988781,0.0013607038988783,-0.0013607038988781,0.0013607038988784,-0.0013607038988785,0.001360703898878,-0.0013607038988779,0.0013607038988786,-7.8821121480609e-18,-1.202904428566e-17,-0.0013843288650009,0.0013843288650009,-6.2351036395108e-18,-1.2852548539935e-17,-0.0014185081159536,0.0014185081159536,-0.0014185081159536,0.0014185081159536,-0.0014185081159536,0.0014185081159536,-0.0014185081159536,0.0014185081159536,-0.0013607038988782,0.0013607038988782,-0.0013607038988782,0.0013607038988782,0.68097734752987,0.68906096147582,1270536,32768,0.0057514193238261,0.0057514193238262,0.0057514193238262,17.666153145728,17.677770166148,5.6529225165822e-05,5.6529225165822e-05,5.6529225165822e-05,375082.24561661,0.017404201759973
24278400,0.99990744241681,0.017086884139726,0.0056956280465752,0.0056956280465753,0.0056956280465753,-0.0013844689408605,0.0013844689408605,-5.6174754488046e-18,-1.1176129165161e-18,3.1451980340061e-16,-3.2404892405722e-16,-0.0014186686073525,0.0014186686073527,-0.0014186686073525,0.0014186686073527,-0.0014186686073527,0.0014186686073525,-0.0014186686073527,0.0014186686073524,-0.0013608459125639,0.0013608459125637,-0.0013608459125639,0.0013608459125637,-2.9446159263577e-16,3.4210719591882e-16,1.7558287135792e-17,2.5440399283853e-17,-0.0013844689408605,0.0013844689408606,-0.0014186686073526,0.0014186686073524,-0.0014186686073526,0.0014186686073524,-0.0014186686073524,0.0014186686073526,-0.0014186686073524,0.0014186686073527,-0.0013608459125637,0.0013608459125639,-0.0013608459125637,0.001360845912564,-0.0013608459125641,0.0013608459125636,-0.0013608459125635,0.0013608459125642,-6.4115688368555e-18,-1.0411446643334e-17,-0.0013844689408606,0.0013844689408606,-4.646916863409e-18,-1.1617292158523e-17,-0.0014186686073526,0.0014186686073525,-0.0014186686073526,0.0014186686073525,-0.0014186686073525,0.0014186686073525,-0.0014186686073526,0.0014186686073525,-0.0013608459125638,0.0013608459125638,-0.0013608459125638,0.0013608459125638,0.68284951978973,0.71130716234974,1270536,32768,0.0057519996826659,0.005751999682666,0.005751999682666,17.752566558617,17.758379286882,5.7220532468932e-05,5.7220532468932e-05,5.7220532468932e-05,375165.91855544,0.017405973053418
24364800,0.99990915181095,0.017086913410223,0.0056956378034075,0.0056956378034075,0.0056956378034075,-0.0013846462436621,0.0013846462436621,-4.7645603283054e-18,-4.1175212713751e-19,3.1504919899264e-16,-3.2340188500029e-16,-0.0014188421570593,0.0014188421570595,-0.0014188421570593,0.0014188421570595,-0.0014188421570595,0.0014188421570593,-0.0014188421570595,0.0014188421570593,-0.0013610376407969,0.0013610376407966,-0.0013610376407969,0.0013610376407966,-2.9381455357884e-16,3.428130567082e-16,1.8352380523843e-17,2.6469779601697e-17,-0.0013846462436621,0.0013846462436621,-0.0014188421570595,0.0014188421570593,-0.0014188421570595,0.0014188421570593,-0.0014188421570592,0.0014188421570595,-0.0014188421570593,0.0014188421570595,-0.0013610376407966,0.0013610376407969,-0.0013610376407966,0.0013610376407969,-0.001361037640797,0.0013610376407965,-0.0013610376407964,0.0013610376407971,-6.8821426964412e-18,-1.0852609636696e-17,-0.0013846462436621,0.0013846462436621,-4.9410255256501e-18,-1.2234920349229e-17,-0.0014188421570594,0.0014188421570594,-0.0014188421570594,0.0014188421570594,-0.0014188421570594,0.0014188421570594,-0.0014188421570594,0.0014188421570594,-0.0013610376407968,0.0013610376407967,-0.0013610376407968,0.0013610376407967,0.68734968521589,0.73347617344896,1270536,32768,0.0057527342395747,0.0057527342395747,0.0057527342395747,17.833698127828,17.838988407616,5.786958502262e-05,5.786958502262e-05,5.786958502262e-05,373645.48712762,0.017408215086301
24451200,0.99991083812803,0.017086942131658,0.0056956473772193,0.0056956473772193,0.0056956473772193,-0.0013848423713073,0.0013848423713073,-5.4410102514599e-18,-1.2352563814125e-18,3.1428451647081e-16,-3.2375481539498e-16,-0.0014190260671896,0.0014190260671898,-0.0014190260671897,0.0014190260671899,-0.0014190260671899,0.0014190260671896,-0.0014190260671899,0.0014190260671896,-0.0013612494574524,0.0013612494574522,-0.0013612494574524,0.0013612494574522,-2.948733447629e-16,3.4143074599567e-16,1.6793604613965e-17,2.5263934086508e-17,-0.0013848423713073,0.0013848423713074,-0.0014190260671898,0.0014190260671896,-0.0014190260671898,0.0014190260671896,-0.0014190260671896,0.0014190260671898,-0.0014190260671896,0.0014190260671899,-0.0013612494574522,0.0013612494574524,-0.0013612494574522,0.0013612494574524,-0.0013612494574526,0.001361249457452,-0.001361249457452,0.0013612494574527,-6.7644992315448e-18,-1.0793787904248e-17,-0.0013848423713074,0.0013848423713073,-4.8233820607537e-18,-1.2264331215453e-17,-0.0014190260671897,0.0014190260671897,-0.0014190260671897,0.0014190260671897,-0.0014190260671897,0.0014190260671897,-0.0014190260671897,0.0014190260671897,-0.0013612494574523,0.0013612494574523,-0.0013612494574523,0.0013612494574523,0.68367771997933,0.70088906137732,1270536,32768,0.0057535467600453,0.0057535467600453,0.0057535467600453,17.914357444204,17.91959752835,5.8514859553633e-05,5.8514859553633e-05,5.8514859553633e-05,371453.5269828,0.017410695152452
24537600,0.99991250151096,0.017086970918069,0.0056956569726897,0.0056956569726897,0.0056956569726897,-0.0013849310194546,0.0013849310194546,-5.7939406461492e-18,-1.6175976423259e-18,3.1399040780857e-16,-3.2410774578967e-16,-0.0014191395677758,0.001419139567776,-0.0014191395677758,0.001419139567776,-0.001419139567776,0.0014191395677758,-0.001419139567776,0.0014191395677758,-0.0013613167510773,0.0013613167510771,-0.0013613167510773,0.0013613167510771,-2.9404984050863e-16,3.4234248284861e-16,1.7646519734465e-17,2.6116849207008e-17,-0.0013849310194546,0.0013849310194547,-0.001419139567776,0.0014191395677758,-0.001419139567776,0.0014191395677758,-0.0014191395677757,0.001419139567776,-0.0014191395677757,0.001419139567776,-0.0013613167510771,0.0013613167510773,-0.0013613167510771,0.0013613167510774,-0.0013613167510775,0.001361316751077,-0.0013613167510769,0.0013613167510776,-5.8233515123733e-18,-9.7644075864037e-18,-0.0013849310194546,0.0013849310194546,-3.7645908766858e-18,-1.1499648693626e-17,-0.0014191395677759,0.0014191395677759,-0.0014191395677759,0.0014191395677759,-0.0014191395677759,0.0014191395677759,-0.0014191395677759,0.0014191395677759,-0.0013613167510772,0.0013613167510772,-0.0013613167510772,0.0013613167510772,0.69465718883939,0.76497482251868,1270536,32768,0.0057539140120948,0.0057539140120948,0.0057539140120948,17.994971464799,18.000206649084,5.9159771718389e-05,5.9159771718389e-05,5.9159771718389e-05,372702.06761678,0.017411815948862
24624000,0.99991414210888,0.017086999978588,0.0056956666595292,0.0056956666595292,0.0056956666595292,-0.0013852076592601,0.0013852076592601,-5.7057080474769e-18,-1.7352411072224e-18,3.1393158607613e-16,-3.2446067618436e-16,-0.0014193753675796,0.0014193753675798,-0.0014193753675796,0.0014193753675798,-0.0014193753675798,0.0014193753675796,-0.0014193753675798,0.0014193753675796,-0.0013616339039026,0.0013616339039023,-0.0013616339039026,0.0013616339039023,-2.9440277090332e-16,3.4190131985525e-16,1.7293589339775e-17,2.5646275347422e-17,-0.0013852076592601,0.0013852076592602,-0.0014193753675798,0.0014193753675796,-0.0014193753675798,0.0014193753675796,-0.0014193753675796,0.0014193753675798,-0.0014193753675796,0.0014193753675798,-0.0013616339039023,0.0013616339039026,-0.0013616339039023,0.0013616339039026,-0.0013616339039027,0.0013616339039022,-0.0013616339039021,0.0013616339039028,-6.4703905693037e-18,-1.0470268375782e-17,-0.0013852076592601,0.0013852076592601,-4.2645756024956e-18,-1.1999633419436e-17,-0.0014193753675797,0.0014193753675797,-0.0014193753675797,0.0014193753675797,-0.0014193753675797,0.0014193753675797,-0.0014193753675797,0.0014193753675797,-0.0013616339039024,0.0013616339039024,-0.0013616339039024,0.0013616339039024,0.71101976522492,0.82906058366005,1270536,32768,0.0057550600710236,0.0057550600710236,0.0057550600710236,18.075581065893,18.080815769818,5.9804648527144e-05,5.9804648527144e-05,5.9804648527144e-05,367973.58328588,0.017415314228489
24710400,0.99991576007313,0.017087028795952,0.0056956762653174,0.0056956762653175,0.0056956762653175,-0.0013855117638954,0.0013855117638954,-8.1173990778537e-18,-4.0586995389269e-18,3.1210811237023e-16,-3.2643120422137e-16,-0.0014196303626865,0.0014196303626867,-0.0014196303626865,0.0014196303626867,-0.0014196303626867,0.0014196303626865,-0.0014196303626867,0.0014196303626865,-0.0013619780076134,0.0013619780076132,-0.0013619780076134,0.0013619780076132,-2.951086316927e-16,3.4169544379168e-16,1.7146535008655e-17,2.5234523220284e-17,-0.0013855117638954,0.0013855117638955,-0.0014196303626867,0.0014196303626865,-0.0014196303626867,0.0014196303626865,-0.0014196303626865,0.0014196303626867,-0.0014196303626865,0.0014196303626868,-0.0013619780076131,0.0013619780076134,-0.0013619780076131,0.0013619780076134,-0.0013619780076135,0.001361978007613,-0.0013619780076129,0.0013619780076136,-7.6174143520439e-18,-1.1676113890971e-17,-0.0013855117638954,0.0013855117638954,-5.6468863150287e-18,-1.2999602871056e-17,-0.0014196303626866,0.0014196303626866,-0.0014196303626866,0.0014196303626866,-0.0014196303626866,0.0014196303626866,-0.0014196303626866,0.0014196303626866,-0.0013619780076133,0.0013619780076132,-0.0013619780076132,0.0013619780076132,0.71489871230959,0.80338046085544,1270536,32768,0.0057563198649109,0.005756319864911,0.005756319864911,18.156190233777,18.161424890552,6.0449521870212e-05,6.0449521870212e-05,6.0449521870212e-05,362176.42495343,0.017419159795718
24796800,0.99991735555677,0.017087054774207,0.0056956849247355,0.0056956849247355,0.0056956849247355,-0.0013856486273414,0.0013856486273414,-5.5880645825805e-18,-1.6175976423259e-18,3.147550903304e-16,-3.2437244358568e-16,-0.0014197789477983,0.0014197789477985,-0.0014197789477983,0.0014197789477985,-0.0014197789477986,0.0014197789477983,-0.0014197789477986,0.0014197789477983,-0.00136209609907,0.0013620960990697,-0.00136209609907,0.0013620960990697,-2.948733447629e-16,3.4193073072148e-16,1.7058302409982e-17,2.5763918812318e-17,-0.0013856486273414,0.0013856486273414,-0.0014197789477985,0.0014197789477983,-0.0014197789477985,0.0014197789477983,-0.0014197789477983,0.0014197789477985,-0.0014197789477983,0.0014197789477986,-0.0013620960990697,0.00136209609907,-0.0013620960990698,0.00136209609907,-0.0013620960990701,0.0013620960990696,-0.0013620960990696,0.0013620960990702,-5.3527776527876e-18,-9.558531522835e-18,-0.0013856486273414,0.0013856486273414,-3.4998930806688e-18,-1.0940842235368e-17,-0.0014197789477984,0.0014197789477984,-0.0014197789477984,0.0014197789477984,-0.0014197789477984,0.0014197789477984,-0.0014197789477984,0.0014197789477984,-0.0013620960990699,0.0013620960990698,-0.0013620960990698,0.0013620960990699,0.65350626417735,0.43927619685029,1270536,32768,0.0057568868048019,0.0057568868048019,0.0057568868048019,18.23679935914,18.242034011286,6.109439487312e-05,6.109439487312e-05,6.109439487312e-05,361549.54099724,0.017420890294327
24883200,0.99991892871451,0.017087079825938,0.0056956932753128,0.0056956932753128,0.0056956932753128,-0.0013849774122432,0.0013849774122432,-6.2645145057349e-18,-2.0587606356875e-18,3.1422569473837e-16,-3.2525476957241e-16,-0.0014193998231921,0.0014193998231923,-0.0014193998231921,0.0014193998231923,-0.0014193998231923,0.0014193998231921,-0.0014193998231923,0.0014193998231921,-0.0013611591764866,0.0013611591764864,-0.0013611591764867,0.0013611591764864,-2.9481452303046e-16,3.429307001731e-16,1.7764163199361e-17,2.6293314404352e-17,-0.0013849774122432,0.0013849774122432,-0.0014193998231923,0.0014193998231921,-0.0014193998231923,0.0014193998231921,-0.001419399823192,0.0014193998231923,-0.001419399823192,0.0014193998231923,-0.0013611591764864,0.0013611591764866,-0.0013611591764864,0.0013611591764867,-0.0013611591764868,0.0013611591764863,-0.0013611591764862,0.0013611591764869,-3.9410560740304e-18,-7.8821121480609e-18,-0.0013849774122432,0.0013849774122432,-1.8822954383429e-18,-9.5879423890591e-18,-0.0014193998231922,0.0014193998231922,-0.0014193998231922,0.0014193998231922,-0.0014193998231922,0.0014193998231922,-0.0014193998231922,0.0014193998231922,-0.0013611591764865,0.0013611591764865,-0.0013611591764865,0.0013611591764865,0.63914347466285,0.49107144933571,1270536,32768,0.005754106159017,0.005754106159017,0.005754106159017,18.317408480329,18.32264313202,6.173926784263e-05,6.173926784263e-05,6.173926784263e-05,387154.10550212,0.017412401354631
24969600,0.99992048654819,0.017087104454512,0.0056957014848371,0.0056957014848372,0.0056957014848372,-0.0013852309048379,0.0013852309048379,-6.6174449004242e-18,-2.0587606356875e-18,3.1440215993571e-16,-3.2607827382668e-16,-0.0014196573708193,0.0014196573708195,-0.0014196573708193,0.0014196573708195,-0.0014196573708195,0.0014196573708193,-0.0014196573708195,0.0014196573708193,-0.0013614488025045,0.0013614488025043,-0.0013614488025045,0.0013614488025043,-2.9546156208739e-16,3.4313657623666e-16,1.7205356741103e-17,2.5881562277215e-17,-0.0013852309048379,0.0013852309048379,-0.0014196573708195,0.0014196573708193,-0.0014196573708195,0.0014196573708193,-0.0014196573708192,0.0014196573708195,-0.0014196573708192,0.0014196573708195,-0.0013614488025043,0.0013614488025045,-0.0013614488025043,0.0013614488025045,-0.0013614488025047,0.0013614488025041,-0.0013614488025041,0.0013614488025048,-5.6762971812528e-18,-9.7055858539555e-18,-0.0013852309048379,0.0013852309048379,-3.9410560740304e-18,-1.1617292158523e-17,-0.0014196573708194,0.0014196573708194,-0.0014196573708194,0.0014196573708194,-0.0014196573708194,0.0014196573708194,-0.0014196573708194,0.0014196573708194,-0.0013614488025044,0.0013614488025044,-0.0013614488025044,0.0013614488025044,0.6347244374683,0.53635853196325,1270536,32768,0.0057551565376659,0.005755156537666,0.005755156537666,18.468721762077,18.478395501747,6.2949774096615e-05,6.2949774096615e-05,6.2949774096615e-05,388573.53811967,0.017415606899008
25056000,0.99992204052608,0.017087129086418,0.0056957096954728,0.0056957096954728,0.0056957096954728,-0.0013858126545585,0.0013858126545585,-1.4999541774295e-18,2.7940322912902e-18,3.1904907679912e-16,-3.214607678295e-16,-0.0014202004459868,0.001420200445987,-0.0014202004459868,0.001420200445987,-0.001420200445987,0.0014202004459868,-0.001420200445987,0.0014202004459868,-0.0013620828119243,0.0013620828119241,-0.0013620828119243,0.0013620828119241,-2.9457923610066e-16,3.4396008049094e-16,1.8175915326499e-17,2.6675655665266e-17,-0.0013858126545585,0.0013858126545585,-0.001420200445987,0.0014202004459868,-0.001420200445987,0.0014202004459868,-0.0014202004459867,0.001420200445987,-0.0014202004459867,0.001420200445987,-0.001362082811924,0.0013620828119243,-0.001362082811924,0.0013620828119243,-0.0013620828119244,0.0013620828119239,-0.0013620828119239,0.0013620828119245,-5.9115841110456e-18,-9.823229318852e-18,-0.0013858126545585,0.0013858126545585,-3.8528234753581e-18,-1.1205540031385e-17,-0.0014202004459869,0.0014202004459869,-0.0014202004459869,0.0014202004459869,-0.0014202004459869,0.0014202004459869,-0.0014202004459869,0.0014202004459869,-0.0013620828119242,0.0013620828119241,-0.0013620828119242,0.0013620828119242,0.6364084649321,0.58164561459079,1270536,32768,0.0057575667170466,0.0057575667170466,0.0057575667170466,18.740769496036,18.758167973673,6.5126155968284e-05,6.5126155968284e-05,6.5126155968284e-05,386817.26312122,0.017422963201511
25142400,0.99992359075875,0.017087153888179,0.0056957179627262,0.0056957179627263,0.0056957179627263,-0.0013864520649824,0.0013864520649824,-7.8527012818367e-18,-3.7057691442376e-18,3.131669035543e-16,-3.2772528233523e-16,-0.0014207892226356,0.0014207892226358,-0.0014207892226356,0.0014207892226358,-0.0014207892226358,0.0014207892226356,-0.0014207892226358,0.0014207892226356,-0.0013627716595229,0.0013627716595226,-0.0013627716595229,0.0013627716595226,-2.9610860114432e-16,3.4290128930687e-16,1.7234767607327e-17,2.5763918812318e-17,-0.0013864520649824,0.0013864520649824,-0.0014207892226358,0.0014207892226356,-0.0014207892226358,0.0014207892226356,-0.0014207892226355,0.0014207892226358,-0.0014207892226355,0.0014207892226358,-0.0013627716595227,0.0013627716595229,-0.0013627716595227,0.0013627716595229,-0.001362771659523,0.0013627716595225,-0.0013627716595224,0.0013627716595231,-5.0880798567706e-18,-8.8526707334564e-18,-0.0013864520649824,0.0013864520649824,-3.0293192210831e-18,-1.0558500974455e-17,-0.0014207892226357,0.0014207892226357,-0.0014207892226357,0.0014207892226357,-0.0014207892226357,0.0014207892226357,-0.0014207892226357,0.0014207892226356,-0.0013627716595227,0.0013627716595227,-0.0013627716595227,0.0013627716595228,0.64233080143736,0.62693269721833,1270536,32768,0.0057602156899628,0.0057602156899629,0.0057602156899629,19.019846446612,19.037940445599,6.7358771572892e-05,6.7358771572892e-05,6.7358771572892e-05,383625.50937403,0.017431048659021
25228800,0.99992513671629,0.01708717897484,0.0056957263249466,0.0056957263249467,0.0056957263249467,-0.0013871130656206,0.0013871130656206,-6.6174449004242e-18,-2.4999236290492e-18,3.1351983394899e-16,-3.270782432783e-16,-0.001421396185029,0.0014213961850292,-0.001421396185029,0.0014213961850292,-0.0014213961850292,0.001421396185029,-0.0014213961850292,0.001421396185029,-0.0013634766361218,0.0013634766361216,-0.0013634766361218,0.0013634766361216,-2.9540274035494e-16,3.4334245230023e-16,1.7940628396706e-17,2.5646275347422e-17,-0.0013871130656206,0.0013871130656206,-0.0014213961850291,0.001421396185029,-0.0014213961850292,0.001421396185029,-0.0014213961850289,0.0014213961850292,-0.0014213961850289,0.0014213961850292,-0.0013634766361216,0.0013634766361218,-0.0013634766361216,0.0013634766361218,-0.001363476636122,0.0013634766361214,-0.0013634766361214,0.0013634766361221,-5.0880798567706e-18,-9.1761902619216e-18,-0.0013871130656206,0.0013871130656206,-3.6763582780135e-18,-1.0793787904248e-17,-0.0014213961850291,0.001421396185029,-0.0014213961850291,0.001421396185029,-0.0014213961850291,0.001421396185029,-0.0014213961850291,0.001421396185029,-0.0013634766361217,0.0013634766361217,-0.0013634766361217,0.0013634766361217,0.65147700397109,0.67221977984587,1270536,32768,0.0057629540506131,0.0057629540506132,0.0057629540506132,19.299552089298,19.317712917525,6.9596416714382e-05,6.9596416714382e-05,6.9596416714382e-05,379626.86616365,0.017439407146602
25315200,0.99992667780911,0.01708720443467,0.0056957348115566,0.0056957348115566,0.0056957348115566,-0.0013877834404846,0.0013877834404846,-6.4115688368555e-18,-2.176404100584e-18,3.1481391206285e-16,-3.2599004122801e-16,-0.0014220138478406,0.0014220138478408,-0.0014220138478406,0.0014220138478408,-0.0014220138478408,0.0014220138478406,-0.0014220138478408,0.0014220138478406,-0.0013641850833902,0.00136418508339,-0.0013641850833902,0.00136418508339,-2.951086316927e-16,3.4378361529359e-16,1.8264147925171e-17,2.6322725270576e-17,-0.0013877834404846,0.0013877834404846,-0.0014220138478408,0.0014220138478406,-0.0014220138478408,0.0014220138478406,-0.0014220138478405,0.0014220138478408,-0.0014220138478405,0.0014220138478408,-0.00136418508339,0.0013641850833902,-0.00136418508339,0.0013641850833902,-0.0013641850833904,0.0013641850833898,-0.0013641850833898,0.0013641850833904,-5.5292428501322e-18,-9.4702989241627e-18,-0.0013877834404846,0.0013877834404846,-3.8822343415822e-18,-1.088202050292e-17,-0.0014220138478407,0.0014220138478407,-0.0014220138478407,0.0014220138478407,-0.0014220138478407,0.0014220138478407,-0.0014220138478407,0.0014220138478406,-0.0013641850833901,0.0013641850833901,-0.0013641850833901,0.0013641850833901,0.66321778511003,0.71750686247341,1270536,32768,0.0057657312045121,0.0057657312045122,0.0057657312045122,19.579318037533,19.597485389451,7.1834544300265e-05,7.1834544300265e-05,7.1834544300265e-05,375149.08646567,0.017447884197786
25401600,0.99992821343952,0.017087231024469,0.0056957436748231,0.0056957436748231,0.0056957436748231,-0.0013884571522308,0.0013884571522308,-3.8822343415822e-18,1.7646519734465e-19,3.1693149443098e-16,-3.2354893933141e-16,-0.0014226384556023,0.0014226384556025,-0.0014226384556023,0.0014226384556025,-0.0014226384556025,0.0014226384556023,-0.0014226384556025,0.0014226384556023,-0.0013648914536162,0.0013648914536159,-0.0013648914536162,0.001364891453616,-2.9893204430183e-16,3.3954845055732e-16,1.432309185114e-17,2.2646366992563e-17,-0.0013884571522308,0.0013884571522309,-0.0014226384556025,0.0014226384556023,-0.0014226384556025,0.0014226384556023,-0.0014226384556022,0.0014226384556025,-0.0014226384556022,0.0014226384556025,-0.0013648914536159,0.0013648914536161,-0.0013648914536159,0.0013648914536162,-0.0013648914536163,0.0013648914536158,-0.0013648914536157,0.0013648914536164,-2.9410866224108e-20,-4.1763430038233e-18,-0.0013884571522309,0.0013884571522309,1.5881867761018e-18,-5.8233515123733e-18,-0.0014226384556024,0.0014226384556024,-0.0014226384556024,0.0014226384556024,-0.0014226384556024,0.0014226384556024,-0.0014226384556024,0.0014226384556024,-0.001364891453616,0.001364891453616,-0.001364891453616,0.001364891453616,0.69506220313716,0.8616739196317,1270536,32768,0.0057685221496502,0.0057685221496503,0.0057685221496503,19.859089869902,19.877257861378,7.4072718959216e-05,7.4072718959216e-05,7.4072718959216e-05,370373.12042865,0.017456403475272
25488000,0.99992974300663,0.017087258715248,0.0056957529050827,0.0056957529050828,0.0056957529050828,-0.0013893286086452,0.0013893286086452,-3.4704822144447e-18,7.9409338805091e-19,3.1751971175547e-16,-3.2310777633805e-16,-0.001423398138974,0.0014233981389742,-0.001423398138974,0.0014233981389742,-0.0014233981389742,0.001423398138974,-0.0014233981389742,0.001423398138974,-0.0013658500470124,0.0013658500470122,-0.0013658500470124,0.0013658500470122,-2.9081464522398e-16,3.478129039663e-16,1.9675869503928e-17,2.8793238033401e-17,-0.0013893286086452,0.0013893286086452,-0.0014233981389742,0.001423398138974,-0.0014233981389742,0.001423398138974,-0.0014233981389739,0.0014233981389742,-0.0014233981389739,0.0014233981389742,-0.0013658500470122,0.0013658500470124,-0.0013658500470122,0.0013658500470125,-0.0013658500470126,0.0013658500470121,-0.001365850047012,0.0013658500470126,-6.2645145057349e-18,-1.0499679242006e-17,-0.0013893286086452,0.0013893286086452,-4.7351494620813e-18,-1.2823137673711e-17,-0.0014233981389741,0.0014233981389741,-0.0014233981389741,0.0014233981389741,-0.0014233981389741,0.0014233981389741,-0.0014233981389741,0.0014233981389741,-0.0013658500470123,0.0013658500470123,-0.0013658500470123,0.0013658500470123,0.72665707748005,0.95250232212385,1270536,32768,0.0057721322392959,0.0057721322392959,0.0057721322392959,20.138855350266,20.157030333304,7.6310842802124e-05,7.6310842802124e-05,7.6310842802124e-05,358965.71604229,0.017467423665212
25574400,0.99993126590812,0.017087286611343,0.005695762203781,0.0056957622037811,0.0056957622037811,-0.0013901171604858,0.0013901171604858,-5.1763124554429e-18,-6.4703905693037e-19,3.1534330765488e-16,-3.239018697261e-16,-0.0014241100282878,0.001424110028288,-0.0014241100282878,0.001424110028288,-0.001424110028288,0.0014241100282878,-0.001424110028288,0.0014241100282878,-0.0013666856402414,0.0013666856402411,-0.0013666856402414,0.0013666856402411,-3.0040258761304e-16,3.3693088346338e-16,1.1117307432713e-17,2.0352319427083e-17,-0.0013901171604858,0.0013901171604858,-0.001424110028288,0.0014241100282878,-0.001424110028288,0.0014241100282878,-0.0014241100282878,0.001424110028288,-0.0014241100282878,0.001424110028288,-0.0013666856402411,0.0013666856402413,-0.0013666856402412,0.0013666856402414,-0.0013666856402416,0.001366685640241,-0.001366685640241,0.0013666856402417,2.4411018966009e-18,-2.0587606356875e-18,-0.0013901171604858,0.0013901171604858,5.3821885190117e-18,-3.1175518197554e-18,-0.0014241100282879,0.0014241100282879,-0.0014241100282879,0.0014241100282879,-0.0014241100282879,0.0014241100282879,-0.0014241100282879,0.0014241100282879,-0.0013666856402413,0.0013666856402413,-0.0013666856402413,0.0013666856402413,0.73516077903677,0.89921598704722,1270536,32768,0.0057753988117758,0.0057753988117759,0.0057753988117759,20.418612416436,20.43680280523,7.8548899331484e-05,7.8548899331484e-05,7.8548899331484e-05,349804.43559109,0.017477395353309
25660800,0.99993278154182,0.017087314522585,0.0056957715075283,0.0056957715075284,0.0056957715075284,-0.0013906329708895,0.0013906329708894,-5.2645450541153e-18,-5.2939559203394e-19,3.1563741631712e-16,-3.2449008705058e-16,-0.0014246495127929,0.001424649512793,-0.0014246495127929,0.0014246495127931,-0.0014246495127931,0.0014246495127928,-0.0014246495127931,0.0014246495127928,-0.0013671600608448,0.0013671600608445,-0.0013671600608448,0.0013671600608445,-2.9540274035494e-16,3.4301893277177e-16,1.7028891543758e-17,2.6910942595059e-17,-0.0013906329708894,0.0013906329708895,-0.001424649512793,0.0014246495127929,-0.0014246495127931,0.0014246495127929,-0.0014246495127928,0.0014246495127931,-0.0014246495127928,0.0014246495127931,-0.0013671600608445,0.0013671600608448,-0.0013671600608446,0.0013671600608448,-0.0013671600608449,0.0013671600608444,-0.0013671600608443,0.001367160060845,-1.4028983188899e-17,-1.8646489186084e-17,-0.0013906329708895,0.0013906329708894,-1.1999633419436e-17,-2.1028769350237e-17,-0.001424649512793,0.0014246495127929,-0.001424649512793,0.0014246495127929,-0.001424649512793,0.0014246495127929,-0.001424649512793,0.0014246495127929,-0.0013671600608446,0.0013671600608446,-0.0013671600608446,0.0013671600608446,0.73901814156321,0.86523706048209,1270536,32768,0.0057775355090696,0.0057775355090697,0.0057775355090697,20.698368711153,20.716575277156,8.0786949689223e-05,8.0786949689223e-05,8.0786949689223e-05,349051.23908825,0.017483917690639
25747200,0.99993427762289,0.017087341983276,0.0056957806610919,0.0056957806610919,0.0056957806610919,-0.0013908784719852,0.0013908784719852,-1.0558500974455e-17,-5.999816709718e-18,3.1104932118616e-16,-3.2934287997756e-16,-0.0014249323341911,0.0014249323341913,-0.0014249323341911,0.0014249323341913,-0.0014249323341913,0.0014249323341911,-0.0014249323341913,0.0014249323341911,-0.0013673670213862,0.001367367021386,-0.0013673670213862,0.001367367021386,-2.9610860114432e-16,3.4213660678504e-16,1.6675961149069e-17,2.6440368735473e-17,-0.0013908784719852,0.0013908784719852,-0.0014249323341913,0.0014249323341911,-0.0014249323341913,0.0014249323341911,-0.001424932334191,0.0014249323341913,-0.001424932334191,0.0014249323341913,-0.001367367021386,0.0013673670213862,-0.001367367021386,0.0013673670213862,-0.0013673670213864,0.0013673670213858,-0.0013673670213858,0.0013673670213864,-4.2939864687197e-18,-8.8820815996805e-18,-0.0013908784719852,0.0013908784719852,-1.9705280370152e-18,-1.0499679242006e-17,-0.0014249323341912,0.0014249323341912,-0.0014249323341912,0.0014249323341912,-0.0014249323341912,0.0014249323341912,-0.0014249323341912,0.0014249323341912,-0.0013673670213861,0.0013673670213861,-0.0013673670213861,0.0013673670213861,0.73660575289846,0.81827565817244,1270536,32768,0.0057785524536384,0.0057785524536385,0.0057785524536385,20.85069420235,20.860888483298,8.2005553618798e-05,8.2005553618798e-05,8.2005553618798e-05,349239.72714552,0.017487021986539
25833600,0.99993573621825,0.01708736871058,0.0056957895701933,0.0056957895701934,0.0056957895701934,-0.0013906918043024,0.0013906918043023,-6.4115688368555e-18,-1.8234737058947e-18,3.1499037726019e-16,-3.2566652169954e-16,-0.0014247994017939,0.0014247994017941,-0.0014247994017939,0.0014247994017941,-0.0014247994017941,0.0014247994017939,-0.0014247994017941,0.0014247994017939,-0.001367135048521,0.0013671350485208,-0.001367135048521,0.0013671350485208,-2.9216754507029e-16,3.4660705845111e-16,2.0205265095962e-17,2.9616742287676e-17,-0.0013906918043023,0.0013906918043024,-0.0014247994017941,0.0014247994017939,-0.0014247994017941,0.0014247994017939,-0.0014247994017938,0.0014247994017941,-0.0014247994017939,0.0014247994017941,-0.0013671350485208,0.001367135048521,-0.0013671350485208,0.001367135048521,-0.0013671350485212,0.0013671350485207,-0.0013671350485206,0.0013671350485213,-4.8233820607537e-18,-9.3820663254903e-18,-0.0013906918043024,0.0013906918043024,-2.3234584317045e-18,-1.0793787904248e-17,-0.001424799401794,0.001424799401794,-0.001424799401794,0.001424799401794,-0.001424799401794,0.001424799401794,-0.001424799401794,0.001424799401794,-0.0013671350485209,0.0013671350485209,-0.0013671350485209,0.0013671350485209,0.73538818345801,0.79960567941862,1270536,32768,0.0057777791026269,0.0057777791026269,0.0057777791026269,20.803716501523,20.801103767876,8.162973201218e-05,8.162973201218e-05,8.162973201218e-05,351069.55044157,0.017484661357857
25920000,0.99993715734287,0.017087394675826,0.0056957982252754,0.0056957982252754,0.0056957982252754,-0.0013905185994347,0.0013905185994347,-6.9409644288894e-18,-2.3822801641527e-18,3.1434333820326e-16,-3.2651943682004e-16,-0.0014246590959027,0.0014246590959029,-0.0014246590959027,0.0014246590959029,-0.0014246590959029,0.0014246590959027,-0.0014246590959029,0.0014246590959027,-0.0013669398869634,0.0013669398869632,-0.0013669398869634,0.0013669398869632,-2.9469687956556e-16,3.445188869492e-16,1.8293558791395e-17,2.7234462123524e-17,-0.0013905185994347,0.0013905185994347,-0.0014246590959029,0.0014246590959027,-0.0014246590959029,0.0014246590959027,-0.0014246590959026,0.0014246590959029,-0.0014246590959027,0.0014246590959029,-0.0013669398869632,0.0013669398869634,-0.0013669398869632,0.0013669398869634,-0.0013669398869636,0.0013669398869631,-0.001366939886963,0.0013669398869637,-7.3527165560269e-18,-1.1940811686988e-17,-0.0013905185994347,0.0013905185994347,-5.3233667865635e-18,-1.3440765864417e-17,-0.0014246590959028,0.0014246590959028,-0.0014246590959028,0.0014246590959028,-0.0014246590959028,0.0014246590959028,-0.0014246590959028,0.0014246590959028,-0.0013669398869633,0.0013669398869633,-0.0013669398869633,0.0013669398869633,0.73326899363219,0.7809357006648,1270536,32768,0.0057770615717195,0.0057770615717196,0.0057770615717196,20.745087313709,20.741319052455,8.1160698509669e-05,8.1160698509669e-05,8.1160698509669e-05,351742.73127619,0.017482471051421
26006400,0.99993854198049,0.017087419457546,0.0056958064858486,0.0056958064858486,0.0056958064858486,-0.0013903445670268,0.0013903445670268,-2.9704974886349e-18,1.7058302409982e-18,3.1787264215016e-16,-3.2184310909041e-16,-0.0014245134457019,0.0014245134457021,-0.0014245134457019,0.0014245134457021,-0.0014245134457021,0.0014245134457019,-0.0014245134457021,0.0014245134457019,-0.0013667482131737,0.0013667482131734,-0.0013667482131737,0.0013667482131734,-2.9693210539859e-16,3.4104840473475e-16,1.582304602857e-17,2.4822771093147e-17,-0.0013903445670268,0.0013903445670269,-0.0014245134457021,0.0014245134457019,-0.0014245134457021,0.0014245134457019,-0.0014245134457018,0.0014245134457021,-0.0014245134457019,0.0014245134457021,-0.0013667482131734,0.0013667482131737,-0.0013667482131734,0.0013667482131737,-0.0013667482131738,0.0013667482131733,-0.0013667482131733,0.0013667482131739,-5.5292428501322e-18,-1.0176159713541e-17,-0.0013903445670269,0.0013903445670269,-3.9410560740304e-18,-1.1940811686988e-17,-0.001424513445702,0.001424513445702,-0.001424513445702,0.001424513445702,-0.001424513445702,0.001424513445702,-0.001424513445702,0.001424513445702,-0.0013667482131736,0.0013667482131735,-0.0013667482131735,0.0013667482131735,0.71828083753599,0.69652168285282,1270536,32768,0.005776340625348,0.005776340625348,0.005776340625348,20.685413208127,20.681534337034,8.0683305665014e-05,8.0683305665014e-05,8.0683305665014e-05,352452.50470034,0.017480270289059
26092800,0.99993989116822,0.01708744245334,0.0056958141511134,0.0056958141511135,0.0056958141511135,-0.0013900333553983,0.0013900333553983,-2.4411018966009e-18,2.4116910303768e-18,3.1828439427729e-16,-3.2125489176593e-16,-0.0014242749954531,0.0014242749954533,-0.0014242749954531,0.0014242749954533,-0.0014242749954534,0.0014242749954531,-0.0014242749954534,0.0014242749954531,-0.0013663793279349,0.0013663793279346,-0.0013663793279349,0.0013663793279346,-3.0034376588059e-16,3.3728381385807e-16,1.2470207279022e-17,2.1940506203184e-17,-0.0013900333553983,0.0013900333553984,-0.0014242749954533,0.0014242749954531,-0.0014242749954533,0.0014242749954531,-0.0014242749954531,0.0014242749954533,-0.0014242749954531,0.0014242749954534,-0.0013663793279347,0.0013663793279349,-0.0013663793279347,0.0013663793279349,-0.001366379327935,0.0013663793279345,-0.0013663793279344,0.0013663793279351,-6.9115535626653e-18,-1.1470237827402e-17,-0.0013900333553984,0.0013900333553983,-5.0292581243224e-18,-1.3352533265745e-17,-0.0014242749954533,0.0014242749954532,-0.0014242749954533,0.0014242749954532,-0.0014242749954533,0.0014242749954532,-0.0014242749954533,0.0014242749954532,-0.0013663793279347,0.0013663793279347,-0.0013663793279347,0.0013663793279347,0.68401330461703,0.53839686589601,1270536,32768,0.0057750514099092,0.0057750514099092,0.0057750514099092,20.625638642151,20.621749621612,8.020510913721e-05,8.020510913721e-05,8.020510913721e-05,357617.64294165,0.017476334610203
26179200,0.99994120591856,0.017087465782002,0.0056958219273338,0.0056958219273339,0.0056958219273339,-0.0013895120974994,0.0013895120974994,-1.4911309175623e-17,-9.9996945161966e-18,3.0463775234931e-16,-3.3422508377076e-16,-0.0014238941983668,0.001423894198367,-0.0014238941983668,0.001423894198367,-0.001423894198367,0.0014238941983668,-0.001423894198367,0.0014238941983668,-0.0013657456258398,0.0013657456258395,-0.0013657456258398,0.0013657456258395,-2.8975585403991e-16,3.4675411278223e-16,2.0675838955548e-17,2.9410866224108e-17,-0.0013895120974994,0.0013895120974994,-0.001423894198367,0.0014238941983668,-0.001423894198367,0.0014238941983668,-0.0014238941983667,0.001423894198367,-0.0014238941983667,0.001423894198367,-0.0013657456258396,0.0013657456258398,-0.0013657456258395,0.0013657456258398,-0.0013657456258399,0.0013657456258394,-0.0013657456258393,0.00136574562584,-9.558531522835e-18,-1.4028983188899e-17,-0.0013895120974994,0.0013895120974994,-7.4997708871475e-18,-1.5528937366329e-17,-0.0014238941983669,0.0014238941983669,-0.0014238941983669,0.0014238941983669,-0.0014238941983669,0.0014238941983669,-0.0014238941983669,0.0014238941983669,-0.0013657456258397,0.0013657456258396,-0.0013657456258396,0.0013657456258396,0.71215860360885,0.78002189925125,1270536,32768,0.0057728920983519,0.0057728920983519,0.0057728920983519,20.565854253874,20.561964906191,7.9726834030992e-05,7.9726834030992e-05,7.9726834030992e-05,369885.35540293,0.017469742520616
26265600,0.99994248721313,0.017087489584626,0.0056958298615421,0.0056958298615421,0.0056958298615421,-0.0013898320499098,0.0013898320499097,-8.3232751414225e-18,-3.6763582780135e-18,3.1222575583513e-16,-3.2675472374984e-16,-0.0014240550419369,0.001424055041937,-0.0014240550419369,0.0014240550419371,-0.0014240550419371,0.0014240550419369,-0.0014240550419371,0.0014240550419368,-0.0013662326176614,0.0013662326176612,-0.0013662326176614,0.0013662326176612,-2.915793277458e-16,3.4551885640082e-16,2.0675838955548e-17,2.9969672682366e-17,-0.0013898320499097,0.0013898320499098,-0.001424055041937,0.0014240550419368,-0.001424055041937,0.0014240550419368,-0.0014240550419368,0.001424055041937,-0.0014240550419368,0.0014240550419371,-0.0013662326176612,0.0013662326176614,-0.0013662326176612,0.0013662326176614,-0.0013662326176616,0.001366232617661,-0.001366232617661,0.0013662326176617,-7.5880034858198e-18,-1.2234920349229e-17,-0.0013898320499098,0.0013898320499098,-6.2645145057349e-18,-1.4234859252468e-17,-0.001424055041937,0.0014240550419369,-0.0014240550419369,0.0014240550419369,-0.0014240550419369,0.0014240550419369,-0.0014240550419369,0.0014240550419369,-0.0013662326176613,0.0013662326176613,-0.0013662326176613,0.0013662326176613,0.74571601289118,0.92560067273982,1270536,32768,0.0057742176631854,0.0057742176631854,0.0057742176631854,20.506068901011,20.50218019077,7.924855120809e-05,7.924855120809e-05,7.924855120809e-05,355836.40501941,0.017473789386922
26352000,0.999943736003,0.01708751305805,0.0056958376860166,0.0056958376860166,0.0056958376860166,-0.0013900508091263,0.0013900508091263,-8.1173990778537e-18,-3.4410713482206e-18,3.1222575583513e-16,-3.2684295634851e-16,-0.001424152859043,0.0014241528590432,-0.001424152859043,0.0014241528590432,-0.0014241528590432,0.001424152859043,-0.0014241528590432,0.001424152859043,-0.0013665489105967,0.0013665489105965,-0.0013665489105967,0.0013665489105965,-2.9552038381983e-16,3.4187190898903e-16,1.7058302409982e-17,2.5263934086508e-17,-0.0013900508091263,0.0013900508091264,-0.0014241528590432,0.001424152859043,-0.0014241528590432,0.001424152859043,-0.001424152859043,0.0014241528590432,-0.001424152859043,0.0014241528590432,-0.0013665489105965,0.0013665489105967,-0.0013665489105965,0.0013665489105967,-0.0013665489105969,0.0013665489105963,-0.0013665489105963,0.0013665489105969,-4.8233820607537e-18,-9.3526554592662e-18,-0.0013900508091264,0.0013900508091263,-2.9704974886349e-18,-1.0323214044662e-17,-0.0014241528590431,0.0014241528590431,-0.0014241528590431,0.0014241528590431,-0.0014241528590431,0.0014241528590431,-0.0014241528590431,0.0014241528590431,-0.0013665489105966,0.0013665489105966,-0.0013665489105966,0.0013665489105966,0.75443782940221,0.8874016471762,1270536,32768,0.0057751238470881,0.0057751238470882,0.0057751238470882,20.446283453347,20.442395475348,7.8770267626773e-05,7.8770267626773e-05,7.8770267626773e-05,344408.19934303,0.017476556202885
26438400,0.99994495320969,0.017087536441117,0.0056958454803724,0.0056958454803724,0.0056958454803724,-0.0013899413442076,0.0013899413442076,-7.9997556129573e-18,-3.4116604819965e-18,3.1234339930002e-16,-3.2693118894718e-16,-0.0014240445614264,0.0014240445614266,-0.0014240445614264,0.0014240445614266,-0.0014240445614266,0.0014240445614264,-0.0014240445614266,0.0014240445614264,-0.0013664185189438,0.0013664185189436,-0.0013664185189439,0.0013664185189436,-2.9363808838149e-16,3.4393066962472e-16,1.9205295644342e-17,2.7322694722196e-17,-0.0013899413442075,0.0013899413442076,-0.0014240445614266,0.0014240445614264,-0.0014240445614266,0.0014240445614264,-0.0014240445614263,0.0014240445614266,-0.0014240445614263,0.0014240445614266,-0.0013664185189436,0.0013664185189438,-0.0013664185189436,0.0013664185189439,-0.001366418518944,0.0013664185189435,-0.0013664185189434,0.0013664185189441,-6.6174449004242e-18,-1.1205540031385e-17,-0.0013899413442076,0.0013899413442076,-5.3233667865635e-18,-1.2440796412798e-17,-0.0014240445614265,0.0014240445614265,-0.0014240445614265,0.0014240445614265,-0.0014240445614265,0.0014240445614265,-0.0014240445614265,0.0014240445614265,-0.0013664185189437,0.0013664185189437,-0.0013664185189437,0.0013664185189437,0.77095090946464,0.93136439565299,1270536,32768,0.0057746702699308,0.0057746702699308,0.0057746702699308,20.386497996393,20.382610759927,7.8291983971143e-05,7.8291983971143e-05,7.8291983971143e-05,342920.26354388,0.017475171858057
26524800,0.99994614693757,0.01708755960718,0.0056958532023931,0.0056958532023932,0.0056958532023932,-0.0013901161759332,0.0013901161759332,-6.2056927732867e-18,-1.911706304567e-18,3.1469626859795e-16,-3.2525476957241e-16,-0.0014241900285398,0.00142419002854,-0.0014241900285399,0.0014241900285401,-0.0014241900285401,0.0014241900285398,-0.0014241900285401,0.0014241900285398,-0.0013666106501404,0.0013666106501402,-0.0013666106501404,0.0013666106501402,-2.9622624460921e-16,3.4216601765127e-16,1.7381821938448e-17,2.5028647156716e-17,-0.0013901161759332,0.0013901161759333,-0.00142419002854,0.0014241900285398,-0.00142419002854,0.0014241900285398,-0.0014241900285398,0.00142419002854,-0.0014241900285398,0.0014241900285401,-0.0013666106501402,0.0013666106501404,-0.0013666106501402,0.0013666106501404,-0.0013666106501406,0.0013666106501401,-0.00136661065014,0.0013666106501407,-6.7350883653207e-18,-1.1176129165161e-17,-0.0013901161759333,0.0013901161759332,-5.6468863150287e-18,-1.252902901147e-17,-0.0014241900285399,0.0014241900285399,-0.0014241900285399,0.0014241900285399,-0.0014241900285399,0.0014241900285399,-0.0014241900285399,0.0014241900285399,-0.0013666106501403,0.0013666106501403,-0.0013666106501403,0.0013666106501403,0.77878330413508,0.91692149253239,1270536,32768,0.0057753944856927,0.0057753944856927,0.0057753944856927,20.425544850666,20.427870439668,7.8604358805329e-05,7.8604358805329e-05,7.8604358805329e-05,338443.75153478,0.017477382746584
26611200,0.99994732778732,0.017087582532513,0.0056958608441711,0.0056958608441711,0.0056958608441711,-0.0013904636755875,0.0013904636755874,-6.9409644288894e-18,-2.3528692979286e-18,3.1416687300592e-16,-3.2569593256577e-16,-0.0014245439516458,0.001424543951646,-0.0014245439516459,0.0014245439516461,-0.0014245439516461,0.0014245439516458,-0.0014245439516461,0.0014245439516458,-0.0013669437475453,0.0013669437475451,-0.0013669437475453,0.0013669437475451,-2.9687328366614e-16,3.4104840473475e-16,1.64700850855e-17,2.3999266838872e-17,-0.0013904636755874,0.0013904636755875,-0.001424543951646,0.0014245439516458,-0.001424543951646,0.0014245439516458,-0.0014245439516458,0.001424543951646,-0.0014245439516458,0.0014245439516461,-0.0013669437475451,0.0013669437475453,-0.0013669437475451,0.0013669437475453,-0.0013669437475455,0.0013669437475449,-0.0013669437475449,0.0013669437475455,-6.4998014355278e-18,-1.0852609636696e-17,-0.0013904636755875,0.0013904636755875,-4.8233820607537e-18,-1.1352594362506e-17,-0.0014245439516459,0.0014245439516459,-0.0014245439516459,0.0014245439516459,-0.0014245439516459,0.0014245439516459,-0.001424543951646,0.0014245439516459,-0.0013669437475452,0.0013669437475452,-0.0013669437475452,0.0013669437475452,0.7790281869533,0.87726751581883,1270536,32768,0.0057768340123154,0.0057768340123155,0.0057768340123155,20.606406351692,20.617856155914,8.0051250813538e-05,8.0051250813538e-05,8.0051250813538e-05,336938.68069237,0.017481776862891
26697600,0.99994849618393,0.017087605108824,0.005695868369608,0.0056958683696081,0.0056958683696081,-0.0013907599502069,0.0013907599502069,-7.0586078937858e-18,-2.6763888263938e-18,3.1393158607613e-16,-3.2649002595382e-16,-0.0014248739132471,0.0014248739132473,-0.0014248739132471,0.0014248739132473,-0.0014248739132473,0.001424873913247,-0.0014248739132473,0.001424873913247,-0.0013672075416025,0.0013672075416022,-0.0013672075416025,0.0013672075416022,-2.8922645844787e-16,3.492834472775e-16,2.5293344952733e-17,3.1057874732658e-17,-0.0013907599502069,0.001390759950207,-0.0014248739132472,0.0014248739132471,-0.0014248739132472,0.0014248739132471,-0.001424873913247,0.0014248739132473,-0.001424873913247,0.0014248739132473,-0.0013672075416022,0.0013672075416025,-0.0013672075416022,0.0013672075416025,-0.0013672075416026,0.0013672075416021,-0.001367207541602,0.0013672075416027,-9.7349967201796e-18,-1.4087804921348e-17,-0.001390759950207,0.0013907599502069,-9.6761749877314e-18,-1.4528967914709e-17,-0.0014248739132472,0.0014248739132471,-0.0014248739132472,0.0014248739132471,-0.0014248739132472,0.0014248739132471,-0.0014248739132472,0.0014248739132471,-0.0013672075416024,0.0013672075416023,-0.0013672075416024,0.0013672075416023,0.775329054725,0.83761353910526,1270536,32768,0.0057780613457592,0.0057780613457592,0.0057780613457592,20.795561851465,20.807841872159,8.156449481172e-05,8.156449481172e-05,8.156449481172e-05,337652.52671788,0.017485523170238
26784000,0.99994965198901,0.017087627251401,0.005695875750467,0.0056958757504671,0.0056958757504671,-0.0013910357650765,0.0013910357650765,-5.4410102514599e-18,-5.8821732448215e-19,3.1551977285223e-16,-3.2501948264261e-16,-0.0014251895867614,0.0014251895867616,-0.0014251895867614,0.0014251895867616,-0.0014251895867616,0.0014251895867614,-0.0014251895867616,0.0014251895867614,-0.0013674512865303,0.0013674512865301,-0.0013674512865303,0.0013674512865301,-2.9728503579328e-16,3.4146015686189e-16,1.7911217530482e-17,2.3616925577958e-17,-0.0013910357650765,0.0013910357650766,-0.0014251895867616,0.0014251895867614,-0.0014251895867616,0.0014251895867614,-0.0014251895867614,0.0014251895867616,-0.0014251895867614,0.0014251895867617,-0.0013674512865301,0.0013674512865303,-0.0013674512865301,0.0013674512865303,-0.0013674512865305,0.00136745128653,-0.0013674512865299,0.0013674512865306,-5.1469015892188e-18,-9.6467641215073e-18,-0.0013910357650766,0.0013910357650765,-4.7057385958572e-18,-9.5291206566109e-18,-0.0014251895867615,0.0014251895867615,-0.0014251895867615,0.0014251895867615,-0.0014251895867615,0.0014251895867615,-0.0014251895867615,0.0014251895867615,-0.0013674512865302,0.0013674512865302,-0.0013674512865302,0.0013674512865302,0.76872272092407,0.7979595623917,1270536,32768,0.0057792039513911,0.0057792039513912,0.0057792039513912,20.985460833696,20.997827588404,8.3083686669564e-05,8.3083686669564e-05,8.3083686669564e-05,339170.2593502,0.017489010770023
26870400,0.99995079502006,0.017087648894673,0.0056958829648911,0.0056958829648911,0.0056958829648911,-0.0013912991285244,0.0013912991285244,-3.9998778064786e-18,8.5291512049912e-19,3.1651974230385e-16,-3.2340188500029e-16,-0.0014254941095638,0.001425494109564,-0.0014254941095638,0.001425494109564,-0.001425494109564,0.0014254941095638,-0.001425494109564,0.0014254941095638,-0.0013676849077993,0.001367684907799,-0.0013676849077993,0.0013676849077991,-2.9369691011394e-16,3.4425418915318e-16,2.1087591082685e-17,2.5940384009663e-17,-0.0013912991285244,0.0013912991285244,-0.001425494109564,0.0014254941095638,-0.001425494109564,0.0014254941095638,-0.0014254941095637,0.001425494109564,-0.0014254941095638,0.001425494109564,-0.0013676849077991,0.0013676849077993,-0.0013676849077991,0.0013676849077993,-0.0013676849077994,0.0013676849077989,-0.0013676849077988,0.0013676849077995,-5.2939559203394e-19,-5.2351341878912e-18,-0.0013912991285244,0.0013912991285244,-8.5291512049912e-19,-4.8233820607537e-18,-0.0014254941095639,0.0014254941095639,-0.0014254941095639,0.0014254941095639,-0.0014254941095639,0.0014254941095639,-0.0014254941095639,0.0014254941095639,-0.0013676849077991,0.0013676849077991,-0.0013676849077991,0.0013676849077992,0.75979839130996,0.75830558567814,1270536,32768,0.0057802949988549,0.0057802949988549,0.0057802949988549,21.175431292611,21.18781330465,8.4603450340884e-05,8.4603450340884e-05,8.4603450340884e-05,341225.89022041,0.017492340929074
26956800,0.99995192509601,0.017087669986313,0.0056958899954377,0.0056958899954378,0.0056958899954378,-0.0013915543529422,0.0013915543529422,-5.0880798567706e-18,-2.0587606356875e-19,3.1575505978202e-16,-3.2407833492344e-16,-0.00142578975142,0.0014257897514202,-0.00142578975142,0.0014257897514202,-0.0014257897514202,0.00142578975142,-0.0014257897514202,0.00142578975142,-0.0013679129163473,0.0013679129163471,-0.0013679129163473,0.0013679129163471,-2.9446159263577e-16,3.4357773923003e-16,2.026408682841e-17,2.4116910303768e-17,-0.0013915543529421,0.0013915543529422,-0.0014257897514202,0.00142578975142,-0.0014257897514202,0.00142578975142,-0.0014257897514199,0.0014257897514202,-0.0014257897514199,0.0014257897514202,-0.0013679129163471,0.0013679129163473,-0.0013679129163471,0.0013679129163473,-0.0013679129163475,0.0013679129163469,-0.0013679129163469,0.0013679129163475,-5.6762971812528e-18,-1.0146748847317e-17,-0.0013915543529422,0.0013915543529422,-6.5292123017519e-18,-9.0291359308011e-18,-0.0014257897514201,0.0014257897514201,-0.0014257897514201,0.0014257897514201,-0.0014257897514201,0.0014257897514201,-0.0014257897514201,0.0014257897514201,-0.0013679129163472,0.0013679129163472,-0.0013679129163472,0.0013679129163472,0.74893987396955,0.71865160896458,1270536,32768,0.0057813523477041,0.0057813523477042,0.0057813523477042,21.365408743263,21.377799020895,8.6123269946102e-05,8.6123269946102e-05,8.6123269946102e-05,343706.13766785,0.017495568176599
27043200,0.99995304204163,0.017087690483739,0.0056958968279129,0.005695896827913,0.005695896827913,-0.0013918038506429,0.0013918038506429,-7.5880034858198e-18,-2.7940322912902e-18,3.1322572528675e-16,-3.2751940627166e-16,-0.0014260780019676,0.0014260780019677,-0.0014260780019676,0.0014260780019678,-0.0014260780019678,0.0014260780019675,-0.0014260780019678,0.0014260780019675,-0.0013681375184368,0.0013681375184365,-0.0013681375184368,0.0013681375184366,-2.9504980996025e-16,3.4404831308961e-16,1.9940567299945e-17,2.39110342402e-17,-0.0013918038506429,0.001391803850643,-0.0014260780019677,0.0014260780019676,-0.0014260780019678,0.0014260780019676,-0.0014260780019675,0.0014260780019678,-0.0014260780019675,0.0014260780019678,-0.0013681375184366,0.0013681375184368,-0.0013681375184366,0.0013681375184368,-0.001368137518437,0.0013681375184364,-0.0013681375184364,0.001368137518437,-7.3527165560269e-19,-5.2939559203394e-18,-0.001391803850643,0.0013918038506429,-8.2350425427501e-19,-3.9410560740304e-18,-0.0014260780019677,0.0014260780019676,-0.0014260780019677,0.0014260780019677,-0.0014260780019677,0.0014260780019677,-0.0014260780019677,0.0014260780019676,-0.0013681375184367,0.0013681375184367,-0.0013681375184367,0.0013681375184367,0.73641910627879,0.67899763225102,1270536,32768,0.0057823859874448,0.0057823859874449,0.0057823859874449,21.555386880377,21.56778473714,8.7643095043016e-05,8.7643095043016e-05,8.7643095043016e-05,346554.79154559,0.017498723014909
27129600,0.99995414568817,0.017087710351915,0.0056959034506382,0.0056959034506383,0.0056959034506383,-0.0013920490505218,0.0013920490505218,-3.5881256793411e-18,1.2646672476366e-18,3.1781382041771e-16,-3.2284307854203e-16,-0.001426359909961,0.0014263599099612,-0.001426359909961,0.0014263599099612,-0.0014263599099612,0.001426359909961,-0.0014263599099612,0.001426359909961,-0.0013683598524132,0.001368359852413,-0.0013683598524132,0.001368359852413,-2.9699092713104e-16,3.4210719591882e-16,1.8528845721188e-17,2.3116940852149e-17,-0.0013920490505218,0.0013920490505219,-0.0014263599099612,0.001426359909961,-0.0014263599099612,0.001426359909961,-0.0014263599099609,0.0014263599099612,-0.001426359909961,0.0014263599099612,-0.001368359852413,0.0013683598524132,-0.001368359852413,0.0013683598524132,-0.0013683598524134,0.0013683598524128,-0.0013683598524128,0.0013683598524135,-5.999816709718e-18,-1.0734966171799e-17,-0.0013920490505219,0.0013920490505218,-6.6762666328724e-18,-1.0499679242006e-17,-0.0014263599099611,0.0014263599099611,-0.0014263599099611,0.0014263599099611,-0.0014263599099611,0.0014263599099611,-0.0014263599099611,0.0014263599099611,-0.0013683598524131,0.0013683598524131,-0.0013683598524131,0.0013683598524131,0.7224399100523,0.63934365553746,1270536,32768,0.0057834018346093,0.0057834018346093,0.0057834018346093,21.745365084039,21.757770453386,8.9162920672312e-05,8.9162920672312e-05,8.9162920672312e-05,349742.39401979,0.017501823511184
27216000,0.99995523587349,0.017087729561889,0.005695909853963,0.005695909853963,0.005695909853963,-0.001392290827176,0.001392290827176,-5.6174754488046e-18,-6.1762819070626e-19,3.1604916844426e-16,-3.2481360657905e-16,-0.0014266362565774,0.0014266362565776,-0.0014266362565774,0.0014266362565776,-0.0014266362565776,0.0014266362565774,-0.0014266362565776,0.0014266362565773,-0.0013685805058013,0.001368580505801,-0.0013685805058013,0.001368580505801,-2.9869675737204e-16,3.403719548116e-16,1.632303075438e-17,2.1852273604512e-17,-0.001392290827176,0.001392290827176,-0.0014266362565775,0.0014266362565773,-0.0014266362565776,0.0014266362565773,-0.0014266362565773,0.0014266362565775,-0.0014266362565773,0.0014266362565776,-0.001368580505801,0.0013685805058012,-0.001368580505801,0.0013685805058013,-0.0013685805058014,0.0013685805058009,-0.0013685805058008,0.0013685805058015,-2.735210558842e-18,-7.4997708871475e-18,-0.001392290827176,0.001392290827176,-2.7940322912902e-18,-7.6174143520439e-18,-0.0014266362565775,0.0014266362565774,-0.0014266362565775,0.0014266362565774,-0.0014266362565774,0.0014266362565774,-0.0014266362565775,0.0014266362565774,-0.0013685805058011,0.0013685805058011,-0.0013685805058011,0.0013685805058011,0.70716133896544,0.59968967882389,1270536,32768,0.0057844035101719,0.005784403510172,0.005784403510172,21.935343293183,21.947756169631,9.0682746345459e-05,9.0682746345459e-05,9.0682746345459e-05,353254.10615195,0.017504880723776
27302400,0.99995631041184,0.017087748276949,0.0056959160923163,0.0056959160923163,0.0056959160923163,-0.001392469407333,0.0013924694073329,-4.7939711945295e-18,5.8821732448215e-20,3.1716678136078e-16,-3.2410774578967e-16,-0.0014268481374852,0.0014268481374854,-0.0014268481374852,0.0014268481374854,-0.0014268481374854,0.0014268481374852,-0.0014268481374854,0.0014268481374852,-0.0013687389016183,0.0013687389016181,-0.0013687389016183,0.0013687389016181,-2.9128521908356e-16,3.478129039663e-16,2.3881623373975e-17,2.8705005434729e-17,-0.0013924694073329,0.001392469407333,-0.0014268481374854,0.0014268481374852,-0.0014268481374854,0.0014268481374852,-0.0014268481374851,0.0014268481374854,-0.0014268481374851,0.0014268481374854,-0.0013687389016181,0.0013687389016183,-0.0013687389016181,0.0013687389016183,-0.0013687389016185,0.0013687389016179,-0.0013687389016179,0.0013687389016186,-5.8821732448215e-18,-1.0705555305575e-17,-0.001392469407333,0.001392469407333,-6.9997861613376e-18,-1.0823198770472e-17,-0.0014268481374853,0.0014268481374853,-0.0014268481374853,0.0014268481374853,-0.0014268481374853,0.0014268481374853,-0.0014268481374853,0.0014268481374853,-0.0013687389016182,0.0013687389016182,-0.0013687389016182,0.0013687389016182,0.69900595858352,0.60576459798308,1270536,32768,0.005785143391046,0.005785143391046,0.005785143391046,22.094089600016,22.104535272851,9.1952716800129e-05,9.1952716800129e-05,9.1952716800129e-05,357111.14896178,0.017507138796102
27388800,0.99995736663489,0.017087766912031,0.0056959223040102,0.0056959223040102,0.0056959223040102,-0.0013926711564462,0.0013926711564462,-6.9409644288894e-18,-2.3528692979286e-18,3.146374468655e-16,-3.2693118894718e-16,-0.0014270454920285,0.0014270454920287,-0.0014270454920285,0.0014270454920287,-0.0014270454920287,0.0014270454920285,-0.0014270454920287,0.0014270454920285,-0.0013689536181842,0.001368953618184,-0.0013689536181842,0.001368953618184,-2.9934379642897e-16,3.4031313307915e-16,1.6499495951724e-17,2.0646428089324e-17,-0.0013926711564462,0.0013926711564462,-0.0014270454920287,0.0014270454920285,-0.0014270454920287,0.0014270454920285,-0.0014270454920284,0.0014270454920287,-0.0014270454920284,0.0014270454920287,-0.001368953618184,0.0013689536181842,-0.001368953618184,0.0013689536181842,-0.0013689536181844,0.0013689536181839,-0.0013689536181838,0.0013689536181845,-3.9116452078063e-18,-8.5291512049912e-18,-0.0013926711564462,0.0013926711564462,-4.5292733985126e-18,-7.9703447467332e-18,-0.0014270454920286,0.0014270454920286,-0.0014270454920286,0.0014270454920286,-0.0014270454920286,0.0014270454920286,-0.0014270454920286,0.0014270454920285,-0.0013689536181841,0.0013689536181841,-0.0013689536181841,0.0013689536181841,0.70812417366187,0.6936596777507,1270536,32768,0.0057859792488365,0.0057859792488365,0.0057859792488365,22.211645382358,22.219426609391,9.2893163058864e-05,9.2893163058864e-05,9.2893163058864e-05,357947.91194328,0.017509690052899
27475200,0.99995840451323,0.017087785348299,0.0056959284494328,0.0056959284494329,0.0056959284494328,-0.0013930688265808,0.0013930688265808,-9.5879423890591e-18,-4.8527929269778e-18,3.1281397315961e-16,-3.2840173225839e-16,-0.0014273686911624,0.0014273686911625,-0.0014273686911624,0.0014273686911626,-0.0014273686911626,0.0014273686911623,-0.0014273686911626,0.0014273686911623,-0.0013694207443442,0.0013694207443439,-0.0013694207443442,0.0013694207443439,-2.9693210539859e-16,3.4272482410953e-16,2.0734660687996e-17,2.3146351718373e-17,-0.0013930688265808,0.0013930688265808,-0.0014273686911625,0.0014273686911623,-0.0014273686911625,0.0014273686911623,-0.0014273686911623,0.0014273686911625,-0.0014273686911623,0.0014273686911626,-0.0013694207443439,0.0013694207443441,-0.0013694207443439,0.0013694207443441,-0.0013694207443443,0.0013694207443438,-0.0013694207443437,0.0013694207443444,-9.2350119943698e-18,-1.4087804921348e-17,-0.0013930688265808,0.0013930688265808,-1.0764377038023e-17,-1.1999633419436e-17,-0.0014273686911624,0.0014273686911624,-0.0014273686911624,0.0014273686911624,-0.0014273686911624,0.0014273686911624,-0.0014273686911624,0.0014273686911624,-0.001369420744344,0.001369420744344,-0.001369420744344,0.001369420744344,0.71296345259795,0.71481564294861,1270536,32768,0.0057876266941042,0.0057876266941043,0.0057876266941043,22.326775879849,22.33431794593,9.3814207038787e-05,9.3814207038787e-05,9.3814207038787e-05,352418.95453589,0.017514719172418
27561600,0.99995942416898,0.017087803599524,0.0056959345331748,0.0056959345331748,0.0056959345331748,-0.001393363363002,0.001393363363002,-6.6762666328724e-18,-1.911706304567e-18,3.1493155552774e-16,-3.2590180862934e-16,-0.00142762750688,0.0014276275068802,-0.00142762750688,0.0014276275068802,-0.0014276275068802,0.00142762750688,-0.0014276275068803,0.00142762750688,-0.0013697388349277,0.0013697388349275,-0.0013697388349277,0.0013697388349275,-2.9293222759211e-16,3.4607766285907e-16,2.3175762584597e-17,2.5793329678542e-17,-0.001393363363002,0.001393363363002,-0.0014276275068802,0.00142762750688,-0.0014276275068802,0.00142762750688,-0.00142762750688,0.0014276275068802,-0.00142762750688,0.0014276275068803,-0.0013697388349275,0.0013697388349277,-0.0013697388349275,0.0013697388349277,-0.0013697388349279,0.0013697388349274,-0.0013697388349273,0.001369738834928,-5.8233515123733e-18,-1.0440857509558e-17,-0.001393363363002,0.001393363363002,-7.0880187600099e-18,-8.7056164023359e-18,-0.0014276275068801,0.0014276275068801,-0.0014276275068801,0.0014276275068801,-0.0014276275068801,0.0014276275068801,-0.0014276275068801,0.0014276275068801,-0.0013697388349276,0.0013697388349276,-0.0013697388349276,0.0013697388349276,0.71838169817057,0.73597160814652,1270536,32768,0.0057888468400493,0.0057888468400493,0.0057888468400493,22.441687873249,22.449209282469,9.4733502985991e-05,9.4733502985991e-05,9.4733502985991e-05,349876.81375841,0.017518443842933
27648000,0.99996042574031,0.017087821682675,0.0056959405608918,0.0056959405608918,0.0056959405608918,-0.0013936505466762,0.0013936505466762,-3.8528234753581e-18,1.088202050292e-18,3.1810792907995e-16,-3.237842262612e-16,-0.0014278856159858,0.001427885615986,-0.0014278856159858,0.001427885615986,-0.001427885615986,0.0014278856159858,-0.001427885615986,0.0014278856159858,-0.0013700435732715,0.0013700435732713,-0.0013700435732715,0.0013700435732713,-2.9681446193369e-16,3.4334245230023e-16,1.9822923835049e-17,2.2322847464098e-17,-0.0013936505466762,0.0013936505466762,-0.0014278856159859,0.0014278856159858,-0.0014278856159859,0.0014278856159857,-0.0014278856159857,0.0014278856159859,-0.0014278856159857,0.001427885615986,-0.0013700435732713,0.0013700435732715,-0.0013700435732713,0.0013700435732715,-0.0013700435732717,0.0013700435732711,-0.0013700435732711,0.0013700435732718,-2.2940475654804e-18,-7.1174296262341e-18,-0.0013936505466762,0.0013936505466762,-4.2351647362715e-18,-5.7057080474769e-18,-0.0014278856159859,0.0014278856159858,-0.0014278856159859,0.0014278856159858,-0.0014278856159858,0.0014278856159858,-0.0014278856159859,0.0014278856159858,-0.0013700435732714,0.0013700435732714,-0.0013700435732714,0.0013700435732714,0.72460032941829,0.75712757334442,1270536,32768,0.005790036515143,0.0057900365151431,0.0057900365151431,22.556578763603,22.564100619009,9.565263010882e-05,9.565263010882e-05,9.565263010882e-05,347472.41988568,0.017522075525279
27734400,0.99996140936956,0.017087839614235,0.0056959465380783,0.0056959465380784,0.0056959465380784,-0.0013939352573847,0.0013939352573846,-1.2087866018108e-17,-6.5880340342001e-18,3.1057874732658e-16,-3.31107531951e-16,-0.0014281452326719,0.0014281452326721,-0.0014281452326719,0.0014281452326721,-0.0014281452326721,0.0014281452326719,-0.0014281452326721,0.0014281452326719,-0.0013703427944319,0.0013703427944316,-0.0013703427944319,0.0013703427944316,-2.9622624460921e-16,3.4334245230023e-16,2.0646428089324e-17,2.3293406049493e-17,-0.0013939352573846,0.0013939352573847,-0.0014281452326721,0.0014281452326719,-0.0014281452326721,0.0014281452326719,-0.0014281452326718,0.0014281452326721,-0.0014281452326718,0.0014281452326721,-0.0013703427944316,0.0013703427944319,-0.0013703427944316,0.0013703427944319,-0.001370342794432,0.0013703427944315,-0.0013703427944315,0.0013703427944321,-2.4411018966009e-18,-7.382127422251e-18,-0.0013939352573847,0.0013939352573847,-4.0586995389269e-18,-5.8821732448215e-18,-0.001428145232672,0.001428145232672,-0.001428145232672,0.001428145232672,-0.001428145232672,0.001428145232672,-0.001428145232672,0.0014281452326719,-0.0013703427944318,0.0013703427944317,-0.0013703427944317,0.0013703427944318,0.73161546988354,0.77828353854233,1270536,32768,0.005791215936573,0.005791215936573,0.005791215936573,22.67146758027,22.678991955548,9.6571740642163e-05,9.6571740642163e-05,9.6571740642163e-05,345051.35750923,0.017525675937978
27820800,0.99996237520207,0.017087857408478,0.0056959524694926,0.0056959524694926,0.0056959524694926,-0.0013942185457099,0.0013942185457099,-8.7938490010082e-18,-3.7351800104617e-18,3.1269632969471e-16,-3.2798998013125e-16,-0.0014284065036667,0.0014284065036668,-0.0014284065036667,0.0014284065036669,-0.0014284065036669,0.0014284065036666,-0.0014284065036669,0.0014284065036666,-0.001370638501498,0.0013706385014977,-0.001370638501498,0.0013706385014977,-2.9457923610066e-16,3.4419536742073e-16,2.1058180216461e-17,2.405808857132e-17,-0.0013942185457099,0.00139421854571,-0.0014284065036668,0.0014284065036667,-0.0014284065036668,0.0014284065036666,-0.0014284065036666,0.0014284065036669,-0.0014284065036666,0.0014284065036669,-0.0013706385014977,0.001370638501498,-0.0013706385014977,0.001370638501498,-0.0013706385014981,0.0013706385014976,-0.0013706385014976,0.0013706385014982,-3.3528387495483e-18,-8.4115077400948e-18,-0.0013942185457099,0.0013942185457099,-4.5586842647367e-18,-6.3821579706314e-18,-0.0014284065036668,0.0014284065036667,-0.0014284065036668,0.0014284065036667,-0.0014284065036667,0.0014284065036667,-0.0014284065036668,0.0014284065036667,-0.0013706385014978,0.0013706385014978,-0.0013706385014978,0.0013706385014978,0.73937325960247,0.79943950374023,1270536,32768,0.0057923894580785,0.0057923894580786,0.0057923894580786,22.786356191953,22.793883292087,9.749084953562e-05,9.749084953562e-05,9.749084953562e-05,342581.99254176,0.017529258368976
27907200,0.99996332338592,0.017087875077376,0.0056959583591254,0.0056959583591254,0.0056959583591254,-0.0013945005530795,0.0013945005530795,-7.2644839573546e-18,-2.0293497694634e-18,3.1457862513306e-16,-3.2640179335515e-16,-0.0014286691215213,0.0014286691215215,-0.0014286691215213,0.0014286691215215,-0.0014286691215215,0.0014286691215213,-0.0014286691215215,0.0014286691215213,-0.0013709312705415,0.0013709312705412,-0.0013709312705415,0.0013709312705412,-2.9228518853518e-16,3.4660705845111e-16,2.3499282113062e-17,2.5940384009663e-17,-0.0013945005530795,0.0013945005530795,-0.0014286691215215,0.0014286691215213,-0.0014286691215215,0.0014286691215213,-0.0014286691215212,0.0014286691215215,-0.0014286691215212,0.0014286691215215,-0.0013709312705412,0.0013709312705415,-0.0013709312705412,0.0013709312705415,-0.0013709312705416,0.0013709312705411,-0.001370931270541,0.0013709312705417,-6.2351036395108e-18,-1.1176129165161e-17,-0.0013945005530795,0.0013945005530795,-7.8821121480609e-18,-9.2644228605939e-18,-0.0014286691215214,0.0014286691215214,-0.0014286691215214,0.0014286691215214,-0.0014286691215214,0.0014286691215214,-0.0014286691215214,0.0014286691215214,-0.0013709312705413,0.0013709312705413,-0.0013709312705413,0.0013709312705413,0.74781216721237,0.82059546893814,1270536,32768,0.0057935576668603,0.0057935576668604,0.0057935576668604,22.901244783123,22.908774628627,9.8409958264985e-05,9.8409958264985e-05,9.8409958264985e-05,340062.16089066,0.017532824607537
27993600,0.99996425407191,0.0170878926308,0.0056959642102668,0.0056959642102668,0.0056959642102668,-0.0013947811967267,0.0013947811967267,-6.2351036395108e-18,-8.8232598672323e-19,3.1657856403629e-16,-3.2543123476975e-16,-0.0014289326970275,0.0014289326970276,-0.0014289326970275,0.0014289326970277,-0.0014289326970277,0.0014289326970274,-0.0014289326970277,0.0014289326970274,-0.0013712212829363,0.0013712212829361,-0.0013712212829363,0.0013712212829361,-2.9663799673635e-16,3.4331304143401e-16,2.011703249729e-17,2.2499312661442e-17,-0.0013947811967267,0.0013947811967268,-0.0014289326970276,0.0014289326970274,-0.0014289326970276,0.0014289326970274,-0.0014289326970274,0.0014289326970276,-0.0014289326970274,0.0014289326970277,-0.0013712212829361,0.0013712212829363,-0.0013712212829361,0.0013712212829363,-0.0013712212829365,0.0013712212829359,-0.0013712212829359,0.0013712212829366,-8.1468099440778e-18,-1.3264300667073e-17,-0.0013947811967268,0.0013947811967267,-9.4114771917145e-18,-1.0793787904248e-17,-0.0014289326970276,0.0014289326970275,-0.0014289326970276,0.0014289326970275,-0.0014289326970275,0.0014289326970275,-0.0014289326970276,0.0014289326970275,-0.0013712212829362,0.0013712212829362,-0.0013712212829362,0.0013712212829362,0.75687411648508,0.84175143413605,1270536,32768,0.0057947202211628,0.0057947202211629,0.0057947202211629,23.016133372025,23.023665965166,9.9329066976197e-05,9.9329066976197e-05,9.9329066976197e-05,337497.23898313,0.017536373607293
28080000,0.99996516663421,0.017087910061848,0.0056959700206159,0.0056959700206159,0.0056959700206159,-0.0013950328623993,0.0013950328623993,-6.9115535626653e-18,-1.6175976423259e-18,3.1481391206285e-16,-3.2649002595382e-16,-0.0014291697302543,0.0014291697302545,-0.0014291697302543,0.0014291697302545,-0.0014291697302545,0.0014291697302543,-0.0014291697302545,0.0014291697302543,-0.0013714808701395,0.0013714808701393,-0.0013714808701395,0.0013714808701393,-2.9746150099062e-16,3.4246012631351e-16,1.8970008714549e-17,2.2146382266753e-17,-0.0013950328623993,0.0013950328623993,-0.0014291697302545,0.0014291697302543,-0.0014291697302545,0.0014291697302543,-0.0014291697302542,0.0014291697302545,-0.0014291697302543,0.0014291697302545,-0.0013714808701393,0.0013714808701395,-0.0013714808701393,0.0013714808701395,-0.0013714808701397,0.0013714808701391,-0.0013714808701391,0.0013714808701398,-1.2323152947901e-17,-1.747005453712e-17,-0.0013950328623993,0.0013950328623993,-1.3734874526658e-17,-1.6146565557035e-17,-0.0014291697302544,0.0014291697302544,-0.0014291697302544,0.0014291697302544,-0.0014291697302544,0.0014291697302544,-0.0014291697302544,0.0014291697302544,-0.0013714808701394,0.0013714808701394,-0.0013714808701394,0.0013714808701394,0.76650710999346,0.86290739933395,1270536,32768,0.0057957627261619,0.0057957627261619,0.0057957627261619,23.11678098814,23.123413281259,0.00010013424790512,0.00010013424790512,0.00010013424790512,334906.19103459,0.017539556168311
28166400,0.99996606035441,0.017087927359594,0.0056959757865312,0.0056959757865313,0.0056959757865313,-0.0013952495623963,0.0013952495623963,-4.2939864687197e-18,1.088202050292e-18,3.1699031616343e-16,-3.2260779161224e-16,-0.0014293737421091,0.0014293737421093,-0.0014293737421091,0.0014293737421093,-0.0014293737421093,0.0014293737421091,-0.0014293737421093,0.0014293737421091,-0.0013717043837843,0.0013717043837841,-0.0013717043837843,0.0013717043837841,-3.0210841785403e-16,3.3575444881441e-16,1.352899846309e-17,1.5587759098777e-17,-0.0013952495623963,0.0013952495623964,-0.0014293737421093,0.0014293737421091,-0.0014293737421093,0.0014293737421091,-0.001429373742109,0.0014293737421093,-0.001429373742109,0.0014293737421093,-0.0013717043837841,0.0013717043837843,-0.0013717043837841,0.0013717043837843,-0.0013717043837845,0.0013717043837839,-0.0013717043837839,0.0013717043837846,2.9410866224108e-20,-5.0880798567706e-18,-0.0013952495623964,0.0013952495623964,-1.6175976423259e-18,-2.7057996926179e-18,-0.0014293737421092,0.0014293737421092,-0.0014293737421092,0.0014293737421092,-0.0014293737421092,0.0014293737421092,-0.0014293737421092,0.0014293737421092,-0.0013717043837842,0.0013717043837842,-0.0013717043837842,0.0013717043837842,0.77666534004838,0.88406336453186,1270536,32768,0.0057966603793998,0.0057966603793999,0.0057966603793999,23.200146283492,23.205654890634,0.00010080117026794,0.00010080117026794,0.00010080117026794,332286.82674047,0.01754229656739
28252800,0.99996693544991,0.017087944529378,0.0056959815097926,0.0056959815097926,0.0056959815097926,-0.0013954625947387,0.0013954625947387,-8.9703141983528e-18,-3.6469474117894e-18,3.1222575583513e-16,-3.279311583988e-16,-0.0014295753277102,0.0014295753277104,-0.0014295753277102,0.0014295753277104,-0.0014295753277104,0.0014295753277102,-0.0014295753277104,0.0014295753277102,-0.0013719235922792,0.0013719235922789,-0.0013719235922792,0.0013719235922789,-2.9234401026763e-16,3.4557767813327e-16,2.3440460380614e-17,2.5675686213646e-17,-0.0013954625947387,0.0013954625947387,-0.0014295753277104,0.0014295753277102,-0.0014295753277104,0.0014295753277102,-0.0014295753277101,0.0014295753277104,-0.0014295753277101,0.0014295753277104,-0.0013719235922789,0.0013719235922792,-0.0013719235922789,0.0013719235922792,-0.0013719235922793,0.0013719235922788,-0.0013719235922787,0.0013719235922794,-4.6763277296331e-18,-9.9114619175243e-18,-0.0013954625947387,0.0013954625947387,-5.9409949772697e-18,-7.4115382884751e-18,-0.0014295753277103,0.0014295753277103,-0.0014295753277103,0.0014295753277103,-0.0014295753277103,0.0014295753277103,-0.0014295753277103,0.0014295753277103,-0.001371923592279,0.001371923592279,-0.001371923592279,0.001371923592279,0.78730858008422,0.90521932972976,1270536,32768,0.0057975428382853,0.0057975428382854,0.0057975428382854,23.282488860173,23.287896500009,0.00010145991088138,0.00010145991088138,0.00010145991088138,329628.64124997,0.017544990586426
28339200,0.99996779218961,0.017087961576265,0.0056959871920883,0.0056959871920884,0.0056959871920884,-0.0013956737081476,0.0013956737081476,-7.7938795493885e-18,-2.470512762825e-18,3.1375512087878e-16,-3.2651943682004e-16,-0.0014297764292883,0.0014297764292885,-0.0014297764292883,0.0014297764292885,-0.0014297764292885,0.0014297764292883,-0.0014297764292885,0.0014297764292883,-0.001372140101084,0.0013721401010838,-0.001372140101084,0.0013721401010838,-2.9275576239477e-16,3.4540121293592e-16,2.2999297387252e-17,2.4322786367337e-17,-0.0013956737081476,0.0013956737081476,-0.0014297764292885,0.0014297764292883,-0.0014297764292885,0.0014297764292883,-0.0014297764292882,0.0014297764292885,-0.0014297764292883,0.0014297764292885,-0.0013721401010837,0.001372140101084,-0.0013721401010838,0.001372140101084,-0.0013721401010842,0.0013721401010836,-0.0013721401010836,0.0013721401010842,-1.8822954383429e-18,-7.2056622249064e-18,-0.0013956737081476,0.0013956737081476,-3.7057691442376e-18,-4.4410407998403e-18,-0.0014297764292884,0.0014297764292884,-0.0014297764292884,0.0014297764292884,-0.0014297764292884,0.0014297764292884,-0.0014297764292884,0.0014297764292884,-0.0013721401010839,0.0013721401010839,-0.0013721401010839,0.0013721401010839,0.79840143256192,0.92637529492767,1270536,32768,0.0057984173462725,0.0057984173462725,0.0057984173462725,23.364738993789,23.370138109384,0.00010211791195031,0.00010211791195031,0.00010211791195031,326949.12313987,0.017547660341873
28425600,0.99996863084567,0.017087978504333,0.0056959928347775,0.0056959928347775,0.0056959928347775,-0.0013958830296703,0.0013958830296703,-2.7940322912902e-18,2.5293344952733e-18,3.1834321600974e-16,-3.2225486121755e-16,-0.001429977053764,0.0014299770537642,-0.001429977053764,0.0014299770537643,-0.0014299770537643,0.001429977053764,-0.0014299770537643,0.001429977053764,-0.0013723541068016,0.0013723541068014,-0.0013723541068017,0.0013723541068014,-2.8822648899626e-16,3.50136362398e-16,2.8146198976471e-17,2.9675564020125e-17,-0.0013958830296703,0.0013958830296703,-0.0014299770537642,0.001429977053764,-0.0014299770537642,0.001429977053764,-0.001429977053764,0.0014299770537642,-0.001429977053764,0.0014299770537643,-0.0013723541068014,0.0013723541068016,-0.0013723541068014,0.0013723541068017,-0.0013723541068018,0.0013723541068013,-0.0013723541068012,0.0013723541068019,-3.1469626859795e-18,-8.470329472543e-18,-0.0013958830296703,0.0013958830296703,-5.8233515123733e-18,-6.7350883653207e-18,-0.0014299770537641,0.0014299770537641,-0.0014299770537641,0.0014299770537641,-0.0014299770537641,0.0014299770537641,-0.0014299770537641,0.0014299770537641,-0.0013723541068015,0.0013723541068015,-0.0013723541068015,0.0013723541068015,0.80991261824697,0.94753126012558,1270536,32768,0.0057992844299737,0.0057992844299738,0.0057992844299738,23.446980173642,23.452379718758,0.00010277584138913,0.00010277584138913,0.00010277584138913,324254.34077189,0.017550307440515
28512000,0.99996945168929,0.017087995316737,0.0056959984389123,0.0056959984389123,0.0056959984389123,-0.0013960905580864,0.0013960905580864,-5.999816709718e-18,-4.7057385958572e-19,3.1504919899264e-16,-3.2460773051548e-16,-0.0014301770596159,0.0014301770596161,-0.0014301770596159,0.0014301770596161,-0.0014301770596161,0.0014301770596159,-0.0014301770596161,0.0014301770596159,-0.0013725656887407,0.0013725656887405,-0.0013725656887408,0.0013725656887405,-2.9575567074963e-16,3.418424981228e-16,1.9587636905256e-17,2.1705219273391e-17,-0.0013960905580864,0.0013960905580865,-0.0014301770596161,0.0014301770596159,-0.0014301770596161,0.0014301770596159,-0.0014301770596159,0.0014301770596161,-0.0014301770596159,0.0014301770596161,-0.0013725656887405,0.0013725656887407,-0.0013725656887405,0.0013725656887408,-0.0013725656887409,0.0013725656887404,-0.0013725656887403,0.001372565688741,-7.7644686831644e-18,-1.3234889800848e-17,-0.0013960905580865,0.0013960905580864,-9.823229318852e-18,-1.0617322706903e-17,-0.001430177059616,0.001430177059616,-0.001430177059616,0.001430177059616,-0.001430177059616,0.001430177059616,-0.001430177059616,0.001430177059616,-0.0013725656887406,0.0013725656887406,-0.0013725656887406,0.0013725656887406,0.82181435803012,0.96868722532349,1270536,32768,0.0058001440846967,0.0058001440846968,0.0058001440846967,23.529220471288,23.534621328133,0.0001034337637703,0.0001034337637703,0.0001034337637703,321548.57085977,0.017552931866823
28598400,0.99997025499022,0.017088011903112,0.005696003967704,0.005696003967704,0.005696003967704,-0.0013962962839444,0.0013962962839443,-6.293925371959e-18,-7.3527165560269e-19,3.1510802072509e-16,-3.2487242831149e-16,-0.0014303763106935,0.0014303763106937,-0.0014303763106935,0.0014303763106937,-0.0014303763106937,0.0014303763106935,-0.0014303763106937,0.0014303763106935,-0.0013727749069144,0.0013727749069142,-0.0013727749069144,0.0013727749069142,-2.9534391862249e-16,3.4243071544729e-16,2.0558195490651e-17,2.1234645413806e-17,-0.0013962962839443,0.0013962962839444,-0.0014303763106937,0.0014303763106935,-0.0014303763106937,0.0014303763106935,-0.0014303763106934,0.0014303763106937,-0.0014303763106935,0.0014303763106937,-0.0013727749069141,0.0013727749069144,-0.0013727749069142,0.0013727749069144,-0.0013727749069146,0.001372774906914,-0.001372774906914,0.0013727749069146,-4.2057538700474e-18,-9.6467641215073e-18,-0.0013962962839444,0.0013962962839444,-7.2938948235787e-18,-6.7939100977689e-18,-0.0014303763106936,0.0014303763106936,-0.0014303763106936,0.0014303763106936,-0.0014303763106936,0.0014303763106936,-0.0014303763106936,0.0014303763106936,-0.0013727749069143,0.0013727749069143,-0.0013727749069143,0.0013727749069143,0.828447819659,0.95878231187051,1270536,32768,0.0058009962715902,0.0058009962715903,0.0058009962715903,23.611460681515,23.616862937508,0.00010409168545212,0.00010409168545212,0.00010409168545212,318835.54836957,0.017555533501165
28684800,0.99997104101667,0.017088028098197,0.0056960093660655,0.0056960093660656,0.0056960093660656,-0.0013964473127366,0.0013964473127366,-8.2350425427501e-18,-2.5587453614974e-18,3.1293161662451e-16,-3.2675472374984e-16,-0.0014305401634897,0.0014305401634899,-0.0014305401634897,0.0014305401634899,-0.0014305401634899,0.0014305401634897,-0.0014305401634899,0.0014305401634897,-0.0013729125052518,0.0013729125052516,-0.0013729125052518,0.0013729125052516,-2.9422630570597e-16,3.4337186316646e-16,2.2440490928994e-17,2.2558134393891e-17,-0.0013964473127366,0.0013964473127366,-0.0014305401634899,0.0014305401634897,-0.0014305401634899,0.0014305401634897,-0.0014305401634896,0.0014305401634899,-0.0014305401634897,0.0014305401634899,-0.0013729125052515,0.0013729125052518,-0.0013729125052516,0.0013729125052518,-0.001372912505252,0.0013729125052514,-0.0013729125052514,0.001372912505252,-7.646825218268e-19,-6.2056927732867e-18,-0.0013964473127366,0.0013964473127366,-3.7940017429099e-18,-2.735210558842e-18,-0.0014305401634898,0.0014305401634898,-0.0014305401634898,0.0014305401634898,-0.0014305401634898,0.0014305401634898,-0.0014305401634898,0.0014305401634898,-0.0013729125052517,0.0013729125052517,-0.0013729125052517,0.0013729125052517,0.82665183095307,0.91361234623909,1270536,32768,0.0058016218766566,0.0058016218766566,0.0058016218766566,23.693700882988,23.699104546883,0.0001047496070639,0.0001047496070639,0.0001047496070639,317722.62265445,0.017557443344447
28771200,0.99997181003532,0.017088043830133,0.0056960146100444,0.0056960146100445,0.0056960146100445,-0.0013965245587479,0.0013965245587479,-7.2350730911305e-18,-1.5587759098777e-18,3.1381394261123e-16,-3.2554887823465e-16,-0.0014306552996816,0.0014306552996818,-0.0014306552996816,0.0014306552996818,-0.0014306552996818,0.0014306552996816,-0.0014306552996818,0.0014306552996816,-0.0013729567724795,0.0013729567724792,-0.0013729567724795,0.0013729567724792,-2.9346162318415e-16,3.4396008049094e-16,2.2969886521028e-17,2.2852243056132e-17,-0.0013965245587479,0.0013965245587479,-0.0014306552996818,0.0014306552996816,-0.0014306552996818,0.0014306552996816,-0.0014306552996815,0.0014306552996818,-0.0014306552996815,0.0014306552996818,-0.0013729567724792,0.0013729567724794,-0.0013729567724792,0.0013729567724795,-0.0013729567724796,0.0013729567724791,-0.001372956772479,0.0013729567724797,-3.6763582780135e-18,-9.4408880579386e-18,-0.0013965245587479,0.0013965245587479,-6.8527318302171e-18,-5.6468863150287e-18,-0.0014306552996817,0.0014306552996817,-0.0014306552996817,0.0014306552996817,-0.0014306552996817,0.0014306552996817,-0.0014306552996817,0.0014306552996817,-0.0013729567724793,0.0013729567724793,-0.0013729567724793,0.0013729567724793,0.82075299422913,0.86844238060768,1270536,32768,0.0058019418529821,0.0058019418529822,0.0058019418529822,23.775941083504,23.781346156258,0.00010540752866803,0.00010540752866803,0.00010540752866803,318862.98609904,0.017558420021576
28857600,0.99997256344729,0.0170880593369,0.0056960197789665,0.0056960197789666,0.0056960197789666,-0.0013966295648973,0.0013966295648973,-6.3527471044073e-18,-7.3527165560269e-19,3.1481391206285e-16,-3.2454890878303e-16,-0.0014308025386882,0.0014308025386884,-0.0014308025386882,0.0014308025386884,-0.0014308025386884,0.0014308025386882,-0.0014308025386884,0.0014308025386882,-0.0013730295992492,0.001373029599249,-0.0013730295992492,0.001373029599249,-2.9222636680273e-16,3.4510710427368e-16,2.470512762825e-17,2.3852212507751e-17,-0.0013966295648973,0.0013966295648974,-0.0014308025386884,0.0014308025386882,-0.0014308025386884,0.0014308025386882,-0.0014308025386881,0.0014308025386884,-0.0014308025386881,0.0014308025386884,-0.0013730295992489,0.0013730295992492,-0.001373029599249,0.0013730295992492,-0.0013730295992494,0.0013730295992488,-0.0013730295992488,0.0013730295992495,-5.735118913701e-18,-1.1411416094954e-17,-0.0013966295648973,0.0013966295648973,-9.3526554592662e-18,-7.4703600209234e-18,-0.0014308025386883,0.0014308025386883,-0.0014308025386883,0.0014308025386883,-0.0014308025386883,0.0014308025386883,-0.0014308025386883,0.0014308025386883,-0.0013730295992491,0.0013730295992491,-0.0013730295992491,0.0013730295992491,0.82577134823507,0.90021254758509,1270536,32768,0.0058023768606442,0.0058023768606442,0.0058023768606442,23.883516753829,23.890533426894,0.00010626813403063,0.00010626813403063,0.00010626813403063,320753.61588946,0.01755974774407
28944000,0.99997330268003,0.017088074139918,0.005696024713306,0.0056960247133061,0.0056960247133061,-0.0013969177126506,0.0013969177126506,-5.4115993852358e-18,2.9410866224108e-19,3.1522566418999e-16,-3.2407833492344e-16,-0.001431084566223,0.0014310845662232,-0.001431084566223,0.0014310845662232,-0.0014310845662232,0.001431084566223,-0.0014310845662232,0.001431084566223,-0.0013733316930415,0.0013733316930413,-0.0013733316930415,0.0013733316930413,-2.932851579868e-16,3.4431301088563e-16,2.3352227781941e-17,2.2234614865425e-17,-0.0013969177126506,0.0013969177126506,-0.0014310845662231,0.001431084566223,-0.0014310845662232,0.001431084566223,-0.0014310845662229,0.0014310845662232,-0.0014310845662229,0.0014310845662232,-0.0013733316930412,0.0013733316930415,-0.0013733316930413,0.0013733316930415,-0.0013733316930417,0.0013733316930411,-0.0013733316930411,0.0013733316930417,-4.8822037932019e-18,-1.0234981445989e-17,-0.0013969177126506,0.0013969177126506,-8.1173990778537e-18,-6.2351036395108e-18,-0.0014310845662231,0.001431084566223,-0.0014310845662231,0.001431084566223,-0.0014310845662231,0.001431084566223,-0.0014310845662231,0.001431084566223,-0.0013733316930414,0.0013733316930414,-0.0013733316930414,0.0013733316930414,0.80341117293192,0.76205462782228,1270536,32768,0.0058035705562194,0.0058035705562194,0.0058035705562194,24.019407071191,24.028279575084,0.00010735525656953,0.00010735525656953,0.00010735525656953,318913.67792807,0.017563391732481
29030400,0.99997402790466,0.017088088127223,0.0056960293757409,0.005696029375741,0.005696029375741,-0.0013969178524762,0.0013969178524762,-9.4997097903868e-18,-3.9704669402545e-18,3.114610733133e-16,-3.2860760832196e-16,-0.0014311791904884,0.0014311791904886,-0.0014311791904884,0.0014311791904886,-0.0014311791904886,0.0014311791904884,-0.0014311791904886,0.0014311791904884,-0.0013732503153913,0.001373250315391,-0.0013732503153913,0.001373250315391,-2.9210872333784e-16,3.4569532159816e-16,2.5146290621612e-17,2.3881623373975e-17,-0.0013969178524762,0.0013969178524763,-0.0014311791904886,0.0014311791904884,-0.0014311791904886,0.0014311791904884,-0.0014311791904883,0.0014311791904886,-0.0014311791904883,0.0014311791904886,-0.001373250315391,0.0013732503153912,-0.001373250315391,0.0013732503153913,-0.0013732503153914,0.0013732503153909,-0.0013732503153908,0.0013732503153915,-1.7940628396706e-18,-7.2350730911305e-18,-0.0013969178524762,0.0013969178524762,-5.5586537163563e-18,-3.4704822144447e-18,-0.0014311791904885,0.0014311791904885,-0.0014311791904885,0.0014311791904885,-0.0014311791904885,0.0014311791904885,-0.0014311791904885,0.0014311791904885,-0.0013732503153911,0.0013732503153911,-0.0013732503153911,0.0013732503153911,0.77377140108902,0.64315694384157,1270536,32768,0.0058035711610185,0.0058035711610185,0.0058035711610185,24.156980298751,24.166025723274,0.00010845584239,0.00010845584239,0.00010845584239,325868.34353538,0.017563393006677
29116800,0.99997473922451,0.01708810138452,0.0056960337948401,0.0056960337948401,0.0056960337948401,-0.0013968796235553,0.0013968796235553,-7.7938795493885e-18,-2.3822801641527e-18,3.131669035543e-16,-3.2710765414453e-16,-0.0014312439910872,0.0014312439910874,-0.0014312439910872,0.0014312439910874,-0.0014312439910874,0.0014312439910872,-0.0014312439910874,0.0014312439910872,-0.0013731345943086,0.0013731345943083,-0.0013731345943086,0.0013731345943083,-2.9534391862249e-16,3.4298952190554e-16,2.1852273604512e-17,2.1087591082685e-17,-0.0013968796235553,0.0013968796235553,-0.0014312439910874,0.0014312439910872,-0.0014312439910874,0.0014312439910872,-0.0014312439910871,0.0014312439910874,-0.0014312439910871,0.0014312439910874,-0.0013731345943083,0.0013731345943085,-0.0013731345943083,0.0013731345943085,-0.0013731345943087,0.0013731345943082,-0.0013731345943081,0.0013731345943088,-3.9410560740304e-18,-9.558531522835e-18,-0.0013968796235553,0.0013968796235553,-8.0585773454055e-18,-6.5292123017519e-18,-0.0014312439910873,0.0014312439910873,-0.0014312439910873,0.0014312439910873,-0.0014312439910873,0.0014312439910873,-0.0014312439910873,0.0014312439910873,-0.0013731345943084,0.0013731345943084,-0.0013731345943084,0.0013731345943084,0.74777132550941,0.57925683324607,1270536,32768,0.0058034128948755,0.0058034128948756,0.0058034128948756,24.294706057436,24.303771871464,0.00010955764845949,0.00010955764845949,0.00010955764845949,334494.16179191,0.01756290909243
29203200,0.99997543674015,0.017088114208202,0.0056960380694006,0.0056960380694007,0.0056960380694007,-0.0013969230842548,0.0013969230842548,-8.7938490010082e-18,-3.264606150876e-18,3.1269632969471e-16,-3.2831349965971e-16,-0.0014313539231335,0.0014313539231337,-0.0014313539231335,0.0014313539231337,-0.0014313539231338,0.0014313539231335,-0.0014313539231338,0.0014313539231335,-0.0013731394831696,0.0013731394831694,-0.0013731394831697,0.0013731394831694,-2.8904999325053e-16,3.5004812979933e-16,2.9410866224108e-17,2.7881501180454e-17,-0.0013969230842548,0.0013969230842549,-0.0014313539231337,0.0014313539231335,-0.0014313539231337,0.0014313539231335,-0.0014313539231335,0.0014313539231337,-0.0014313539231335,0.0014313539231338,-0.0013731394831694,0.0013731394831696,-0.0013731394831694,0.0013731394831697,-0.0013731394831698,0.0013731394831693,-0.0013731394831692,0.0013731394831699,-6.823320963993e-18,-1.2058455151884e-17,-0.0013969230842548,0.0013969230842548,-1.0176159713541e-17,-7.8821121480609e-18,-0.0014313539231336,0.0014313539231336,-0.0014313539231336,0.0014313539231336,-0.0014313539231336,0.0014313539231336,-0.0014313539231336,0.0014313539231336,-0.0013731394831695,0.0013731394831695,-0.0013731394831695,0.0013731394831695,0.73770404463224,0.60854115325235,1270536,32768,0.0058035930775808,0.0058035930775808,0.0058035930775808,24.432446626899,24.441518019654,0.00011065957301519,0.00011065957301519,0.00011065957301519,341163.52407241,0.017563458428968
29289600,0.99997612055502,0.017088126316321,0.0056960421054403,0.0056960421054404,0.0056960421054404,-0.0013971829033347,0.0013971829033347,-8.2644534089743e-18,-2.4999236290492e-18,3.1446098166816e-16,-3.2743117367299e-16,-0.0014315987453328,0.001431598745333,-0.0014315987453328,0.001431598745333,-0.001431598745333,0.0014315987453328,-0.001431598745333,0.0014315987453328,-0.0013734312853558,0.0013734312853555,-0.0013734312853558,0.0013734312853555,-2.9616742287676e-16,3.4363656096247e-16,2.2940475654804e-17,2.1469932343599e-17,-0.0013971829033347,0.0013971829033347,-0.001431598745333,0.0014315987453328,-0.001431598745333,0.0014315987453328,-0.0014315987453327,0.001431598745333,-0.0014315987453328,0.001431598745333,-0.0013734312853555,0.0013734312853558,-0.0013734312853556,0.0013734312853558,-0.0013734312853559,0.0013734312853554,-0.0013734312853553,0.001373431285356,-3.6175365455652e-18,-8.9703141983528e-18,-0.0013971829033347,0.0013971829033347,-7.6762360844921e-18,-4.9998472580983e-18,-0.0014315987453329,0.0014315987453329,-0.0014315987453329,0.0014315987453329,-0.0014315987453329,0.0014315987453329,-0.0014315987453329,0.0014315987453329,-0.0013734312853556,0.0013734312853556,-0.0013734312853556,0.0013734312853556,0.7105451996479,0.51172604602813,1270536,32768,0.0058046695291982,0.0058046695291983,0.0058046695291982,24.570188658927,24.579264167844,0.00011176150927141,0.00011176150927141,0.00011176150927141,341520.61566689,0.017566744228376
29376000,0.99997679077585,0.017088137769869,0.0056960459232895,0.0056960459232896,0.0056960459232896,-0.0013972019665855,0.0013972019665855,-8.5879729374394e-18,-2.9410866224108e-18,3.1404922954102e-16,-3.2787233666635e-16,-0.0014316834123637,0.0014316834123639,-0.0014316834123637,0.0014316834123639,-0.0014316834123639,0.0014316834123637,-0.001431683412364,0.0014316834123637,-0.0013733989752759,0.0013733989752757,-0.0013733989752759,0.0013733989752757,-2.9404984050863e-16,3.4604825199285e-16,2.4911003691819e-17,2.3587514711734e-17,-0.0013972019665855,0.0013972019665856,-0.0014316834123639,0.0014316834123637,-0.0014316834123639,0.0014316834123637,-0.0014316834123636,0.0014316834123639,-0.0014316834123637,0.0014316834123639,-0.0013733989752757,0.0013733989752759,-0.0013733989752757,0.0013733989752759,-0.0013733989752761,0.0013733989752755,-0.0013733989752755,0.0013733989752762,-5.176312455443e-18,-1.0646733573127e-17,-0.0013972019665856,0.0013972019665855,-8.8526707334564e-18,-6.5880340342001e-18,-0.0014316834123638,0.0014316834123638,-0.0014316834123638,0.0014316834123638,-0.0014316834123638,0.0014316834123638,-0.0014316834123638,0.0014316834123638,-0.0013733989752758,0.0013733989752758,-0.0013733989752758,0.0013733989752758,0.68576663291713,0.4603940011284,1270536,32768,0.0058047486126006,0.0058047486126006,0.0058047486126006,24.707930835723,24.717010316034,0.00011286344668578,0.00011286344668578,0.00011286344668578,349400.33425513,0.017566984908531
29462400,0.99997744751265,0.01708814833543,0.0056960494451433,0.0056960494451434,0.0056960494451433,-0.0013972847945529,0.0013972847945529,-5.8821732448215e-18,-3.823412609134e-19,3.1622563364161e-16,-3.2572534343199e-16,-0.0014318067403662,0.0014318067403664,-0.0014318067403662,0.0014318067403664,-0.0014318067403664,0.0014318067403662,-0.0014318067403664,0.0014318067403662,-0.0013734582002399,0.0013734582002397,-0.0013734582002399,0.0013734582002397,-2.9475570129801e-16,3.452541586048e-16,2.4175732036217e-17,2.2322847464098e-17,-0.0013972847945529,0.001397284794553,-0.0014318067403664,0.0014318067403662,-0.0014318067403664,0.0014318067403662,-0.0014318067403661,0.0014318067403664,-0.0014318067403661,0.0014318067403664,-0.0013734582002397,0.0013734582002399,-0.0013734582002397,0.0013734582002399,-0.0013734582002401,0.0013734582002396,-0.0013734582002395,0.0013734582002402,-5.7057080474769e-18,-1.102907483404e-17,-0.0013972847945529,0.0013972847945529,-9.5879423890591e-18,-6.5292123017519e-18,-0.0014318067403663,0.0014318067403663,-0.0014318067403663,0.0014318067403663,-0.0014318067403663,0.0014318067403663,-0.0014318067403663,0.0014318067403663,-0.0013734582002398,0.0013734582002398,-0.0013734582002398,0.0013734582002398,0.64564112903629,0.32867198137889,1270536,32768,0.0058050918778784,0.0058050918778784,0.0058050918778784,24.845673026501,24.854756464224,0.00011396538421201,0.00011396538421201,0.00011396538421201,355770.33497845,0.017568032124378
29548800,0.99997809087866,0.017088158257826,0.0056960527526088,0.0056960527526088,0.0056960527526088,-0.0013971524882086,0.0013971524882085,-7.2056622249064e-18,-1.7058302409982e-18,3.1540212938733e-16,-3.2654884768627e-16,-0.0014317837229667,0.0014317837229669,-0.0014317837229667,0.0014317837229669,-0.0014317837229669,0.0014317837229667,-0.0014317837229669,0.0014317837229667,-0.0013732397662302,0.00137323976623,-0.0013732397662302,0.00137323976623,-2.9434394917087e-16,3.4601884112663e-16,2.4381608099785e-17,2.3087529985925e-17,-0.0013971524882085,0.0013971524882086,-0.0014317837229669,0.0014317837229667,-0.0014317837229669,0.0014317837229667,-0.0014317837229666,0.0014317837229669,-0.0014317837229667,0.0014317837229669,-0.00137323976623,0.0013732397662302,-0.00137323976623,0.0013732397662302,-0.0013732397662304,0.0013732397662299,-0.0013732397662298,0.0013732397662305,-2.4411018966009e-18,-7.4997708871475e-18,-0.0013971524882086,0.0013971524882086,-5.5586537163563e-18,-3.2057844184277e-18,-0.0014317837229668,0.0014317837229668,-0.0014317837229668,0.0014317837229668,-0.0014317837229668,0.0014317837229668,-0.0014317837229668,0.0014317837229668,-0.0013732397662301,0.0013732397662301,-0.0013732397662301,0.0013732397662301,0.61899081571073,0.31012996753392,1270536,32768,0.0058045439645744,0.0058045439645744,0.0058045439645744,24.983415218257,24.992502612414,0.00011506732174605,0.00011506732174605,0.00011506732174605,369390.91016256,0.017566358349132
29635200,0.99997872047018,0.017088167890749,0.005696055963583,0.0056960559635831,0.0056960559635831,-0.0013972481355241,0.0013972481355241,-8.6467946698877e-18,-3.1175518197554e-18,3.1369629914633e-16,-3.2819585619482e-16,-0.0014318965003568,0.001431896500357,-0.0014318965003568,0.001431896500357,-0.001431896500357,0.0014318965003568,-0.001431896500357,0.0014318965003568,-0.0013733396777456,0.0013733396777453,-0.0013733396777456,0.0013733396777454,-2.9422630570597e-16,3.4587178679551e-16,2.4293375501113e-17,2.3322816915717e-17,-0.0013972481355241,0.0013972481355241,-0.0014318965003569,0.0014318965003568,-0.001431896500357,0.0014318965003568,-0.0014318965003567,0.001431896500357,-0.0014318965003567,0.001431896500357,-0.0013733396777453,0.0013733396777456,-0.0013733396777453,0.0013733396777456,-0.0013733396777457,0.0013733396777452,-0.0013733396777452,0.0013733396777458,-3.6763582780135e-18,-8.9997250645769e-18,-0.0013972481355241,0.0013972481355241,-7.1468404924582e-18,-5.3233667865635e-18,-0.0014318965003569,0.0014318965003568,-0.0014318965003569,0.0014318965003569,-0.0014318965003569,0.0014318965003569,-0.0014318965003569,0.0014318965003568,-0.0013733396777455,0.0013733396777454,-0.0013733396777454,0.0013733396777455,0.61419131078074,0.39400691979345,1270536,32768,0.0058049403931611,0.0058049403931612,0.0058049403931612,25.107150056701,25.115347682611,0.0001160572004536,0.0001160572004536,0.0001160572004536,375616.24436822,0.017567567820445
29721600,0.99997933592167,0.017088177381188,0.0056960591270627,0.0056960591270627,0.0056960591270627,-0.0013976392797163,0.0013976392797163,-7.2056622249064e-18,-1.3823107125331e-18,3.1557859458468e-16,-3.2675472374984e-16,-0.0014321939785201,0.0014321939785203,-0.0014321939785201,0.0014321939785203,-0.0014321939785203,0.0014321939785201,-0.0014321939785203,0.0014321939785201,-0.0013738246377725,0.0013738246377722,-0.0013738246377725,0.0013738246377722,-2.934028014517e-16,3.4675411278223e-16,2.5116879755388e-17,2.4675716762026e-17,-0.0013976392797163,0.0013976392797163,-0.0014321939785203,0.0014321939785201,-0.0014321939785203,0.0014321939785201,-0.00143219397852,0.0014321939785203,-0.00143219397852,0.0014321939785203,-0.0013738246377722,0.0013738246377725,-0.0013738246377722,0.0013738246377725,-0.0013738246377726,0.0013738246377721,-0.001373824637772,0.0013738246377727,-2.4999236290492e-18,-7.9997556129573e-18,-0.0013976392797163,0.0013976392797163,-5.8527623785974e-18,-4.5292733985126e-18,-0.0014321939785202,0.0014321939785202,-0.0014321939785202,0.0014321939785202,-0.0014321939785202,0.0014321939785202,-0.0014321939785202,0.0014321939785202,-0.0013738246377723,0.0013738246377723,-0.0013738246377723,0.0013738246377723,0.61906311988498,0.47788387205299,1270536,32768,0.0058065608646413,0.0058065608646414,0.0058065608646414,25.21645850235,25.223709074396,0.0001169316680188,0.0001169316680188,0.0001169316680188,371533.47088129,0.017572514694543
29808000,0.99997993740146,0.017088186832533,0.0056960622775111,0.0056960622775111,0.0056960622775111,-0.0013980846695616,0.0013980846695616,-1.138200522873e-17,-5.6468863150287e-18,3.115787167782e-16,-3.3081342328876e-16,-0.0014325315667577,0.0014325315667579,-0.0014325315667577,0.0014325315667579,-0.0014325315667579,0.0014325315667577,-0.0014325315667579,0.0014325315667577,-0.0013743586315805,0.0013743586315803,-0.0013743586315805,0.0013743586315803,-2.9387337531128e-16,3.4646000411999e-16,2.4234553768665e-17,2.4646305895802e-17,-0.0013980846695616,0.0013980846695616,-0.0014325315667579,0.0014325315667577,-0.0014325315667579,0.0014325315667577,-0.0014325315667576,0.0014325315667579,-0.0014325315667576,0.0014325315667579,-0.0013743586315803,0.0013743586315805,-0.0013743586315803,0.0013743586315805,-0.0013743586315807,0.0013743586315802,-0.0013743586315801,0.0013743586315808,-1.911706304567e-18,-7.382127422251e-18,-0.0013980846695616,0.0013980846695616,-4.3528082011679e-18,-3.9116452078063e-18,-0.0014325315667578,0.0014325315667578,-0.0014325315667578,0.0014325315667578,-0.0014325315667578,0.0014325315667578,-0.0014325315667578,0.0014325315667578,-0.0013743586315804,0.0013743586315804,-0.0013743586315804,0.0013743586315804,0.63081223847069,0.56176082431252,1270536,32768,0.0058084059496036,0.0058084059496037,0.0058084059496037,25.324904416029,25.332070466182,0.00011779923532823,0.00011779923532823,0.00011779923532823,365297.94059835,0.017578147551756
29894400,0.9999805251084,0.017088196318689,0.0056960654395631,0.0056960654395631,0.0056960654395631,-0.0013985480872797,0.0013985480872797,-9.6467641215073e-18,-3.7940017429099e-18,3.1340219048409e-16,-3.3028402769673e-16,-0.0014328895943278,0.001432889594328,-0.0014328895943278,0.001432889594328,-0.001432889594328,0.0014328895943278,-0.001432889594328,0.0014328895943278,-0.0013748985954798,0.0013748985954796,-0.0013748985954798,0.0013748985954796,-2.9763796618797e-16,3.4434242175185e-16,2.1087591082685e-17,2.141111061115e-17,-0.0013985480872797,0.0013985480872797,-0.001432889594328,0.0014328895943278,-0.001432889594328,0.0014328895943278,-0.0014328895943278,0.001432889594328,-0.0014328895943278,0.001432889594328,-0.0013748985954795,0.0013748985954798,-0.0013748985954796,0.0013748985954798,-0.00137489859548,0.0013748985954794,-0.0013748985954794,0.0013748985954801,-5.1174907229947e-18,-1.0617322706903e-17,-0.0013985480872797,0.0013985480872797,-8.0291664791814e-18,-7.646825218268e-18,-0.0014328895943279,0.0014328895943279,-0.0014328895943279,0.0014328895943279,-0.0014328895943279,0.0014328895943279,-0.0014328895943279,0.0014328895943279,-0.0013748985954797,0.0013748985954797,-0.0013748985954797,0.0013748985954797,0.64793409226779,0.64563777657206,1270536,32768,0.0058103256415866,0.0058103256415866,0.0058103256415866,25.433271847466,25.440431857967,0.00011866617477973,0.00011866617477973,0.00011866617477973,358103.24732663,0.017584008367606
29980800,0.99998109924414,0.017088206010601,0.0056960686702004,0.0056960686702005,0.0056960686702005,-0.0013990137233837,0.0013990137233837,-8.4409186063189e-18,-2.470512762825e-18,3.1610799017671e-16,-3.2819585619482e-16,-0.0014332582166387,0.0014332582166389,-0.0014332582166387,0.001433258216639,-0.001433258216639,0.0014332582166387,-0.001433258216639,0.0014332582166387,-0.0013754286673856,0.0013754286673854,-0.0013754286673857,0.0013754286673854,-2.9634388807411e-16,3.4634236065509e-16,2.2087560534305e-17,2.2528723527666e-17,-0.0013990137233837,0.0013990137233837,-0.0014332582166389,0.0014332582166388,-0.0014332582166389,0.0014332582166388,-0.0014332582166387,0.001433258216639,-0.0014332582166387,0.001433258216639,-0.0013754286673854,0.0013754286673856,-0.0013754286673854,0.0013754286673856,-0.0013754286673858,0.0013754286673853,-0.0013754286673852,0.0013754286673859,-5.4410102514599e-18,-1.1146718298937e-17,-0.0013990137233837,0.0013990137233837,-8.205631676526e-18,-7.6762360844921e-18,-0.0014332582166389,0.0014332582166388,-0.0014332582166389,0.0014332582166388,-0.0014332582166389,0.0014332582166388,-0.0014332582166389,0.0014332582166388,-0.0013754286673855,0.0013754286673855,-0.0013754286673855,0.0013754286673855,0.67759160301473,0.77423136867587,1270536,32768,0.0058122544697128,0.0058122544697129,0.0058122544697129,25.54163163137,25.548793249753,0.00011953305305096,0.00011953305305096,0.00011953305305096,350459.91295869,0.017589897218719
30067200,0.9999816600106,0.017088215479185,0.0056960718263951,0.0056960718263951,0.0056960718263951,-0.0013995624863699,0.0013995624863698,-1.8940597848325e-17,-1.3087835469728e-17,3.0528479140624e-16,-3.4007784614936e-16,-0.0014336913474423,0.0014336913474425,-0.0014336913474423,0.0014336913474425,-0.0014336913474425,0.0014336913474423,-0.0014336913474425,0.0014336913474423,-0.0013760566392818,0.0013760566392816,-0.0013760566392818,0.0013760566392816,-2.9916733123162e-16,3.4407772395584e-16,1.9822923835049e-17,2.0852304152892e-17,-0.0013995624863698,0.0013995624863699,-0.0014336913474424,0.0014336913474422,-0.0014336913474424,0.0014336913474422,-0.0014336913474422,0.0014336913474424,-0.0014336913474422,0.0014336913474425,-0.0013760566392816,0.0013760566392818,-0.0013760566392816,0.0013760566392818,-0.001376056639282,0.0013760566392815,-0.0013760566392814,0.0013760566392821,-2.5587453614974e-18,-7.9997556129573e-18,-0.0013995624863699,0.0013995624863699,-4.8527929269778e-18,-4.9704363918742e-18,-0.0014336913474424,0.0014336913474423,-0.0014336913474424,0.0014336913474423,-0.0014336913474423,0.0014336913474423,-0.0014336913474423,0.0014336913474423,-0.0013760566392817,0.0013760566392817,-0.0013760566392817,0.0013760566392817,0.67769726714323,0.70027482735307,1270536,32768,0.0058145275994397,0.0058145275994397,0.0058145275994397,25.649990657165,25.657154641538,0.00012039992525732,0.00012039992525732,0.00012039992525732,339765.35384976,0.017596837462247
30153600,0.9999822076097,0.01708822437208,0.0056960747906932,0.0056960747906933,0.0056960747906933,-0.0013997219101014,0.0013997219101014,-7.5585926195957e-18,-1.64700850855e-18,3.1675502923364e-16,-3.2875466265308e-16,-0.0014338723406739,0.001433872340674,-0.0014338723406739,0.0014338723406741,-0.0014338723406741,0.0014338723406738,-0.0014338723406741,0.0014338723406738,-0.0013761705502652,0.0013761705502649,-0.0013761705502652,0.0013761705502649,-2.9640270980656e-16,3.4716586490937e-16,2.2381669196546e-17,2.3763979909079e-17,-0.0013997219101014,0.0013997219101014,-0.001433872340674,0.0014338723406738,-0.001433872340674,0.0014338723406738,-0.0014338723406738,0.0014338723406741,-0.0014338723406738,0.0014338723406741,-0.0013761705502649,0.0013761705502651,-0.0013761705502649,0.0013761705502652,-0.0013761705502653,0.0013761705502648,-0.0013761705502647,0.0013761705502654,-2.4999236290492e-18,-7.8527012818367e-18,-0.0013997219101014,0.0013997219101014,-4.5880951309608e-18,-5.2939559203394e-18,-0.001433872340674,0.0014338723406739,-0.001433872340674,0.0014338723406739,-0.0014338723406739,0.0014338723406739,-0.001433872340674,0.0014338723406739,-0.001376170550265,0.001376170550265,-0.001376170550265,0.001376170550265,0.65169924294768,0.53603222639823,1270536,32768,0.0058151878916105,0.0058151878916106,0.0058151878916106,25.758349607265,25.765516033324,0.00012126679685812,0.00012126679685812,0.00012126679685812,341116.94052787,0.017598853285707
30240000,0.99998274224321,0.017088232822858,0.0056960776076194,0.0056960776076195,0.0056960776076195,-0.001399603138355,0.001399603138355,-1.1411416094954e-17,-5.735118913701e-18,3.1340219048409e-16,-3.3225455573374e-16,-0.0014338709316553,0.0014338709316555,-0.0014338709316553,0.0014338709316555,-0.0014338709316555,0.0014338709316553,-0.0014338709316555,0.0014338709316553,-0.0013759374247838,0.0013759374247835,-0.0013759374247838,0.0013759374247835,-2.9446159263577e-16,3.492834472775e-16,2.3969855972648e-17,2.5999205742111e-17,-0.001399603138355,0.0013996031383551,-0.0014338709316555,0.0014338709316553,-0.0014338709316555,0.0014338709316553,-0.0014338709316552,0.0014338709316555,-0.0014338709316553,0.0014338709316555,-0.0013759374247835,0.0013759374247837,-0.0013759374247835,0.0013759374247838,-0.0013759374247839,0.0013759374247834,-0.0013759374247833,0.001375937424784,-1.7058302409982e-18,-7.3233056898028e-18,-0.0013996031383551,0.001399603138355,-4.1175212713751e-18,-4.9998472580983e-18,-0.0014338709316554,0.0014338709316554,-0.0014338709316554,0.0014338709316554,-0.0014338709316554,0.0014338709316554,-0.0014338709316554,0.0014338709316554,-0.0013759374247836,0.0013759374247836,-0.0013759374247836,0.0013759374247836,0.63431666745143,0.49251518427337,1270536,32768,0.0058146958576803,0.0058146958576803,0.0058146958576803,25.866708549614,25.873877425109,0.00012213366839691,0.00012213366839691,0.00012213366839691,351574.41171017,0.017597350579492
30326400,0.99998326411272,0.017088240838201,0.0056960802794003,0.0056960802794004,0.0056960802794004,-0.0013996587877518,0.0013996587877518,-7.0586078937858e-18,-1.4705433112054e-18,3.1734324655812e-16,-3.2848996485706e-16,-0.0014339809989905,0.0014339809989907,-0.0014339809989905,0.0014339809989907,-0.0014339809989907,0.0014339809989905,-0.0014339809989907,0.0014339809989905,-0.0013759557055569,0.0013759557055566,-0.0013759557055569,0.0013759557055567,-2.9834382697735e-16,3.4560708899949e-16,2.0528784624427e-17,2.2734599591235e-17,-0.0013996587877518,0.0013996587877518,-0.0014339809989907,0.0014339809989905,-0.0014339809989907,0.0014339809989905,-0.0014339809989904,0.0014339809989907,-0.0014339809989905,0.0014339809989907,-0.0013759557055566,0.0013759557055569,-0.0013759557055566,0.0013759557055569,-0.0013759557055571,0.0013759557055565,-0.0013759557055565,0.0013759557055571,-2.9704974886349e-18,-8.470329472543e-18,-0.0013996587877518,0.0013996587877518,-5.2939559203394e-18,-6.3821579706314e-18,-0.0014339809989906,0.0014339809989906,-0.0014339809989906,0.0014339809989906,-0.0014339809989906,0.0014339809989906,-0.0014339809989906,0.0014339809989906,-0.0013759557055568,0.0013759557055568,-0.0013759557055568,0.0013759557055568,0.61641574405791,0.4489981421485,1270536,32768,0.0058149264495793,0.0058149264495793,0.0058149264495793,25.975067490987,25.982238816895,0.0001230005399279,0.0001230005399279,0.0001230005399279,356962.93638951,0.017598054121658
30412800,0.99998377435369,0.01708824837395,0.0056960827913166,0.0056960827913167,0.0056960827913167,-0.0013997853007226,0.0013997853007226,-7.2938948235787e-18,-1.4411324449813e-18,3.1746089002302e-16,-3.2863701918818e-16,-0.0014341515422937,0.0014341515422939,-0.0014341515422937,0.0014341515422939,-0.0014341515422939,0.0014341515422937,-0.0014341515422939,0.0014341515422937,-0.0013760544366685,0.0013760544366683,-0.0013760544366685,0.0013760544366683,-2.9652035327145e-16,3.4737174097294e-16,2.2146382266753e-17,2.4528662430906e-17,-0.0013997853007226,0.0013997853007226,-0.0014341515422939,0.0014341515422937,-0.0014341515422939,0.0014341515422937,-0.0014341515422936,0.0014341515422939,-0.0014341515422936,0.0014341515422939,-0.0013760544366683,0.0013760544366685,-0.0013760544366683,0.0013760544366685,-0.0013760544366687,0.0013760544366682,-0.0013760544366681,0.0013760544366688,-2.9116757561867e-18,-8.3526860076466e-18,-0.0013997853007226,0.0013997853007226,-4.7939711945295e-18,-6.0292275759421e-18,-0.0014341515422938,0.0014341515422938,-0.0014341515422938,0.0014341515422938,-0.0014341515422938,0.0014341515422938,-0.0014341515422938,0.0014341515422938,-0.0013760544366684,0.0013760544366684,-0.0013760544366684,0.0013760544366684,0.59277920883694,0.37972806822775,1270536,32768,0.0058154506101754,0.0058154506101755,0.0058154506101755,26.114776621016,26.123956640151,0.00012411821296813,0.00012411821296813,0.00012411821296813,362247.43480217,0.017599653839674
30499200,0.99998427396008,0.017088255859227,0.0056960852864088,0.0056960852864089,0.0056960852864089,-0.0013999029355133,0.0013999029355133,-8.8232598672323e-18,-2.9116757561867e-18,3.1557859458468e-16,-3.3028402769673e-16,-0.0014343305580305,0.0014343305580307,-0.0014343305580305,0.0014343305580307,-0.0014343305580308,0.0014343305580305,-0.0014343305580308,0.0014343305580305,-0.0013761283038218,0.0013761283038216,-0.0013761283038219,0.0013761283038216,-2.9710857059594e-16,3.4687175624713e-16,2.1146412815133e-17,2.4175732036217e-17,-0.0013999029355133,0.0013999029355133,-0.0014343305580307,0.0014343305580305,-0.0014343305580307,0.0014343305580305,-0.0014343305580305,0.0014343305580307,-0.0014343305580305,0.0014343305580308,-0.0013761283038216,0.0013761283038218,-0.0013761283038216,0.0013761283038218,-0.001376128303822,0.0013761283038215,-0.0013761283038214,0.0013761283038221,-3.9116452078063e-18,-9.4408880579386e-18,-0.0013999029355133,0.0013999029355133,-5.5880645825805e-18,-7.4115382884751e-18,-0.0014343305580307,0.0014343305580306,-0.0014343305580307,0.0014343305580306,-0.0014343305580306,0.0014343305580306,-0.0014343305580307,0.0014343305580306,-0.0013761283038217,0.0013761283038217,-0.0013761283038217,0.0013761283038217,0.60139741391562,0.50541939280744,1270536,32768,0.0058159380117832,0.0058159380117833,0.0058159380117833,26.284248662455,26.295405041993,0.00012547398929964,0.00012547398929964,0.00012547398929964,370015.39883289,0.017601141161247
30585600,0.99998476304465,0.01708826324643,0.00569608774881,0.0056960877488101,0.0056960877488101,-0.0014005007329268,0.0014005007329268,-5.6762971812528e-18,5.8821732448215e-20,3.1928436372891e-16,-3.2649002595382e-16,-0.0014348288544273,0.0014348288544275,-0.0014348288544273,0.0014348288544276,-0.0014348288544276,0.0014348288544273,-0.0014348288544276,0.0014348288544273,-0.0013768278136541,0.0013768278136538,-0.0013768278136541,0.0013768278136538,-2.9822618351245e-16,3.4569532159816e-16,2.0617017223099e-17,2.3528692979286e-17,-0.0014005007329268,0.0014005007329268,-0.0014348288544275,0.0014348288544273,-0.0014348288544275,0.0014348288544273,-0.0014348288544273,0.0014348288544275,-0.0014348288544273,0.0014348288544276,-0.0013768278136538,0.001376827813654,-0.0013768278136538,0.0013768278136541,-0.0013768278136542,0.0013768278136537,-0.0013768278136536,0.0013768278136543,-2.6469779601697e-18,-8.4115077400948e-18,-0.0014005007329268,0.0014005007329268,-5.2645450541153e-18,-7.5291817533716e-18,-0.0014348288544274,0.0014348288544274,-0.0014348288544275,0.0014348288544274,-0.0014348288544274,0.0014348288544274,-0.0014348288544274,0.0014348288544274,-0.0013768278136539,0.0013768278136539,-0.0013768278136539,0.0013768278136539,0.60634647760198,0.54258644128895,1270536,32768,0.005818414448716,0.005818414448716,0.005818414448716,26.455509833655,26.466853443834,0.00012684407866924,0.00012684407866924,0.00012684407866924,362299.16140434,0.017608701680388
30672000,0.99998524167383,0.017088270551376,0.005696090183792,0.005696090183792,0.005696090183792,-0.0014009607816918,0.0014009607816918,-8.2938642751984e-18,-2.3822801641527e-18,3.1563741631712e-16,-3.2969581037225e-16,-0.0014352376283678,0.001435237628368,-0.0014352376283678,0.001435237628368,-0.001435237628368,0.0014352376283678,-0.001435237628368,0.0014352376283678,-0.0013773266625472,0.001377326662547,-0.0013773266625472,0.001377326662547,-2.9516745342514e-16,3.4816583436099e-16,2.2793421323683e-17,2.6675655665266e-17,-0.0014009607816918,0.0014009607816919,-0.001435237628368,0.0014352376283678,-0.001435237628368,0.0014352376283678,-0.0014352376283677,0.001435237628368,-0.0014352376283677,0.001435237628368,-0.001377326662547,0.0013773266625472,-0.001377326662547,0.0013773266625472,-0.0013773266625474,0.0013773266625468,-0.0013773266625468,0.0013773266625475,-1.7646519734465e-18,-7.3233056898028e-18,-0.0014009607816918,0.0014009607816918,-2.8822648899626e-18,-5.8821732448215e-18,-0.0014352376283679,0.0014352376283679,-0.0014352376283679,0.0014352376283679,-0.0014352376283679,0.0014352376283679,-0.0014352376283679,0.0014352376283679,-0.0013773266625471,0.0013773266625471,-0.0013773266625471,0.0013773266625471,0.61264046277886,0.5766538423242,1270536,32768,0.0058203201740708,0.0058203201740708,0.0058203201740708,26.62693436394,26.638301845676,0.00012821547491152,0.00012821547491152,0.00012821547491152,358732.89258437,0.017614519812185
30758400,0.99998570991384,0.0170882778359,0.0056960926119667,0.0056960926119668,0.0056960926119668,-0.0014014098041322,0.0014014098041322,-7.5291817533716e-18,-1.6764193747741e-18,3.1740206829057e-16,-3.2798998013125e-16,-0.0014356438892951,0.0014356438892953,-0.0014356438892951,0.0014356438892953,-0.0014356438892953,0.0014356438892951,-0.0014356438892953,0.001435643889295,-0.0013778042978354,0.0013778042978352,-0.0013778042978354,0.0013778042978352,-2.9646153153901e-16,3.4707763231069e-16,2.0646428089324e-17,2.5822740544767e-17,-0.0014014098041322,0.0014014098041323,-0.0014356438892952,0.0014356438892951,-0.0014356438892953,0.0014356438892951,-0.001435643889295,0.0014356438892953,-0.001435643889295,0.0014356438892953,-0.0013778042978351,0.0013778042978354,-0.0013778042978352,0.0013778042978354,-0.0013778042978356,0.001377804297835,-0.001377804297835,0.0013778042978356,-1.8822954383429e-18,-7.5880034858198e-18,-0.0014014098041322,0.0014014098041322,-2.735210558842e-18,-6.7350883653207e-18,-0.0014356438892952,0.0014356438892952,-0.0014356438892952,0.0014356438892952,-0.0014356438892952,0.0014356438892952,-0.0014356438892952,0.0014356438892951,-0.0013778042978353,0.0013778042978353,-0.0013778042978353,0.0013778042978353,0.6244603007101,0.6323730657908,1270536,32768,0.0058221801988621,0.0058221801988621,0.0058221801988621,26.79837486322,26.809750247518,0.00012958699890576,0.00012958699890576,0.00012958699890576,355347.63118148,0.01762019848257
30844800,0.99998616783465,0.017088285244377,0.0056960950814589,0.005696095081459,0.005696095081459,-0.0014019024976015,0.0014019024976015,-8.1173990778537e-18,-2.4999236290492e-18,3.1504919899264e-16,-3.2913700391399e-16,-0.001436083489489,0.0014360834894892,-0.001436083489489,0.0014360834894892,-0.0014360834894892,0.001436083489489,-0.0014360834894892,0.001436083489489,-0.0013783341849587,0.0013783341849584,-0.0013783341849587,0.0013783341849584,-2.9352044491659e-16,3.4893051688281e-16,2.2558134393891e-17,2.8322664173816e-17,-0.0014019024976015,0.0014019024976015,-0.0014360834894892,0.001436083489489,-0.0014360834894892,0.001436083489489,-0.0014360834894889,0.0014360834894892,-0.001436083489489,0.0014360834894892,-0.0013783341849584,0.0013783341849587,-0.0013783341849584,0.0013783341849587,-0.0013783341849588,0.0013783341849583,-0.0013783341849582,0.0013783341849589,-1.1764346489643e-18,-6.7350883653207e-18,-0.0014019024976015,0.0014019024976015,-1.6175976423259e-18,-6.4409797030796e-18,-0.0014360834894891,0.0014360834894891,-0.0014360834894891,0.0014360834894891,-0.0014360834894891,0.0014360834894891,-0.0014360834894891,0.0014360834894891,-0.0013783341849585,0.0013783341849585,-0.0013783341849585,0.0013783341849585,0.64937996091711,0.74307751585792,1270536,32768,0.0058242211055645,0.0058242211055646,0.0058242211055646,26.969816949615,26.98119864936,0.00013095853559692,0.00013095853559692,0.00013095853559692,350331.2538278,0.017626429531081
30931200,0.99998661551028,0.01708829267131,0.0056960975571033,0.0056960975571033,0.0056960975571033,-0.0014025081221416,0.0014025081221415,-6.2351036395108e-18,-5.8821732448215e-19,3.1869614640443e-16,-3.2728411934187e-16,-0.0014366029635341,0.0014366029635343,-0.0014366029635341,0.0014366029635343,-0.0014366029635343,0.0014366029635341,-0.0014366029635343,0.0014366029635341,-0.0013790043523333,0.001379004352333,-0.0013790043523333,0.0013790043523331,-2.9881440083693e-16,3.4478358474521e-16,1.8264147925171e-17,2.3646336444183e-17,-0.0014025081221415,0.0014025081221416,-0.0014366029635343,0.0014366029635341,-0.0014366029635343,0.0014366029635341,-0.0014366029635341,0.0014366029635343,-0.0014366029635341,0.0014366029635343,-0.001379004352333,0.0013790043523333,-0.001379004352333,0.0013790043523333,-0.0013790043523335,0.0013790043523329,-0.0013790043523329,0.0013790043523335,-4.1469321375992e-18,-9.7938184526279e-18,-0.0014025081221416,0.0014025081221416,-4.1175212713751e-18,-8.7938490010082e-18,-0.0014366029635342,0.0014366029635342,-0.0014366029635342,0.0014366029635342,-0.0014366029635342,0.0014366029635342,-0.0014366029635342,0.0014366029635342,-0.0013790043523332,0.0013790043523332,-0.0013790043523332,0.0013790043523332,0.66586107957466,0.77014088914354,1270536,32768,0.0058267297815035,0.0058267297815035,0.0058267297815035,27.141259193818,27.152647051201,0.00013233007355054,0.00013233007355054,0.00013233007355054,341344.81170275,0.017634088980335
31017600,0.99998705301878,0.017088300078203,0.0056961000260675,0.0056961000260676,0.0056961000260676,-0.0014029656126293,0.0014029656126293,-8.2938642751984e-18,-2.735210558842e-18,3.1675502923364e-16,-3.2840173225839e-16,-0.0014370288027933,0.0014370288027935,-0.0014370288027933,0.0014370288027935,-0.0014370288027935,0.0014370288027933,-0.0014370288027935,0.0014370288027933,-0.0013794726182058,0.0013794726182056,-0.0013794726182059,0.0013794726182056,-2.9952026162631e-16,3.4416595655451e-16,1.7528876269568e-17,2.2999297387252e-17,-0.0014029656126293,0.0014029656126293,-0.0014370288027935,0.0014370288027933,-0.0014370288027935,0.0014370288027933,-0.0014370288027932,0.0014370288027935,-0.0014370288027933,0.0014370288027935,-0.0013794726182056,0.0013794726182058,-0.0013794726182056,0.0013794726182058,-0.001379472618206,0.0013794726182055,-0.0013794726182054,0.0013794726182061,-4.6763277296331e-18,-1.0029105382421e-17,-0.0014029656126293,0.0014029656126293,-5.2645450541153e-18,-9.8526401850761e-18,-0.0014370288027934,0.0014370288027934,-0.0014370288027934,0.0014370288027934,-0.0014370288027934,0.0014370288027934,-0.0014370288027934,0.0014370288027934,-0.0013794726182057,0.0013794726182057,-0.0013794726182057,0.0013794726182057,0.67943120198614,0.78770223647543,1270536,32768,0.0058286247886187,0.0058286247886187,0.0058286247886187,27.312701453019,27.324095453043,0.00013370161162415,0.00013370161162415,0.00013370161162415,336821.41641874,0.017639874752419
31104000,0.99998748177723,0.017088307583128,0.0056961025277094,0.0056961025277094,0.0056961025277094,-0.0014034849557234,0.0014034849557234,-2.8822648899626e-18,2.6175670939456e-18,3.2093137223746e-16,-3.2354893933141e-16,-0.0014375334038441,0.0014375334038443,-0.0014375334038441,0.0014375334038443,-0.0014375334038443,0.0014375334038441,-0.0014375334038444,0.0014375334038441,-0.0013799924941845,0.0013799924941843,-0.0013799924941845,0.0013799924941843,-2.9528509689004e-16,3.4778349310007e-16,2.191109533696e-17,2.7763857715558e-17,-0.0014034849557234,0.0014034849557234,-0.0014375334038443,0.0014375334038441,-0.0014375334038443,0.0014375334038441,-0.001437533403844,0.0014375334038443,-0.0014375334038441,0.0014375334038443,-0.0013799924941843,0.0013799924941845,-0.0013799924941843,0.0013799924941845,-0.0013799924941847,0.0013799924941842,-0.0013799924941841,0.0013799924941848,1.088202050292e-18,-4.1469321375992e-18,-0.0014034849557234,0.0014034849557234,9.1173685294734e-19,-4.1175212713751e-18,-0.0014375334038442,0.0014375334038442,-0.0014375334038442,0.0014375334038442,-0.0014375334038442,0.0014375334038442,-0.0014375334038442,0.0014375334038442,-0.0013799924941844,0.0013799924941844,-0.0013799924941844,0.0013799924941844,0.70243979068786,0.86308056669197,1270536,32768,0.0058307760340684,0.0058307760340685,0.0058307760340685,27.538148337956,27.553020126672,0.00013550518670365,0.00013550518670365,0.00013550518670365,333459.27893465,0.017646442713986
31190400,0.99998790222051,0.017088315203907,0.0056961050679688,0.0056961050679689,0.0056961050679689,-0.0014041293198293,0.0014041293198293,-9.293833726818e-18,-3.6763582780135e-18,3.1587270324692e-16,-3.2998991903449e-16,-0.0014381361128748,0.001438136112875,-0.0014381361128748,0.001438136112875,-0.001438136112875,0.0014381361128748,-0.001438136112875,0.0014381361128747,-0.0013806662008403,0.0013806662008401,-0.0013806662008404,0.0013806662008401,-2.9557920555228e-16,3.4816583436099e-16,2.0793482420444e-17,2.6999175193731e-17,-0.0014041293198293,0.0014041293198293,-0.001438136112875,0.0014381361128748,-0.001438136112875,0.0014381361128748,-0.0014381361128747,0.001438136112875,-0.0014381361128747,0.001438136112875,-0.0013806662008401,0.0013806662008403,-0.0013806662008401,0.0013806662008403,-0.0013806662008405,0.00138066620084,-0.0013806662008399,0.0013806662008406,-1.4411324449813e-18,-6.9409644288894e-18,-0.0014041293198293,0.0014041293198293,-1.4117215787572e-18,-6.7644992315448e-18,-0.0014381361128749,0.0014381361128749,-0.0014381361128749,0.0014381361128749,-0.0014381361128749,0.0014381361128749,-0.0014381361128749,0.0014381361128749,-0.0013806662008402,0.0013806662008402,-0.0013806662008402,0.0013806662008402,0.72736563057626,0.92744920702684,1270536,32768,0.0058334451649439,0.0058334451649439,0.0058334451649439,27.782449767658,27.798660744504,0.00013745959814127,0.00013745959814127,0.00013745959814127,327134.17619964,0.017654592006678
31276800,0.99998831432577,0.017088322715024,0.0056961075716745,0.0056961075716746,0.0056961075716746,-0.0014047630667112,0.0014047630667112,-7.7350578169403e-18,-2.2940475654804e-18,3.1675502923364e-16,-3.2848996485706e-16,-0.0014387350711504,0.0014387350711506,-0.0014387350711504,0.0014387350711506,-0.0014387350711506,0.0014387350711504,-0.0014387350711506,0.0014387350711504,-0.0013813213808758,0.0013813213808755,-0.0013813213808758,0.0013813213808755,-2.9587331421452e-16,3.475776170365e-16,2.0940536751565e-17,2.6499190467921e-17,-0.0014047630667112,0.0014047630667113,-0.0014387350711506,0.0014387350711504,-0.0014387350711506,0.0014387350711504,-0.0014387350711503,0.0014387350711506,-0.0014387350711504,0.0014387350711506,-0.0013813213808755,0.0013813213808757,-0.0013813213808755,0.0013813213808758,-0.0013813213808759,0.0013813213808754,-0.0013813213808753,0.001381321380876,-5.735118913701e-18,-1.1087896566489e-17,-0.0014047630667113,0.0014047630667112,-6.6468557666483e-18,-1.088202050292e-17,-0.0014387350711505,0.0014387350711505,-0.0014387350711505,0.0014387350711505,-0.0014387350711505,0.0014387350711505,-0.0014387350711505,0.0014387350711505,-0.0013813213808756,0.0013813213808756,-0.0013813213808756,0.0013813213808756,0.73134946531797,0.86462826064949,1270536,32768,0.0058360702888232,0.0058360702888232,0.0058360702888232,28.027954081722,28.044301362336,0.00013942363265377,0.00013942363265377,0.00013942363265377,321001.83511927,0.017662607028676
31363200,0.99998871804903,0.017088330029785,0.0056961100099282,0.0056961100099283,0.0056961100099283,-0.0014051776810087,0.0014051776810087,-7.9409338805091e-18,-2.4999236290492e-18,3.1599034671181e-16,-3.2960757777357e-16,-0.0014391915408659,0.0014391915408661,-0.0014391915408659,0.0014391915408662,-0.0014391915408662,0.0014391915408659,-0.0014391915408662,0.0014391915408659,-0.00138168899388,0.0013816889938798,-0.00138168899388,0.0013816889938798,-2.9604977941187e-16,3.4751879530406e-16,2.0999358484013e-17,2.6793299130162e-17,-0.0014051776810087,0.0014051776810087,-0.0014391915408661,0.001439191540866,-0.0014391915408661,0.001439191540866,-0.0014391915408659,0.0014391915408662,-0.0014391915408659,0.0014391915408662,-0.0013816889938797,0.00138168899388,-0.0013816889938798,0.00138168899388,-0.0013816889938802,0.0013816889938796,-0.0013816889938796,0.0013816889938803,-7.646825218268e-18,-1.3352533265745e-17,-0.0014051776810087,0.0014051776810087,-7.9703447467332e-18,-1.2823137673711e-17,-0.0014391915408661,0.001439191540866,-0.0014391915408661,0.001439191540866,-0.0014391915408661,0.001439191540866,-0.0014391915408661,0.001439191540866,-0.0013816889938799,0.0013816889938799,-0.0013816889938799,0.0013816889938799,0.72696221333413,0.79905950129702,1270536,32768,0.005837787685074,0.0058377876850741,0.0058377876850741,28.273569887732,28.289941980168,0.00014138855910185,0.00014138855910185,0.00014138855910185,321648.81869061,0.017667850344855
31449600,0.99998911335094,0.017088337093368,0.0056961123644559,0.0056961123644559,0.0056961123644559,-0.0014055361387152,0.0014055361387152,-1.2293742081677e-17,-6.8821426964412e-18,3.1275515142716e-16,-3.3416626203831e-16,-0.0014396100678379,0.0014396100678381,-0.0014396100678379,0.0014396100678381,-0.0014396100678381,0.0014396100678379,-0.0014396100678381,0.0014396100678378,-0.0013819952498674,0.0013819952498671,-0.0013819952498674,0.0013819952498671,-2.9869675737204e-16,3.4584237592928e-16,1.8940597848325e-17,2.4411018966009e-17,-0.0014055361387152,0.0014055361387152,-0.001439610067838,0.0014396100678379,-0.0014396100678381,0.0014396100678379,-0.0014396100678378,0.0014396100678381,-0.0014396100678378,0.0014396100678381,-0.0013819952498671,0.0013819952498673,-0.0013819952498671,0.0013819952498673,-0.0013819952498675,0.001381995249867,-0.0013819952498669,0.0013819952498676,1.7058302409982e-18,-3.7351800104617e-18,-0.0014055361387152,0.0014055361387152,1.5293650436536e-18,-3.2057844184277e-18,-0.001439610067838,0.0014396100678379,-0.001439610067838,0.001439610067838,-0.0014396100678379,0.001439610067838,-0.001439610067838,0.0014396100678379,-0.0013819952498672,0.0013819952498672,-0.0013819952498672,0.0013819952498672,0.71694599293636,0.73349074194455,1270536,32768,0.0058392725155258,0.0058392725155259,0.0058392725155259,28.5191966683,28.535582598,0.0001433535733464,0.0001433535733464,0.0001433535733464,324190.99064804,0.017672383451294
31536000,0.99998950019915,0.017088343867731,0.005696114622577,0.0056961146225771,0.0056961146225771,-0.0014058645829944,0.0014058645829944,-1.1764346489643e-17,-5.8527623785974e-18,3.1369629914633e-16,-3.3316629258669e-16,-0.001440004553915,0.0014400045539152,-0.001440004553915,0.0014400045539152,-0.0014400045539152,0.001440004553915,-0.0014400045539152,0.0014400045539149,-0.0013822735044794,0.0013822735044792,-0.0013822735044794,0.0013822735044792,-2.9834382697735e-16,3.4646000411999e-16,1.8852365249653e-17,2.5028647156716e-17,-0.0014058645829944,0.0014058645829944,-0.0014400045539151,0.0014400045539149,-0.0014400045539151,0.0014400045539149,-0.0014400045539149,0.0014400045539151,-0.0014400045539149,0.0014400045539152,-0.0013822735044792,0.0013822735044794,-0.0013822735044792,0.0013822735044794,-0.0013822735044796,0.001382273504479,-0.001382273504479,0.0013822735044797,-6.4409797030796e-18,-1.1999633419436e-17,-0.0014058645829944,0.0014058645829944,-7.2644839573546e-18,-1.2440796412798e-17,-0.001440004553915,0.001440004553915,-0.0014400045539151,0.001440004553915,-0.001440004553915,0.001440004553915,-0.0014400045539151,0.001440004553915,-0.0013822735044793,0.0013822735044793,-0.0013822735044793,0.0013822735044793,0.70262204650901,0.66792198259208,1270536,32768,0.0058406330637339,0.0058406330637339,0.0058406330637339,28.764824543614,28.781223215832,0.00014531859634891,0.00014531859634891,0.00014531859634891,327875.06880897,0.017676536994774
31622400,0.99998987856856,0.017088350325356,0.0056961167751185,0.0056961167751186,0.0056961167751186,-0.0014061729921884,0.0014061729921884,-8.7056164023359e-18,-3.1175518197554e-18,3.1628445537405e-16,-3.3125458628212e-16,-0.0014403802007938,0.001440380200794,-0.0014403802007938,0.001440380200794,-0.001440380200794,0.0014403802007938,-0.001440380200794,0.0014403802007938,-0.0013825349296896,0.0013825349296894,-0.0013825349296896,0.0013825349296894,-2.9681446193369e-16,3.4881287341792e-16,2.0028799898617e-17,2.7646214250661e-17,-0.0014061729921884,0.0014061729921885,-0.001440380200794,0.0014403802007938,-0.001440380200794,0.0014403802007938,-0.0014403802007937,0.001440380200794,-0.0014403802007937,0.001440380200794,-0.0013825349296894,0.0013825349296896,-0.0013825349296894,0.0013825349296896,-0.0013825349296898,0.0013825349296893,-0.0013825349296892,0.0013825349296899,3.3234278833242e-18,-2.2940475654804e-18,-0.0014061729921884,0.0014061729921884,3.7940017429099e-18,-3.1763735522036e-18,-0.0014403802007939,0.0014403802007939,-0.0014403802007939,0.0014403802007939,-0.0014403802007939,0.0014403802007939,-0.0014403802007939,0.0014403802007939,-0.0013825349296895,0.0013825349296895,-0.0013825349296895,0.0013825349296895,0.6847947525715,0.60235322323961,1270536,32768,0.005841910654329,0.0058419106543291,0.0058419106543291,29.010452526525,29.026863833663,0.0001472836202122,0.0001472836202122,0.0001472836202122,332445.38435721,0.017680437166955
31708800,0.99999024834273,0.017088356444531,0.0056961188148435,0.0056961188148436,0.0056961188148436,-0.0014064571465337,0.0014064571465336,-9.7644075864037e-18,-4.2057538700474e-18,3.1540212938733e-16,-3.3172516014171e-16,-0.0014407307800617,0.0014407307800619,-0.0014407307800617,0.0014407307800619,-0.0014407307800619,0.0014407307800617,-0.0014407307800619,0.0014407307800617,-0.0013827751088585,0.0013827751088583,-0.0013827751088585,0.0013827751088583,-2.9981437028855e-16,3.4528356947102e-16,1.632303075438e-17,2.4116910303768e-17,-0.0014064571465336,0.0014064571465337,-0.0014407307800619,0.0014407307800617,-0.0014407307800619,0.0014407307800617,-0.0014407307800616,0.0014407307800619,-0.0014407307800617,0.0014407307800619,-0.0013827751088583,0.0013827751088585,-0.0013827751088583,0.0013827751088585,-0.0013827751088587,0.0013827751088582,-0.0013827751088581,0.0013827751088588,-2.0293497694634e-18,-7.382127422251e-18,-0.0014064571465337,0.0014064571465336,-1.088202050292e-18,-8.1173990778537e-18,-0.0014407307800618,0.0014407307800618,-0.0014407307800618,0.0014407307800618,-0.0014407307800618,0.0014407307800618,-0.0014407307800618,0.0014407307800618,-0.0013827751088584,0.0013827751088584,-0.0013827751088584,0.0013827751088584,0.66400983097353,0.53678446388714,1270536,32768,0.0058430878001846,0.0058430878001847,0.0058430878001847,29.25139099925,29.267511833545,0.000149211127994,0.000149211127994,0.000149211127994,337803.30249176,0.017684030596516
31795200,0.99999060497918,0.017088362108281,0.0056961207027603,0.0056961207027604,0.0056961207027604,-0.0014062983857464,0.0014062983857464,-7.646825218268e-18,-2.2352258330322e-18,3.1728442482567e-16,-3.297546321047e-16,-0.00144064235566,0.0014406423556602,-0.00144064235566,0.0014406423556602,-0.0014406423556602,0.00144064235566,-0.0014406423556602,0.00144064235566,-0.0013825710978671,0.0013825710978669,-0.0013825710978671,0.0013825710978669,-2.9504980996025e-16,3.4993048633443e-16,2.1205234547582e-17,2.9293222759211e-17,-0.0014062983857463,0.0014062983857464,-0.0014406423556602,0.00144064235566,-0.0014406423556602,0.00144064235566,-0.0014406423556599,0.0014406423556602,-0.0014406423556599,0.0014406423556602,-0.0013825710978669,0.0013825710978671,-0.0013825710978669,0.0013825710978671,-0.0013825710978673,0.0013825710978668,-0.0013825710978667,0.0013825710978674,-2.6763888263938e-18,-8.1173990778537e-18,-0.0014062983857464,0.0014062983857464,-1.5881867761018e-18,-8.6467946698877e-18,-0.0014406423556601,0.0014406423556601,-0.0014406423556601,0.0014406423556601,-0.0014406423556601,0.0014406423556601,-0.0014406423556601,0.0014406423556601,-0.001382571097867,0.001382571097867,-0.001382571097867,0.001382571097867,0.63722659971684,0.45226358797313,1270536,32768,0.005842430222371,0.005842430222371,0.005842430222371,29.26966369929,29.271394090334,0.00014935730959432,0.00014935730959432,0.00014935730959432,344109.22681615,0.017682022545871
31881600,0.99999094867477,0.017088367917293,0.0056961226390977,0.0056961226390978,0.0056961226390978,-0.0014060582037917,0.0014060582037917,-8.4997403387671e-18,-2.7940322912902e-18,3.1640209883895e-16,-3.304899037603e-16,-0.0014404802793798,0.00144048027938,-0.0014404802793798,0.00144048027938,-0.00144048027938,0.0014404802793798,-0.00144048027938,0.0014404802793798,-0.0013822778297876,0.0013822778297874,-0.0013822778297876,0.0013822778297874,-2.9575567074963e-16,3.4913639294638e-16,2.0587606356875e-17,2.8734416300953e-17,-0.0014060582037916,0.0014060582037917,-0.00144048027938,0.0014404802793798,-0.00144048027938,0.0014404802793798,-0.0014404802793797,0.00144048027938,-0.0014404802793798,0.00144048027938,-0.0013822778297874,0.0013822778297876,-0.0013822778297874,0.0013822778297876,-0.0013822778297878,0.0013822778297872,-0.0013822778297872,0.0013822778297879,-2.6469779601697e-18,-8.0291664791814e-18,-0.0014060582037917,0.0014060582037917,-1.5293650436536e-18,-8.7056164023359e-18,-0.0014404802793799,0.0014404802793799,-0.0014404802793799,0.0014404802793799,-0.0014404802793799,0.0014404802793799,-0.0014404802793799,0.0014404802793799,-0.0013822778297875,0.0013822778297875,-0.0013822778297875,0.0013822778297875,0.67829687296573,0.76226457269967,1270536,32768,0.0058414354097147,0.0058414354097147,0.0058414354097147,29.274871522587,29.275276347123,0.00014939897218069,0.00014939897218069,0.00014939897218069,352454.05595932,0.017678984640266
31968000,0.9999912798727,0.017088373644767,0.0056961245482556,0.0056961245482556,0.0056961245482556,-0.0014066644294636,0.0014066644294636,-7.5291817533716e-18,-1.8528845721188e-18,3.1746089002302e-16,-3.2931346911133e-16,-0.0014408711746836,0.0014408711746838,-0.0014408711746836,0.0014408711746838,-0.0014408711746838,0.0014408711746836,-0.0014408711746838,0.0014408711746836,-0.0013830928276652,0.0013830928276649,-0.0013830928276652,0.0013830928276649,-2.9540274035494e-16,3.4948932334107e-16,2.0793482420444e-17,2.9116757561867e-17,-0.0014066644294636,0.0014066644294636,-0.0014408711746838,0.0014408711746836,-0.0014408711746838,0.0014408711746836,-0.0014408711746835,0.0014408711746838,-0.0014408711746835,0.0014408711746838,-0.0013830928276649,0.0013830928276651,-0.0013830928276649,0.0013830928276652,-0.0013830928276653,0.0013830928276648,-0.0013830928276647,0.0013830928276654,-1.7352411072224e-18,-7.2644839573546e-18,-0.0014066644294636,0.0014066644294636,-5.5880645825805e-19,-7.9703447467332e-18,-0.0014408711746837,0.0014408711746837,-0.0014408711746837,0.0014408711746837,-0.0014408711746837,0.0014408711746837,-0.0014408711746837,0.0014408711746837,-0.001383092827665,0.001383092827665,-0.001383092827665,0.001383092827665,0.69409425744674,0.78347041116359,1270536,32768,0.0058439466885861,0.0058439466885861,0.0058439466885861,29.278884428068,29.279158603911,0.00014943107542454,0.00014943107542454,0.00014943107542454,333509.99074797,0.017686652799953
32054400,0.99999159902253,0.017088379269002,0.0056961264230005,0.0056961264230006,0.0056961264230006,-0.0014068058712231,0.0014068058712231,-8.6762055361118e-18,-3.1469626859795e-18,3.1604916844426e-16,-3.3043108202785e-16,-0.0014409617336598,0.00144096173366,-0.0014409617336598,0.00144096173366,-0.00144096173366,0.0014409617336598,-0.00144096173366,0.0014409617336598,-0.0013832599496365,0.0013832599496363,-0.0013832599496366,0.0013832599496363,-2.9610860114432e-16,3.4834229955833e-16,1.9822923835049e-17,2.8175609842695e-17,-0.0014068058712231,0.0014068058712231,-0.00144096173366,0.0014409617336598,-0.00144096173366,0.0014409617336598,-0.0014409617336597,0.00144096173366,-0.0014409617336598,0.00144096173366,-0.0013832599496363,0.0013832599496365,-0.0013832599496363,0.0013832599496366,-0.0013832599496367,0.0013832599496362,-0.0013832599496361,0.0013832599496368,-1.7058302409982e-18,-7.1762513586823e-18,-0.0014068058712231,0.0014068058712231,-4.9998472580983e-19,-7.911523014285e-18,-0.0014409617336599,0.0014409617336599,-0.0014409617336599,0.0014409617336599,-0.0014409617336599,0.0014409617336599,-0.0014409617336599,0.0014409617336599,-0.0013832599496364,0.0013832599496364,-0.0013832599496364,0.0013832599496364,0.70718520661316,0.80523991285448,1270536,32768,0.0058445325027341,0.0058445325027341,0.0058445325027341,29.28277977358,29.2830408607,0.00014946223818864,0.00014946223818864,0.00014946223818864,328749.12401085,0.017688441724386
32140800,0.99999190655971,0.017088384791105,0.0056961282637017,0.0056961282637018,0.0056961282637018,-0.0014069034849624,0.0014069034849624,-8.205631676526e-18,-2.6763888263938e-18,3.1657856403629e-16,-3.3001932990071e-16,-0.0014410312653104,0.0014410312653106,-0.0014410312653104,0.0014410312653106,-0.0014410312653106,0.0014410312653104,-0.0014410312653106,0.0014410312653104,-0.0013833678028259,0.0013833678028257,-0.0013833678028259,0.0013833678028257,-2.9693210539859e-16,3.4748938443783e-16,1.8734721784757e-17,2.7116818658627e-17,-0.0014069034849624,0.0014069034849625,-0.0014410312653106,0.0014410312653104,-0.0014410312653106,0.0014410312653104,-0.0014410312653103,0.0014410312653106,-0.0014410312653104,0.0014410312653106,-0.0013833678028257,0.0013833678028259,-0.0013833678028257,0.0013833678028259,-0.0013833678028261,0.0013833678028255,-0.0013833678028255,0.0013833678028262,-1.1470237827402e-18,-6.4703905693037e-18,-0.0014069034849625,0.0014069034849625,5.8821732448215e-20,-7.4703600209234e-18,-0.0014410312653105,0.0014410312653105,-0.0014410312653105,0.0014410312653105,-0.0014410312653105,0.0014410312653105,-0.0014410312653105,0.0014410312653105,-0.0013833678028258,0.0013833678028258,-0.0013833678028258,0.0013833678028258,0.72053665926245,0.83311157431456,1270536,32768,0.005844936776605,0.0058449367766051,0.0058449367766051,29.286663344976,29.286923117489,0.00014949330675981,0.00014949330675981,0.00014949330675981,325255.09477759,0.017689676310683
32227200,0.99999220290428,0.017088390212967,0.0056961300709888,0.0056961300709889,0.0056961300709889,-0.001406994465275,0.001406994465275,-8.9997250645769e-18,-3.3822496157724e-18,3.1581388151447e-16,-3.3057813635897e-16,-0.0014411002994817,0.0014411002994819,-0.0014411002994817,0.001441100299482,-0.001441100299482,0.0014411002994817,-0.001441100299482,0.0014411002994817,-0.0013834677838143,0.001383467783814,-0.0013834677838143,0.001383467783814,-2.9728503579328e-16,3.4748938443783e-16,1.8558256587412e-17,2.7116818658627e-17,-0.001406994465275,0.001406994465275,-0.0014411002994819,0.0014411002994817,-0.0014411002994819,0.0014411002994817,-0.0014411002994817,0.0014411002994819,-0.0014411002994817,0.001441100299482,-0.001383467783814,0.0013834677838143,-0.001383467783814,0.0013834677838143,-0.0013834677838144,0.0013834677838139,-0.0013834677838138,0.0013834677838145,-1.4705433112054e-18,-6.7644992315448e-18,-0.001406994465275,0.001406994465275,-1.7646519734465e-19,-7.7056469507162e-18,-0.0014411002994819,0.0014411002994818,-0.0014411002994819,0.0014411002994818,-0.0014411002994818,0.0014411002994818,-0.0014411002994818,0.0014411002994818,-0.0013834677838141,0.0013834677838141,-0.0013834677838141,0.0013834677838141,0.7341598074204,0.86098323577464,1270536,32768,0.0058453135791248,0.0058453135791249,0.0058453135791249,29.290545731419,29.290805374277,0.00014952436585135,0.00014952436585135,0.00014952436585135,321846.932328,0.017690827016658
32313600,0.99999248846117,0.017088395537441,0.0056961318458136,0.0056961318458136,0.0056961318458136,-0.0014070782965787,0.0014070782965787,-8.8232598672323e-18,-3.2351952846518e-18,3.1604916844426e-16,-3.304899037603e-16,-0.0014411670019268,0.001441167001927,-0.0014411670019268,0.001441167001927,-0.0014411670019271,0.0014411670019268,-0.0014411670019271,0.0014411670019268,-0.0013835588253394,0.0013835588253392,-0.0013835588253394,0.0013835588253392,-2.9663799673635e-16,3.478129039663e-16,1.8793543517205e-17,2.7499159919541e-17,-0.0014070782965787,0.0014070782965787,-0.001441167001927,0.0014411670019268,-0.001441167001927,0.0014411670019268,-0.0014411670019268,0.001441167001927,-0.0014411670019268,0.0014411670019271,-0.0013835588253392,0.0013835588253394,-0.0013835588253392,0.0013835588253394,-0.0013835588253396,0.001383558825339,-0.001383558825339,0.0013835588253397,-3.823412609134e-19,-5.8821732448215e-18,-0.0014070782965787,0.0014070782965787,8.5291512049912e-19,-6.6762666328724e-18,-0.0014411670019269,0.0014411670019269,-0.0014411670019269,0.0014411670019269,-0.0014411670019269,0.0014411670019269,-0.0014411670019269,0.0014411670019269,-0.0013835588253393,0.0013835588253393,-0.0013835588253393,0.0013835588253393,0.74819270215562,0.88885489723472,1270536,32768,0.0058456607698214,0.0058456607698215,0.0058456607698215,29.294427998442,29.294687631066,0.00014955542398754,0.00014955542398754,0.00014955542398754,318542.82814968,0.017691887308064
32400000,0.99999276362078,0.017088400767547,0.0056961335891825,0.0056961335891825,0.0056961335891825,-0.0014071571050692,0.0014071571050692,-7.9409338805091e-18,-2.5293344952733e-18,3.1681385096609e-16,-3.2981345383714e-16,-0.0014412320469618,0.001441232046962,-0.0014412320469618,0.001441232046962,-0.0014412320469621,0.0014412320469618,-0.0014412320469621,0.0014412320469618,-0.0013836436524645,0.0013836436524643,-0.0013836436524645,0.0013836436524643,-2.9704974886349e-16,3.4751879530406e-16,1.8911186982101e-17,2.7381516454644e-17,-0.0014071571050692,0.0014071571050692,-0.001441232046962,0.0014412320469618,-0.001441232046962,0.0014412320469618,-0.0014412320469618,0.001441232046962,-0.0014412320469618,0.0014412320469621,-0.0013836436524643,0.0013836436524645,-0.0013836436524643,0.0013836436524645,-0.0013836436524647,0.0013836436524642,-0.0013836436524641,0.0013836436524648,-5.2939559203394e-19,-6.0586384421662e-18,-0.0014071571050692,0.0014071571050692,5.2939559203394e-19,-7.0291970275617e-18,-0.0014412320469619,0.0014412320469619,-0.0014412320469619,0.0014412320469619,-0.0014412320469619,0.0014412320469619,-0.0014412320469619,0.0014412320469619,-0.0013836436524644,0.0013836436524644,-0.0013836436524644,0.0013836436524644,0.76268619770216,0.9167265586948,1270536,32768,0.0058459871555621,0.0058459871555622,0.0058459871555622,29.298310253427,29.298569887855,0.00014958648202741,0.00014958648202741,0.00014958648202741,315286.24374429,0.017692884075162
32486400,0.99999302874184,0.017088405750518,0.0056961352501725,0.0056961352501725,0.0056961352501725,-0.0014072296815675,0.0014072296815675,-9.5879423890591e-18,-4.088110405151e-18,3.1510802072509e-16,-3.3148987321192e-16,-0.0014412934170793,0.0014412934170795,-0.0014412934170793,0.0014412934170795,-0.0014412934170795,0.0014412934170793,-0.0014412934170795,0.0014412934170793,-0.001383721303828,0.0013837213038277,-0.001383721303828,0.0013837213038277,-2.9640270980656e-16,3.4822465609343e-16,1.9264117376791e-17,2.7940322912902e-17,-0.0014072296815675,0.0014072296815676,-0.0014412934170794,0.0014412934170793,-0.0014412934170795,0.0014412934170793,-0.0014412934170792,0.0014412934170795,-0.0014412934170792,0.0014412934170795,-0.0013837213038277,0.001383721303828,-0.0013837213038277,0.001383721303828,-0.0013837213038281,0.0013837213038276,-0.0013837213038275,0.0013837213038282,-2.1175823681358e-18,-7.4409491546992e-18,-0.0014072296815676,0.0014072296815676,-8.8232598672323e-19,-8.4409186063189e-18,-0.0014412934170794,0.0014412934170794,-0.0014412934170794,0.0014412934170794,-0.0014412934170794,0.0014412934170794,-0.0014412934170794,0.0014412934170793,-0.0013837213038278,0.0013837213038278,-0.0013837213038278,0.0013837213038278,0.75411028018054,0.81481010692511,1270536,32768,0.0058462877271049,0.005846287727105,0.005846287727105,29.301025341978,29.301209584371,0.00014960820273583,0.00014960820273583,0.00014960820273583,312054.75891969,0.017693802025434
32572800,0.99999328380441,0.017088410427436,0.0056961368091454,0.0056961368091455,0.0056961368091455,-0.0014070261148041,0.0014070261148041,-1.0176159713541e-17,-4.6763277296331e-18,3.1451980340061e-16,-3.3213691226885e-16,-0.0014411575439084,0.0014411575439086,-0.0014411575439084,0.0014411575439086,-0.0014411575439086,0.0014411575439084,-0.0014411575439086,0.0014411575439084,-0.0013834531988873,0.0013834531988871,-0.0013834531988873,0.0013834531988871,-2.9557920555228e-16,3.4890110601659e-16,1.9911156433721e-17,2.8734416300953e-17,-0.0014070261148041,0.0014070261148042,-0.0014411575439086,0.0014411575439084,-0.0014411575439086,0.0014411575439084,-0.0014411575439083,0.0014411575439086,-0.0014411575439083,0.0014411575439086,-0.001383453198887,0.0013834531988873,-0.0013834531988871,0.0013834531988873,-0.0013834531988875,0.0013834531988869,-0.0013834531988869,0.0013834531988876,-1.4705433112054e-18,-6.9703752951135e-18,-0.0014070261148042,0.0014070261148041,-2.6469779601697e-19,-7.8821121480609e-18,-0.0014411575439085,0.0014411575439085,-0.0014411575439085,0.0014411575439085,-0.0014411575439085,0.0014411575439085,-0.0014411575439085,0.0014411575439085,-0.0013834531988872,0.0013834531988872,-0.0013834531988872,0.0013834531988872,0.7356465093255,0.71055228244282,1270536,32768,0.0058454444272698,0.0058454444272698,0.0058454444272698,29.277237256484,29.275707084755,0.00014941789805187,0.00014941789805187,0.00014941789805187,315801.03216146,0.017691227169626
32659200,0.99999352918084,0.017088414771418,0.0056961382571393,0.0056961382571393,0.0056961382571393,-0.0014067545418782,0.0014067545418782,-5.9115841110456e-18,-1.7646519734465e-19,3.1875496813688e-16,-3.2772528233523e-16,-0.0014409726132343,0.0014409726132345,-0.0014409726132343,0.0014409726132345,-0.0014409726132346,0.0014409726132343,-0.0014409726132346,0.0014409726132343,-0.0013831115237465,0.0013831115237463,-0.0013831115237465,0.0013831115237463,-2.9957908335876e-16,3.4510710427368e-16,1.6381852486828e-17,2.555804274875e-17,-0.0014067545418782,0.0014067545418783,-0.0014409726132345,0.0014409726132343,-0.0014409726132345,0.0014409726132343,-0.0014409726132343,0.0014409726132345,-0.0014409726132343,0.0014409726132346,-0.0013831115237463,0.0013831115237465,-0.0013831115237463,0.0013831115237465,-0.0013831115237467,0.0013831115237461,-0.0013831115237461,0.0013831115237468,6.1762819070626e-19,-4.8233820607537e-18,-0.0014067545418783,0.0014067545418783,2.0587606356875e-18,-6.2645145057349e-18,-0.0014409726132344,0.0014409726132344,-0.0014409726132344,0.0014409726132344,-0.0014409726132344,0.0014409726132344,-0.0014409726132344,0.0014409726132344,-0.0013831115237464,0.0013831115237464,-0.0013831115237464,0.0013831115237464,0.71023405312816,0.60629445796053,1270536,32768,0.005844319489236,0.005844319489236,0.005844319489236,29.251892588441,29.250204585139,0.00014921514070753,0.00014921514070753,0.00014921514070753,321846.70432603,0.017687792205468
32745600,0.99999376524987,0.017088418768906,0.0056961395896352,0.0056961395896353,0.0056961395896353,-0.0014064414370561,0.001406441437056,-1.0205570579765e-17,-4.7351494620813e-18,3.1516684245754e-16,-3.3213691226885e-16,-0.0014407538589197,0.0014407538589199,-0.0014407538589197,0.0014407538589199,-0.0014407538589199,0.0014407538589197,-0.0014407538589199,0.0014407538589197,-0.0013827290563467,0.0013827290563465,-0.0013827290563467,0.0013827290563465,-2.966968184688e-16,3.4863640822057e-16,1.8970008714549e-17,2.8146198976471e-17,-0.001406441437056,0.0014064414370561,-0.0014407538589198,0.0014407538589197,-0.0014407538589199,0.0014407538589197,-0.0014407538589196,0.0014407538589199,-0.0014407538589196,0.0014407538589199,-0.0013827290563465,0.0013827290563467,-0.0013827290563465,0.0013827290563467,-0.0013827290563469,0.0013827290563464,-0.0013827290563463,0.001382729056347,7.3527165560269e-19,-4.7057385958572e-18,-0.0014064414370561,0.0014064414370561,2.2646366992563e-18,-6.1174601746144e-18,-0.0014407538589198,0.0014407538589198,-0.0014407538589198,0.0014407538589198,-0.0014407538589198,0.0014407538589198,-0.0014407538589198,0.0014407538589197,-0.0013827290563466,0.0013827290563466,-0.0013827290563466,0.0013827290563466,0.67935208578108,0.50203663347825,1270536,32768,0.0058430225646869,0.005843022564687,0.005843022564687,29.226405522435,29.224702085523,0.00014901124417948,0.00014901124417948,0.00014901124417948,329597.30123667,0.017683831979975
32832000,0.99999399237678,0.017088422421337,0.0056961408071123,0.0056961408071124,0.0056961408071124,-0.0014060942086579,0.0014060942086579,-9.7349967201796e-18,-4.1469321375992e-18,3.1551977285223e-16,-3.3190162533906e-16,-0.0014405047828321,0.0014405047828322,-0.0014405047828321,0.0014405047828323,-0.0014405047828323,0.0014405047828321,-0.0014405047828323,0.001440504782832,-0.0013823138858536,0.0013823138858534,-0.0013823138858536,0.0013823138858534,-2.9722621406083e-16,3.4798936916364e-16,1.8764132650981e-17,2.7646214250661e-17,-0.0014060942086579,0.0014060942086579,-0.0014405047828322,0.0014405047828321,-0.0014405047828322,0.0014405047828321,-0.001440504782832,0.0014405047828323,-0.001440504782832,0.0014405047828323,-0.0013823138858534,0.0013823138858536,-0.0013823138858534,0.0013823138858536,-0.0013823138858538,0.0013823138858532,-0.0013823138858532,0.0013823138858539,-5.2939559203394e-19,-5.8821732448215e-18,-0.0014060942086579,0.0014060942086579,1.4117215787572e-18,-6.7350883653207e-18,-0.0014405047828322,0.0014405047828321,-0.0014405047828322,0.0014405047828321,-0.0014405047828321,0.0014405047828322,-0.0014405047828322,0.0014405047828321,-0.0013823138858535,0.0013823138858535,-0.0013823138858535,0.0013823138858535,0.64516451987775,0.40460927212687,1270536,32768,0.0058415843323843,0.0058415843323843,0.0058415843323843,29.200904446679,29.199199585907,0.00014880723557343,0.00014880723557343,0.00014880723557343,338926.62930466,0.017679440186986
32918400,0.99999421091219,0.01708842601113,0.0056961420037099,0.00569614200371,0.00569614200371,-0.0014057323838214,0.0014057323838214,-8.5585620712153e-18,-3.264606150876e-18,3.1622563364161e-16,-3.3119576454968e-16,-0.0014402372995617,0.0014402372995619,-0.0014402372995617,0.0014402372995619,-0.001440237299562,0.0014402372995617,-0.001440237299562,0.0014402372995617,-0.0013818902211791,0.0013818902211788,-0.0013818902211791,0.0013818902211788,-2.9269694066232e-16,3.5293039468929e-16,2.3322816915717e-17,3.264606150876e-17,-0.0014057323838214,0.0014057323838214,-0.0014402372995619,0.0014402372995617,-0.0014402372995619,0.0014402372995617,-0.0014402372995616,0.0014402372995619,-0.0014402372995617,0.001440237299562,-0.0013818902211788,0.0013818902211791,-0.0013818902211788,0.0013818902211791,-0.0013818902211793,0.0013818902211787,-0.0013818902211787,0.0013818902211794,2.6469779601697e-19,-5.2057233216671e-18,-0.0014057323838214,0.0014057323838214,1.4705433112054e-18,-6.8527318302171e-18,-0.0014402372995618,0.0014402372995618,-0.0014402372995618,0.0014402372995618,-0.0014402372995618,0.0014402372995618,-0.0014402372995618,0.0014402372995618,-0.001381890221179,0.001381890221179,-0.001381890221179,0.001381890221179,0.65914409165888,0.59136693301626,1270536,32768,0.0058400856733205,0.0058400856733206,0.0058400856733206,29.175401967933,29.173697086291,0.00014860321574346,0.00014860321574346,0.00014860321574346,349339.31797588,0.017674863810791
33004800,0.99999442119255,0.01708842949052,0.0056961431635065,0.0056961431635066,0.0056961431635066,-0.0014060254625831,0.0014060254625831,-1.1087896566489e-17,-5.5880645825805e-18,3.1428451647081e-16,-3.3334275778404e-16,-0.0014403938859847,0.0014403938859849,-0.0014403938859847,0.0014403938859849,-0.0014403938859849,0.0014403938859847,-0.0014403938859849,0.0014403938859847,-0.0013823274979852,0.001382327497985,-0.0013823274979852,0.001382327497985,-2.9646153153901e-16,3.4904816034771e-16,1.8970008714549e-17,2.8410896772488e-17,-0.0014060254625831,0.0014060254625832,-0.0014403938859848,0.0014403938859847,-0.0014403938859849,0.0014403938859847,-0.0014403938859846,0.0014403938859849,-0.0014403938859846,0.0014403938859849,-0.0013823274979849,0.0013823274979852,-0.0013823274979849,0.0013823274979852,-0.0013823274979854,0.0013823274979848,-0.0013823274979848,0.0013823274979855,-3.823412609134e-19,-5.735118913701e-18,-0.0014060254625832,0.0014060254625831,9.7055858539555e-19,-7.3233056898028e-18,-0.0014403938859848,0.0014403938859848,-0.0014403938859848,0.0014403938859848,-0.0014403938859848,0.0014403938859848,-0.0014403938859848,0.0014403938859847,-0.0013823274979851,0.0013823274979851,-0.0013823274979851,0.0013823274979851,0.66404952067883,0.62503185655508,1270536,32768,0.0058412998532429,0.005841299853243,0.005841299853243,29.149899348022,29.148194586675,0.00014839919478418,0.00014839919478418,0.00014839919478418,339019.54685497,0.017678571172555
33091200,0.9999946235407,0.017088432999339,0.0056961443331129,0.0056961443331129,0.0056961443331129,-0.0014060843495556,0.0014060843495556,-8.3526860076466e-18,-2.9116757561867e-18,3.1681385096609e-16,-3.3066636895764e-16,-0.0014403994445885,0.0014403994445887,-0.0014403994445885,0.0014403994445887,-0.0014403994445887,0.0014403994445884,-0.0014403994445887,0.0014403994445884,-0.0013824272308102,0.00138242723081,-0.0013824272308102,0.00138242723081,-2.9693210539859e-16,3.4840112129078e-16,1.8646489186084e-17,2.8234431575143e-17,-0.0014060843495556,0.0014060843495556,-0.0014403994445886,0.0014403994445885,-0.0014403994445886,0.0014403994445885,-0.0014403994445884,0.0014403994445887,-0.0014403994445884,0.0014403994445887,-0.00138242723081,0.0013824272308102,-0.00138242723081,0.0013824272308102,-0.0013824272308104,0.0013824272308099,-0.0013824272308098,0.0013824272308105,-1.8234737058947e-18,-7.1174296262341e-18,-0.0014060843495556,0.0014060843495556,-1.4705433112054e-19,-8.8232598672323e-18,-0.0014403994445886,0.0014403994445885,-0.0014403994445886,0.0014403994445885,-0.0014403994445885,0.0014403994445885,-0.0014403994445886,0.0014403994445885,-0.0013824272308101,0.0013824272308101,-0.0013824272308101,0.0013824272308101,0.69589221763417,0.79978099776202,1270536,32768,0.0058415437945312,0.0058415437945313,0.0058415437945313,29.124396713891,29.122692087059,0.00014819517371113,0.00014819517371113,0.00014819517371113,335747.88632468,0.017679316087591
33177600,0.99999481826645,0.017088436455876,0.0056961454852921,0.0056961454852921,0.0056961454852921,-0.0014064047093257,0.0014064047093257,-6.7644992315448e-19,4.4998625322885e-18,3.2481360657905e-16,-3.2243132641489e-16,-0.0014405843970658,0.001440584397066,-0.0014405843970658,0.001440584397066,-0.001440584397066,0.0014405843970658,-0.001440584397066,0.0014405843970658,-0.001382857961541,0.0013828579615408,-0.001382857961541,0.0013828579615408,-2.9746150099062e-16,3.4819524522721e-16,1.8499434854964e-17,2.7881501180454e-17,-0.0014064047093257,0.0014064047093258,-0.001440584397066,0.0014405843970658,-0.001440584397066,0.0014405843970658,-0.0014405843970657,0.001440584397066,-0.0014405843970657,0.001440584397066,-0.0013828579615408,0.001382857961541,-0.0013828579615408,0.001382857961541,-0.0013828579615412,0.0013828579615407,-0.0013828579615406,0.0013828579615413,5.8233515123733e-18,5.5880645825805e-19,-0.0014064047093258,0.0014064047093258,8.1173990778537e-18,-7.9409338805091e-19,-0.0014405843970659,0.0014405843970659,-0.0014405843970659,0.0014405843970659,-0.0014405843970659,0.0014405843970659,-0.0014405843970659,0.0014405843970659,-0.0013828579615409,0.0013828579615409,-0.0013828579615409,0.0013828579615409,0.71235241880322,0.82129808892253,1270536,32768,0.0058428708042022,0.0058428708042023,0.0058428708042023,29.098894078326,29.097189587443,0.00014799115262661,0.00014799115262661,0.00014799115262661,323914.50660777,0.017683368298921
33264000,0.9999950057676,0.01708843985048,0.0056961466168267,0.0056961466168268,0.0056961466168268,-0.0014064937593288,0.0014064937593288,-7.5585926195957e-18,-2.0293497694634e-18,3.1769617695281e-16,-3.2978404297092e-16,-0.0014406304335984,0.0014406304335986,-0.0014406304335984,0.0014406304335986,-0.0014406304335986,0.0014406304335984,-0.0014406304335986,0.0014406304335983,-0.001382962953607,0.0013829629536068,-0.001382962953607,0.0013829629536068,-2.9769678792042e-16,3.475776170365e-16,1.7440643670896e-17,2.7175640391075e-17,-0.0014064937593288,0.0014064937593289,-0.0014406304335985,0.0014406304335984,-0.0014406304335986,0.0014406304335984,-0.0014406304335983,0.0014406304335986,-0.0014406304335983,0.0014406304335986,-0.0013829629536068,0.001382962953607,-0.0013829629536068,0.001382962953607,-0.0013829629536072,0.0013829629536067,-0.0013829629536066,0.0013829629536073,8.2350425427501e-19,-4.5880951309608e-18,-0.0014064937593288,0.0014064937593288,2.470512762825e-18,-6.1762819070626e-18,-0.0014406304335985,0.0014406304335984,-0.0014406304335985,0.0014406304335985,-0.0014406304335985,0.0014406304335985,-0.0014406304335985,0.0014406304335984,-0.0013829629536069,0.0013829629536069,-0.0013829629536069,0.0013829629536069,0.72646653675094,0.84281518008304,1270536,32768,0.0058432395807622,0.0058432395807623,0.0058432395807623,29.082801569487,29.081704623438,0.0001478624125559,0.0001478624125559,0.0001478624125559,319552.86086861,0.017684494582621
33350400,0.99999518774636,0.017088443205347,0.0056961477351155,0.0056961477351156,0.0056961477351156,-0.0014068148565472,0.0014068148565472,-1.0352624910886e-17,-4.9998472580983e-18,3.1493155552774e-16,-3.3328393605159e-16,-0.0014409235895113,0.0014409235895115,-0.0014409235895113,0.0014409235895115,-0.0014409235895115,0.0014409235895113,-0.0014409235895115,0.0014409235895113,-0.0013832924411695,0.0013832924411692,-0.0013832924411695,0.0013832924411692,-2.9363808838149e-16,3.5237158823103e-16,2.2234614865425e-17,3.1234339930002e-17,-0.0014068148565472,0.0014068148565472,-0.0014409235895115,0.0014409235895113,-0.0014409235895115,0.0014409235895113,-0.0014409235895112,0.0014409235895115,-0.0014409235895112,0.0014409235895115,-0.0013832924411692,0.0013832924411694,-0.0013832924411692,0.0013832924411695,-0.0013832924411697,0.0013832924411691,-0.0013832924411691,0.0013832924411698,-1.8528845721188e-18,-6.9409644288894e-18,-0.0014068148565472,0.0014068148565472,-1.7646519734465e-19,-8.0879882116296e-18,-0.0014409235895114,0.0014409235895114,-0.0014409235895114,0.0014409235895114,-0.0014409235895114,0.0014409235895114,-0.0014409235895114,0.0014409235895114,-0.0013832924411694,0.0013832924411694,-0.0013832924411694,0.0013832924411694,0.73970936362517,0.86433227124355,1270536,32768,0.0058445696147146,0.0058445696147146,0.0058445696147146,29.205063382163,29.21292082576,0.0001488405070573,0.0001488405070573,0.0001488405070573,316041.61009597,0.017688555509114
33436800,0.9999953643996,0.017088446519114,0.0056961488397046,0.0056961488397047,0.0056961488397047,-0.001407136106688,0.0014071361066879,-1.8293558791395e-17,-1.2705494208815e-17,3.0846116495844e-16,-3.4019548961425e-16,-0.0014412288797212,0.0014412288797213,-0.0014412288797212,0.0014412288797214,-0.0014412288797214,0.0014412288797211,-0.0014412288797214,0.0014412288797211,-0.001383617024801,0.0013836170248008,-0.001383617024801,0.0013836170248008,-3.03284852503e-16,3.4346009576513e-16,1.3793696259106e-17,2.3116940852149e-17,-0.001407136106688,0.001407136106688,-0.0014412288797213,0.0014412288797211,-0.0014412288797213,0.0014412288797211,-0.0014412288797211,0.0014412288797213,-0.0014412288797211,0.0014412288797214,-0.0013836170248008,0.001383617024801,-0.0013836170248008,0.001383617024801,-0.0013836170248012,0.0013836170248007,-0.0013836170248006,0.0013836170248013,-6.7644992315448e-19,-5.8527623785974e-18,-0.001407136106688,0.001407136106688,1.4705433112054e-18,-6.823320963993e-18,-0.0014412288797212,0.0014412288797212,-0.0014412288797213,0.0014412288797212,-0.0014412288797212,0.0014412288797212,-0.0014412288797213,0.0014412288797212,-0.0013836170248009,0.0013836170248009,-0.0013836170248009,0.0013836170248009,0.75265121792539,0.88584936240406,1270536,32768,0.0058459002795778,0.0058459002795779,0.0058459002795779,29.335451448215,29.344137028083,0.00014988361158572,0.00014988361158572,0.00014988361158572,313009.80025462,0.017692618401581
33523200,0.9999955358407,0.017088449790309,0.0056961499301031,0.0056961499301032,0.0056961499301032,-0.0014074500706372,0.0014074500706372,-1.2205509483005e-17,-6.7644992315448e-18,3.1363747741388e-16,-3.353721075535e-16,-0.0014415321106175,0.0014415321106176,-0.0014415321106175,0.0014415321106177,-0.0014415321106177,0.0014415321106174,-0.0014415321106177,0.0014415321106174,-0.0013839331140207,0.0013839331140204,-0.0013839331140207,0.0013839331140204,-2.9910850949918e-16,3.4801878002987e-16,1.6617139416621e-17,2.6822709996386e-17,-0.0014074500706372,0.0014074500706373,-0.0014415321106176,0.0014415321106175,-0.0014415321106177,0.0014415321106174,-0.0014415321106174,0.0014415321106177,-0.0014415321106174,0.0014415321106177,-0.0013839331140204,0.0013839331140206,-0.0013839331140204,0.0013839331140207,-0.0013839331140208,0.0013839331140203,-0.0013839331140202,0.0013839331140209,-3.4410713482206e-18,-8.9409033321287e-18,-0.0014074500706372,0.0014074500706372,-1.352899846309e-18,-1.0823198770472e-17,-0.0014415321106176,0.0014415321106175,-0.0014415321106176,0.0014415321106175,-0.0014415321106175,0.0014415321106175,-0.0014415321106176,0.0014415321106175,-0.0013839331140205,0.0013839331140205,-0.0013839331140205,0.0013839331140205,0.76555207298246,0.90736645356456,1270536,32768,0.0058472007666622,0.0058472007666623,0.0058472007666623,29.466582766148,29.475353230405,0.00015093266212918,0.00015093266212918,0.00015093266212918,310160.4741818,0.017696589159883
33609600,0.99999570217529,0.017088452964851,0.0056961509882836,0.0056961509882837,0.0056961509882837,-0.0014077584741508,0.0014077584741508,-1.2146687750556e-17,-6.558623167976e-18,3.1410805127347e-16,-3.3481330109524e-16,-0.0014418328540776,0.0014418328540778,-0.0014418328540776,0.0014418328540778,-0.0014418328540779,0.0014418328540776,-0.0014418328540779,0.0014418328540776,-0.0013842431856872,0.001384243185687,-0.0013842431856872,0.001384243185687,-2.9952026162631e-16,3.4722468664182e-16,1.5940689493466e-17,2.6028616608335e-17,-0.0014077584741508,0.0014077584741509,-0.0014418328540778,0.0014418328540776,-0.0014418328540778,0.0014418328540776,-0.0014418328540776,0.0014418328540778,-0.0014418328540776,0.0014418328540778,-0.001384243185687,0.0013842431856872,-0.001384243185687,0.0013842431856872,-0.0013842431856874,0.0013842431856869,-0.0013842431856868,0.0013842431856875,4.4116299336162e-19,-4.9410255256501e-18,-0.0014077584741508,0.0014077584741508,1.9411171707911e-18,-7.2056622249064e-18,-0.0014418328540777,0.0014418328540777,-0.0014418328540777,0.0014418328540777,-0.0014418328540777,0.0014418328540777,-0.0014418328540777,0.0014418328540777,-0.0013842431856871,0.0013842431856871,-0.0013842431856871,0.0013842431856871,0.76570876870888,0.85812931190057,1270536,32768,0.0058484782239058,0.0058484782239059,0.0058484782239059,29.597787216045,29.606569432728,0.00015198229772836,0.00015198229772836,0.00015198229772836,307401.19253507,0.017700489606694
33696000,0.99999586350783,0.017088456120127,0.0056961520400422,0.0056961520400423,0.0056961520400423,-0.0014079444588974,0.0014079444588974,-7.9703447467332e-18,-2.5587453614974e-18,3.1810792907995e-16,-3.3125458628212e-16,-0.0014420538566541,0.0014420538566543,-0.0014420538566541,0.0014420538566543,-0.0014420538566543,0.0014420538566541,-0.0014420538566543,0.001442053856654,-0.0013843941724037,0.0013843941724035,-0.0013843941724037,0.0013843941724035,-2.9975554855611e-16,3.4760702790273e-16,1.6234798155707e-17,2.7116818658627e-17,-0.0014079444588974,0.0014079444588974,-0.0014420538566543,0.0014420538566541,-0.0014420538566543,0.0014420538566541,-0.001442053856654,0.0014420538566543,-0.001442053856654,0.0014420538566543,-0.0013843941724035,0.0013843941724037,-0.0013843941724035,0.0013843941724037,-0.0013843941724039,0.0013843941724033,-0.0013843941724033,0.001384394172404,2.4116910303768e-18,-3.0293192210831e-18,-0.0014079444588974,0.0014079444588974,4.7351494620813e-18,-5.5292428501322e-18,-0.0014420538566542,0.0014420538566542,-0.0014420538566542,0.0014420538566542,-0.0014420538566542,0.0014420538566542,-0.0014420538566542,0.0014420538566542,-0.0013843941724036,0.0013843941724036,-0.0013843941724036,0.0013843941724036,0.78465290720277,0.94143566578773,1270536,32768,0.0058492485914556,0.0058492485914557,0.0058492485914557,29.728998993067,29.73778563505,0.00015303199194453,0.00015303199194453,0.00015303199194453,308384.67138836,0.017702841596296
33782400,0.99999601994219,0.01708845919893,0.0056961530663099,0.0056961530663099,0.0056961530663099,-0.0014083250577822,0.0014083250577821,-1.138200522873e-17,-5.8233515123733e-18,3.1528448592243e-16,-3.3443095983433e-16,-0.0014424009297647,0.0014424009297649,-0.0014424009297647,0.0014424009297649,-0.0014424009297649,0.0014424009297647,-0.0014424009297649,0.0014424009297647,-0.001384808003911,0.0013848080039108,-0.001384808003911,0.0013848080039108,-2.9740267925818e-16,3.5034223846157e-16,1.8499434854964e-17,3.0440246541951e-17,-0.0014083250577821,0.0014083250577822,-0.0014424009297649,0.0014424009297647,-0.0014424009297649,0.0014424009297647,-0.0014424009297646,0.0014424009297649,-0.0014424009297647,0.0014424009297649,-0.0013848080039108,0.001384808003911,-0.0013848080039108,0.001384808003911,-0.0013848080039112,0.0013848080039106,-0.0013848080039106,0.0013848080039113,-1.3234889800848e-18,-6.3527471044073e-18,-0.0014083250577822,0.0014083250577822,1.8528845721188e-18,-9.3232445930421e-18,-0.0014424009297648,0.0014424009297648,-0.0014424009297648,0.0014424009297648,-0.0014424009297648,0.0014424009297648,-0.0014424009297648,0.0014424009297648,-0.0013848080039109,0.0013848080039109,-0.0013848080039109,0.0013848080039109,0.78961215248247,0.9123616557077,1270536,32768,0.0058508251387997,0.0058508251387998,0.0058508251387998,29.860211507689,29.869001837372,0.00015408169206151,0.00015408169206151,0.00015408169206151,303415.91039459,0.017707655320302
33868800,0.99999617158166,0.017088462128953,0.0056961540429843,0.0056961540429844,0.0056961540429844,-0.0014085514316779,0.0014085514316779,-1.0734966171799e-17,-5.3821885190117e-18,3.1610799017671e-16,-3.3404861857341e-16,-0.001442647209804,0.0014426472098042,-0.001442647209804,0.0014426472098042,-0.0014426472098042,0.001442647209804,-0.0014426472098042,0.001442647209804,-0.0013850130682572,0.0013850130682569,-0.0013850130682572,0.0013850130682569,-2.9746150099062e-16,3.5063634712381e-16,1.8234737058947e-17,3.0116727013486e-17,-0.0014085514316779,0.001408551431678,-0.0014426472098042,0.001442647209804,-0.0014426472098042,0.001442647209804,-0.0014426472098039,0.0014426472098042,-0.0014426472098039,0.0014426472098042,-0.0013850130682569,0.0013850130682571,-0.0013850130682569,0.0013850130682572,-0.0013850130682573,0.0013850130682568,-0.0013850130682567,0.0013850130682574,-1.2058455151884e-18,-6.4115688368555e-18,-0.0014085514316779,0.0014085514316779,2.6175670939456e-18,-8.3526860076466e-18,-0.0014426472098041,0.0014426472098041,-0.0014426472098041,0.0014426472098041,-0.0014426472098041,0.0014426472098041,-0.0014426472098041,0.0014426472098041,-0.001385013068257,0.001385013068257,-0.001385013068257,0.001385013068257,0.77515061088173,0.79912606441466,1270536,32768,0.0058517628086557,0.0058517628086558,0.0058517628086558,29.99142409637,30.000218039695,0.00015513139277096,0.00015513139277096,0.00015513139277096,303030.81008223,0.017710518205599
33955200,0.99999631852891,0.017088464940404,0.0056961549801347,0.0056961549801348,0.0056961549801348,-0.0014086078154221,0.0014086078154221,-1.088202050292e-17,-5.470421117684e-18,3.1551977285223e-16,-3.3446037070055e-16,-0.0014427820180934,0.0014427820180936,-0.0014427820180934,0.0014427820180936,-0.0014427820180937,0.0014427820180934,-0.0014427820180937,0.0014427820180934,-0.0013850004552752,0.0013850004552749,-0.0013850004552752,0.0013850004552749,-2.9769678792042e-16,3.5066575799004e-16,1.7440643670896e-17,3.0175548745934e-17,-0.0014086078154221,0.0014086078154221,-0.0014427820180936,0.0014427820180934,-0.0014427820180936,0.0014427820180934,-0.0014427820180934,0.0014427820180936,-0.0014427820180934,0.0014427820180937,-0.0013850004552749,0.0013850004552752,-0.0013850004552749,0.0013850004552752,-0.0013850004552754,0.0013850004552748,-0.0013850004552748,0.0013850004552755,-3.264606150876e-18,-8.3526860076466e-18,-0.0014086078154221,0.0014086078154221,5.5880645825805e-19,-1.1058485700264e-17,-0.0014427820180935,0.0014427820180935,-0.0014427820180935,0.0014427820180935,-0.0014427820180935,0.0014427820180935,-0.0014427820180935,0.0014427820180935,-0.0013850004552751,0.0013850004552751,-0.0013850004552751,0.0013850004552751,0.76751444513964,0.77434335722282,1270536,32768,0.0058519963579118,0.0058519963579119,0.0058519963579119,30.122636692169,30.131434242017,0.00015618109353735,0.00015618109353735,0.00015618109353735,307961.50377365,0.017711230914478
34041600,0.99999646098096,0.017088467639469,0.0056961558798231,0.0056961558798231,0.0056961558798231,-0.0014087942723034,0.0014087942723033,-1.252902901147e-17,-7.1762513586823e-18,3.1428451647081e-16,-3.3604855747665e-16,-0.0014430049882483,0.0014430049882485,-0.0014430049882484,0.0014430049882485,-0.0014430049882486,0.0014430049882483,-0.0014430049882486,0.0014430049882483,-0.0013851659093874,0.0013851659093872,-0.0013851659093874,0.0013851659093872,-2.9993201375345e-16,3.4845994302323e-16,1.5764224296122e-17,2.8793238033401e-17,-0.0014087942723034,0.0014087942723034,-0.0014430049882485,0.0014430049882483,-0.0014430049882485,0.0014430049882483,-0.0014430049882483,0.0014430049882485,-0.0014430049882483,0.0014430049882486,-0.0013851659093872,0.0013851659093874,-0.0013851659093872,0.0013851659093874,-0.0013851659093876,0.0013851659093871,-0.001385165909387,0.0013851659093877,-1.1764346489643e-19,-5.4115993852358e-18,-0.0014087942723034,0.0014087942723034,3.2940170171001e-18,-8.9114924659046e-18,-0.0014430049882484,0.0014430049882484,-0.0014430049882484,0.0014430049882484,-0.0014430049882484,0.0014430049882484,-0.0014430049882484,0.0014430049882484,-0.0013851659093873,0.0013851659093873,-0.0013851659093873,0.0013851659093873,0.76011153648682,0.75098643361818,1270536,32768,0.0058527687701112,0.0058527687701112,0.0058527687701112,30.265685518823,30.275253776393,0.00015732548415058,0.00015732548415058,0.00015732548415058,309889.19462277,0.017713588965154
34128000,0.99999660002095,0.017088470246757,0.0056961567489189,0.005696156748919,0.005696156748919,-0.0014092391143597,0.0014092391143597,-1.1411416094954e-17,-5.8233515123733e-18,3.1422569473837e-16,-3.3325452518536e-16,-0.0014434743400668,0.001443474340067,-0.0014434743400668,0.001443474340067,-0.001443474340067,0.0014434743400668,-0.001443474340067,0.0014434743400668,-0.001385598458356,0.0013855984583557,-0.001385598458356,0.0013855984583557,-2.9946143989386e-16,3.459894302604e-16,1.4940720041847e-17,2.8705005434729e-17,-0.0014092391143597,0.0014092391143597,-0.001443474340067,0.0014434743400668,-0.001443474340067,0.0014434743400668,-0.0014434743400668,0.001443474340067,-0.0014434743400668,0.0014434743400671,-0.0013855984583557,0.0013855984583559,-0.0013855984583557,0.001385598458356,-0.0013855984583561,0.0013855984583556,-0.0013855984583555,0.0013855984583562,2.5881562277215e-18,-2.5587453614974e-18,-0.0014092391143597,0.0014092391143597,6.7350883653207e-18,-6.0880493083903e-18,-0.0014434743400669,0.0014434743400669,-0.001443474340067,0.0014434743400669,-0.0014434743400669,0.0014434743400669,-0.0014434743400669,0.0014434743400669,-0.0013855984583558,0.0013855984583558,-0.0013855984583558,0.0013855984583558,0.75228474423239,0.72762951001354,1270536,32768,0.0058546115178615,0.0058546115178615,0.0058546115178615,30.535933519722,30.553782449215,0.00015948746815777,0.00015948746815777,0.00015948746815777,311454.92062125,0.017719214868805
34214400,0.99999673569914,0.017088472744197,0.0056961575813989,0.0056961575813989,0.0056961575813989,-0.0014097025972263,0.0014097025972263,-1.1734935623419e-17,-6.1762819070626e-18,3.1446098166816e-16,-3.3543092928595e-16,-0.00144396079412,0.0014439607941202,-0.00144396079412,0.0014439607941202,-0.0014439607941203,0.00144396079412,-0.0014439607941202,0.00144396079412,-0.001386050077752,0.0013860500777518,-0.001386050077752,0.0013860500777518,-2.9763796618797e-16,3.4998930806688e-16,1.6764193747741e-17,3.0557890006848e-17,-0.0014097025972263,0.0014097025972263,-0.0014439607941202,0.0014439607941201,-0.0014439607941202,0.00144396079412,-0.00144396079412,0.0014439607941203,-0.00144396079412,0.0014439607941203,-0.0013860500777518,0.001386050077752,-0.0013860500777518,0.001386050077752,-0.0013860500777522,0.0013860500777517,-0.0013860500777516,0.0013860500777523,2.9116757561867e-18,-2.4116910303768e-18,-0.0014097025972263,0.0014097025972263,5.8233515123733e-18,-6.7644992315448e-18,-0.0014439607941202,0.0014439607941201,-0.0014439607941202,0.0014439607941201,-0.0014439607941201,0.0014439607941202,-0.0014439607941202,0.0014439607941201,-0.0013860500777519,0.0013860500777519,-0.0013860500777519,0.0013860500777519,0.73844655541518,0.67431668349713,1270536,32768,0.0058565314710755,0.0058565314710756,0.0058565314710756,30.8136817624,30.832311122036,0.0001617094540992,0.0001617094540992,0.0001617094540992,313121.10726552,0.017725076572506
34300800,0.99999686801167,0.017088475118559,0.0056961583728528,0.0056961583728529,0.0056961583728529,-0.0014101115152675,0.0014101115152675,-7.5291817533716e-18,-2.3528692979286e-18,3.1822557254484e-16,-3.3248984266354e-16,-0.0014444098581363,0.0014444098581365,-0.0014444098581363,0.0014444098581365,-0.0014444098581365,0.0014444098581363,-0.0014444098581365,0.0014444098581363,-0.0013864305653076,0.0013864305653073,-0.0013864305653076,0.0013864305653073,-3.0469657408176e-16,3.4393066962472e-16,1.0470268375782e-17,2.3881623373975e-17,-0.0014101115152675,0.0014101115152675,-0.0014444098581365,0.0014444098581363,-0.0014444098581365,0.0014444098581363,-0.0014444098581362,0.0014444098581365,-0.0014444098581363,0.0014444098581365,-0.0013864305653073,0.0013864305653076,-0.0013864305653073,0.0013864305653076,-0.0013864305653078,0.0013864305653072,-0.0013864305653072,0.0013864305653078,-5.0292581243224e-18,-1.0205570579765e-17,-0.0014101115152675,0.0014101115152675,-1.088202050292e-18,-1.3381944131969e-17,-0.0014444098581364,0.0014444098581364,-0.0014444098581364,0.0014444098581364,-0.0014444098581364,0.0014444098581364,-0.0014444098581364,0.0014444098581364,-0.0013864305653075,0.0013864305653075,-0.0013864305653075,0.0013864305653075,0.71991240237977,0.61110028707412,1270536,32768,0.0058582254017679,0.005858225401768,0.005858225401768,31.092118540687,31.110839794858,0.0001639369483255,0.0001639369483255,0.0001639369483255,316672.07811649,0.017730248091946
34387200,0.99999699695317,0.01708847743242,0.0056961591441401,0.0056961591441401,0.0056961591441401,-0.0014104864098938,0.0014104864098938,-1.2352563814125e-17,-7.1174296262341e-18,3.1375512087878e-16,-3.36225022674e-16,-0.0014448336874179,0.001444833687418,-0.0014448336874179,0.0014448336874181,-0.0014448336874181,0.0014448336874178,-0.0014448336874181,0.0014448336874178,-0.0013867708823085,0.0013867708823082,-0.0013867708823085,0.0013867708823082,-2.9781443138531e-16,3.5037164932779e-16,1.7352411072224e-17,3.0087316147262e-17,-0.0014104864098938,0.0014104864098938,-0.001444833687418,0.0014448336874178,-0.001444833687418,0.0014448336874178,-0.0014448336874178,0.001444833687418,-0.0014448336874178,0.0014448336874181,-0.0013867708823082,0.0013867708823085,-0.0013867708823082,0.0013867708823085,-0.0013867708823086,0.0013867708823081,-0.0013867708823081,0.0013867708823087,-2.3822801641527e-18,-7.8232904156126e-18,-0.0014104864098938,0.0014104864098938,-5.8821732448215e-20,-1.1411416094954e-17,-0.0014448336874179,0.0014448336874179,-0.0014448336874179,0.0014448336874179,-0.0014448336874179,0.0014448336874179,-0.0014448336874179,0.0014448336874179,-0.0013867708823084,0.0013867708823083,-0.0013867708823084,0.0013867708823083,0.7199460920701,0.66690379671628,1270536,32768,0.0058597784148665,0.0058597784148666,0.0058597784148666,31.370623336428,31.389368467679,0.00016616498669142,0.00016616498669142,0.00016616498669142,321530.89399094,0.017734989275988
34473600,0.99999712252141,0.017088479706512,0.0056961599021705,0.0056961599021706,0.0056961599021706,-0.0014110907361298,0.0014110907361297,-7.7938795493885e-18,-2.6175670939456e-18,3.1822557254484e-16,-3.3266630786088e-16,-0.0014454045751075,0.0014454045751077,-0.0014454045751075,0.0014454045751077,-0.0014454045751077,0.0014454045751075,-0.0014454045751077,0.0014454045751075,-0.0013874159155579,0.0013874159155576,-0.0013874159155579,0.0013874159155576,-2.9904968776673e-16,3.4987166460198e-16,1.7117124142431e-17,2.7557981651989e-17,-0.0014110907361297,0.0014110907361298,-0.0014454045751077,0.0014454045751075,-0.0014454045751077,0.0014454045751075,-0.0014454045751074,0.0014454045751077,-0.0014454045751074,0.0014454045751077,-0.0013874159155576,0.0013874159155578,-0.0013874159155576,0.0013874159155578,-0.0013874159155581,0.0013874159155575,-0.0013874159155574,0.0013874159155581,-6.5292123017519e-18,-1.1911400820764e-17,-0.0014110907361298,0.0014110907361298,-4.4998625322885e-18,-1.3911339724003e-17,-0.0014454045751076,0.0014454045751076,-0.0014454045751076,0.0014454045751076,-0.0014454045751076,0.0014454045751076,-0.0014454045751076,0.0014454045751076,-0.0013874159155578,0.0013874159155577,-0.0013874159155577,0.0013874159155577,0.72663150875782,0.72270730635844,1270536,32768,0.0058622818030992,0.0058622818030993,0.0058622818030993,31.649134973848,31.667897140501,0.00016839307979079,0.00016839307979079,0.00016839307979079,319445.91880158,0.01774263264411
34560000,0.99999724471772,0.017088481953671,0.0056961606512236,0.0056961606512236,0.0056961606512236,-0.0014117341977324,0.0014117341977324,-7.5585926195957e-18,-2.4116910303768e-18,3.1869614640443e-16,-3.3148987321192e-16,-0.0014460014065777,0.0014460014065779,-0.0014460014065777,0.0014460014065779,-0.0014460014065779,0.0014460014065777,-0.001446001406578,0.0014460014065777,-0.0013881014461642,0.001388101446164,-0.0013881014461642,0.001388101446164,-2.9428512743842e-16,3.5360684461245e-16,2.1528754076047e-17,3.1469626859795e-17,-0.0014117341977324,0.0014117341977325,-0.0014460014065779,0.0014460014065777,-0.0014460014065779,0.0014460014065777,-0.0014460014065777,0.0014460014065779,-0.0014460014065777,0.001446001406578,-0.001388101446164,0.0013881014461642,-0.001388101446164,0.0013881014461642,-0.0013881014461644,0.0013881014461639,-0.0013881014461638,0.0013881014461645,-5.0880798567706e-18,-1.0176159713541e-17,-0.0014117341977324,0.0014117341977324,-3.3234278833242e-18,-1.2146687750556e-17,-0.0014460014065778,0.0014460014065778,-0.0014460014065779,0.0014460014065778,-0.0014460014065778,0.0014460014065778,-0.0014460014065779,0.0014460014065778,-0.0013881014461641,0.0013881014461641,-0.0013881014461641,0.0013881014461641,0.73783818121123,0.7785108160006,1270536,32768,0.0058649472435411,0.0058649472435411,0.0058649472435411,31.927647300223,31.946425813322,0.00017062117840178,0.00017062117840178,0.00017062117840178,316016.8247174,0.017750771014941
34646400,0.999997363547,0.017088484182331,0.0056961613941102,0.0056961613941102,0.0056961613941102,-0.0014123932990462,0.0014123932990462,-9.6173532552832e-18,-4.7351494620813e-18,3.1593152497936e-16,-3.3360745558005e-16,-0.0014466116476916,0.0014466116476918,-0.0014466116476916,0.0014466116476918,-0.0014466116476918,0.0014466116476916,-0.0014466116476918,0.0014466116476916,-0.0013887982698556,0.0013887982698554,-0.0013887982698557,0.0013887982698554,-2.932851579868e-16,3.5422447280315e-16,2.3234584317045e-17,3.4116604819965e-17,-0.0014123932990462,0.0014123932990462,-0.0014466116476918,0.0014466116476916,-0.0014466116476918,0.0014466116476916,-0.0014466116476916,0.0014466116476918,-0.0014466116476916,0.0014466116476919,-0.0013887982698554,0.0013887982698557,-0.0013887982698554,0.0013887982698557,-0.0013887982698558,0.0013887982698553,-0.0013887982698552,0.0013887982698559,4.9998472580983e-19,-4.3233973349438e-18,-0.0014123932990462,0.0014123932990462,3.0881409535313e-18,-7.1468404924582e-18,-0.0014466116476917,0.0014466116476917,-0.0014466116476917,0.0014466116476917,-0.0014466116476917,0.0014466116476917,-0.0014466116476917,0.0014466116476917,-0.0013887982698555,0.0013887982698555,-0.0013887982698555,0.0013887982698555,0.75248764287996,0.83431432564276,1270536,32768,0.0058676774232465,0.0058676774232465,0.0058676774232465,32.206159693032,32.224954486144,0.00017284927754425,0.00017284927754425,0.00017284927754425,311946.24096567,0.017759107216328
34732800,0.9999974797661,0.017088486412638,0.005696162137546,0.005696162137546,0.005696162137546,-0.0014132839044775,0.0014132839044775,-2.0440552025755e-17,-1.5293650436536e-17,3.0516714794134e-16,-3.4322480883534e-16,-0.0014474523637101,0.0014474523637102,-0.0014474523637101,0.0014474523637102,-0.0014474523637103,0.00144745236371,-0.0014474523637103,0.00144745236371,-0.0013897234957763,0.001389723495776,-0.0013897234957763,0.0013897234957761,-2.7952087259392e-16,3.6637116055371e-16,3.6322419786773e-17,4.7410316353262e-17,-0.0014132839044774,0.0014132839044775,-0.0014474523637102,0.0014474523637101,-0.0014474523637102,0.0014474523637101,-0.00144745236371,0.0014474523637103,-0.00144745236371,0.0014474523637103,-0.001389723495776,0.0013897234957763,-0.001389723495776,0.0013897234957763,-0.0013897234957764,0.0013897234957759,-0.0013897234957758,0.0013897234957765,6.7056774990965e-18,1.2352563814125e-18,-0.0014132839044775,0.0014132839044775,8.4409186063189e-18,-1.8528845721188e-18,-0.0014474523637102,0.0014474523637102,-0.0014474523637102,0.0014474523637102,-0.0014474523637101,0.0014474523637102,-0.0014474523637102,0.0014474523637101,-0.0013897234957761,0.0013897234957762,-0.0013897234957761,0.0013897234957762,0.76992831451389,0.89011783528492,1270536,32768,0.0058713665332005,0.0058713665332005,0.0058713665332005,32.601629587374,32.628077333204,0.00017601303669899,0.00017601303669899,0.00017601303669899,307427.18491703,0.017770371403941
34819200,0.99999759361094,0.017088488597913,0.005696162865971,0.005696162865971,0.005696162865971,-0.0014142680592117,0.0014142680592117,-1.2323152947901e-17,-6.7056774990965e-18,3.1375512087878e-16,-3.3490153369391e-16,-0.00144839217381,0.0014483921738101,-0.00144839217381,0.0014483921738102,-0.0014483921738102,0.0014483921738099,-0.0014483921738102,0.0014483921738099,-0.0013907362480963,0.001390736248096,-0.0013907362480963,0.001390736248096,-3.0469657408176e-16,3.4228366111617e-16,1.1323183496281e-17,2.0440552025755e-17,-0.0014142680592117,0.0014142680592118,-0.0014483921738102,0.00144839217381,-0.0014483921738102,0.00144839217381,-0.0014483921738099,0.0014483921738102,-0.0014483921738099,0.0014483921738102,-0.001390736248096,0.0013907362480963,-0.0013907362480961,0.0013907362480963,-0.0013907362480964,0.0013907362480959,-0.0013907362480958,0.0013907362480965,-4.2939864687197e-18,-9.7644075864037e-18,-0.0014142680592118,0.0014142680592117,-2.7646214250661e-18,-1.0940842235368e-17,-0.0014483921738101,0.0014483921738101,-0.0014483921738101,0.0014483921738101,-0.0014483921738101,0.0014483921738101,-0.0014483921738101,0.00144839217381,-0.0013907362480961,0.0013907362480961,-0.0013907362480961,0.0013907362480961,0.77007097022586,0.83758763975058,1270536,32768,0.0058754431093533,0.0058754431093533,0.0058754431093533,33.045180413504,33.075063064154,0.00017956144330803,0.00017956144330803,0.00017956144330803,302767.31108677,0.017782818860053
34905600,0.99999770501055,0.017088490730017,0.0056961635766723,0.0056961635766723,0.0056961635766723,-0.0014150760469483,0.0014150760469483,-1.5881867761018e-18,4.0586995389269e-18,3.2616650642535e-16,-3.2331365240162e-16,-0.0014492232087674,0.0014492232087676,-0.0014492232087674,0.0014492232087676,-0.0014492232087676,0.0014492232087674,-0.0014492232087676,0.0014492232087674,-0.0013915128649965,0.0013915128649963,-0.0013915128649965,0.0013915128649963,-2.8563833276853e-16,3.6154777849296e-16,3.1616681190916e-17,4.1351677911095e-17,-0.0014150760469483,0.0014150760469484,-0.0014492232087675,0.0014492232087674,-0.0014492232087676,0.0014492232087674,-0.0014492232087673,0.0014492232087676,-0.0014492232087673,0.0014492232087676,-0.0013915128649963,0.0013915128649965,-0.0013915128649963,0.0013915128649966,-0.0013915128649967,0.0013915128649962,-0.0013915128649961,0.0013915128649968,1.4705433112054e-18,-3.8528234753581e-18,-0.0014150760469483,0.0014150760469483,3.558714813117e-18,-5.3821885190117e-18,-0.0014492232087675,0.0014492232087675,-0.0014492232087675,0.0014492232087675,-0.0014492232087675,0.0014492232087675,-0.0014492232087675,0.0014492232087675,-0.0013915128649964,0.0013915128649964,-0.0013915128649964,0.0013915128649964,0.76778386198325,0.80613688129707,1270536,32768,0.005878789942358,0.0058787899423581,0.0058787899423581,33.491803882047,33.522048795105,0.00018313443105638,0.00018313443105638,0.00018313443105638,303611.53846312,0.01779303793981
34992000,0.99999781388028,0.017088492785606,0.0056961642618686,0.0056961642618687,0.0056961642618687,-0.00141588206085,0.00141588206085,-1.0323214044662e-17,-4.2351647362715e-18,3.1734324655812e-16,-3.3287218392445e-16,-0.001450053992506,0.0014500539925062,-0.0014500539925061,0.0014500539925063,-0.0014500539925063,0.001450053992506,-0.0014500539925063,0.001450053992506,-0.0013922950126812,0.0013922950126809,-0.0013922950126812,0.0013922950126809,-2.9757914445552e-16,3.5066575799004e-16,1.8205326192723e-17,2.8910881498298e-17,-0.00141588206085,0.00141588206085,-0.0014500539925062,0.001450053992506,-0.0014500539925062,0.001450053992506,-0.001450053992506,0.0014500539925062,-0.001450053992506,0.0014500539925063,-0.0013922950126809,0.0013922950126812,-0.0013922950126809,0.0013922950126812,-0.0013922950126814,0.0013922950126808,-0.0013922950126807,0.0013922950126814,-8.205631676526e-18,-1.4117215787572e-17,-0.00141588206085,0.00141588206085,-6.558623167976e-18,-1.5881867761018e-17,-0.0014500539925062,0.0014500539925061,-0.0014500539925062,0.0014500539925061,-0.0014500539925061,0.0014500539925061,-0.0014500539925061,0.0014500539925061,-0.001392295012681,0.001392295012681,-0.001392295012681,0.001392295012681,0.75742715833161,0.74465079368024,1270536,32768,0.0058821286270968,0.0058821286270968,0.0058821286270968,33.938715602012,33.969034526055,0.0001867097248161,0.0001867097248161,0.0001867097248161,304633.16599443,0.017803232182679
35078400,0.99999792013937,0.017088494764058,0.0056961649213525,0.0056961649213525,0.0056961649213525,-0.0014166223869876,0.0014166223869875,-1.1646703024747e-17,-5.8233515123733e-18,3.1622563364161e-16,-3.3401920770719e-16,-0.0014508401361555,0.0014508401361557,-0.0014508401361555,0.0014508401361557,-0.0014508401361557,0.0014508401361555,-0.0014508401361557,0.0014508401361555,-0.0013929966779588,0.0013929966779586,-0.0013929966779588,0.0013929966779586,-2.948733447629e-16,3.5363625547867e-16,2.0440552025755e-17,3.064612260552e-17,-0.0014166223869875,0.0014166223869876,-0.0014508401361557,0.0014508401361555,-0.0014508401361557,0.0014508401361555,-0.0014508401361554,0.0014508401361557,-0.0014508401361554,0.0014508401361557,-0.0013929966779586,0.0013929966779588,-0.0013929966779586,0.0013929966779588,-0.001392996677959,0.0013929966779585,-0.0013929966779584,0.0013929966779591,-8.5585620712153e-18,-1.3940750590227e-17,-0.0014166223869876,0.0014166223869876,-6.7350883653207e-18,-1.5764224296122e-17,-0.0014508401361556,0.0014508401361556,-0.0014508401361556,0.0014508401361556,-0.0014508401361556,0.0014508401361556,-0.0014508401361556,0.0014508401361556,-0.0013929966779587,0.0013929966779587,-0.0013929966779587,0.0013929966779587,0.74691349119805,0.70622966914048,1270536,32768,0.0058851952341919,0.0058851952341919,0.0058851952341919,34.385656100666,34.416020257006,0.00019028524880532,0.00019028524880532,0.00019028524880532,307779.19068549,0.017812595577374
35164800,0.9999980237128,0.017088496661261,0.0056961655537535,0.0056961655537536,0.0056961655537536,-0.001417384443359,0.001417384443359,-1.2587850743918e-17,-7.0291970275617e-18,3.1410805127347e-16,-3.3522505322238e-16,-0.0014516375316155,0.0014516375316157,-0.0014516375316155,0.0014516375316157,-0.0014516375316157,0.0014516375316155,-0.0014516375316157,0.0014516375316155,-0.0013937343706801,0.0013937343706798,-0.0013937343706801,0.0013937343706798,-3.0175548745934e-16,3.4516592600613e-16,1.2940781138607e-17,2.3793390775303e-17,-0.001417384443359,0.001417384443359,-0.0014516375316157,0.0014516375316155,-0.0014516375316157,0.0014516375316155,-0.0014516375316154,0.0014516375316157,-0.0014516375316154,0.0014516375316157,-0.0013937343706798,0.00139373437068,-0.0013937343706798,0.00139373437068,-0.0013937343706802,0.0013937343706797,-0.0013937343706796,0.0013937343706803,3.1175518197554e-18,-2.4999236290492e-18,-0.001417384443359,0.001417384443359,5.8821732448215e-18,-4.2645756024956e-18,-0.0014516375316156,0.0014516375316156,-0.0014516375316156,0.0014516375316156,-0.0014516375316156,0.0014516375316156,-0.0014516375316156,0.0014516375316156,-0.0013937343706799,0.00139373437068,-0.0013937343706799,0.0013937343706799,0.73482725107624,0.66780854460072,1270536,32768,0.0058883518717351,0.0058883518717352,0.0058883518717352,34.832599506838,34.863005987957,0.0001938607960547,0.0001938607960547,0.0001938607960547,310452.99221462,0.017822233954495
35251200,0.9999981245318,0.017088498473945,0.0056961661579817,0.0056961661579818,0.0056961661579818,-0.0014181440126166,0.0014181440126166,-1.302901373728e-17,-7.1468404924582e-18,3.1128460811596e-16,-3.3648972047002e-16,-0.0014524299815547,0.0014524299815549,-0.0014524299815547,0.0014524299815549,-0.0014524299815549,0.0014524299815547,-0.0014524299815549,0.0014524299815547,-0.001394472601856,0.0013944726018557,-0.001394472601856,0.0013944726018557,-3.0375542636258e-16,3.4225425024994e-16,1.1146718298937e-17,2.1528754076047e-17,-0.0014181440126166,0.0014181440126166,-0.0014524299815549,0.0014524299815547,-0.0014524299815549,0.0014524299815547,-0.0014524299815546,0.0014524299815549,-0.0014524299815546,0.0014524299815549,-0.0013944726018557,0.001394472601856,-0.0013944726018558,0.001394472601856,-0.0013944726018562,0.0013944726018556,-0.0013944726018556,0.0013944726018562,3.5293039468929e-18,-2.1469932343599e-18,-0.0014181440126166,0.0014181440126166,5.4115993852358e-18,-3.9998778064786e-18,-0.0014524299815548,0.0014524299815548,-0.0014524299815548,0.0014524299815548,-0.0014524299815548,0.0014524299815548,-0.0014524299815548,0.0014524299815548,-0.0013944726018558,0.0013944726018559,-0.0013944726018559,0.0013944726018559,0.7212832895477,0.62938742006096,1270536,32768,0.0058914982103871,0.0058914982103871,0.0058914982103871,35.279543195524,35.309991718907,0.00019743634556419,0.00019743634556419,0.00019743634556419,313371.40474371,0.017831840939701
35337600,0.99999822220366,0.01708850019386,0.0056961667312868,0.0056961667312868,0.0056961667312869,-0.0014187790030017,0.0014187790030016,-1.4470146182261e-17,-8.5291512049912e-18,3.1210811237023e-16,-3.3516623148993e-16,-0.0014530975445482,0.0014530975445484,-0.0014530975445482,0.0014530975445484,-0.0014530975445484,0.0014530975445482,-0.0014530975445484,0.0014530975445482,-0.0013950870832934,0.0013950870832932,-0.0013950870832934,0.0013950870832932,-2.9628506634166e-16,3.492834472775e-16,1.8970008714549e-17,2.9763796618797e-17,-0.0014187790030016,0.0014187790030017,-0.0014530975445484,0.0014530975445482,-0.0014530975445484,0.0014530975445482,-0.0014530975445481,0.0014530975445484,-0.0014530975445481,0.0014530975445484,-0.0013950870832932,0.0013950870832934,-0.0013950870832932,0.0013950870832934,-0.0013950870832936,0.001395087083293,-0.001395087083293,0.0013950870832937,-5.0292581243224e-18,-1.0646733573127e-17,-0.0014187790030017,0.0014187790030017,-2.4411018966009e-18,-1.202904428566e-17,-0.0014530975445483,0.0014530975445483,-0.0014530975445483,0.0014530975445483,-0.0014530975445483,0.0014530975445483,-0.0014530975445483,0.0014530975445483,-0.0013950870832933,0.0013950870832933,-0.0013950870832933,0.0013950870832933,0.70642722079513,0.5909662955212,1270536,32768,0.0058941285159131,0.0058941285159131,0.0058941285159131,35.663523323824,35.689862813927,0.00020050818659059,0.00020050818659059,0.00020050818659059,316618.87248371,0.01783987229514
35424000,0.99999831620555,0.017088501811575,0.0056961672705249,0.005696167270525,0.005696167270525,-0.0014192166903325,0.0014192166903324,-6.5880340342001e-18,-8.2350425427501e-19,3.1940200719381e-16,-3.2972522123847e-16,-0.0014535670570614,0.0014535670570616,-0.0014535670570614,0.0014535670570616,-0.0014535670570616,0.0014535670570614,-0.0014535670570616,0.0014535670570614,-0.0013955050455112,0.0013955050455109,-0.0013955050455112,0.0013955050455109,-3.016966657269e-16,3.4516592600613e-16,1.3734874526658e-17,2.5587453614974e-17,-0.0014192166903324,0.0014192166903325,-0.0014535670570616,0.0014535670570614,-0.0014535670570616,0.0014535670570614,-0.0014535670570613,0.0014535670570616,-0.0014535670570614,0.0014535670570616,-0.0013955050455109,0.0013955050455111,-0.0013955050455109,0.0013955050455111,-0.0013955050455113,0.0013955050455108,-0.0013955050455107,0.0013955050455114,-2.5881562277215e-18,-8.0585773454055e-18,-0.0014192166903325,0.0014192166903325,2.9410866224108e-19,-1.0558500974455e-17,-0.0014535670570615,0.0014535670570615,-0.0014535670570615,0.0014535670570615,-0.0014535670570615,0.0014535670570615,-0.0014535670570615,0.0014535670570615,-0.001395505045511,0.001395505045511,-0.001395505045511,0.001395505045511,0.69039016511731,0.55254517098144,1270536,32768,0.0058959415566663,0.0058959415566664,0.0058959415566664,35.946785404403,35.966370312919,0.00020277428323522,0.00020277428323522,0.00020277428323522,320181.15154283,0.017845408154508
35510400,0.99999840656594,0.01708850338227,0.00569616779409,0.0056961677940901,0.0056961677940901,-0.0014196401158056,0.0014196401158056,-1.3558409329314e-17,-7.7056469507162e-18,3.1251986449737e-16,-3.3578385968064e-16,-0.0014540180627723,0.0014540180627724,-0.0014540180627723,0.0014540180627724,-0.0014540180627725,0.0014540180627722,-0.0014540180627725,0.0014540180627722,-0.0013959117007816,0.0013959117007814,-0.0013959117007817,0.0013959117007814,-2.9504980996025e-16,3.5145985137809e-16,1.8587667453636e-17,3.2116665916726e-17,-0.0014196401158056,0.0014196401158057,-0.0014540180627724,0.0014540180627722,-0.0014540180627724,0.0014540180627722,-0.0014540180627722,0.0014540180627724,-0.0014540180627722,0.0014540180627725,-0.0013959117007814,0.0013959117007816,-0.0013959117007814,0.0013959117007817,-0.0013959117007818,0.0013959117007813,-0.0013959117007812,0.0013959117007819,-2.1175823681358e-18,-7.8232904156126e-18,-0.0014196401158056,0.0014196401158056,1.6175976423259e-18,-1.1293772630057e-17,-0.0014540180627723,0.0014540180627723,-0.0014540180627724,0.0014540180627723,-0.0014540180627723,0.0014540180627723,-0.0014540180627723,0.0014540180627723,-0.0013959117007815,0.0013959117007815,-0.0013959117007815,0.0013959117007815,0.69738847687768,0.64701585131699,1270536,32768,0.0058976955355131,0.0058976955355132,0.0058976955355132,36.223914491982,36.242877811911,0.00020499131593586,0.00020499131593586,0.00020499131593586,323938.48806261,0.017850763625555
35596800,0.99999849334749,0.017088504802153,0.0056961682673842,0.0056961682673843,0.0056961682673843,-0.0014203369914681,0.0014203369914681,-1.267608334259e-17,-6.6762666328724e-18,3.1281397315961e-16,-3.3487212282769e-16,-0.0014546471809672,0.0014546471809674,-0.0014546471809672,0.0014546471809674,-0.0014546471809674,0.0014546471809672,-0.0014546471809674,0.0014546471809672,-0.0013966759675081,0.0013966759675079,-0.0013966759675081,0.0013966759675079,-2.9852029217469e-16,3.4725409750804e-16,1.5264239570312e-17,2.7646214250661e-17,-0.0014203369914681,0.0014203369914681,-0.0014546471809674,0.0014546471809672,-0.0014546471809674,0.0014546471809672,-0.0014546471809672,0.0014546471809674,-0.0014546471809672,0.0014546471809674,-0.0013966759675079,0.0013966759675081,-0.0013966759675079,0.0013966759675081,-0.0013966759675083,0.0013966759675077,-0.0013966759675077,0.0013966759675084,8.7644381347841e-18,3.264606150876e-18,-0.0014203369914681,0.0014203369914681,1.0499679242006e-17,-7.3527165560269e-19,-0.0014546471809673,0.0014546471809673,-0.0014546471809673,0.0014546471809673,-0.0014546471809673,0.0014546471809673,-0.0014546471809673,0.0014546471809673,-0.001396675967508,0.001396675967508,-0.001396675967508,0.001396675967508,0.65638911794675,0.42619644272479,1270536,32768,0.00590058216212,0.0059005821621201,0.0059005821621201,36.500470023211,36.519385310903,0.00020720376018569,0.00020720376018569,0.00020720376018569,319147.69768223,0.017859578332296
35683200,0.99999857661824,0.017088506160906,0.005696168720302,0.005696168720302,0.005696168720302,-0.0014204210018402,0.0014204210018402,-1.038203577711e-17,-4.2057538700474e-18,3.1481391206285e-16,-3.3237219919864e-16,-0.00145487248035,0.0014548724803502,-0.00145487248035,0.0014548724803502,-0.0014548724803502,0.00145487248035,-0.0014548724803502,0.0014548724803499,-0.0013966283780897,0.0013966283780894,-0.0013966283780897,0.0013966283780894,-2.9546156208739e-16,3.4972461027086e-16,1.8205326192723e-17,3.0704944337968e-17,-0.0014204210018402,0.0014204210018403,-0.0014548724803502,0.00145487248035,-0.0014548724803502,0.00145487248035,-0.0014548724803499,0.0014548724803502,-0.0014548724803499,0.0014548724803502,-0.0013966283780894,0.0013966283780897,-0.0013966283780895,0.0013966283780897,-0.0013966283780899,0.0013966283780893,-0.0013966283780893,0.0013966283780899,-2.5587453614974e-18,-8.3820968738707e-18,-0.0014204210018402,0.0014204210018402,2.0587606356875e-19,-1.1470237827402e-17,-0.0014548724803501,0.0014548724803501,-0.0014548724803501,0.0014548724803501,-0.0014548724803501,0.0014548724803501,-0.0014548724803501,0.00145487248035,-0.0013966283780896,0.0013966283780896,-0.0013966283780896,0.0013966283780896,0.65458809454007,0.51863330302199,1270536,32768,0.0059009302003341,0.0059009302003342,0.0059009302003342,36.776967980052,36.795892809896,0.00020941574384041,0.00020941574384041,0.00020941574384041,333658.98970554,0.017860640054819
35769600,0.99999865644893,0.01708850748013,0.0056961691600432,0.0056961691600433,0.0056961691600433,-0.001421082338945,0.001421082338945,-1.0058516248645e-17,-3.9998778064786e-18,3.146374468655e-16,-3.3213691226885e-16,-0.0014554761584785,0.0014554761584787,-0.0014554761584785,0.0014554761584787,-0.0014554761584787,0.0014554761584785,-0.0014554761584787,0.0014554761584784,-0.0013973576435957,0.0013973576435954,-0.0013973576435957,0.0013973576435954,-2.9422630570597e-16,3.5060693625759e-16,1.9175884778118e-17,3.1499037726019e-17,-0.001421082338945,0.001421082338945,-0.0014554761584786,0.0014554761584785,-0.0014554761584786,0.0014554761584785,-0.0014554761584784,0.0014554761584787,-0.0014554761584784,0.0014554761584787,-0.0013973576435954,0.0013973576435956,-0.0013973576435954,0.0013973576435957,-0.0013973576435958,0.0013973576435953,-0.0013973576435952,0.0013973576435959,-9.7055858539555e-19,-6.7350883653207e-18,-0.001421082338945,0.001421082338945,1.9411171707911e-18,-9.4114771917145e-18,-0.0014554761584786,0.0014554761584785,-0.0014554761584786,0.0014554761584786,-0.0014554761584785,0.0014554761584785,-0.0014554761584786,0.0014554761584785,-0.0013973576435956,0.0013973576435955,-0.0013973576435955,0.0013973576435956,0.66307094995028,0.60432253861507,1270536,32768,0.0059036696702835,0.0059036696702836,0.0059036696702836,37.053460050194,37.072400308888,0.00021162768040155,0.00021162768040155,0.00021162768040155,330432.00351023,0.017869005317951
35856000,0.99999873291254,0.017088508773373,0.0056961695911244,0.0056961695911244,0.0056961695911244,-0.0014218018829413,0.0014218018829413,-9.3232445930421e-18,-3.2057844184277e-18,3.1599034671181e-16,-3.3040167116163e-16,-0.0014561182023646,0.0014561182023648,-0.0014561182023646,0.0014561182023648,-0.0014561182023648,0.0014561182023646,-0.0014561182023648,0.0014561182023645,-0.0013981455276843,0.001398145527684,-0.0013981455276843,0.001398145527684,-2.982850052449e-16,3.461070737253e-16,1.5293650436536e-17,2.7940322912902e-17,-0.0014218018829413,0.0014218018829413,-0.0014561182023647,0.0014561182023645,-0.0014561182023647,0.0014561182023645,-0.0014561182023645,0.0014561182023647,-0.0014561182023645,0.0014561182023648,-0.001398145527684,0.0013981455276842,-0.001398145527684,0.0013981455276843,-0.0013981455276844,0.0013981455276839,-0.0013981455276838,0.0013981455276845,5.2057233216671e-18,-5.8821732448215e-19,-0.0014218018829413,0.0014218018829413,8.0879882116296e-18,-3.4998930806688e-18,-0.0014561182023646,0.0014561182023646,-0.0014561182023646,0.0014561182023646,-0.0014561182023646,0.0014561182023646,-0.0014561182023646,0.0014561182023646,-0.0013981455276841,0.0013981455276842,-0.0013981455276841,0.0013981455276841,0.67864737708106,0.69001177420815,1270536,32768,0.0059066501434619,0.005906650143462,0.005906650143462,37.329951512151,37.34890780788,0.00021383961209721,0.00021383961209721,0.00021383961209721,325078.0810747,0.017878106842149
35942400,0.99999880608413,0.017088510049121,0.0056961700163736,0.0056961700163737,0.0056961700163737,-0.0014225434785448,0.0014225434785448,-1.6911248078862e-17,-1.1087896566489e-17,3.0793176936641e-16,-3.3946021795865e-16,-0.0014567799654383,0.0014567799654385,-0.0014567799654383,0.0014567799654385,-0.0014567799654385,0.0014567799654383,-0.0014567799654385,0.0014567799654382,-0.0013989477135043,0.001398947713504,-0.0013989477135043,0.001398947713504,-2.9681446193369e-16,3.4845994302323e-16,1.6381852486828e-17,2.9116757561867e-17,-0.0014225434785448,0.0014225434785448,-0.0014567799654385,0.0014567799654383,-0.0014567799654385,0.0014567799654383,-0.0014567799654382,0.0014567799654385,-0.0014567799654382,0.0014567799654385,-0.001398947713504,0.0013989477135042,-0.001398947713504,0.0013989477135043,-0.0013989477135044,0.0013989477135039,-0.0013989477135039,0.0013989477135045,-1.2352563814125e-18,-6.7939100977689e-18,-0.0014225434785448,0.0014225434785448,1.64700850855e-18,-1.0146748847317e-17,-0.0014567799654384,0.0014567799654384,-0.0014567799654384,0.0014567799654384,-0.0014567799654384,0.0014567799654384,-0.0014567799654384,0.0014567799654384,-0.0013989477135042,0.0013989477135041,-0.0013989477135042,0.0013989477135042,0.69958523470943,0.77570100980123,1270536,32768,0.0059097218874499,0.0059097218874499,0.0059097218874499,37.606442908111,37.625415306872,0.00021605154326489,0.00021605154326489,0.00021605154326489,318737.76176379,0.017887487310784
36028800,0.99999887604063,0.017088511303236,0.0056961704344119,0.0056961704344119,0.0056961704344119,-0.0014232896594975,0.0014232896594975,-1.1764346489643e-18,4.5292733985126e-18,3.2416656752211e-16,-3.2487242831149e-16,-0.0014574511652916,0.0014574511652918,-0.0014574511652916,0.0014574511652918,-0.0014574511652918,0.0014574511652916,-0.0014574511652918,0.0014574511652916,-0.0013997451970178,0.0013997451970176,-0.0013997451970178,0.0013997451970176,-2.999908354859e-16,3.4748938443783e-16,1.4411324449813e-17,2.9469687956556e-17,-0.0014232896594975,0.0014232896594975,-0.0014574511652918,0.0014574511652916,-0.0014574511652918,0.0014574511652916,-0.0014574511652915,0.0014574511652918,-0.0014574511652916,0.0014574511652918,-0.0013997451970176,0.0013997451970178,-0.0013997451970176,0.0013997451970179,-0.001399745197018,0.0013997451970175,-0.0013997451970174,0.0013997451970181,-7.0586078937858e-19,-6.4115688368555e-18,-0.0014232896594975,0.0014232896594975,3.3234278833242e-18,-1.0852609636696e-17,-0.0014574511652917,0.0014574511652917,-0.0014574511652917,0.0014574511652917,-0.0014574511652917,0.0014574511652917,-0.0014574511652917,0.0014574511652917,-0.0013997451970177,0.0013997451970177,-0.0013997451970177,0.0013997451970177,0.71931304966427,0.83080222133202,1270536,32768,0.0059128125728115,0.0059128125728116,0.0059128125728116,37.882934293887,37.901922805864,0.00021826347435109,0.00021826347435109,0.00021826347435109,311958.38642563,0.017896925801793
36115200,0.99999894228612,0.017088512486036,0.0056961708286787,0.0056961708286788,0.0056961708286788,-0.0014236622594647,0.0014236622594647,-1.5940689493466e-17,-1.0352624910886e-17,3.1046110386168e-16,-3.3822496157724e-16,-0.0014577781222824,0.0014577781222826,-0.0014577781222824,0.0014577781222826,-0.0014577781222827,0.0014577781222824,-0.0014577781222827,0.0014577781222824,-0.0014001421547634,0.0014001421547631,-0.0014001421547634,0.0014001421547632,-3.0110844840241e-16,3.4560708899949e-16,1.1734935623419e-17,2.6058027474559e-17,-0.0014236622594647,0.0014236622594647,-0.0014577781222826,0.0014577781222824,-0.0014577781222826,0.0014577781222824,-0.0014577781222824,0.0014577781222826,-0.0014577781222824,0.0014577781222826,-0.0014001421547631,0.0014001421547634,-0.0014001421547632,0.0014001421547634,-0.0014001421547636,0.001400142154763,-0.001400142154763,0.0014001421547636,-1.911706304567e-18,-7.382127422251e-18,-0.0014236622594647,0.0014236622594647,2.1469932343599e-18,-1.1234950897609e-17,-0.0014577781222825,0.0014577781222825,-0.0014577781222825,0.0014577781222825,-0.0014577781222825,0.0014577781222825,-0.0014577781222825,0.0014577781222825,-0.0014001421547633,0.0014001421547633,-0.0014001421547632,0.0014001421547633,0.71635030005917,0.75354661301225,1270536,32768,0.0059143558035728,0.0059143558035728,0.0059143558035728,37.994749770353,38.0028275768,0.00021915799816282,0.00021915799816282,0.00021915799816282,306802.22183194,0.017901638920595
36201600,0.99999900420344,0.017088513588856,0.0056961711962853,0.0056961711962854,0.0056961711962854,-0.0014233275250163,0.0014233275250163,-1.1499648693626e-17,-5.9704058434939e-18,3.1387276434368e-16,-3.336662773125e-16,-0.001457485844121,0.0014574858441212,-0.001457485844121,0.0014574858441212,-0.0014574858441212,0.001457485844121,-0.0014574858441212,0.001457485844121,-0.0013997561703202,0.0013997561703199,-0.0013997561703202,0.00139975617032,-2.999908354859e-16,3.4569532159816e-16,1.3293711533297e-17,2.7293283855972e-17,-0.0014233275250163,0.0014233275250163,-0.0014574858441212,0.001457485844121,-0.0014574858441212,0.001457485844121,-0.0014574858441209,0.0014574858441212,-0.0014574858441209,0.0014574858441212,-0.0013997561703199,0.0013997561703202,-0.00139975617032,0.0013997561703202,-0.0013997561703204,0.0013997561703198,-0.0013997561703198,0.0013997561703204,-4.7057385958572e-19,-6.0292275759421e-18,-0.0014233275250163,0.0014233275250163,3.0587300873072e-18,-9.8526401850761e-18,-0.0014574858441211,0.0014574858441211,-0.0014574858441211,0.0014574858441211,-0.0014574858441211,0.0014574858441211,-0.0014574858441211,0.0014574858441211,-0.0013997561703201,0.0013997561703201,-0.0013997561703201,0.0013997561703201,0.71455152743428,0.73045191308876,1270536,32768,0.0059129691987246,0.0059129691987247,0.0059129691987247,37.864840609844,37.856521077519,0.00021811872487875,0.00021811872487875,0.00021811872487875,309119.66942641,0.017897404734673
36288000,0.9999990620541,0.017088514615155,0.0056961715383849,0.005696171538385,0.005696171538385,-0.0014230059959777,0.0014230059959777,-7.382127422251e-18,-1.7058302409982e-18,3.1769617695281e-16,-3.2916641478021e-16,-0.0014571872583612,0.0014571872583613,-0.0014571872583612,0.0014571872583614,-0.0014571872583614,0.0014571872583612,-0.0014571872583614,0.0014571872583611,-0.0013994123804797,0.0013994123804794,-0.0013994123804797,0.0013994123804794,-2.9628506634166e-16,3.4840112129078e-16,1.6264209021932e-17,3.0557890006848e-17,-0.0014230059959777,0.0014230059959778,-0.0014571872583613,0.0014571872583612,-0.0014571872583613,0.0014571872583612,-0.0014571872583611,0.0014571872583614,-0.0014571872583611,0.0014571872583614,-0.0013994123804794,0.0013994123804796,-0.0013994123804794,0.0013994123804797,-0.0013994123804798,0.0013994123804793,-0.0013994123804792,0.0013994123804799,-3.0587300873072e-18,-8.73502726856e-18,-0.0014230059959777,0.0014230059959777,9.7055858539555e-19,-1.2411385546573e-17,-0.0014571872583613,0.0014571872583612,-0.0014571872583613,0.0014571872583612,-0.0014571872583612,0.0014571872583613,-0.0014571872583613,0.0014571872583612,-0.0013994123804795,0.0013994123804795,-0.0013994123804795,0.0013994123804795,0.71171913332489,0.7114984176409,1270536,32768,0.0059116373633196,0.0059116373633196,0.0059116373633196,37.720083640261,37.710214578237,0.00021696066912209,0.00021696066912209,0.00021696066912209,310049.90146249,0.017893337718093
36374400,0.9999991161261,0.017088515568998,0.0056961718563326,0.0056961718563327,0.0056961718563327,-0.001422683380819,0.001422683380819,-9.9702836499725e-18,-4.2939864687197e-18,3.1457862513306e-16,-3.3198985793773e-16,-0.0014568846025397,0.0014568846025399,-0.0014568846025397,0.0014568846025399,-0.0014568846025399,0.0014568846025397,-0.0014568846025399,0.0014568846025397,-0.0013990736218205,0.0013990736218203,-0.0013990736218205,0.0013990736218203,-2.9969672682366e-16,3.4484240647766e-16,1.2970192004831e-17,2.7293283855972e-17,-0.001422683380819,0.001422683380819,-0.0014568846025399,0.0014568846025397,-0.0014568846025399,0.0014568846025397,-0.0014568846025396,0.0014568846025399,-0.0014568846025397,0.0014568846025399,-0.0013990736218203,0.0013990736218205,-0.0013990736218203,0.0013990736218205,-0.0013990736218207,0.0013990736218201,-0.0013990736218201,0.0013990736218207,-9.9996945161966e-19,-6.3821579706314e-18,-0.001422683380819,0.001422683380819,3.4998930806688e-18,-1.0352624910886e-17,-0.0014568846025398,0.0014568846025398,-0.0014568846025398,0.0014568846025398,-0.0014568846025398,0.0014568846025398,-0.0014568846025398,0.0014568846025398,-0.0013990736218204,0.0013990736218204,-0.0013990736218204,0.0013990736218204,0.70768953661049,0.69254492219304,1270536,32768,0.0059103010473634,0.0059103010473634,0.0059103010473634,37.573929620238,37.563908078955,0.0002157914369619,0.0002157914369619,0.0002157914369619,310958.5847632,0.0178892569962
36460800,0.99999916668923,0.017088516454568,0.0056961721515228,0.0056961721515228,0.0056961721515228,-0.0014223573653058,0.0014223573653058,-1.0293803178438e-17,-4.5880951309608e-18,3.147550903304e-16,-3.3160751667681e-16,-0.0014565776919604,0.0014565776919606,-0.0014565776919604,0.0014565776919606,-0.0014565776919606,0.0014565776919604,-0.0014565776919606,0.0014565776919604,-0.0013987337937721,0.0013987337937719,-0.0013987337937721,0.0013987337937719,-2.9652035327145e-16,3.4795995829742e-16,1.6175976423259e-17,3.0881409535313e-17,-0.0014223573653058,0.0014223573653058,-0.0014565776919606,0.0014565776919604,-0.0014565776919606,0.0014565776919604,-0.0014565776919604,0.0014565776919606,-0.0014565776919604,0.0014565776919607,-0.0013987337937718,0.0013987337937721,-0.0013987337937719,0.0013987337937721,-0.0013987337937723,0.0013987337937717,-0.0013987337937717,0.0013987337937724,1.8822954383429e-18,-3.7057691442376e-18,-0.0014223573653058,0.0014223573653058,5.6762971812528e-18,-8.205631676526e-18,-0.0014565776919605,0.0014565776919605,-0.0014565776919605,0.0014565776919605,-0.0014565776919605,0.0014565776919605,-0.0014565776919605,0.0014565776919605,-0.001398733793772,0.001398733793772,-0.001398733793772,0.001398733793772,0.70262273173904,0.67359142674518,1270536,32768,0.0059089506569288,0.0059089506569289,0.0059089506569289,37.427634714025,37.417601579673,0.0002146210777122,0.0002146210777122,0.0002146210777122,312024.12139225,0.017885133281052
36547200,0.99999921399288,0.017088517246766,0.0056961724155886,0.0056961724155887,0.0056961724155887,-0.0014220287801149,0.0014220287801149,-8.5291512049912e-18,-2.5881562277215e-18,3.1681385096609e-16,-3.3001932990071e-16,-0.0014562672486653,0.0014562672486655,-0.0014562672486653,0.0014562672486655,-0.0014562672486655,0.0014562672486653,-0.0014562672486655,0.0014562672486653,-0.0013983930356518,0.0013983930356516,-0.0013983930356518,0.0013983930356516,-3.0246134824872e-16,3.4234248284861e-16,9.7349967201796e-18,2.4793360226923e-17,-0.0014220287801149,0.0014220287801149,-0.0014562672486655,0.0014562672486653,-0.0014562672486655,0.0014562672486653,-0.0014562672486652,0.0014562672486655,-0.0014562672486653,0.0014562672486655,-0.0013983930356516,0.0013983930356518,-0.0013983930356516,0.0013983930356518,-0.001398393035652,0.0013983930356514,-0.0013983930356514,0.0013983930356521,-1.5293650436536e-18,-7.382127422251e-18,-0.0014220287801149,0.0014220287801149,2.7646214250661e-18,-1.1411416094954e-17,-0.0014562672486654,0.0014562672486654,-0.0014562672486654,0.0014562672486654,-0.0014562672486654,0.0014562672486654,-0.0014562672486654,0.0014562672486654,-0.0013983930356517,0.0013983930356517,-0.0013983930356517,0.0013983930356517,0.67176094992295,0.51734844106458,1270536,32768,0.0059075896299145,0.0059075896299145,0.0059075896299145,37.281325361955,37.271295080391,0.00021345060289564,0.00021345060289564,0.00021345060289564,313240.58057052,0.017880977077238
36633600,0.99999925826733,0.017088517965881,0.0056961726552936,0.0056961726552936,0.0056961726552936,-0.0014214208284081,0.0014214208284081,-1.1823168222091e-17,-5.9704058434939e-18,3.1387276434368e-16,-3.3363686644628e-16,-0.0014557700953429,0.0014557700953431,-0.0014557700953429,0.0014557700953431,-0.0014557700953431,0.0014557700953429,-0.0014557700953431,0.0014557700953429,-0.0013976900405003,0.0013976900405,-0.0013976900405003,0.0013976900405,-2.9352044491659e-16,3.5207747956879e-16,1.9646458637704e-17,3.558714813117e-17,-0.0014214208284081,0.0014214208284081,-0.0014557700953431,0.0014557700953429,-0.0014557700953431,0.0014557700953429,-0.0014557700953428,0.0014557700953431,-0.0014557700953428,0.0014557700953431,-0.0013976900405,0.0013976900405002,-0.0013976900405,0.0013976900405003,-0.0013976900405004,0.0013976900404999,-0.0013976900404998,0.0013976900405005,-4.4116299336162e-19,-6.1468710408385e-18,-0.0014214208284081,0.0014214208284081,5.2057233216671e-18,-9.9408727837484e-18,-0.001455770095343,0.001455770095343,-0.001455770095343,0.001455770095343,-0.001455770095343,0.001455770095343,-0.001455770095343,0.001455770095343,-0.0013976900405001,0.0013976900405001,-0.0013976900405001,0.0013976900405001,0.65146986607376,0.48156401590332,1270536,32768,0.0059050714625027,0.0059050714625028,0.0059050714625028,37.135014522842,37.124988581109,0.00021228011618274,0.00021228011618274,0.00021228011618274,323482.52146813,0.0178732867866
36720000,0.99999929972535,0.017088518642066,0.0056961728806888,0.0056961728806889,0.0056961728806888,-0.0014209922959279,0.0014209922959279,-1.1117307432713e-17,-5.4115993852358e-18,3.1481391206285e-16,-3.336662773125e-16,-0.0014553855533313,0.0014553855533315,-0.0014553855533313,0.0014553855533315,-0.0014553855533315,0.0014553855533313,-0.0014553855533315,0.0014553855533313,-0.0013972394165594,0.0013972394165591,-0.0013972394165594,0.0013972394165591,-2.9728503579328e-16,3.4916580381261e-16,1.5411293901432e-17,3.1116696465106e-17,-0.0014209922959279,0.0014209922959279,-0.0014553855533315,0.0014553855533313,-0.0014553855533315,0.0014553855533313,-0.0014553855533312,0.0014553855533315,-0.0014553855533313,0.0014553855533315,-0.0013972394165591,0.0013972394165593,-0.0013972394165591,0.0013972394165594,-0.0013972394165595,0.001397239416559,-0.0013972394165589,0.0013972394165596,-1.6175976423259e-18,-7.2350730911305e-18,-0.0014209922959279,0.0014209922959279,3.264606150876e-18,-1.152905955985e-17,-0.0014553855533314,0.0014553855533314,-0.0014553855533314,0.0014553855533314,-0.0014553855533314,0.0014553855533314,-0.0014553855533314,0.0014553855533314,-0.0013972394165592,0.0013972394165592,-0.0013972394165592,0.0013972394165592,0.65430541716043,0.56834652841547,1270536,32768,0.0059032965308795,0.0059032965308795,0.0059032965308796,36.988703530965,36.978682081827,0.00021110962824772,0.00021110962824772,0.00021110962824772,328572.74778201,0.017867866353206
36806400,0.99999933856357,0.017088519248176,0.0056961730827253,0.0056961730827253,0.0056961730827253,-0.0014208492023103,0.0014208492023103,-1.1205540031385e-17,-5.4115993852358e-18,3.146374468655e-16,-3.3425449463698e-16,-0.0014551850206955,0.0014551850206957,-0.0014551850206955,0.0014551850206957,-0.0014551850206957,0.0014551850206955,-0.0014551850206957,0.0014551850206955,-0.00139716109206,0.0013971610920597,-0.00139716109206,0.0013971610920597,-2.9810854004756e-16,3.4848935388945e-16,1.4587789647157e-17,3.04990682744e-17,-0.0014208492023103,0.0014208492023103,-0.0014551850206957,0.0014551850206955,-0.0014551850206957,0.0014551850206955,-0.0014551850206954,0.0014551850206957,-0.0014551850206954,0.0014551850206957,-0.0013971610920597,0.0013971610920599,-0.0013971610920597,0.0013971610920599,-0.0013971610920601,0.0013971610920596,-0.0013971610920595,0.0013971610920602,-2.4999236290492e-18,-8.1468099440778e-18,-0.0014208492023103,0.0014208492023103,2.3822801641527e-18,-1.267608334259e-17,-0.0014551850206956,0.0014551850206956,-0.0014551850206956,0.0014551850206956,-0.0014551850206956,0.0014551850206956,-0.0014551850206956,0.0014551850206956,-0.0013971610920598,0.0013971610920598,-0.0013971610920598,0.0013971610920598,0.62602295148401,0.43194025391056,1270536,32768,0.0059027038932225,0.0059027038932226,0.0059027038932226,36.842392523844,36.832375582545,0.00020993914019075,0.00020993914019075,0.00020993914019075,324637.47353711,0.017866056810325
36892800,0.99999937519346,0.017088519821519,0.0056961732738397,0.0056961732738398,0.0056961732738398,-0.0014205127644117,0.0014205127644117,-9.3526554592662e-18,-3.558714813117e-18,3.1687267269854e-16,-3.3151928407814e-16,-0.001454930144816,0.0014549301448162,-0.001454930144816,0.0014549301448162,-0.0014549301448162,0.001454930144816,-0.0014549301448162,0.0014549301448159,-0.0013967502417747,0.0013967502417745,-0.0013967502417748,0.0013967502417745,-2.9846147044224e-16,3.4798936916364e-16,1.4117215787572e-17,3.0793176936641e-17,-0.0014205127644117,0.0014205127644117,-0.0014549301448161,0.001454930144816,-0.0014549301448162,0.001454930144816,-0.0014549301448159,0.0014549301448162,-0.0014549301448159,0.0014549301448162,-0.0013967502417745,0.0013967502417747,-0.0013967502417745,0.0013967502417747,-0.0013967502417749,0.0013967502417744,-0.0013967502417743,0.001396750241775,-4.0292886727028e-18,-9.6173532552832e-18,-0.0014205127644117,0.0014205127644117,1.5293650436536e-18,-1.432309185114e-17,-0.0014549301448161,0.001454930144816,-0.0014549301448161,0.0014549301448161,-0.0014549301448161,0.0014549301448161,-0.0014549301448161,0.001454930144816,-0.0013967502417746,0.0013967502417746,-0.0013967502417746,0.0013967502417746,0.62790472801918,0.52015280790738,1270536,32768,0.0059013103838516,0.0059013103838517,0.0059013103838517,36.814517928328,36.812326902647,0.00020971614342662,0.00020971614342662,0.00020971614342662,334114.35520429,0.017861800848252
36979200,0.99999941003759,0.017088520376917,0.0056961734589722,0.0056961734589723,0.0056961734589723,-0.0014209136401964,0.0014209136401964,-1.138200522873e-17,-5.6762971812528e-18,3.147550903304e-16,-3.3404861857341e-16,-0.0014552655156015,0.0014552655156017,-0.0014552655156015,0.0014552655156017,-0.0014552655156017,0.0014552655156015,-0.0014552655156017,0.0014552655156015,-0.0013972196411355,0.0013972196411353,-0.0013972196411356,0.0013972196411353,-2.9746150099062e-16,3.4934226900995e-16,1.4617200513382e-17,3.1557859458468e-17,-0.0014209136401964,0.0014209136401964,-0.0014552655156017,0.0014552655156015,-0.0014552655156017,0.0014552655156015,-0.0014552655156014,0.0014552655156017,-0.0014552655156015,0.0014552655156017,-0.0013972196411353,0.0013972196411355,-0.0013972196411353,0.0013972196411356,-0.0013972196411357,0.0013972196411352,-0.0013972196411351,0.0013972196411358,-2.176404100584e-18,-7.7350578169403e-18,-0.0014209136401964,0.0014209136401964,3.4116604819965e-18,-1.267608334259e-17,-0.0014552655156016,0.0014552655156016,-0.0014552655156016,0.0014552655156016,-0.0014552655156016,0.0014552655156016,-0.0014552655156016,0.0014552655156016,-0.0013972196411354,0.0013972196411354,-0.0013972196411354,0.0013972196411354,0.63956200935375,0.6083653619042,1270536,32768,0.0059029709617129,0.005902970961713,0.005902970961713,36.946339828283,36.954970510237,0.00021077071862626,0.00021077071862626,0.00021077071862626,330020.68380956,0.017866871640111
37065600,0.99999944318635,0.017088520920414,0.0056961736401381,0.0056961736401382,0.0056961736401382,-0.0014213875610832,0.0014213875610832,-7.911523014285e-18,-1.911706304567e-18,3.1751971175547e-16,-3.3096047761988e-16,-0.0014556610342535,0.0014556610342537,-0.0014556610342535,0.0014556610342537,-0.0014556610342537,0.0014556610342535,-0.0014556610342537,0.0014556610342534,-0.0013977599614189,0.0013977599614187,-0.001397759961419,0.0013977599614187,-3.0028494414814e-16,3.4601884112663e-16,1.1881989954539e-17,2.9057935829418e-17,-0.0014213875610832,0.0014213875610832,-0.0014556610342536,0.0014556610342534,-0.0014556610342536,0.0014556610342534,-0.0014556610342534,0.0014556610342536,-0.0014556610342534,0.0014556610342537,-0.0013977599614187,0.0013977599614189,-0.0013977599614187,0.0013977599614189,-0.0013977599614191,0.0013977599614186,-0.0013977599614185,0.0013977599614192,-3.4410713482206e-18,-8.8232598672323e-18,-0.0014213875610832,0.0014213875610832,2.2058149668081e-18,-1.3940750590227e-17,-0.0014556610342536,0.0014556610342535,-0.0014556610342536,0.0014556610342535,-0.0014556610342535,0.0014556610342535,-0.0014556610342536,0.0014556610342535,-0.0013977599614188,0.0013977599614188,-0.0013977599614188,0.0013977599614188,0.65788745292515,0.69657791590101,1270536,32768,0.0059049340067141,0.0059049340067142,0.0059049340067142,37.087956635652,37.097614117828,0.00021190365308521,0.00021190365308521,0.00021190365308521,324021.44528367,0.017872866383686
37152000,0.99999947470942,0.017088521455673,0.0056961738185575,0.0056961738185575,0.0056961738185575,-0.0014218795201508,0.0014218795201508,-9.0585467970252e-18,-3.3528387495483e-18,3.1751971175547e-16,-3.3319570345292e-16,-0.0014560748906113,0.0014560748906115,-0.0014560748906113,0.0014560748906115,-0.0014560748906116,0.0014560748906113,-0.0014560748906116,0.0014560748906113,-0.0013983096959447,0.0013983096959445,-0.0013983096959448,0.0013983096959445,-3.0463775234931e-16,3.4390125875849e-16,9.0291359308011e-18,2.5969794875887e-17,-0.0014218795201508,0.0014218795201509,-0.0014560748906115,0.0014560748906113,-0.0014560748906115,0.0014560748906113,-0.0014560748906113,0.0014560748906115,-0.0014560748906113,0.0014560748906115,-0.0013983096959445,0.0013983096959447,-0.0013983096959445,0.0013983096959447,-0.0013983096959449,0.0013983096959444,-0.0013983096959443,0.001398309695945,-6.4409797030796e-18,-1.2293742081677e-17,-0.0014218795201509,0.0014218795201508,-9.4114771917145e-19,-1.6646550282845e-17,-0.0014560748906114,0.0014560748906114,-0.0014560748906114,0.0014560748906114,-0.0014560748906114,0.0014560748906114,-0.0014560748906114,0.0014560748906114,-0.0013983096959446,0.0013983096959446,-0.0013983096959446,0.0013983096959446,0.68133357716755,0.78479046989783,1270536,32768,0.0059069717076115,0.0059069717076116,0.0059069717076116,37.230492853116,37.240257725419,0.00021304394282493,0.00021304394282493,0.00021304394282493,317209.68955218,0.017879089276687
37238400,0.99999950467285,0.017088521985083,0.0056961739950276,0.0056961739950276,0.0056961739950276,-0.0014223729493557,0.0014223729493557,-9.293833726818e-18,-3.3528387495483e-18,3.1781382041771e-16,-3.3369568817873e-16,-0.001456496064095,0.0014564960640952,-0.001456496064095,0.0014564960640952,-0.0014564960640952,0.001456496064095,-0.0014564960640952,0.001456496064095,-0.0013988516170228,0.0013988516170226,-0.0013988516170229,0.0013988516170226,-2.9928497469652e-16,3.4981284286954e-16,1.4734843978278e-17,3.1440215993571e-17,-0.0014223729493557,0.0014223729493557,-0.0014564960640952,0.001456496064095,-0.0014564960640952,0.001456496064095,-0.0014564960640949,0.0014564960640952,-0.0014564960640949,0.0014564960640952,-0.0013988516170226,0.0013988516170228,-0.0013988516170226,0.0013988516170228,-0.001398851617023,0.0013988516170225,-0.0013988516170224,0.0013988516170231,-2.0293497694634e-18,-7.7350578169403e-18,-0.0014223729493557,0.0014223729493557,3.0587300873072e-18,-1.2793726807487e-17,-0.0014564960640951,0.0014564960640951,-0.0014564960640951,0.0014564960640951,-0.0014564960640951,0.0014564960640951,-0.0014564960640951,0.0014564960640951,-0.0013988516170227,0.0013988516170227,-0.0013988516170227,0.0013988516170227,0.7089683356001,0.87300302389465,1270536,32768,0.0059090154557555,0.0059090154557556,0.0059090154557556,37.373121608767,37.38290133301,0.00021418497287014,0.00021418497287014,0.00021418497287014,310054.32914016,0.017885330756314
37324800,0.9999995331406,0.017088522485078,0.0056961741616926,0.0056961741616927,0.0056961741616927,-0.0014228608240831,0.0014228608240831,-1.1293772630057e-17,-5.4115993852358e-18,3.1534330765488e-16,-3.3604855747665e-16,-0.0014569195951347,0.0014569195951349,-0.0014569195951347,0.0014569195951349,-0.0014569195951349,0.0014569195951347,-0.0014569195951349,0.0014569195951347,-0.0013993795991192,0.001399379599119,-0.0013993795991192,0.001399379599119,-3.01579022262e-16,3.4793054743119e-16,1.2264331215453e-17,2.9146168428091e-17,-0.0014228608240831,0.0014228608240832,-0.0014569195951349,0.0014569195951347,-0.0014569195951349,0.0014569195951347,-0.0014569195951346,0.0014569195951349,-0.0014569195951346,0.0014569195951349,-0.001399379599119,0.0013993795991192,-0.001399379599119,0.0013993795991193,-0.0013993795991194,0.0013993795991188,-0.0013993795991188,0.0013993795991195,-3.2940170171001e-18,-9.2350119943698e-18,-0.0014228608240832,0.0014228608240831,2.0293497694634e-18,-1.3764285392882e-17,-0.0014569195951348,0.0014569195951348,-0.0014569195951348,0.0014569195951348,-0.0014569195951348,0.0014569195951348,-0.0014569195951348,0.0014569195951347,-0.0013993795991191,0.0013993795991191,-0.0013993795991191,0.0013993795991191,0.70467690697295,0.76558456952602,1270536,32768,0.0059110361666883,0.0059110361666884,0.0059110361666884,37.515759841063,37.525544940601,0.0002153260787285,0.0002153260787285,0.0002153260787285,302784.61584482,0.01789150197536
37411200,0.99999956017469,0.017088522946501,0.0056961743155005,0.0056961743155005,0.0056961743155005,-0.0014230188414855,0.0014230188414855,-1.1440826961178e-17,-5.3527776527876e-18,3.164609205714e-16,-3.3651913133624e-16,-0.0014571294145243,0.0014571294145245,-0.0014571294145243,0.0014571294145245,-0.0014571294145246,0.0014571294145243,-0.0014571294145246,0.0014571294145243,-0.0013994744526895,0.0013994744526893,-0.0013994744526895,0.0013994744526893,-3.0281427864341e-16,3.476952605014e-16,1.1411416094954e-17,2.8881470632074e-17,-0.0014230188414855,0.0014230188414855,-0.0014571294145245,0.0014571294145243,-0.0014571294145245,0.0014571294145243,-0.0014571294145243,0.0014571294145245,-0.0014571294145243,0.0014571294145246,-0.0013994744526893,0.0013994744526895,-0.0013994744526893,0.0013994744526895,-0.0013994744526897,0.0013994744526891,-0.0013994744526891,0.0013994744526898,-4.1763430038233e-18,-9.9702836499725e-18,-0.0014230188414855,0.0014230188414855,9.4114771917145e-19,-1.5440704767657e-17,-0.0014571294145244,0.0014571294145244,-0.0014571294145245,0.0014571294145244,-0.0014571294145244,0.0014571294145244,-0.0014571294145244,0.0014571294145244,-0.0013994744526894,0.0013994744526894,-0.0013994744526894,0.0013994744526894,0.68469135417714,0.63706424169366,1270536,32768,0.0059116905914786,0.0059116905914786,0.0059116905914786,37.658399048293,37.668188548191,0.00021646719238634,0.00021646719238634,0.00021646719238634,305772.88805189,0.017893500324751
37497600,0.99999958583523,0.017088523374363,0.005696174458121,0.0056961744581211,0.0056961744581211,-0.0014230555490345,0.0014230555490345,-1.2087866018108e-17,-6.1762819070626e-18,3.1593152497936e-16,-3.3643089873757e-16,-0.0014572591580993,0.0014572591580995,-0.0014572591580994,0.0014572591580995,-0.0014572591580996,0.0014572591580993,-0.0014572591580996,0.0014572591580993,-0.0013994272025098,0.0013994272025096,-0.0013994272025099,0.0013994272025096,-2.9946143989386e-16,3.5078340145493e-16,1.417603752002e-17,3.1734324655812e-17,-0.0014230555490345,0.0014230555490346,-0.0014572591580995,0.0014572591580993,-0.0014572591580995,0.0014572591580993,-0.0014572591580993,0.0014572591580995,-0.0014572591580993,0.0014572591580996,-0.0013994272025096,0.0013994272025098,-0.0013994272025096,0.0013994272025098,-0.00139942720251,0.0013994272025095,-0.0013994272025094,0.0013994272025101,-3.5881256793411e-18,-9.4114771917145e-18,-0.0014230555490346,0.0014230555490345,2.0587606356875e-18,-1.4558378780933e-17,-0.0014572591580994,0.0014572591580994,-0.0014572591580995,0.0014572591580994,-0.0014572591580994,0.0014572591580994,-0.0014572591580995,0.0014572591580994,-0.0013994272025097,0.0013994272025097,-0.0013994272025097,0.0013994272025097,0.66885546624032,0.58517435017955,1270536,32768,0.0059118426246849,0.005911842624685,0.005911842624685,37.801038355576,37.810832155782,0.00021760830684461,0.00021760830684461,0.00021760830684461,312874.24375584,0.017893964153995
37584000,0.99999961018049,0.017088523770743,0.0056961745902476,0.0056961745902477,0.0056961745902477,-0.0014231822457371,0.0014231822457371,-9.7938184526279e-18,-3.6469474117894e-18,3.179314638826e-16,-3.3422508377076e-16,-0.0014574429357869,0.0014574429357871,-0.0014574429357869,0.0014574429357871,-0.0014574429357871,0.0014574429357869,-0.0014574429357871,0.0014574429357869,-0.0013995151223984,0.0013995151223982,-0.0013995151223984,0.0013995151223982,-3.0004965721835e-16,3.5004812979933e-16,1.4146626653796e-17,3.1057874732658e-17,-0.0014231822457371,0.0014231822457371,-0.0014574429357871,0.0014574429357869,-0.0014574429357871,0.0014574429357869,-0.0014574429357868,0.0014574429357871,-0.0014574429357868,0.0014574429357871,-0.0013995151223982,0.0013995151223984,-0.0013995151223982,0.0013995151223984,-0.0013995151223986,0.001399515122398,-0.001399515122398,0.0013995151223987,-3.9116452078063e-18,-9.7055858539555e-18,-0.0014231822457371,0.0014231822457371,1.4117215787572e-18,-1.4558378780933e-17,-0.001457442935787,0.001457442935787,-0.001457442935787,0.001457442935787,-0.001457442935787,0.001457442935787,-0.001457442935787,0.001457442935787,-0.0013995151223983,0.0013995151223983,-0.0013995151223983,0.0013995151223983,0.65313632909925,0.54243370808786,1270536,32768,0.0059123674651105,0.0059123674651106,0.0059123674651106,37.943677672718,37.953475763373,0.00021874942138174,0.00021874942138174,0.00021874942138174,317491.19000175,0.017895566494363
37670400,0.99999963313768,0.017088524134933,0.0056961747116441,0.0056961747116442,0.0056961747116442,-0.0014231226594577,0.0014231226594577,-1.1617292158523e-17,-5.735118913701e-18,3.1575505978202e-16,-3.3619561180777e-16,-0.0014574304453139,0.0014574304453141,-0.0014574304453139,0.0014574304453141,-0.0014574304453141,0.0014574304453139,-0.0014574304453141,0.0014574304453138,-0.0013994271589273,0.0013994271589271,-0.0013994271589273,0.0013994271589271,-2.9875557910449e-16,3.5134220791319e-16,1.5499526500105e-17,3.2234309381622e-17,-0.0014231226594577,0.0014231226594577,-0.001457430445314,0.0014574304453139,-0.0014574304453141,0.0014574304453139,-0.0014574304453138,0.0014574304453141,-0.0014574304453138,0.0014574304453141,-0.0013994271589271,0.0013994271589273,-0.0013994271589271,0.0013994271589273,-0.0013994271589275,0.0013994271589269,-0.0013994271589269,0.0013994271589276,-3.5881256793411e-18,-9.4702989241627e-18,-0.0014231226594577,0.0014231226594577,1.6175976423259e-18,-1.4087804921348e-17,-0.001457430445314,0.0014574304453139,-0.001457430445314,0.001457430445314,-0.001457430445314,0.001457430445314,-0.001457430445314,0.0014574304453139,-0.0013994271589272,0.0013994271589272,-0.0013994271589272,0.0013994271589272,0.63636726682518,0.49969306599618,1270536,32768,0.005912120708022,0.005912120708022,0.005912120708022,37.97934342689,37.982050849136,0.00021903474741512,0.00021903474741512,0.00021903474741512,321799.60043584,0.017894812669749
37756800,0.99999965463307,0.017088524466336,0.0056961748221119,0.0056961748221119,0.0056961748221119,-0.0014228080988476,0.0014228080988476,-1.5734813429898e-17,-9.6173532552832e-18,3.1175518197554e-16,-3.402543113467e-16,-0.0014571586604413,0.0014571586604415,-0.0014571586604413,0.0014571586604415,-0.0014571586604415,0.0014571586604413,-0.0014571586604415,0.0014571586604413,-0.0013990872765801,0.0013990872765799,-0.0013990872765802,0.0013990872765799,-2.9622624460921e-16,3.5398918587336e-16,1.8793543517205e-17,3.4028372221293e-17,-0.0014228080988476,0.0014228080988477,-0.0014571586604415,0.0014571586604413,-0.0014571586604415,0.0014571586604413,-0.0014571586604412,0.0014571586604415,-0.0014571586604413,0.0014571586604415,-0.0013990872765799,0.0013990872765801,-0.0013990872765799,0.0013990872765801,-0.0013990872765803,0.0013990872765798,-0.0013990872765797,0.0013990872765804,-1.0587911840679e-18,-6.6468557666483e-18,-0.0014228080988476,0.0014228080988476,3.0587300873072e-18,-1.1234950897609e-17,-0.0014571586604414,0.0014571586604414,-0.0014571586604414,0.0014571586604414,-0.0014571586604414,0.0014571586604414,-0.0014571586604414,0.0014571586604414,-0.00139908727658,0.00139908727658,-0.00139908727658,0.00139908727658,0.61843313774832,0.4569524239045,1270536,32768,0.0059108178264295,0.0059108178264296,0.0059108178264296,37.882289002101,37.875956058269,0.0002182583120168,0.0002182583120168,0.0002182583120168,326329.9153155,0.017890833769486
37843200,0.99999967475733,0.017088524768588,0.0056961749228627,0.0056961749228627,0.0056961749228627,-0.0014224762925199,0.0014224762925199,-1.2411385546573e-17,-6.4409797030796e-18,3.1516684245754e-16,-3.370779377945e-16,-0.0014568629118995,0.0014568629118997,-0.0014568629118995,0.0014568629118997,-0.0014568629118997,0.0014568629118995,-0.0014568629118997,0.0014568629118994,-0.0013987344242739,0.0013987344242737,-0.0013987344242739,0.0013987344242737,-2.9881440083693e-16,3.511069209834e-16,1.5646580831225e-17,3.1293161662451e-17,-0.0014224762925199,0.0014224762925199,-0.0014568629118996,0.0014568629118995,-0.0014568629118997,0.0014568629118995,-0.0014568629118994,0.0014568629118997,-0.0014568629118994,0.0014568629118997,-0.0013987344242737,0.0013987344242739,-0.0013987344242737,0.0013987344242739,-0.0013987344242741,0.0013987344242735,-0.0013987344242735,0.0013987344242742,-2.5293344952733e-18,-8.2938642751984e-18,-0.0014224762925199,0.0014224762925199,2.3528692979286e-18,-1.1911400820764e-17,-0.0014568629118996,0.0014568629118995,-0.0014568629118996,0.0014568629118996,-0.0014568629118996,0.0014568629118996,-0.0014568629118996,0.0014568629118995,-0.0013987344242738,0.0013987344242738,-0.0013987344242738,0.0013987344242738,0.60246466230448,0.43132005729132,1270536,32768,0.0059094435298554,0.0059094435298554,0.0059094435298554,37.777049309518,37.769861267401,0.00021741639447614,0.00021741639447614,0.00021741639447614,331041.97561219,0.017886636718575
37929600,0.99999969360354,0.017088525054425,0.0056961750181416,0.0056961750181417,0.0056961750181417,-0.0014221796440935,0.0014221796440935,-1.1411416094954e-17,-5.4115993852358e-18,3.1616681190916e-16,-3.3601914661043e-16,-0.0014565863546029,0.0014565863546031,-0.0014565863546029,0.0014565863546031,-0.0014565863546031,0.0014565863546029,-0.0014565863546031,0.0014565863546029,-0.0013984299942117,0.0013984299942115,-0.0013984299942117,0.0013984299942115,-3.0016730068324e-16,3.5007754066555e-16,1.4499557048485e-17,3.0028494414814e-17,-0.0014221796440935,0.0014221796440935,-0.0014565863546031,0.0014565863546029,-0.0014565863546031,0.0014565863546029,-0.0014565863546028,0.0014565863546031,-0.0014565863546028,0.0014565863546031,-0.0013984299942115,0.0013984299942117,-0.0013984299942115,0.0013984299942117,-0.0013984299942119,0.0013984299942114,-0.0013984299942113,0.001398429994212,-2.176404100584e-18,-8.1468099440778e-18,-0.0014221796440935,0.0014221796440935,2.5587453614974e-18,-1.2176098616781e-17,-0.001456586354603,0.001456586354603,-0.001456586354603,0.001456586354603,-0.001456586354603,0.001456586354603,-0.001456586354603,0.001456586354603,-0.0013984299942116,0.0013984299942116,-0.0013984299942116,0.0013984299942116,0.60846151261332,0.52548026821167,1270536,32768,0.0059082148646758,0.0059082148646758,0.0059082148646758,37.671038796883,37.663766476533,0.00021656831037506,0.00021656831037506,0.00021656831037506,334779.16811003,0.017882884443468
38016000,0.99999971125874,0.017088525324222,0.0056961751080739,0.0056961751080739,0.0056961751080739,-0.0014221560649362,0.0014221560649362,-1.1293772630057e-17,-5.2645450541153e-18,3.1651974230385e-16,-3.3560739448329e-16,-0.0014564897501894,0.0014564897501896,-0.0014564897501894,0.0014564897501896,-0.0014564897501897,0.0014564897501894,-0.0014564897501897,0.0014564897501894,-0.0013984787201324,0.0013984787201322,-0.0013984787201324,0.0013984787201322,-3.0022612241569e-16,3.4995989720066e-16,1.4911309175623e-17,3.064612260552e-17,-0.0014221560649362,0.0014221560649363,-0.0014564897501896,0.0014564897501894,-0.0014564897501896,0.0014564897501894,-0.0014564897501894,0.0014564897501896,-0.0014564897501894,0.0014564897501897,-0.0013984787201322,0.0013984787201324,-0.0013984787201322,0.0013984787201324,-0.0013984787201326,0.001398478720132,-0.001398478720132,0.0013984787201327,-1.7940628396706e-18,-7.646825218268e-18,-0.0014221560649362,0.0014221560649362,2.735210558842e-18,-1.188198995454e-17,-0.0014564897501895,0.0014564897501895,-0.0014564897501895,0.0014564897501895,-0.0014564897501895,0.0014564897501895,-0.0014564897501895,0.0014564897501895,-0.0013984787201323,0.0013984787201323,-0.0013984787201323,0.0013984787201323,0.61311744717134,0.56198697248515,1270536,32768,0.0059081172484459,0.0059081172484459,0.0059081172484459,37.564950524951,37.557671685665,0.00021571960419961,0.00021571960419961,0.00021571960419961,329580.46425678,0.017882586610834
38102400,0.99999972780378,0.017088525578246,0.0056961751927487,0.0056961751927487,0.0056961751927487,-0.0014220568431536,0.0014220568431536,-1.3205478934624e-17,-7.0586078937858e-18,3.1457862513306e-16,-3.3746027905541e-16,-0.0014563455401483,0.0014563455401484,-0.0014563455401483,0.0014563455401485,-0.0014563455401485,0.0014563455401482,-0.0014563455401485,0.0014563455401482,-0.0013984135341183,0.001398413534118,-0.0013984135341183,0.001398413534118,-3.0040258761304e-16,3.4995989720066e-16,1.4528967914709e-17,2.9969672682366e-17,-0.0014220568431536,0.0014220568431536,-0.0014563455401484,0.0014563455401483,-0.0014563455401485,0.0014563455401483,-0.0014563455401482,0.0014563455401485,-0.0014563455401482,0.0014563455401485,-0.001398413534118,0.0013984135341182,-0.001398413534118,0.0013984135341183,-0.0013984135341184,0.0013984135341179,-0.0013984135341178,0.0013984135341185,-3.0293192210831e-18,-8.9703141983528e-18,-0.0014220568431536,0.0014220568431536,1.3234889800848e-18,-1.31760680684e-17,-0.0014563455401484,0.0014563455401483,-0.0014563455401484,0.0014563455401483,-0.0014563455401484,0.0014563455401484,-0.0014563455401484,0.0014563455401483,-0.0013984135341181,0.0013984135341181,-0.0013984135341181,0.0013984135341181,0.61599341667236,0.57718443256635,1270536,32768,0.0059077062506115,0.0059077062506115,0.0059077062506115,37.458854277585,37.451576894797,0.00021487083422068,0.00021487083422068,0.00021487083422068,326593.42499652,0.017881331766995
38188800,0.99999974331367,0.017088525817447,0.0056961752724823,0.0056961752724823,0.0056961752724823,-0.001421914204699,0.0014219142046989,-1.1823168222091e-17,-5.7057080474769e-18,3.1604916844426e-16,-3.3616620094155e-16,-0.0014561765442525,0.0014561765442527,-0.0014561765442526,0.0014561765442528,-0.0014561765442528,0.0014561765442525,-0.0014561765442528,0.0014561765442525,-0.0013982860304517,0.0013982860304515,-0.0013982860304517,0.0013982860304515,-2.9946143989386e-16,3.5028341672912e-16,1.532306130276e-17,3.0528479140624e-17,-0.0014219142046989,0.001421914204699,-0.0014561765442527,0.0014561765442525,-0.0014561765442527,0.0014561765442525,-0.0014561765442525,0.0014561765442527,-0.0014561765442525,0.0014561765442528,-0.0013982860304515,0.0013982860304517,-0.0013982860304515,0.0013982860304517,-0.0013982860304519,0.0013982860304513,-0.0013982860304513,0.001398286030452,-2.5587453614974e-18,-8.3820968738707e-18,-0.001421914204699,0.0014219142046989,1.8234737058947e-18,-1.2381974680349e-17,-0.0014561765442526,0.0014561765442526,-0.0014561765442526,0.0014561765442526,-0.0014561765442526,0.0014561765442526,-0.0014561765442526,0.0014561765442526,-0.0013982860304516,0.0013982860304516,-0.0013982860304516,0.0013982860304516,0.61875593985311,0.59029928701812,1270536,32768,0.0059071154001267,0.0059071154001267,0.0059071154001267,37.352757208861,37.34548210393,0.00021402205767089,0.00021402205767089,0.00021402205767089,324891.13113857,0.017879527665495
38275200,0.99999975785802,0.017088526042873,0.0056961753476242,0.0056961753476242,0.0056961753476242,-0.0014217606039367,0.0014217606039367,-1.202904428566e-17,-6.0292275759421e-18,3.1593152497936e-16,-3.3648972047002e-16,-0.0014560033319157,0.0014560033319159,-0.0014560033319157,0.0014560033319159,-0.0014560033319159,0.0014560033319157,-0.0014560033319159,0.0014560033319157,-0.0013981426014764,0.0013981426014762,-0.0013981426014765,0.0013981426014762,-3.0081433974017e-16,3.4966578853842e-16,1.4646611379606e-17,2.9822618351245e-17,-0.0014217606039367,0.0014217606039368,-0.0014560033319159,0.0014560033319157,-0.0014560033319159,0.0014560033319157,-0.0014560033319156,0.0014560033319159,-0.0014560033319156,0.0014560033319159,-0.0013981426014762,0.0013981426014764,-0.0013981426014762,0.0013981426014764,-0.0013981426014766,0.0013981426014761,-0.001398142601476,0.0013981426014767,-2.7646214250661e-18,-8.6467946698877e-18,-0.0014217606039367,0.0014217606039367,1.5881867761018e-18,-1.2646672476366e-17,-0.0014560033319158,0.0014560033319158,-0.0014560033319158,0.0014560033319158,-0.0014560033319158,0.0014560033319158,-0.0014560033319158,0.0014560033319158,-0.0013981426014763,0.0013981426014763,-0.0013981426014763,0.0013981426014763,0.62183719334346,0.60341414146988,1270536,32768,0.0059064791390249,0.0059064791390249,0.0059064791390249,37.246660055635,37.239387313062,0.00021317328044508,0.00021317328044508,0.00021317328044508,323455.69001522,0.017877584892167
38361600,0.99999977154237,0.017088526260468,0.005696175420156,0.0056961754201561,0.0056961754201561,-0.0014217125991092,0.0014217125991092,-1.1999633419436e-17,-5.8821732448215e-18,3.1610799017671e-16,-3.3648972047002e-16,-0.0014559376314538,0.0014559376314539,-0.0014559376314538,0.001455937631454,-0.001455937631454,0.0014559376314537,-0.001455937631454,0.0014559376314537,-0.0013981039090498,0.0013981039090496,-0.0013981039090498,0.0013981039090496,-2.9981437028855e-16,3.5051870365892e-16,1.5558348232553e-17,3.0352013943279e-17,-0.0014217125991092,0.0014217125991092,-0.0014559376314539,0.0014559376314537,-0.0014559376314539,0.0014559376314537,-0.0014559376314537,0.0014559376314539,-0.0014559376314537,0.001455937631454,-0.0013981039090496,0.0013981039090498,-0.0013981039090496,0.0013981039090498,-0.00139810390905,0.0013981039090494,-0.0013981039090494,0.0013981039090501,-2.7646214250661e-18,-8.6467946698877e-18,-0.0014217125991092,0.0014217125991092,1.4999541774295e-18,-1.2587850743918e-17,-0.0014559376314539,0.0014559376314538,-0.0014559376314539,0.0014559376314538,-0.0014559376314538,0.0014559376314538,-0.0014559376314539,0.0014559376314538,-0.0013981039090497,0.0013981039090497,-0.0013981039090497,0.0013981039090497,0.6380046066385,0.68645999815632,1270536,32768,0.005906280272952,0.0059062802729521,0.0059062802729521,37.197137943781,37.19360843,0.00021277710355025,0.00021277710355025,0.00021277710355025,322003.66785225,0.017876977740808
38448000,0.99999978445117,0.017088526474515,0.005696175491505,0.005696175491505,0.005696175491505,-0.0014218845436637,0.0014218845436637,-1.2117276884332e-17,-6.0292275759421e-18,3.1587270324692e-16,-3.3660736393491e-16,-0.0014560504760977,0.0014560504760979,-0.0014560504760977,0.0014560504760979,-0.001456050476098,0.0014560504760977,-0.0014560504760979,0.0014560504760977,-0.0013983229008718,0.0013983229008715,-0.0013983229008718,0.0013983229008715,-2.9928497469652e-16,3.5131279704697e-16,1.6264209021932e-17,3.1087285598882e-17,-0.0014218845436637,0.0014218845436637,-0.0014560504760979,0.0014560504760977,-0.0014560504760979,0.0014560504760977,-0.0014560504760976,0.0014560504760979,-0.0014560504760977,0.0014560504760979,-0.0013983229008715,0.0013983229008718,-0.0013983229008715,0.0013983229008718,-0.0013983229008719,0.0013983229008714,-0.0013983229008713,0.001398322900872,-2.7940322912902e-18,-8.73502726856e-18,-0.0014218845436637,0.0014218845436637,1.1764346489643e-18,-1.252902901147e-17,-0.0014560504760978,0.0014560504760978,-0.0014560504760978,0.0014560504760978,-0.0014560504760978,0.0014560504760978,-0.0014560504760978,0.0014560504760978,-0.0013983229008717,0.0013983229008717,-0.0013983229008717,0.0013983229008717,0.66536548884373,0.79944244,1270536,32768,0.0059069924457376,0.0059069924457376,0.0059069924457376,37.193945405493,37.19360843,0.00021275156324394,0.00021275156324394,0.00021275156324394,316151.12068126,0.01787915287787
38534400,0.99999979663037,0.017088526680553,0.0056961755601842,0.0056961755601843,0.0056961755601843,-0.0014221288916479,0.0014221288916479,-1.1793757355867e-17,-5.735118913701e-18,3.1616681190916e-16,-3.3616620094155e-16,-0.0014562179196042,0.0014562179196044,-0.0014562179196042,0.0014562179196044,-0.0014562179196045,0.0014562179196042,-0.0014562179196045,0.0014562179196042,-0.0013986249946113,0.0013986249946111,-0.0013986249946113,0.0013986249946111,-2.9904968776673e-16,3.5143044051186e-16,1.6381852486828e-17,3.1057874732658e-17,-0.0014221288916479,0.0014221288916479,-0.0014562179196044,0.0014562179196042,-0.0014562179196044,0.0014562179196042,-0.0014562179196042,0.0014562179196044,-0.0014562179196042,0.0014562179196045,-0.0013986249946111,0.0013986249946113,-0.0013986249946111,0.0013986249946113,-0.0013986249946115,0.0013986249946109,-0.0013986249946109,0.0013986249946116,-2.6469779601697e-18,-8.4997403387671e-18,-0.0014221288916479,0.0014221288916479,1.6175976423259e-18,-1.2440796412798e-17,-0.0014562179196043,0.0014562179196043,-0.0014562179196043,0.0014562179196043,-0.0014562179196043,0.0014562179196043,-0.0014562179196043,0.0014562179196043,-0.0013986249946112,0.0013986249946112,-0.0013986249946112,0.0013986249946112,0.67881522378253,0.79944244,1270536,32768,0.0059080044719849,0.0059080044719849,0.0059080044719849,37.193642501355,37.19360843,0.00021274914001084,0.00021274914001084,0.00021274914001084,307874.12984819,0.017882243907158
38577600,0.99999980254292,0.017088526781408,0.0056961755938025,0.0056961755938026,0.0056961755938026,-0.0014221928811396,0.0014221928811396,-1.1205540031385e-17,-5.2057233216671e-18,3.1687267269854e-16,-3.3560739448329e-16,-0.0014562706851503,0.0014562706851505,-0.0014562706851503,0.0014562706851505,-0.0014562706851505,0.0014562706851503,-0.0014562706851505,0.0014562706851503,-0.0013986835457174,0.0013986835457172,-0.0013986835457175,0.0013986835457172,-2.9993201375345e-16,3.5051870365892e-16,1.5734813429898e-17,3.0352013943279e-17,-0.0014221928811396,0.0014221928811396,-0.0014562706851505,0.0014562706851503,-0.0014562706851505,0.0014562706851503,-0.0014562706851502,0.0014562706851505,-0.0014562706851503,0.0014562706851505,-0.0013986835457172,0.0013986835457174,-0.0013986835457172,0.0013986835457175,-0.0013986835457176,0.0013986835457171,-0.001398683545717,0.0013986835457177,-1.8822954383429e-18,-7.5880034858198e-18,-0.0014221928811396,0.0014221928811396,2.2058149668081e-18,-1.152905955985e-17,-0.0014562706851504,0.0014562706851504,-0.0014562706851504,0.0014562706851504,-0.0014562706851504,0.0014562706851504,-0.0014562706851504,0.0014562706851504,-0.0013986835457173,0.0013986835457173,-0.0013986835457173,0.0013986835457173,0.68440378102942,0.79944244,1270536,32768,0.0059082694133259,0.005908269413326,0.005908269413326,37.193614764992,37.19360843,0.00021274891811993,0.00021274891811993,0.00021274891811993,305301.38274716,0.017883053278216
38664000,0.99999981369986,0.017088526974156,0.0056961756580521,0.0056961756580522,0.0056961756580522,-0.0014222142717434,0.0014222142717434,-1.1999633419436e-17,-6.0292275759421e-18,3.1604916844426e-16,-3.3660736393491e-16,-0.0014562911882546,0.0014562911882547,-0.0014562911882546,0.0014562911882548,-0.0014562911882548,0.0014562911882545,-0.0014562911882548,0.0014562911882545,-0.0013987000074464,0.0013987000074462,-0.0013987000074465,0.0013987000074462,-2.9981437028855e-16,3.5072457972248e-16,1.5852456894794e-17,3.0322603077055e-17,-0.0014222142717434,0.0014222142717435,-0.0014562911882547,0.0014562911882545,-0.0014562911882547,0.0014562911882545,-0.0014562911882545,0.0014562911882547,-0.0014562911882545,0.0014562911882548,-0.0013987000074462,0.0013987000074464,-0.0013987000074462,0.0013987000074464,-0.0013987000074466,0.0013987000074461,-0.001398700007446,0.0013987000074467,-2.0293497694634e-18,-7.911523014285e-18,-0.0014222142717434,0.0014222142717434,2.0881715019116e-18,-1.1587881292298e-17,-0.0014562911882547,0.0014562911882546,-0.0014562911882547,0.0014562911882546,-0.0014562911882546,0.0014562911882546,-0.0014562911882547,0.0014562911882546,-0.0013987000074463,0.0013987000074463,-0.0013987000074463,0.0013987000074463,0.69315295673121,0.79944244,1270536,32768,0.0059083579683344,0.0059083579683345,0.0059083579683345,37.193609081957,37.19360843,0.00021274887265566,0.00021274887265566,0.00021274887265566,304134.51429589,0.017883323830416
38750400,0.9999998242264,0.017088527157909,0.0056961757193029,0.005696175719303,0.005696175719303,-0.0014222374572946,0.0014222374572946,-1.1676113890971e-17,-5.9115841110456e-18,3.1640209883895e-16,-3.3625443354022e-16,-0.0014563206009524,0.0014563206009526,-0.0014563206009524,0.0014563206009526,-0.0014563206009526,0.0014563206009524,-0.0014563206009526,0.0014563206009524,-0.0013987119798082,0.0013987119798079,-0.0013987119798082,0.0013987119798079,-2.9928497469652e-16,3.5125397531452e-16,1.6234798155707e-17,3.0557890006848e-17,-0.0014222374572946,0.0014222374572946,-0.0014563206009526,0.0014563206009524,-0.0014563206009526,0.0014563206009524,-0.0014563206009523,0.0014563206009526,-0.0014563206009523,0.0014563206009526,-0.0013987119798079,0.0013987119798082,-0.0013987119798079,0.0013987119798082,-0.0013987119798083,0.0013987119798078,-0.0013987119798077,0.0013987119798084,-1.7940628396706e-18,-7.7056469507162e-18,-0.0014222374572946,0.0014222374572946,2.2352258330322e-18,-1.138200522873e-17,-0.0014563206009525,0.0014563206009525,-0.0014563206009525,0.0014563206009525,-0.0014563206009525,0.0014563206009525,-0.0014563206009525,0.0014563206009525,-0.0013987119798081,0.0013987119798081,-0.001398711979808,0.0013987119798081,0.70036953341937,0.79944244,1270536,32768,0.005908453932942,0.0059084539329421,0.0059084539329421,37.193608497173,37.19360843,0.00021274886797738,0.00021274886797738,0.00021274886797738,302639.10852783,0.017883617077637
38836800,0.99999983415816,0.017088527332803,0.005696175777601,0.0056961757776011,0.0056961757776011,-0.0014222502900954,0.0014222502900954,-1.1470237827402e-17,-5.5880645825805e-18,3.1663738576874e-16,-3.3587209227931e-16,-0.0014563429519666,0.0014563429519668,-0.0014563429519666,0.0014563429519668,-0.0014563429519668,0.0014563429519666,-0.0014563429519668,0.0014563429519665,-0.0013987143431774,0.0013987143431772,-0.0013987143431774,0.0013987143431772,-3.0004965721835e-16,3.5043047106024e-16,1.5411293901432e-17,3.0116727013486e-17,-0.0014222502900954,0.0014222502900954,-0.0014563429519667,0.0014563429519666,-0.0014563429519668,0.0014563429519666,-0.0014563429519665,0.0014563429519668,-0.0014563429519665,0.0014563429519668,-0.0013987143431772,0.0013987143431774,-0.0013987143431772,0.0013987143431774,-0.0013987143431776,0.001398714343177,-0.001398714343177,0.0013987143431777,-1.4117215787572e-18,-7.4409491546992e-18,-0.0014222502900954,0.0014222502900954,2.5293344952733e-18,-1.1058485700264e-17,-0.0014563429519667,0.0014563429519666,-0.0014563429519667,0.0014563429519667,-0.0014563429519666,0.0014563429519667,-0.0014563429519667,0.0014563429519666,-0.0013987143431773,0.0013987143431773,-0.0013987143431773,0.0013987143431773,0.70651770963993,0.79944244,1270536,32768,0.0059085070315452,0.0059085070315452,0.0059085070315452,37.193608436924,37.19360843,0.00021274886749539,0.00021274886749539,0.00021274886749539,301437.78309954,0.017883779381675
38880000,0.99999983897966,0.017088527418051,0.0056961758060171,0.0056961758060171,0.0056961758060171,-0.0014222567119243,0.0014222567119243,-1.1940811686988e-17,-5.8527623785974e-18,3.1599034671181e-16,-3.3643089873757e-16,-0.0014563601934101,0.0014563601934103,-0.0014563601934101,0.0014563601934103,-0.0014563601934103,0.0014563601934101,-0.0014563601934103,0.0014563601934101,-0.001398711388091,0.0013987113880907,-0.001398711388091,0.0013987113880907,-2.9928497469652e-16,3.5107751011717e-16,1.632303075438e-17,3.0940231267761e-17,-0.0014222567119243,0.0014222567119243,-0.0014563601934103,0.0014563601934101,-0.0014563601934103,0.0014563601934101,-0.00145636019341,0.0014563601934103,-0.00145636019341,0.0014563601934103,-0.0013987113880907,0.001398711388091,-0.0013987113880907,0.001398711388091,-0.0013987113880911,0.0013987113880906,-0.0013987113880905,0.0013987113880912,-1.9411171707911e-18,-7.7938795493885e-18,-0.0014222567119243,0.0014222567119243,2.2352258330322e-18,-1.1440826961178e-17,-0.0014563601934102,0.0014563601934102,-0.0014563601934102,0.0014563601934102,-0.0014563601934102,0.0014563601934102,-0.0014563601934102,0.0014563601934102,-0.0013987113880908,0.0013987113880908,-0.0013987113880908,0.0013987113880908,0.7093668611332,0.79944244,1270536,32768,0.0059085335874263,0.0059085335874263,0.0059085335874263,37.193608431294,37.19360843,0.00021274886745035,0.00021274886745035,0.00021274886745035,300553.91007927,0.017883860599646
