time,ASR_ext,ASR_strain,ASR_strain_xx,ASR_strain_yy,ASR_strain_zz,disp_x_101,disp_x_102,disp_x_103,disp_x_104,disp_x_105,disp_x_106,disp_x_p1_neg,disp_x_p1_pos,disp_x_p2_neg,disp_x_p2_pos,disp_x_p3_neg,disp_x_p3_pos,disp_x_p4_neg,disp_x_p4_pos,disp_x_p5_neg,disp_x_p5_pos,disp_x_p6_neg,disp_x_p6_pos,disp_y_101,disp_y_102,disp_y_103,disp_y_104,disp_y_105,disp_y_106,disp_y_p1_neg,disp_y_p1_pos,disp_y_p2_neg,disp_y_p2_pos,disp_y_p3_neg,disp_y_p3_pos,disp_y_p4_neg,disp_y_p4_pos,disp_y_p5_neg,disp_y_p5_pos,disp_y_p6_neg,disp_y_p6_pos,disp_y_p7_neg,disp_y_p7_pos,disp_y_p8_neg,disp_y_p8_pos,disp_z_101,disp_z_102,disp_z_103,disp_z_104,disp_z_105,disp_z_106,disp_z_p1_neg,disp_z_p1_pos,disp_z_p2_neg,disp_z_p2_pos,disp_z_p3_neg,disp_z_p3_pos,disp_z_p4_neg,disp_z_p4_pos,disp_z_p5_neg,disp_z_p5_pos,disp_z_p6_neg,disp_z_p6_pos,humidity,humidity_bc,ndof,nelem,strain_xx,strain_yy,strain_zz,temp,temp_bc,thermal_strain_xx,thermal_strain_yy,thermal_strain_zz,vonmises,vstrain
2419200,0,0,0,0,0,0,0,0,0,0,0,0,0,0,0,0,0,0,0,0,0,0,0,0,0,0,0,0,0,0,0,0,0,0,0,0,0,0,0,0,0,0,0,0,0,0,0,0,0,0,0,0,0,0,0,0,0,0,0,0,0,0,0,0,0,0,0,0,0,0,0,0,0,0,0,0,0
2505600,0.0094344996442201,0.00016746172695146,5.5820575650486e-05,5.5820575650486e-05,5.5820575650486e-05,-5.0433235992858e-05,5.0433234953952e-05,1.1442054333149e-11,-1.2971519581003e-11,-7.8129168216732e-13,-3.4039845216389e-13,-4.9550812265838e-05,4.9550817977479e-05,-4.9550819468192e-05,4.9550810596459e-05,-4.9550815116689e-05,4.9550821385364e-05,-4.9550822520782e-05,4.9550813759784e-05,-5.1076108057476e-05,5.1076133552022e-05,-5.1076134853076e-05,5.1076106852734e-05,-6.2090900941332e-12,-6.5779254525002e-12,-3.1880125960529e-12,-3.1638345133877e-12,-5.0433238716269e-05,5.0433232396187e-05,-4.9550817544337e-05,4.9550816026021e-05,-4.9550817891111e-05,4.9550815770393e-05,-4.9550818058567e-05,4.9550815373904e-05,-4.955081760567e-05,4.9550815406896e-05,-5.1076124281787e-05,5.1076114338334e-05,-5.1076117270599e-05,5.1076107429947e-05,-5.1076126969033e-05,5.1076106848389e-05,-5.1076124403872e-05,5.1076105198254e-05,-1.1962375510764e-11,1.2779334547023e-11,-5.0433234807333e-05,5.0433235735566e-05,7.1178498270921e-13,5.4149163243468e-13,-4.9550820752628e-05,4.9550811774422e-05,-4.9550821361827e-05,4.9550812529815e-05,-4.9550810842654e-05,4.9550821575149e-05,-4.9550811547839e-05,4.9550822502061e-05,-5.107609832656e-05,5.1076125895027e-05,-5.1076124973838e-05,5.1076099308491e-05,0.80608370594249,0.89000107803827,1368840,32768,0.00021011633418216,0.00021011633452718,0.00021011633334086,29.887420299547,31.13435877323,0.00015429936239638,0.00015429936239638,0.00015429936239638,279165.89401368,0.00063054799301219
2592000,0.020799358837913,0.00036892843015258,0.00012297614341365,0.00012297614344376,0.00012297614329517,-6.9997212798588e-05,6.9997212883112e-05,1.2590066368328e-11,-1.2662768783348e-11,-2.5907231437892e-13,3.3124811681064e-13,-6.9443793497032e-05,6.9443801434172e-05,-6.9443801554076e-05,6.9443793114147e-05,-6.9443793476112e-05,6.9443801806776e-05,-6.9443801568632e-05,6.944379372506e-05,-7.0467338327026e-05,7.0467363797531e-05,-7.0467363880969e-05,7.0467338447912e-05,-1.7175284902424e-12,-2.24992218485e-12,-9.2343709661587e-13,-9.3464896090258e-13,-6.9997213828116e-05,6.9997211870038e-05,-6.9443797531279e-05,6.9443797298234e-05,-6.9443797586588e-05,6.9443797165463e-05,-6.9443797793912e-05,6.9443797088023e-05,-6.9443797708413e-05,6.9443797244036e-05,-7.0467352352967e-05,7.046734900154e-05,-7.046734982851e-05,7.0467346117358e-05,-7.0467352893691e-05,7.0467346362081e-05,-7.0467352610936e-05,7.0467345311468e-05,-1.2577471902896e-11,1.2654173755939e-11,-6.9997212747828e-05,6.9997212864597e-05,1.5236060284111e-13,1.2258538469623e-13,-6.9443801989436e-05,6.9443793434276e-05,-6.9443801775588e-05,6.9443793132261e-05,-6.9443793273123e-05,6.9443802040057e-05,-6.9443793059381e-05,6.9443801767086e-05,-7.0467335179642e-05,7.0467360690026e-05,-7.046736047934e-05,7.0467335170417e-05,0.80782119423514,0.89156329086413,1368840,32768,0.00029161248767541,0.00029161248770968,0.00029161248753113,31.683586735921,31.842440110251,0.00016866869388736,0.00016866869388736,0.00016866869388736,149480.97127906,0.00087522038118792
2678400,0.033285762657707,0.00059092764331036,0.00019697588113907,0.00019697588117317,0.00019697588099812,-8.9312681271542e-05,8.9312681363753e-05,1.3118938025081e-11,-1.3139800867515e-11,-2.5377157833483e-13,3.6373245072331e-13,-8.8728155084922e-05,8.8728163319495e-05,-8.87281635804e-05,8.8728154899659e-05,-8.8728154969462e-05,8.8728163676735e-05,-8.8728163435117e-05,8.8728155230771e-05,-8.9866628383226e-05,8.9866654734022e-05,-8.9866654743631e-05,8.9866628518769e-05,-1.2763922717981e-12,-1.8322544472998e-12,-8.4159014236557e-13,-8.8183810456887e-13,-8.9312682233958e-05,8.9312680426699e-05,-8.8728159500276e-05,8.8728159183208e-05,-8.8728159457264e-05,8.8728158921154e-05,-8.8728159718353e-05,8.8728158891081e-05,-8.8728159681041e-05,8.8728158961777e-05,-8.9866642633502e-05,8.9866639732045e-05,-8.9866641151725e-05,8.9866637888799e-05,-8.9866642931925e-05,8.9866638066148e-05,-8.9866642975956e-05,8.9866637189359e-05,-1.3131162644274e-11,1.3128604445311e-11,-8.9312681271615e-05,8.931268129391e-05,5.327302511918e-14,4.9171795629514e-14,-8.8728163824842e-05,8.8728154994393e-05,-8.8728163584461e-05,8.8728154740033e-05,-8.8728154995418e-05,8.872816385937e-05,-8.8728154799849e-05,8.8728163637811e-05,-8.9866626199246e-05,8.9866652625135e-05,-8.9866652523777e-05,8.9866626139607e-05,0.80925328530188,0.89127806232602,1368840,32768,0.00037206689297665,0.00037206689302947,0.00037206689283135,32.491621577819,32.55052144726,0.00017513297262255,0.00017513297262255,0.00017513297262255,148335.65748594,0.0011168240392758
2764800,0.046404009126432,0.00082450108201555,0.0002748336940433,0.00027483369407229,0.00027483369389997,-0.00010865370471324,0.00010865370478169,1.332027357019e-11,-1.3367430123156e-11,-2.5808750622884e-13,3.2497115875123e-13,-0.00010800654026243,0.0001080065487111,-0.0001080065488838,0.00010800654007703,-0.00010800654036341,0.00010800654924079,-0.00010800654903929,0.00010800654054977,-0.00010931599684307,0.00010931602375243,-0.0001093160236446,0.00010931599694407,-1.0275033292286e-12,-1.546816935832e-12,-7.372557581331e-13,-7.0916905596037e-13,-0.00010865370558076,0.00010865370393096,-0.00010800654493788,0.00010800654445689,-0.00010800654493973,0.00010800654432628,-0.00010800654513424,0.00010800654413188,-0.00010800654506795,0.0001080065441896,-0.00010931601135165,0.00010931600857244,-0.00010931600978185,0.00010931600681747,-0.00010931601142033,0.00010931600732728,-0.00010931601137511,0.0001093160064794,-1.3353018045053e-11,1.3362858539469e-11,-0.00010865370469413,0.00010865370472648,9.4963909119968e-14,1.9603993023235e-14,-0.00010800654922128,0.00010800654019667,-0.00010800654908152,0.00010800654002187,-0.00010800654014575,0.00010800654925846,-0.00010800654001802,0.00010800654911297,-0.00010931599492035,0.0001093160216516,-0.00010931602160369,0.0001093159948946,0.81051085650584,0.89099283378791,1368840,32768,0.00045262125048822,0.00045262125052319,0.00045262125033346,32.830247502494,32.854492054626,0.00017784198001995,0.00017784198001995,0.00017784198001995,158052.93615867,0.0013587863089516
2851200,0.059662515937952,0.0010608494109463,0.00035361647035024,0.00035361647038377,0.00035361647021224,-0.00012738564132149,0.00012738564138598,1.3323197989123e-11,-1.3360712129857e-11,-2.3719256826809e-13,3.0078921366952e-13,-0.00012667993330346,0.00012667994181083,-0.00012667994197585,0.00012667993313221,-0.00012667993349485,0.00012667994239641,-0.00012667994223162,0.00012667993367845,-0.00012815495468712,0.00012815498160926,-0.00012815498151596,0.0001281549548164,-8.9486293828679e-13,-1.3677280727745e-12,-6.1926918676062e-13,-5.9636882913575e-13,-0.00012738564211295,0.0001273856406134,-0.00012667993803623,0.00012667993754991,-0.00012667993807295,0.00012667993743224,-0.00012667993825709,0.00012667993726227,-0.00012667993815686,0.00012667993729134,-0.00012815496911718,0.00012815496665404,-0.00012815496752396,0.00012815496489389,-0.00012815496914318,0.00012815496546263,-0.00012815496906455,0.00012815496455638,-1.3373670594279e-11,1.3376430425868e-11,-0.00012738564130263,0.00012738564133378,9.751456327644e-14,2.6430124563131e-14,-0.00012667994235035,0.00012667993327209,-0.00012667994222156,0.00012667993310378,-0.00012667993322428,0.00012667994238319,-0.0001266799331014,0.00012667994224452,-0.00012815495293598,0.00012815497957425,-0.000128154979561,0.00012815495291604,0.8116229421572,0.89070760524979,1368840,32768,0.00053063260371342,0.00053063260375273,0.00053063260356545,32.734782857658,32.729407882756,0.00017707826286126,0.00017707826286126,0.00017707826286126,167220.22152638,0.0015931658761005
