time,ASR_ext,ASR_strain,ASR_strain_xx,ASR_strain_yy,ASR_strain_zz,disp_x_101,disp_x_102,disp_x_103,disp_x_104,disp_x_105,disp_x_106,disp_x_p1_neg,disp_x_p1_pos,disp_x_p2_neg,disp_x_p2_pos,disp_x_p3_neg,disp_x_p3_pos,disp_x_p4_neg,disp_x_p4_pos,disp_x_p5_neg,disp_x_p5_pos,disp_x_p6_neg,disp_x_p6_pos,disp_y_101,disp_y_102,disp_y_103,disp_y_104,disp_y_105,disp_y_106,disp_y_p1_neg,disp_y_p1_pos,disp_y_p2_neg,disp_y_p2_pos,disp_y_p3_neg,disp_y_p3_pos,disp_y_p4_neg,disp_y_p4_pos,disp_y_p5_neg,disp_y_p5_pos,disp_y_p6_neg,disp_y_p6_pos,disp_y_p7_neg,disp_y_p7_pos,disp_y_p8_neg,disp_y_p8_pos,disp_z_101,disp_z_102,disp_z_103,disp_z_104,disp_z_105,disp_z_106,disp_z_p1_neg,disp_z_p1_pos,disp_z_p2_neg,disp_z_p2_pos,disp_z_p3_neg,disp_z_p3_pos,disp_z_p4_neg,disp_z_p4_pos,disp_z_p5_neg,disp_z_p5_pos,disp_z_p6_neg,disp_z_p6_pos,humidity,ndof,nelem,strain_xx,strain_yy,strain_zz,temp,thermal_strain_xx,thermal_strain_yy,thermal_strain_zz,vonmises,vstrain
2419200,0,0,0,0,0,0,0,0,0,0,0,0,0,0,0,0,0,0,0,0,0,0,0,0,0,0,0,0,0,0,0,0,0,0,0,0,0,0,0,0,0,0,0,0,0,0,0,0,0,0,0,0,0,0,0,0,0,0,0,0,0,0,0,0,0,0,0,0,0,0,0,0,0,0,0
3419200,0.15846859827806,0.0027326334055531,0.00091087780185105,0.00091087780185105,0.00091087780185105,-0.00025199771779487,0.0002516257141227,-1.1258901724707e-07,-3.9925667421255e-07,-5.6494443637258e-07,1.4123058894195e-07,-0.00025723034449317,0.00025698938553738,-0.00025731341287396,0.00025683747131903,-0.00025714129106589,0.00025707345609637,-0.0002571499877785,0.00025694069435558,-0.0002485438321242,0.0002483490270971,-0.00024839308559475,0.00024808546268085,3.3637815736707e-06,2.7379042773565e-06,5.8351897260175e-06,2.3415362092753e-07,-0.00026665445079046,0.00027266732234416,-0.00026884160791762,0.00027675007199628,-0.00027070871014252,0.0002749364047189,-0.00026890608772116,0.00027657880862483,-0.0002708245690678,0.00027467264895613,-0.00025619807352712,0.00026765376728137,-0.00026192783837467,0.00026229601539488,-0.00026435463227966,0.00026954490852855,-0.00026532040209845,0.00026877874761932,2.3646121473751e-07,5.2570724527424e-07,-0.00023025705858585,0.000231016171422,-2.4171557830336e-06,3.1084861938943e-06,-0.00023802544354297,0.00023688838497157,-0.00023610433250485,0.00023867975333892,-0.00023797551833746,0.00023701153853828,-0.00023606186759594,0.00023884799582596,-0.0002338919825387,0.0002368124323094,-0.00023380802634602,0.0002364888906841,0.78396790133405,131688,2924,0.0010486625428209,0.0011229513134207,0.00096053086696625,31.785376223378,0.00016948300978702,0.00016948300978702,0.00016948300978702,2432123.0171809,0.0031370575113797
4419200,0.3491625881248,0.0058828552763899,0.0019633433138643,0.0021642747602969,0.0017552372022287,-0.00049595229939525,0.00049522148293757,1.3269188264941e-06,-2.3703220462686e-06,-8.7682068484037e-07,9.7340660958217e-08,-0.00051820419920493,0.00051885779170876,-0.00051939849152839,0.00051748279082547,-0.00051812214107874,0.00051889221391827,-0.00051914970522881,0.00051758879092214,-0.0004761764747045,0.00047874703241016,-0.00047902633298126,0.00047512534446302,6.3557287533142e-06,5.6004902432333e-06,1.0375899407912e-05,1.6388760664603e-06,-0.00057912634620261,0.00059098579130557,-0.00059928734451087,0.00061394878855626,-0.00060227227544422,0.00061117798335044,-0.00059919708093114,0.00061377144927835,-0.00060232853035633,0.00061077677426715,-0.00053297890779882,0.00055353127429649,-0.00054205649110101,0.00054508514892873,-0.00056392220768627,0.00057416787334006,-0.00056491504076541,0.00057298703912653,-1.5539549488861e-06,2.146117697227e-06,-0.00041154028982547,0.00041211954099658,-4.0497391581973e-06,4.5023501817994e-06,-0.00043506035953189,0.00043160390768717,-0.0004320664858433,0.00043438283489237,-0.00043394119496014,0.00043290947802175,-0.00043093762574073,0.00043576623642932,-0.00042865920893812,0.00043583061473643,-0.00043163613610027,0.00043201677465272,0.77882048938918,131688,2924,0.002062803063862,0.0024347184384441,0.0017146045702502,33.598604763539,0.00018398883810831,0.00018398883810831,0.00018398883810831,3775203.1305475,0.006231482886394
5419200,0.54925822247898,0.0090984223831162,0.00300363374231,0.0035638345305546,0.0025309541102515,-0.00073035399538646,0.0007304809210067,2.6265256995879e-06,-2.8004674182507e-06,-1.3206534740703e-06,1.4678098965795e-06,-0.00077583797011513,0.00077718427221109,-0.00077763844366012,0.00077525970676542,-0.00077507178136026,0.00077790983898752,-0.00077675020319841,0.00077607774899955,-0.0006883832616415,0.00069426766334149,-0.00069322668025427,0.00068902207305582,4.7053838742965e-06,2.0701622447349e-06,6.3193071581371e-06,6.5765217381251e-07,-0.00093832888031533,0.00094509919937875,-0.00099536766342727,0.0010046133580338,-0.00099733071010186,0.0010028335462157,-0.00099590809064868,0.0010037683647133,-0.00099796569823829,0.0010018062936961,-0.00084084523043516,0.00085271131175065,-0.00084681619021375,0.0008471656272786,-0.00089152158940746,0.00089908324773354,-0.00089399093396029,0.00089612784796118,-3.0128292412492e-06,2.4161169823287e-06,-0.00057247380802982,0.0005718806313211,-3.1057831542648e-06,2.4169626408578e-06,-0.00061359815269053,0.00060939679067638,-0.00061166734634406,0.00061120008716752,-0.00061189154796669,0.00061126154115591,-0.00060993783986984,0.00061312769176206,-0.0006042199473984,0.00061084618625325,-0.00060905421034719,0.000605329427969,0.77319620116263,131688,2924,0.0030387885137867,0.0039159650680764,0.0023817113445034,36.266592204034,0.00020533273763228,0.00020533273763228,0.00020533273763228,4516571.2323515,0.0093802574495997
6419200,0.70588829907695,0.011436120816021,0.003716649376444,0.0046679247811465,0.0030515466584305,-0.00087661846803945,0.00087641281665051,2.9325143303993e-06,-3.4357102689945e-06,-1.2887253109013e-06,1.0845273767345e-06,-0.00094726812339129,0.00094877412853111,-0.00094937714436238,0.00094653111754702,-0.00094664980808553,0.00094933149273636,-0.00094864080124607,0.00094718868749235,-0.00081466526175261,0.00082094530729379,-0.00082031569487061,0.00081475723015225,5.2406613724927e-06,2.997252805874e-06,7.630914602811e-06,7.2797315703132e-07,-0.0012209371759743,0.0012291231547024,-0.0013180841027621,0.0013290445644679,-0.0013204704885184,0.001326846526146,-0.0013185335195085,0.0013283387600085,-0.0013210318390405,0.0013259576527771,-0.001066019447121,0.0010806090023605,-0.0010732239848441,0.0010738812992587,-0.0011358318651987,0.0011441382599438,-0.0011380290852042,0.0011415831006062,-3.1880058249694e-06,3.1844198963454e-06,-0.00066570389343009,0.00066569130121958,-3.4378215037372e-06,3.3225127718536e-06,-0.00073007674132753,0.00072573097016036,-0.00072771303644159,0.00072794414476767,-0.00072803518268128,0.00072790168643437,-0.00072566605041026,0.00073017482248179,-0.00070097854162781,0.00070955238698506,-0.00070670872211512,0.00070317342431372,0.72914357050949,131688,2924,0.0036455968015129,0.0050909876393834,0.0027709145027173,36.738372753076,0.00020910698202461,0.00020910698202461,0.00020910698202461,4660585.7816209,0.01157412575768
7419200,0.83157868785777,0.013248139783695,0.0042399327549229,0.0055461368615983,0.0034620701671741,-0.00097347071128329,0.00097347271841069,3.2101206288874e-06,-3.4933264247522e-06,-1.6530421214436e-06,1.6652310289986e-06,-0.0010685135080452,0.0010700084588389,-0.0010707559707539,0.0010676625751247,-0.001067591024757,0.0010708908380322,-0.0010696873401299,0.0010686470034288,-0.00089717257147842,0.0009043110133202,-0.00090315464457981,0.0008978090994712,5.1437270295641e-06,1.9549601489513e-06,7.7426633131806e-06,-5.1376307723442e-07,-0.0014597275190091,0.0014667812257561,-0.0015983568033803,0.0016089402680328,-0.0016011432549561,0.0016062594888287,-0.0015991228587706,0.0016079256372167,-0.00160203431586,0.0016050712113685,-0.0012504652293047,0.0012649443383746,-0.00125898009955,0.0012568601056275,-0.0013323479190409,0.001339995346818,-0.0013354776325206,0.0013365085791741,-3.2539449153418e-06,3.4539029508072e-06,-0.00073110240328941,0.00073130035622112,-3.9895716018293e-06,4.1166681240367e-06,-0.00081702283488633,0.00081231088194867,-0.00081422365747241,0.00081499868185671,-0.00081486789475217,0.00081460187910151,-0.00081205009228266,0.00081733051530665,-0.00076704426642621,0.00077660663794345,-0.00077312747999367,0.00076992239852898,0.71234622090495,131688,2924,0.0040482194806967,0.0060778744926461,0.0030437097569371,40.760780695387,0.0002412862455631,0.0002412862455631,0.0002412862455631,4586733.7931535,0.013257181860854
8419200,0.90749216700934,0.014320954804042,0.0045412551301628,0.0060644970539334,0.0037152026199462,-0.0010095932078856,0.0010093059396568,3.0646578888633e-06,-3.6310260071344e-06,-1.177033392368e-06,8.7585696925285e-07,-0.0011222691896743,0.0011238951584031,-0.001124517703061,0.0011215619140929,-0.001121749602784,0.0011243532945247,-0.0011238505812531,0.0011221095783571,-0.00092751307559698,0.00093394251331937,-0.00093352362759256,0.00092746596102442,4.6698302363777e-06,2.7426336848264e-06,8.4791384106916e-06,-9.6237334559647e-07,-0.0016050661627305,0.001612399929558,-0.0017721372325964,0.0017829592786208,-0.0017753036953768,0.0017798816017073,-0.0017725060404542,0.0017823616936798,-0.0017757934867478,0.001779129503348,-0.0013599125446183,0.0013762570925615,-0.0013695416038,0.0013669850657921,-0.0014473271449579,0.0014536351557077,-0.0014492228169639,0.0014514269086956,-3.1767463714089e-06,3.5247865677036e-06,-0.00075681200902002,0.00075716716636015,-4.481950025844e-06,4.8017744998682e-06,-0.00086012305260038,0.00085517291131962,-0.00085693776616153,0.00085825607502841,-0.0008579664605115,0.00085746042855356,-0.00085477027576297,0.00086057065675512,-0.00079071396489351,0.00080078132467692,-0.00079679708368414,0.00079412421314009,0.69848786968853,131688,2924,0.0041977432134738,0.0066799965566671,0.0031513705240075,41.433084670365,0.00024666467736292,0.00024666467736292,0.00024666467736292,4255452.3308288,0.014128356320223
9419200,0.94952350803838,0.014902733119593,0.0047029448863509,0.0063403925923942,0.0038593956408474,-0.0010158243682051,0.0010155153984189,3.0446222546586e-06,-3.6371936082145e-06,-1.1930595521076e-06,8.7997090766823e-07,-0.0011402516913525,0.0011418422152477,-0.0011424966613113,0.0011395142484776,-0.0011397244476529,0.0011423061896805,-0.0011418246510412,0.0011400720099795,-0.00093169113132289,0.00093808373341588,-0.00093767960463636,0.00093160887340971,4.6715781778769e-06,2.7215928659603e-06,8.79047661027e-06,-1.2865298640511e-06,-0.0016862304656682,0.001693552844042,-0.0018706638348639,0.0018816892803803,-0.0018740348122826,0.0018784034122141,-0.0018710303985931,0.0018810949441691,-0.0018745286834967,0.0018776407601599,-0.00142008205044,0.0014370143244469,-0.0014303162897791,0.0014270988652061,-0.0015079162838036,0.0015140084193539,-0.0015098188106988,0.0015117726610415,-3.1174055880133e-06,3.5699468666624e-06,-0.00076365443242339,0.00076410820481379,-4.7370908266019e-06,5.1758135496315e-06,-0.00087895346537329,0.0008738880525408,-0.00087555798358713,0.00087717508833807,-0.00087679903939099,0.00087616137510991,-0.0008733901130282,0.00087948742935831,-0.00079460448042976,0.00080499160869924,-0.00080067670588134,0.00079833211871463,0.67994985088697,131688,2924,0.0042237632967294,0.0070157020205698,0.0031803619651092,41.145479029821,0.00024436383223857,0.00024436383223857,0.00024436383223857,3926787.4268487,0.014524742263733
10419200,0.9705498241537,0.015201910004831,0.0047867246340516,0.0064778395049919,0.0039373458657877,-0.0010087237422272,0.0010085521421829,3.0926951607312e-06,-3.5454215223964e-06,-1.4594152201715e-06,1.3000978473417e-06,-0.0011390109075494,0.001140488641207,-0.0011412298692709,0.0011381660924474,-0.001138254809628,0.0011411831644343,-0.0011403436932053,0.0011389657251674,-0.00092457309932573,0.00093129563836225,-0.00093053740184116,0.00092488080053915,4.8789438264613e-06,2.242770733136e-06,7.4330634746645e-06,-1.8503770135058e-07,-0.001722173741508,0.0017292406843023,-0.0019165485096196,0.0019267501877406,-0.0019191409939519,0.0019242956585635,-0.0019171366359371,0.00192592089481,-0.0019198482314949,0.0019232908264054,-0.0014467073330484,0.0014607584941681,-0.0014545624489119,0.001453269170552,-0.001531359220232,0.0015386705205023,-0.001533917906783,0.0015357444424404,-3.292865600635e-06,3.3506745413058e-06,-0.00076100786100309,0.00076106727394762,-3.740266613108e-06,3.7383439878085e-06,-0.00088171742159201,0.00087709948536924,-0.00087913628988932,0.00087957740516602,-0.00087957696041851,0.00087935724462777,-0.00087698464002794,0.00088187688624004,-0.00079036714831874,0.00079949211161759,-0.00079640351045048,0.00079287785710416,0.69329668257672,131688,2924,0.0041947304717101,0.0071638008788568,0.0031687429454189,38.100583853089,0.00022000467082471,0.00022000467082471,0.00022000467082471,3681876.6484558,0.014633786213788
11419200,0.98269120388501,0.015371901393984,0.0048344974313109,0.0065545385012166,0.0039828654614569,-0.0010034560226771,0.0010032374222685,3.0376444201017e-06,-3.5363735415717e-06,-1.373241628491e-06,1.1622391118253e-06,-0.0011391508772475,0.0011406353566674,-0.001141350717743,0.0011383360880647,-0.0011384674007983,0.0011412549974087,-0.0011405349394674,0.0011390593257412,-0.00091992221766814,0.00092645924502034,-0.00092582064111348,0.00092010590570842,4.7976494966867e-06,2.386065131958e-06,7.6073226283114e-06,-3.0340713200787e-07,-0.0017491795605327,0.0017563032690961,-0.0019479261567049,0.0019582066036782,-0.001950613035126,0.0019556525050623,-0.0019484441236986,0.0019574524512913,-0.0019512502136412,0.0019547251016256,-0.0014683685699026,0.0014828339077752,-0.0014765042251651,0.0014750568877459,-0.0015518916919655,0.0015589455271393,-0.0015542331438867,0.0015562452401364,-3.2434958214001e-06,3.3357532758705e-06,-0.0007600190273156,0.00076011304109595,-3.8640936598995e-06,3.9028103894174e-06,-0.00088674004883724,0.00088207878757436,-0.00088406121039676,0.00088465395852445,-0.00088461951548986,0.00088431499161752,-0.00088193093234237,0.00088692976143467,-0.00078739439149841,0.00079658761999928,-0.00079336669842884,0.00079003989955633,0.67906583976506,131688,2924,0.0041728971381916,0.0072755334060028,0.0031648516344493,37.628197151739,0.00021622557721391,0.00021622557721391,0.00021622557721391,3477063.2650948,0.014721092139532
12419200,0.98965475745858,0.015471998397061,0.0048628458393049,0.0065988397812124,0.0040103127765437,-0.00099770093085649,0.00099749984657775,3.0215990524856e-06,-3.5147117643699e-06,-1.3805356430594e-06,1.2099383572022e-06,-0.0011357933424878,0.0011372371560085,-0.0011379560865698,0.0011349468176612,-0.0011350601587376,0.0011378890676568,-0.001137132403577,0.0011357171402218,-0.00091473935231502,0.00092127756628119,-0.00092061380104055,0.00091494785503571,4.7995670018256e-06,2.3269438790139e-06,7.6179641459679e-06,-4.0114244010782e-07,-0.0017620454059143,0.0017690943955617,-0.001964373398798,0.0019746728089461,-0.0019671136269512,0.0019720782989646,-0.0019649373568922,0.001973878066161,-0.0019677781760442,0.0019710829618837,-0.0014775708938589,0.0014920126764756,-0.0014857643518621,0.0014840850877919,-0.0015603773063478,0.0015673786285821,-0.0015627177048724,0.001564603434143,-3.1775165712178e-06,3.3618982876571e-06,-0.0007574289099645,0.00075759418767664,-3.8768104949051e-06,3.9935093966369e-06,-0.00088646122510468,0.0008818488074938,-0.00088376603398116,0.00088446177281909,-0.00088435878252897,0.00088406077189392,-0.00088165435289734,0.00088673770083445,-0.00078403721526766,0.00079332066954619,-0.00078996139947533,0.00078677946306486,0.69355173706228,131688,2924,0.0041491225336749,0.0073285582940003,0.0031543141556794,36.804267166658,0.00020963413733326,0.00020963413733326,0.00020963413733326,3361771.6853548,0.014740088954428
13419200,0.99354392355149,0.015526540869414,0.0048783059572415,0.0066228198090974,0.004025415103075,-0.00099025670772706,0.00099004259009788,3.0240876916245e-06,-3.5198620724097e-06,-1.4018416313457e-06,1.2017378008937e-06,-0.0011307507744187,0.0011322035969532,-0.0011329424139582,0.0011299158567284,-0.0011300434340365,0.001132847514376,-0.0011321026142493,0.0011306647588236,-0.00090783823515127,0.00091436848985232,-0.00091370680791301,0.00090804346734304,4.813391719662e-06,2.3338102359554e-06,7.648096402453e-06,-3.8286273501885e-07,-0.0017689634856597,0.0017760503477155,-0.0019726169727989,0.0019829239298511,-0.0019753418121824,0.0019803293371825,-0.0019731583225253,0.0019821465397656,-0.0019760020059503,0.0019793763619382,-0.0014829735907872,0.0014974948155031,-0.0014912209214788,0.0014895897394337,-0.0015644199979971,0.0015714630366811,-0.0015668144914748,0.0015686916513787,-3.2188986488878e-06,3.3297291619362e-06,-0.00075364983893718,0.00075376002507904,-3.9139151228931e-06,3.9731337450219e-06,-0.00088550713061521,0.00088082924582154,-0.00088278966721947,0.00088344468781908,-0.00088339657682277,0.00088305404505195,-0.00088066863461309,0.0008857107718067,-0.00077870350881948,0.00078792650190412,-0.00078464272833173,0.00078140359058253,0.67550368783651,131688,2924,0.0041182715476933,0.0073572023628291,0.0031385562957919,34.79459802539,0.00019355678420312,0.00019355678420312,0.00019355678420312,3234118.6733743,0.014721878758239
14419200,0.99578955759902,0.015557633401977,0.0048871268212531,0.0066364001412263,0.0040341064394974,-0.00098306782893005,0.00098284264419029,3.0415129486838e-06,-3.5463636935375e-06,-1.3727458862777e-06,1.156682940093e-06,-0.0011236482773332,0.0011251303045386,-0.0011258516469424,0.0011228260454023,-0.0011229646635009,0.0011257496602229,-0.0011250392774352,0.0011235523090179,-0.00090105913211636,0.00090760238043041,-0.00090697602078133,0.00090123916607319,4.7872868738825e-06,2.3808644890251e-06,7.6109318403215e-06,-3.2277824715199e-07,-0.0017684901539838,0.0017755988108002,-0.0019744974450983,0.0019847711191941,-0.0019771915073147,0.0019822095365969,-0.0019750155037963,0.00198401843912,-0.0019778276977002,0.0019812803193735,-0.0014804823812691,0.00149495812032,-0.0014886392072008,0.0014871521511642,-0.0015612430509255,0.0015682679527845,-0.0015635766544287,0.001565572825643,-3.2487621865432e-06,3.3439908264722e-06,-0.00074886242554972,0.00074895861147608,-3.8743007903797e-06,3.9166013328493e-06,-0.00088074809159147,0.00087607693026919,-0.00087806411859544,0.00087866010687484,-0.00087862222973611,0.00087831583501257,-0.00087592842170307,0.00088094121502035,-0.00077331015152201,0.0007825274471417,-0.00077929868607095,0.00077596569833791,0.66543916135077,131688,2924,0.0040884457448553,0.0073552963824094,0.0031186566946666,32.643906427214,0.00017635125141771,0.00017635125141771,0.00017635125141771,3171005.7981886,0.014669484555275
15419200,0.9969589435211,0.01557475318805,0.0048920407614908,0.006643746957829,0.0040389654687302,-0.00097101532372288,0.00097077656949249,3.0553564973646e-06,-3.5718153582469e-06,-1.3116106101672e-06,1.0798370164021e-06,-0.001111309032201,0.0011128338892764,-0.0011135178635836,0.0011105113529364,-0.0011106656047919,0.0011134068204231,-0.0011127509063225,0.0011111881454628,-0.0008895489492046,0.00089607390170274,-0.00089549098989354,0.00088964394803197,4.743895004887e-06,2.4760470160436e-06,7.5051095338056e-06,-1.6606641248164e-07,-0.0017590687359029,0.0017662258847272,-0.0019661085654473,0.0019762974087256,-0.0019687236907605,0.0019738249947502,-0.0019665845317777,0.0019755886353629,-0.0019693203847072,0.0019729515492976,-0.0014707208046557,0.0014850327890216,-0.0014786447785217,0.0014775274450156,-0.0015505431919929,0.0015575712966194,-0.0015527477518226,0.0015550143786042,-3.2677287245896e-06,3.3642499116256e-06,-0.00074000182136527,0.00074008602256933,-3.7572981597232e-06,3.773678736196e-06,-0.00087150567988893,0.00086689631137818,-0.00086891101069018,0.0008693951112627,-0.00086936851427393,0.00086914958399311,-0.00086676123219605,0.00087168441889978,-0.00076366059326783,0.00077283573067704,-0.0007696899360412,0.00076623255429179,0.70138893960784,131688,2924,0.0040384186213997,0.0073164383902672,0.00308181137183,27.069722678281,0.00013175778142625,0.00013175778142625,0.00013175778142625,3085010.5445828,0.014541912634918
16419200,0.99770964599109,0.015585365676485,0.0048950832875413,0.0066482892492109,0.0040419931397327,-0.00096405085810292,0.00096381730503989,3.0615087842248e-06,-3.584538139971e-06,-1.286715454067e-06,1.0748940592414e-06,-0.0011066553081933,0.0011081955671771,-0.0011088553889839,0.0011058623523777,-0.0011060118816026,0.0011087652459107,-0.0011081191793581,0.0011065403983111,-0.00088281423028239,0.00088933355073883,-0.00088875424504211,0.00088288313458409,4.7313415372092e-06,2.4917279157937e-06,7.4718084755403e-06,-1.2834336567414e-07,-0.0017598288809157,0.0017669872612756,-0.0019653787049927,0.0019755379956724,-0.001967973177479,0.00197308823094,-0.0019658520611348,0.0019748326029869,-0.0019685476734952,0.0019722183792187,-0.0014729193082539,0.0014871802358163,-0.0014807496203736,0.0014796875004892,-0.0015517731736558,0.001558779431674,-0.001553895853244,0.0015562399756649,-3.244250264507e-06,3.4030925495049e-06,-0.00073612660278509,0.00073625516711103,-3.6961950168961e-06,3.7625271089125e-06,-0.00087019516185007,0.00086565118054762,-0.00086764799881433,0.00086811912513682,-0.00086805097508555,0.00086790542186149,-0.00086548944526929,0.00087041780342973,-0.00075852214317096,0.00076773465449623,-0.00076454602615634,0.00076111591372733,0.67697638766785,131688,2924,0.0040095702546741,0.007319529247399,0.0030658253110787,24.418335321128,0.00011054668256903,0.00011054668256903,0.00011054668256903,2972893.1355641,0.014499586234464
17419200,0.99821378820134,0.015592691923949,0.0048971939290911,0.0066513933311232,0.0040441046637343,-0.00095731063055619,0.00095707425369399,3.0969691325858e-06,-3.6103751780203e-06,-1.2682190150815e-06,1.0411417782176e-06,-0.0010992191016719,0.001100795045001,-0.0011014468108371,0.0010984427333093,-0.0010985968154884,0.0011013431604495,-0.0011007084869279,0.0010990894473344,-0.00087665908349262,0.00088324556764585,-0.000882683079424,0.00087671395172976,4.7151125516323e-06,2.5305908766906e-06,7.4205250556202e-06,-5.5594910073686e-08,-0.0017543299488445,0.0017615129472251,-0.0019611898958118,0.001971317208076,-0.0019637504418858,0.0019689115014327,-0.0019616428523681,0.0019706332680978,-0.0019643248989846,0.0019680686042906,-0.0014666906346894,0.0014808606912243,-0.0014744342644809,0.0014735729313777,-0.0015449501998894,0.0015519820683955,-0.0015470665725959,0.0015495107343329,-3.3044601045893e-06,3.4072952787007e-06,-0.00073104958473406,0.00073113261234123,-3.6654461288375e-06,3.6724523341289e-06,-0.0008643673337529,0.00085979477745665,-0.00086183689313129,0.00086223056564812,-0.00086220784211958,0.00086207447336504,-0.00085965890615257,0.00086454365009062,-0.00075324845465249,0.00076244805379828,-0.00075936228423239,0.00075575909371609,0.69394003840877,131688,2924,0.0039815948957004,0.0072968540077501,0.0030446281758188,21.980202011767,9.1041616094134e-05,9.1041616094134e-05,9.1041616094134e-05,2940980.4534215,0.014426686697805
18419200,0.99852698492688,0.015597170067773,0.0048984846635553,0.0066532859903492,0.0040453994138682,-0.00094770490476708,0.00094742716998794,3.1070148055641e-06,-3.6648587260674e-06,-1.2546215881658e-06,9.8194909495787e-07,-0.0010903801153609,0.001091967611516,-0.001092644004121,0.0010896018270761,-0.0010897898430311,0.0010924892788565,-0.0010919264777517,0.0010902319258754,-0.00086747074682113,0.00087404029401955,-0.00087356019947457,0.00086749137572717,4.6923373510723e-06,2.5783964819498e-06,7.3556494072529e-06,3.1755658426376e-08,-0.0017477379249303,0.0017549452018991,-0.001953918297074,0.0019639933619044,-0.0019564175085595,0.0019616366559584,-0.0019543438792046,0.0019633385867668,-0.001956959722706,0.0019608059921094,-0.0014611945728972,0.0014752687864151,-0.0014687657711097,0.0014680731451331,-0.0015383632347091,0.0015454014889513,-0.001540407953201,0.0015429952955188,-3.380457247184e-06,3.3961101534361e-06,-0.00072444034818786,0.00072445295637633,-3.6203675560648e-06,3.5652704114844e-06,-0.00085868409610087,0.00085407184505276,-0.00085620225831174,0.00085645459953309,-0.00085649487123132,0.00085637088946384,-0.00085400510174228,0.00085879648625053,-0.00074557320255739,0.00075469355144645,-0.00075173741850166,0.0007479491134346,0.68267067351056,131688,2924,0.0039416657340651,0.007269617633932,0.0030170182071139,17.477991088745,5.5023928709959e-05,5.5023928709959e-05,5.5023928709959e-05,2850238.2668816,0.014330556656271
19419200,0.99878631767766,0.015601101939057,0.0048996290383046,0.0066549216571455,0.0040465512436072,-0.00094540510895905,0.00094513533995299,3.1177767422756e-06,-3.6662816471124e-06,-1.2661153207572e-06,1.0004889534166e-06,-0.00108803178157,0.0010896215991357,-0.0010902975050074,0.0010872496941629,-0.0010874312118153,0.0010901533062656,-0.001089571662669,0.0010878898376964,-0.00086547489069754,0.00087207959599137,-0.00087158472300687,0.00086552331479928,4.7012932120563e-06,2.5574256845483e-06,7.3496725015285e-06,2.5796036486829e-08,-0.0017484123206278,0.0017556083492783,-0.0019556339670385,0.0019657092721295,-0.0019581345674076,0.0019633522866604,-0.00195606968289,0.0019650442857721,-0.0019586881374527,0.0019625122332618,-0.0014609547764217,0.0014750068948072,-0.0014685248837105,0.0014678113076919,-0.0015378423264572,0.0015448998073667,-0.0015399213146244,0.0015424689295323,-3.3859110785322e-06,3.4028684830375e-06,-0.00072308197036778,0.00072309807300728,-3.6184140139151e-06,3.5674606275984e-06,-0.00085725703787127,0.00085264543249009,-0.00085477488636622,0.00085502818535641,-0.000855065047587,0.00085494838690653,-0.00085257276913723,0.00085737339191018,-0.00074411310810932,0.00075324222794484,-0.00075029572286426,0.00074648983541011,0.72158242958201,131688,2924,0.00393214902208,0.0072723878672026,0.003011390039769,17.551568050536,5.5612544404288e-05,5.5612544404288e-05,5.5612544404288e-05,2831027.3171063,0.01431800083495
20419200,0.99901200867011,0.015604560657006,0.0049006372397311,0.0066563563588957,0.004047567058379,-0.00094515939494437,0.00094490005926425,3.1214219618493e-06,-3.6592349734511e-06,-1.2933836836121e-06,1.0394277305256e-06,-0.0010901802536246,0.0010917576690114,-0.0010924447121489,0.0010893869395213,-0.0010895590317325,0.0010923115331863,-0.0010916986459133,0.001090049267359,-0.00086532871340611,0.00087196256440102,-0.00087143566451403,0.00086541073506919,4.7150117418573e-06,2.505465943683e-06,7.3753831511043e-06,-3.6964244428723e-08,-0.0017554724145087,0.0017626317031443,-0.001961127621968,0.0019712168773157,-0.0019636563611543,0.0019688306633547,-0.0019615843092005,0.0019705302513757,-0.0019642311828088,0.0019679686097003,-0.0014692107424294,0.0014832923099309,-0.0014768667448788,0.0014760060044334,-0.001545511295155,0.0015525671814372,-0.0015476552511465,0.0015500698728847,-3.3781092144075e-06,3.4071807652331e-06,-0.00072429584969403,0.0007243243112608,-3.6549430324446e-06,3.6185354725277e-06,-0.00086113240687131,0.00085650510214819,-0.00085862149937404,0.00085891669243669,-0.00085894169541696,0.00085880647485917,-0.00085642053201289,0.00086126088041288,-0.00074457169058263,0.00075373824876791,-0.0007507508882363,0.00074698984215937,0.72910480592047,131688,2924,0.0039311878280959,0.0073014569852835,0.0030164875458338,18.597312354036,6.3978498832292e-05,6.3978498832292e-05,6.3978498832292e-05,2771204.3051172,0.014351706603339
21419200,0.99916555008421,0.015606851305281,0.0049013024969426,0.0066573091698198,0.0040482396385188,-0.00093721088421383,0.00093694326689707,3.142636389375e-06,-3.6892485301092e-06,-1.2577030088172e-06,9.9409752703026e-07,-0.0010826497318245,0.0010842612373013,-0.0010849248217238,0.0010818712014396,-0.0010820507028121,0.0010847892802576,-0.0010842081983191,0.0010825028093438,-0.00085792695641012,0.00086457780137873,-0.00086407652213846,0.00085795211053074,4.6889280277204e-06,2.560653363528e-06,7.3287563055901e-06,3.9103811416809e-08,-0.0017492804912135,0.0017564666500866,-0.0019548434469681,0.0019648906848107,-0.0019573366691553,0.0019625443755266,-0.0019552763049007,0.0019642283274688,-0.001957886172169,0.0019617193149047,-0.0014634606916588,0.0014774733781498,-0.0014710099228522,0.0014703400086718,-0.0015391302686962,0.0015461698761274,-0.0015411932322292,0.0015437590946007,-3.3981457757127e-06,3.4379520475026e-06,-0.00071866835674166,0.00071869788675678,-3.5980097935009e-06,3.5537135846591e-06,-0.00085580453724898,0.00085120231256844,-0.00085333748907812,0.0008535742207146,-0.0008535974993227,0.0008535216292328,-0.00085111813524698,0.00085593169141436,-0.00073856143116587,0.00074775235990247,-0.0007447900885312,0.00074094893656252,0.70951084607007,131688,2924,0.003898194310935,0.0072758918362623,0.0029931031051848,15.225615260312,3.7004922082493e-05,3.7004922082493e-05,3.7004922082493e-05,2709173.5427561,0.014268590031794
22419200,0.99929265264868,0.015608767434019,0.0049018608093908,0.0066581008290946,0.0040488057955338,-0.00093441960908821,0.00093414948279646,3.1537908999508e-06,-3.7021471631e-06,-1.2649247952321e-06,9.9882457645908e-07,-0.0010794395279873,0.0010810538814705,-0.0010817286158452,0.0010786577785688,-0.0010788399754238,0.001081584768252,-0.0010810047644669,0.001079297550126,-0.00085551818738722,0.00086219269437787,-0.00086169873233214,0.00085556604261799,4.6948431513203e-06,2.5540338011734e-06,7.3193635086211e-06,4.6314728323677e-08,-0.0017479842205044,0.0017551707191813,-0.0019547323974001,0.0019647809073099,-0.0019572169516466,0.001962440965833,-0.0019551675361271,0.001964116990373,-0.0019577696289359,0.0019616020280962,-0.001461220947576,0.0014752143682202,-0.0014687425082179,0.0014680704814083,-0.0015366371372646,0.0015436986257482,-0.0015387136980386,0.0015412714024036,-3.4243560696239e-06,3.4362238961172e-06,-0.00071671862450985,0.00071672939933458,-3.5964244751625e-06,3.5389142772049e-06,-0.00085338020489017,0.00084875663340714,-0.0008509150582022,0.00085112269820703,-0.00085116396816554,0.00085108315122317,-0.00084868885808629,0.00085349166912716,-0.00073662789032703,0.00074580576601116,-0.00074288160612707,0.00073898374464068,0.71604798228477,131688,2924,0.00388660901292,0.0072705425665253,0.0029849652049066,14.858990533535,3.4071924268277e-05,3.4071924268277e-05,3.4071924268277e-05,2697192.4124774,0.014243151265689
23419200,0.9994055213571,0.015610440086801,0.0049023477959511,0.0066587920418479,0.0040493002490019,-0.00093387996131544,0.00093361543615802,3.1569983132339e-06,-3.7034423492282e-06,-1.2684261789062e-06,1.0132801821362e-06,-0.0010797215947226,0.0010813351225607,-0.0010820113867597,0.0010789372955763,-0.0010791140221416,0.0010818729881447,-0.0010812824863047,0.0010795867566846,-0.00085515876468463,0.00086184147693218,-0.00086134013529396,0.00085521474274766,4.6989337557667e-06,2.5402443058486e-06,7.332945482433e-06,2.124161928518e-08,-0.0017513895146396,0.0017585656323513,-0.001958174246972,0.0019682320440778,-0.001960670627214,0.0019658805889703,-0.001958615941866,0.0019675614372971,-0.0019612280888169,0.0019650295194223,-0.0014644854702171,0.0014785014252864,-0.0014720376512355,0.0014712995728528,-0.0015396729911677,0.0015467266988613,-0.001541753214573,0.0015442759556722,-3.4188346554979e-06,3.4461864076659e-06,-0.00071700814303384,0.00071703220195621,-3.6072299330089e-06,3.5662542328694e-06,-0.00085452463867784,0.00084989965223924,-0.00085204984019122,0.00085227751867227,-0.00085230709527229,0.00085222614045941,-0.00084982212133889,0.00085464997201784,-0.00073671951330496,0.00074592687451897,-0.00074297082134969,0.00073909736033046,0.70404422442054,131688,2924,0.0038843993179481,0.0072845882612294,0.0029862114182024,15.705719502739,4.0845756021915e-05,4.0845756021915e-05,4.0845756021915e-05,2673219.7087798,0.014256425824504
24419200,0.99951206856518,0.015612046212334,0.0049028166412597,0.0066594530604822,0.0040497765105924,-0.00093549614729261,0.00093523884509077,3.1637854994933e-06,-3.6989948027313e-06,-1.2953040088012e-06,1.0436601211639e-06,-0.0010814633566379,0.0010830677122209,-0.0010837551491956,0.0010806690387239,-0.0010808395307821,0.0010836235946307,-0.0010830061727687,0.0010813327192297,-0.00085695150694919,0.00086367057238004,-0.00086314046226387,0.00085703757759088,4.7164607473243e-06,2.5010789434587e-06,7.3584274935538e-06,-2.3598225584352e-08,-0.0017562598577027,0.0017634156988324,-0.001964062793222,0.0019741404130799,-0.0019665822818889,0.0019717634112285,-0.0019645217360111,0.0019734518223912,-0.0019671600669361,0.0019709018528518,-0.0014682070657562,0.0014822513492927,-0.0014758337654887,0.0014750005397838,-0.0015433680571468,0.0015504364592799,-0.0015455172624808,0.001547936081659,-3.4202628183333e-06,3.4472174830895e-06,-0.00071868164982303,0.00071870782798954,-3.6418257940127e-06,3.6020777446729e-06,-0.00085634897703186,0.00085170146943673,-0.00085384716454169,0.00085410377852442,-0.00085413111718451,0.00085403050148846,-0.00085161787629711,0.00085647386753484,-0.00073850401163588,0.00074773794462519,-0.00074476547065343,0.00074091022625094,0.7154940480628,131688,2924,0.0038911338922015,0.0073046907878062,0.0029931865924188,17.881578703145,5.8252629625162e-05,5.8252629625162e-05,5.8252629625162e-05,2678144.987357,0.014290718564133
25419200,0.99960920830711,0.015613584024429,0.0049032679898559,0.0066600818032625,0.0040502342313111,-0.00093708235731474,0.00093683157793658,3.1631444898929e-06,-3.693790043132e-06,-1.3169840968416e-06,1.0750802704659e-06,-0.0010841954799712,0.0010857863447587,-0.0010864860798969,0.0010833903855367,-0.0010835544135462,0.0010863602440501,-0.0010857204525808,0.0010840741710115,-0.00085863768715667,0.00086537010461523,-0.00086481876015233,0.00085874842934405,4.7316940850856e-06,2.462991920327e-06,7.3963888156801e-06,-8.4159421414958e-08,-0.0017626105287503,0.0017697440531575,-0.0019702746626758,0.001980380027716,-0.0019728243940366,0.0019779709380553,-0.001970750558306,0.0019796738067752,-0.0019734179797368,0.0019770872503182,-0.0014744200548833,0.0014885233054535,-0.0014821366395043,0.0014811578928895,-0.0015494285688382,0.0015564927227856,-0.0015516231167389,0.0015539350013799,-3.410348809284e-06,3.4511486555741e-06,-0.00072072515288863,0.00072076541417789,-3.681412657565e-06,3.6601670260382e-06,-0.00085962257068814,0.00085495809896131,-0.00085709001543795,0.00085739223202234,-0.00085740634753903,0.00085728424375115,-0.00085486316051352,0.00085976172150371,-0.00074038193159705,0.00074965433769201,-0.0007466326077764,0.00074283197242469,0.75065157268328,131688,2924,0.0038977528749515,0.0073308859007662,0.0030017293696283,19.926560985447,7.4612487883573e-05,7.4612487883573e-05,7.4612487883573e-05,2661306.413722,0.014332677093387
26419200,0.99968885511972,0.015614872796855,0.0049036466276826,0.0066606078252868,0.0040506183438853,-0.00093601058976772,0.00093576245505842,3.164461775293e-06,-3.696671577124e-06,-1.3198254703822e-06,1.0848283604558e-06,-0.0010849199853713,0.001086509721767,-0.0010872089042676,0.0010841120223831,-0.0010842725582782,0.0010870888204527,-0.0010864446534287,0.0010848036742996,-0.00085776698262137,0.00086450045369463,-0.00086394224607981,0.00085787775753439,4.7324589240736e-06,2.4503536589269e-06,7.4211159749858e-06,-1.2048708233101e-07,-0.0017665347224579,0.0017736552139152,-0.0019731846856354,0.0019833006670424,-0.0019757534515334,0.0019808710762719,-0.0019736665940683,0.0019825892409598,-0.001976347246956,0.0019799804067325,-0.0014791019975126,0.0014932510596966,-0.0014868690528797,0.001485802491114,-0.0015537418085799,0.0015607789167383,-0.0015559327958476,0.0015582031432346,-3.3992762331657e-06,3.4659820217988e-06,-0.00072096067159101,0.00072102203270289,-3.6988015052734e-06,3.7023978396601e-06,-0.00086168763951155,0.00085702301741692,-0.00085914224136049,0.00085947518346797,-0.00085946846427025,0.0008593490970875,-0.00085691319429201,0.00086184727012756,-0.00074022393466059,0.00074954104017975,-0.00074646846710091,0.00074271548466367,0.76692112596522,131688,2924,0.00389333867605,0.0073470471444311,0.0030027721636942,20.393280622158,7.8346244977262e-05,7.8346244977262e-05,7.8346244977262e-05,2614996.8418867,0.014345667286077
27419200,0.99975830891681,0.015615953951359,0.0049039628969941,0.0066610508665799,0.0040509401877847,-0.00093666342527068,0.00093642011660832,3.1708446541168e-06,-3.6919701760514e-06,-1.3474640635585e-06,1.1119366501203e-06,-0.0010869322963579,0.0010885106907707,-0.0010892244234034,0.0010861130804717,-0.0010862705283096,0.0010891072096803,-0.0010884383841991,0.0010868182932739,-0.00085888318486912,0.00086565608193622,-0.00086507159790518,0.00085902486978767,4.7481919773064e-06,2.4125574070597e-06,7.4454194000281e-06,-1.6509712184932e-07,-0.0017717984136874,0.0017788997649689,-0.0019782260057401,0.0019883641634977,-0.001980818007937,0.001985911280879,-0.0019787233741197,0.0019876355240494,-0.0019814331609178,0.0019850073660028,-0.0014843596577257,0.0014985356026934,-0.0014922066930602,0.0014910517993569,-0.0015587903627151,0.001565844928361,-0.0015610564833628,0.0015632223363167,-3.4074639779577e-06,3.4598387936896e-06,-0.00072231737656106,0.00072236918335465,-3.7400467320474e-06,3.7307772883546e-06,-0.00086435275946268,0.00085965485677066,-0.00086177672816753,0.0008621320881802,-0.00086213426664341,0.00086198317596824,-0.00085954823724599,0.00086450330125806,-0.00074169261621825,0.00075102844420163,-0.00074795300214513,0.00074420089714747,0.73788855883174,131688,2924,0.0038960802138117,0.0073687462737628,0.0030084121119359,22.249487837461,9.3195902699688e-05,9.3195902699688e-05,9.3195902699688e-05,2595193.6983333,0.014376185834022
28419200,0.99981539772009,0.015616888914864,0.0049042379988803,0.006661430979525,0.0040512199364589,-0.00093685416185001,0.00093661461299859,3.1772772938746e-06,-3.6952071406754e-06,-1.344046632789e-06,1.1156558701085e-06,-0.0010866680461029,0.0010882502707415,-0.0010889658052713,0.0010858503927296,-0.0010860061502436,0.001088847383776,-0.0010881736448442,0.0010865608978146,-0.00085939177467742,0.00086617900235953,-0.00086559815304516,0.00085954305102151,4.7474602223422e-06,2.4118320929819e-06,7.4496215424347e-06,-1.762060287037e-07,-0.001773313136473,0.0017804121728144,-0.0019809543608019,0.001991102978987,-0.0019835530869022,0.0019886499979701,-0.0019814516059744,0.001990373817806,-0.0019841745313289,0.001987728468838,-0.0014847728622593,0.0014989562854316,-0.0014926351840117,0.0014914540168919,-0.0015592489522818,0.0015663037947307,-0.0015615167971675,0.0015636688385057,-3.4207978029735e-06,3.4564050652436e-06,-0.00072256232328251,0.00072260182721071,-3.7541144625987e-06,3.7323599303645e-06,-0.00086408927648258,0.00085937100473413,-0.00086150322563243,0.00086185524019338,-0.00086186987423635,0.00086170124222224,-0.00085927465163519,0.00086423362210323,-0.00074225936325354,0.0007516002689954,-0.00074853128783687,0.00074475295777562,0.77520834858532,131688,2924,0.0038968809853825,0.0073750177420206,0.0030094111567266,23.439579031657,0.00010271663225326,0.00010271663225326,0.00010271663225326,2606182.4408487,0.014384362026665
29419200,0.99986178653375,0.01561756225775,0.0049044337049386,0.0066617090215728,0.0040514195312382,-0.00093734743165322,0.0009371090297203,3.1781701550227e-06,-3.6949467743175e-06,-1.3648328669839e-06,1.1358338081885e-06,-0.0010890168986086,0.001090589866653,-0.0010913132873004,0.001088189268757,-0.001088341876651,0.0010912002161527,-0.0010905134119201,0.0010889079728992,-0.0008599623534102,0.00086676180380448,-0.00086616025909278,0.00086012182563037,4.7601551402769e-06,2.3834683517039e-06,7.4866548408043e-06,-2.2332257566318e-07,-0.001779131218328,0.0017862156994371,-0.0019858922689411,0.0019960590145084,-0.0019885155033434,0.0019935728067745,-0.0019864026533182,0.0019953169812195,-0.0019891439440165,0.001992655611373,-0.0014910485099067,0.0015052921797261,-0.0014989897212362,0.0014977036605173,-0.0015652183302278,0.0015722625768819,-0.0015675215712583,0.0015695987536165,-3.4066669283384e-06,3.4709315752271e-06,-0.00072405625244734,0.00072412013945232,-3.7820496131598e-06,3.7877808244438e-06,-0.00086747955943961,0.00086275657422078,-0.00086487087699368,0.00086526652327923,-0.00086525783834927,0.00086508815537785,-0.00086263863101279,0.00086764069121131,-0.00074334222247741,0.00075273148565321,-0.00074961081422742,0.00074589413198538,0.68889126626384,131688,2924,0.0038989624907601,0.0073990073449962,0.0030156951676915,24.778337395782,0.00011342669916626,0.00011342669916626,0.00011342669916626,2569124.5351181,0.014417202370795
30419200,0.99989868921101,0.01561808860096,0.004904586406947,0.0066619266405485,0.0040515755534643,-0.00093853682059366,0.00093830117117686,3.1910240545536e-06,-3.7048476696695e-06,-1.3615506281624e-06,1.1350316460925e-06,-0.0010869754432303,0.0010885592865914,-0.0010892788933896,0.0010861509988473,-0.0010863010500792,0.0010891684718647,-0.0010884800208938,0.001086868934523,-0.00086118922237534,0.00086801399789373,-0.0008674102366391,0.00086135033875844,4.7637222239813e-06,2.3902067210401e-06,7.4691509876431e-06,-1.9510711943175e-07,-0.0017775243093904,0.0017846186788789,-0.0019882259478119,0.001998386944884,-0.0019908347368493,0.0019959157411657,-0.0019887350990963,0.0019976453482942,-0.0019914615856414,0.0019949987158295,-0.0014858521131928,0.0015000615057543,-0.0014937495304686,0.0014925229141163,-0.0015604499637679,0.0015675163291641,-0.0015627511781142,0.0015648554550346,-3.4188726767485e-06,3.4815025678676e-06,-0.0007240082792226,0.00072407021289132,-3.7609426141022e-06,3.7635777800639e-06,-0.00086416011186335,0.00085944272500849,-0.00086156666137856,0.00086193793609034,-0.00086193067231801,0.00086178231869654,-0.00085932716456973,0.00086431987136585,-0.00074395852790928,0.00075335454143693,-0.00075025123869662,0.00074649417712739,0.67663456818345,131688,2924,0.0039038803094126,0.0073924629779792,0.0030154847655931,26.129009144291,0.00012423207315433,0.00012423207315433,0.00012423207315433,2636582.2184761,0.014415303509505
31419200,0.99992856244955,0.015618546219874,0.004904720531829,0.0066621138100471,0.0040517118779982,-0.00094112990916344,0.00094090258445845,3.1911889438342e-06,-3.6967493428093e-06,-1.3816787407144e-06,1.1646617988396e-06,-0.0010895226050376,0.0010910954285518,-0.0010918236049696,0.0010886899278127,-0.0010888322262531,0.0010917212903969,-0.0010910086057309,0.0010894242780207,-0.00086377776254566,0.00087061959221813,-0.00086999146439542,0.0008639637229502,4.7787670638653e-06,2.3554775035795e-06,7.4924992838958e-06,-2.3746540931598e-07,-0.001782658808172,0.0017897340710638,-0.0019942610570904,0.0020044408174329,-0.0019968907457493,0.0020019474648269,-0.0019947859104978,0.0020036825462297,-0.0019975335968775,0.0020010139922538,-0.0014898750915475,0.0015041135244451,-0.0014978358014252,0.0014965090935541,-0.0015645512151407,0.0015716255274224,-0.0015669006620101,0.0015689144255792,-3.4103497499982e-06,3.4820730673899e-06,-0.00072631494763079,0.00072638607923481,-3.7881236660438e-06,3.8015430685908e-06,-0.00086647824417145,0.00086175059556593,-0.00086386321759449,0.00086426742280182,-0.00086425162062656,0.00086408758815259,-0.00086162631398416,0.00086664662567373,-0.00074635743453456,0.00075577634318897,-0.00075264243885621,0.00074892353345947,0.72615477803009,131688,2924,0.0039146694310131,0.0074136612710702,0.0030251044924881,28.436007460712,0.00014268805968569,0.00014268805968569,0.00014268805968569,2650103.9163563,0.014457510737562
32419200,0.99995039003255,0.015618897344368,0.0049048238547793,0.0066622567846396,0.0040518167049491,-0.00094130650283751,0.00094107896388135,3.1868126674635e-06,-3.6933146300876e-06,-1.3922877490504e-06,1.1760549393007e-06,-0.0010924737344496,0.0010940372401092,-0.0010947736362804,0.0010916350387822,-0.0010917769972446,0.0010946700427185,-0.0010939506043534,0.0010923750965333,-0.00086388798597876,0.00087072520460924,-0.00087009147115346,0.00086407791764204,4.7815009200952e-06,2.3371823908067e-06,7.528513590253e-06,-2.8842075587592e-07,-0.0017890349241824,0.0017960952408878,-0.0019984005895251,0.0020085982492798,-0.0020010568919092,0.002006076335453,-0.0019989320589577,0.002007834282319,-0.002001706950778,0.0020051386596469,-0.0014981096130349,0.0015124148995204,-0.0015061535209495,0.0015047149753564,-0.0015722989243917,0.0015793492050873,-0.0015746665971062,0.0015766180855575,-3.4021706712321e-06,3.4825549566042e-06,-0.00072781332136651,0.00072789328996241,-3.825606760449e-06,3.850874461525e-06,-0.00087091621451652,0.00086617030721438,-0.00086827251380079,0.00086871556451356,-0.00086869258204929,0.00086850444219611,-0.00086603737369116,0.00087109076198461,-0.00074706221696039,0.00075650873174003,-0.00075333577524769,0.00074966438226946,0.76213985049623,131688,2924,0.003915437898766,0.0074399329269452,0.0030313723530791,29.29448690667,0.00014955589525336,0.00014955589525336,0.00014955589525336,2591525.6865314,0.01449133129117
33419200,0.99996556253968,0.015619144239039,0.0049048964788382,0.006662357192633,0.0040518905675682,-0.00093946108110484,0.00093923047539678,3.1945035183078e-06,-3.7026109308026e-06,-1.3925207914389e-06,1.1716735241006e-06,-0.0010923467351874,0.001093914177223,-0.0010946500724709,0.0010915049262654,-0.001091651149772,0.0010945456458797,-0.0010938306057677,0.0010922456393978,-0.00086240460217034,0.00086925878835196,-0.00086862704769847,0.00086259450887989,4.7783055508174e-06,2.3381995146554e-06,7.3805399435421e-06,-1.4306079314231e-07,-0.0017911590226922,0.0017982174528189,-0.0019995048496151,0.0020096062560105,-0.0020020690739868,0.002007182533932,-0.0020000357017033,0.0020088427851252,-0.0020027177099524,0.0020062436332671,-0.0015013261494878,0.0015153393672018,-0.0015090891658205,0.0015079421036989,-0.001574956926631,0.0015820993816429,-0.0015773245727214,0.0015793724945872,-3.4300214604231e-06,3.4715540601727e-06,-0.00072730646832348,0.00072734737003053,-3.7034563783778e-06,3.6817024100146e-06,-0.00087201317375874,0.00086732184347878,-0.00086946560846286,0.00086977080469673,-0.000869783126899,0.00086966144578912,-0.00086722569490252,0.00087215327218564,-0.00074639044474646,0.00075572038437849,-0.00075268479574478,0.00074885983106216,0.77028159872676,131688,2924,0.0039077958542055,0.0074486725549466,0.0030291994220666,29.317262035562,0.00014973809628449,0.00014973809628449,0.00014973809628449,2547635.9335838,0.01449025346281
34419200,0.99997704360285,0.015619324129214,0.0049049492046907,0.0066624305765206,0.0040519443480026,-0.00094098984893558,0.00094076287161084,3.1917314796843e-06,-3.7052937552134e-06,-1.3973798750322e-06,1.1913842934784e-06,-0.0010948113187623,0.0010963703780677,-0.0010971144722212,0.0010939650844907,-0.0010941063685433,0.0010970126004885,-0.0010962928503372,0.0010947302008078,-0.00086429924230821,0.00087114922060449,-0.00087052224178797,0.00086451244944669,4.7838427792093e-06,2.3152995939517e-06,7.4165047340725e-06,-2.0338586802386e-07,-0.0017963406299337,0.0018033779484957,-0.0020048292076612,0.0020149609513085,-0.0020074218670489,0.0020125101303396,-0.0020053702338419,0.002014185476889,-0.0020080762742353,0.0020115270968607,-0.0015062004352602,0.0015202782269804,-0.0015140293687362,0.0015127104914171,-0.0015798548937704,0.0015869697206307,-0.0015822213070363,0.0015841871731076,-3.427914169288e-06,3.4724718561437e-06,-0.00072910800380547,0.0007291553971853,-3.7407938117373e-06,3.7376587434081e-06,-0.00087467510477616,0.00086996140343121,-0.00087210447433175,0.00087243746897017,-0.00087244282372586,0.00087229372171458,-0.00086986692555888,0.00087483191922533,-0.00074847241494473,0.00075783555142472,-0.00075475047400542,0.0007509641359173,0.74169710825979,131688,2924,0.0039141651225561,0.0074700353451881,0.0030367189706901,31.480106692869,0.00016704085354295,0.00016704085354295,0.00016704085354295,2540886.9608252,0.014526018545848
35419200,0.99998604773074,0.015619460339423,0.0049049890049824,0.0066624863537996,0.0040519849806406,-0.00094686924387208,0.00094665853853385,3.1998901636987e-06,-3.6948377836042e-06,-1.434062593942e-06,1.2473960481626e-06,-0.0011005867274825,0.0011021310876852,-0.0011029045189993,0.0010997301991828,-0.0010998597179706,0.0011028032003296,-0.0011020393920889,0.0011005341611176,-0.0008703050040453,0.00087719876730578,-0.00087653913611212,0.00087060077141479,4.8058363404706e-06,2.2458125890542e-06,7.4747512894763e-06,-3.1428365040466e-07,-0.0018051500817302,0.0018121416141285,-0.0020149102043538,0.002025089799779,-0.0020175535538585,0.0020225871241976,-0.0020154776838317,0.0020242851605318,-0.0020182432444741,0.0020215502081185,-0.0015134424697543,0.0015276053284679,-0.0015214231279785,0.0015198405992911,-0.0015874258313098,0.0015945395092052,-0.0015898880134009,0.0015916552583085,-3.4452290851702e-06,3.4537281780317e-06,-0.00073386489230506,0.00073389415389109,-3.8298175933966e-06,3.8176901343376e-06,-0.00087941550457286,0.00087462528201426,-0.00087677541760202,0.00087715977311551,-0.00087718315629606,0.00087695662771708,-0.00087454376554568,0.00087956057023691,-0.00075374331358515,0.00076312635607376,-0.00076002132619023,0.00075626008864182,0.71641844439027,131688,2924,0.0039386058033447,0.0075063748703833,0.0030564692641531,35.925106813361,0.00020260085450688,0.00020260085450688,0.00020260085450688,2581837.7969162,0.01460771553765
36419200,0.99999181346465,0.015619549287611,0.004905015054142,0.0066625227350558,0.0040520114984128,-0.00094844833699093,0.00094823771989442,3.2041079290123e-06,-3.6923716306694e-06,-1.4394196359434e-06,1.2414382815884e-06,-0.0011013943347247,0.0011029419346329,-0.0011036982654714,0.0011005337168368,-0.001100661031628,0.0011036128673706,-0.0011028406925001,0.0011013135016861,-0.0008717594001332,0.00087867207210591,-0.00087798265217634,0.00087200923290703,4.814734390587e-06,2.2575781743267e-06,7.5020582286619e-06,-3.0794221428031e-07,-0.0018078661567998,0.0018148810969752,-0.0020192330138209,0.0020294237340713,-0.0020218885419137,0.0020269035046569,-0.002019800938614,0.0020286205794249,-0.002022574454649,0.0020259247723032,-0.0015143449203199,0.0015285557213516,-0.0015223826530227,0.0015208719634402,-0.0015884911718771,0.001595609815106,-0.0015909712312304,0.0015927651854403,-3.411924780907e-06,3.488980780931e-06,-0.00073509617458159,0.00073517310826549,-3.82456696689e-06,3.8450712580892e-06,-0.00087989450608608,0.00087514304072566,-0.00087725273324877,0.00087768653249856,-0.00087766478205854,0.00087748259124343,-0.00087501311973391,0.00088006891132531,-0.00075503690310454,0.00076449635869525,-0.00076133109810526,0.00075763616885636,0.73065039211329,131688,2924,0.0039451637487718,0.0075176774915879,0.0030616959719419,37.478875580645,0.00021503100464516,0.00021503100464516,0.00021503100464516,2602147.552536,0.01463113339798
37419200,0.9999952189061,0.01561960100472,0.0049050301808117,0.0066625439336726,0.004052026890236,-0.00094769522505604,0.00094748083569865,3.2026529901668e-06,-3.6972779718487e-06,-1.4376039517998e-06,1.2377113057547e-06,-0.0011015739330487,0.0011031203349884,-0.0011038789081069,0.0011007113212526,-0.0011008408234657,0.0011037896908386,-0.0011030235995769,0.0011014905600357,-0.00087103713936658,0.00087794127239318,-0.00087725888821006,0.00087127694516655,4.8119648425149e-06,2.2603089751617e-06,7.5068764205866e-06,-3.1285561329678e-07,-0.0018098877543035,0.0018169022727885,-0.0020207651164828,0.0020309558350109,-0.0020234230126938,0.0020284324438146,-0.0020213323008152,0.0020301549510242,-0.0020241053390078,0.0020274545840403,-0.0015167683626354,0.001530992302514,-0.0015248094229467,0.0015232843481959,-0.0015906760276982,0.0015977811585017,-0.0015931407241746,0.001594941186866,-3.4097470205546e-06,3.4947687032982e-06,-0.00073511029218756,0.00073519334792011,-3.8250766634452e-06,3.8541165998098e-06,-0.00088087237726368,0.00087612188281576,-0.00087822983224946,0.00087866788745661,-0.00087864098423788,0.00087846204681407,-0.00087598840531859,0.00088105174314476,-0.00075472707279728,0.00076419890397381,-0.00076101864939723,0.00075733420739137,0.71959281477887,131688,2924,0.0039420466489355,0.0075260146427261,0.003061777524864,37.680188805276,0.00021664151044221,0.00021664151044221,0.00021664151044221,2576276.7701146,0.014636522845621
38419200,0.99999717637138,0.015619631848771,0.0049050392379563,0.0066625565036493,0.0040520361071655,-0.00094595908350229,0.00094573918462717,3.2078892619792e-06,-3.7055906948734e-06,-1.4183995330887e-06,1.2103441416794e-06,-0.0010995653319587,0.0011011268239768,-0.0011018752617215,0.0010987131965456,-0.0010988491318886,0.0011017803029229,-0.0011010345875637,0.0010994762780015,-0.00086943863955156,0.0008763403118641,-0.00087567773046853,0.00086966124811721,4.7972937026541e-06,2.2922293142304e-06,7.4829665483485e-06,-2.7212663871241e-07,-0.0018087423114632,0.0018157740591263,-0.0020201043705797,0.0020302767455882,-0.0020227421207373,0.0020277752914581,-0.0020206557280009,0.0020294913510643,-0.0020234111369155,0.0020268129161553,-0.0015152888549364,0.0015294807253733,-0.0015232739148582,0.0015218499526767,-0.0015890278158019,0.0015961303542336,-0.0015914566345087,0.0015933368893996,-3.4248397052889e-06,3.4930999176974e-06,-0.00073386277708397,0.00073393090582865,-3.802325417894e-06,3.8129260450639e-06,-0.00087936558362705,0.00087461801634894,-0.00087674185610687,0.00087714333569872,-0.00087712972687085,0.00087696288688123,-0.00087449660390429,0.00087953180433889,-0.00075338592591357,0.00076283610090866,-0.00075969604448041,0.00075595842734781,0.74583042907553,131688,2924,0.0039348319950356,0.0075213203797585,0.003056562287166,37.196433269656,0.00021277146615725,0.00021277146615725,0.00021277146615725,2567725.1214991,0.01461914445862
38880000,0.99999785991045,0.015619642681427,0.004905042421748,0.0066625609112496,0.0040520393484291,-0.00094528194413977,0.00094505181999426,3.2057697831004e-06,-3.7134803192892e-06,-1.3955617353206e-06,1.175899136322e-06,-0.0011000864993693,0.0011016589838997,-0.0011023973383382,0.0010992425155268,-0.0010993884144419,0.0011022930602437,-0.0011015755852517,0.0010999865286133,-0.00086884493984058,0.00087572330089319,-0.00087508986567717,0.00086903885855248,4.7773877686511e-06,2.3298098163985e-06,7.3768787976284e-06,-1.4888661297044e-07,-0.0018103355119524,0.0018173845107584,-0.0020207741153288,0.0020308696227873,-0.002023338857476,0.002028445244874,-0.0020213073612565,0.0020301036110968,-0.0020239898440926,0.0020275027414228,-0.0015178499628961,0.0015318535959769,-0.0015256139695221,0.0015244513566864,-0.0015912523007316,0.0015983918059684,-0.0015936260769687,0.0015956565742285,-3.4415218428211e-06,3.4821661335928e-06,-0.00073390958397675,0.00073394990100736,-3.7046962030259e-06,3.6829397060155e-06,-0.00088057175286389,0.0008758716219946,-0.00087802361785575,0.00087832141846937,-0.0008783341024048,0.00087821824820328,-0.00087577629453252,0.00088071142382915,-0.00075321900641545,0.00076257042290443,-0.000759534985495,0.00075568807045914,0.74998939261685,131688,2924,0.0039320152880631,0.0075279152320549,0.0030567070496779,37.193663116545,0.00021274930493236,0.00021274930493236,0.00021274930493236,2540052.7058486,0.014623136912503
