time,ASR_ext,ASR_strain,ASR_strain_xx,ASR_strain_yy,ASR_strain_zz,disp_x_101,disp_x_102,disp_x_103,disp_x_104,disp_x_105,disp_x_106,disp_x_p1_neg,disp_x_p1_pos,disp_x_p2_neg,disp_x_p2_pos,disp_x_p3_neg,disp_x_p3_pos,disp_x_p4_neg,disp_x_p4_pos,disp_x_p5_neg,disp_x_p5_pos,disp_x_p6_neg,disp_x_p6_pos,disp_y_101,disp_y_102,disp_y_103,disp_y_104,disp_y_105,disp_y_106,disp_y_p1_neg,disp_y_p1_pos,disp_y_p2_neg,disp_y_p2_pos,disp_y_p3_neg,disp_y_p3_pos,disp_y_p4_neg,disp_y_p4_pos,disp_y_p5_neg,disp_y_p5_pos,disp_y_p6_neg,disp_y_p6_pos,disp_y_p7_neg,disp_y_p7_pos,disp_y_p8_neg,disp_y_p8_pos,disp_z_101,disp_z_102,disp_z_103,disp_z_104,disp_z_105,disp_z_106,disp_z_p1_neg,disp_z_p1_pos,disp_z_p2_neg,disp_z_p2_pos,disp_z_p3_neg,disp_z_p3_pos,disp_z_p4_neg,disp_z_p4_pos,disp_z_p5_neg,disp_z_p5_pos,disp_z_p6_neg,disp_z_p6_pos,humidity,ndof,nelem,strain_xx,strain_yy,strain_zz,temp,thermal_strain_xx,thermal_strain_yy,thermal_strain_zz,vonmises,vstrain
2419200,0,0,0,0,0,0,0,0,0,0,0,0,0,0,0,0,0,0,0,0,0,0,0,0,0,0,0,0,0,0,0,0,0,0,0,0,0,0,0,0,0,0,0,0,0,0,0,0,0,0,0,0,0,0,0,0,0,0,0,0,0,0,0,0,0,0,0,0,0,0,0,0,0,0,0
3419200,0.15871280342567,0.0030048445630435,0.0010016148543478,0.0010016148543478,0.0010016148543478,-0.00027463970651487,0.000274635298282,-1.4535622745251e-09,-1.4535623979502e-09,-1.2360825104143e-09,-1.6952666107981e-09,-0.00028053624322718,0.00028053304982042,-0.00028053734189577,0.00028053414848719,-0.00028053640644883,0.00028053290222985,-0.00028053748405024,0.0002805339798157,-0.00027053743018184,0.00027053415271635,-0.00027053799419511,0.0002705347167328,-1.3855035569791e-10,2.9004063161221e-10,-9.3393303150167e-10,1.0792180380121e-09,-0.00029094684387508,0.00029094698973417,-0.00029491841106422,0.00029491767087536,-0.00029491874338234,0.0002949194596593,-0.00029491872698251,0.00029491829928453,-0.00029491905930952,0.0002949200880831,-0.00028264952525969,0.00028264786861814,-0.00028264813031712,0.00028265037284791,-0.00028798003374183,0.00028798045756639,-0.00028798008134815,0.00028798133848283,-5.4522758595386e-09,-5.4522757199142e-09,-0.00025359040701065,0.00025357657777097,-4.3329316227367e-09,-6.4522723732658e-09,-0.00026088646362966,0.00026087524334228,-0.00026088719101324,0.00026087452193,-0.00026088688685032,0.00026087566656515,-0.00026088760858315,0.00026087493948963,-0.00025914578995993,0.00025913367322066,-0.00025914547181097,0.00025913335506501,0.75746877217741,122718,2924,0.0011436652758674,0.0012115393581697,0.0010560463749606,31.80252168969,0.00016962017351752,0.00016962017351752,0.00016962017351752,2317646.9863973,0.0034170788549774
4419200,0.34958037298296,0.0064217616721073,0.0021541235539841,0.0023411485715183,0.0019264895466049,-0.00054200113515427,0.00054198717155851,-5.5280675379894e-09,-5.5280246277765e-09,-4.6700486621593e-09,-6.6993130623198e-09,-0.0005657404003953,0.00056572873537088,-0.00056574332746583,0.00056573166215256,-0.00056574111957651,0.00056572806106838,-0.00056574398213878,0.00056573092332109,-0.00052176515548188,0.00052175293695912,-0.00052176655419664,0.0005217543358089,-5.1376760531115e-10,1.3327235854078e-09,-5.7721577157204e-10,1.3673409255262e-09,-0.00062794575525256,0.00062794654891284,-0.00065239783875477,0.00065239722388392,-0.00065240063797134,0.00065240148974975,-0.00065239951229983,0.0006524002314416,-0.00065240231187964,0.00065240449762803,-0.00058390078174531,0.00058390032154127,-0.00058390068618896,0.00058390399495623,-0.00061169983619293,0.00061169954464248,-0.00061170036526744,0.0006117036755469,-1.0759463387272e-08,-1.0759420138674e-08,-0.0004516979145743,0.000451672336848,-9.5281533145155e-09,-1.1762320258828e-08,-0.0004732633741044,0.00047324016824835,-0.00047326416901776,0.0004732393991395,-0.00047326454376379,0.00047324133789985,-0.00047326531182732,0.00047324054193886,-0.0004746898768474,0.00047466681766866,-0.00047468881730879,0.00047466575815072,0.73992840791513,122718,2924,0.0022557468505679,0.0026129782169414,0.0018803800160453,33.6002705016,0.0001840021640128,0.0001840021640128,0.0001840021640128,3937992.9657503,0.0067719567851301
5419200,0.54962734377575,0.0098496944735316,0.0032730992004597,0.003843604257053,0.0027329910160189,-0.00079526036461294,0.00079525063864186,-4.3008391523271e-09,-4.3009326035089e-09,-3.6143658325681e-09,-3.7302498215461e-09,-0.00084336765572288,0.0008433583388491,-0.00084336905910503,0.0008433597424969,-0.00084336773812642,0.00084335827382495,-0.00084336913588963,0.00084335967183523,-0.00075295809943868,0.00075294870767648,-0.00075295835359506,0.00075294896164085,2.5180008241562e-10,1.8735536934854e-10,9.3052637308745e-10,-4.9903105956133e-10,-0.0010095060164135,0.0010095064509048,-0.0010703499451449,0.0010703509587159,-0.0010703514926601,0.0010703514175096,-0.0010703510204201,0.0010703519533011,-0.0010703525678078,0.001070352411988,-0.00091151843522353,0.00091152022747769,-0.00091151872690101,0.00091151775632264,-0.00096524340512371,0.00096524343504977,-0.0009652421448019,0.00096524207734581,-1.625334625937e-09,-1.625427462792e-09,-0.00062008985796646,0.00062008444027438,-2.0897800063024e-09,-7.3219958278789e-10,-0.00066142170191302,0.00066141604920403,-0.00066142124134284,0.00066141651708359,-0.00066142246709853,0.00066141681446342,-0.00066142199487225,0.00066141727069398,-0.00066036066342188,0.00066035710785057,-0.0006603598328714,0.00066035627764776,0.72499638738019,122718,2924,0.0033080841012134,0.0041972843070707,0.0025808906662109,36.268803301105,0.00020535042640884,0.00020535042640884,0.00020535042640884,4624060.5284471,0.010137382922175
6419200,0.70615339033099,0.01202774227372,0.0039314346778452,0.0048926845661306,0.0032036230297439,-0.00092940091720136,0.00092939412666058,-2.7010175516557e-09,-2.7009110226619e-09,-2.9932819645958e-09,-2.8051808844731e-09,-0.0010024439258089,0.0010024375269441,-0.0010024444068477,0.0010024380074397,-0.0010024438844094,0.0010024375867594,-0.0010024443588119,0.0010024380606033,-0.00086760346207093,0.00086759784125917,-0.00086760306871826,0.00086759744822601,-1.0035081782199e-10,-3.54791349059e-10,1.2316220906729e-10,-5.7193188940278e-10,-0.0012790282771663,0.0012790278264175,-0.0013831109997532,0.0013831108193047,-0.0013831123471466,0.0013831117867061,-0.0013831123173791,0.0013831119761336,-0.0013831136651436,0.0013831129439257,-0.0011250886708794,0.0011250888350574,-0.0011250906841596,0.0011250894502033,-0.0011978608950975,0.0011978604557743,-0.0011978620452065,0.0011978611552414,-2.8786155965342e-09,-2.878507603451e-09,-0.00070357487749933,0.0007035669879114,-3.7419498730588e-09,-3.095326188428e-09,-0.00076656893822962,0.000766560986707,-0.00076656872299779,0.00076656120797469,-0.0007665693970392,0.00076656144528363,-0.0007665691788584,0.00076656166360575,-0.00074656288068814,0.00074655734433442,-0.00074656301375404,0.00074655747714308,0.59839168540088,122718,2924,0.0038651083967575,0.0053148398212372,0.0029283041279898,36.738783627305,0.00020911026901844,0.00020911026901844,0.00020911026901844,4715088.959716,0.012182029827738
7419200,0.83176304358207,0.013556716585209,0.0043773702968341,0.005632226479035,0.0035471198093396,-0.0010150510620275,0.0010150442012339,-2.7137870409684e-09,-2.7137687792154e-09,-2.9814652100767e-09,-2.5731534150471e-09,-0.0011064071391934,0.0011064007476579,-0.0011064078593125,0.0011064014675596,-0.0011064070289795,0.0011064008823974,-0.0011064077375306,0.001106401590719,-0.00093965764624139,0.00093965197884911,-0.00093965767900079,0.00093965201170914,3.3158878489612e-11,-4.3884306023398e-10,9.5716852974668e-12,-4.0657203962092e-10,-0.0014810140230311,0.0014810136250176,-0.0016243363326681,0.0016243361896268,-0.001624337473912,0.0016243371239503,-0.0016243375652371,0.0016243371233066,-0.0016243387066735,0.0016243380578355,-0.0012815753120618,0.0012815751774997,-0.0012815766618842,0.0012815756851374,-0.0013649741041519,0.0013649740263745,-0.0013649751055694,0.00136497414077,-3.2336688740768e-09,-3.2336484565976e-09,-0.00076211650028959,0.00076210763383937,-3.7444785688677e-09,-3.3926322291982e-09,-0.00084058742865175,0.00084057902226106,-0.0008405873161061,0.00084057914071647,-0.00084058789230925,0.00084057948587069,-0.00084058777517459,0.00084057959973986,-0.00080427667690249,0.00080427023092698,-0.00080427664232459,0.00080427019643013,0.52694121020036,122718,2924,0.004220702751029,0.0061515414353287,0.0031719938182242,40.764125172754,0.00024131300138203,0.00024131300138203,0.00024131300138203,4589877.0144196,0.013636645953905
8419200,0.90760174908913,0.014384567037669,0.00461309922487,0.006029570522886,0.0037418972899134,-0.0010435600634448,0.0010435555646248,-1.8387269083647e-09,-1.8387060050998e-09,-2.3306656745135e-09,-1.4469749569083e-09,-0.0011475072495113,0.0011475027303799,-0.0011475076630669,0.0011475031437273,-0.0011475069787984,0.0011475030251763,-0.0011475073857084,0.0011475034318588,-0.0009629593970814,0.0009629557418125,-0.00096295944133871,0.00096295578617553,1.5819971698959e-10,-7.6416418119116e-10,8.258528101753e-11,-6.7346566796848e-10,-0.0015940497471155,0.0015940491547604,-0.0017603833118832,0.0017603832666425,-0.001760384288158,0.0017603837714401,-0.0017603844841091,0.0017603838243305,-0.0017603854605774,0.001760384329318,-0.0013686839552095,0.001368683800224,-0.0013686855903446,0.0013686839411304,-0.0014551724189457,0.0014551724641251,-0.0014551737383986,0.0014551720158278,-1.7971565959673e-09,-1.7971339764377e-09,-0.00078222003327372,0.00078221491182169,-2.4984313280497e-09,-1.7755085287292e-09,-0.00087316772836242,0.00087316248915313,-0.00087316748538335,0.0008731627349148,-0.00087316803565411,0.00087316279638237,-0.00087316779127615,0.00087316304074888,-0.00082211314360523,0.00082210988940372,-0.00082211309418707,0.00082210984003899,0.47156008474719,122718,2924,0.0043391562746377,0.0066194176018815,0.003255880977315,41.433681809468,0.00024666945447574,0.00024666945447574,0.00024666945447574,4281882.6002513,0.01431630493545
9419200,0.94958488779431,0.01478137725498,0.0047245930391289,0.0062171562437925,0.0038396279720584,-0.0010460030716394,0.0010459998899389,-1.3314443391644e-09,-1.3314226823948e-09,-2.0244750028732e-09,-7.0585135396095e-10,-0.0011580414174761,0.001158037929835,-0.0011580417092174,0.0011580382213629,-0.0011580410033021,0.0011580383709847,-0.0011580412899967,0.0011580386574502,-0.00096399288111502,0.00096399043891932,-0.00096399296903135,0.00096399052694178,2.7808303775408e-10,-1.0644229599328e-09,2.2065910813336e-10,-9.8594931574872e-10,-0.0016509432728554,0.0016509425055935,-0.0018298522353839,0.0018298523161357,-0.0018298531952787,0.001829852492248,-0.0018298534071112,0.001829852587309,-0.0018298543671929,0.001829852763613,-0.0014119068800245,0.0014119068491698,-0.0014119089002551,0.0014119064962097,-0.0014982999682414,0.0014983000947983,-0.0014983016175258,0.0014982991516413,-1.1604509495495e-09,-1.160427582028e-09,-0.00078515474392299,0.00078515125280919,-2.0830667423291e-09,-8.9630226621888e-10,-0.00088464707045825,0.00088464314686356,-0.00088464667006185,0.00088464354860352,-0.00088464730197208,0.00088464337830621,-0.0008846469016716,0.00088464378014376,-0.00082257430320776,0.00082257255716957,-0.00082257421495806,0.00082257246896723,0.40621133923259,122718,2924,0.0043494322363734,0.0068547898267885,0.0032683120557028,41.145246676956,0.00024436197341565,0.00024436197341565,0.00024436197341565,3995371.9593224,0.014578161704708
10419200,0.97058442875614,0.014996444736695,0.0047856994609768,0.0063152091282702,0.0038955361474476,-0.0010404890598579,0.0010404883056874,-4.2614299554312e-10,-4.261209656554e-10,-1.4093685919812e-09,5.3889339676488e-10,-0.0011562177820361,0.0011562161918221,-0.0011562177770023,0.0011562161865747,-0.0011562171589395,0.0011562168443164,-0.0011562171532924,0.0011562168384397,-0.00095857370922214,0.00095857339754212,-0.00095857380549184,0.00095857349391995,4.5659955646168e-10,-1.490905709354e-09,5.5969685829223e-10,-1.5644093356039e-09,-0.0016757888429467,0.0016757878355558,-0.0018606375119292,0.0018606378838455,-0.0018606384401425,0.0018606373877987,-0.0018606386433835,0.0018606376974036,-0.0018606395717825,0.0018606372015475,-0.0014300955820729,0.0014300960019962,-0.0014300983819351,0.0014300946406221,-0.0015161078696538,0.0015161080329444,-0.0015161099630042,0.00151610634798,3.3784361183015e-10,3.3786740666206e-10,-0.00078081441605764,0.00078081473358101,-1.0511727367474e-09,1.0845188105238e-09,-0.00088438208679292,0.00088438124158677,-0.00088438136365965,0.00088438196311205,-0.00088438215505147,0.00088438130977195,-0.00088438143494208,0.00088438203432358,-0.00081729197731771,0.00081729371137953,-0.00081729185557315,0.00081729358968051,0.43665130715676,122718,2924,0.0043266459926947,0.0069575462504869,0.0032504257301057,38.098077893919,0.00021998462315135,0.00021998462315135,0.00021998462315135,3855027.5446486,0.01464117434632
11419200,0.98271150543404,0.015111726368918,0.0048183640125272,0.0063674440047812,0.0039259183516096,-0.0010336910284722,0.0010336887561111,-9.7228751184826e-10,-9.7226495122152e-10,-2.0623614281086e-09,9.9574700884768e-11,-0.0011552533301343,0.0011552503708568,-0.0011552535882175,0.0011552506287267,-0.0011552526450243,0.0011552510944776,-0.0011552528960192,0.001155251345244,-0.00095300743009247,0.00095300602402476,-0.00095300757315418,0.00095300616719741,5.4519636668406e-10,-1.6319810180119e-09,6.8460064609666e-10,-1.7385052791512e-09,-0.0016953171988385,0.0016953161418295,-0.0018820500777482,0.0018820505470865,-0.0018820513324019,0.0018820502171557,-0.0018820514183071,0.0018820504374377,-0.0018820526731475,0.0018820501076983,-0.0014472101303929,0.0014472107281044,-0.001447213272658,0.0014472091084571,-0.0015318039990981,0.0015318042473698,-0.0015318063906666,0.0015318023998572,-8.4940723988306e-10,-8.4938291671435e-10,-0.00077800390475498,0.00077800120116871,-2.3499816284391e-09,4.9915085636669e-11,-0.00088791698122784,0.00088791335446339,-0.00088791617790544,0.00088791415877211,-0.00088791717568791,0.00088791354884918,-0.00088791637271853,0.00088791435351284,-0.00081313324767568,0.00081313257103821,-0.00081313311336592,0.00081313243677164,0.40445605707229,122718,2924,0.0042985311397566,0.0070382385221523,0.0032388655172084,37.627781517919,0.00021622225214335,0.00021622225214335,0.00021622225214335,3643468.3985848,0.014682825354265
12419200,0.98966677394182,0.015186210857709,0.0048396869043837,0.0064003572879692,0.0039461666653557,-0.0010300654598002,0.0010300635946217,-8.2100215639621e-10,-8.2097942014197e-10,-1.9979767426562e-09,3.489100081564e-10,-0.0011531819631807,0.001153179298818,-0.0011531821814144,0.0011531795168379,-0.001153181217951,0.0011531800844872,-0.001153181429288,0.001153180295595,-0.00094984238215954,0.00094984136173546,-0.0009498425339475,0.00094984151363481,5.982924050483e-10,-1.7591627339919e-09,7.8181750954116e-10,-1.9070323010017e-09,-0.0017048392062822,0.0017048380777386,-0.0018937084924673,0.0018937090412395,-0.0018937097818429,0.0018937085669075,-0.0018937098482349,0.0018937088255968,-0.0018937111377971,0.0018937083514563,-0.0014542862736467,0.0014542870000696,-0.0014542896537057,0.0014542850977818,-0.001538422268132,0.0015384225314016,-0.0015384248104339,0.0015384204798978,-6.4298928523635e-10,-6.4296476827944e-10,-0.0007760272027071,0.00077602503363532,-2.2736936925714e-09,3.9506005548888e-10,-0.0008876018707523,0.0008875986298867,-0.00088760097737407,0.00088759952390574,-0.00088760203918303,0.00088759879824301,-0.00088760114655436,0.00088759969301366,-0.00081073015558975,0.00081073001086272,-0.00081073001074833,0.00081072986606377,0.45322610794666,122718,2924,0.0042835329670887,0.0070776073158905,0.0032307106483405,36.803587893607,0.00020962870314886,0.00020962870314886,0.00020962870314886,3570874.9950115,0.01469928641322
13419200,0.99355120761318,0.015224318226529,0.0048505452087682,0.0064172238144789,0.0039565492032821,-0.0010200070159776,0.0010200061690047,-4.5702452991286e-10,-4.5700150681725e-10,-1.7294601143553e-09,8.4506919777491e-10,-0.0011473488889974,0.0011473469792091,-0.0011473489966354,0.0011473470866341,-0.001147348068579,0.0011473478409832,-0.0011473481707132,0.0011473479428889,-0.00094087235045187,0.0009408721888416,-0.00094087251197141,0.00094087235047405,6.8720789000597e-10,-1.8898502661363e-09,9.6134964354593e-10,-2.1253814705256e-09,-0.0017101212802634,0.0017101201126036,-0.0018989942018172,0.0018989949256631,-0.0018989954834998,0.0018989941681699,-0.001898995526687,0.0018989945274844,-0.0018989968085568,0.0018989937701834,-0.0014592102064531,0.0014592112078545,-0.001459213901983,0.0014592088452623,-0.0015422859485297,0.0015422862521327,-0.0015422886219124,0.0015422839008115,-3.7506640947865e-11,-3.7481810191721e-11,-0.00076927619362986,0.00076927558909645,-1.8607440961334e-09,1.216992707983e-09,-0.00088521623372225,0.0008852141952565,-0.00088521520181109,0.00088521522686563,-0.00088521633712516,0.0008852142985843,-0.00088521530684345,0.000885215331825,-0.00080321032738434,0.00080321160573069,-0.00080321016182285,0.00080321144021007,0.4150894025916,122718,2924,0.0042418662106415,0.0070993758474833,0.0032027453909605,34.792957047583,0.00019354365638066,0.00019354365638066,0.00019354365638066,3436255.4331778,0.014650743310885
14419200,0.99579416409175,0.015244665366171,0.0048563408081966,0.0064261700407605,0.0039621545172135,-0.0010143048016057,0.0010143041563672,-3.7827531431462e-10,-3.7825231584831e-10,-1.7527900200342e-09,1.0290872139155e-09,-0.0011413240908674,0.0011413223097284,-0.0011413241772552,0.0011413223959025,-0.0011413232039329,0.0011413232411491,-0.0011413232843851,0.0011413233213723,-0.00093512546757209,0.00093512554103082,-0.00093512563654376,0.00093512571011511,7.4287491682828e-10,-2.0381904685626e-09,1.1153181457962e-09,-2.3687699458218e-09,-0.0017089627143117,0.0017089614569854,-0.0018995607007897,0.0018995615346224,-0.0018995620849803,0.0018995606173362,-0.0018995620697643,0.0018995610454911,-0.0018995634541415,0.0018995601283966,-0.0014562620935423,0.0014562633279231,-0.0014562661742843,0.0014562605702042,-0.0015392913607141,0.0015392916413881,-0.0015392942307235,0.0015392890844207,6.5053939146814e-11,6.5078743153774e-11,-0.00076388305345896,0.00076388270760263,-1.9539141157062e-09,1.5208010503062e-09,-0.00087952727167221,0.00087952535209934,-0.00087952610783664,0.00087952651539975,-0.00087952736056421,0.00087952544091639,-0.00087952619861985,0.00087952660611012,-0.0007976811033541,0.0007976827314627,-0.00079768092945953,0.0007976825576091,0.38312450045663,122718,2924,0.0042182195914901,0.0070945930618004,0.0031803613669539,32.64215411881,0.00017633723295048,0.00017633723295048,0.00017633723295048,3429339.8406498,0.014599183929322
15419200,0.99696204739871,0.015258837087907,0.0048604390044789,0.0064322778854168,0.0039661201980115,-0.0010027703113444,0.0010027722747031,5.731295947365e-10,5.7315255230171e-10,-1.0095784558892e-09,2.2420731647333e-09,-0.0011297410864714,0.0011297413656665,-0.0011297408327542,0.0011297411117356,-0.0011297400417024,0.0011297424549584,-0.0011297397871946,0.0011297422002214,-0.00092346956617531,0.00092347182727199,-0.00092346972536519,0.00092347198657453,8.8004967593943e-10,-2.3459944369215e-09,1.4871879469585e-09,-2.9050284374342e-09,-0.0017005555516019,0.0017005541294001,-0.0018920526525379,0.001892053800291,-0.0018920539682846,0.0018920521754077,-0.0018920539146014,0.001892052889202,-0.0018920552305343,0.0018920512645098,-0.001446800691273,0.0014468024938343,-0.0014468055251878,0.001446798721735,-0.0015299816677275,0.0015299819059806,-0.0015299848098411,0.0015299787519125,1.7595300278301e-09,1.7595547261639e-09,-0.00075175422423896,0.00075175820487899,-7.2405853789103e-10,3.6939672747095e-09,-0.00086744086842489,0.00086744244672549,-0.00086743938297673,0.00086744392841363,-0.00086744077302725,0.00086744235125295,-0.00086743929264272,0.00086744383800669,-0.00078566956213425,0.00078567508514339,-0.00078566935864635,0.00078567488169677,0.51103778709309,122718,2924,0.0041703723728604,0.0070598111131823,0.0031300093572304,27.065296374223,0.00013172237099378,0.00013172237099378,0.00013172237099378,3446288.6305635,0.014464271439833
16419200,0.99771191065869,0.015267108656916,0.0048628084817295,0.0064358893887162,0.0039684107864701,-0.00098836974896145,0.00098836964029625,-1.898754088263e-10,-1.8985207024907e-10,-1.7878792178866e-09,1.4849336551197e-09,-0.0011216505000053,0.001121648960083,-0.0011216505603149,0.0011216490201798,-0.0011216494561326,0.0011216500553901,-0.0011216495087625,0.0011216501077919,-0.00091077533957048,0.0009107759832001,-0.00091077553484541,0.00091077617859077,9.4140859734886e-10,-2.3282515782772e-09,1.6239740101205e-09,-2.9624932128659e-09,-0.0017025905417291,0.0017025891986238,-0.0018920800025198,0.0018920812747647,-0.0018920816793709,0.0018920799252281,-0.0018920814742726,0.0018920805675908,-0.0018920831513127,0.001892079218247,-0.001450366855951,0.0014503689253835,-0.0014503719502045,0.0014503650166106,-0.0015321097014989,0.0015321100094591,-0.0015321129874834,0.0015321069028869,3.2922765899748e-10,3.2925280824389e-10,-0.00074212354231209,0.00074212388388379,-2.2131807408476e-09,2.3599394021192e-09,-0.00086404658207854,0.00086404484245142,-0.00086404505363005,0.00086404637021386,-0.00086404664732348,0.00086404490762191,-0.00086404512067873,0.00086404643718908,-0.00077524438880317,0.00077524694561132,-0.00077524418832156,0.00077524674516952,0.46538451425637,122718,2924,0.0041106952187068,0.0070680975796338,0.0030900789064545,24.41621480737,0.00011052971845896,0.00011052971845896,0.00011052971845896,3269600.1285669,0.014371667916343
17419200,0.99821550796062,0.015273402156007,0.0048646258842557,0.0064385856551413,0.0039701906166101,-0.00098254083070862,0.00098254061428432,-2.2342802188318e-10,-2.2340476986167e-10,-1.8377896527729e-09,1.4554480357675e-09,-0.0011141245756826,0.0011141229785165,-0.0011141246459043,0.001114123048525,-0.0011141235259404,0.001114124081189,-0.0011141235878992,0.0011141241429191,-0.00090470153012137,0.00090470210911539,-0.00090470172684864,0.00090470230595691,9.2405351588762e-10,-2.3645979397737e-09,1.662358452208e-09,-3.0535268223222e-09,-0.0016982554126704,0.0016982540169218,-0.0018899151161843,0.0018899163836583,-0.0018899168479962,0.0018899150066857,-0.0018899166012271,0.0018899156775231,-0.001889918333226,0.0018899143007427,-0.0014438841267368,0.0014438862653314,-0.0014438893654409,0.0014438822451582,-0.0015257707427689,0.0015257709732091,-0.0015257740701138,0.0015257678706043,2.4537334643917e-10,2.4539841437924e-10,-0.00073591939409397,0.00073591951819912,-2.3631133965078e-09,2.3366597235373e-09,-0.00085622118370307,0.00085621925003905,-0.00085621961387129,0.00085622081923174,-0.00085622125232836,0.00085621931858915,-0.00085621968439754,0.00085622088968479,-0.000769064060404,0.00076906648559244,-0.00076906386064703,0.0007690662858754,0.52521873377382,122718,2924,0.0040865037978122,0.0070502006490014,0.0030643065404834,21.978289983444,9.1026319867553e-05,9.1026319867553e-05,9.1026319867553e-05,3293135.6160617,0.014302822715813
18419200,0.99852847861563,0.015277159748035,0.0048657060820875,0.0064402060950394,0.0039712475709085,-0.00096803013578638,0.00096803150595352,3.4142728634584e-10,3.4145064061613e-10,-1.3402339377971e-09,2.1352148937095e-09,-0.0011025699654531,0.0011025696038555,-0.0011025698482705,0.00110256948646,-0.001102568853124,0.0011025707676284,-0.0011025687305867,0.0011025706448629,-0.00089092921886978,0.00089093107598794,-0.00089092942052802,0.00089093127776112,9.9779029725015e-10,-2.4602152767003e-09,1.8525232765679e-09,-3.2636396026975e-09,-0.0016935517570615,0.001693550341188,-0.0018848410927845,0.0018848425462963,-0.0018848427390095,0.0018848407966578,-0.001884842476087,0.0018848416138828,-0.0018848441224992,0.0018848398644371,-0.0014393345682355,0.0014393370168332,-0.0014393400936533,0.0014393325067438,-0.0015205303409828,0.0015205305783548,-0.0015205337128344,0.0015205271909163,1.2192211043822e-09,1.2192462738191e-09,-0.00072368160707532,0.00072368424987457,-1.5871144480078e-09,3.5331481339961e-09,-0.00084692537077425,0.00084692545810886,-0.00084692365662758,0.00084692716998564,-0.00084692533231848,0.00084692541957789,-0.00084692362165339,0.00084692713493803,-0.00075639620817785,0.00075640084324198,-0.00075639598191177,0.00075640061701545,0.50516361584657,122718,2924,0.0040263359121167,0.0070306771579288,0.0030135206661208,17.482532760482,5.5060262083854e-05,5.5060262083854e-05,5.5060262083854e-05,3212885.0972902,0.014170505215042
19419200,0.99878754804765,0.015281194474429,0.0048668784303552,0.0064419157838734,0.0039724002602001,-0.00096685488633355,0.00096685372705679,-5.4975990322336e-10,-5.4973661786824e-10,-2.2061058490505e-09,1.2403066854821e-09,-0.0011009591347933,0.0011009566586596,-0.001100959012411,0.0011009565360642,-0.0011009580332716,0.0011009578119647,-0.0011009579055194,0.0011009576839842,-0.00088988388285726,0.00088988364338714,-0.00088988408510928,0.00088988384575391,9.9113902705954e-10,-2.480775857471e-09,1.8555796896671e-09,-3.2935496706125e-09,-0.001694019021482,0.0016940175787784,-0.0018857228356277,0.0018857242783545,-0.0018857244859708,0.0018857225108133,-0.0018857242183799,0.001885723335743,-0.00188572586891,0.0018857215683941,-0.0014394590357452,0.0014394614853372,-0.0014394646040931,0.0014394569533638,-0.0015206299157207,0.0015206301285926,-0.0015206333046988,0.0015206267310259,-6.6911472301922e-10,-6.6908963769732e-10,-0.00072287888336902,0.00072287663071094,-3.4186702519705e-09,1.6377322576712e-09,-0.00084568780760463,0.00084568359645146,-0.00084568611695204,0.00084568528476169,-0.00084568776630685,0.00084568355507842,-0.00084568607921647,0.00084568524695277,-0.00075566550928828,0.00075566584437339,-0.0007556652840387,0.00075566561916343,0.65325215552182,122718,2924,0.0040214540248473,0.0070326174277074,0.0030101725423508,17.551536101925,5.56122888154e-05,5.56122888154e-05,5.56122888154e-05,3199793.6774422,0.014164121228352
20419200,0.9990129979479,0.015284956085756,0.0048679691880834,0.006443513373488,0.0039734735241842,-0.0009603700034437,0.00096036763564111,-1.0079564071604e-09,-1.0079327975523e-09,-2.650151083869e-09,7.7065830180024e-10,-0.0010986732415235,0.0010986697212229,-0.0010986734390139,0.0010986699185012,-0.0010986721512194,0.0010986708670379,-0.0010986723389982,0.0010986710545893,-0.00088438265656877,0.00088438138692121,-0.00088438308748001,0.00088438181794894,1.0127680127795e-09,-2.4300453892814e-09,1.8638222019229e-09,-3.2299174924142e-09,-0.0016999004791718,0.0016998991082476,-0.0018914101024103,0.0018914115660217,-0.0018914120491216,0.0018914101615606,-0.0018914116768265,0.0018914108493582,-0.0018914136237256,0.0018914094450903,-0.0014455574490145,0.0014455599291595,-0.0014455632263759,0.0014455557108188,-0.0015263685718826,0.0015263688511765,-0.0015263721464636,0.0015263656939327,-1.3217538821791e-09,-1.3217284750435e-09,-0.00072066351055942,0.00072065960715236,-4.0496199897714e-09,9.7376819000059e-10,-0.00084708193567799,0.00084707628305916,-0.00084708025867292,0.00084707795995496,-0.00084708206449643,0.00084707641180244,-0.00084708038894926,0.00084707809015814,-0.00075343370161951,0.00075343259523777,-0.00075343334460922,0.000753432238266,0.70012779305906,122718,2924,0.0039946034847827,0.0070568576420713,0.0030010143630861,18.59625677381,6.3970054190478e-05,6.3970054190478e-05,6.3970054190478e-05,2994552.1982692,0.014152207553874
21419200,0.99916641438828,0.01528733567247,0.0048686582467766,0.0064445190366332,0.0039741583890604,-0.00094642341290518,0.00094642417383381,1.0821006294068e-10,1.0823372214535e-10,-1.577557074047e-09,1.919138766981e-09,-0.001087080553873,0.0010870796474218,-0.0010870805459672,0.0010870796393035,-0.0010870794370436,0.0010870808180148,-0.001087079421419,0.0010870808021623,-0.00087160055501595,0.00087160192469926,-0.00087160080888252,0.00087160217868308,1.0285311671377e-09,-2.4567677651076e-09,1.9331730998888e-09,-3.3096622690307e-09,-0.0016986211196793,0.0016986197384129,-0.0018906592837964,0.0018906608129319,-0.0018906610530585,0.0018906591164529,-0.0018906607160138,0.0018906599173416,-0.0018906624854641,0.001890658221056,-0.0014434368467747,0.0014434394488245,-0.0014434425073421,0.0014434348200377,-0.001522293644131,0.001522293904529,-0.0015222970626194,0.0015222905067265,6.8771251706055e-10,6.8773797869448e-10,-0.0007107352568332,0.00071073658554096,-2.157629852742e-09,3.0747107334844e-09,-0.00083972166494846,0.00083972053007897,-0.00083971991630511,0.00083972227757992,-0.00083972167266759,0.00083972053772282,-0.00083971992648259,0.00083972228768369,-0.00074187487563667,0.00074187842857829,-0.00074187462127045,0.00074187817425023,0.64990944923707,122718,2924,0.003936792943412,0.007051524976935,0.0029598286368969,15.229009684318,3.7032077474543e-05,3.7032077474543e-05,3.7032077474543e-05,2962758.1679963,0.014046420454054
22419200,0.999293388184,0.015289358151213,0.0048692446301852,0.0064453683966214,0.0039747451244067,-0.00094510912119097,0.00094510825777574,-4.5576831480775e-10,-4.5574487014219e-10,-2.1256007638649e-09,1.3502585388226e-09,-0.0010842444566446,0.0010842422159707,-0.0010842444422917,0.0010842422014049,-0.0010842433474818,0.0010842433791956,-0.0010842433254395,0.0010842433569252,-0.00087028944808303,0.00087028948125948,-0.00087028970120059,0.00087028973449357,1.0099086160732e-09,-2.4809695079669e-09,1.9188327228598e-09,-3.3379150159875e-09,-0.001697420391989,0.0016974189681956,-0.0018901325467068,0.0018901340405258,-0.0018901343148576,0.0018901323333435,-0.0018901339764354,0.0018901331381377,-0.0018901357447737,0.0018901314311482,-0.0014417055262415,0.0014417080976011,-0.0014417112110314,0.0014417034656862,-0.001520566526418,0.0015205667445357,-0.0015205699562607,0.0015205633475163,-5.2656237292507e-10,-5.2653713490196e-10,-0.00070919996047945,0.0007091981255329,-3.3328099062686e-09,1.8510092749455e-09,-0.00083685804006712,0.00083685415080222,-0.00083685630898344,0.00083685588059341,-0.00083685804451042,0.00083685415517011,-0.00083685631600465,0.00083685588754106,-0.00074039651778985,0.00074039729728867,-0.00074039626406959,0.00074039704360707,0.66642562144512,122718,2924,0.0039313225260865,0.0070465868215658,0.0029534288760521,14.85939223666,3.407513789328e-05,3.407513789328e-05,3.407513789328e-05,2980235.3728768,0.014029365303904
23419200,0.99940613431675,0.015291051161711,0.0048697341577856,0.0064460821523799,0.0039752348515451,-0.00094400724829687,0.00094400487962607,-1.0026082661472e-09,-1.0025848972952e-09,-2.5753437515677e-09,6.1342151257033e-10,-0.0010829398656882,0.0010829364984479,-0.0010829402541849,0.0010829368867321,-0.0010829388558913,0.0010829375655449,-0.0010829392299838,0.0010829379394093,-0.00086920253224323,0.00086920140265357,-0.00086920280106835,0.00086920167159509,9.1291267117396e-10,-2.2911722267612e-09,1.6997400524023e-09,-3.030178043082e-09,-0.0017005976730254,0.0017005963382049,-0.0018951189744772,0.0018951202494166,-0.0018951210080896,0.0018951192050482,-0.0018951206223474,0.0018951197814044,-0.0018951226561467,0.0018951187372281,-0.0014434136749334,0.0014434159272057,-0.0014434190251272,0.0014434119752231,-0.001521722333794,0.0015217225486755,-0.0015217257062428,0.0015217196496201,-1.2974866188656e-09,-1.297461428194e-09,-0.00070956358705011,0.00070955978284583,-3.8768626312431e-09,7.9785290011951e-10,-0.00083718979792332,0.00083718442677156,-0.0008371882445497,0.0008371859826276,-0.00083719002541282,0.00083718465418562,-0.00083718847104486,0.00083718620904933,-0.00074006450407588,0.00074006365197838,-0.00074006428691521,0.00074006343485651,0.62875729639222,122718,2924,0.0039267660133142,0.007059740304228,0.0029549440604755,15.704868277015,4.0838946216118e-05,4.0838946216118e-05,4.0838946216118e-05,2936630.8915095,0.014039621848566
24419200,0.99951255935844,0.015292737144538,0.0048702233053517,0.0064467886814079,0.0039757251577783,-0.00094832503152045,0.00094832161928378,-1.3793017541293e-09,-1.3792784985536e-09,-2.8318339505012e-09,8.7701957471283e-11,-0.0010859071446607,0.0010859029959465,-0.0010859076617573,0.0010859035128307,-0.0010859062234905,0.0010859039729449,-0.0010859067245869,0.0010859044738137,-0.00087343391840678,0.00087343188962857,-0.00087343419006992,0.00087343216140756,8.1576854971313e-10,-2.128603877348e-09,1.466498951346e-09,-2.7351880702349e-09,-0.0017044095233642,0.0017044082506536,-0.0018999250684683,0.0018999261341584,-0.0018999270744438,0.0018999254246517,-0.0018999267340392,0.0018999258623678,-0.0018999287402011,0.0018999251530523,-0.0014464795214943,0.0014464814068887,-0.0014464844206443,0.0014464780358459,-0.0015246848620645,0.0015246850637671,-0.0015246880550546,0.001524682495467,-1.9581129698458e-09,-1.9580879081261e-09,-0.00071397745985606,0.00071397196242093,-4.2743819469185e-09,-1.4080189922087e-10,-0.00084041939045072,0.00084041272318893,-0.00084041801979971,0.00084041409756024,-0.00084041968975882,0.00084041302242175,-0.00084041831698908,0.000840414394676,-0.00074431348729064,0.00074431105413916,-0.00074431328346547,0.00074431085035261,0.66255127740755,122718,2924,0.0039446762082949,0.0070755399199772,0.0029732637244882,17.879374087449,5.8234992699595e-05,5.8234992699595e-05,5.8234992699595e-05,2938797.1053893,0.014092375639567
25419200,0.99960959119408,0.015294548050727,0.0048707512912731,0.0064475429137328,0.003976253845721,-0.0009496357858621,0.00094963244904909,-1.353604346173e-09,-1.3535810424074e-09,-2.7960216518181e-09,1.0277728328337e-10,-0.0010884430012115,0.0010884389198442,-0.0010884435199356,0.0010884394383562,-0.0010884420864175,0.0010884398898427,-0.0010884425892925,0.0010884403924902,-0.00087498265808668,0.00087498068417058,-0.00087498293143491,0.00087498095763483,8.147106975592e-10,-2.1080445575093e-09,1.4528439504381e-09,-2.7024776605155e-09,-0.0017093527677163,0.0017093515140719,-0.0019047438315085,0.0019047448941346,-0.0019047458223837,0.0019047441994262,-0.0019047454899251,0.0019047446291873,-0.0019047474809868,0.0019047439346701,-0.0014515242061266,0.0014515260722329,-0.0014515290573351,0.0014515227442324,-0.0015296289068502,0.0015296291221299,-0.0015296320760774,0.0015296265726057,-1.9109855882903e-09,-1.9109604729105e-09,-0.00071688514181408,0.00071687977104316,-4.2067275760955e-09,-1.1606824198992e-10,-0.00084430146572006,0.00084429492244314,-0.00084430010913091,0.00084429628279195,-0.00084430176578473,0.00084429522243261,-0.00084430040705859,0.000844296580646,-0.0007471265602564,0.00074712422185315,-0.00074712635625967,0.00074712401789498,0.77991302017262,122718,2924,0.0039501369290866,0.0070959658121049,0.0029853521543325,19.924480163229,7.459584130583e-05,7.459584130583e-05,7.459584130583e-05,2870284.2739906,0.014130893023986
26419200,0.99968916138664,0.015296127913928,0.0048712121761742,0.0064481990703235,0.0039767166674302,-0.00094312704340671,0.00094312496470224,-9.0874156681524e-10,-9.0871804777764e-10,-2.2954767331089e-09,5.3138341748371e-10,-0.0010863585957155,0.0010863555650935,-0.0010863589556888,0.001086355924855,-0.0010863576995327,0.0010863565109614,-0.0010863580475488,0.0010863568587502,-0.00086995412533908,0.00086995308470584,-0.00086995441091651,0.0008699533704005,8.0555681014535e-10,-2.0348477459746e-09,1.3727326542538e-09,-2.5600028047304e-09,-0.0017149765684808,0.0017149753773848,-0.0019089078037001,0.0019089088466613,-0.0019089095412628,0.0019089080211718,-0.0019089093021337,0.0019089084625025,-0.0019089110398836,0.0019089076372057,-0.0014584974968884,0.0014584992274267,-0.0014585020456395,0.0014584960432733,-0.0015350015352406,0.0015350018011062,-0.0015350045191529,0.0015349992336304,-1.1659373918983e-09,-1.1659120037327e-09,-0.00071546063295631,0.00071545720592845,-3.3533346693689e-09,5.354813150724e-10,-0.00084693725966719,0.00084693245401847,-0.00084693596518849,0.0008469337507782,-0.00084693746848609,0.00084693266276167,-0.00084693617335356,0.00084693395887006,-0.00074471998641796,0.00074471916105821,-0.00074471975700204,0.00074471893167931,0.82922923068302,122718,2924,0.003923199137527,0.0071191381102024,0.0029794835485552,20.393633396523,7.8349067172184e-05,7.8349067172184e-05,7.8349067172184e-05,2754318.8031178,0.014121145477487
27419200,0.99975855168186,0.015297370685507,0.0048715735702022,0.006448714245736,0.0039770828695685,-0.00094193442070896,0.00094193125912672,-1.2992393352533e-09,-1.2992157641553e-09,-2.611986000492e-09,3.9956468710249e-11,-0.0010861680696328,0.001086164200218,-0.0010861685654542,0.0010861646958277,-0.001086167232279,0.0010861650872534,-0.0010861677143149,0.0010861655690625,-0.00086940354871412,0.0008694016103959,-0.00086940384416672,0.00086940190596617,7.4913505826173e-10,-1.9255084633617e-09,1.2005581065386e-09,-2.3370597050773e-09,-0.0017204685346567,0.0017204673945376,-0.0019150708677712,0.0019150717641477,-0.0019150726244569,0.0019150712339553,-0.0019150724171695,0.0019150715489001,-0.0019150741740424,0.0019150710189,-0.0014634420673271,0.0014634435201799,-0.0014634462949432,0.0014634407846571,-0.0015391413277802,0.0015391416177735,-0.0015391442256336,0.0015391392878803,-1.8513950526667e-09,-1.851369598709e-09,-0.00071724721148673,0.00071724202696123,-3.8398829216243e-09,-3.594196543237e-10,-0.00084959902328987,0.00084959283209816,-0.0008495978675536,0.00084959399138348,-0.00084959930720405,0.00084959311593681,-0.00084959814963056,0.00084959427338668,-0.00074588671733606,0.00074588430280472,-0.00074588649878002,0.00074588408428561,0.74718867332314,122718,2924,0.00391828145891,0.0071418393403564,0.0029869153793326,22.250938839293,9.3207510714346e-05,9.3207510714346e-05,9.3207510714346e-05,2685763.17983,0.014146720181504
28419200,0.9998155857256,0.015298534113857,0.004871914455789,0.0064491904937598,0.0039774291643084,-0.00094542468662537,0.00094542205652364,-1.1063259443033e-09,-1.1063026119878e-09,-2.3894185096951e-09,2.0652116897887e-10,-0.0010863748670668,0.001086371473358,-0.0010863752938482,0.0010863718999274,-0.0010863740458331,0.0010863723421244,-0.0010863744603768,0.0010863727564408,-0.00087245262957286,0.00087245108872398,-0.00087245291988011,0.00087245137914817,7.1007240218729e-10,-1.9031441745754e-09,1.0767783407491e-09,-2.2306469776778e-09,-0.0017213550462387,0.0017213538889037,-0.0019182677309726,0.0019182685219192,-0.0019182693441516,0.0019182679903316,-0.0019182692080157,0.0019182682686766,-0.0019182708213808,0.0019182677372806,-0.0014624379865513,0.0014624392134696,-0.0014624419703144,0.0014624366900619,-0.0015382049285662,0.0015382052141311,-0.0015382077408095,0.0015382029229664,-1.5375855352144e-09,-1.5375603106909e-09,-0.00071961939129905,0.00071961502008288,-3.4193922940008e-09,-1.6077520699396e-10,-0.00084924301733652,0.00084923761222848,-0.00084924193356607,0.00084923869895004,-0.00084924326143599,0.00084923785625246,-0.00084924217654492,0.00084923894185537,-0.00074809674158159,0.00074809492401833,-0.00074809651724885,0.00074809469972324,0.8493285419621,122718,2924,0.0039327400816548,0.0071455773423804,0.0029967468099303,23.440539306699,0.0001027243144536,0.0001027243144536,0.0001027243144536,2724545.042004,0.014175127608372
29419200,0.99986192954733,0.015299209755558,0.004872109252526,0.0064494730239503,0.0039776274790817,-0.00094240650449619,0.00094240376696339,-1.1483274343723e-09,-1.1483039791965e-09,-2.4028483987007e-09,1.4127392706086e-10,-0.0010868782408362,0.0010868747611978,-0.001086878688243,0.0010868752083932,-0.001086877436113,0.001086875612223,-0.0010868778714812,0.0010868760473646,-0.0008703370293923,0.00087033538124276,-0.00087033733287179,0.00087033568483968,7.077275927902e-10,-1.8554363189882e-09,1.0077276980811e-09,-2.1173934305547e-09,-0.0017271154019846,0.001727114288922,-0.0019227806575223,0.0019227814152355,-0.0019227822264544,0.0019227809597399,-0.0019227821279913,0.0019227811892145,-0.0019227836971105,0.0019227807339108,-0.0014694207570016,0.0014694218659591,-0.0014694245616718,0.001469419521238,-0.0015442212386757,0.0015442215810887,-0.001544223999449,0.0015442193366205,-1.6236406790976e-09,-1.6236153384747e-09,-0.00072053717167276,0.00072053259110833,-3.4118745371043e-09,-3.3499318116988e-10,-0.00085322354926932,0.00085321801264481,-0.00085322252579811,0.00085321903927674,-0.00085322380406705,0.00085321826736699,-0.00085322277923932,0.00085321929264439,-0.00074837551896178,0.00074837345810141,-0.00074837528907062,0.00074837322824736,0.6088157864604,122718,2924,0.0039202688333834,0.0071693327422161,0.0030005868090428,24.779399199879,0.00011343519359903,0.00011343519359903,0.00011343519359903,2619866.7270349,0.014190485751824
30419200,0.99989879580436,0.015299665159978,0.0048722407636369,0.0064496622323592,0.0039777621639817,-0.000953824256902,0.00095382150135957,-1.1458379355479e-09,-1.1458149328e-09,-2.3964521436092e-09,1.1833280830805e-10,-0.001089700239969,0.0010896967921687,-0.0010897006767392,0.0010896972287261,-0.0010896994444173,0.0010896976340152,-0.0010896998692469,0.0010896980586162,-0.00088014429608163,0.00088014264188635,-0.00088014457763556,0.00088014292355574,6.5730714377678e-10,-1.874788281152e-09,8.7302203942302e-10,-2.0523520928171e-09,-0.0017238919711416,0.0017238907885407,-0.0019237773930477,0.0019237780060001,-0.0019237789055988,0.0019237776258862,-0.0019237788580494,0.0019237777940069,-0.001923780370785,0.0019237774140829,-0.0014625649529678,0.001462565806249,-0.0014625685883105,0.0014625636846079,-0.0015386459993773,0.0015386463062634,-0.0015386487575783,0.0015386441220737,-1.6314876353491e-09,-1.6314628073723e-09,-0.00072587690520221,0.00072587229274791,-3.3316966015734e-09,-4.5547453631281e-10,-0.00085113801990716,0.00085113254358277,-0.00085113706345615,0.00085113350312151,-0.00085113826964985,0.00085113279325029,-0.00085113731207709,0.00085113375166901,-0.00075434944015342,0.0007543472996132,-0.00075434922185948,0.00075434708135854,0.51512748248588,122718,2924,0.0039675516483663,0.0071561790279408,0.0030226966202464,26.130086886698,0.00012424069509358,0.00012424069509358,0.00012424069509358,2796739.7628504,0.014247478848941
31419200,0.99992863993962,0.015300140767522,0.004872379652464,0.0064498585699805,0.0039779025450777,-0.0009635769259796,0.00096357336884011,-1.4351338097502e-09,-1.4351110575867e-09,-2.6338232532539e-09,-2.4131830959717e-10,-0.0010975516116151,0.0010975475192475,-0.0010975521470014,0.0010975480544213,-0.0010975508571943,0.0010975483197493,-0.0010975513792865,0.0010975488416137,-0.00088910788163939,0.00088910556626221,-0.00088910815295043,0.0008891058376878,6.184921048731e-10,-1.7998728310028e-09,7.1805991723301e-10,-1.8632906796311e-09,-0.0017260673320501,0.0017260661836778,-0.0019257290888919,0.0019257295753176,-0.0019257306017504,0.0019257294337036,-0.0019257305975433,0.0019257294891478,-0.0019257321105861,0.0019257293477231,-0.001465251583247,0.001465252173989,-0.0014652549230281,0.0014652504277831,-0.0015419246510961,0.0015419249986944,-0.0015419273468524,0.0015419229738925,-2.1318884663002e-09,-2.1318638860069e-09,-0.00073321017398646,0.00073320427679467,-3.6600748490199e-09,-1.1381169695137e-09,-0.00085674481148923,0.00085673831414782,-0.00085674397519783,0.00085673915451166,-0.0008567451182544,0.00085673862083785,-0.00085674427982419,0.00085673945906481,-0.00076195151303473,0.00076194819412382,-0.00076195131219543,0.00076194799332403,0.66479676253864,122718,2924,0.0040079851755943,0.0071652166873548,0.0030531232934797,28.437863921074,0.00014270291136859,0.00014270291136859,0.00014270291136859,2855378.8120556,0.014328511704982
32419200,0.9999504444895,0.015300550088149,0.004872499343558,0.0064500277926563,0.0039780229519347,-0.00095837810862781,0.00095837571997869,-1.0178257364993e-09,-1.0178025608891e-09,-2.2204886995283e-09,2.1955835246657e-10,-0.0010992990908089,0.0010992959446325,-0.0010992994867157,0.0010992963403287,-0.0010992983173481,0.0010992967608049,-0.0010992987032832,0.0010992971465127,-0.00088540775062401,0.00088540634519877,-0.00088540804089293,0.00088540663558276,6.6033921073745e-10,-1.7958810150383e-09,7.3169605477602e-10,-1.8310719284801e-09,-0.0017324025785384,0.001732401475953,-0.0019284221739322,0.0019284227283972,-0.0019284235178906,0.0019284224086768,-0.001928423579933,0.0019284225037255,-0.0019284249240766,0.0019284221841965,-0.0014747759323437,0.0014747765322542,-0.0014747791798785,0.0014747747385473,-0.0015502784100895,0.0015502788425718,-0.0015502810483926,0.0015502766891999,-1.4125529125811e-09,-1.4125279269473e-09,-0.00073307280151697,0.00073306876493198,-2.9333599333676e-09,-4.0924870111178e-10,-0.00086272468779473,0.00086271980996754,-0.00086272384604478,0.00086272065439341,-0.00086272491732994,0.00086272003942722,-0.00086272407473214,0.00086272088300687,-0.00076128672936687,0.00076128493158998,-0.00076128650134612,0.00076128470360504,0.7835582016357,122718,2924,0.0039864936757879,0.0071912770445073,0.0030526130291395,29.295204186367,0.00014956163349093,0.00014956163349093,0.00014956163349093,2698532.7552977,0.014332664786107
33419200,0.99996560035841,0.015300844634988,0.004872585588385,0.0064501485548823,0.0039781104917203,-0.00095225021149873,0.00095224833705282,-8.4015415346291e-10,-8.4013062454326e-10,-2.0493621108943e-09,4.0146494587442e-10,-0.0010960936197394,0.0010960908962001,-0.0010960940198003,0.0010960912960502,-0.0010960928425961,0.0010960917160704,-0.0010960932326428,0.0010960921058905,-0.0008800151202806,0.00088001413940835,-0.00088001541934791,0.00088001443859263,6.7028773287575e-10,-1.7881329305605e-09,7.4039875403218e-10,-1.8219059716114e-09,-0.0017343026615207,0.0017343015767831,-0.0019300986418377,0.001930099214623,-0.0019300999846139,0.0019300988941558,-0.0019301000469943,0.0019300989877142,-0.0019301013899568,0.0019300986674389,-0.0014768532617044,0.0014768538782758,-0.0014768565038386,0.001476852080097,-0.0015521651202781,0.0015521655730431,-0.0015521677565695,0.0015521634130767,-1.0520808354615e-09,-1.0520555068676e-09,-0.00073012421918272,0.00073012112492197,-2.5856817844905e-09,-4.3298371200143e-11,-0.00086206492412389,0.00086206086803547,-0.00086206407589029,0.00086206171908354,-0.00086206515463258,0.00086206109846875,-0.00086206430548609,0.00086206194860573,-0.0007584907324097,0.00075848976159118,-0.00075849050011348,0.00075848952933103,0.80945760226288,122718,2924,0.0039611111509149,0.0071990695252569,0.0030403966064145,29.317288275131,0.00014973830620105,0.00014973830620105,0.00014973830620105,2569040.2465569,0.014302442676973
34419200,0.99997706959592,0.01530104692388,0.0048726447650288,0.0064502312788889,0.0039781708799624,-0.000952215735997,0.00095221231451839,-1.3955400653174e-09,-1.395516506498e-09,-2.5680965008651e-09,-2.0634368487148e-10,-0.0010972333255638,0.0010972293372171,-0.001097233859212,0.0010972298706537,-0.0010972325804525,0.0010972301267277,-0.0010972331018515,0.0010972306479,-0.00088081556986157,0.00088081333109118,-0.00088081587928876,0.00088081364063665,6.4660580028371e-10,-1.7400477907344e-09,6.58966871485e-10,-1.7168254711603e-09,-0.0017410940190203,0.0017410929580042,-0.0019370775792186,0.0019370780773791,-0.0019370790026491,0.0019370779772182,-0.0019370790600233,0.001937077982861,-0.0019370804836403,0.0019370778828919,-0.0014833400132128,0.001483340498949,-0.0014833431309349,0.0014833389360842,-0.001557308281613,0.0015573087542738,-0.0015573109175135,0.001557306731454,-2.0767764631399e-09,-2.0767511165172e-09,-0.00073345848249419,0.00073345275193051,-3.4963255915943e-09,-1.1733558015458e-09,-0.00086652661569328,0.00086652032841444,-0.00086652584404922,0.00086652110404211,-0.00086652691860096,0.0008665206312467,-0.00086652614485503,0.00086652140477396,-0.00076066479499696,0.00076066152669032,-0.00076066457282964,0.00076066130456,0.73398852679885,122718,2924,0.0039610039676726,0.0072271489485434,0.0030542573958047,31.481859585853,0.00016705487668683,0.00016705487668683,0.00016705487668683,2545988.4966114,0.014344879270747
35419200,0.99998606466763,0.015301187367451,0.004872685728472,0.0064502887299178,0.0039782129090614,-0.00096266121015366,0.0009626558395685,-2.0967296896487e-09,-2.0967063435554e-09,-3.1640430290029e-09,-1.0645968281212e-09,-0.0011045884657198,0.0011045829305655,-0.0011045892396978,0.0011045837043313,-0.0011045878100705,0.0011045836318638,-0.0011045885678921,0.001104584389458,-0.00089091338615828,0.00089090955511138,-0.00089091368411136,0.00089090985318201,5.5557133582411e-10,-1.586700770263e-09,4.2862990141544e-10,-1.4274219401219e-09,-0.0017478794485363,0.0017478784468712,-0.0019456491989349,0.001945649480219,-0.0019456507223423,0.0019456498529887,-0.0019456507941761,0.0019456496781586,-0.0019456523177692,0.0019456500511198,-0.0014888544943539,0.0014888546185002,-0.0014888572127351,0.0014888536652466,-0.0015627664319807,0.001562766905195,-0.0015627689622892,0.0015627652527007,-3.2815636047638e-09,-3.2815384500617e-09,-0.00074318235860065,0.00074317352623522,-4.4386433805798e-09,-2.6625940201548e-09,-0.00087370099538866,0.0008736921764444,-0.00087370041168001,0.00087369276645179,-0.00087370143436489,0.00087369261534525,-0.00087370084631742,0.00087369320101559,-0.00077011074697317,0.00077010474437505,-0.00077011056226585,0.0007701045597053,0.64952121200828,122718,2924,0.0040043195906339,0.0072552837354013,0.0030946115066098,35.928779047072,0.00020263023237657,0.00020263023237657,0.00020263023237657,2571589.4295476,0.014458277105838
36419200,0.99999182365476,0.015301281695683,0.0048727133446397,0.0064503271692986,0.003978241181745,-0.00096872176324175,0.00096871877434838,-1.2381770112849e-09,-1.2381538876018e-09,-2.3129274205465e-09,-1.5334429026072e-10,-0.0011080843498311,0.0011080808001083,-0.0011080848200761,0.0011080812701416,-0.0011080836672595,0.0011080815223504,-0.001108084127436,0.0011080819822996,-0.00089643965432515,0.00089643769159194,-0.00089643994342838,0.00089643798081172,5.5898044794278e-10,-1.6209113101839e-09,3.9877400943362e-10,-1.4280467598576e-09,-0.0017490625925636,0.00174906156048,-0.0019478624115285,0.0019478626977181,-0.0019478636027953,0.0019478627164939,-0.001947863784094,0.0019478626245205,-0.001947864975546,0.0019478626434867,-0.0014893252397903,0.0014893252809297,-0.0014893278077306,0.0014893242499866,-0.0015635390556009,0.001563539533972,-0.0015635414698858,0.0015635377007142,-1.8203929949936e-09,-1.8203680447411e-09,-0.00074744972897677,0.00074744466759582,-2.9815258243738e-09,-1.1971464615525e-09,-0.00087584050616466,0.00087583497798398,-0.0008758399115076,0.00087583557604589,-0.00087584077443826,0.00087583524618214,-0.00087584017839452,0.00087583584285933,-0.00077444697320179,0.00077444407932127,-0.00077444675746248,0.00077444386361998,0.68119810794798,122718,2924,0.0040294416999087,0.0072602309626822,0.0031123187150791,37.48020405908,0.00021504163247264,0.00021504163247264,0.00021504163247264,2618627.6283734,0.01450673371873
37419200,0.99999522487757,0.015301335211582,0.0048727289738083,0.0064503490873212,0.003978257150452,-0.00096736669599135,0.00096736486259755,-8.2044219171598e-10,-8.20419011006e-10,-1.9647108501472e-09,3.6687281958131e-10,-0.0011086104962697,0.001108607859403,-0.0011086108269614,0.0011086081898832,-0.0011086097552531,0.0011086086393723,-0.001108610078293,0.0011086089621854,-0.00089541958037323,0.00089541856680832,-0.0008954198825586,0.00089541886911062,6.1755383891883e-10,-1.7242190646441e-09,4.8736275675526e-10,-1.5593336973671e-09,-0.0017507065087416,0.0017507054337813,-0.0019484624178508,0.0019484628014327,-0.0019484635236308,0.00194846257151,-0.0019484637299305,0.0019484625513496,-0.001948464835896,0.0019484623216177,-0.001491934622355,0.0014919347775179,-0.0014919373446963,0.0014919334767742,-0.0015658492091556,0.0015658497251839,-0.0015658517043978,0.0015658476574942,-1.1116301326537e-09,-1.1116051088887e-09,-0.00074745224526377,0.00074744900706457,-2.3840618392238e-09,-3.6363025830477e-10,-0.00087745573932271,0.00087745172780863,-0.00087745506242569,0.00087745240679659,-0.00087745592889581,0.00087745191730625,-0.00087745525187412,0.00087745259617148,-0.00077430284074267,0.0007743015228293,-0.00077430259790219,0.00077430128002658,0.65495763090955,122718,2924,0.0040238427394888,0.0072669907594731,0.003112345627934,37.680370243623,0.00021664296194898,0.00021664296194898,0.00021664296194898,2577191.5997502,0.014507949468452
38419200,0.99999717987197,0.015301369484988,0.0048727390354747,0.006450363012847,0.0039782674366662,-0.00096653214427169,0.00096653090709283,-6.0195464782922e-10,-6.0193147496935e-10,-1.8393154145406e-09,6.9291407383303e-10,-0.0011073652573628,0.0011073630642984,-0.0011073655153851,0.0011073633221091,-0.0011073644506221,0.0011073639115222,-0.0011073647018094,0.0011073641624826,-0.00089456253714644,0.00089456205627739,-0.0008945628416714,0.00089456236091917,6.780614923045e-10,-1.8584198572843e-09,6.1107779599279e-10,-1.7539215130194e-09,-0.001749597460689,0.0017495963146237,-0.0019476645359845,0.0019476650243372,-0.0019476656653278,0.0019476646002238,-0.0019476658534313,0.0019476646471435,-0.0019476669829601,0.0019476642232208,-0.0014905103182972,0.0014905106482177,-0.0014905133233588,0.001490509008305,-0.0015644694288696,0.0015644699561604,-0.0015644720799915,0.0015644676618007,-7.4357455504305e-10,-7.4354953749849e-10,-0.00074637529781891,0.00074637300003553,-2.1752592347941e-09,1.7012239181153e-10,-0.00087603778247369,0.00087603449241223,-0.00087603699600737,0.00087603528026507,-0.00087603793083748,0.00087603464070054,-0.00087603714492206,0.0008760354291062,-0.00077327250489318,0.00077327207331822,-0.00077327225079705,0.00077327181925991,0.72891346290556,122718,2924,0.0040203773453279,0.0072624114014224,0.0031078734170459,37.196032536707,0.00021276826029365,0.00021276826029365,0.00021276826029365,2585886.5424633,0.014495248389853
38880000,0.9999978625632,0.015301381722104,0.0048727426272742,0.0064503679878088,0.003978271107021,-0.00096321273757777,0.00096321113176618,-7.39845500169e-10,-7.3982142314862e-10,-1.9810708121006e-09,5.6631711904781e-10,-0.0011063301084949,0.001106327579683,-0.0011063304055442,0.0011063278764524,-0.0011063292976251,0.0011063284318686,-0.0011063295871054,0.0011063287210716,-0.00089161016063344,0.0008916093715721,-0.0008916104943725,0.00089160970554582,6.9513907053738e-10,-1.8609058049874e-09,6.3563937094766e-10,-1.7636780077887e-09,-0.0017514091882537,0.0017514080569305,-0.0019488756958226,0.0019488762134937,-0.0019488768698213,0.0019488758154309,-0.0019488770406523,0.0019488758530544,-0.0019488782147766,0.0019488754551787,-0.0014928136028776,0.0014928139752928,-0.0014928166657694,0.0014928123252082,-0.0015665146167565,0.0015665151673948,-0.0015665173049743,0.001566512870867,-9.8684034026382e-10,-9.8681666125191e-10,-0.00074523650376924,0.00074523358463751,-2.4264864450635e-09,-5.3640204049175e-11,-0.00087672799602351,0.00087672413472769,-0.00087672720108025,0.00087672493141947,-0.00087672816439976,0.00087672430304565,-0.00087672736966122,0.00087672509988813,-0.00077202205287542,0.00077202108553867,-0.00077202178302716,0.00077202081564551,0.74537476942473,122718,2924,0.0040066367455252,0.0072698565572876,0.0031031642208082,37.19364862932,0.00021274918903456,0.00021274918903456,0.00021274918903456,2520724.5616287,0.014484096814247
