time,ASR_ext,ASR_strain,ASR_strain_xx,ASR_strain_yy,ASR_strain_zz,disp_x_101,disp_x_102,disp_x_103,disp_x_104,disp_x_105,disp_x_106,disp_x_p1_neg,disp_x_p1_pos,disp_x_p2_neg,disp_x_p2_pos,disp_x_p3_neg,disp_x_p3_pos,disp_x_p4_neg,disp_x_p4_pos,disp_x_p5_neg,disp_x_p5_pos,disp_x_p6_neg,disp_x_p6_pos,disp_y_101,disp_y_102,disp_y_103,disp_y_104,disp_y_105,disp_y_106,disp_y_p1_neg,disp_y_p1_pos,disp_y_p2_neg,disp_y_p2_pos,disp_y_p3_neg,disp_y_p3_pos,disp_y_p4_neg,disp_y_p4_pos,disp_y_p5_neg,disp_y_p5_pos,disp_y_p6_neg,disp_y_p6_pos,disp_y_p7_neg,disp_y_p7_pos,disp_y_p8_neg,disp_y_p8_pos,disp_z_101,disp_z_102,disp_z_103,disp_z_104,disp_z_105,disp_z_106,disp_z_p1_neg,disp_z_p1_pos,disp_z_p2_neg,disp_z_p2_pos,disp_z_p3_neg,disp_z_p3_pos,disp_z_p4_neg,disp_z_p4_pos,disp_z_p5_neg,disp_z_p5_pos,disp_z_p6_neg,disp_z_p6_pos,humidity,ndof,nelem,strain_xx,strain_yy,strain_zz,temp,thermal_strain_xx,thermal_strain_yy,thermal_strain_zz,vonmises,vstrain
2419200,0,0,0,0,0,0,0,0,0,0,0,0,0,0,0,0,0,0,0,0,0,0,0,0,0,0,0,0,0,0,0,0,0,0,0,0,0,0,0,0,0,0,0,0,0,0,0,0,0,0,0,0,0,0,0,0,0,0,0,0,0,0,0,0,0,0,0,0,0,0,0,0,0,0,0
3419200,0.1584685982779,0.0027326334055504,0.00091087780185012,0.00091087780185012,0.00091087780185012,-0.00025199771670645,0.00025162571461116,-1.1258831283712e-07,-3.9925551367905e-07,-5.6494417274185e-07,1.4123188204941e-07,-0.00025723034381002,0.00025698938574296,-0.00025731341206762,0.0002568374715288,-0.00025714128997495,0.00025707345685217,-0.0002571499867493,0.00025694069518296,-0.00024854383009785,0.00024834902643931,-0.00024839308325798,0.00024808546268499,3.3637792506772e-06,2.7379008752045e-06,5.8351877928538e-06,2.3415010991655e-07,-0.00026665445361186,0.00027266731958955,-0.00026884161077799,0.00027675007001781,-0.00027070871302884,0.00027493640211785,-0.0002689060909511,0.000276578806186,-0.00027082457277478,0.00027467264602549,-0.00025619807544145,0.00026765376486494,-0.00026192784063823,0.00026229601050084,-0.00026435463456114,0.00026954490552785,-0.00026532040493157,0.0002687787437841,2.364624698047e-07,5.2570807052164e-07,-0.00023025705728615,0.0002310161722033,-2.4171553061244e-06,3.1084882474859e-06,-0.00023802544240395,0.00023688838535206,-0.00023610433075289,0.00023867975392325,-0.00023797551719106,0.00023701153846913,-0.00023606186593527,0.00023884799644066,-0.00023389198179735,0.00023681243346612,-0.00023380802497449,0.00023648889261989,0.78396790133407,131688,2924,0.0010486625415725,0.0011229513135599,0.00096053086588747,31.785376223366,0.00016948300978693,0.00016948300978693,0.00016948300978693,2432123.0396475,0.0031370575091848
4419200,0.34916258809551,0.0058828552737866,0.0019633433112359,0.0021642747633963,0.0017552371991544,-0.00049595229678263,0.00049522148424806,1.3269203073778e-06,-2.3703190369016e-06,-8.7682127011743e-07,9.7345129249067e-08,-0.00051820419772062,0.00051885779168234,-0.00051939848973529,0.00051748279119778,-0.00051812213788696,0.00051889221597995,-0.00051914970203517,0.00051758879352691,-0.00047617647046871,0.00047874703233609,-0.00047902632774105,0.00047512534658747,6.3557250063578e-06,5.6004813528e-06,1.0375893057956e-05,1.6388704486394e-06,-0.00057912635304887,0.00059098578587731,-0.0005992873514032,0.00061394878490456,-0.00060227228164624,0.00061117797948406,-0.00059919709002379,0.0006137714434662,-0.00060232853877032,0.00061077676884811,-0.0005329789150108,0.00055353126728943,-0.00054205649637804,0.00054508514170065,-0.00056392221128558,0.00057416786913708,-0.00056491504956172,0.00057298703065276,-1.5539527572388e-06,2.1461184417252e-06,-0.00041154028781386,0.00041211954185966,-4.0497369569113e-06,4.5023516863418e-06,-0.00043506035694562,0.0004316039085327,-0.00043206648366137,0.00043438283523869,-0.00043394119235533,0.00043290947797399,-0.00043093762373159,0.00043576623610708,-0.00042865920833385,0.00043583061469629,-0.00043163613435553,0.0004320167771805,0.77882048938919,131688,2924,0.0020628030611556,0.0024347184413927,0.0017146045678631,33.598604763539,0.00018398883810831,0.00018398883810831,0.00018398883810831,3775203.1181319,0.0062314828842358
5419200,0.54925822245908,0.0090984223813627,0.0030036337400393,0.003563834532801,0.0025309541085223,-0.00073035399366689,0.00073048092161587,2.6265272649921e-06,-2.8004661302126e-06,-1.3206549428725e-06,1.4678137366605e-06,-0.00077583796905238,0.00077718427166778,-0.00077763844298107,0.0007752597060941,-0.00077507177863311,0.0007779098406005,-0.0007767502008094,0.00077607775044049,-0.00068838325816797,0.00069426766427005,-0.00069322667710567,0.00068902207385247,4.705380726195e-06,2.0701537345297e-06,6.3193005230977e-06,6.5764764958264e-07,-0.00093832888650499,0.00094509919418285,-0.00099536766947344,0.0010046133540713,-0.00099733071524873,0.0010028335426292,-0.00099590809896045,0.0010037683587705,-0.00099796570535505,0.0010018062884075,-0.0008408452381446,0.00085271130431503,-0.00084681619486434,0.00084716562172028,-0.00089152159239793,0.00089908324455181,-0.00089399094238383,0.00089612784008076,-3.012826646279e-06,2.4161199219434e-06,-0.00057247380507611,0.00057188063362116,-3.105779171903e-06,2.4169645744323e-06,-0.00061359814909667,0.00060939679283089,-0.00061166734386716,0.00061120008872229,-0.00061189154394994,0.00061126154329921,-0.00060993783709611,0.00061312769286284,-0.00060421994458446,0.0006108461882231,-0.00060905420833153,0.0006053294306419,0.77319620116262,131688,2924,0.0030387885114818,0.0039159650701421,0.0023817113431461,36.266592204034,0.00020533273763227,0.00020533273763227,0.00020533273763227,4516571.2268464,0.0093802574479885
6419200,0.70588829906311,0.011436120814566,0.0037166493742786,0.0046679247830015,0.0030515466572858,-0.00087661846651059,0.00087641281728916,2.9325154089341e-06,-3.435708666366e-06,-1.2887267691871e-06,1.0845310482305e-06,-0.00094726812272355,0.00094877412796859,-0.00094937714366912,0.00094653111707973,-0.00094664980568443,0.00094933149427286,-0.00094864079894468,0.00094718868908234,-0.00081466525864874,0.00082094530771208,-0.00082031569164544,0.00081475723151482,5.2406582463756e-06,2.9972445364126e-06,7.6309081155223e-06,7.2796884716478e-07,-0.0012209371817385,0.0012291231494159,-0.001318084108391,0.001329044560363,-0.001320470493191,0.0013268465223797,-0.0013185335273388,0.0013283387538823,-0.0013210318456632,0.0013259576473615,-0.0010660194542804,0.0010806089948357,-0.0010732239887957,0.001073881293308,-0.0011358318678813,0.0011441382565966,-0.0011380290930903,0.0011415830927865,-3.1880026561013e-06,3.1844225897592e-06,-0.00066570389053273,0.00066569130391015,-3.4378172460979e-06,3.3225149309807e-06,-0.00073007673774947,0.0007257309727269,-0.00072771303381689,0.00072794414660765,-0.00072803517899759,0.00072790168877496,-0.00072566604788897,0.00073017482395256,-0.00070097853953977,0.00070955238889355,-0.00070670871971312,0.00070317342764421,0.72914357050947,131688,2924,0.0036455967996664,0.0050909876403792,0.0027709145022896,36.738372753076,0.0002091069820246,0.0002091069820246,0.0002091069820246,4660585.7723305,0.011574125756387
7419200,0.8315786878494,0.013248139782416,0.0042399327531261,0.0055461368627786,0.003462070166511,-0.00097347070172541,0.00097347271429152,3.2101307842013e-06,-3.4933308278271e-06,-1.653037795397e-06,1.6652323041065e-06,-0.0010685135015312,0.0010700084646672,-0.0010707559695166,0.0010676625745031,-0.0010675910203209,0.0010708908420321,-0.0010696873397264,0.0010686470020217,-0.00089717255393101,0.00090431101283642,-0.00090315464077113,0.00089780908627251,5.1437196382193e-06,1.9549562249644e-06,7.7426491853103e-06,-5.1375990293772e-07,-0.0014597275242655,0.0014667812200083,-0.0015983568066317,0.0016089402541406,-0.0016011432522118,0.0016062594795387,-0.0015991228627141,0.0016079256251964,-0.0016020343130555,0.0016050712047475,-0.001250465246055,0.0012649443315877,-0.0012589801003028,0.0012568601156004,-0.0013323479271149,0.001339995344413,-0.0013354776373861,0.001336508580605,-3.2539496757408e-06,3.4539126947841e-06,-0.0007311024028897,0.00073130036146278,-3.9895603769417e-06,4.1166622948141e-06,-0.00081702283880485,0.00081231089240076,-0.00081422366827377,0.00081499868841842,-0.00081486789322329,0.00081460189485689,-0.0008120500965674,0.00081733052608164,-0.00076704426452144,0.00077660664882831,-0.00077312749103608,0.0007699223956628,0.71234622090498,131688,2924,0.0040482194523079,0.006077874491602,0.0030437097669341,40.760780695374,0.00024128624556299,0.00024128624556299,0.00024128624556299,4586733.7495548,0.013257181841154
8419200,0.90749216700351,0.014320954800593,0.0045412551227029,0.0060644970546389,0.003715202623251,-0.0010095932053649,0.0010093059389338,3.0646672970737e-06,-3.6310331756886e-06,-1.1770321606683e-06,8.758576846061e-07,-0.0011222691862462,0.0011238951623782,-0.0011245177053497,0.0011215619120029,-0.0011217495995744,0.0011243532984205,-0.0011238505834233,0.0011221095763972,-0.0009275130638266,0.00093394251916359,-0.00093352363210384,0.00092746595062573,4.669825185727e-06,2.7426294139268e-06,8.4791258078983e-06,-9.6236949973529e-07,-0.0016050661673743,0.0016123999251931,-0.0017721372391745,0.0017829592709128,-0.0017753036964066,0.0017798815987278,-0.0017725060476642,0.0017823616864279,-0.0017757934878189,0.0017791295011732,-0.0013599125574049,0.0013762570816132,-0.0013695416006172,0.0013669850709676,-0.0014473271472146,0.0014536351527007,-0.0014492228186022,0.001451426906939,-3.1767533653745e-06,3.5247962202681e-06,-0.000756812008148,0.00075716716807954,-4.481940571569e-06,4.8017677275195e-06,-0.00086012305324738,0.00085517291442911,-0.0008569377730388,0.00085825607346047,-0.00085796645552957,0.00085746043743659,-0.00085477027625893,0.00086057065990423,-0.00079071395903483,0.0008007813322665,-0.00079679709424034,0.00079412420510291,0.69848786968855,131688,2924,0.004197743206744,0.0066799965572372,0.0031513705257586,41.433084670366,0.00024666467736293,0.00024666467736293,0.00024666467736293,4255452.3357211,0.014128356315751
9419200,0.94952350803515,0.014902733116199,0.0047029448792754,0.0063403925930602,0.0038593956438632,-0.0010158243673078,0.0010155153962261,3.0446303754997e-06,-3.6372027622051e-06,-1.1930588054352e-06,8.7996873394677e-07,-0.0011402516887402,0.0011418422184691,-0.0011424966647785,0.0011395142454274,-0.0011397244463713,0.0011423061920408,-0.0011418246553266,0.0011400720061429,-0.00093169112159653,0.00093808373775269,-0.00093767961186869,0.0009316088613714,4.6715727654008e-06,2.7215905970596e-06,8.7904650260463e-06,-1.2865257897043e-06,-0.0016862304695099,0.0016935528403163,-0.0018706638408855,0.0018816892729775,-0.0018740348129638,0.0018784034093389,-0.0018710304043828,0.0018810949379503,-0.0018745286835822,0.0018776407589649,-0.0014200820618207,0.0014370143141089,-0.0014303162854665,0.0014270988703551,-0.0015079162864628,0.0015140084161237,-0.0015098188106511,0.0015117726617227,-3.1174130672988e-06,3.5699567012945e-06,-0.00076365443163963,0.00076410820639803,-4.7370817899983e-06,5.1758071205021e-06,-0.00087895346650573,0.00087388805529738,-0.00087555799030774,0.00087717508637427,-0.00087679903455601,0.0008761613839436,-0.00087339011330639,0.00087948743275043,-0.00079460447432043,0.00080499161610433,-0.00080067671628032,0.00079833210975918,0.67994985088699,131688,2924,0.0042237632903164,0.0070157020208024,0.0031803619667633,41.145479029822,0.00024436383223857,0.00024436383223857,0.00024436383223857,3926787.4288818,0.014524742259141
10419200,0.9705498241518,0.01520191000146,0.0047867246271189,0.0064778395056315,0.0039373458687094,-0.0010087237412247,0.0010085521402385,3.092698543582e-06,-3.545425372935e-06,-1.4594086189418e-06,1.3000900836473e-06,-0.0011390109047398,0.00114048864493,-0.0011412298690629,0.00113816609312,-0.0011382548117499,0.0011411831632387,-0.0011403436975747,0.0011389657212264,-0.0009245730960161,0.00093129563609982,-0.00093053740539759,0.00092488079157216,4.8789349222659e-06,2.2427764301411e-06,7.4330466806798e-06,-1.8502405118028e-07,-0.0017221737431289,0.0017292406827267,-0.0019165485175692,0.0019267501780381,-0.0019191409919552,0.0019242956584622,-0.0019171366400955,0.001925920890136,-0.0019198482251591,0.0019232908317647,-0.0014467073473372,0.0014607584807399,-0.0014545624333396,0.0014532691873807,-0.0015313592237847,0.0015386705160745,-0.0015339178964291,0.0015357444531797,-3.2928690376301e-06,3.350678386638e-06,-0.00076100786122633,0.00076106727449217,-3.7402514704906e-06,3.7383290401575e-06,-0.00088171741951222,0.00087709949121822,-0.00087913629836028,0.00087957740150498,-0.00087957695561122,0.00087935725306618,-0.00087698464548909,0.00088187688454093,-0.00079036715051152,0.00079949211083198,-0.00079640351971135,0.00079287785018098,0.69329668257674,131688,2924,0.0041947304655931,0.0071638008789421,0.0031687429470045,38.100583853089,0.00022000467082471,0.00022000467082471,0.00022000467082471,3681876.6494732,0.014633786209276
11419200,0.98269120388389,0.015371901390627,0.0048344974244497,0.0065545385018411,0.0039828654643358,-0.0010034560215589,0.0010032374205315,3.0376476098487e-06,-3.5363767017087e-06,-1.3732362928418e-06,1.1622327485646e-06,-0.0011391508749095,0.0011406353599529,-0.0011413507177631,0.0011383360887106,-0.0011384674024961,0.0011412549967931,-0.0011405349431407,0.0011390593226458,-0.00091992221380517,0.00092645924319345,-0.00092582064329287,0.00092010589787144,4.79764120595e-06,2.3860687827954e-06,7.6073062104582e-06,-3.0339518268217e-07,-0.001749179562845,0.0017563032668581,-0.00194792616455,0.0019582065941545,-0.0019506130336662,0.0019556525043638,-0.0019484441285614,0.0019574524457565,-0.0019512502085902,0.0019547251054613,-0.0014683685842114,0.0014828338944584,-0.0014765042120147,0.0014750569025407,-0.001551891694992,0.0015589455227325,-0.0015542331359813,0.0015562452486585,-3.2434985990008e-06,3.3357568853699e-06,-0.00076001902730469,0.00076011304179393,-3.8640793492856e-06,3.9027966281267e-06,-0.00088674004664634,0.000882078793355,-0.00088406121811436,0.00088465395554864,-0.00088461951095836,0.00088431499986192,-0.00088193093750881,0.00088692976019676,-0.00078739439345866,0.00079658761935681,-0.00079336670699662,0.00079003989394425,0.67906583976508,131688,2924,0.0041728971322644,0.0072755334061476,0.0031648516358671,37.628197151738,0.00021622557721391,0.00021622557721391,0.00021622557721391,3477063.2658399,0.014721092135102
12419200,0.98965475745791,0.015471998393711,0.0048628458324811,0.0065988397818296,0.0040103127794005,-0.00099770095610511,0.00099749981803103,3.0215767573476e-06,-3.5147450044832e-06,-1.3805519644705e-06,1.2099013668649e-06,-0.0011357933676948,0.0011372371388522,-0.0011379561170381,0.0011349467913792,-0.0011350601878255,0.0011378890442748,-0.0011371324366469,0.0011357171097571,-0.00091473937961378,0.00092127754241543,-0.00092061383469495,0.00091494780872761,4.7995593550743e-06,2.3269575781819e-06,7.6179556969697e-06,-4.0112748122173e-07,-0.001762045404629,0.0017690943991299,-0.0019643734008988,0.0019746728066573,-0.0019671136297729,0.0019720783029033,-0.0019649373590612,0.0019738780634836,-0.0019677781677635,0.0019710829710735,-0.001477570892559,0.0014920126607451,-0.0014857643304562,0.0014840851031121,-0.0015603773194548,0.0015673786265592,-0.0015627176870477,0.0015646034575878,-3.1775176572207e-06,3.361907490615e-06,-0.00075742890660809,0.00075759419132817,-3.8767963918363e-06,3.9935001883209e-06,-0.0008864612174165,0.00088184881146965,-0.00088376603747852,0.00088446177173964,-0.00088435877211535,0.00088406078298559,-0.00088165435129862,0.00088673770243175,-0.00078403721007527,0.00079332067960084,-0.00078996139717376,0.00078677945583559,0.69355173706229,131688,2924,0.0041491225268281,0.0073285582987252,0.0031543141563156,36.804267166658,0.00020963413733327,0.00020963413733327,0.00020963413733327,3361771.7008017,0.014740088952923
13419200,0.99354392355107,0.015526540866075,0.0048783059504342,0.0066228198097326,0.0040254151059087,-0.00099025670807255,0.00099004258665074,3.0240888644848e-06,-3.519866008824e-06,-1.4018355507823e-06,1.2017270784682e-06,-0.0011307507726675,0.0011322035988209,-0.0011329424140606,0.0011299158559447,-0.0011300434383288,0.0011328475111352,-0.0011321026197854,0.0011306647530779,-0.00090783823678061,0.00091436848875186,-0.00091370681404698,0.00090804346186235,4.8133831338939e-06,2.3338187754138e-06,7.6480894713286e-06,-3.828580553323e-07,-0.0017689634860768,0.0017760503468574,-0.001972616976678,0.0019829239236936,-0.0019753418123532,0.0019803293340629,-0.0019731583224628,0.0019821465390721,-0.0019760020008947,0.0019793763652596,-0.0014829735946059,0.0014974948077466,-0.0014912209130035,0.001489589743143,-0.0015644200042563,0.001571463031355,-0.0015668144826359,0.0015686916658396,-3.2189001981176e-06,3.3297326142147e-06,-0.00075364983866329,0.00075376002645958,-3.9139084289863e-06,3.9731289368995e-06,-0.00088550713157594,0.00088082925017204,-0.00088278967136714,0.00088344468791184,-0.00088339657565958,0.00088305405110847,-0.00088066863631357,0.00088571077267301,-0.00077870350439252,0.00078792649913203,-0.00078464273090253,0.00078140358700051,0.67550368783653,131688,2924,0.0041182715412468,0.0073572023619117,0.0031385562980859,34.79459802539,0.00019355678420312,0.00019355678420312,0.00019355678420312,3234118.6706197,0.014721878753093
14419200,0.99578955759874,0.01555763339864,0.0048871268144536,0.0066364001418575,0.0040341064423288,-0.00098306782889755,0.00098284264142724,3.0415168663184e-06,-3.5463699993375e-06,-1.3727394570224e-06,1.1566733790353e-06,-0.0011236482746032,0.0011251303081216,-0.0011258516480049,0.0011228260448078,-0.0011229646662158,0.0011257496587696,-0.0011250392833924,0.00112355230361,-0.00090105912912398,0.00090760237916754,-0.00090697602765432,0.00090123915531506,4.7872779799775e-06,2.3808718536551e-06,7.6109197659849e-06,-3.2276785982916e-07,-0.0017684901549638,0.0017755988100493,-0.0019744974513341,0.0019847711115508,-0.0019771915065656,0.0019822095358783,-0.0019750155061833,0.0019840184367548,-0.0019778276920062,0.0019812803245218,-0.0014804823901731,0.0014949581106075,-0.0014886391938365,0.0014871521637647,-0.0015612430566327,0.0015682679478411,-0.0015635766441575,0.0015655728377953,-3.2487663502282e-06,3.3439969132251e-06,-0.00074886242489301,0.00074895861275083,-3.8742886841494e-06,3.9165912427419e-06,-0.00088074809028123,0.00087607693487313,-0.00087806412516191,0.00087866010448527,-0.00087862222494678,0.00087831584343722,-0.0008759284242749,0.00088094121565692,-0.00077331014956174,0.00078252744892841,-0.00077929869379217,0.0007759656912127,0.66543916135078,131688,2924,0.0040884457390488,0.0073552963828777,0.0031186566959453,32.643906427214,0.00017635125141771,0.00017635125141771,0.00017635125141771,3171005.7989286,0.014669484551156
15419200,0.9969589435209,0.015574753184714,0.0048920407546963,0.0066437469584599,0.0040389654715583,-0.0009710153301332,0.00097077656031499,3.055344109707e-06,-3.5718241478594e-06,-1.3116134546159e-06,1.0798236047558e-06,-0.0011113090395678,0.0011128338828855,-0.0011135178695735,0.0011105113513341,-0.0011106656112169,0.0011134068142552,-0.0011127509169429,0.0011111881366502,-0.00088954893022929,0.00089607386238948,-0.00089549098244366,0.00088964392609498,4.7438786882898e-06,2.4760415182958e-06,7.5050456696042e-06,-1.6603623986436e-07,-0.0017590687483247,0.0017662258732332,-0.0019661085912241,0.0019762973832474,-0.0019687236903528,0.0019738249990514,-0.0019665845613785,0.0019755886139855,-0.001969320377475,0.0019729515589579,-0.0014707208760221,0.0014850327343672,-0.0014786447510252,0.0014775274884691,-0.0015505431729364,0.0015575712774197,-0.0015527477246105,0.0015550143765482,-3.2677672727749e-06,3.3642083170266e-06,-0.00074000185704066,0.00074008598720971,-3.7572880455761e-06,3.7735957398391e-06,-0.0008715056943636,0.0008668962936901,-0.00086891106158568,0.00086939506476705,-0.00086936853306766,0.00086914956366275,-0.0008667612783326,0.000871684371321,-0.00076366066941476,0.00077283568653742,-0.00076969001282142,0.00076623251961543,0.70138893960785,131688,2924,0.0040384186157211,0.0073164383921946,0.003081811372445,27.069722678281,0.00013175778142625,0.00013175778142625,0.00013175778142625,3085010.5513739,0.014541912631736
16419200,0.99770964599094,0.015585365673151,0.0048950832807498,0.0066482892498453,0.0040419931425557,-0.00096405084114188,0.00096381732177865,3.061519433789e-06,-3.5845216090418e-06,-1.2867026705723e-06,1.0749147235811e-06,-0.0011066553094018,0.0011081956018192,-0.001108855378978,0.001105862375056,-0.0011060118733688,0.0011087652731882,-0.0011081191626265,0.0011065404214732,-0.00088281419961434,0.0008893335440335,-0.00088875422204463,0.00088288312868997,4.7313413102024e-06,2.4917198604741e-06,7.4717475884888e-06,-1.2831934048005e-07,-0.0017598288898934,0.0017669872493074,-0.0019653787199942,0.0019755379783183,-0.001967973176064,0.0019730882318572,-0.0019658520820718,0.001974832575447,-0.0019685476689257,0.0019722183790021,-0.0014729193631342,0.0014871801517514,-0.0014807495906675,0.0014796875086767,-0.0015517731481568,0.0015587794399083,-0.0015538958511891,0.0015562399839243,-3.2442376570638e-06,3.403098905969e-06,-0.0007361265957789,0.00073625517388911,-3.6961480330884e-06,3.7624891281157e-06,-0.00087019513323171,0.00086565119453579,-0.00086764799784891,0.0008681191129454,-0.00086805093924974,0.00086790542717515,-0.00086548944332325,0.00087041779085002,-0.00075852217868091,0.00076773467687954,-0.00076454604126706,0.00076111591375754,0.67697638766786,131688,2924,0.0040095702542361,0.0073195292412168,0.0030658253105725,24.418335321128,0.00011054668256903,0.00011054668256903,0.00011054668256903,2972893.1061481,0.014499586227226
17419200,0.99821378820123,0.015592691920614,0.0048971939223085,0.0066513933317543,0.0040441046665517,-0.00095731067102242,0.0009570742102837,3.0969215675293e-06,-3.6104082671623e-06,-1.2682494228505e-06,1.0410868846703e-06,-0.0010992191448961,0.0011007950110059,-0.0011014468408599,0.0010984426887594,-0.0010985968747628,0.0011013431143357,-0.0011007085349162,0.0010990894152478,-0.00087665911988839,0.00088324549686199,-0.0008826831035803,0.00087671388818264,4.7151005087305e-06,2.5306024285323e-06,7.4204848871669e-06,-5.5541878911488e-08,-0.0017543299457035,0.0017615129520389,-0.0019611899146413,0.0019713171963332,-0.0019637504258906,0.0019689115211869,-0.0019616428665683,0.0019706332604499,-0.0019643248804436,0.0019680686381291,-0.0014666906499637,0.0014808606502737,-0.0014744342078839,0.0014735729750365,-0.0015449501909948,0.0015519820665246,-0.0015470665562637,0.0015495107601712,-3.3044610732697e-06,3.407279658704e-06,-0.00073104959629385,0.00073113260177628,-3.6654121371356e-06,3.672393246665e-06,-0.00086436733088666,0.0008597947860769,-0.00086183690715394,0.00086223053409843,-0.00086220783327642,0.00086207447581717,-0.00085965893534172,0.00086454360913633,-0.00075324849868429,0.00076244803708637,-0.00075936231826353,0.0007557590864837,0.69394003840871,131688,2924,0.0039815948896175,0.0072968540112881,0.0030446281779419,21.980202011766,9.1041616094131e-05,9.1041616094131e-05,9.1041616094131e-05,2940980.4660125,0.01442668669738
18419200,0.99852698492678,0.015597170064439,0.0048984846567729,0.0066532859909833,0.0040453994166832,-0.00094770490597815,0.0009474271667164,3.1070085356755e-06,-3.6648545262785e-06,-1.2546214627719e-06,9.8194384019815e-07,-0.0010903801199757,0.0010919676092436,-0.0010926440080677,0.0010896018305373,-0.0010897898502498,0.0010924892748181,-0.0010919264778569,0.0010902319227347,-0.00086747075836386,0.00087404028822381,-0.00087356018798708,0.00086749137616619,4.6923318293781e-06,2.5783964618446e-06,7.3556056597994e-06,3.1796307203238e-08,-0.0017477379273819,0.0017549452001518,-0.0019539183130858,0.0019639933455999,-0.0019564174968472,0.0019616366681231,-0.0019543438938971,0.0019633385709456,-0.0019569597083297,0.0019608060046848,-0.0014611946037887,0.0014752687319473,-0.0014687657262121,0.0014680731922388,-0.001538363228534,0.0015454014937588,-0.0015404079447127,0.0015429953072976,-3.3804558866698e-06,3.3961012991714e-06,-0.00072444035352606,0.00072445295092354,-3.6203332031789e-06,3.5652212446386e-06,-0.0008586840894273,0.0008540718549081,-0.00085620227685039,0.00085645458466938,-0.0008564948646259,0.00085637089511186,-0.00085400512353728,0.00085879646542075,-0.00074557322345239,0.00075469352580543,-0.00075173742862081,0.00074794910679099,0.68267067351054,131688,2924,0.0039416657297813,0.0072696176353824,0.0030170182068782,17.477991088745,5.502392870996e-05,5.502392870996e-05,5.502392870996e-05,2850238.2686102,0.014330556653159
19419200,0.99878631767758,0.015601101935724,0.0048996290315239,0.0066549216577794,0.0040465512464211,-0.00094540510812199,0.00094513533815333,3.1177719512378e-06,-3.6662775021376e-06,-1.2661121525122e-06,1.0004845758541e-06,-0.0010880317831958,0.0010896215996816,-0.0010902975034832,0.001087249696452,-0.0010874312159713,0.0010901533042436,-0.0010895716634334,0.0010878898378981,-0.00086547489327988,0.0008720795860087,-0.00087158471697375,0.00086552331349146,4.7012864720476e-06,2.5574267713977e-06,7.3496303957308e-06,2.5831982935857e-08,-0.0017484123235736,0.0017556083464642,-0.0019556339826296,0.0019657092549485,-0.0019581345583799,0.0019633522946594,-0.0019560696973804,0.0019650442706518,-0.0019586881258873,0.0019625122444759,-0.0014609548158271,0.0014750068535969,-0.0014685248474975,0.0014678113451909,-0.0015378423193948,0.0015448998124255,-0.0015399213008943,0.0015424689437433,-3.3859098693088e-06,3.4028607672159e-06,-0.00072308197397496,0.00072309806994377,-3.6183793561424e-06,3.5674178976047e-06,-0.00085725702815842,0.0008526454451432,-0.00085477490258135,0.00085502817274077,-0.00085506504014673,0.00085494839649595,-0.00085257278764174,0.00085737337568274,-0.00074411313067221,0.00075324220906973,-0.00075029573634048,0.00074648982562475,0.72158242958199,131688,2924,0.0039321490166059,0.0072723878674687,0.0030113900408883,17.551568050536,5.5612544404288e-05,5.5612544404288e-05,5.5612544404288e-05,2831027.3166576,0.014318000830803
20419200,0.99901200867004,0.015604560653673,0.0049006372329512,0.0066563563595295,0.0040475670611924,-0.000945159393894,0.00094490005752427,3.1214172497159e-06,-3.6592308481993e-06,-1.2933831399912e-06,1.0394264928015e-06,-0.0010901802560555,0.0010917576686998,-0.0010924447113364,0.0010893869408356,-0.001089559034795,0.0010923115321178,-0.0010916986455478,0.0010900492687222,-0.00086532871464467,0.00087196255493759,-0.00087143565760081,0.00086541073467046,4.7150067650375e-06,2.5054630460164e-06,7.3753401347906e-06,-3.6929621880497e-08,-0.0017554724185753,0.0017626316992445,-0.0019611276376621,0.0019712168600253,-0.0019636563523656,0.0019688306711208,-0.0019615843255946,0.0019705302342778,-0.0019642311732767,0.0019679686187636,-0.0014692107841379,0.0014832922673928,-0.0014768667111475,0.0014760060397048,-0.0015455112865106,0.0015525671882429,-0.001547655241043,0.0015500698828487,-3.378107722783e-06,3.4071734366741e-06,-0.00072429585295495,0.00072432430866017,-3.6549080127185e-06,3.6184934561591e-06,-0.000861132396832,0.00085650511516711,-0.00085862151526768,0.0008589166803766,-0.00085894168771464,0.00085880648491943,-0.00085642055021573,0.0008612608646986,-0.00074457171315017,0.00075373823050939,-0.0007507509015441,0.00074698983270188,0.72910480592046,131688,2924,0.0039311878223037,0.0073014569856222,0.0030164875471945,18.597312354036,6.3978498832292e-05,6.3978498832292e-05,6.3978498832292e-05,2771204.3046036,0.014351706599187
21419200,0.99916555008416,0.015606851301949,0.0049013024901633,0.0066573091704535,0.004048239641332,-0.00093721086903392,0.00093694327914105,3.1426389279494e-06,-3.6892238897893e-06,-1.2577052957108e-06,9.9413115852645e-07,-0.0010826497248497,0.0010842612281034,-0.001084924813343,0.0010818712145652,-0.0010820506839294,0.0010847892940471,-0.0010842081683398,0.0010825028296369,-0.00085792698115874,0.00086457784838379,-0.00086407649926758,0.00085795215206825,4.688929016201e-06,2.5606183045176e-06,7.3286848433861e-06,3.9153871432016e-08,-0.0017492805035865,0.0017564666383956,-0.0019548434656099,0.0019648906570081,-0.0019573366483298,0.0019625443959182,-0.0019552763468081,0.0019642282859169,-0.001957886170487,0.0019617193185025,-0.0014634607843898,0.0014774733253637,-0.0014710099085401,0.0014703400773668,-0.001539130250895,0.0015461699288595,-0.0015411932190383,0.0015437590793653,-3.3981680058426e-06,3.4379092353821e-06,-0.00071866838563192,0.00071869785698792,-3.5979809571538e-06,3.5536223724754e-06,-0.00085580453441005,0.00085120231040662,-0.00085333753686274,0.00085357418295006,-0.00085359752211729,0.00085352162538644,-0.00085111819821507,0.00085593164630146,-0.00073856145994478,0.0007477522850528,-0.00074479009661075,0.00074094888097462,0.70951084607002,131688,2924,0.0038981943048064,0.0072758918376299,0.0029931031032956,15.225615260312,3.7004922082498e-05,3.7004922082498e-05,3.7004922082498e-05,2709173.5427093,0.014268590025045
22419200,0.99929265264864,0.015608767430687,0.0049018608026116,0.0066581008297286,0.0040488057983467,-0.00093441960546082,0.00093414948379654,3.1537828850354e-06,-3.702134492318e-06,-1.264937924775e-06,9.9884310451075e-07,-0.0010794395352374,0.0010810538760692,-0.0010817286159897,0.0010786577788663,-0.0010788399725249,0.0010815847733441,-0.0010810047542175,0.0010792975614617,-0.00085551818766661,0.00086219268882554,-0.00086169871218017,0.00085556605693396,4.6948488039246e-06,2.554008162842e-06,7.3192977908545e-06,4.6360686410141e-08,-0.0017479842303068,0.0017551707095301,-0.0019547324188344,0.0019647808841298,-0.0019572169377065,0.0019624409793679,-0.0019551675689903,0.0019641169562769,-0.0019577696250839,0.0019616020317001,-0.0014612210163829,0.0014752142971944,-0.001468742469431,0.0014680705224049,-0.0015366371134063,0.0015436986500306,-0.0015387137044365,0.0015412713954695,-3.4243512820434e-06,3.4362080313966e-06,-0.00071671863032342,0.0007167293940307,-3.5963756612675e-06,3.5388522645838e-06,-0.00085338018957169,0.00084875665140818,-0.00085091508011333,0.00085112267995494,-0.00085116395944569,0.00085108316254557,-0.00084868888642643,0.00085349164339789,-0.0007366279256365,0.00074580573302063,-0.00074288162053985,0.00073898373179507,0.71604798228475,131688,2924,0.0038866090074636,0.007270542566831,0.0029849652059541,14.858990533535,3.4071924268277e-05,3.4071924268277e-05,3.4071924268277e-05,2697192.4120184,0.014243151261527
23419200,0.99940552135706,0.015610440083469,0.0049023477891723,0.0066587920424818,0.0040493002518145,-0.00093387995955868,0.00093361543631221,3.1569891714455e-06,-3.7034307103717e-06,-1.2684362943e-06,1.0132921074599e-06,-0.00107972160012,0.0010813351164621,-0.0010820113858155,0.0010789372949526,-0.0010791140228833,0.0010818729901353,-0.0010812824789499,0.0010795867657173,-0.00085515876851985,0.00086184146944842,-0.00086134011716678,0.00085521475453506,4.698935783777e-06,2.540224486904e-06,7.3328880837742e-06,2.1289782358715e-08,-0.0017513895206328,0.0017585656258262,-0.0019581742646208,0.0019682320231277,-0.0019606706112116,0.0019658806024933,-0.0019586159677282,0.0019675614090966,-0.001961228079548,0.00196502952666,-0.0014644855284072,0.0014785013665515,-0.0014720376048834,0.0014712996200088,-0.0015396729731631,0.0015467267150712,-0.0015417532203652,0.0015442759509514,-3.4188278527381e-06,3.4461724849114e-06,-0.00071700814665583,0.00071703219830101,-3.6071816860786e-06,3.5661978903245e-06,-0.00085452462417904,0.00084989967209658,-0.00085204985919405,0.00085227750332593,-0.00085230708739817,0.0008522261543332,-0.00084982214792186,0.00085464994822905,-0.0007367195454643,0.00074592684431441,-0.0007429708326944,0.00073909735221736,0.70404422442052,131688,2924,0.003884399314611,0.0072845882601156,0.0029862114181156,15.705719502739,4.0845756021915e-05,4.0845756021915e-05,4.0845756021915e-05,2673219.7036012,0.0142564258199
24419200,0.99951206856515,0.015612046209002,0.0049028166344817,0.0066594530611158,0.0040497765134046,-0.00093549614604015,0.00093523884362596,3.1637737943545e-06,-3.6989837444434e-06,-1.2953187335101e-06,1.0436760955822e-06,-0.0010814633674983,0.0010830677055595,-0.0010837551518002,0.0010806690373623,-0.0010808395295043,0.0010836235969495,-0.0010830061613334,0.0010813327250927,-0.00085695150533037,0.00086367055683208,-0.00086314043944049,0.00085703758392244,4.7164633731254e-06,2.5010510401493e-06,7.3583775512832e-06,-2.3573867138517e-08,-0.0017562598697731,0.0017634156863824,-0.0019640628112315,0.0019741403948993,-0.0019665822744442,0.0019717634160428,-0.0019645217655416,0.0019734517914944,-0.0019671600711373,0.0019709018478408,-0.0014682071196846,0.0014822513028756,-0.0014758337435298,0.0014750005658969,-0.0015433680430624,0.0015504364693852,-0.0015455172777902,0.0015479360589285,-3.4202593477348e-06,3.4471979904972e-06,-0.00071868165882022,0.00071870782006649,-3.6417973515141e-06,3.6020321835513e-06,-0.00085634897136984,0.0008517014773189,-0.00085384718593939,0.00085410376559581,-0.0008541311164772,0.00085403050143612,-0.00085161790366078,0.00085647384661763,-0.00073850405252287,0.00074773791847424,-0.00074476548655341,0.00074091022203025,0.71549404806278,131688,2924,0.0038911338865579,0.0073046907870163,0.0029931865946405,17.881578703145,5.8252629625162e-05,5.8252629625162e-05,5.8252629625162e-05,2678144.9851329,0.01429071855986
25419200,0.99960920830708,0.015613584021097,0.0049032679830781,0.0066600818038959,0.0040502342341234,-0.00093708235458887,0.00093683157840125,3.1631386012544e-06,-3.6937749313036e-06,-1.3169931861989e-06,1.0750886458661e-06,-0.0010841954856641,0.00108578634014,-0.0010864860785411,0.0010833903872726,-0.0010835544134118,0.0010863602438925,-0.0010857204455929,0.0010840741774581,-0.00085863768479741,0.00086537010449851,-0.00086481874001588,0.00085874845115828,4.731695833789e-06,2.4629765271532e-06,7.3963450614373e-06,-8.4130400725265e-08,-0.0017626105358371,0.0017697440459245,-0.0019702746781613,0.0019803800106262,-0.0019728243857693,0.0019779709444005,-0.0019707505817575,0.0019796737848252,-0.001973417977716,0.0019770872528699,-0.0014744200994311,0.0014885232582367,-0.0014821366139725,0.0014811579168579,-0.0015494285490173,0.001556492732656,-0.0015516231224959,0.001553935002193,-3.4103428399165e-06,3.4511337608392e-06,-0.00072072515665749,0.00072076541078247,-3.6813805226863e-06,3.6601270283342e-06,-0.00085962255870923,0.00085495811321295,-0.00085709002959761,0.00085739222273773,-0.00085740634236099,0.00085728425094891,-0.00085486318112995,0.00085976170440174,-0.00074038194986423,0.00074965430257003,-0.00074663261953681,0.00074283197086884,0.75065157268326,131688,2924,0.0038977528702582,0.0073308859004665,0.0030017293703932,19.926560985447,7.4612487883573e-05,7.4612487883573e-05,7.4612487883573e-05,2661306.4127601,0.014332677089098
26419200,0.9996888551197,0.015614872793523,0.0049036466209052,0.0066606078259203,0.0040506183466974,-0.0009360105912755,0.00093576245103297,3.1644475611964e-06,-3.6966648072474e-06,-1.3198334615776e-06,1.0848310045702e-06,-0.0010849199937983,0.0010865097183403,-0.0010872089079823,0.0010841120213743,-0.001084272562407,0.0010870888173059,-0.0010864446509599,0.0010848036764682,-0.00085776699247117,0.00086450043726037,-0.00086394224001632,0.00085787776930673,4.7324584004805e-06,2.4503427775365e-06,7.4210708185108e-06,-1.2046162496739e-07,-0.0017665347299239,0.0017736552064709,-0.0019731846997654,0.0019833006483896,-0.0019757534445536,0.0019808710800844,-0.0019736666126413,0.0019825892190598,-0.0019763472410626,0.0019799804062487,-0.001479102045802,0.0014932510117475,-0.0014868690330095,0.0014858025153935,-0.00155374179889,0.0015607789284102,-0.0015559327942761,0.0015582031429459,-3.3992683980865e-06,3.4659690157857e-06,-0.00072096067388564,0.00072102203074714,-3.6987686722974e-06,3.7023605558935e-06,-0.00086168762904727,0.00085702303201507,-0.00085914225552366,0.00085947517713724,-0.00085946845858604,0.00085934910649505,-0.00085691321420023,0.00086184725754032,-0.00074022396297166,0.00074954101400775,-0.00074646847100981,0.00074271547718799,0.7669211259652,131688,2924,0.0038933386708149,0.0073470471444433,0.0030027721643753,20.393280622158,7.8346244977263e-05,7.8346244977263e-05,7.8346244977263e-05,2614996.8398011,0.014345667281471
27419200,0.99975830891679,0.015615953948027,0.004903962890217,0.0066610508672131,0.0040509401905968,-0.00093666342359751,0.00093642011570666,3.1708364122547e-06,-3.6919611321726e-06,-1.3474682350589e-06,1.1119419415628e-06,-0.0010869323012912,0.0010885106877981,-0.0010892244225382,0.0010861130821504,-0.0010862705302499,0.0010891072097412,-0.0010884383799021,0.0010868182984764,-0.00085888318879283,0.00086565607220862,-0.00086507158488724,0.00085902487669763,4.7481904999098e-06,2.4125467690601e-06,7.4453763372852e-06,-1.6506608357792e-07,-0.0017717984196407,0.0017788997591672,-0.0019782260208241,0.0019883641467334,-0.0019808179996058,0.0019859112881449,-0.0019787233936646,0.0019876355037569,-0.0019814331555968,0.0019850073707252,-0.0014843597011154,0.0014985355585505,-0.0014922066649216,0.001491051829621,-0.0015587903519462,0.0015658449389936,-0.0015610564812809,0.0015632223378059,-3.4074582521541e-06,3.459827262715e-06,-0.00072231737968636,0.00072236918069998,-3.740013442745e-06,3.7307370416261e-06,-0.000864352748409,0.00085965487055721,-0.00086177674205141,0.0008621320781745,-0.00086213426099941,0.00086198318424714,-0.00085954825642637,0.00086450328490406,-0.00074169264123242,0.00075102842188871,-0.00074795300966352,0.00074420089170965,0.73788855883173,131688,2924,0.0038960802084638,0.0073687462740692,0.0030084121129025,22.249487837461,9.3195902699688e-05,9.3195902699688e-05,9.3195902699688e-05,2595193.6977558,0.014376185829888
28419200,0.99981539772008,0.015616888911532,0.0049042379921034,0.0066614309801582,0.0040512199392709,-0.0009368541251956,0.00093661464587383,3.1772974149801e-06,-3.6951616707181e-06,-1.3440228653688e-06,1.1157045797503e-06,-0.0010866680203368,0.0010882503014315,-0.0010889657607537,0.001085850407493,-0.0010860061202425,0.0010888474286414,-0.0010881736054221,0.0010865609459785,-0.00085939172713539,0.0008661789935636,-0.00086559809593181,0.00085954308733576,4.7474694913747e-06,2.4118179709396e-06,7.4496097765563e-06,-1.7615863090497e-07,-0.0017733131304023,0.0017804121767189,-0.0019809543671691,0.0019911029885378,-0.0019835530745205,0.0019886500209912,-0.0019814516278553,0.0019903738091533,-0.0019841745292579,0.0019877284704829,-0.0014847729056151,0.0014989562976879,-0.0014926351700396,0.0014914540838231,-0.0015592489405898,0.0015663037947538,-0.0015615167661318,0.0015636688121999,-3.4207454775732e-06,3.4564324591571e-06,-0.00072256228836466,0.00072260186277631,-3.7540498204874e-06,3.7323661663411e-06,-0.00086408921573956,0.00085937104276076,-0.00086150318516036,0.00086185525812126,-0.00086186983360041,0.00086170128123555,-0.00085927461765571,0.00086423362698489,-0.00074225937277479,0.00075160029977353,-0.00074853125402258,0.00074475298520707,0.77520834858532,131688,2924,0.0038968809776089,0.00737501773761,0.0030094111579466,23.439579031657,0.00010271663225325,0.00010271663225325,0.00010271663225325,2606182.4198021,0.014384362015522
29419200,0.99986178653374,0.015617562254418,0.0049044336981614,0.0066617090222067,0.0040514195340495,-0.00093734742904142,0.0009371090297891,3.1781560734189e-06,-3.694930969353e-06,-1.364835416652e-06,1.1358400130082e-06,-0.0010890169043288,0.0010905898631686,-0.0010913132829139,0.0010881892735818,-0.0010883418798891,0.0010912002146996,-0.0010905134047329,0.0010889079814069,-0.00085996236323903,0.00086676178605648,-0.00086616023822111,0.00086012183746657,4.7601527266529e-06,2.3834574886808e-06,7.4866119091848e-06,-2.2329036354872e-07,-0.0017791312242052,0.001786215693584,-0.001985892283785,0.0019960589972641,-0.0019885154949963,0.0019935728139492,-0.001986402672889,0.0019953169604848,-0.0019891439387703,0.0019926556158489,-0.0014910485525988,0.00150529213786,-0.0014989896924003,0.0014977036949249,-0.0015652183208697,0.0015722625864818,-0.0015675215681848,0.001569598752194,-3.4066538814309e-06,3.4709147614126e-06,-0.00072405625460192,0.00072412013776889,-3.7820150414047e-06,3.787740836271e-06,-0.00086747954456955,0.0008627565915509,-0.00086487088795819,0.00086526651634099,-0.00086525783288915,0.00086508816254042,-0.00086263865189083,0.00086764067329621,-0.0007433422555385,0.00075273146065238,-0.00074961081392768,0.0007458941346083,0.68889126626384,131688,2924,0.0038989624854794,0.0073990073450396,0.0030156951686557,24.778337395782,0.00011342669916626,0.00011342669916626,0.00011342669916626,2569124.5338718,0.01441720236646
30419200,0.999898689211,0.015618088597628,0.00490458640017,0.0066619266411824,0.0040515755562756,-0.00093853681861851,0.00093830117061939,3.191006332987e-06,-3.7048283899415e-06,-1.3615541332999e-06,1.1350367648569e-06,-0.0010869754509854,0.0010885592808441,-0.001089278888614,0.0010861510039781,-0.0010863010551276,0.0010891684689385,-0.0010884800131094,0.0010868689432124,-0.0008611892354231,0.00086801397851506,-0.00086741021346957,0.00086135035552539,4.7637204090676e-06,2.3901965939233e-06,7.4691074138752e-06,-1.9507488631514e-07,-0.0017775243151378,0.0017846186732105,-0.0019882259632401,0.0019983869280021,-0.0019908347283381,0.0019959157488525,-0.0019887351187741,0.0019976453280204,-0.0019914615799261,0.0019949987210503,-0.0014858521571267,0.00150006146141,-0.0014937495013843,0.0014925229460175,-0.0015604499528591,0.0015675163391595,-0.0015627511748685,0.0015648554571579,-3.4188570952507e-06,3.4814811685866e-06,-0.00072400828243025,0.00072407021011979,-3.7609086945807e-06,3.7635365376306e-06,-0.00086416009707876,0.00085944274207822,-0.0008615666721252,0.00086193792881375,-0.00086193066969473,0.00086178232376408,-0.00085932718715271,0.00086431985110136,-0.00074395856300546,0.00075335450913345,-0.00075025123708027,0.00074649418106668,0.67663456818344,131688,2924,0.003903880304153,0.0073924629781367,0.0030154847664859,26.129009144291,0.00012423207315433,0.00012423207315433,0.00012423207315433,2636582.2182122,0.014415303505234
31419200,0.99992856244954,0.015618546216542,0.004904720525052,0.006662113810681,0.0040517118808094,-0.00094112990688667,0.00094090258420618,3.1911684376584e-06,-3.6967264059458e-06,-1.3816887324865e-06,1.1646738868429e-06,-0.0010895226158711,0.0010910954199399,-0.0010918236012068,0.0010886899321121,-0.0010888322297506,0.001091721288929,-0.0010910085944376,0.0010894242900849,-0.00086377777619093,0.00087061957263324,-0.00086999143512599,0.0008639637465132,4.7787690930205e-06,2.3554577490995e-06,7.4924618624603e-06,-2.3744416919232e-07,-0.0017826588165471,0.0017897340627919,-0.0019942610703982,0.0020044408032323,-0.0019968907403988,0.0020019474694189,-0.0019947859323103,0.0020036825242114,-0.0019975335988883,0.0020010139900225,-0.0014898751306149,0.0015041134832867,-0.0014978357840798,0.0014965091119797,-0.0015645512040717,0.0015716255384834,-0.0015669006720506,0.0015689144158929,-3.4103297613128e-06,3.4820496239859e-06,-0.0007263149496809,0.00072638607762876,-3.7880969294407e-06,3.801511615099e-06,-0.00086647822981448,0.00086175061154065,-0.00086386322315709,0.00086426742018599,-0.00086425162061845,0.00086408759044024,-0.00086162633385959,0.00086664660868304,-0.00074635746842106,0.00075577631069083,-0.00075264242983993,0.00074892354483809,0.72615477803009,131688,2924,0.0039146694257591,0.0074136612712806,0.0030251044934005,28.436007460712,0.00014268805968569,0.00014268805968569,0.00014268805968569,2650103.9163524,0.01445751073337
32419200,0.99995039003255,0.015618897341036,0.0049048238480025,0.0066622567852735,0.0040518167077603,-0.00094130650053991,0.0009410789637831,3.1867919587057e-06,-3.6932913829398e-06,-1.3922955275857e-06,1.176064615879e-06,-0.0010924737455736,0.0010940372323066,-0.0010947736301301,0.0010916350427296,-0.0010917770032477,0.0010946700413388,-0.0010939505931302,0.0010923751084243,-0.00086388799858681,0.00087072518477769,-0.00087009144286007,0.00086407794316893,4.7815029216166e-06,2.3371673790939e-06,7.5284895029482e-06,-2.8840821076714e-07,-0.0017890349304698,0.001796095235094,-0.0019984005975733,0.0020085982416314,-0.0020010568892226,0.0020060763381307,-0.0019989320737241,0.0020078342660048,-0.0020017069541419,0.002005138656889,-0.001498109643678,0.0015124148730858,-0.0015061535134929,0.0015047149840088,-0.0015722989140344,0.0015793492136608,-0.0015746666056829,0.0015766180792019,-3.4021516400511e-06,3.4825297759795e-06,-0.00072781332443071,0.00072789328698752,-3.8255915711976e-06,3.8508535323972e-06,-0.00087091620468564,0.00086617031927919,-0.00086827251658897,0.00086871556335255,-0.00086869258775732,0.00086850444057583,-0.00086603739039498,0.00087109074661883,-0.00074706224950832,0.00075650869876908,-0.00075333576450587,0.00074966439383915,0.76213985049622,131688,2924,0.0039154378937907,0.0074399329279612,0.0030313723532434,29.29448690667,0.00014955589525336,0.00014955589525336,0.00014955589525336,2591525.6857683,0.014491331287319
33419200,0.99996556253968,0.015619144235708,0.0049048964720614,0.0066623571932669,0.0040518905703793,-0.00093946108012185,0.00093923047383345,3.1944813787338e-06,-3.7025892137501e-06,-1.392518798037e-06,1.1716708788042e-06,-0.001092346742892,0.0010939141715533,-0.001094650065486,0.0010915049338747,-0.0010916511590815,0.0010945456386609,-0.0010938305999698,0.0010922456461119,-0.00086240462166727,0.00086925876235681,-0.00086862702436409,0.00086259452587698,4.7782995015974e-06,2.3381983938302e-06,7.3805223380333e-06,-1.4304996512767e-07,-0.0017911590261694,0.0017982174494758,-0.00199950485733,0.0020096062471666,-0.0020020690728408,0.0020071825337295,-0.0020000357094683,0.0020088427772865,-0.0020027177074136,0.0020062436350241,-0.0015013261662687,0.0015153393511084,-0.0015090891551382,0.0015079421164169,-0.0015749569275962,0.0015820993794885,-0.0015773245685353,0.0015793724978729,-3.429999333598e-06,3.4715323380595e-06,-0.00072730646836765,0.00072734737039537,-3.7034422909392e-06,3.68168835173e-06,-0.00087201316264777,0.00086732185690319,-0.00086946560730516,0.00086977080935228,-0.0008697831302336,0.0008696614449291,-0.00086722570784986,0.00087215326156984,-0.00074639047229352,0.00075572035960954,-0.00075268477987768,0.00074885984932455,0.77028159872676,131688,2924,0.0039077958489168,0.0074486725552196,0.0030291994229041,29.317262035562,0.00014973809628449,0.00014973809628449,0.00014973809628449,2547635.9331202,0.014490253458571
34419200,0.99997704360285,0.015619324125882,0.004904949197914,0.0066624305771545,0.0040519443508137,-0.00094098982886881,0.00094076288246755,3.1917439236485e-06,-3.7052450716493e-06,-1.3973672835795e-06,1.1913885090233e-06,-0.001094811309141,0.0010963703891878,-0.0010971144568817,0.0010939651053717,-0.0010941063738989,0.0010970126152571,-0.0010962928299536,0.001094730218335,-0.00086429923863307,0.00087114922634333,-0.00087052218701277,0.00086451245482735,4.7838212792387e-06,2.3152874198207e-06,7.4164750077865e-06,-2.034003637743e-07,-0.001796340647091,0.0018033779338845,-0.0020048292122196,0.0020149609302035,-0.0020074218781141,0.0020125101089707,-0.0020053702577098,0.0020141854580428,-0.0020080762823839,0.0020115270966793,-0.001506200471485,0.0015202781869461,-0.0015140293865753,0.0015127104883556,-0.0015798548995452,0.0015869696821646,-0.0015822213165395,0.0015841871849966,-3.4278605263285e-06,3.4724895016207e-06,-0.00072910797529134,0.00072915543213222,-3.7407556189857e-06,3.7376819943669e-06,-0.00087467507420914,0.00086996145416607,-0.00087210445169788,0.00087243751586488,-0.00087244279204018,0.00087229374857486,-0.00086986690860126,0.0008748319472558,-0.00074847240521059,0.00075783558626238,-0.00075475044423128,0.0007509642077921,0.74169710825981,131688,2924,0.0039141651034534,0.0074700353503813,0.0030367189840959,31.480106692868,0.00016704085354294,0.00016704085354294,0.00016704085354294,2540886.9856321,0.014526018545353
35419200,0.99998604773074,0.015619460336091,0.0049049889982055,0.0066624863544335,0.0040519849834519,-0.00094686924303658,0.00094665853231205,3.1998729838429e-06,-3.6948133982044e-06,-1.434062215479e-06,1.2473829032267e-06,-0.001100586722231,0.0011021310682655,-0.0011029045003891,0.0010997301853453,-0.0010998597325842,0.0011028031867856,-0.0011020393897391,0.0011005341651904,-0.0008703050140209,0.00087719874719424,-0.00087653914394734,0.00087060080926942,4.8058113182672e-06,2.2458007808657e-06,7.4747646757861e-06,-3.1429453378367e-07,-0.0018051500904835,0.0018121416140779,-0.0020149102131397,0.0020250898295521,-0.0020175535600102,0.0020225871046187,-0.0020154776856484,0.0020242851702719,-0.0020182432465905,0.0020215502162163,-0.0015134424429994,0.0015276053540126,-0.0015214231313877,0.0015198406107817,-0.0015874258479143,0.0015945394509234,-0.0015898880407681,0.0015916552661982,-3.4451632326318e-06,3.4537521527766e-06,-0.00073386484297661,0.00073389420166763,-3.8297795319344e-06,3.81775081077e-06,-0.00087941547022607,0.0008746253528764,-0.00087677536359204,0.00087715983901349,-0.00087718312100907,0.00087695667511604,-0.00087454372284902,0.00087956061456108,-0.00075374325783554,0.00076312635443207,-0.00076002125920329,0.00075626015172661,0.71641844439029,131688,2924,0.0039386057887277,0.0075063748883825,0.003056469260903,35.925106813361,0.00020260085450689,0.00020260085450689,0.00020260085450689,2581837.8564143,0.014607715537793
