time,ASR_ext,ASR_strain,ASR_strain_xx,ASR_strain_yy,ASR_strain_zz,disp_x_101,disp_x_102,disp_x_103,disp_x_104,disp_x_105,disp_x_106,disp_x_p1_neg,disp_x_p1_pos,disp_x_p2_neg,disp_x_p2_pos,disp_x_p3_neg,disp_x_p3_pos,disp_x_p4_neg,disp_x_p4_pos,disp_x_p5_neg,disp_x_p5_pos,disp_x_p6_neg,disp_x_p6_pos,disp_y_101,disp_y_102,disp_y_103,disp_y_104,disp_y_105,disp_y_106,disp_y_p1_neg,disp_y_p1_pos,disp_y_p2_neg,disp_y_p2_pos,disp_y_p3_neg,disp_y_p3_pos,disp_y_p4_neg,disp_y_p4_pos,disp_y_p5_neg,disp_y_p5_pos,disp_y_p6_neg,disp_y_p6_pos,disp_y_p7_neg,disp_y_p7_pos,disp_y_p8_neg,disp_y_p8_pos,disp_z_101,disp_z_102,disp_z_103,disp_z_104,disp_z_105,disp_z_106,disp_z_p1_neg,disp_z_p1_pos,disp_z_p2_neg,disp_z_p2_pos,disp_z_p3_neg,disp_z_p3_pos,disp_z_p4_neg,disp_z_p4_pos,disp_z_p5_neg,disp_z_p5_pos,disp_z_p6_neg,disp_z_p6_pos,humidity,ndof,nelem,strain_xx,strain_yy,strain_zz,temp,thermal_strain_xx,thermal_strain_yy,thermal_strain_zz,vonmises,vstrain
2419200,0,0,0,0,0,0,0,0,0,0,0,0,0,0,0,0,0,0,0,0,0,0,0,0,0,0,0,0,0,0,0,0,0,0,0,0,0,0,0,0,0,0,0,0,0,0,0,0,0,0,0,0,0,0,0,0,0,0,0,0,0,0,0,0,0,0,0,0,0,0,0,0,0,0,0
2919200,0.076469056696926,0.0015970648679465,0.00053235495598217,0.00053235495598217,0.00053235495598217,-0.00016690612498143,0.00016689828865194,-2.5410351584359e-09,-2.5410353001433e-09,-2.1744225221881e-09,-2.943425098391e-09,-0.00016699300454269,0.00016698740258883,-0.0001669950641642,0.00016698946220307,-0.00016699328044496,0.00016698715759208,-0.00016699530006059,0.00016698917720539,-0.00016726239580899,0.00016725666518395,-0.00016726352989621,0.00016725779927687,-2.3139898862194e-10,4.8511457785103e-10,-1.7142584428681e-09,1.9575947684118e-09,-0.00017392834383243,0.00017392858814202,-0.00017299602892188,0.00017299467737709,-0.0001729966723775,0.00017299798351553,-0.0001729966225146,0.00017299579478124,-0.00017299726597442,0.00017299910091924,-0.00017242104287993,0.00017241797844292,-0.00017241857625166,0.00017242262164263,-0.00017465033329104,0.00017465114876722,-0.00017465050908606,0.0001746527172299,-1.021877015931e-08,-1.0218769959857e-08,-0.00015757470376292,0.00015754874456024,-8.1646988307758e-09,-1.2036141459943e-08,-0.00015848836387491,0.00015846733184398,-0.00015848969307221,0.00015846601305228,-0.00015848914127404,0.00015846810923845,-0.00015849046060014,0.00015846678058636,-0.00016216447467597,0.00016214180743363,-0.00016216384190914,0.00016214117466928,0.83502648770561,122718,2924,0.0006951830946001,0.00072443811842637,0.0006562924334418,32.41600193373,0.00017452801546984,0.00017452801546984,0.00017452801546984,1348637.3240277,0.0020780718091814
3419200,0.15573152474491,0.0031192570607516,0.0010492401811395,0.0010740950324113,0.00099592184720085,-0.00028588829236467,0.0002858804141431,-2.6920825380522e-09,-2.6921500445829e-09,-2.4587357565778e-09,-3.0499346778686e-09,-0.00029221186000116,0.00029220605657164,-0.00029221460829164,0.00029220880458086,-0.00029221205393583,0.00029220586603615,-0.00029221479180749,0.00029220860361697,-0.00028245683738471,0.00028245086644291,-0.00028245915338131,0.00028245318216419,-2.4909203932095e-10,2.9920678277273e-10,-8.8592411192062e-10,9.2632180384298e-10,-0.00030788097315137,0.00030788101553028,-0.00030943024877453,0.00030942949394305,-0.00030943236178252,0.00030943282057463,-0.00030943118554453,0.0003094308086956,-0.00030943329847697,0.00030943413524049,-0.00029936066813826,0.00029935914426233,-0.00029936152828501,0.00029936351704538,-0.00030717479049255,0.00030717493925951,-0.00030717662278067,0.00030717784659443,-7.883557048251e-09,-7.8836241237166e-09,-0.00025539903090371,0.00025537942071626,-6.8024476822751e-09,-8.7692224931386e-09,-0.00026319545868508,0.00026317896253024,-0.00026319612119479,0.00026317831008736,-0.000263196410233,0.00026317991396997,-0.00026319706589618,0.00026317925469344,-0.00026560118926606,0.00026558405910304,-0.00026560000302637,0.00026558287287523,0.77960726241633,122718,2924,0.0011904723605494,0.0012820083801854,0.0010635697722821,31.910911313336,0.00017048729050668,0.00017048729050668,0.00017048729050668,2162952.1791334,0.0035423146850949
3919200,0.24271889590234,0.0046918531419881,0.0015733428952134,0.001689025900885,0.0014294843458897,-0.00040784672082779,0.00040784036362172,-2.3330405595377e-09,-2.3330830082097e-09,-2.0166658210973e-09,-2.3962205914734e-09,-0.00042297884162442,0.00042297388019044,-0.00042298043667781,0.00042297547499412,-0.00042297895349958,0.00042297375117911,-0.00042298056072381,0.00042297535815606,-0.00039647720542543,0.00039647190412292,-0.00039647860571253,0.00039647330410979,-1.7865049599704e-10,1.7274915977881e-10,-4.4688987164471e-11,3.2266705200775e-11,-0.0004614793014113,0.00046147929048399,-0.00047331733011532,0.00047331719584776,-0.00047331872972319,0.00047331859893518,-0.00047331787310024,0.00047331798179715,-0.00047331927263772,0.0004733193848053,-0.00043632470628578,0.00043632476090537,-0.00043632577134769,0.00043632594063123,-0.00045370799922634,0.00045370769194278,-0.00045370861018905,0.00045370898560077,-3.2414320923496e-09,-3.2414739879006e-09,-0.00034883057402448,0.00034882180404546,-3.0423545684504e-09,-3.1544935570163e-09,-0.00036368868954812,0.0003636817231436,-0.00036368871938166,0.00036368169926624,-0.00036368943057308,0.00036368246409442,-0.00036368945686801,0.00036368243670111,-0.00036537673654164,0.00036536961192354,-0.00036537591684171,0.0003653687920464,0.74640349119053,122718,2924,0.0016978982711115,0.0019209627645877,0.001452442957503,32.496603397358,0.00017517282717887,0.00017517282717887,0.00017517282717887,2993471.3012698,0.0050841962406686
4419200,0.33797230784294,0.0063870269206583,0.0021335298690072,0.0023852893715084,0.0018682076801427,-0.00053809200521458,0.0005380882668744,-1.0938944631703e-09,-1.0939295699365e-09,-1.2731097081049e-09,-1.1419393437428e-09,-0.00056346672880757,0.00056346412397548,-0.00056346754544677,0.00056346494031872,-0.00056346665822903,0.0005634641609813,-0.00056346750819392,0.00056346501065045,-0.00051719789608938,0.00051719536139958,-0.00051719893628126,0.00051719640130016,-5.2116843836784e-11,-1.7493257640781e-10,1.1114229826731e-10,-3.3776490260231e-10,-0.00063645111985519,0.00063645089393937,-0.0006628888361842,0.00066288883190584,-0.00066288972793928,0.00066288937339456,-0.00066288941776567,0.00066288932413458,-0.00066289030948941,0.00066288986557548,-0.00058940950834804,0.00058940970483332,-0.00058941135666952,0.00058941063389182,-0.00061831014621105,0.00061830990048546,-0.00061831162271374,0.00061831112936533,-1.1268809871917e-09,-1.1269151599713e-09,-0.00044379165799113,0.0004437878091506,-1.4194487896962e-09,-9.4529777164892e-10,-0.0004660219346246,0.00046601964093067,-0.00046602176331682,0.00046601981208295,-0.00046602244713283,0.00046602015337747,-0.00046602227851889,0.00046602032724572,-0.00046844905217459,0.00046844650538336,-0.00046844892382326,0.00046844637683452,0.74424082049435,122718,2924,0.0022395215656013,0.0026483184029211,0.0018475657209443,33.598539156879,0.00018398831325503,0.00018398831325503,0.00018398831325503,3667593.1535174,0.0067581654541482
4919200,0.44139285193298,0.0082172349085887,0.0027273182631937,0.0031767737414342,0.0023131429039608,-0.00067531501020865,0.00067531242689553,-5.940415840201e-10,-5.9406552181351e-10,-8.7112499552531e-10,-6.4522088920944e-10,-0.00071257045155928,0.0007125689028488,-0.00071257089846788,0.00071256934947536,-0.00071257034651298,0.00071256897614071,-0.00071257082422453,0.00071256945356682,-0.0006440579961571,0.00064405648768996,-0.00064405907332741,0.00064405756455386,-7.1542259933068e-11,-2.7005116506345e-10,1.2264163085295e-10,-4.6048166101311e-10,-0.00083703754944125,0.00083703721131985,-0.00088173814201326,0.00088173807531976,-0.0008817386755934,0.0008817382047315,-0.00088173857529404,0.00088173837642943,-0.00088173910882495,0.00088173850577705,-0.00076278076662209,0.00076278096053459,-0.0007627826866896,0.00076278169482106,-0.00080460247870838,0.00080460214806339,-0.00080460391350212,0.00080460318094449,-5.4699566359913e-10,-5.4701854841472e-10,-0.00053965916873312,0.00053965690371648,-9.3063778447803e-10,-3.1035370828914e-10,-0.00057173398526838,0.00057173331837249,-0.00057173376946118,0.00057173353272904,-0.00057173437470233,0.0005717337077265,-0.00057173416301663,0.00057173392622315,-0.00057278865265734,0.00057278733636182,-0.00057278872312393,0.0005727874065717,0.74696695512676,122718,2924,0.0028098503847901,0.0034814841419347,0.0022463765260649,35.343379052229,0.00019794703241783,0.00019794703241783,0.00019794703241783,4162919.6155729,0.0085743149525555
5419200,0.54221324983017,0.0099521070695977,0.0032735474850973,0.0039631886393128,0.0027153709451875,-0.0007973211023563,0.00079732060122598,3.3993711301483e-10,3.3990715279039e-10,-1.8397069695384e-10,3.2959431491404e-10,-0.00084791023599962,0.00084791053818702,-0.00084791039689432,0.00084791069876115,-0.00084791003391762,0.00084791070820786,-0.0008479102290295,0.00084791090299315,-0.00075568794948711,0.00075568847333841,-0.0007556889691788,0.00075568949270662,1.3776684278811e-11,-4.5355603132164e-10,2.3714088103828e-10,-6.6913585262372e-10,-0.0010360197373916,0.001036019304772,-0.0011015691547766,0.0011015692058359,-0.0011015695447041,0.0011015689587455,-0.0011015696171199,0.00110156934713,-0.0011015700070096,0.0011015690999929,-0.00093132039141148,0.00093132071195732,-0.00093132264690797,0.00093132115737724,-0.00098629206333545,0.00098629178897513,-0.00098629390642882,0.00098629270551144,5.2980077162657e-10,5.2977204471004e-10,-0.00062224937530942,0.00062224981054016,-8.2964947271928e-11,8.7851976898219e-10,-0.00066626742602594,0.00066626914892824,-0.00066626709267845,0.00066626947730984,-0.00066626769432046,0.00066626941715836,-0.00066626736796795,0.00066626975255616,-0.00066193367947762,0.00066193473105878,-0.00066193400747014,0.0006619350587819,0.73229095938568,122718,2924,0.0033166852957455,0.0043072772886881,0.00258993627447,36.272805894247,0.00020538244715398,0.00020538244715398,0.00020538244715398,4478657.6640462,0.010266333667379
5919200,0.63357148144292,0.011306070416077,0.0036843870186162,0.0046048219020742,0.0030168614953861,-0.00088467582213101,0.00088467682377728,9.2944389993568e-10,9.2941817243332e-10,2.8744032003891e-10,1.0865515690954e-09,-0.00094974897655638,0.00094975054728878,-0.00094974890786016,0.00094975047828504,-0.00094974867838457,0.00094975081477721,-0.0009497486455786,0.00094975078165101,-0.00083076801171519,0.00083076983340956,-0.00083076905167455,0.00083077087305691,6.672464057862e-11,-6.6446676864339e-10,3.7314627281397e-10,-9.5795141359482e-10,-0.0011997110057203,0.0011997104195774,-0.0012906816289163,0.0012906817629294,-0.0012906818500255,0.0012906810573017,-0.0012906819676592,0.0012906816006193,-0.0012906821887185,0.0012906808949308,-0.0010622790959016,0.0010622795888947,-0.0010622816359771,0.0010622794898333,-0.0011282029671429,0.0011282026493063,-0.0011282048730109,0.0011282031125257,1.3909518555227e-09,1.3909277438475e-09,-0.00067942579773699,0.00067942842602132,5.5750760629002e-10,1.9644539976423e-09,-0.00073580991073472,0.00073581359127482,-0.00073580942556467,0.00073581406957525,-0.00073581009612839,0.00073581377659105,-0.000735809620025,0.00073581426398,-0.00072066754417793,0.00072067052537395,-0.00072066785913742,0.00072067084004889,0.6360792580923,122718,2924,0.0036794503084373,0.0049860944808681,0.002827829169912,36.779011759045,0.00020943209407236,0.00020943209407236,0.00020943209407236,4635114.9522241,0.011559815754598
6419200,0.71089998207113,0.012371588805327,0.004000572430083,0.0051159201908811,0.0032550961843625,-0.00094877485209461,0.00094877754947035,1.626072851109e-09,1.6260460728764e-09,7.6971793061984e-10,1.9800185849678e-09,-0.0010247943748585,0.0010247974057591,-0.0010247940842633,0.0010247971148491,-0.0010247939379466,0.0010247978129089,-0.001024793686748,0.0010247975613872,-0.0008845579074612,0.00088456130477624,-0.00088455896281045,0.00088456235981012,1.576335153749e-10,-9.5904660126994e-10,5.4586545042048e-10,-1.3279988684285e-09,-0.0013292654851413,0.0013292647010554,-0.0014448414470636,0.0014448417074778,-0.0014448415863641,0.0014448405429289,-0.0014448417283604,0.0014448412203397,-0.0014448418676101,0.0014448400557282,-0.0011625786943952,0.0011625793897445,-0.0011625817310895,0.0011625787277407,-0.0012369207320309,0.0012369204053836,-0.0012369229477537,0.0012369204233437,2.296994918279e-09,2.2969698816321e-09,-0.00072170386638102,0.00072170874852064,1.1641410000563e-09,3.1368803796314e-09,-0.00078643757037231,0.00078644324355917,-0.00078643689181403,0.00078644391246526,-0.00078643765413063,0.00078644332723893,-0.00078643698751649,0.00078644400810986,-0.0007635593745744,0.0007635644403771,-0.00076355969363153,0.00076356475914976,0.59525943091212,122718,2924,0.0039455850182384,0.0055230368433065,0.003003757658862,36.741518755204,0.00020913215004163,0.00020913215004163,0.00020913215004163,4774112.9536492,0.012550666492088
6919200,0.78050998418942,0.013409121314818,0.004306963099689,0.0056083636680231,0.0034937945471062,-0.0010113922509897,0.0010113944687916,1.5290975275558e-09,1.5290704536693e-09,5.5145525371281e-10,1.9919991028536e-09,-0.0010969718211019,0.001096974520738,-0.0010969717213591,0.0010969744206764,-0.001096971310119,0.0010969750083962,-0.0010969712451794,0.0010969749431295,-0.00094136956074333,0.00094137279514766,-0.00094137074059173,0.00094137397468094,1.9899379058218e-10,-1.1411437691353e-09,4.311498950196e-10,-1.3500051053884e-09,-0.0014608692303843,0.001460868309036,-0.0015956817906595,0.0015956819376048,-0.0015956820164245,0.0015956809542139,-0.0015956821522782,0.0015956813914109,-0.0015956823779925,0.001595680407956,-0.0012702898660058,0.0012702902670728,-0.0012702928980025,0.0012702897697668,-0.0013512602231877,0.0013512600129566,-0.0013512627084052,0.0013512598567772,1.2327576137776e-09,1.2327323515199e-09,-0.00076571542065842,0.00076571759446801,1.6470936191853e-10,2.0212529067674e-09,-0.00083919674723149,0.00083920019333219,-0.00083919611188226,0.00083920082000365,-0.00083919690892941,0.00083920035495022,-0.00083919628482283,0.00083920099288677,-0.00080947276556244,0.00080947555984643,-0.00080947301547159,0.00080947580946394,0.64378173705164,122718,2924,0.0042055203120862,0.006068142486953,0.0031868829256879,38.624141937052,0.00022419313549641,0.00022419313549641,0.00022419313549641,4753073.6716121,0.01355177999128
7419200,0.8404660202783,0.014180862494801,0.0045282624863548,0.0059832225333596,0.0036693774750864,-0.0010490394080013,0.0010490414945916,1.4938296763578e-09,1.4938025133623e-09,4.6782034403462e-10,2.0002166186965e-09,-0.0011468851564182,0.0011468877376663,-0.0011468851166245,0.0011468876975545,-0.0011468846162027,0.0011468882572625,-0.0011468846089502,0.001146888249685,-0.00097379600108439,0.00097379918513832,-0.00097379721907446,0.00097380040281526,2.1497596842585e-10,-1.2164768252033e-09,3.0279780973476e-10,-1.2791529276973e-09,-0.0015677508873098,0.0015677499081999,-0.0017202280063829,0.0017202280545787,-0.0017202282642853,0.0017202272428068,-0.001720228430887,0.0017202275152454,-0.0017202286887375,0.0017202267034088,-0.0013558334522783,0.0013558335720395,-0.0013558363653681,0.0013558333444395,-0.001440388248244,0.0014403881365167,-0.0014403908578139,0.0014403879241643,8.7677241652805e-10,8.7674741629179e-10,-0.00079213331089399,0.0007921346554653,-9.3544411753021e-11,1.5551895455784e-09,-0.00087810645560938,0.0008781092268136,-0.000878105891267,0.00087810978373221,-0.00087810665405946,0.00087810942518474,-0.0008781060998905,0.00087810999229773,-0.0008346268972113,0.00083462888747414,-0.00083462711443399,0.00083462910440289,0.55664260548471,122718,2924,0.0043618372147447,0.006510575806511,0.0032969357513657,40.762811798231,0.00024130249438585,0.00024130249438585,0.00024130249438585,4519841.109976,0.014270509518094
7919200,0.88549004300161,0.014710070444865,0.0046773345801338,0.0062388787839421,0.0037938570807893,-0.0010693407524332,0.0010693451322465,2.3280518590182e-09,2.3280247224711e-09,1.1278690190172e-09,3.0227978027197e-09,-0.0011737111686975,0.0011737155687278,-0.0011737107832427,0.0011737151829594,-0.0011737105046916,0.001173716209877,-0.0011737101577406,0.0011737158626043,-0.00098985317034123,0.00098985825010657,-0.00098985433846617,0.00098985941791765,3.0333494103165e-10,-1.4676881055476e-09,4.5213573021086e-10,-1.5861482993171e-09,-0.0016372573142091,0.0016372561770666,-0.0018056046740547,0.0018056048593349,-0.0018056047759342,0.0018056035472688,-0.0018056050157406,0.0018056039945664,-0.0018056051175662,0.0018056026824317,-0.0014075451025006,0.0014075453887081,-0.0014075483747043,0.001407544640661,-0.00149465302397,0.0014946529229544,-0.0014946558483076,0.0014946522632738,2.5397189539469e-09,2.5396941843507e-09,-0.00080644874328827,0.00080645435829652,1.3101205188645e-09,3.452136237387e-09,-0.00089826044359311,0.00089826681306266,-0.00089825970723277,0.00089826753937148,-0.00089826047953845,0.00089826684892952,-0.0008982597560559,0.00089826758813414,-0.00084757750703972,0.00084758317387432,-0.00084757773987691,0.0008475834064126,0.5070717593097,122718,2924,0.0044461611990746,0.0067982278979248,0.0033566285840483,40.956062681327,0.00024284850145062,0.00024284850145062,0.00024284850145062,4426637.8214227,0.014708469479802
8419200,0.91900552978549,0.015084831977928,0.0047826856081712,0.0064176899690988,0.0038844564006579,-0.0010803025799797,0.0010803071338423,2.4198735703397e-09,2.419846529544e-09,1.0907499132543e-09,3.2527052999094e-09,-0.0011903629039232,0.0011903674235013,-0.0011903625386741,0.0011903670579402,-0.0011903621539141,0.0011903681549071,-0.0011903618257238,0.0011903678263956,-0.00099860886023581,0.00099861421016577,-0.00099861005481538,0.00099861540443182,3.7302238174582e-10,-1.6609752466111e-09,5.5263149636948e-10,-1.8063086194528e-09,-0.0016892013368468,0.0016892000796924,-0.0018686092376661,0.0018686094934133,-0.0018686094447486,0.0018686080806153,-0.001868609642967,0.0018686085196997,-0.0018686098499963,0.0018686071068364,-0.0014473409854323,0.001447341380611,-0.0014473445812249,0.0014473403246744,-0.0015353769071638,0.0015353768367374,-0.001535379984173,0.0015353759113582,2.451220618378e-09,2.4511959178826e-09,-0.00081512580620782,0.0008151311806402,1.0685103726533e-09,3.5266343811108e-09,-0.00091265410610609,0.00091266020053886,-0.00091265326544254,0.00091266103141442,-0.00091265414846882,0.00091266024282153,-0.00091265332048848,0.0009126610864032,-0.00085472838005865,0.00085473396097461,-0.00085472858424816,0.00085473416486661,0.48138031764921,122718,2924,0.0044917311562007,0.0070131184996358,0.0033928534529408,41.43230483175,0.000246658438654,0.000246658438654,0.000246658438654,4272274.8391925,0.015009599670412
8919200,0.94343540620387,0.015329658674969,0.0048509927333605,0.0065339320831425,0.0039447338584659,-0.001083391359106,0.0010833962453943,2.5558714535911e-09,2.555844427546e-09,1.1303130892073e-09,3.4976667151533e-09,-0.001198654394584,0.0011986591558667,-0.0011986540098353,0.0011986587708035,-0.0011986535777848,0.0011986599564805,-0.0011986532296514,0.0011986596080255,-0.0010006374958676,0.0010006431964929,-0.0010006386944258,0.0010006443947379,4.2939759519822e-10,-1.8057460516094e-09,6.3437173661419e-10,-1.9736115781681e-09,-0.0017255713884821,0.0017255700455302,-0.0019127801838324,0.0019127805039658,-0.0019127804449304,0.0019127789803725,-0.001912780622034,0.001912779429324,-0.0019127808830776,0.0019127779056626,-0.0014753336163591,0.0014753341032993,-0.0014753374472095,0.0014753327939141,-0.001563266013475,0.0015632659702584,-0.0015632692648337,0.0015632648234807,2.5524401401911e-09,2.5524155217814e-09,-0.00081862428036677,0.00081862990653804,1.0469615734838e-09,3.7545606215058e-09,-0.00092162321960815,0.00092162946525293,-0.00092162229581622,0.00092163037931644,-0.00092162325146125,0.00092162949702639,-0.00092162234036267,0.00092163042380349,-0.00085648856208904,0.00085649443789863,-0.00085648874812835,0.00085649462363742,0.43063171924148,122718,2924,0.0045046361649253,0.0071635280714871,0.0034075362342057,41.891325976717,0.00025033060781374,0.00025033060781374,0.00025033060781374,4096212.9204025,0.015190317866252
9419200,0.96015607691619,0.01548869324381,0.0048954231841426,0.0066083095573749,0.0039849605022929,-0.0010823803773801,0.0010823871971818,3.2750946800431e-09,3.2750677285072e-09,1.6621386129993e-09,4.4351911460138e-09,-0.0012002699542349,0.001200276258533,-0.0012002693120359,0.0012002756160195,-0.0012002690012782,0.0012002771954944,-0.0012002683997863,0.0012002765936813,-0.00099901237268078,0.00099901973276694,-0.00099901355405916,0.00099902091383304,5.3730924413024e-10,-2.0832949761803e-09,8.8370508829851e-10,-2.3871359211068e-09,-0.001746780346926,0.0017467788393861,-0.0019398024694139,0.001939802995693,-0.001939802681266,0.001939800954901,-0.0019398028512028,0.0019398015943323,-0.0019398030629997,0.0019397995534721,-0.0014904323714403,0.0014904332086748,-0.001490436762577,0.0014904311696038,-0.0015782504695849,0.001578250409859,-0.0015782539851589,0.0015782487735892,3.8111312952462e-09,3.8111067420551e-09,-0.00081826761515623,0.00081827643459914,1.9595594318633e-09,5.3578697075064e-09,-0.00092398351720724,0.00092399238360984,-0.00092398235745927,0.00092399353127445,-0.00092398341595114,0.00092399228227477,-0.00092398227128462,0.00092399344504099,-0.00085504196330624,0.00085505071921497,-0.00085504213252988,0.00085505088813753,0.40723906797413,122718,2924,0.0045005105445278,0.0072512375200447,0.0034061607849855,41.1512501896,0.0002444100015168,0.0002444100015168,0.0002444100015168,3995780.7447378,0.015273795657025
9919200,0.97140225361158,0.015595206241444,0.0049253536980751,0.0066573835018765,0.0040124690414919,-0.0010786432717583,0.0010786512291106,3.7052809207775e-09,3.7052540322374e-09,1.8843832536369e-09,5.1033732973312e-09,-0.0011992304173992,0.001199237564283,-0.0011992296435496,0.0011992367901196,-0.0011992293187979,0.0011992386509425,-0.0011992285865197,0.0011992379183434,-0.00099530591291386,0.00099531433008883,-0.00099530708983968,0.00099531550670213,6.6964681904346e-10,-2.3857675780558e-09,1.2153861355525e-09,-2.8829140990708e-09,-0.0017604893423788,0.0017604876702183,-0.0019566774704631,0.00195667825951,-0.0019566778023426,0.0019566757807648,-0.0019566778846208,0.001956676597,-0.0019566782164445,0.0019566741181864,-0.0015007447968225,0.0015007461342846,-0.0015007499380986,0.0015007432257658,-0.0015881272050968,0.0015881271271558,-0.0015881310724994,0.0015881249880292,4.5051394648906e-09,4.5051149153612e-09,-0.0008157430258835,0.00081575358564329,2.2415611769918e-09,6.4774028977942e-09,-0.00092441747294427,0.00092442761143856,-0.00092441603225278,0.0009244290389088,-0.000924417300567,0.00092442743898214,-0.00092441587604301,0.00092442888263956,-0.00085165263671935,0.00085166312899175,-0.00085165278564261,0.00085166327761292,0.40432824355073,122718,2924,0.0044850665955299,0.0073079011266142,0.0033957606627545,39.828255691615,0.00023382604553292,0.00023382604553292,0.00023382604553292,3896095.2347723,0.015305104371868
10419200,0.9789591385982,0.015671291739665,0.0049469105362519,0.0066918546976868,0.0040325265057259,-0.0010733340880789,0.0010733428716859,4.015614838429e-09,4.015587958759e-09,2.0051646706215e-09,5.6328252597019e-09,-0.0011966968300638,0.0011967045448771,-0.0011966959695227,0.0011967036840221,-0.0011966955991137,0.0011967057685847,-0.0011966947799418,0.0011967049490919,-0.00099047407643061,0.00099048328765402,-0.00099047524777685,0.00099048445868785,8.001275153007e-10,-2.6567422869056e-09,1.567829418711e-09,-3.3702964442277e-09,-0.0017695286911355,0.0017695268835115,-0.0019672122768108,0.0019672133458029,-0.0019672127760762,0.00196721047467,-0.00196721274126,0.0019672114653779,-0.0019672132404697,0.0019672085941764,-0.0015079847373075,0.0015079866290336,-0.0015079906457456,0.0015079828414761,-0.0015948112308325,0.0015948111290085,-0.0015948154287,0.0015948085298736,4.9957370972197e-09,4.995712561484e-09,-0.00081192252575756,0.00081193431359958,2.3198694754329e-09,7.3994038020329e-09,-0.0009236426902675,0.00092365362171698,-0.00092364096801824,0.00092365533007864,-0.00092364246927617,0.00092365340064662,-0.00092364076377701,0.00092365512577782,-0.00084725391543874,0.0008472657211306,-0.00084725404797557,0.00084726585336487,0.42845224819223,122718,2924,0.0044630949963454,0.0073452362597913,0.0033799672784502,38.10015482489,0.00022000123859912,0.00022000123859912,0.00022000123859912,3802599.8267147,0.015304685151809
10919200,0.98450023491766,0.015722883929978,0.0049614545040581,0.0067152515821352,0.0040461778437845,-0.0010702272875999,0.0010702344770358,3.4539496460603e-09,3.4539227170682e-09,1.4561803780162e-09,5.0792996066483e-09,-0.0011965369837393,0.0011965433392931,-0.0011965361208371,0.001196542476077,-0.0011965357551463,0.0011965445608609,-0.0011965349333358,0.0011965437387295,-0.00098801702210546,0.00098802491847415,-0.0009880181887551,0.0009880260848114,8.201710820129e-10,-2.6616402911867e-09,1.6031645526587e-09,-3.3901794497567e-09,-0.0017773887305173,0.0017773869382656,-0.0019752980292236,0.0019752991393179,-0.0019752985367586,0.0019752962410107,-0.0019752984907412,0.0019752972398962,-0.0019752989982202,0.0019752943415203,-0.0015155933264908,0.0015155952795957,-0.0015155992813776,0.0015155914301037,-0.0016022962097859,0.0016022961297127,-0.0016023004168115,0.0016022934903526,3.6869858905237e-09,3.6869613397148e-09,-0.00081043976518962,0.00081044817452481,1.0375699891255e-09,6.1033109221401e-09,-0.00092503173234525,0.00092503964961918,-0.00092503001650842,0.0009250413518131,-0.0009250315098894,0.00092503942708427,-0.00092502981061283,0.00092504114585802,-0.00084591432941711,0.00084592317410664,-0.00084591446197416,0.00084592330636116,0.39597081456719,122718,2924,0.0044502431147497,0.0073776772453165,0.0033738552320122,37.946263906582,0.00021877011125265,0.00021877011125265,0.00021877011125265,3657124.8726906,0.015318383698597
11419200,0.98853750983005,0.015760428490422,0.0049720998969594,0.0067320662655872,0.004056262327875,-0.0010678053247597,0.0010678122397739,3.3377652253006e-09,3.3377383512719e-09,1.3168921674254e-09,4.9441770653727e-09,-0.0011948268453278,0.0011948329780783,-0.0011948262588955,0.001194832391332,-0.0011948256212223,0.0011948342015294,-0.0011948250697738,0.0011948336497601,-0.00098576193150125,0.00098576969768299,-0.00098576311886716,0.00098577088473655,8.1072091485608e-10,-2.6632857466839e-09,1.6224822135762e-09,-3.4202931514508e-09,-0.0017836059623669,0.0017836041592827,-0.0019835941599413,0.001983595245116,-0.0019835949634473,0.0019835926476165,-0.0019835947983282,0.0019835935462608,-0.0019835956017783,0.0019835909486925,-0.0015193299517107,0.0015193319557003,-0.0015193360446156,0.0015193281321593,-0.0016052365777993,0.0016052364720612,-0.0016052408982442,0.0016052339538746,3.6420665452053e-09,3.6420420500418e-09,-0.00080943618689512,0.00080944452483313,9.3995989469396e-10,6.0872747413717e-09,-0.00092499849289042,0.00092500634782386,-0.00092499675621262,0.00092500807347538,-0.00092499841157738,0.00092500626643184,-0.00092499668885828,0.00092500800606155,-0.00084387562991195,0.00084388460354432,-0.00084387576413689,0.00084388473746658,0.39457194111805,122718,2924,0.0044402295050812,0.0074033921815657,0.0033697257684443,37.628568284144,0.00021622854627315,0.00021622854627315,0.00021622854627315,3661787.1510057,0.015330137063648
11919200,0.99146340728252,0.015789802591594,0.0049804768572549,0.006745085711223,0.0040642400231163,-0.0010654614585948,0.0010654686533993,3.4365518131055e-09,3.4365249515171e-09,1.4130728073512e-09,5.0447039027586e-09,-0.0011937459858118,0.0011937523514912,-0.001193745398078,0.0011937517634434,-0.0011937447600618,0.0011937535764424,-0.0011937442072788,0.0011937530233387,-0.00098375965905167,0.00098376765824359,-0.00098376084440086,0.0009837688432805,8.1572799154039e-10,-2.6584180306246e-09,1.6298367077838e-09,-3.4178158546011e-09,-0.0017868647894231,0.0017868629961551,-0.0019869949090585,0.0019869960056587,-0.0019869957119939,0.0019869934043888,-0.0019869955441604,0.0019869943034134,-0.0019869963470397,0.0019869917020748,-0.0015224780081784,0.0015224800267266,-0.0015224841012674,0.0015224761938323,-0.0016083221913814,0.0016083220940843,-0.001608326506229,0.0016083195700088,3.8295191864499e-09,3.8294946981098e-09,-0.00080789419875918,0.00080790302483563,1.1178476815501e-09,6.2793852730452e-09,-0.00092468066090836,0.00092468893862258,-0.00092467891930203,0.00092469066929598,-0.00092468057906923,0.0009246888567043,-0.00092467885135613,0.0009246906012906,-0.00084243674758816,0.00084244615236778,-0.00084243688058099,0.00084244628505779,0.42516298576731,122718,2924,0.0044305267365958,0.0074168383728823,0.0033633478695437,37.105153026061,0.00021204122420849,0.00021204122420849,0.00021204122420849,3595866.3240326,0.015327469150921
12419200,0.99361744958535,0.015812546103903,0.004986986219292,0.0067550980912166,0.0040704617933948,-0.0010613758367818,0.0010613828089815,3.3528883235301e-09,3.3528614705247e-09,1.3401732176961e-09,4.9659543160927e-09,-0.0011924780373751,0.0011924841966442,-0.0011924774531494,0.0011924836121045,-0.0011924768136665,0.0011924854194251,-0.0011924762641278,0.0011924848695658,-0.00098036046977656,0.00098036827251907,-0.00098036165096939,0.00098036945339958,8.302277213483e-10,-2.6426384604737e-09,1.6694702457123e-09,-3.4274487663223e-09,-0.0017925549030648,0.0017925531397916,-0.001992598784364,0.0019925999261085,-0.0019925996029012,0.0019925973087859,-0.0019925994125374,0.0019925982179128,-0.0019926002310183,0.0019925956005212,-0.0015279153906175,0.001527917488037,-0.0015279215220523,0.0015279135966789,-0.0016127955379979,0.0016127954537956,-0.001612799834882,0.0016127929139376,3.6433557761584e-09,3.6433312524664e-09,-0.00080613330156355,0.00080614164723238,9.1621738548191e-10,6.1172639204343e-09,-0.00092595273899498,0.00092596055344298,-0.00092595098459428,0.00092596229708976,-0.00092595265850215,0.00092596047287078,-0.00092595091779389,0.00092596223022981,-0.00083980392192887,0.00083981291958362,-0.0008398040464445,0.00083981304379632,0.44663644431852,122718,2924,0.0044136234738238,0.0074403163960836,0.0033560824682685,36.802505921665,0.00020962004737332,0.00020962004737332,0.00020962004737332,3527602.1979508,0.015326784929759
12919200,0.99518454707511,0.015828067560844,0.0049914043283063,0.0067619478141257,0.0040747154184118,-0.0010569794098699,0.0010569869629829,3.5590231483005e-09,3.5589963041306e-09,1.5238766886279e-09,5.2116263765681e-09,-0.0011899470135563,0.0011899536283423,-0.0011899463568945,0.0011899529713665,-0.0011899457685107,0.0011899548719519,-0.0011899451476099,0.0011899542507304,-0.0009765156125778,0.00097652388073967,-0.0009765167872711,0.00097652505512059,8.5545786099662e-10,-2.6742204465187e-09,1.7425394859678e-09,-3.5060137598627e-09,-0.0017951343132018,0.0017951325443593,-0.0019952569431702,0.0019952581549458,-0.0019952577317729,0.0019952553991842,-0.0019952575315843,0.0019952563646693,-0.0019952583201306,0.0019952536088386,-0.0015302131997767,0.0015302154192195,-0.0015302194417563,0.0015302113440775,-0.0016146132307079,0.001614613143908,-0.001614617537668,0.0016146105037651,4.0046386755668e-09,4.0046141386399e-09,-0.00080340245692527,0.0008034117343399,1.2003289932732e-09,6.5606005397231e-09,-0.00092507561938798,0.00092508418126203,-0.00092507381037628,0.00092508597894572,-0.00092507549900853,0.00092508406080342,-0.00092507370427073,0.00092508587278056,-0.00083677230566116,0.00083678212425412,-0.00083677242168799,0.00083678223997795,0.41875849256558,122718,2924,0.0043954181248165,0.0074509450825057,0.0033447773196712,36.136974329069,0.00020429579463255,0.00020429579463255,0.00020429579463255,3466264.796796,0.015307623102244
13419200,0.99630105118463,0.015838879099986,0.0049944837246053,0.0067666996737452,0.0040776957016352,-0.001053673714979,0.0010536823512943,3.9542377006809e-09,3.954210882014e-09,1.8341817638701e-09,5.7091899659302e-09,-0.0011859962230874,0.0011860037057711,-0.0011859954245008,0.0011860029068708,-0.0011859949151851,0.0011860050125344,-0.0011859941544457,0.0011860042514745,-0.00097310108030723,0.00097311025518068,-0.00097310225418182,0.00097311142874297,9.0196497394212e-10,-2.803714854024e-09,1.8918769473991e-09,-3.7354603774849e-09,-0.0017937784549898,0.0017937766058489,-0.0019952368022207,0.0019952381305307,-0.0019952375627303,0.0019952350802973,-0.0019952373422937,0.0019952361664009,-0.0019952381027469,0.0019952331160985,-0.0015274652253954,0.0015274676735564,-0.0015274717863401,0.0015274631798149,-0.0016119427527538,0.0016119426267975,-0.0016119471711364,0.0016119397546308,4.6958774844604e-09,4.6958529659888e-09,-0.00080005864430973,0.00080006969287546,1.6978100524507e-09,7.4513263599153e-09,-0.00092107349972051,0.00092108350171822,-0.00092107155674472,0.00092108543200557,-0.00092107330096163,0.00092108330288021,-0.00092107137365605,0.00092108524885725,-0.00083342477325404,0.00083343618510399,-0.00083342487660574,0.0008334362881526,0.40900439415344,122718,2924,0.0043817102606561,0.007445355058512,0.0033309008911703,34.796283763665,0.00019357027010932,0.00019357027010932,0.00019357027010932,3473522.1939927,0.01527393653836
13919200,0.99712320645944,0.01584667373259,0.0049967038696719,0.0067701253949156,0.0040798444680029,-0.0010508811136844,0.0010508892362314,3.7723981988043e-09,3.7723713846071e-09,1.6166909348708e-09,5.5549170792728e-09,-0.0011833890833325,0.0011833961228929,-0.0011833883575426,0.0011833953967894,-0.0011833877571046,0.0011833974507716,-0.0011833870672344,0.0011833967605811,-0.0009703093797354,0.00097031818394293,-0.00097031056030333,0.00097031936419854,9.2387562823373e-10,-2.8496589388461e-09,1.9727689857322e-09,-3.8394054229175e-09,-0.0017934187663667,0.0017934168940733,-0.0019953741802361,0.0019953755605327,-0.0019953750743107,0.0019953725330663,-0.0019953747917471,0.0019953736288932,-0.0019953756857653,0.0019953706013577,-0.0015266196977856,0.0015266222849144,-0.0015266264681454,0.0015266176333743,-0.001610999717074,0.0016109995757099,-0.0016110042378104,0.001610996669714,4.3513185553227e-09,4.351294044292e-09,-0.00079756076435417,0.00079757092082366,1.2682330859968e-09,7.1961476133231e-09,-0.00091880248765111,0.00091881165899383,-0.00091880048898624,0.00091881364568215,-0.00091880232724738,0.00091881149851092,-0.00091880034352754,0.00091881350016379,-0.00083077426920405,0.00083078500755551,-0.00083077437359734,0.00083078511164564,0.40047476240274,122718,2924,0.0043701324394563,0.0074438646169258,0.0033205343144763,33.829320105974,0.00018583456084779,0.00018583456084779,0.00018583456084779,3461701.1650774,0.015250145923923
14419200,0.99772954179385,0.015852157934837,0.0049982631854987,0.0067725394897477,0.0040813552595911,-0.0010477100966184,0.0010477185718183,3.9013969984703e-09,3.9013701909236e-09,1.7036111945919e-09,5.7345340443331e-09,-0.001180432599715,0.0011804399082906,-0.0011804318301228,0.0011804391383847,-0.0011804312429462,0.0011804412673365,-0.0011804305096597,0.0011804405337297,-0.0009671789000807,0.00096718801050189,-0.00096718007954017,0.00096718918964904,9.5210991984256e-10,-2.9107818487596e-09,2.0736205965495e-09,-3.9719095410076e-09,-0.001792316318298,0.0017923144142539,-0.001994627913942,0.0019946293727092,-0.0019946288353143,0.0019946262142784,-0.001994628520245,0.0019946273743496,-0.0019946294415609,0.0019946242158498,-0.0015251431767057,0.0015251459303665,-0.0015251501556089,0.0015251410308458,-0.0016094441017913,0.0016094439372844,-0.0016094486871213,0.0016094409206132,4.57521212991e-09,4.5751876231292e-09,-0.00079461445221562,0.00079462517900271,1.3760305107713e-09,7.5408640538474e-09,-0.00091610259869545,0.00091611219300976,-0.00091610052044135,0.00091611425889931,-0.00091610241426762,0.0009161120085027,-0.00091610035133944,0.00091611408973769,-0.0008277424229125,0.00082775371302761,-0.00082774252217729,0.00082775381198922,0.38210045494666,122718,2924,0.0043569853834398,0.007439300957374,0.00330830822647,32.64324220351,0.00017634593762808,0.00017634593762808,0.00017634593762808,3452568.1294131,0.015219754721184
14919200,0.99816445483551,0.015856246446125,0.0049994308878957,0.0067743280833865,0.0040824874748424,-0.0010433964542024,0.0010434062749862,4.3920326070382e-09,4.392005831049e-09,2.0897995462863e-09,6.3559663264152e-09,-0.0011758640106619,0.001175872385381,-0.0011758630647486,0.001175871439154,-0.0011758625747992,0.0011758738235652,-0.0011758616677946,0.0011758729162404,-0.00096277725121128,0.00096278748746825,-0.00096277842543348,0.00096278866137821,1.0186024660115e-09,-3.0665472567922e-09,2.2786609585895e-09,-4.2630438461132e-09,-0.0017889456447912,0.0017889436544154,-0.0019917986578602,0.0019918002840508,-0.0019917995522586,0.0019917967507763,-0.0019917992068643,0.0019917980705231,-0.0019918001012063,0.0019917945371796,-0.0015211941018678,0.0015211971770133,-0.0015212014965433,0.0015211917268895,-0.0016055770967243,0.0016055768926483,-0.0016055818164205,0.0016055735763667,5.4523114113202e-09,5.4522868923486e-09,-0.0007900205168259,0.00079003348319146,1.9998831172377e-09,8.6789566078579e-09,-0.00091128391671915,0.00091129531508326,-0.0009112816634305,0.0009112975543298,-0.00091128363680346,0.00091129503508837,-0.00091128140049954,0.00091129729133917,-0.00082319674424265,0.00082321005868249,-0.00082319682896006,0.00082321014309675,0.39678962402156,122718,2924,0.0043390936064711,0.0074253664867871,0.0032892389553568,30.580255095247,0.00015984204076198,0.00015984204076198,0.00015984204076198,3462409.4218954,0.015168084915813
15419200,0.99846079620425,0.015859667833226,0.005000419186653,0.0067758037898451,0.0040834448567282,-0.0010346922884125,0.0010347042726645,5.1744464951563e-09,5.1744197344016e-09,2.6945183539242e-09,7.37141904262e-09,-0.001168554721482,0.0011685647617537,-0.0011685535003709,0.001168563540329,-0.0011685531484206,0.0011685663376982,-0.0011685519699403,0.0011685651588974,-0.00095432941170599,0.00095434145963819,-0.00095433057172843,0.00095434261934853,1.1558590549463e-09,-3.3213117909105e-09,2.6562060107297e-09,-4.7528763557134e-09,-0.001784124139908,0.0017841220367752,-0.0019866092361996,0.0019866111900507,-0.0019866101137421,0.0019866070366514,-0.0019866097046069,0.0019866086208617,-0.001986610582093,0.0019866044673934,-0.0015165838328207,0.0015165875080519,-0.0015165919484668,0.0015165810883732,-0.0016007766943548,0.0016007764646688,-0.0016007816466906,0.001600772614039,6.8611287273447e-09,6.8611041792858e-09,-0.00078178431251305,0.00078180087788446,2.9716475204728e-09,1.0544990091933e-08,-0.00090449390235085,0.0009045081335101,-0.00090449134563492,0.000904510673708,-0.000904493473365,0.00090450770444498,-0.00090449093598323,0.00090451026399669,-0.00081488581755218,0.00081490240948416,-0.00081488587747563,0.00081490246910441,0.48651353790675,122718,2924,0.004303004743302,0.0074053933351096,0.003255064382369,27.072287180338,0.0001317782974427,0.0001317782974427,0.0001317782974427,3438693.5505879,0.015076493036348
15919200,0.9986885071402,0.015862891672745,0.0050013557772695,0.0067771824854525,0.0040843534100226,-0.001025768827367,0.0010257781976333,4.2193497288319e-09,4.2193229140548e-09,1.7524673018287e-09,6.3760371520299e-09,-0.0011640946748211,0.0011641024848543,-0.0011640938189221,0.0011641016286415,-0.0011640931274462,0.0011641040418591,-0.001164092306484,0.0011641032205763,-0.00094657624105534,0.00094658623273205,-0.00094657741361968,0.00094658740498421,1.187312674854e-09,-3.2629214579598e-09,2.7508932847455e-09,-4.7586290845597e-09,-0.0017852390614265,0.001785237047111,-0.001985794911122,0.0019857969393411,-0.001985796193984,0.0019857931743013,-0.0019857956201665,0.0019857946553751,-0.0019857969029717,0.001985790890266,-0.0015192781975276,0.0015192820828633,-0.0015192865255204,0.0015192756596307,-0.0016025531021196,0.0016025529160735,-0.0016025581725349,0.0016025492249216,5.127282822044e-09,5.1272582390303e-09,-0.00077589184580252,0.00077590397024909,1.2170138566503e-09,8.845967615017e-09,-0.0009029689932899,0.00090297925611823,-0.00090296642798586,0.00090298180849572,-0.00090296875862744,0.00090297902137643,-0.00090296620890142,0.00090298158935138,-0.00080856802104941,0.00080858096649802,-0.00080856809552555,0.00080858104067145,0.59571470761932,122718,2924,0.0042660330575407,0.0074099032300506,0.0032306368238145,25.354763193893,0.00011803810555114,0.00011803810555114,0.00011803810555114,3324500.1530645,0.01501877336001
16419200,0.99887327209361,0.015865094720925,0.0050019866927405,0.0067781374983448,0.0040849705298394,-0.001016741869848,0.0010167500800955,3.7869623489034e-09,3.7869355203925e-09,1.3973584875618e-09,5.8545322527055e-09,-0.0011596369694854,0.0011596438279427,-0.0011596362700157,0.0011596431281591,-0.0011596354787704,0.0011596453287001,-0.0011596348115748,0.0011596446611837,-0.00093889119208447,0.0009389002134282,-0.00093889236351325,0.00093890138454458,1.1639415966773e-09,-3.1307781521412e-09,2.7163626803376e-09,-4.6176446341261e-09,-0.0017879689018038,0.0017879669940772,-0.0019870706574063,0.00198707266745,-0.0019870720445571,0.0019870691419279,-0.001987071421641,0.0019870705513418,-0.0019870728087352,0.0019870670257505,-0.0015230249786977,0.0015230288556309,-0.0015230331802825,0.0015230226425067,-0.0016053004221315,0.0016053002553748,-0.0016053053962984,0.0016052967695815,4.3448856773132e-09,4.3448610463451e-09,-0.00077079566376703,0.00077080580517749,5.3086493655824e-10,7.9679010153094e-09,-0.00090209555561211,0.00090210411153689,-0.00090209305785734,0.0009021065979402,-0.00090209540456969,0.00090210396041521,-0.00090209292082272,0.00090210646084551,-0.00080302286260851,0.00080303409840353,-0.00080302294436961,0.00080303417986154,0.50210013400473,122718,2924,0.0042286447737446,0.0074210923441191,0.0032095248588006,24.412516978798,0.00011050013583038,0.00011050013583038,0.00011050013583038,3197561.5554577,0.014970776058019
16919200,0.9990268248623,0.015867482122028,0.0050026826117307,0.0067791425015333,0.0040856570087641,-0.0010167950932722,0.001016802910804,3.6566917209842e-09,3.6566649612882e-09,1.3314441616919e-09,5.6241163456944e-09,-0.0011552850119392,0.0011552916635851,-0.00115528435571,0.0011552910070425,-0.0011552835756975,0.0011552931103697,-0.0011552829510818,0.0011552924854339,-0.00093818759589917,0.00093819627889314,-0.00093818878212956,0.00093819746481139,1.0613582871152e-09,-3.0688628258178e-09,2.5597794783176e-09,-4.5022195828704e-09,-0.001784280021852,0.0017842780731849,-0.0019870441254393,0.0019870459477147,-0.0019870454748296,0.0019870425697143,-0.0019870448737709,0.0019870439249437,-0.0019870462231046,0.001987040546874,-0.0015158430791519,0.0015158467039189,-0.0015158510631651,0.0015158408047632,-0.0015986771785045,0.0015986768986779,-0.001598682054641,0.0015986736400561,4.0718779225128e-09,4.0718533162498e-09,-0.00076909120044757,0.00076910064281106,3.9168030396499e-10,7.5509849297434e-09,-0.00089617587933444,0.00089618399018877,-0.0008961734752299,0.0008961863831916,-0.00089617574841407,0.00089618385918899,-0.00089617335834765,0.00089618626624943,-0.00080154610080541,0.00080155666642146,-0.00080154619067006,0.00080155675598264,0.65164127745866,122718,2924,0.0042288301830922,0.0074059404085587,0.0032024162420154,23.78008819914,0.00010544070559312,0.00010544070559312,0.00010544070559312,3276259.3219146,0.014948340279493
17419200,0.99914728360529,0.015869165826127,0.0050031673292829,0.0067798651863904,0.0040861333104539,-0.0010054659901317,0.0010054754908293,4.2388436704028e-09,4.2388168739347e-09,1.9228051854965e-09,6.2662894718639e-09,-0.0011502350832646,0.0011502430295918,-0.0011502342214403,0.0011502421674536,-0.0011502336253757,0.0011502444928171,-0.0011502327989401,0.0011502436660608,-0.00092816955702649,0.00092817952324675,-0.00092817072312575,0.00092818068903387,1.1242247123538e-09,-3.0461714230834e-09,2.6578760342998e-09,-4.5159907689349e-09,-0.0017867843769618,0.0017867825126534,-0.001986779875674,0.0019867818518753,-0.0019867810331458,0.0019867781813188,-0.0019867804669136,0.0019867796319445,-0.0019867816243285,0.0019867759613191,-0.0015208961554607,0.0015208999532273,-0.0015209041210151,0.0015208938271337,-0.0016024356005478,0.0016024354026349,-0.001602440354776,0.001602431947795,5.1229655621539e-09,5.1229409129069e-09,-0.00076231123466768,0.00076232340869754,1.3830445042633e-09,8.6788673972956e-09,-0.00089536946872238,0.00089537980921667,-0.00089536701390913,0.0008953822515211,-0.00089536922575325,0.00089537956616796,-0.00089536678627084,0.00089538202382254,-0.00079389891850809,0.0007939117699789,-0.00079389897910806,0.00079391183027625,0.58772740813402,122718,2924,0.0041819090045257,0.0074161562143447,0.0031743259152097,21.983776567796,9.107021254237e-05,9.107021254237e-05,9.107021254237e-05,3116835.0539978,0.014882618583366
17919200,0.99923931426372,0.015870242368651,0.0050034744828568,0.0067803293816002,0.0040864385041936,-0.0010002368934789,0.001000247534153,4.657536211486e-09,4.6575094400426e-09,2.2489465193765e-09,6.785522920462e-09,-0.001142019483345,0.0011420283805357,-0.0011420184713766,0.0011420273682537,-0.0011420179610304,0.0011420299094094,-0.001142016986638,0.0011420289346965,-0.00092257092802875,0.0009225818519536,-0.00092257210662855,0.00092258303024161,1.1493318251723e-09,-3.1998546837535e-09,2.7696434897631e-09,-4.7523351707756e-09,-0.0017807519089889,0.0017807499198916,-0.0019836696791795,0.0019836717201865,-0.0019836707884462,0.0019836677542851,-0.001983670213729,0.0019836693143654,-0.001983671322939,0.0019836653483947,-0.001511997452293,0.0015120014030134,-0.0015120057180146,0.0015119948996745,-0.0015938358468189,0.0015938355764058,-0.001593840730422,0.0015938319027208,5.8153771195738e-09,5.8153525105315e-09,-0.00075602230689623,0.00075603626800344,1.8963055826367e-09,9.5554071883925e-09,-0.00088630075872727,0.00088631260064867,-0.00088629817982354,0.00088631516543561,-0.00088630042869714,0.00088631227053916,-0.00088629786686612,0.00088631485241846,-0.00078778334182432,0.00078779778124076,-0.00078778338397376,0.00078779782308716,0.4915601615792,122718,2924,0.0041601957817666,0.0073912767568379,0.0031481985328626,19.503919780323,7.1231358242585e-05,7.1231358242585e-05,7.1231358242585e-05,3166725.0863367,0.014808797145258
18419200,0.99931246979947,0.015871137919815,0.0050037316671981,0.0067807129352675,0.0040866933173489,-0.00099928243272782,0.00099929250321423,4.4763439979363e-09,4.4763172824191e-09,1.998766470413e-09,6.6385880339866e-09,-0.0011366574042196,0.0011366658839175,-0.0011366564590322,0.001136664938417,-0.0011366558505555,0.0011366674479688,-0.0011366549412796,0.001136666538373,-0.00092056858242535,0.00092057913378791,-0.00092056978240288,0.00092058033345373,1.1443485424964e-09,-3.3096311651868e-09,2.8132349849552e-09,-4.9085082987349e-09,-0.0017743183747646,0.0017743162730245,-0.0019801275979439,0.0019801296202996,-0.0019801288484675,0.0019801256741162,-0.0019801282260331,0.0019801272435451,-0.0019801294765003,0.0019801232972924,-0.0015029731745275,0.0015029771771282,-0.0015029817037835,0.0015029705404981,-0.0015855316014085,0.001585531255387,-0.0015855366682446,0.0015855275570957,5.4583524857989e-09,5.4583279177112e-09,-0.00075230169916858,0.00075231470879015,1.4400669942654e-09,9.289323279667e-09,-0.000878513633677,0.00087852468413806,-0.00087851099363116,0.00087852731045139,-0.00087851334024466,0.0008785243906263,-0.00087851071701676,0.00087852703377723,-0.00078432667554202,0.00078434040579269,-0.0007843267213127,0.00078434045125988,0.51421839069127,122718,2924,0.0041561901402274,0.0073647681596647,0.0031327062241545,17.480437368867,5.5043498950934e-05,5.5043498950934e-05,5.5043498950934e-05,3263107.8896911,0.014762087578059
18919200,0.99937631209718,0.015872031041015,0.0050039897004285,0.00678109412879,0.0040869472117962,-0.00099672840816719,0.00099673634466582,3.7085900924878e-09,3.7085633330386e-09,1.3165788269353e-09,5.7506526998016e-09,-0.0011356094422854,0.0011356161729116,-0.0011356087836718,0.0011356155139846,-0.0011356079603587,0.0011356176671708,-0.0011356073326318,0.0011356170391239,-0.00091817358058663,0.00091818241572352,-0.00091817478173964,0.00091818361656452,1.1030977530914e-09,-3.167310636893e-09,2.6969487639489e-09,-4.6948489801746e-09,-0.0017747468704205,0.0017747448662617,-0.001979661823635,0.0019796637449277,-0.001979663272385,0.0019796602504486,-0.0019796626055693,0.0019796616634008,-0.0019796640542626,0.0019796581688525,-0.0015044564983431,0.0015044603453285,-0.0015044648109962,0.0015044541264613,-0.0015866422425174,0.0015866419350632,-0.0015866472559043,0.0015866385375288,4.0993407192785e-09,4.0993161662638e-09,-0.00075061139179916,0.00075062089208223,2.5883285621627e-10,7.7461441900671e-09,-0.00087840546696534,0.00087841353936686,-0.00087840295435676,0.00087841604104152,-0.00087840533266496,0.00087841340498718,-0.00087840283399034,0.00087841592061536,-0.00078226696089978,0.00078227768797806,-0.00078226703149169,0.00078227775826657,0.5877987766322,122718,2924,0.0041456042315848,0.0073665045747256,0.0031256882847798,16.87533265797,5.0202661263762e-05,5.0202661263762e-05,5.0202661263762e-05,3222771.8403074,0.014745999021758
19419200,0.99943652386727,0.015872973135611,0.0050042627829794,0.0067814939575714,0.0040872163950602,-0.00099387749712563,0.0009938834723686,2.9935364121976e-09,2.9935096090053e-09,7.6347156351376e-10,4.8378620152245e-09,-0.0011361247627669,0.0011361299443481,-0.0011361243553263,0.0011361295365939,-0.0011361234006634,0.0011361313173442,-0.0011361230207606,0.0011361309371211,-0.0009162639605529,0.00091627114747857,-0.00091626515945194,0.00091627234606589,1.0132261429604e-09,-2.9160762969885e-09,2.4471648875572e-09,-4.2891737223929e-09,-0.0017789672755451,0.0017789654276703,-0.0019822256941873,0.0019822274195329,-0.0019822272026337,0.0019822244451793,-0.0019822265550052,0.0019822256575939,-0.001982228063395,0.0019822226831708,-0.0015101834436216,0.0015101869246391,-0.0015101912139133,0.0015101814389224,-0.0015915783025318,0.0015915780447722,-0.001591583095638,0.0015915750929988,2.8433704962625e-09,2.8433459313953e-09,-0.00075053930139033,0.00075054558575973,-6.6612874881221e-10,6.1421903497826e-09,-0.00088150171924456,0.00088150718468504,-0.00088149943771256,0.00088150945765813,-0.00088150172515292,0.00088150719051421,-0.00088149945517566,0.00088150947506135,-0.00078181290721492,0.00078182075055662,-0.00078181300045442,0.00078182084349292,0.65664642788028,122718,2924,0.0041338147990865,0.007383882452244,0.0031254151800028,17.545471881468,5.5563775051747e-05,5.5563775051747e-05,5.5563775051747e-05,3129456.5431525,0.014751411908976
19919200,0.99949458411801,0.015873858446134,0.005004518600717,0.0067818697015485,0.0040874701438686,-0.00099150738803939,0.00099151261675776,2.7181877471272e-09,2.7181609257598e-09,6.4086248517554e-10,4.3922538206607e-09,-0.0011364187489729,0.0011364234056037,-0.0011364184300629,0.0011364230863802,-0.0011364174915065,0.0011364246702361,-0.0011364171998705,0.0011364243782798,-0.00091478858415009,0.00091479507679882,-0.00091478978118198,0.00091479627351869,9.1671495001695e-10,-2.6962202470575e-09,2.1768747521471e-09,-3.9001031417615e-09,-0.00178368921484,0.0017836874861526,-0.0019861189381593,0.0019861204541409,-0.0019861203337589,0.0019861178091325,-0.0019861197665333,0.001986118872201,-0.0019861211620761,0.0019861162271236,-0.0015155435456181,0.0015155466053614,-0.001515550714533,0.0015155418098704,-0.0015962155142006,0.0015962152878502,-0.0015962200418615,0.0015962126931379,2.3618654773074e-09,2.3618408999847e-09,-0.00075108579000084,0.00075109085190263,-8.2374766504487e-10,5.3200807767531e-09,-0.00088442167659776,0.00088442629215525,-0.00088441961715724,0.0008844283439109,-0.00088442173324539,0.00088442634872354,-0.00088441968458147,0.00088442841127512,-0.00078200658573962,0.00078201319092655,-0.00078200668685587,0.00078201329173996,0.63949909152815,122718,2924,0.0041240221575657,0.0074033527992929,0.0031277126294271,18.681308737904,6.4650469903233e-05,6.4650469903233e-05,6.4650469903233e-05,3044746.3280392,0.014763576357476
20419200,0.99954642946033,0.01587471301011,0.005004766731672,0.006782228732417,0.004087717546021,-0.00099008327989534,0.00099008990626984,3.2153984021499e-09,3.2153716300147e-09,1.1300180992466e-09,4.8825367388541e-09,-0.0011344385803654,0.0011344444264081,-0.0011344382623984,0.0011344441081277,-0.0011344373219569,0.0011344456919567,-0.0011344370312697,0.0011344454009492,-0.00091347167918657,0.00091347933277111,-0.00091347287825121,0.0009134805315239,8.9982486914438e-10,-2.6899520168418e-09,2.1457635385733e-09,-3.8796649944269e-09,-0.0017832946744421,0.0017832929351457,-0.0019862025176002,0.0019862039983491,-0.0019862038981725,0.0019862013726765,-0.0019862033391119,0.0019862024246372,-0.0019862047196274,0.0019861997988953,-0.0015147333812461,0.0015147363871959,-0.0015147404964405,0.0015147316395091,-0.001595392696072,0.0015953924529608,-0.0015953972019716,0.0015953898825129,3.3773662887341e-09,3.3773417313519e-09,-0.00074994466217227,0.00074995235477186,1.7894650107193e-10,6.3213944333385e-09,-0.00088274206354991,0.0008827490127637,-0.00088274000344196,0.00088275106519998,-0.00088274211981083,0.0008827490689452,-0.00088274007049345,0.00088275113219154,-0.0007809506786302,0.00078095958515039,-0.00078095077883618,0.00078095968505313,0.69004788769245,122718,2924,0.0041181133932909,0.0074017316778981,0.003122974210772,18.601931697931,6.401545358345e-05,6.401545358345e-05,6.401545358345e-05,3042088.4041554,0.014751119404071
20919200,0.99958955147309,0.015875376374271,0.0050049582989964,0.006782509328234,0.0040879087470404,-0.00098365255646013,0.00098366154977076,4.0620988687249e-09,4.06207208882e-09,1.946334292294e-09,5.8632239758263e-09,-0.0011294661348416,0.0011294738502146,-0.0011294653455339,0.0011294730605936,-0.0011294648137376,0.001129475171265,-0.0011294640602297,0.0011294744174369,-0.00090739060522967,0.00090740005048193,-0.00090739179240275,0.00090740123734338,9.5745928957005e-10,-2.7880742395399e-09,2.2173477981351e-09,-3.9898100950403e-09,-0.0017831693301926,0.0017831675522453,-0.0019866771114443,0.0019866787127719,-0.0019866780392119,0.0019866754535817,-0.0019866776126188,0.0019866766819394,-0.0019866785403297,0.0019866734226798,-0.0015139573309176,0.0015139604072592,-0.0015139644132952,0.0015139552942231,-0.00159402071069,0.0015940205043834,-0.0015940251074722,0.0015940175315305,4.6900171997527e-09,4.6899926161949e-09,-0.00074547214712647,0.00074548323097357,1.4226923667836e-09,7.750749321162e-09,-0.00087966027539868,0.00087967003434615,-0.00087965814290705,0.00087967215508018,-0.00087966006778972,0.00087966982665769,-0.00087965795025199,0.00087967196236545,-0.00077589200935056,0.00077590362711846,-0.0007758920578831,0.00077590367534759,0.64466974006305,122718,2924,0.0040914696412893,0.0074011856645022,0.0031044307765422,17.278090140514,5.3424721124112e-05,5.3424721124112e-05,5.3424721124112e-05,2988774.5461557,0.014704723839984
21419200,0.99962415949971,0.015875906158059,0.0050051113996509,0.00678273266441,0.0040880620939978,-0.00097952447134017,0.00097953467156205,4.5043682357912e-09,4.5043414759824e-09,2.2536464594546e-09,6.4602961259761e-09,-0.0011232870257352,0.0011232956965488,-0.0011232860840759,0.0011232947545764,-0.0011232856087228,0.0011232971151168,-0.0011232847050129,0.0011232962110869,-0.00090297216493481,0.00090298264943433,-0.00090297336431857,0.00090298384850656,1.0320275874715e-09,-2.9899452360195e-09,2.3683225015497e-09,-4.2636004268748e-09,-0.0017785418485526,0.0017785399474745,-0.001983957351797,0.0019839590765868,-0.0019839582519484,0.0019839554918338,-0.0019839578234842,0.0019839568237383,-0.0019839587235787,0.0019839532389158,-0.0015075114805158,0.0015075147543083,-0.0015075189289799,0.0015075091799304,-0.0015877442015136,0.0015877439954818,-0.0015877488091001,0.0015877406920433,5.424061170978e-09,5.4240366105665e-09,-0.00074049334047859,0.00074050631260296,1.9410935865998e-09,8.7094374116397e-09,-0.00087287735569133,0.00087288865518999,-0.00087287507337181,0.0008728909242082,-0.00087287706071154,0.00087288836013083,-0.00087287479491548,0.00087289064569191,-0.00077096632456539,0.00077097964186063,-0.00077096634961927,0.00077097966661125,0.64095610021345,122718,2924,0.0040743283499034,0.007382093862015,0.0030837464932688,15.232485798647,3.7059886389174e-05,3.7059886389174e-05,3.7059886389174e-05,3022904.7408267,0.014646958560097
21919200,0.9996535885677,0.015876343801381,0.0050052376094136,0.006782917870966,0.0040881883210014,-0.0009763558192129,0.00097636513680156,4.1961144111917e-09,4.1960876335493e-09,1.9481691856381e-09,6.1580595715072e-09,-0.0011200453954281,0.001120053324054,-0.0011200444526894,0.0011200523810022,-0.0011200439778364,0.0011200547433967,-0.001120043072986,0.0011200538382263,-0.00089989400330699,0.00089990376297311,-0.00089989520301881,0.00089990496237335,1.0372951449924e-09,-3.0032932004249e-09,2.3794525563577e-09,-4.2826694613289e-09,-0.001776430845416,0.0017764289363809,-0.0019819245593359,0.0019819262920905,-0.0019819254674103,0.0019819226955841,-0.0019819250356567,0.0019819240317864,-0.0019819259436742,0.0019819204352107,-0.0015053979002886,0.0015054011897005,-0.0015054053823784,0.0015053955895928,-0.0015855937426626,0.0015855935369659,-0.0015855983692925,0.001585590215864,4.7651174863729e-09,4.7650929268732e-09,-0.00073743753242219,0.00073744878863633,1.2931916826465e-09,8.0578635715481e-09,-0.00086979322013021,0.00086980300686123,-0.00086979093986116,0.00086980527381921,-0.00086979292500779,0.00086980271165929,-0.00086979066124987,0.00086980499514803,-0.00076795116764271,0.00076796298623943,-0.00076795119222169,0.0007679630105151,0.623111015312,122718,2924,0.0040611793623671,0.0073733612052062,0.0030710504971412,13.996713093673,2.7173704749386e-05,2.7173704749386e-05,2.7173704749386e-05,3012767.5902689,0.014611876057251
22419200,0.99968213923555,0.015876787613014,0.0050053660212722,0.0067831048722445,0.0040883167194972,-0.00097770127298805,0.00097770707912752,2.9346742814412e-09,2.9346474872125e-09,7.8950821063228e-10,4.6837777282172e-09,-0.0011206125718638,0.0011206176860591,-0.0011206121937199,0.001120617307602,-0.0011206112676231,0.0011206189988531,-0.0011206109173888,0.0011206186482988,-0.00090105109722913,0.00090105810034403,-0.00090105230166778,0.00090105930447097,9.3719559190622e-10,-2.8125437750712e-09,2.1256128705153e-09,-3.9422175780179e-09,-0.0017781612954684,0.0017781594733291,-0.0019845721335369,0.0019845736040928,-0.0019845734607855,0.0019845708907726,-0.0019845729528438,0.0019845719188992,-0.0019845742800359,0.0019845692055097,-0.0015063921322812,0.0015063950420271,-0.0015063992723333,0.0015063902385774,-0.0015864457057808,0.001586445519276,-0.0015864503452941,0.001586442768897,2.6623966110081e-09,2.6623721055803e-09,-0.00073888658259351,0.00073889241950051,-5.1817453753533e-10,5.6211743124548e-09,-0.00087062393395318,0.00087062923644556,-0.0008706218751678,0.00087063128718561,-0.00087062395312592,0.00087062925553897,-0.00087062190563068,0.00087063131758864,-0.00076909609857347,0.00076910334328281,-0.00076909618719346,0.00076910343159937,0.65096373206223,122718,2924,0.0040667533704929,0.0073805387331137,0.0030770521564025,14.849548173896,3.3996385391164e-05,3.3996385391164e-05,3.3996385391164e-05,3017821.0369045,0.014630900172028
22919200,0.99970914149379,0.015877166020238,0.0050054747681962,0.0067832656806752,0.0040884255713661,-0.0009769531456864,0.00097695931962729,3.0621200720323e-09,3.0620932782389e-09,9.2289852919189e-10,4.8026057973954e-09,-0.0011208308951407,0.0011208363198734,-0.0011208305167945,0.0011208359412141,-0.0011208295950848,0.0011208376278563,-0.0011208292447964,0.0011208372772479,-0.0009004879375566,0.00090049523670467,-0.00090048914077826,0.00090049643961465,9.3631685051587e-10,-2.7930302381081e-09,2.1128811691659e-09,-3.9113128958406e-09,-0.0017799389223603,0.0017799371184046,-0.001986167507801,0.0019861689757717,-0.0019861688212999,0.0019861662767109,-0.0019861683202933,0.001986167296915,-0.0019861696337355,0.0019861645977846,-0.001508343379447,0.001508346271225,-0.0015083504740945,0.0015083415081141,-0.0015883191675726,0.0015883189940059,-0.0015883237844195,0.0015883162611633,2.9296098195339e-09,2.9295853054887e-09,-0.0007391165976552,0.00073912313533725,-2.4091124126812e-10,5.8693861466158e-09,-0.00087166595726393,0.0008716718839328,-0.00087166390764195,0.00087167392554026,-0.00087166597697293,0.00087167190356256,-0.00087166393862023,0.00087167395645863,-0.00076928982108488,0.00076929766542054,-0.00076928990865246,0.00076929775268456,0.58748017292925,122718,2924,0.0040636652464614,0.0073878684612324,0.00307801820308,15.357160778162,3.8057286225293e-05,3.8057286225293e-05,3.8057286225293e-05,2971019.4874374,0.014636190471027
23419200,0.99973436568719,0.015877530221795,0.0050055799266335,0.0067834193243803,0.0040885309707812,-0.00097893299453119,0.00097893948646795,3.1824427058227e-09,3.1824159372163e-09,1.0480683889562e-09,4.9155769649097e-09,-0.0011211834820911,0.0011211891914158,-0.0011211830569748,0.0011211887659864,-0.0011211821854845,0.0011211904952521,-0.0011211817891224,0.0011211900985703,-0.00090229111989502,0.00090229868504073,-0.00090229229409839,0.00090229985893242,9.1702941276327e-10,-2.7978316553105e-09,2.0847512172813e-09,-3.9073563094763e-09,-0.0017797915139481,0.001779789685903,-0.0019864597122728,0.0019864611443377,-0.0019864609676947,0.0019864584040136,-0.00198646048915,0.0019864594369277,-0.0019864617445152,0.0019864566965341,-0.0015078141171568,0.0015078169573084,-0.0015078211422547,0.0015078121887011,-0.0015877594612208,0.0015877592588023,-0.0015877640326809,0.0015877565099856,3.1086629757447e-09,3.1086384809194e-09,-0.00074038142325672,0.00074038841648937,-4.7128334349971e-11,6.0312282769737e-09,-0.00087154419890411,0.00087155054295679,-0.00087154215941053,0.00087155257406028,-0.00087154419275275,0.00087155053672613,-0.00087154216487247,0.00087155257946238,-0.00077047944471495,0.0007704876740012,-0.0007704795512753,0.00077048778025777,0.60459639632209,122718,2924,0.0040718621909286,0.0073872960178473,0.0030832555292548,15.705555014739,4.0844440117913e-05,4.0844440117913e-05,4.0844440117913e-05,3029629.5415701,0.014649228972834
23919200,0.99975922463551,0.015877953372087,0.0050057029879075,0.0067835964313306,0.0040886539528484,-0.00098064966836857,0.00098065474880384,2.668806347923e-09,2.6687795518491e-09,6.6945119098484e-10,4.252097364109e-09,-0.0011233295946795,0.0011233341963531,-0.0011233293049574,0.0011233339063178,-0.0011233283912724,0.0011233354046929,-0.0011233281290819,0.0011233351421826,-0.00090411952109219,0.0009041258536992,-0.00090412072391549,0.00090412705621057,8.3445976600342e-10,-2.6105997504696e-09,1.8348189732457e-09,-3.5569159599531e-09,-0.0017828534087049,0.0017828516815107,-0.0019896899595281,0.0019896911948622,-0.0019896911685439,0.001989688816476,-0.0019896907508407,0.0019896896864264,-0.0019896919597997,0.0019896873079707,-0.0015109290905407,0.0015109315343095,-0.0015109356123337,0.0015109274371807,-0.0015906164318954,0.0015906162692314,-0.0015906208187614,0.0015906138661772,2.1922896703054e-09,2.1922651851564e-09,-0.00074280048709416,0.00074280513252469,-6.5553370704229e-10,4.8020621259619e-09,-0.00087441573927324,0.00087442021943319,-0.00087441390852835,0.00087442204301794,-0.00087441580890678,0.00087442028898746,-0.00087441398865847,0.00087442212308829,-0.0007726477486231,0.00077265377445943,-0.00077264784826398,0.00077265387379649,0.71228945632067,122718,2924,0.0040789932166213,0.0073999497536606,0.0030933019813039,17.003831497971,5.1230651983767e-05,5.1230651983767e-05,5.1230651983767e-05,2989986.0060524,0.014679503263101
24419200,0.9997829302335,0.015878337852951,0.0050058142661525,0.0067837581907155,0.0040887653960829,-0.00097718968674844,0.00097719536500173,2.8757552189021e-09,2.8757284017257e-09,9.4515252022826e-10,4.4112477657617e-09,-0.0011242942064622,0.0011242993285933,-0.0011242938344302,0.001124298956248,-0.0011242930376993,0.0011243004976701,-0.0011242926957179,0.0011243001553683,-0.00090172036262739,0.00090172710610089,-0.00090172155619057,0.00090172829935253,8.1350572513498e-10,-2.5101531429563e-09,1.7170194399406e-09,-3.3618996255683e-09,-0.0017879742684187,0.001787972618621,-0.0019926500003273,0.0019926511795878,-0.0019926510228472,0.0019926488070706,-0.0019926506900734,0.0019926496426144,-0.0019926517125364,0.0019926472700277,-0.0015179650688152,0.0015179673194552,-0.001517971246948,0.0015179634979476,-0.0015967684540085,0.0015967683516835,-0.0015967726658574,0.0015967660154776,2.5686654530336e-09,2.5686409265035e-09,-0.00074300178701005,0.00074300741281524,-1.3337212195558e-10,5.0254612997466e-09,-0.00087854831818347,0.00087855373715093,-0.00087854658371123,0.00087855546379036,-0.0008785483454206,0.00087855376430828,-0.00087854662211599,0.00087855550213484,-0.00077241095345193,0.00077241768090925,-0.00077241104176962,0.00077241776892322,0.6789410524186,122718,2924,0.0040646960458992,0.0074210285591496,0.0030941794670475,17.881340323424,5.8250722587392e-05,5.8250722587392e-05,5.8250722587392e-05,2878980.2800819,0.014687299683869
24919200,0.99980488617255,0.015878656915276,0.0050059062372943,0.006783892482137,0.0040888581958445,-0.00097759743549879,0.00097760360079886,3.0507949122673e-09,3.0507681223268e-09,1.1172810209494e-09,4.5824913863278e-09,-0.0011238089617641,0.0011238145047039,-0.0011238085901574,0.0011238141327839,-0.0011238077931972,0.0011238156737306,-0.0011238074516266,0.00112381533184,-0.00090218090794187,0.00090218805769672,-0.00090218210481662,0.00090218925425981,8.0114015568876e-10,-2.5126517305673e-09,1.6959280834435e-09,-3.3555342973188e-09,-0.0017882449637962,0.0017882432993165,-0.0019934102730481,0.0019934114254492,-0.0019934112875749,0.0019934090633031,-0.0019934109600059,0.001993409891964,-0.0019934119744758,0.0019934075297485,-0.0015177773526346,0.0015177795647048,-0.0015177835056152,0.0015177757722114,-0.0015965938964864,0.0015965937783883,-0.0015965981021134,0.0015965914556795,2.9142290748316e-09,2.9142045658597e-09,-0.00074340254228115,0.00074340906204288,2.1343927610604e-10,5.3611443496145e-09,-0.00087812910955352,0.00087813532976776,-0.00087812737843709,0.00087813705303154,-0.00087812913607758,0.00087813535621228,-0.00087812741616106,0.00087813709069549,-0.00077289516990967,0.0007729026761196,-0.0007728952575627,0.00077290276346883,0.60789483588396,122718,2924,0.0040663808041181,0.0074221671024064,0.0030958379485568,18.3517171122,6.2013736897604e-05,6.2013736897604e-05,6.2013736897604e-05,2893682.9850452,0.014691836671838
25419200,0.99982645019304,0.015879037619376,0.0050060173243228,0.0067840502760376,0.004088970019016,-0.00098284632754639,0.00098285097080831,2.5080495824227e-09,2.5080227857745e-09,6.7287867125745e-10,3.9084328385891e-09,-0.0011254532894913,0.0011254576359787,-0.0011254530524093,0.0011254573985837,-0.0011254521976283,0.0011254587281114,-0.0011254519886884,0.0011254585188517,-0.00090684083167021,0.00090684670780152,-0.0009068420339951,0.00090684790981468,7.1698878630827e-10,-2.3848468607125e-09,1.4397277334237e-09,-3.0581970309446e-09,-0.0017894268633636,0.0017894252402651,-0.0019973633442085,0.0019973642731525,-0.0019973643285604,0.001997362261729,-0.0019973640681021,0.0019973629244138,-0.0019973650523973,0.0019973609129207,-0.0015164887682016,0.0015164905523966,-0.0015164944490973,0.0015164873689152,-0.001595579404805,0.0015955793076898,-0.0015955834897848,0.0015955772800084,1.8904430777763e-09,1.8904186196117e-09,-0.00074717005262526,0.00074717394140363,-5.1923553374027e-10,4.0436880610319e-09,-0.00087869357247582,0.00087869768314728,-0.00087869203944438,0.00087869920958072,-0.00087869367109132,0.00087869778168353,-0.00087869214814665,0.00087869931822342,-0.00077659648925264,0.00077660158436699,-0.00077659659702308,0.00077660169183356,0.7372586897946,122718,2924,0.004088128801246,0.0074271406413488,0.0031114565772149,19.919329842039,7.4554638736314e-05,7.4554638736314e-05,7.4554638736314e-05,2941779.6217995,0.014734781413323
25919200,0.99984652027903,0.01587938758247,0.0050061189590678,0.006784196511408,0.0040890721119945,-0.00097893330566414,0.00097893905737155,2.8977077209373e-09,2.8976809033271e-09,1.0956756629378e-09,4.3029945564112e-09,-0.0011268675870012,0.0011268728513128,-0.0011268672015502,0.0011268724655483,-0.0011268664999908,0.001126873933763,-0.0011268661462822,0.0011268735797345,-0.00090394413206822,0.00090395083986622,-0.00090394532480087,0.0009039520322875,7.2543337689065e-10,-2.3389271651159e-09,1.3717686225867e-09,-2.9372015731552e-09,-0.0017950280226363,0.001795026452669,-0.0020001539691054,0.0020001548927044,-0.0020001547346393,0.0020001527647143,-0.0020001545665775,0.002000153431132,-0.0020001553320545,0.0020001513030725,-0.0015247628786656,0.0015247645369754,-0.001524768308081,0.0015247614814045,-0.001602850225032,0.0016028502029078,-0.00160285417738,0.0016028481206408,2.5922570100042e-09,2.5922325047234e-09,-0.0007473021453841,0.00074730785133935,2.6404056897716e-10,4.6596985861944e-09,-0.00088359158387511,0.00088359731978224,-0.00088359010172044,0.000883598794098,-0.00088359160470288,0.00088359734053033,-0.00088359013384492,0.00088359882616267,-0.00077609856930006,0.00077610509744531,-0.00077609865421776,0.00077610518205931,0.72914636768882,122718,2924,0.0040719600873053,0.0074501852475052,0.0031120497556468,20.734036908145,8.1072295265158e-05,8.1072295265158e-05,8.1072295265158e-05,2814269.1312979,0.014742393335868
26419200,0.99986394315014,0.015879718379474,0.0050062155678008,0.0067843330613145,0.0040891697503589,-0.00097670835542024,0.0009767159379171,3.5565476030867e-09,3.5565208164893e-09,1.6808921550529e-09,5.0761053284078e-09,-0.0011241703031523,0.0011241770371891,-0.0011241696930135,0.001124176426737,-0.0011241691508926,0.001124178183083,-0.0011241685763799,0.0011241776082504,-0.00090195929668576,0.00090196748192003,-0.00090196049470835,0.00090196867963104,7.7629164705835e-10,-2.4589674110276e-09,1.4352900462861e-09,-3.0672410371271e-09,-0.0017945600713563,0.0017945584347036,-0.0020006263569043,0.0020006273572222,-0.0020006269402308,0.0020006248907534,-0.0020006268307616,0.0020006256430289,-0.0020006274140312,0.0020006231764906,-0.0015233078316451,0.0015233095482149,-0.0015233133550856,0.0015233062182089,-0.0016012441727601,0.0016012441783786,-0.0016012481767365,0.0016012418172139,3.704511196667e-09,3.7044866734162e-09,-0.00074565406100573,0.00074566264050874,1.2735122083115e-09,5.887871437299e-09,-0.0008814984239702,0.00088150658700813,-0.00088149686347481,0.0008815081375746,-0.00088149831629323,0.00088150647925168,-0.00088149676920688,0.00088150804324676,-0.00077442046498446,0.00077442942785017,-0.00077442051966759,0.00077442948222954,0.7920419595447,122718,2924,0.004062737229088,0.0074482609792572,0.0031052154217568,20.399042207992,7.8392337663937e-05,7.8392337663937e-05,7.8392337663937e-05,2808987.885296,0.014724140507393
26919200,0.99988016408536,0.015880008613462,0.005006299926476,0.0067844535409387,0.0040892551460471,-0.00097487098135239,0.00097487667826786,2.8791752165852e-09,2.8791483949644e-09,1.0204155900428e-09,4.3441560033102e-09,-0.0011244190756422,0.0011244242641688,-0.0011244187007126,0.0011244238889258,-0.0011244179516249,0.0011244253853747,-0.0011244176081211,0.0011244250415509,-0.00090065203763843,0.00090065873879562,-0.00090065324145987,0.00090065994230532,7.6636353726705e-10,-2.4143454136696e-09,1.3715947565452e-09,-2.969696281523e-09,-0.0017982253106509,0.0017982237078605,-0.0020036535534902,0.0020036544922485,-0.0020036543407111,0.0020036523661984,-0.0020036541934689,0.0020036529979065,-0.0020036549806328,0.0020036508717867,-0.0015275804604288,0.0015275820793427,-0.0015275859350157,0.0015275790054259,-0.0016049408146562,0.001604940862875,-0.0016049448915393,0.0016049386749838,2.537257713945e-09,2.5372332014438e-09,-0.00074622784414288,0.00074623340903112,1.944423448316e-10,4.6208575944926e-09,-0.00088387296957452,0.00088387857982078,-0.0008838714774234,0.00088388006427502,-0.00088387299529591,0.00088387860546281,-0.00088387151429333,0.00088388010108505,-0.00077458928264498,0.00077459569971147,-0.00077458935629176,0.00077459577305459,0.74688297492095,122718,2924,0.0040551442124852,0.0074633735240429,0.0031076107354953,21.286669894199,8.5493359153595e-05,8.5493359153595e-05,8.5493359153595e-05,2744641.6031999,0.014734213167609
27419200,0.99989522171588,0.015880270666317,0.0050063761171554,0.0067845619864831,0.0040893325626781,-0.0009769156342709,0.00097692120584584,2.8368522735956e-09,2.8368254646323e-09,1.0052138140569e-09,4.2625122979987e-09,-0.0011243789656142,0.0011243840773466,-0.0011243786076244,0.0011243837190436,-0.0011243778632786,0.0011243851764195,-0.0011243775366504,0.0011243848494713,-0.00090254527556596,0.00090255186691455,-0.00090254647435554,0.00090255306539243,7.3390913478559e-10,-2.3809619478057e-09,1.2747679629491e-09,-2.8725295064895e-09,-0.0017991513880314,0.001799149785677,-0.0020062655130174,0.0020062663654135,-0.0020062662581667,0.0020062643269351,-0.0020062661461031,0.0020062649080831,-0.0020062668911957,0.0020062628695351,-0.0015270238475404,0.0015270252988383,-0.0015270291400872,0.001527022422774,-0.0016043763732893,0.0016043764219925,-0.0016043804001813,0.001604374313797,2.4436381421645e-09,2.443613653045e-09,-0.00074787091710192,0.0007478762456579,1.9625487757762e-10,4.4271695070022e-09,-0.00088373666447826,0.00088374213587787,-0.0008837352377749,0.00088374355502346,-0.00088373669854854,0.00088374216986877,-0.00088373528292295,0.00088374360011153,-0.00077613375553874,0.0007761399154481,-0.00077613384041385,0.00077614000001952,0.72588280929977,122718,2924,0.0040636136420042,0.0074672515827423,0.0031144218331939,22.2505866617,9.3204693293601e-05,9.3204693293601e-05,9.3204693293601e-05,2765607.9757905,0.014753640521812
27919200,0.99990886941173,0.015880521126017,0.0050064491374841,0.0067846653360978,0.0040894066524355,-0.00097825657449918,0.00097826261536243,3.0059695114448e-09,3.005942710798e-09,1.1781107369099e-09,4.436458136661e-09,-0.0011247918957171,0.0011247974025764,-0.0011247914786056,0.0011247969851518,-0.0011247907914359,0.001124798502153,-0.0011247904070016,0.0011247981173989,-0.00090372036650201,0.00090372732178076,-0.00090372156657426,0.00090372852154149,7.2925435922108e-10,-2.3822830904457e-09,1.2283747242307e-09,-2.8322321583105e-09,-0.0018001954084315,0.0018001938000229,-0.0020080457239793,0.0020080465473108,-0.002008046378273,0.0020080444666185,-0.0020080463097399,0.0020080450400593,-0.0020080469639767,0.0020080429592974,-0.0015275437123542,0.0015275450711366,-0.0015275488979754,0.0015275422616618,-0.0016048260346863,0.0016048261004816,-0.0016048300292965,0.0016048239686662,2.7242747001162e-09,2.7242502245109e-09,-0.0007490971302262,0.00074910318773796,5.1616697098276e-10,4.6681358517285e-09,-0.00088422795358473,0.00088423408700296,-0.0008842265514391,0.00088423548105022,-0.00088422795431221,0.00088423408765101,-0.00088422656381179,0.00088423549336298,-0.00077717444940976,0.00077718117964878,-0.00077717452678495,0.00077718125671999,0.76533978020323,122718,2924,0.0040691722815129,0.0074715907622545,0.0031195077239317,22.918283387303,9.8546267098425e-05,9.8546267098425e-05,9.8546267098425e-05,2770272.330793,0.014768841745098
28419200,0.99992107554475,0.015880762828819,0.005006519773019,0.0067847647941093,0.0040894782616905,-0.00097710459597146,0.00097711086859932,3.087728910073e-09,3.0877021062149e-09,1.2530845378077e-09,4.535736656888e-09,-0.0011251748187031,0.0011251805053828,-0.0011251743729952,0.0011251800593618,-0.0011251737058244,0.0011251816129673,-0.0011251732934003,0.0011251812002233,-0.00090291199888005,0.00090291913831551,-0.00090291319769145,0.00090292033681525,7.4235890909196e-10,-2.3918338245008e-09,1.2184121640506e-09,-2.8186561085201e-09,-0.0018025664752605,0.0018025648704515,-0.0020097490223977,0.0020097498519485,-0.0020097496376963,0.0020097477436811,-0.0020097495917937,0.0020097483115787,-0.0020097502070354,0.0020097462032416,-0.0015306139476017,0.0015306152782118,-0.0015306190955754,0.0015306124790461,-0.0016074940922975,0.0016074941909612,-0.0016074980874474,0.001607492015709,2.865813749813e-09,2.8657892601641e-09,-0.00074948926732798,0.00074949568993857,6.6777243215763e-10,4.8001061589516e-09,-0.00088598527679836,0.000885991728701,-0.00088598388032137,0.00088599311688517,-0.000885985262447,0.00088599171427023,-0.00088598387779219,0.00088599311429605,-0.00077728972675947,0.00077729675025593,-0.00077728979704607,0.00077729682023868,0.82558911402084,122718,2924,0.0040644152832261,0.0074813616801523,0.0031211481621913,23.441233618156,0.00010272986894525,0.00010272986894525,0.00010272986894525,2725861.3411966,0.014775604096918
28919200,0.99993195478787,0.015880962166325,0.0050065777610967,0.0067848471541193,0.0040895372511093,-0.00097483311183509,0.00097483935816271,3.0762443760003e-09,3.076217550158e-09,1.2383396330393e-09,4.5321078199818e-09,-0.0011249830723822,0.0011249887263406,-0.0011249826310616,0.0011249882847071,-0.0011249819559945,0.001124989837459,-0.0011249815478992,0.0011249894290438,-0.00090123300736021,0.00090124012685794,-0.00090123420415624,0.00090124132334231,7.5230718991411e-10,-2.3935256440816e-09,1.2114097097943e-09,-2.8033708977669e-09,-0.0018054168057167,0.0018054152091765,-0.002011853542114,0.0020118543758662,-0.0020118541542988,0.0020118522796005,-0.0020118541169318,0.0020118528338308,-0.0020118547290595,0.0020118507374953,-0.0015341165223694,0.0015341178356585,-0.0015341216469879,0.0015341150568321,-0.0016104785621351,0.0016104786883097,-0.0016104825645255,0.0016104764969627,2.8461153560413e-09,2.8460908673188e-09,-0.00074949149128448,0.00074949786338939,6.5930725846876e-10,4.7691621445797e-09,-0.00088774406278383,0.00088775047132587,-0.00088774267383775,0.00088775185209246,-0.0008877440515063,0.00088775045996865,-0.00088774267425848,0.00088775185245324,-0.00077701954103171,0.00077702651545416,-0.0007770196088457,0.00077702658296417,0.7640056113105,122718,2924,0.0040550237956519,0.0074931024713331,0.0031211759301625,23.983500688656,0.00010706800550924,0.00010706800550924,0.00010706800550924,2667140.105521,0.014778027062897
29419200,0.99994173340187,0.015881108461264,0.0050066199419874,0.0067849081155994,0.004089580403677,-0.00097702018349914,0.00097702615668223,2.9826064799672e-09,2.9825796649283e-09,1.145915730925e-09,4.436904156506e-09,-0.0011255310009703,0.0011255364346164,-0.0011255305590658,0.001125535992399,-0.0011255298857351,0.0011255375447856,-0.0011255294770558,0.0011255371357865,-0.00090331065461093,0.00090331755157581,-0.00090331185298544,0.0009033187496386,7.4320044061905e-10,-2.403640997388e-09,1.2011874626064e-09,-2.8121750399829e-09,-0.0018058463979115,0.0018058447823758,-0.0020128485017964,0.0020128493167454,-0.0020128491136238,0.0020128472209936,-0.0020128490769667,0.0020128477741124,-0.0020128496887371,0.0020128456782909,-0.0015340353137023,0.0015340366062585,-0.0015340404409499,0.0015340338328129,-0.0016104411334638,0.0016104412417286,-0.0016104451410435,0.0016104390537204,2.6335180188175e-09,2.6334935525209e-09,-0.00075106466879449,0.00075107048980502,4.5590583891898e-10,4.553154433819e-09,-0.00088793772285334,0.00088794365492375,-0.000887936338378,0.0008879450311504,-0.00088793771053545,0.00088794364252631,-0.00088793633781242,0.00088794503052479,-0.00077860287681631,0.00077860936552448,-0.00077860294611984,0.0007786094345239,0.62417410960896,122718,2924,0.0040640790893874,0.007494915953433,0.0031276926710694,24.778196545743,0.00011342557236594,0.00011342557236594,0.00011342557236594,2706788.2329121,0.014795656635651
29919200,0.99995041011188,0.015881251439875,0.0050066615551742,0.006784967048581,0.0040896228361199,-0.00098383287576918,0.00098383893987871,3.0232845781082e-09,3.0232578147056e-09,1.1696492941107e-09,4.4664682915773e-09,-0.0011258597374707,0.0011258652779758,-0.0011258593219795,0.0011258648621722,-0.0011258586206197,0.0011258663906412,-0.0011258582379307,0.0011258660076328,-0.0009089525365427,0.00090895953784404,-0.00090895374372961,0.00090896074471954,7.1983545534448e-10,-2.4285310310146e-09,1.1384464550658e-09,-2.7971255269116e-09,-0.0018033534894726,0.0018033518262645,-0.0020145319003068,0.0020145326406442,-0.0020145325192459,0.0020145306067696,-0.0020145324998145,0.0020145311222737,-0.0020145331186964,0.0020145290883291,-0.0015278904002736,0.0015278915691997,-0.001527895476683,0.0015278888958883,-0.0016051382661965,0.0016051383536259,-0.0016051423163441,0.0016051362052933,2.6975869736873e-09,2.6975625680211e-09,-0.00075383969884155,0.00075384569421896,5.5061436740315e-10,4.5774186270637e-09,-0.0008851368599137,0.00088514299811802,-0.00088513549945924,0.00088514435043122,-0.00088513685868342,0.00088514299680807,-0.00088513551000981,0.00088514436092173,-0.00078168928082236,0.00078169591483767,-0.00078168936105844,0.00078169599476978,0.68688558505508,122718,2924,0.004092279759566,0.0074847520194385,0.0031391724415622,25.464863413333,0.00011891890730666,0.00011891890730666,0.00011891890730666,2812893.2332437,0.014825577941323
30419200,0.9999580510233,0.015881354251874,0.0050066910936777,0.0067850103046381,0.0040896528535583,-0.00098306751036887,0.00098307357887316,3.0197513553105e-09,3.0197245336724e-09,1.1757323650785e-09,4.4677325091916e-09,-0.0011284823222707,0.0011284878484565,-0.0011284819035632,0.0011284874294358,-0.0011284812066565,0.0011284889590774,-0.0011284808209765,0.0011284885730776,-0.00090850273392201,0.00090850972712829,-0.00090850393534343,0.00090851092823845,7.3588087019749e-10,-2.4091800062928e-09,1.1316970655491e-09,-2.7557264128615e-09,-0.0018067674579923,0.0018067658294278,-0.0020157156630613,0.0020157164209477,-0.0020157162617379,0.0020157143974436,-0.0020157162581468,0.002015714900901,-0.0020157168567666,0.002015712877327,-0.0015336272046175,0.0015336283617734,-0.0015336322247671,0.0015336257274752,-0.0016103480530627,0.0016103481888175,-0.0016103520800501,0.0016103460235552,2.7194243988042e-09,2.7193999810796e-09,-0.00075501978378728,0.00075502583137474,5.9504480205446e-10,4.5752125965005e-09,-0.00088938648156785,0.00088939266494109,-0.00088938513625176,0.00088939400221336,-0.00088938648240446,0.00088939266569837,-0.0008893851486887,0.00088939401459066,-0.00078242743369615,0.00078243409525775,-0.00078242750766664,0.00078243416892413,0.56251928746541,122718,2924,0.004089136396577,0.0074987942949748,0.0031440909388854,26.130183124347,0.00012424146499478,0.00012424146499478,0.00012424146499478,2741251.0626873,0.014841653120192
30919200,0.9999648463026,0.015881464457841,0.005006723229759,0.0067850557213118,0.00408968550677,-0.00098979274774458,0.00098979831704053,2.8456238302758e-09,2.8455970403249e-09,1.0159235168019e-09,4.2539571621758e-09,-0.0011304923935941,0.0011304975319885,-0.0011304920416886,0.0011304971797702,-0.0011304912967969,0.0011304986247149,-0.0011304909767964,0.0011304983043951,-0.00091453166730117,0.00091453826764122,-0.00091453287312312,0.0009145394731517,6.9976311165845e-10,-2.3950942091924e-09,1.0444072557811e-09,-2.6907089716879e-09,-0.0018052710568178,0.0018052694060542,-0.0020165013911138,0.0020165020538787,-0.0020165020145208,0.0020165001640393,-0.0020165020235523,0.0020165006083542,-0.0020165026469023,0.0020164987184448,-0.0015299940953367,0.0015299950996749,-0.0015299990004267,0.0015299926459147,-0.001607500475228,0.0016075005914763,-0.0016075045035987,0.0016074985253676,2.3849335600639e-09,2.3849091937053e-09,-0.00075854932031022,0.00075855451373706,3.3951946108999e-10,4.1591261619955e-09,-0.00088868971469556,0.00088869521198561,-0.00088868842462958,0.00088869649451464,-0.00088868974928477,0.00088869524649552,-0.00088868847037851,0.00088869654020369,-0.00078651960369157,0.00078652550672422,-0.00078651969391832,0.00078652559664672,0.67617106509292,122718,2924,0.0041169855528506,0.0074927094886339,0.0031587105138322,27.119202019232,0.00013215361615385,0.00013215361615385,0.00013215361615385,2842810.5032375,0.014878549456043
31419200,0.99997092564818,0.01588156630159,0.0050067528689074,0.0067850979679866,0.0040897154646956,-0.00098824028519396,0.00098824527177005,2.6257651373944e-09,2.6257383008149e-09,8.4855097630603e-10,3.9853030578449e-09,-0.0011343552824876,0.0011343599432306,-0.0011343549958618,0.0011343596562919,-0.0011343542193551,0.0011343610014041,-0.0011343539638981,0.0011343607456269,-0.00091377293756944,0.000913779035188,-0.00091377413584217,0.00091378023314897,6.9267467994047e-10,-2.3074468185542e-09,9.8336652271009e-10,-2.5510972933171e-09,-0.001811235304203,0.0018112337320866,-0.0020192073342301,0.0020192079714913,-0.0020192079629818,0.0020192062261372,-0.0020192079866421,0.0020192066135384,-0.0020192086153374,0.0020192048681149,-0.0015390845914939,0.0015390855110494,-0.0015390893209859,0.001539083273102,-0.0016157378968323,0.0016157380691637,-0.0016157418461713,0.001615736108495,2.0496510680815e-09,2.0496266476658e-09,-0.00076052787892236,0.00076053221054964,1.0323714920537e-10,3.7171158336068e-09,-0.00089546494660107,0.00089546974555986,-0.00089546372605777,0.00089547095931316,-0.00089546502292289,0.00089546982180221,-0.00089546381271414,0.00089547104590927,-0.00078794095161984,0.00078794607185487,-0.00078794104205651,0.00078794616198712,0.69952705654839,122718,2924,0.0041106014619697,0.0075172535594303,0.0031669617914293,28.43627059054,0.00014269016472432,0.00014269016472432,0.00014269016472432,2724610.7605581,0.014905387217949
31919200,0.99997616196485,0.015881656661303,0.0050067792326037,0.0067851351641528,0.0040897422645468,-0.00098797735613845,0.00098798311356253,2.9034416630855e-09,2.9034148225444e-09,1.1321111683692e-09,4.2732453523466e-09,-0.0011351990124742,0.0011352043160689,-0.0011351986297757,0.0011352039330573,-0.0011351979456284,0.0011352053759396,-0.0011351975960522,0.0011352050260436,-0.00091402621260858,0.00091403290915914,-0.00091402740866734,0.00091403410490621,6.9235626555016e-10,-2.3050542178818e-09,9.6451520766365e-10,-2.5301276313964e-09,-0.0018136163688608,0.0018136147988857,-0.0020212076761079,0.00202120831176,-0.0020212081889308,0.0020212064637371,-0.0020212082531569,0.0020212068727151,-0.0020212087659228,0.0020212050246224,-0.0015416693834588,0.0015416702631825,-0.0015416740330989,0.0015416680287206,-0.001618060556143,0.0016180607376718,-0.0016180644519222,0.0016180587317411,2.5230682727315e-09,2.5230438368456e-09,-0.00076162351880764,0.0007616290695065,5.9145768716777e-10,4.1774405160046e-09,-0.00089742295861179,0.00089742882894893,-0.00089742174469725,0.0008974300351775,-0.00089742298095955,0.00089742885121717,-0.00089742177830047,0.00089743006872075,-0.00078903140324086,0.0007890375203592,-0.00078903148350185,0.00078903760031614,0.71926751588325,122718,2924,0.0041095318076544,0.0075270751479359,0.0031715276856035,29.268766500168,0.00014935013200134,0.00014935013200134,0.00014935013200134,2693075.3794862,0.014918905899125
32419200,0.99998046154201,0.015881738138145,0.0050068031048801,0.0067851684769451,0.0040897665563198,-0.00098649437474526,0.00098650108228611,3.2401294368378e-09,3.2401026154536e-09,1.4561521470588e-09,4.6140554251269e-09,-0.0011343449695416,0.0011343510736109,-0.0011343445873224,0.0011343506910786,-0.0011343438967896,0.0011343521394002,-0.001134343547686,0.0011343517899767,-0.00091271084920911,0.0009127183381304,-0.0009127120465365,0.00091271953514617,6.9358833126434e-10,-2.3040012979595e-09,9.6447498542183e-10,-2.5277523606064e-09,-0.0018140780242344,0.0018140764565932,-0.0020216720762253,0.0020216727134911,-0.0020216725890158,0.0020216708670279,-0.0020216726533385,0.0020216712743828,-0.0020216731660721,0.0020216694278499,-0.0015421244858808,0.0015421253654924,-0.0015421291296988,0.0015421231299786,-0.0016184670139232,0.0016184671987388,-0.0016184709086722,0.0016184651914015,3.2185417000692e-09,3.2185172642569e-09,-0.00076091603781331,0.00076092338926208,1.2609383625809e-09,4.8801989163089e-09,-0.00089719819112214,0.00089720564680076,-0.00089719696531162,0.00089720686495783,-0.0008971982135642,0.00089720566916332,-0.00089719699899256,0.00089720689857879,-0.00078835325220824,0.00078836095592741,-0.00078835333040601,0.00078836103382114,0.78912843059547,122718,2924,0.0041033916214987,0.0075289690831251,0.0031685999825136,29.299092484677,0.00014959273987742,0.00014959273987742,0.00014959273987742,2663858.172607,0.014911626808654
32919200,0.99998396445592,0.015881796214089,0.0050068199918105,0.0067851924297502,0.0040897837925281,-0.00098297115889702,0.00098297837161328,3.4262263600152e-09,3.426199522242e-09,1.6372057676641e-09,4.8081089797476e-09,-0.0011326729258985,0.0011326794499156,-0.0011326724327381,0.001132678956442,-0.0011326718477742,0.0011326805195657,-0.0011326713892109,0.0011326800606825,-0.00090956229652439,0.0009095702119659,-0.00090956341787047,0.00090957133300039,7.0388894144071e-10,-2.3088190940733e-09,9.8109425936147e-10,-2.5387258117868e-09,-0.0018152794427217,0.001815277880713,-0.0020226094884578,0.0020226101533313,-0.002022609895445,0.0020226081723577,-0.0020226099943526,0.0020226086277669,-0.0020226104012828,0.0020226066467236,-0.0015435545854343,0.0015435554914623,-0.0015435591567267,0.0015435531308384,-0.0016197186097135,0.0016197188045284,-0.0016197224349918,0.0016197166986153,3.4528044205921e-09,3.4527799599129e-09,-0.00075929284347699,0.00075930079859887,1.4856295445372e-09,5.123304461185e-09,-0.00089704705403508,0.00089705501940752,-0.00089704582120584,0.00089705624397508,-0.00089704701628501,0.00089705498157794,-0.00089704579533621,0.00089705621804547,-0.00078670829632338,0.00078671652520345,-0.00078670841627018,0.00078671664484628,0.69092321609741,122718,2924,0.0040888044084961,0.0075338944023469,0.0031618786371411,29.174673816152,0.00014859739052922,0.00014859739052922,0.00014859739052922,2595370.9657005,0.014895009280636
33419200,0.99998685910949,0.015881850191966,0.0050068358302504,0.0067852143939902,0.0040897999677251,-0.00098480132471112,0.0009848083417806,3.3666086007895e-09,3.3665817807734e-09,1.5769940495117e-09,4.7603574523475e-09,-0.0011323027619443,0.0011323091238151,-0.0011323022143586,0.0011323085759164,-0.0011323016790564,0.0011323101975615,-0.0011323011671118,0.0011323096852972,-0.00091117770535081,0.00091118545026442,-0.000911178822427,0.000911186567029,6.9834324568144e-10,-2.3306207406362e-09,9.8118307464823e-10,-2.5657558392144e-09,-0.0018146314499083,0.0018146298609953,-0.002022565611645,0.0020225662699373,-0.0020225659694635,0.0020225642147844,-0.0020225660782133,0.0020225646898755,-0.0020225664359749,0.0020225626346529,-0.0015423256946566,0.0015423265934026,-0.0015423302701058,0.0015423241857254,-0.0016183722945396,0.0016183724673794,-0.0016183761059917,0.0016183703168995,3.2623530042522e-09,3.2623285706456e-09,-0.00076017794699744,0.0007601853894094,1.2944400427452e-09,4.9458696255614e-09,-0.000896165984024,0.00089617348964733,-0.00089616474578795,0.00089617471897752,-0.00089616591302751,0.00089617341857138,-0.00089616468727865,0.00089617466040823,-0.00078741255411924,0.00078742030992551,-0.00078741267676359,0.0007874204322657,0.77567308772677,122718,2924,0.0040963716517907,0.0075312666020101,0.0031655354951519,29.316033484371,0.00014972826787496,0.00014972826787496,0.00014972826787496,2681665.4045525,0.014903717354801
33919200,0.99998931868551,0.015881895254213,0.0050068489932061,0.0067852328592214,0.0040898134017856,-0.00098311406009278,0.00098311998075329,2.9606902780215e-09,2.9606634459702e-09,1.1707214794426e-09,4.3578955294594e-09,-0.0011329477132635,0.0011329531379826,-0.0011329473135831,0.0011329527379892,-0.0011329466313539,0.0011329542131983,-0.0011329462649471,0.0011329538464715,-0.00090996562244732,0.00090997245832013,-0.00090996681976126,0.00090997365532247,7.1335998645973e-10,-2.3285113315772e-09,9.8798117267688e-10,-2.5554435634239e-09,-0.001818107939214,0.0018181063673473,-0.002025638328007,0.0020256389940385,-0.0020256388377722,0.0020256371089254,-0.002025638902443,0.0020256375221444,-0.0020256394121512,0.0020256356369615,-0.0015462292139581,0.0015462301243493,-0.0015462339045014,0.0015462278359395,-0.0016216532363671,0.0016216534428482,-0.0016216571629659,0.0016216513802856,2.6154301042439e-09,2.6154056448587e-09,-0.000760695804588,0.00076070159166551,6.5898424607186e-10,4.2958609173831e-09,-0.00089874132947124,0.00089874738898211,-0.00089874009825226,0.00089874861248463,-0.00089874134215439,0.00089874740158574,-0.0008987401222363,0.00089874863640866,-0.00078735389171966,0.00078736022207617,-0.0007873539621085,0.0007873602921611,0.76303060755973,122718,2924,0.0040894072548104,0.0075455948849224,0.0031677029522584,30.069378748681,0.00015575502998945,0.00015575502998945,0.00015575502998945,2598462.8555226,0.014913408551206
34419200,0.9999914552455,0.015881932625568,0.0050068599008352,0.0067852481506861,0.0040898245740471,-0.00098529307944175,0.00098529792318664,2.5745537727377e-09,2.5745269399103e-09,8.2643079997767e-10,3.9004417848279e-09,-0.0011344487164933,0.0011344532819132,-0.001134448450633,0.00113445301574,-0.0011344476738979,0.0011344543189881,-0.0011344474391083,0.0011344540838786,-0.00091228751393176,0.00091229348262737,-0.00091228870923882,0.00091229467762294,6.7540238230319e-10,-2.262698223446e-09,8.9327771703774e-10,-2.4341221564743e-09,-0.0018206089295122,0.0018206073843664,-0.0020288113665688,0.0020288119405302,-0.0020288119540438,0.0020288102923762,-0.0020288120143772,0.0020288106197857,-0.0020288126017951,0.002028808971562,-0.0015481303724927,0.0015481311367787,-0.0015481349122453,0.0015481291149695,-0.001623400800069,0.0016234010079192,-0.001623404700844,0.0016233991204462,1.9440725361097e-09,1.9440480854301e-09,-0.00076329809518864,0.00076330215413125,9.8583258496182e-11,3.5045166234494e-09,-0.00090075042533789,0.00090075505935691,-0.00090074927425347,0.000900756203953,-0.0009007505132695,0.00090075514720902,-0.00090074937228748,0.00090075630192702,-0.00078986152897151,0.00078986635960907,-0.0007898616197895,0.00078986645012293,0.72790058071019,122718,2924,0.0040984468948704,0.0075559524153979,0.0031785042452435,31.478635047674,0.00016702908038139,0.00016702908038139,0.00016702908038139,2594375.8616202,0.014944051708165
34919200,0.999993335835,0.015881966898598,0.0050068699331789,0.0067852621182591,0.0040898348471601,-0.00099014707191642,0.00099015075622786,2.1565939009576e-09,2.1565670781777e-09,4.9868751357664e-10,3.3606919885196e-09,-0.0011378423535423,0.0011378460126664,-0.0011378422318794,0.0011378458906906,-0.0011378413819598,0.0011378469785308,-0.0011378412892898,0.0011378468855412,-0.00091698647140157,0.00091699147352509,-0.0009169876631805,0.00091699266499278,6.0553182765361e-10,-2.1314156301862e-09,7.1422043240899e-10,-2.1964026852292e-09,-0.0018238019808078,0.0018238004945607,-0.0020328852896089,0.0020328857047461,-0.0020328859018568,0.0020328843733535,-0.0020328859877144,0.0020328845764137,-0.0020328865999051,0.0020328832449512,-0.0015506639449445,0.0015506644303193,-0.0015506681399944,0.0015506628755261,-0.0016259067615759,0.0016259069744684,-0.0016259105435545,0.0016259053615071,1.2207994806933e-09,1.2207750439692e-09,-0.00076784251809237,0.00076784472070064,-4.1448393415327e-10,2.5594107579788e-09,-0.00090408203875904,0.00090408518977401,-0.00090408103473512,0.00090408618867139,-0.00090408220783936,0.0009040853587748,-0.00090408121260278,0.00090408636647898,-0.00079427545568662,0.00079427861122598,-0.00079427556981221,0.00079427872504759,0.75808686568768,122718,2924,0.0041185723090251,0.0075691898244117,0.0031973605815911,33.571633336752,0.00018377306669402,0.00018377306669402,0.00018377306669402,2606533.2604005,0.014997044345766
35419200,0.99999496177389,0.015881993210573,0.0050068775858033,0.0067852729306502,0.0040898426941192,-0.00099344935629616,0.00099345254384267,1.9738949030789e-09,1.9738680704594e-09,4.1179345661021e-10,3.0699247501415e-09,-0.0011422446164728,0.0011422479245474,-0.0011422445491847,0.0011422478569462,-0.0011422437109148,0.001142248822013,-0.0011422436725094,0.0011422487832879,-0.00092052776626025,0.00092053230997668,-0.0009205289537395,0.00092053349714435,5.4248728803279e-10,-1.9950593082782e-09,5.316922790482e-10,-1.9435391449779e-09,-0.0018291040164741,0.0018291026008201,-0.0020375605479184,0.0020375608201581,-0.0020375610827528,0.0020375597027022,-0.0020375612279974,0.0020375598078349,-0.0020375617627748,0.0020375586903091,-0.0015566910713009,0.0015566912671481,-0.0015566948687903,0.0015566901678612,-0.0016315880825492,0.0016315883172393,-0.0016315916972571,0.0016315869294279,9.1886987496488e-10,9.1884543065282e-10,-0.00077253525014444,0.00077253668374569,-5.0390498625445e-10,2.0316719705209e-09,-0.00090969460116257,0.00090969722778101,-0.00090969374355938,0.00090969808078073,-0.00090969480328857,0.00090969742982743,-0.00090969395398968,0.00090969829115099,-0.00079868797298269,0.00079869034282743,-0.00079868809492548,0.00079869046446598,0.67379056419234,122718,2924,0.0041322897333262,0.007591090843051,0.0032168510162847,35.927437804084,0.00020261950243268,0.00020261950243268,0.00020261950243268,2567651.5957413,0.015052987932335
35919200,0.99999627695561,0.015882016039793,0.0050068842676189,0.0067852822241563,0.0040898495480173,-0.00099922985694605,0.00099923426361583,2.4131683601995e-09,2.4131415566334e-09,8.6604580802004e-10,3.5134067960694e-09,-0.001144852447228,0.0011448567753095,-0.0011448522316826,0.0011448565594513,-0.0011448515413452,0.0011448576696426,-0.0011448513577741,0.0011448574857519,-0.00092590922885022,0.00092591471660448,-0.00092591041727117,0.00092591590471396,5.2896507412714e-10,-1.986741169921e-09,4.6592963069902e-10,-1.8832435580255e-09,-0.0018301235584916,0.001830122137451,-0.0020402679215649,0.0020402681559588,-0.0020402682562362,0.0020402669010314,-0.002040268477543,0.002040267021782,-0.0020402688121573,0.0020402657667848,-0.0015562708574418,0.0015562709254047,-0.0015562744680958,0.0015562698946798,-0.0016314628462387,0.0016314630902153,-0.0016314663655622,0.0016314616550863,1.6453565764419e-09,1.6453321597907e-09,-0.00077656645426828,0.0007765697736104,2.7858797188751e-10,2.7064558420684e-09,-0.00091106182715237,0.00091106612184553,-0.00091106100135772,0.00091106694160095,-0.00091106194300558,0.00091106623761926,-0.00091106112699563,0.00091106706717889,-0.0008028394890305,0.00080284337239537,-0.00080283959870267,0.00080284348176308,0.72183945217265,122718,2924,0.0041562410978143,0.0075953767803846,0.003233571719473,37.534957361261,0.00021547965889009,0.00021547965889009,0.00021547965889009,2621094.5274634,0.015098605093925
36419200,0.9999972469568,0.015882032456356,0.0050068890595433,0.006785288942664,0.0040898544541484,-0.00099753829087936,0.0009975446852938,3.1169453309873e-09,3.1169185546928e-09,1.5449403379438e-09,4.2257589933752e-09,-0.0011446649440609,0.0011446709472236,-0.0011446647277995,0.0011446707306494,-0.0011446640262278,0.0011446718533909,-0.0011446638419926,0.0011446716688361,-0.0009243450885822,0.00092435223194341,-0.0009243462777404,0.00092435342079016,5.3201742767395e-10,-1.9827929460071e-09,4.646221905816e-10,-1.8750229885112e-09,-0.0018310730853849,0.0018310716712454,-0.0020408195443002,0.0020408197822334,-0.0020408198753585,0.0020408185296593,-0.0020408200991754,0.002040818647586,-0.0020408204301767,0.002040817394942,-0.0015576101963314,0.0015576102620699,-0.0015576137882917,0.0015576092315156,-0.0016327229278876,0.0016327231811367,-0.0016327264410937,0.0016327217416902,3.1171722184843e-09,3.1171477860837e-09,-0.00077592452757804,0.00077593165557712,1.6968547360761e-09,4.1912159743347e-09,-0.00091165046263393,0.0009116581145085,-0.00091164961284123,0.00091165895829293,-0.00091165057864964,0.00091165823044474,-0.00091164973861971,0.00091165908401141,-0.00080212133026461,0.00080212856823686,-0.00080212143508662,0.00080212867275462,0.70447270805608,122718,2924,0.0041492476215598,0.0075992701554103,0.0032309260943054,37.488422001477,0.00021510737601181,0.00021510737601181,0.00021510737601181,2567968.3292412,0.015092784322067
36919200,0.99999794576683,0.015882043325413,0.00500689222346,0.0067852934004287,0.0040898577015247,-0.00099596951104466,0.00099597768895251,3.7752103190412e-09,3.7751835416759e-09,2.0601836849331e-09,5.134469125375e-09,-0.0011433694074342,0.0011433767748785,-0.001143368722381,0.0011433760895123,-0.0011433683537323,0.0011433778131525,-0.0011433677087846,0.0011433771678852,-0.00092292237746513,0.00092293092676808,-0.00092292357835324,0.00092293212734476,6.5763938827399e-10,-2.2497205495521e-09,7.2058051246585e-10,-2.2669573868315e-09,-0.0018301922344089,0.0018301906839285,-0.0020394877751749,0.00203948826797,-0.002039487805058,0.0020394862271639,-0.0020394880872068,0.0020394865979736,-0.0020394881170329,0.0020394845570977,-0.0015571310969885,0.00155713151532,-0.0015571351410379,0.0015571296882774,-0.0016320307681528,0.0016320310374758,-0.0016320344271724,0.0016320289829181,3.9769876479926e-09,3.9769631879751e-09,-0.00077457407925722,0.00077458339375849,2.2749923628391e-09,5.3956938390539e-09,-0.0009106125371181,0.00091062185431035,-0.00091061146879943,0.00091062291215705,-0.00091061238902044,0.00091062170613319,-0.00091061133488552,0.00091062277818311,-0.00080067770612687,0.00080068675931853,-0.00080067774350573,0.00080068679639318,0.64727478642576,122718,2924,0.0041427436089344,0.0075956206532037,0.0032253233970653,36.862167263344,0.00021009733810675,0.00021009733810675,0.00021009733810675,2582940.5159534,0.015076789945789
37419200,0.99999848507813,0.015882051810564,0.0050068946991062,0.0067852968699551,0.0040898602415026,-0.00099944595910624,0.00099945179245599,2.9352578547844e-09,2.9352310635925e-09,1.1763617511417e-09,4.2856540822684e-09,-0.0011448817203319,0.0011448871176859,-0.0011448813339082,0.0011448867309494,-0.0011448806629718,0.001144888166865,-0.0011448803105001,0.0011448878140738,-0.00092608281198376,0.00092608956482796,-0.00092608401551598,0.00092609076804866,6.7127215106715e-10,-2.2924062727678e-09,7.5061674093851e-10,-2.3249357781608e-09,-0.0018304310874708,0.0018304295088911,-0.0020407000776072,0.0020407005576882,-0.0020407004575857,0.0020406988501243,-0.00204070064034,0.0020406991251201,-0.0020407010202616,0.0020406974174864,-0.0015565512637586,0.0015565517336009,-0.0015565555191114,0.0015565499290174,-0.0016316789262553,0.0016316792039686,-0.0016316828011208,0.0016316772445736,2.5211477749749e-09,2.5211233503093e-09,-0.00077681158732738,0.00077681714627165,7.9193570814302e-10,3.9628476564954e-09,-0.00091119918489074,0.00091120521203273,-0.00091119810827237,0.00091120628098033,-0.00091119920330652,0.00091120523036901,-0.00091119813802268,0.00091120631067061,-0.00080300054898081,0.00080300652859535,-0.00080300062340308,0.00080300660271325,0.65462458225499,122718,2924,0.0041571396306244,0.0075966516612536,0.0032345917954856,37.673312549892,0.00021658650039913,0.00021658650039913,0.00021658650039913,2619287.3657934,0.015101847212648
37919200,0.99999888285294,0.015882057644256,0.0050068963952098,0.0067852992688505,0.0040898619801953,-0.00099919570376808,0.00099920248661524,3.2701294109015e-09,3.270102635223e-09,1.4981720983542e-09,4.6258153448106e-09,-0.0011451346853101,0.0011451408767511,-0.0011451342992106,0.0011451404903387,-0.0011451336215016,0.0011451419323411,-0.0011451332693476,0.0011451415798676,-0.00092582854923029,0.00092583609279415,-0.00092582975143355,0.00092583729468591,6.7476266422849e-10,-2.2912399266342e-09,7.5508003517617e-10,-2.3247950415779e-09,-0.0018307954589924,0.0018307938850026,-0.0020408813417386,0.0020408818284459,-0.0020408817233356,0.0020408801197263,-0.0020408819051665,0.0020408803951785,-0.0020408822867065,0.0020408786863891,-0.0015570982234274,0.0015570987013881,-0.0015571024767685,0.0015570968862683,-0.0016322040774619,0.0016322043607848,-0.0016322079509961,0.0016322023953892,3.2230640452382e-09,3.2230396168962e-09,-0.00077680162335615,0.00077680900275067,1.4643059488996e-09,4.6753484080792e-09,-0.00091161434746964,0.00091162196992544,-0.00091161325668173,0.00091162305305936,-0.00091161436625363,0.00091162198862992,-0.00091161328678185,0.00091162308309947,-0.00080293559571117,0.0008029431805944,-0.00080293566960571,0.00080294325418466,0.61069305856361,122718,2924,0.0041561093580642,0.007598147991978,0.0032345577927206,37.676461540339,0.00021661169232272,0.00021661169232272,0.00021661169232272,2603896.1602162,0.015102290668999
38419200,0.99999917043187,0.01588206246433,0.0050068978078807,0.0067853012308761,0.0040898634255732,-0.00099962655866217,0.00099963453264889,3.7133700954418e-09,3.7133433262308e-09,1.8384968092415e-09,5.2245611869479e-09,-0.0011445643951306,0.0011445715159971,-0.0011445637395366,0.0011445708600902,-0.0011445632427998,0.0011445726584173,-0.0011445626257312,0.0011445720410292,-0.00092606327659264,0.00092607178901858,-0.00092606447968954,0.00092607299180398,7.5066296446759e-10,-2.4691648253271e-09,9.4501656921603e-10,-2.6132323443104e-09,-0.0018290698249085,0.0018290681521805,-0.0020393953944303,0.0020393960512979,-0.0020393956395285,0.0020393938567472,-0.0020393958324097,0.002039394306084,-0.002039396077451,0.0020393921114636,-0.0015551794979866,0.0015551802535173,-0.0015551841154909,0.0015551778759527,-0.0016304726224163,0.001630472887258,-0.0016304766130126,0.0016304705455879,3.8576227840808e-09,3.8575983466067e-09,-0.00077623831381883,0.00077624730121843,1.877282886267e-09,5.5616558574785e-09,-0.00091022371497775,0.00091023258524257,-0.0009102224608345,0.00091023382907615,-0.00091022358339242,0.00091023245357777,-0.00091022234319687,0.00091023371137853,-0.00080252237691001,0.00080253135905009,-0.00080252242108823,0.0008025314029241,0.69725492786591,122718,2924,0.0041578830672641,0.007591032849351,0.0032322123271032,37.198386008284,0.00021278708806627,0.00021278708806627,0.00021278708806627,2636660.2533076,0.015094481360652
38880000,0.99999937125264,0.015882065958551,0.0050068988314265,0.0067853026558996,0.0040898644712246,-0.0009963837812158,0.00099639099420071,3.4304539021406e-09,3.4304269072215e-09,1.5550614862056e-09,4.9558466757565e-09,-0.0011443505867498,0.001144357025817,-0.0011443500038946,0.001144356442655,-0.0011443494309796,0.0011443581730843,-0.001144348885412,0.0011443576269237,-0.00092314352156604,0.00092315139465367,-0.00092314476945782,0.0009231526419505,7.7379532643687e-10,-2.4699923196654e-09,9.8104508245203e-10,-2.6268342115474e-09,-0.0018312869203726,0.0018312852699862,-0.0020405340851934,0.002040534781858,-0.002040534416372,0.0020405326491963,-0.0020405345755397,0.0020405330781146,-0.0020405349069253,0.0020405309453916,-0.0015583113318159,0.0015583121511795,-0.0015583160518195,0.0015583097781567,-0.0016333287620901,0.0016333290578467,-0.0016333328161688,0.0016333267313461,3.3808774353974e-09,3.380848697246e-09,-0.00077534919283595,0.00077535695148381,1.3904669247781e-09,5.1100822335359e-09,-0.00091179636204845,0.00091180410994299,-0.00091179509768347,0.00091180536481418,-0.00091179627072593,0.00091180401862456,-0.00091179501954393,0.00091180528660585,-0.00080145517090552,0.00080146309382294,-0.00080145518472802,0.00080146310733239,0.72416034322619,122718,2924,0.004144470263004,0.0076001331985469,0.0032285454657048,37.19368763291,0.00021274950106328,0.00021274950106328,0.00021274950106328,2558827.5614704,0.015086401206514
