time,ASR_ext,ASR_strain,ASR_strain_xx,ASR_strain_yy,ASR_strain_zz,disp_x_101,disp_x_102,disp_x_103,disp_x_104,disp_x_105,disp_x_106,disp_x_p1_neg,disp_x_p1_pos,disp_x_p2_neg,disp_x_p2_pos,disp_x_p3_neg,disp_x_p3_pos,disp_x_p4_neg,disp_x_p4_pos,disp_x_p5_neg,disp_x_p5_pos,disp_x_p6_neg,disp_x_p6_pos,disp_y_101,disp_y_102,disp_y_103,disp_y_104,disp_y_105,disp_y_106,disp_y_p1_neg,disp_y_p1_pos,disp_y_p2_neg,disp_y_p2_pos,disp_y_p3_neg,disp_y_p3_pos,disp_y_p4_neg,disp_y_p4_pos,disp_y_p5_neg,disp_y_p5_pos,disp_y_p6_neg,disp_y_p6_pos,disp_y_p7_neg,disp_y_p7_pos,disp_y_p8_neg,disp_y_p8_pos,disp_z_101,disp_z_102,disp_z_103,disp_z_104,disp_z_105,disp_z_106,disp_z_p1_neg,disp_z_p1_pos,disp_z_p2_neg,disp_z_p2_pos,disp_z_p3_neg,disp_z_p3_pos,disp_z_p4_neg,disp_z_p4_pos,disp_z_p5_neg,disp_z_p5_pos,disp_z_p6_neg,disp_z_p6_pos,humidity,ndof,nelem,strain_xx,strain_yy,strain_zz,temp,thermal_strain_xx,thermal_strain_yy,thermal_strain_zz,vonmises,vstrain
2419200,0,0,0,0,0,0,0,0,0,0,0,0,0,0,0,0,0,0,0,0,0,0,0,0,0,0,0,0,0,0,0,0,0,0,0,0,0,0,0,0,0,0,0,0,0,0,0,0,0,0,0,0,0,0,0,0,0,0,0,0,0,0,0,0,0,0,0,0,0,0,0,0,0,0,0
3419200,0.15971950132621,0.0027545092238481,0.0009181697412827,0.0009181697412827,0.0009181697412827,-0.00025530036930869,0.00025530036396927,-1.8058804951934e-12,-1.7968289206817e-12,-1.0793141490171e-12,-2.564384424522e-12,-0.00026028315909113,0.00026028315548072,-0.00026028316048619,0.00026028315687633,-0.00026028315957341,0.0002602831549807,-0.00026028316096402,0.00026028315635804,-0.00025115938087906,0.00025115937637572,-0.00025115938132171,0.0002511593768269,-4.5687093996522e-13,9.8872773622282e-13,-1.1748516385007e-12,1.6851221162643e-12,-0.00027017006291055,0.00027017006342311,-0.00027347155763912,0.00027347155667651,-0.00027347155805551,0.00027347155905368,-0.00027347155778774,0.00027347155781042,-0.00027347155820169,0.00027347156017817,-0.00026217885500962,0.00026217885321241,-0.00026217885273829,0.0002621788565226,-0.00026702026920661,0.00026702026927476,-0.00026702026815142,0.0002670202710584,-3.9928733623714e-12,-4.0098268003378e-12,-0.00023612018194783,0.00023612017039611,-2.5293808541511e-12,-5.444428103159e-12,-0.00024241919621722,0.00024241918811687,-0.00024241919719672,0.00024241918713715,-0.00024241919681019,0.000242419188697,-0.00024241919778229,0.00024241918770642,-0.00024077831419419,0.00024077830431751,-0.00024077831396296,0.00024077830412687,0.78394575003119,131490,2924,0.0010631833054377,0.0011250712183037,0.00098335553474052,31.872959351203,0.00017018367480963,0.00017018367480963,0.00017018367480963,2129132.595413,0.0031766473388437
4419200,0.35065951516454,0.0059209352749008,0.0019793882837461,0.0021478084093305,0.0017937385818242,-0.00050129136618689,0.00050129135399201,-4.3447460540786e-12,-4.3727657152732e-12,-2.6559239718016e-12,-6.8856686622548e-12,-0.00052300541110735,0.0005230054022051,-0.00052300541479758,0.00052300540586504,-0.00052300541250202,0.0005230054007754,-0.00052300541617491,0.00052300540438434,-0.0004834007810804,0.00048340077027134,-0.0004834007825671,0.00048340077167614,-1.1223307282725e-12,2.9290759158002e-12,-1.3545778244596e-12,3.0897276403532e-12,-0.0005802259485628,0.00058022595031111,-0.00059981955407136,0.00059981955290765,-0.00059981955665754,0.00059981955854024,-0.00059981955553024,0.00059981955713092,-0.0005998195581104,0.00059981956272146,-0.00054051980318935,0.00054051980194358,-0.00054051980094504,0.00054051980838529,-0.00056490996349009,0.00056490996281926,-0.00056490996221315,0.00056490996948645,-6.9825703490336e-12,-6.9754491989328e-12,-0.00042239619725716,0.00042239617871678,-4.6368302450777e-12,-9.2564791901242e-12,-0.00044264418334411,0.00044264416865006,-0.00044264418490233,0.00044264416709519,-0.00044264418499717,0.0004426441703018,-0.00044264418653175,0.00044264416871538,-0.00044305088508103,0.00044305086851107,-0.00044305088445963,0.00044305086788601,0.77879543345149,131490,2924,0.0020865206559249,0.0024146493583781,0.0017585421673718,33.606624219394,0.00018405299375515,0.00018405299375515,0.00018405299375515,3679145.0683536,0.0062793653047862
5419200,0.55062339461858,0.0091402010134741,0.0030277799166529,0.0035371680648721,0.0025752530319491,-0.00073839200886185,0.00073839200323797,-1.9274033765028e-12,-1.9553812300649e-12,-4.0772076316056e-13,-3.0534114556701e-12,-0.00078328664214679,0.00078328663776748,-0.00078328664378969,0.00078328663937584,-0.0007832866430457,0.00078328663685859,-0.00078328664468918,0.00078328663844117,-0.00070038043347701,0.00070038042786912,-0.00070038043372147,0.00070038042804207,-5.4082533109855e-13,1.9215766942098e-12,9.7282939837672e-13,3.5943484304168e-13,-0.00093434221973489,0.00093434222107155,-0.00098810425385372,0.00098810425460093,-0.00098810425519615,0.00098810425547566,-0.00098810425448894,0.00098810425686032,-0.00098810425582426,0.00098810425767629,-0.0008431415281744,0.00084314153090731,-0.00084314152829142,0.00084314152985148,-0.00089109407996663,0.00089109407872715,-0.00089109407718402,0.00089109408080496,-5.2952995557628e-13,-5.2238848256691e-13,-0.00058407702240814,0.00058407701930616,-6.4856848079575e-13,-1.0533476325338e-13,-0.00062217487791887,0.00062217487491006,-0.00062217487772237,0.00062217487509435,-0.0006221748790751,0.0006221748760661,-0.00062217487887171,0.00062217487623618,-0.00062071351859507,0.00062071351696069,-0.00062071351830309,0.00062071351667022,0.77316831871014,131490,2924,0.0030719011001521,0.0038853816211928,0.0024311511184969,36.2778166478,0.0002054225331824,0.0002054225331824,0.0002054225331824,4419641.8485228,0.0094327100274382
6419200,0.70689539502627,0.011475334500105,0.0037469310289097,0.0046310962875726,0.0030973071836227,-0.00088608381184996,0.0008860838078002,-1.2679121503453e-12,-1.2962565898764e-12,-1.4900353444136e-13,-2.8231813419832e-12,-0.00095605584661997,0.00095605584395093,-0.00095605584716206,0.00095605584445955,-0.00095605584751546,0.00095605584303281,-0.00095605584807016,0.00095605584352444,-0.00082812149323106,0.00082812148936828,-0.00082812149334397,0.00082812148940635,-7.0243677633277e-13,1.8453473170826e-12,7.6951125666521e-13,3.4004784706581e-13,-0.0012151089658616,0.0012151089669721,-0.0013080141389298,0.0013080141393076,-0.0013080141398752,0.0013080141399771,-0.0013080141392851,0.0013080141413905,-0.0013080141402235,0.0013080141420059,-0.001067780850367,0.0010677808527419,-0.0010677808517794,0.0010677808532978,-0.0011337271305188,0.0011337271290252,-0.001133727128536,0.0011337271320651,-2.2416974000361e-13,-2.1688797716235e-13,-0.0006780263277223,0.00067802632584595,-8.1760678737976e-13,-4.0179801440897e-13,-0.00073844304493508,0.00073844304329757,-0.00073844304477947,0.00073844304343789,-0.00073844304573493,0.00073844304409785,-0.00073844304557814,0.00073844304422813,-0.00071929560122783,0.00071929560087551,-0.0007192956014244,0.00071929560107396,0.72911593730661,131490,2924,0.003685291214787,0.0050498796085618,0.0028221004760543,36.740412957814,0.00020912330366252,0.00020912330366252,0.00020912330366252,4591074.40702,0.011624466685147
7419200,0.8322661631591,0.013284691175178,0.0042736131475595,0.0055019022703816,0.0035091757572371,-0.00098505759043082,0.00098505758632777,-1.2424327761492e-12,-1.2708474816863e-12,-1.6289925883358e-13,-2.624507058405e-12,-0.0010785790255617,0.0010785790228247,-0.0010785790263848,0.0010785790236135,-0.0010785790263911,0.0010785790219812,-0.0010785790272221,0.0010785790227495,-0.00091340470746511,0.00091340470365373,-0.00091340470780501,0.00091340470391923,-6.5209990232502e-13,1.6839369686462e-12,7.6379872529676e-13,2.35299870574e-13,-0.0014503709837452,0.0014503709847464,-0.0015838275095603,0.0015838275099283,-0.0015838275103907,0.0015838275104256,-0.001583827509841,0.0015838275117966,-0.0015838275106644,0.0015838275122416,-0.0012507356776149,0.0012507356799071,-0.0012507356786587,0.0012507356799032,-0.0013281406063902,0.0013281406049628,-0.0013281406044017,0.001328140607581,-5.9612264180367e-13,-5.8877723384789e-13,-0.00074695877822416,0.00074695877524021,-1.0524103789971e-12,-5.4270988933541e-13,-0.00082778102031226,0.00082778101794349,-0.00082778102012787,0.00082778101811369,-0.00082778102112233,0.00082778101875384,-0.00082778102093643,0.00082778101891404,-0.00078870619361056,0.00078870619245768,-0.00078870619374516,0.00078870619259463,0.71231678900554,131490,2924,0.0040962519329469,0.0060245527127067,0.0031090826159131,40.777855439273,0.00024142284351418,0.00024142284351418,0.00024142284351418,4449538.9924665,0.013318049737568
8419200,0.90789017688827,0.014355409161095,0.0045766992132087,0.0060129376683218,0.0037657722795648,-0.0010224860704915,0.0010224860686442,-4.9701766755436e-13,-5.2548534332529e-13,3.1839678238803e-13,-1.5979271844214e-12,-0.0011333129646902,0.001133312963593,-0.0011333129651087,0.0011333129639772,-0.00113331296534,0.0011333129629334,-0.0011333129657689,0.0011333129632996,-0.0009449884792882,0.000944988477367,-0.00094498847971635,0.00094498847772071,-5.0296878170779e-13,1.3072730637053e-12,1.0415500637134e-12,-2.6234480907558e-13,-0.0015932041477774,0.0015932041485582,-0.0017539978513278,0.001753997851926,-0.0017539978520342,0.0017539978517639,-0.001753997851512,0.0017539978533369,-0.0017539978522114,0.0017539978531223,-0.0013598601551131,0.0013598601577656,-0.001359860156893,0.001359860156985,-0.001440794437104,0.0014407944357054,-0.0014407944355658,0.0014407944377428,5.1525993563324e-13,5.2270382587457e-13,-0.00077549700209196,0.00077549700245902,-3.3859721491104e-13,9.6554629366468e-13,-0.00087289353091661,0.0008728935309919,-0.00087289353046387,0.00087289353142828,-0.00087289353148596,0.00087289353156155,-0.00087289353103437,0.0008728935319907,-0.00081485831816755,0.00081485831986135,-0.00081485831823827,0.00081485831993425,0.69845760321558,131490,2924,0.0042517672802694,0.0066157687457341,0.0032281191362774,41.436038113301,0.00024668830490641,0.00024668830490641,0.00024668830490641,4117148.3928231,0.014195822289564
9419200,0.94974317003263,0.014935733868165,0.0047391858903726,0.0062847149748683,0.0039118330029245,-0.0010297689597856,0.0010297689591657,-8.8626213485896e-14,-1.1705112315751e-13,5.182976810675e-13,-9.3715948806799e-13,-0.0011519868664565,0.0011519868662353,-0.0011519868666992,0.0011519868664438,-0.0011519868669561,0.0011519868657312,-0.0011519868672097,0.0011519868659221,-0.0009502341456487,0.00095023414481101,-0.00095023414616916,0.00095023414525714,-3.800643010612e-13,9.8271483167763e-13,1.3002289847794e-12,-7.1577742760856e-13,-0.0016727462539445,0.00167274625453,-0.0018504121724614,0.0018504121732564,-0.0018504121731521,0.0018504121726005,-0.001850412172582,0.0018504121743018,-0.0018504121732657,0.0018504121735931,-0.0014195528934862,0.0014195528964919,-0.0014195528958899,0.0014195528949402,-0.0015003083957196,0.0015003083943225,-0.0015003083945359,0.0015003083958353,1.00526153995e-12,1.0126833426308e-12,-0.00078415698833878,0.00078415699017364,-1.8587173351083e-13,1.8385933101776e-12,-0.00089301576577956,0.00089301576685519,-0.00089301576508568,0.00089301576753161,-0.00089301576621849,0.00089301576729434,-0.00089301576552712,0.00089301576796498,-0.00082029379403828,0.0008202937970984,-0.00082029379403354,0.00082029379709583,0.67991952503393,131490,2924,0.0042821780620993,0.0069448162144572,0.0032644245347534,41.144274325304,0.00024435419460244,0.00024435419460244,0.00024435419460244,3798235.0120153,0.014597349436079
10419200,0.97067037284756,0.015233989284044,0.0048232707417157,0.0064201417737664,0.003990576768562,-0.0010222889658651,0.0010222889677879,7.555248604106e-13,7.2708187012176e-13,1.0132437115413e-12,3.3156228276456e-13,-0.0011504724136927,0.0011504724153058,-0.0011504724135179,0.0011504724150968,-0.0011504724139394,0.0011504724150623,-0.0011504724137774,0.0011504724148376,-0.00094272753847729,0.00094272753981771,-0.00094272753908554,0.00094272754035162,-1.6506713378296e-13,4.4894743202295e-13,1.7743466184582e-12,-1.4972361428165e-12,-0.0017086220871154,0.0017086220873928,-0.001895908209106,0.001895908210276,-0.0018959082097042,0.0018959082086779,-0.0018959082090916,0.0018959082106765,-0.0018959082096828,0.0018959082090256,-0.0014447035880215,0.0014447035916975,-0.0014447035915233,0.0014447035887866,-0.0015245180539048,0.0015245180525062,-0.0015245180533142,0.0015245180531415,2.1322975362445e-12,2.1397532349486e-12,-0.00078003145940222,0.00078003146460024,3.3496132598495e-13,3.6337775852582e-12,-0.0008949726168072,0.0008949726202218,-0.00089497261568531,0.00089497262132371,-0.00089497261697406,0.00089497262038895,-0.00089497261585749,0.00089497262148786,-0.00081432302102797,0.00081432302707947,-0.000814323020915,0.00081432302696865,0.69326653990624,131490,2924,0.0042512808534087,0.0070931715932369,0.0032474884415397,38.08776284035,0.0002199021027228,0.0002199021027228,0.0002199021027228,3595748.7638886,0.01469937466104
11419200,0.98276162505697,0.015403442789567,0.0048711316509844,0.0064959973768809,0.0040363137617013,-0.0010173731151347,0.0010173731153446,1.9244625876654e-13,1.6396418741058e-13,4.5090859453725e-13,-2.5274416119231e-13,-0.0011508076063813,0.0011508076066261,-0.0011508076065627,0.0011508076067732,-0.00115080760664,0.0011508076063745,-0.0011508076068298,0.0011508076065016,-0.00093821723905537,0.00093821723910687,-0.0009382172396793,0.00093821723965636,-1.6317404455671e-13,4.5697086338321e-13,1.848186950922e-12,-1.5614549456821e-12,-0.0017352624264349,0.0017352624267219,-0.0019268962703291,0.0019268962715304,-0.0019268962713145,0.0019268962702548,-0.0019268962705272,0.0019268962721645,-0.0019268962715057,0.001926896270836,-0.001466312814353,0.0014663128181833,-0.0014663128180398,0.0014663128151774,-0.0015446420853962,0.0015446420839623,-0.0015446420848648,0.0015446420846632,1.257896395658e-12,1.2653963724212e-12,-0.00077956536020068,0.00077956536277338,-5.9093765314269e-13,2.8222664976884e-12,-0.00090023645982804,0.0009002364610918,-0.00090023645867371,0.00090023646222852,-0.00090023646018733,0.00090023646145138,-0.00090023645903602,0.00090023646258283,-0.00081167431861385,0.00081167432271643,-0.00081167431852626,0.00081167432263087,0.67903705729235,131490,2924,0.0042309991939417,0.0072032891601542,0.0032456877302665,37.626140712008,0.00021620912569607,0.00021620912569607,0.00021620912569607,3396939.8181494,0.014788738166255
12419200,0.98969616963907,0.015503220492948,0.0048995194271735,0.0065398319565505,0.0040638691092239,-0.0010115456021544,0.0010115456027929,3.3011149436456e-13,3.0160456657585e-13,5.5605888226814e-13,-6.8409263085147e-14,-0.0011471363467343,0.001147136347311,-0.0011471363468556,0.001147136347398,-0.0011471363469666,0.0011471363470865,-0.0011471363470965,0.0011471363471537,-0.00093290145441489,0.00093290145481297,-0.00093290145506912,0.00093290145539274,-1.4945675772805e-13,3.9619301422243e-13,1.923457827919e-12,-1.682549540443e-12,-0.0017481590477225,0.0017481590479636,-0.0019438553667003,0.0019438553679489,-0.0019438553676676,0.0019438553665224,-0.0019438553668512,0.0019438553684832,-0.0019438553678115,0.0019438553670038,-0.0014750569715222,0.0014750569754738,-0.0014750569753793,0.0014750569722536,-0.0015524667345653,0.0015524667330915,-0.0015524667340836,0.0015524667336967,1.4195256491717e-12,1.4270576102519e-12,-0.00077685122453591,0.00077685122760788,-5.2131307424343e-13,3.0910291437917e-12,-0.00089973168962995,0.00089973169124617,-0.00089973168840889,0.00089973169244934,-0.00089973168994126,0.0008997316915578,-0.00089973168872368,0.00089973169275617,-0.00080798274503787,0.00080798274958284,-0.00080798274492135,0.00080798274946831,0.69352359007382,131490,2924,0.0042068890222188,0.0072566063315432,0.0032344904754915,36.800801300811,0.00020960641040649,0.00020960641040649,0.00020960641040649,3292589.4812388,0.014807023493704
13419200,0.99356865240328,0.015557568865372,0.004914984575534,0.0065635752613015,0.0040790090285363,-0.0010034801995877,0.0010034802013164,6.8938598384905e-13,6.6085392878338e-13,8.1730341980919e-13,4.2804433530408e-13,-0.0011418895825943,0.0011418895839653,-0.00114188958255,0.0011418895838868,-0.0011418895827488,0.0011418895838199,-0.0011418895827143,0.0011418895837226,-0.00092522440769721,0.00092522440899256,-0.00092522440839727,0.00092522440961809,-7.2288115177114e-14,2.4690810418573e-13,2.0852854136091e-12,-1.9135771885892e-12,-0.0017555093271416,0.0017555093273133,-0.0019523219434864,0.0019523219448788,-0.0019523219443772,0.0019523219431073,-0.0019523219435536,0.0019523219451729,-0.0019523219444374,0.0019523219433484,-0.0014810376404923,0.0014810376446822,-0.0014810376446751,0.0014810376410199,-0.0015574598462262,0.0015574598447711,-0.0015574598459028,0.0015574598450907,1.8807597646684e-12,1.8883189602108e-12,-0.00077165761457313,0.00077165761903216,-2.4424145035605e-13,3.7692059296329e-12,-0.00089766757565811,0.00089766757824618,-0.00089766757430165,0.00089766757958367,-0.00089766757585848,0.00089766757844689,-0.00089766757450656,0.00089766757978064,-0.00080154840176095,0.00080154840749288,-0.00080154840158955,0.0008015484073234,0.67547695236409,131490,2924,0.0041734864631107,0.0072869529465047,0.0032129820018459,34.78620334291,0.00019348962674328,0.00019348962674328,0.00019348962674328,3186972.5744355,0.01478211282932
14419200,0.99580494446411,0.01558854222472,0.0049237991242731,0.0065770441919924,0.0040876989084548,-0.00099540600885087,0.0009954060107875,7.5816755173702e-13,7.2962645960827e-13,8.1041467804964e-13,5.7966217407142e-13,-0.0011342870775684,0.0011342870790747,-0.0011342870774973,0.0011342870789694,-0.0011342870776721,0.0011342870789827,-0.0011342870776103,0.0011342870788582,-0.00091750324430831,0.00091750324581538,-0.00091750324502385,0.00091750324645639,-3.5020224273834e-14,1.2888041573294e-13,2.1958028609063e-12,-2.1022714829316e-12,-0.0017557543428288,0.0017557543429222,-0.0019550793124314,0.0019550793138965,-0.0019550793133803,0.0019550793119858,-0.0019550793125131,0.0019550793141019,-0.0019550793134549,0.0019550793121383,-0.0014788479737884,0.0014788479781423,-0.001478847978255,0.0014788479741763,-0.0015548263631411,0.0015548263616593,-0.0015548263629622,0.0015548263618175,1.9587546908005e-12,1.9663280035586e-12,-0.00076517530796783,0.00076517531266006,-3.106659799558e-13,4.0016740861624e-12,-0.00089161598853305,0.00089161599123487,-0.00089161598707741,0.00089161599267145,-0.00089161598870969,0.00089161599141185,-0.0008916159872588,0.0008916159928449,-0.00079475624418907,0.00079475625019966,-0.0007947562440024,0.0007947562500149,0.66541368792726,131490,2924,0.0041400140087764,0.007287964695736,0.0031860893240606,32.634954752944,0.00017627963802355,0.00017627963802355,0.00017627963802355,3147501.9004497,0.014721883689987
15419200,0.99696891076675,0.015605585848569,0.0049287019888714,0.0065843417072895,0.0040925421524076,-0.00098077301395458,0.00098077301877726,1.7130807805287e-12,1.6840792778902e-12,1.4621477662129e-12,1.9183536309075e-12,-0.0011202432137639,0.0011202432173958,-0.001120243213207,0.0011202432168044,-0.0011202432136415,0.0011202432175352,-0.0011202432130968,0.0011202432169275,-0.00090313754417772,0.00090313754808801,-0.0009031375449715,0.00090313754880638,1.598256174371e-13,-3.361606716987e-13,2.6075472235752e-12,-2.7743578923296e-12,-0.0017484495910123,0.0017484495908446,-0.0019494720743421,0.0019494720761477,-0.0019494720750874,0.0019494720732914,-0.0019494720742283,0.0019494720757021,-0.0019494720749665,0.0019494720727928,-0.0014697597753721,0.0014697597803026,-0.0014697597807701,0.0014697597751497,-0.001545479107779,0.0015454791063121,-0.0015454791081038,0.00154547910568,3.2472511516475e-12,3.2552893472626e-12,-0.00075137731459123,0.00075137732314164,4.5345605899337e-13,5.8732386390911e-12,-0.00087845155715061,0.00087845156262045,-0.00087845155532116,0.00087845156442778,-0.0008784515570191,0.00087845156248959,-0.0008784515551975,0.00087845156429652,-0.00078083046609055,0.00078083047540487,-0.00078083046578692,0.00078083047510223,0.70136297395748,131490,2924,0.0040793201281545,0.0072577401409116,0.0031288117475303,27.046974632263,0.00013157579705811,0.00013157579705811,0.00013157579705811,3125728.0760852,0.014571518929354
16419200,0.99771678197641,0.015616149036028,0.0049317293774108,0.006588880061338,0.0040955395972791,-0.00097263966804268,0.00097263967054372,9.5129810026074e-13,9.2225863996985e-13,7.7750472570551e-13,1.0356573025568e-12,-0.0011148947351657,0.0011148947369619,-0.0011148947350411,0.0011148947368027,-0.0011148947351128,0.0011148947370333,-0.001114894734996,0.0011148947368534,-0.00089510031357324,0.00089510031567613,-0.00089510031433846,0.00089510031636582,1.349287897828e-13,-1.8679785227737e-13,2.6374891323998e-12,-2.6835083147807e-12,-0.0017501756120277,0.0017501756119809,-0.001949762761283,0.0019497627631048,-0.0019497627624692,0.0019497627607598,-0.0019497627614406,0.001949762763067,-0.0019497627626198,0.0019497627606691,-0.0014725941997564,0.0014725942048141,-0.0014725942051831,0.0014725941997989,-0.001547512783317,0.0015475127818309,-0.0015475127835777,0.0015475127814703,2.1778278953233e-12,2.1859037221418e-12,-0.00074527558007766,0.00074527558539919,-5.7751947482353e-13,4.7540899974316e-12,-0.00087554152069564,0.00087554152355567,-0.00087554151890185,0.00087554152533012,-0.00087554152082565,0.00087554152368635,-0.00087554151903674,0.00087554152545742,-0.00077349659622087,0.00077349660306432,-0.00077349659598677,0.00077349660283112,0.67695251043034,131490,2924,0.0040456152162845,0.0072648131092684,0.003103506098722,24.407506130635,0.00011046004904508,0.00011046004904508,0.00011046004904508,3041580.0385744,0.014518847554434
17419200,0.99821911509251,0.01562344039562,0.004933827229826,0.0065919884703451,0.004097624695449,-0.00096472458291606,0.00096472458527703,9.0065970605245e-13,8.7169176781834e-13,7.7451406890626e-13,9.2832099337206e-13,-0.0011065290626587,0.0011065290643922,-0.0011065290625542,0.0011065290642532,-0.0011065290626395,0.0011065290644293,-0.0011065290625426,0.0011065290642694,-0.00088756183528268,0.00088756183724267,-0.00088756183604411,0.00088756183792872,8.4698412521637e-14,-1.3231131092145e-13,2.5924168622679e-12,-2.6350896762898e-12,-0.0017456668882415,0.0017456668881982,-0.001947302482842,0.0019473024846018,-0.0019473024840209,0.001947302482312,-0.0019473024829786,0.0019473024846115,-0.0019473024841505,0.0019473024822688,-0.0014662165110099,0.0014662165160142,-0.0014662165163533,0.0014662165110989,-0.001540995319755,0.0015409953182005,-0.0015409953199231,0.0015409953179543,2.1090963332606e-12,2.1171039709858e-12,-0.00073802066967309,0.00073802067480034,-6.0207460703404e-13,4.6351800261893e-12,-0.00086771980118613,0.00086771980394411,-0.00086771979942405,0.00086771980568705,-0.00086771980132489,0.0008677198040835,-0.00086771979956769,0.00086771980582307,-0.0007664523487637,0.0007664523554244,-0.00076645234853527,0.000766452355197,0.69391687943996,131490,2924,0.004012777974956,0.0072461782786366,0.0030733815975229,21.970371099569,9.0962968796553e-05,9.0962968796553e-05,9.0962968796553e-05,3036136.2992709,0.014436062277189
18419200,0.99853117726368,0.015627894982558,0.0049351080396342,0.0065938878015528,0.0040988991413714,-0.00095294070700632,0.00095294071238825,1.9002381346911e-12,1.8712442600366e-12,1.5551623585045e-12,2.2381975657772e-12,-0.0010963770683074,0.0010963770722897,-0.001096377067706,0.0010963770716538,-0.0010963770681117,0.001096377072505,-0.0010963770675217,0.0010963770718519,-0.00087590364792342,0.00087590365233478,-0.00087590364877741,0.00087590365311334,2.5488815451831e-13,-4.6664518548637e-13,2.8992244895055e-12,-3.0994588430717e-12,-0.0017408195456689,0.0017408195454675,-0.0019421311831195,0.0019421311851693,-0.0019421311839785,0.0019421311820211,-0.0019421311829994,0.0019421311845679,-0.0019421311838513,0.0019421311813667,-0.0014614675206305,0.0014614675260576,-0.0014614675265952,0.0014614675202608,-0.0015358253906957,0.0015358253892115,-0.001535825391205,0.0015358253883196,3.4460007564541e-12,3.4540353639435e-12,-0.0007273225990607,0.00072732260819225,3.6772629562585e-13,6.4023425120957e-12,-0.00085885192250594,0.00085885192820359,-0.00085885192047235,0.00085885193021489,-0.00085885192233054,0.00085885192802883,-0.00085885192030488,0.0008588519300398,-0.00075519495212008,0.00075519496209249,-0.00075519495176121,0.00075519496173458,0.68264893512213,131490,2924,0.003963904963984,0.0072260886557406,0.0030289726576038,17.465812508096,5.4926500064771e-05,5.4926500064771e-05,5.4926500064771e-05,2994012.7776328,0.014321072608231
19419200,0.99878977462673,0.015631807559501,0.0049362423691467,0.0065955364030973,0.0041000287872571,-0.00095065145721385,0.00095065145763317,2.5980165147318e-13,2.3121593570765e-13,1.9052290208259e-13,1.8738433436074e-13,-0.0010940300917685,0.0010940300919899,-0.0010940300920164,0.0010940300922035,-0.0010940300918045,0.0010940300919734,-0.0010940300920565,0.0010940300921626,-0.00087396140198601,0.00087396140243394,-0.00087396140271764,0.00087396140309095,4.4970449713042e-14,-3.232615951684e-14,2.5795681371406e-12,-2.5641653723903e-12,-0.0017415007858981,0.0017415007859131,-0.0019438817096758,0.0019438817113991,-0.001943881711207,0.0019438817095408,-0.0019438817100348,0.0019438817117401,-0.0019438817115589,0.0019438817098289,-0.001461240902998,0.0014612409080317,-0.0014612409083372,0.0014612409032676,-0.0015353034800285,0.0015353034784306,-0.0015353034801537,0.0015353034784106,1.2121121766874e-12,1.2197413259751e-12,-0.00072608508271021,0.00072608508514326,-1.4549518757483e-12,3.6770571748612e-12,-0.00085751537738129,0.00085751537800728,-0.00085751537565937,0.00085751537971234,-0.00085751537773127,0.00085751537835764,-0.00085751537601197,0.00085751538005707,-0.00075387704040651,0.00075387704498712,-0.0007538770402397,0.00075387704482209,0.72156127329484,131490,2924,0.0039544155951271,0.0072289107343547,0.0030238381551667,17.551723109248,5.5613784873982e-05,5.5613784873982e-05,5.5613784873982e-05,2971220.1442398,0.014309098641169
20419200,0.99901485613123,0.015635250036285,0.0049372420389478,0.0065969822077978,0.0041010257895389,-0.00095087494791587,0.00095087494723778,-1.1369521051289e-13,-1.4223371781711e-13,9.3810354746292e-14,-4.9325457847004e-13,-0.0010964224980615,0.001096422497569,-0.0010964224984923,0.0010964224979655,-0.0010964224982854,0.0010964224973565,-0.0010964224987209,0.0010964224977292,-0.00087422768198287,0.00087422768139188,-0.00087422768269506,0.00087422768202951,-1.2031723615573e-13,3.7594404457926e-13,2.2203505815786e-12,-1.9709688470782e-12,-0.0017481031157829,0.0017481031160325,-0.0019488525987776,0.0019488526002258,-0.0019488526002046,0.0019488525988959,-0.0019488525990983,0.0019488526009103,-0.0019488526005182,0.0019488525995274,-0.0014692946855256,0.0014692946900504,-0.0014692946899727,0.0014692946862617,-0.0015426239924942,0.0015426239908897,-0.0015426239921008,0.0015426239914809,6.9279457089553e-13,7.0037392758668e-13,-0.00072829606924256,0.00072829607016655,-1.5106228809197e-12,2.6672796524669e-12,-0.00086216438075448,0.00086216438045499,-0.00086216437935031,0.00086216438184321,-0.00086216438121852,0.00086216438091936,-0.00086216437981603,0.00086216438230101,-0.00075496223273003,0.00075496223582052,-0.00075496223259912,0.00075496223569146,0.72908504895782,131490,2924,0.0039553781541223,0.0072561696311123,0.0030330419808685,18.600134564715,6.4001076517723e-05,6.4001076517723e-05,6.4001076517723e-05,2895659.5583776,0.014347079485179
21419200,0.99916787865009,0.015637528568486,0.0049379014752847,0.0065979406212907,0.0041016864719107,-0.00094124630826821,0.00094124631252547,1.5286168275405e-12,1.5001067952395e-12,1.1856001391855e-12,1.8511302727702e-12,-0.0010878158922448,0.0010878158952978,-0.0010878158918669,0.0010878158948856,-0.0010878158920573,0.0010878158955059,-0.0010878158916888,0.0010878158950746,-0.00086502337935508,0.00086502338291481,-0.00086502338020216,0.00086502338368738,2.7450531993326e-13,-4.4253812782279e-13,2.8446805675496e-12,-3.0021706975107e-12,-0.0017432240552372,0.0017432240550786,-0.0019442406818189,0.0019442406838469,-0.0019442406828605,0.0019442406809954,-0.0019442406818562,0.001944240683417,-0.0019442406828908,0.0019442406805124,-0.0014640961126202,0.0014640961179467,-0.0014640961184715,0.0014640961123292,-0.0015371412758204,0.0015371412744303,-0.0015371412763691,0.0015371412735819,2.8960468806969e-12,2.9035957971415e-12,-0.00071960411415005,0.00071960412164266,-9.9881331046839e-14,5.7692470586096e-12,-0.00085447363953067,0.00085447364392434,-0.00085447363755499,0.00085447364587918,-0.00085447363948649,0.00085447364388048,-0.0008544736375172,0.00085447364583344,-0.00074625005253777,0.00074625006120648,-0.00074625005220838,0.00074625006087902,0.70949276287772,131490,2924,0.0039154371137503,0.0072359640482312,0.002996955344001,15.216529436351,3.6932235490812e-05,3.6932235490812e-05,3.6932235490812e-05,2868779.6760281,0.014249474040968
22419200,0.99929461952312,0.01563943468151,0.0049384542545795,0.0065987395008177,0.0041022409261131,-0.0009382361558735,0.00093823615685032,4.4055112970069e-13,4.1205121358886e-13,3.3318528832991e-13,4.31164710567e-13,-0.0010844635533505,0.0010844635539725,-0.0010844635535217,0.0010844635541096,-0.0010844635533524,0.0010844635539897,-0.0010844635535288,0.0010844635541034,-0.00086241598444125,0.00086241598533785,-0.00086241598520389,0.000862415986026,8.7218276717986e-14,-8.7063575561647e-14,2.5973334767746e-12,-2.593594355708e-12,-0.0017421210454563,0.0017421210454595,-0.0019444077514462,0.0019444077532105,-0.0019444077528934,0.0019444077512309,-0.0019444077517566,0.001944407753435,-0.0019444077531968,0.0019444077514024,-0.0014619147827562,0.0014619147877907,-0.0014619147881079,0.0014619147829484,-0.0015347829642654,0.0015347829627339,-0.0015347829644483,0.0015347829625815,1.426060449538e-12,1.4336076895633e-12,-0.00071734540155008,0.0007173454046454,-1.25782889772e-12,3.9275174095023e-12,-0.00085177249954571,0.00085177250066602,-0.00085177249780463,0.00085177250238969,-0.00085177249984174,0.00085177250096237,-0.00085177249810379,0.00085177250268091,-0.00074415138062798,0.00074415138572007,-0.00074415138042855,0.00074415138552258,0.71603060868605,131490,2924,0.003902949655919,0.0072314115211203,0.0029875759889641,14.85796900721,3.4063752057678e-05,3.4063752057678e-05,3.4063752057678e-05,2858738.8670005,0.014222671576801
23419200,0.99940718853148,0.01564109875905,0.0049389363545814,0.0065994373314581,0.0041027250730109,-0.00093806122902828,0.00093806122865114,-1.5247161047931e-14,-4.3765328153219e-14,1.2089969262679e-13,-3.0967395143806e-13,-0.0010849477420888,0.0010849477417893,-0.0010849477424826,0.0010849477421489,-0.0010849477422621,0.0010849477416293,-0.0010849477426606,0.001084947741965,-0.00086246718260474,0.00086246718229436,-0.00086246718333867,0.00086246718295377,-7.5877417291104e-14,2.6660656123491e-13,2.2849860775968e-12,-2.0981414326312e-12,-0.0017451918717597,0.0017451918719466,-0.0019474423696937,0.0019474423711949,-0.0019474423711315,0.0019474423697482,-0.0019474423700195,0.0019474423717821,-0.0019474423714502,0.0019474423702824,-0.0014650605182325,0.0014650605228316,-0.0014650605228542,0.0014650605188415,-0.0015375300783906,0.0015375300768092,-0.0015375300781328,0.0015375300772332,8.050037753343e-13,8.1256838247604e-13,-0.00071843757280584,0.00071843757407209,-1.4872943582959e-12,2.88284361493e-12,-0.00085355548476037,0.00085355548467631,-0.00085355548329219,0.0008535554861284,-0.00085355548519459,0.00085355548511086,-0.0008535554837283,0.00085355548655659,-0.00074485946015738,0.00074485946357152,-0.000744859460007,0.00074485946342302,0.70402771110741,131490,2924,0.0039022404874579,0.0072440993742227,0.0029921208557749,15.708000064579,4.0864000516629e-05,4.0864000516629e-05,4.0864000516629e-05,2822225.8204466,0.014239434455023
24419200,0.99951346985317,0.015642697327742,0.0049394009262303,0.0066001040722601,0.0041031923292521,-0.00094067844169096,0.00094067843975051,-5.5088983613483e-13,-5.7944310648759e-13,1.030936685739e-13,-1.422924824741e-12,-0.0010873237777522,0.0010873237765434,-0.0010873237783854,0.0010873237771423,-0.0010873237782772,0.0010873237760165,-0.0010873237789172,0.0010873237765936,-0.00086541261491267,0.00086541261303617,-0.00086541261561304,0.00086541261366196,-4.2588716591001e-13,9.9925653222239e-13,1.3631092991231e-12,-8.0906181312874e-13,-0.0017492240153633,0.0017492240159188,-0.0019522562753521,0.0019522562761298,-0.0019522562763613,0.0019522562757145,-0.0019522562755344,0.0019522562772897,-0.0019522562765366,0.0019522562768214,-0.0014685190059403,0.0014685190090963,-0.0014685190084895,0.0014685190073743,-0.001540695957334,0.0015406959557987,-0.0015406959560982,0.0015406959573803,6.2601749324236e-14,7.0212575642245e-14,-0.00072212593717543,0.00072212593630776,-1.1592248805933e-12,1.0030498327e-12,-0.00085694644444153,0.00085694644336077,-0.00085694644370737,0.00085694644408031,-0.00085694644502633,0.00085694644394594,-0.00085694644429288,0.00085694644465793,-0.00074845001852494,0.00074845001953877,-0.00074845001843176,0.00074845001944741,0.71547766069841,131490,2924,0.0039131094279346,0.0072607857124871,0.0030074411169423,17.887456905379,5.8299655243032e-05,5.8299655243032e-05,5.8299655243032e-05,2800345.0329464,0.014282917034956
25419200,0.99961035783548,0.015644228630175,0.00493984888299,0.0066007367706529,0.0041036429765325,-0.0009432148265946,0.00094321482480536,-5.0059046098151e-13,-5.2919722705755e-13,1.2922875987068e-13,-1.3418793594478e-12,-0.001090633313049,0.001090633311942,-0.0010906333136589,0.0010906333125177,-0.0010906333135558,0.0010906333114332,-0.0010906333141732,0.0010906333119878,-0.00086813702285303,0.00086813702110806,-0.00086813702355848,0.00086813702173882,-4.0763834104614e-13,9.6275200035196e-13,1.2698047965704e-12,-7.332286591913e-13,-0.0017547510655429,0.0017547510660809,-0.0019574269583064,0.0019574269590312,-0.0019574269592335,0.0019574269586419,-0.0019574269584854,0.0019574269601508,-0.0019574269594056,0.0019574269597085,-0.0014744464679945,0.001474446470948,-0.0014744464703683,0.0014744464693837,-0.0015461749052113,0.0015461749037674,-0.0015461749040172,0.0015461749052828,1.172556973307e-13,1.2490209609141e-13,-0.00072607497407622,0.0007260749733839,-1.0201885986445e-12,9.7431628126229e-13,-0.00086170913324476,0.00086170913235461,-0.00086170913256554,0.000861709133019,-0.00086170913381529,0.00086170913292552,-0.00086170913313694,0.00086170913358254,-0.00075189962111688,0.00075189962220201,-0.00075189962101733,0.00075189962210419,0.75063515068095,131490,2924,0.0039236535202215,0.0072836301764197,0.0030238507945905,19.932102690253,7.4656821522028e-05,7.4656821522028e-05,7.4656821522028e-05,2758061.8299446,0.014333433562019
26419200,0.99968977795414,0.01564551216654,0.0049402250577176,0.0066012649328643,0.0041040221759579,-0.00094235013280046,0.00094235013289837,1.2583095742121e-13,9.7220822135141e-14,6.0758715186487e-13,-5.0733556007042e-13,-0.0010914954234446,0.0010914954237228,-0.0010914954237477,0.0010914954239917,-0.0010914954238332,0.0010914954233338,-0.0010914954241461,0.0010914954235838,-0.00086747581837577,0.00086747581817218,-0.00086747581913333,0.00086747581885503,-2.9357679613628e-13,7.3543794464032e-13,1.4161540315841e-12,-9.8820457573443e-13,-0.0017584559911291,0.001758455991558,-0.0019599797836241,0.0019599797845016,-0.0019599797843286,0.0019599797836064,-0.0019599797836557,0.0019599797852359,-0.0019599797843531,0.0019599797842877,-0.0014791694053047,0.0014791694084243,-0.0014791694079797,0.0014791694063807,-0.0015503893200434,0.0015503893186853,-0.0015503893190816,0.0015503893197648,9.5475225944443e-13,9.6239824645301e-13,-0.00072678397719515,0.00072678397900711,-3.7060306068383e-13,2.0411320097079e-12,-0.00086418962113835,0.00086418962209912,-0.00086418962031639,0.00086418962290432,-0.00086418962151669,0.00086418962247783,-0.00086418962069743,0.00086418962327748,-0.00075201407012056,0.00075201407325056,-0.00075201406994461,0.00075201407307634,0.76690557153208,131490,2924,0.0039200917189596,0.0072989140541128,0.0030268106413926,20.395176073565,7.8361408588518e-05,7.8361408588518e-05,7.8361408588518e-05,2704224.8507601,0.014348339672582
27419200,0.99975905074226,0.015646589149496,0.0049405393409271,0.006601709670166,0.0041043401384029,-0.00094390759399335,0.00094390759298348,-2.3906501106625e-13,-2.6775044000803e-13,2.4204750451194e-13,-8.9931029139379e-13,-0.0010940145707322,0.0010940145701373,-0.0010940145712246,0.0010940145705953,-0.0010940145711321,0.0010940145697387,-0.0010940145716324,0.0010940145701761,-0.00086954839404495,0.00086954839299962,-0.00086954839477803,0.00086954839365786,-2.9812836297139e-13,7.4875956708567e-13,1.4133501172417e-12,-9.7681739419324e-13,-0.0017629624545608,0.0017629624549983,-0.0019641882707527,0.0019641882716172,-0.0019641882716616,0.0019641882709483,-0.0019641882709309,0.0019641882725193,-0.0019641882718328,0.0019641882717974,-0.0014840483693466,0.0014840483724709,-0.0014840483720524,0.0014840483704808,-0.0015548495038364,0.0015548495024781,-0.0015548495029103,0.0015548495036244,4.5716309280485e-13,4.6489229785942e-13,-0.00072992839730598,0.00072992839762453,-8.6250606279654e-13,1.5241356758337e-12,-0.00086816303513293,0.00086816303491625,-0.000868163034322,0.00086816303571156,-0.0008681630356291,0.00086816303541286,-0.00086816303481972,0.00086816303620147,-0.00075500862259917,0.00075500862458426,-0.00075500862246578,0.00075500862445244,0.73787290475496,131490,2924,0.0039265732988,0.0073175316995461,0.0030398787086492,22.256951369555,9.3255610956437e-05,9.3255610956437e-05,9.3255610956437e-05,2661470.8397714,0.014387057889187
28419200,0.99981597733597,0.01564752076141,0.0049408130411011,0.0066020904463118,0.0041046172739967,-0.00094464829201092,0.00094464829154578,-5.932461046799e-14,-8.7908053325012e-14,3.7547290823686e-13,-6.6010483425043e-13,-0.0010939858348868,0.0010939858346948,-0.0010939858352884,0.0010939858350621,-0.0010939858352517,0.001093985834332,-0.0010939858356617,0.0010939858346792,-0.000870673541204,0.00087067354060693,-0.00087067354194951,0.00087067354127781,-2.699036369821e-13,6.7604355321586e-13,1.4683549074714e-12,-1.0747699312222e-12,-0.001764021956483,0.0017640219568775,-0.001966589675115,0.0019665896760251,-0.0019665896759731,0.0019665896751995,-0.0019665896752511,0.0019665896768146,-0.0019665896761021,0.0019665896759359,-0.0014840131227058,0.0014840131259023,-0.0014840131255425,0.0014840131237447,-0.0015546816599162,0.0015546816585609,-0.0015546816590656,0.0015546816595853,7.0062422876368e-13,7.0825137811244e-13,-0.00073131115771856,0.00073131115876588,-6.9375501214295e-13,1.8500409062335e-12,-0.00086867253675038,0.00086867253706705,-0.00086867253588625,0.00086867253791507,-0.00086867253718823,0.00086867253750528,-0.0008686725363262,0.00086867253834714,-0.00075658690238347,0.00075658690497854,-0.00075658690223126,0.00075658690482811,0.77519218307141,131490,2924,0.0039296472870021,0.0073219333391899,0.003045620018814,23.444426244902,0.00010275540995921,0.00010275540995921,0.00010275540995921,2658306.2988238,0.014400454584977
29419200,0.99986223202506,0.015648191545123,0.0049410077087994,0.0066023687124686,0.004104815123855,-0.0009458177290565,0.0009458177284794,-9.6109135623055e-14,-1.2399321192015e-13,3.2937138094511e-13,-6.843009774278e-13,-0.0010968403812633,0.0010968403809681,-0.0010968403816898,0.0010968403813608,-0.0010968403816215,0.0010968403806124,-0.0010968403820562,0.0010968403809847,-0.00087198774177858,0.00087198774110191,-0.00087198774252599,0.00087198774177605,-2.5640490230036e-13,6.6618620729219e-13,1.4957005426692e-12,-1.098330387937e-12,-0.0017692503423294,0.0017692503427276,-0.0019705439776799,0.0019705439786165,-0.0019705439785757,0.0019705439777968,-0.0019705439778392,0.0019705439794154,-0.001970543978728,0.0019705439785426,-0.0014903750104859,0.0014903750137288,-0.0014903750133673,0.0014903750115154,-0.0015605452644873,0.0015605452631425,-0.0015605452636583,0.0015605452641417,6.4678169714547e-13,6.5370919139763e-13,-0.00073410185569956,0.0007341018565833,-7.696089595628e-13,1.8235581233525e-12,-0.00087314986183432,0.0008731498619964,-0.00087314986095406,0.00087314986286064,-0.00087314986228788,0.00087314986244986,-0.00087314986140955,0.00087314986330778,-0.00075874228468071,0.00075874228716522,-0.00075874228452831,0.00075874228701595,0.68887568164697,131490,2924,0.0039345271143989,0.0073435191749017,0.0030572238416291,24.783779183787,0.00011347023347029,0.00011347023347029,0.00011347023347029,2604644.930191,0.014439086997804
30419200,0.99989902477259,0.015648715939062,0.0049411597047339,0.0066025861863879,0.0041049700479405,-0.00094760063166248,0.00094760063106605,-1.0327004370046e-13,-1.3116697754365e-13,3.1211502760015e-13,-6.9225879314553e-13,-0.0010952853265883,0.001095285326293,-0.0010952853270103,0.0010952853266812,-0.0010952853269436,0.0010952853259408,-0.0010952853273736,0.0010952853263084,-0.00087409728406469,0.00087409728338172,-0.00087409728480793,0.00087409728405171,-2.6839030086054e-13,6.4616499539705e-13,1.4940995915772e-12,-1.128182299511e-12,-0.0017671597638201,0.0017671597641869,-0.001972147681177,0.0019721476820945,-0.0019721476820869,0.0019721476812706,-0.0019721476813398,0.0019721476828912,-0.0019721476822426,0.0019721476820144,-0.0014851155407515,0.0014851155439884,-0.0014851155436829,0.0014851155417693,-0.0015555258093837,0.0015555258080054,-0.001555525808581,0.0015555258090153,6.439556511263e-13,6.5089952723094e-13,-0.00073530046426507,0.00073530046513968,-7.9222073937669e-13,1.8285740997135e-12,-0.0008709402960547,0.00087094029622385,-0.00087094029516567,0.00087094029709704,-0.00087094029650307,0.00087094029667214,-0.00087094029561598,0.00087094029753903,-0.00076069769360224,0.00076069769609502,-0.00076069769345439,0.00076069769595028,0.67661895266558,131490,2924,0.0039418991895838,0.0073349537566132,0.0030621835250105,26.134524922077,0.00012427619937662,0.00012427619937662,0.00012427619937662,2655620.5997646,0.014442877706365
31419200,0.99992881093338,0.015649172125981,0.0049412933851516,0.006602773018097,0.0041051057227328,-0.00095130477867794,0.0009513047772622,-3.7571809927585e-13,-4.0705608648757e-13,1.6659333715849e-13,-1.121101104072e-12,-0.0010985574279326,0.0010985574270727,-0.0010985574284905,0.0010985574275946,-0.0010985574283801,0.0010985574266254,-0.0010985574289455,0.0010985574271262,-0.00087795092850882,0.00087795092711402,-0.00087795092924017,0.00087795092776537,-3.5508824053329e-13,8.3571873407222e-13,1.3221633735224e-12,-8.5746498150399e-13,-0.0017713723566898,0.0017713723571557,-0.0019769783693417,0.0019769783701147,-0.0019769783702623,0.0019769783695999,-0.0019769783695266,0.0019769783711202,-0.0019769783704401,0.0019769783705525,-0.0014888401979018,0.0014888402008966,-0.0014888402004432,0.0014888401991543,-0.001559019100065,0.0015590190986649,-0.0015590190990372,0.0015590190999931,2.6963211586512e-13,2.8002019557524e-13,-0.0007397705412993,0.0007397705410702,-9.5109823871932e-13,1.2219993525821e-12,-0.00087499305871017,0.00087499305814054,-0.00087499305797135,0.0008749930588644,-0.00087499305924082,0.0008749930586734,-0.00087499305850312,0.00087499305939015,-0.00076497860495668,0.00076497860645934,-0.00076497860484022,0.00076497860633925,0.72613761593662,131490,2924,0.003957275986352,0.0073523885286204,0.0030807480362609,28.445480594798,0.00014276384475839,0.00014276384475839,0.00014276384475839,2641872.2756846,0.014494994195224
32419200,0.99995056580484,0.015649522193677,0.0049413964746413,0.0066029153923131,0.0041052103267226,-0.00095195498812332,0.00095195498792432,2.7631214708887e-14,-3.700289417338e-15,4.7604716113012e-13,-5.8164246651602e-13,-0.0011017018549821,0.001101701855011,-0.0011017018553447,0.0011017018553375,-0.0011017018553532,0.0011017018546409,-0.0011017018557249,0.0011017018549479,-0.00087842752006678,0.00087842751966145,-0.00087842752083066,0.00087842752034531,-2.7780742493857e-13,6.9223905845429e-13,1.4345830568253e-12,-1.0331501438546e-12,-0.0017773315119151,0.0017773315123174,-0.001980671820213,0.0019806718211011,-0.0019806718209967,0.0019806718202473,-0.0019806718203021,0.001980671821857,-0.0019806718210788,0.0019806718209502,-0.0014968278545668,0.001496827857704,-0.0014968278573171,0.0014968278556095,-0.0015664155849681,0.0015664155836212,-0.0015664155840814,0.0015664155846581,8.0770017825516e-13,8.1807114084114e-13,-0.00074211391199793,0.00074211391338061,-5.4642921872716e-13,1.9252451850811e-12,-0.00087994496191838,0.0008799449625235,-0.00087994496107745,0.00087994496334807,-0.00087994496232719,0.00087994496293451,-0.00087994496148864,0.00087994496375321,-0.00076624352168265,0.00076624352450704,-0.00076624352151629,0.00076624352433709,0.76212228763555,131490,2924,0.0039600073192003,0.0073769768120716,0.0030904974490268,29.298069039928,0.00014958455231942,0.00014958455231942,0.00014958455231942,2574177.6894337,0.014532624093534
33419200,0.99996568462595,0.015649768334367,0.0049414689542534,0.0066030152853631,0.0041052840947502,-0.00095017519758705,0.0009501751981038,2.6658755446262e-13,2.3529231393445e-13,6.145393383774e-13,-2.146186788408e-13,-0.0011015593921302,0.0011015593926459,-0.001101559392384,0.0011015593928636,-0.0011015593924269,0.0011015593923524,-0.0011015593926901,0.001101559392551,-0.00087694177171252,0.00087694177192476,-0.00087694177249827,0.00087694177263055,-2.0001647786919e-13,5.4674641491939e-13,1.5843571872108e-12,-1.2476684728199e-12,-0.001779391439877,0.0017793914402143,-0.0019817103556487,0.0019817103566706,-0.0019817103564202,0.0019817103555592,-0.0019817103557145,0.0019817103572523,-0.0019817103564789,0.0019817103560878,-0.0014998029924728,0.001499802995827,-0.0014998029955386,0.0014998029933348,-0.0015690147027519,0.0015690147014359,-0.001569014702041,0.0015690147022094,1.1253934582376e-12,1.1357314071263e-12,-0.00074170210896874,0.0007417021112931,-4.0092613433474e-13,2.439094110511e-12,-0.00088108047398371,0.00088108047520662,-0.00088108047301923,0.00088108047615405,-0.0008810804743235,0.00088108047554857,-0.00088108047336199,0.00088108047649073,-0.00076552648339634,0.00076552648706371,-0.00076552648320059,0.00076552648686442,0.77026491249146,131490,2924,0.0039526435720918,0.0073854588674201,0.003088798736469,29.317375135449,0.00014973900108359,0.00014973900108359,0.00014973900108359,2530155.9503353,0.014532045612029
34419200,0.99997712897433,0.01564994771513,0.0049415215858864,0.0066030883060144,0.0041053378232289,-0.00095279373683151,0.0009527937355706,-3.220505953989e-13,-3.533670696534e-13,1.2165583313016e-13,-9.4944264223783e-13,-0.0011047113232125,0.0011047113223972,-0.0011047113237601,0.0011047113229088,-0.0011047113235908,0.0011047113220221,-0.0011047113241454,0.0011047113225121,-0.0008800181855995,0.00088001818439082,-0.00088001818634576,0.00088001818505708,-2.7521215128122e-13,6.9969150725768e-13,1.4885058212866e-12,-1.0770898015283e-12,-0.0017837376668152,0.0017837376672275,-0.0019859955148328,0.0019859955157502,-0.0019859955158479,0.0019859955150763,-0.0019859955150663,0.0019859955166631,-0.0019859955160743,0.0019859955159361,-0.0015043233689365,0.0015043233721855,-0.001504323371821,0.0015043233700278,-0.001573229899934,0.0015732298985639,-0.0015732298990901,0.0015732298996492,3.3091821420512e-13,3.4128133879525e-13,-0.00074561895593765,0.00074561895588604,-1.0696087947738e-12,1.4884810490654e-12,-0.00088536977124058,0.00088536977067678,-0.00088536977037367,0.00088536977152842,-0.00088536977176435,0.00088536977120274,-0.00088536977089868,0.00088536977204736,-0.00076940487338391,0.00076940487514587,-0.00076940487325512,0.00076940487501351,0.74167920846817,131490,2924,0.0039635222866423,0.0074034226154395,0.0031050692934048,31.489046348418,0.00016711237078735,0.00016711237078735,0.00016711237078735,2499267.3909911,0.014577814264263
35419200,0.99998610539776,0.015650083595847,0.0049415613615472,0.0066031437054114,0.0041053785288884,-0.00096085341522511,0.00096085341198408,-9.8173715014807e-13,-1.01319989004e-12,-3.0141944625458e-13,-1.9087767470041e-12,-0.0011117637656686,0.0011117637634547,-0.0011117637665356,0.0011117637642855,-0.0011117637662225,0.0011117637628995,-0.0011117637670949,0.0011117637637072,-0.00088839048013543,0.00088839047725125,-0.00088839048084116,0.0008883904778767,-4.4701402049911e-13,1.0477876084549e-12,1.1629892950048e-12,-5.8249291112376e-13,-0.0017907707903132,0.0017907707908952,-0.0019940855145909,0.0019940855152199,-0.0019940855157067,0.0019940855152045,-0.0019940855149239,0.0019940855165871,-0.0019940855160326,0.0019940855165186,-0.0015106217572107,0.0015106217600016,-0.0015106217593969,0.0015106217587494,-0.001579308227436,0.0015793082260049,-0.001579308226193,0.0015793082277123,-5.5947283495952e-13,-5.4896314131756e-13,-0.00075453259194129,0.0007545325892444,-1.5662958566191e-12,1.5745212928377e-13,-0.0008932220513596,0.00089322204897232,-0.00089322205077369,0.00089322204954503,-0.00089322205208356,0.00089322204969856,-0.00089322205149697,0.00089322205026235,-0.00077830671414491,0.00077830671360675,-0.0007783067140875,0.00077830671354549,0.71639793499864,131490,2924,0.0039969664099559,0.0074325352391784,0.0031420805048418,35.943766252139,0.00020275013001711,0.00020275013001711,0.00020275013001711,2489474.2723977,0.014678828128966
36419200,0.99999184856027,0.015650172327729,0.0049415874371648,0.00660317967473,0.0041054052158343,-0.00096317927198062,0.00096317927116611,-1.8167910607802e-13,-2.1320283635163e-13,3.8241887802754e-13,-9.277330113345e-13,-0.0011132370737733,0.0011132370733905,-0.0011132370742359,0.0011132370738168,-0.0011132370742263,0.0011132370729358,-0.0011132370746978,0.0011132370733426,-0.00089086676880753,0.00089086676784995,-0.00089086676956273,0.00089086676852477,-3.6012549841322e-13,8.5757509578713e-13,1.2517171726643e-12,-7.7070539665564e-13,-0.0017927841518466,0.0017927841523289,-0.0019971396519047,0.0019971396526403,-0.0019971396526585,0.0019971396520539,-0.0019971396519952,0.0019971396535633,-0.0019971396527419,0.0019971396529239,-0.001511771879053,0.0015117718819162,-0.0015117718814013,0.0015117718802924,-0.0015803390199545,0.0015803390185945,-0.0015803390188582,0.0015803390199094,5.2064406526943e-13,5.3121522762179e-13,-0.00075723261478551,0.00075723261533247,-6.1800191458337e-13,1.405765490491e-12,-0.00089509656147363,0.00089509656156062,-0.00089509656078242,0.00089509656223613,-0.00089509656194311,0.00089509656203243,-0.00089509656125374,0.00089509656270155,-0.00078099350567173,0.00078099350770184,-0.00078099350552869,0.00078099350755483,0.7306286247334,131490,2924,0.0040066165068177,0.0074408828986915,0.0031532901819646,37.485517566378,0.00021508414053103,0.00021508414053103,0.00021508414053103,2490219.3282859,0.01470845767222
37419200,0.99999523950109,0.015650223912327,0.0049416025876033,0.0066032005931342,0.0041054207315898,-0.00096258744337321,0.00096258744372206,2.0577675410259e-13,1.7425217614118e-13,6.3615498869589e-13,-3.6887990744263e-13,-0.0011134838133303,0.0011134838137738,-0.001113483813607,0.0011134838140142,-0.0011134838136833,0.0011134838134216,-0.0011134838139699,0.0011134838136434,-0.00089029122457713,0.00089029122459987,-0.00089029122536115,0.0008902912253035,-2.6351889085524e-13,6.5860858584214e-13,1.4161939715404e-12,-1.0333931952531e-12,-0.0017946683943454,0.0017946683947291,-0.0019984944713464,0.0019984944722313,-0.0019984944720233,0.0019984944712762,-0.0019984944713746,0.0019984944728902,-0.0019984944720445,0.0019984944718821,-0.0015141251222192,0.0015141251253022,-0.0015141251249256,0.0015141251232018,-0.001582418596704,0.0015824185953894,-0.0015824185958337,0.0015824185963499,1.0400683148622e-12,1.0506392272222e-12,-0.00075749609798178,0.00075749610007445,-3.0224838416639e-13,2.157264993175e-12,-0.00089621304862027,0.00089621304979083,-0.00089621304778204,0.00089621305061218,-0.0008962130489724,0.00089621305014528,-0.00089621304813711,0.00089621305096134,-0.0007808684231037,0.000780868426459,-0.00078086842291559,0.00078086842626691,0.7195711909416,131490,2924,0.0040041749743909,0.0074486565398,0.0031543911748547,37.681073175225,0.0002166485854018,0.0002166485854018,0.0002166485854018,2463147.5888178,0.014714992773584
38419200,0.99999718840261,0.0156502546783,0.0049416116594275,0.0066032129971388,0.0041054300217334,-0.00096064071261336,0.00096064071357792,4.1405550162394e-13,3.8255576556218e-13,6.7760852011308e-13,2.730163654198e-14,-0.0011113599700229,0.0011113599708496,-0.0011113599702041,0.0011113599709946,-0.0011113599702616,0.0011113599706163,-0.0011113599704524,0.0011113599707423,-0.00088846219086301,0.00088846219147446,-0.00088846219166145,0.00088846219219255,-1.5304682452457e-13,4.1987879063822e-13,1.6701721538577e-12,-1.4105699080576e-12,-0.001793693586331,0.001793693586591,-0.0019980532668757,0.0019980532679638,-0.0019980532676445,0.0019980532666819,-0.001998053266934,0.0019980532684206,-0.0019980532676958,0.0019980532670857,-0.0015126817913127,0.0015126817947754,-0.0015126817946055,0.0015126817920231,-0.0015808724794486,0.001580872478141,-0.0015808724788898,0.0015808724787247,1.3228345441951e-12,1.3333818543349e-12,-0.00075586335287882,0.00075586335579706,-3.2532585563607e-13,2.7664565179024e-12,-0.00089442531031878,0.00089442531194778,-0.00089442530926996,0.00089442531297913,-0.00089442531060953,0.00089442531224085,-0.00089442530956418,0.00089442531326743,-0.00077920788955664,0.00077920789376123,-0.00077920788934559,0.00077920789354626,0.74580972051101,131490,2924,0.0039960993877536,0.0074446297266627,0.003147611790869,37.19440223641,0.00021275521789128,0.00021275521789128,0.00021275521789128,2459947.5344145,0.014695831206533
38880000,0.99999786902775,0.015650265484026,0.0049416148478542,0.0066032173490049,0.004105433287167,-0.00096002485712428,0.00096002485769785,2.8681641810236e-13,2.5532126577006e-13,5.3598383378238e-13,-9.1056571225429e-14,-0.0011118674025529,0.0011118674030539,-0.0011118674028066,0.0011118674032714,-0.0011118674027853,0.001111867402828,-0.0011118674030476,0.0011118674030256,-0.00088785217691482,0.00088785217724084,-0.00088785217770865,0.00088785217795436,-1.3768855841494e-13,4.081731188267e-13,1.7432198634768e-12,-1.4797986166974e-12,-0.0017952707319305,0.0017952707321944,-0.0019987096120003,0.0019987096131429,-0.0019987096128906,0.0019987096118946,-0.0019987096121228,0.0019987096136502,-0.001998709613006,0.0019987096123489,-0.0015150627392898,0.0015150627428887,-0.0015150627427322,0.0015150627400044,-0.0015830534237146,0.0015830534223921,-0.0015830534231983,0.001583053422963,1.149290066448e-12,1.1598296856463e-12,-0.00075594760618446,0.00075594760857255,-5.6603297278711e-13,2.6626277909016e-12,-0.00089559357066067,0.00089559357181491,-0.0008955935695676,0.00089559357289095,-0.00089559357099638,0.00089559357215292,-0.00089559356990629,0.0008955935732237,-0.00077899028692931,0.0007789902907798,-0.0007789902867299,0.00077899029057651,0.74996903551695,131490,2924,0.0039935574969205,0.0074511264805458,0.0031479686271804,37.193613676139,0.00021274890940911,0.00021274890940911,0.00021274890940911,2433709.3326922,0.014700215332323
