time,ASR_ext,ASR_strain,ASR_strain_xx,ASR_strain_yy,ASR_strain_zz,disp_x_101,disp_x_102,disp_x_103,disp_x_104,disp_x_105,disp_x_106,disp_x_p1_neg,disp_x_p1_pos,disp_x_p2_neg,disp_x_p2_pos,disp_x_p3_neg,disp_x_p3_pos,disp_x_p4_neg,disp_x_p4_pos,disp_x_p5_neg,disp_x_p5_pos,disp_x_p6_neg,disp_x_p6_pos,disp_y_101,disp_y_102,disp_y_103,disp_y_104,disp_y_105,disp_y_106,disp_y_p1_neg,disp_y_p1_pos,disp_y_p2_neg,disp_y_p2_pos,disp_y_p3_neg,disp_y_p3_pos,disp_y_p4_neg,disp_y_p4_pos,disp_y_p5_neg,disp_y_p5_pos,disp_y_p6_neg,disp_y_p6_pos,disp_y_p7_neg,disp_y_p7_pos,disp_y_p8_neg,disp_y_p8_pos,disp_z_101,disp_z_102,disp_z_103,disp_z_104,disp_z_105,disp_z_106,disp_z_p1_neg,disp_z_p1_pos,disp_z_p2_neg,disp_z_p2_pos,disp_z_p3_neg,disp_z_p3_pos,disp_z_p4_neg,disp_z_p4_pos,disp_z_p5_neg,disp_z_p5_pos,disp_z_p6_neg,disp_z_p6_pos,humidity,ndof,nelem,strain_xx,strain_yy,strain_zz,temp,thermal_strain_xx,thermal_strain_yy,thermal_strain_zz,vonmises,vstrain
2419200,0,0,0,0,0,0,0,0,0,0,0,0,0,0,0,0,0,0,0,0,0,0,0,0,0,0,0,0,0,0,0,0,0,0,0,0,0,0,0,0,0,0,0,0,0,0,0,0,0,0,0,0,0,0,0,0,0,0,0,0,0,0,0,0,0,0,0,0,0,0,0,0,0,0,0
3419200,0.1587128034256,0.0030048445630421,0.0010016148543474,0.0010016148543474,0.0010016148543474,-0.00027463970311566,0.00027463529327292,-1.4543620607401e-09,-1.4543624544905e-09,-1.233227685652e-09,-1.6998612124656e-09,-0.00028053621179994,0.00028053301924578,-0.00028053731037132,0.0002805341178334,-0.00028053637736719,0.00028053286913199,-0.00028053745496539,0.00028053394671187,-0.00027053748581005,0.00027053420424637,-0.00027053804987605,0.00027053476833461,-1.4100113310041e-10,2.9505042132392e-10,-9.5077269859081e-10,1.0984956487267e-09,-0.00029094675137207,0.00029094689968656,-0.00029491842115688,0.00029491766916424,-0.00029491874197948,0.00029491947008403,-0.00029491873470895,0.00029491830007215,-0.00029491905552225,0.00029492010098707,-0.00028264952171967,0.00028264783454331,-0.00028264809194356,0.00028265037484845,-0.00028797993427266,0.00028798036524483,-0.00028797997468557,0.00028798125370201,-5.4550645282038e-09,-5.455064118137e-09,-0.00025359047216965,0.00025357663731271,-4.3182243354313e-09,-6.4732559494988e-09,-0.00026088652940621,0.00026087531554628,-0.00026088726864712,0.00026087458230821,-0.00026088695263974,0.0002608757387733,-0.00026088768618817,0.00026087499987056,-0.00025914574402173,0.00025913360974373,-0.00025914542585919,0.00025913329158176,0.75746877217741,122718,2924,0.0011436652583693,0.0012115389783292,0.0010560466344719,31.802521689685,0.00016962017351748,0.00016962017351748,0.00016962017351748,2317641.9346266,0.0034170787166778
4419200,0.34958037161068,0.0064217615398921,0.002154123283535,0.0023411481832741,0.0019264900730829,-0.00054200104362258,0.000541987078624,-5.528775008634e-09,-5.5287321816746e-09,-4.6693523236498e-09,-6.7015543637908e-09,-0.00056574025311791,0.00056572858773419,-0.00056574318002516,0.00056573151437184,-0.00056574097323489,0.00056572791233874,-0.00056574383583248,0.00056573077462527,-0.00052176482254887,0.00052175260156055,-0.00052176622144366,0.00052175400062635,-5.1347291401965e-10,1.336009279863e-09,-5.980533231462e-10,1.3916617930404e-09,-0.00062794547378776,0.00062794627096241,-0.00065239792048072,0.00065239729313296,-0.00065240070478614,0.00065240157402917,-0.00065239959300283,0.0006524003016731,-0.00065240237764089,0.00065240458288045,-0.00058390002742932,0.00058389952751827,-0.00058389988794039,0.00058390324545191,-0.00061169930621208,0.0006116990304572,-0.00061169983257687,0.00061170316425028,-1.076151474467e-08,-1.0761470814764e-08,-0.00045169818926985,0.00045167260755365,-9.5083403690668e-09,-1.1787007138408e-08,-0.00047326340964455,0.0004732402148468,-0.00047326421932821,0.0004732394309593,-0.00047326457933239,0.00047324138451847,-0.00047326536212825,0.00047324057377754,-0.00047469019117701,0.00047466711287505,-0.00047468913155619,0.00047466605331353,0.73992840791513,122718,2924,0.0022557464673406,0.0026129770553053,0.0018803811505184,33.600270501598,0.00018400216401278,0.00018400216401278,0.00018400216401278,3937983.8860134,0.0067719563719549
5419200,0.54962734195065,0.0098496942030638,0.0032730983717702,0.0038436033747671,0.0027329924565265,-0.00079526030742893,0.0007952505815372,-4.3007913822166e-09,-4.3008848988646e-09,-3.6130336186045e-09,-3.7316436578183e-09,-0.00084336791217505,0.00084335859630463,-0.00084336931556243,0.00084335999994478,-0.00084336799541383,0.00084335853034898,-0.00084336939325602,0.00084335992845912,-0.00075295824723135,0.00075294885471762,-0.00075295850158905,0.00075294910892456,2.4890502794578e-10,1.8729415655679e-10,9.0695186709596e-10,-4.783495703078e-10,-0.0010095055094661,0.0010095059410069,-0.0010703488621978,0.0010703498574391,-0.0010703503953894,0.0010703503309433,-0.0010703499367176,0.0010703508529507,-0.0010703514697746,0.0010703513263294,-0.00091151866496121,0.00091152041183054,-0.00091151891332104,0.00091151798431423,-0.00096524383910305,0.00096524387788103,-0.00096524257617798,0.00096524252320315,-1.6260775829185e-09,-1.6261700280079e-09,-0.00062009027903481,0.00062008485997779,-2.0689250290252e-09,-7.5515826046935e-10,-0.00066142235119359,0.00066141671195846,-0.0006614219052289,0.00066141716530678,-0.00066142311641193,0.0006614174772374,-0.00066142265876458,0.00066141791893972,-0.00066036138375409,0.00066035781205603,-0.0006603605532633,0.000660356981994,0.72499638738019,122718,2924,0.0033080838618583,0.0041972821945299,0.0025808924115596,36.268803301102,0.00020535042640881,0.00020535042640881,0.00020535042640881,4624040.2166808,0.010137382309277
5919200,0.63994301503336,0.011173841609947,0.0036734158986598,0.0044814107017398,0.0030190150095469,-0.00088003596267072,0.00088002823668744,-3.2145525037085e-09,-3.2145207337052e-09,-3.3908128258045e-09,-2.7914360296042e-09,-0.00094262933794476,0.00094262184001665,-0.00094263017433719,0.00094262267617781,-0.00094262917706376,0.00094262202842064,-0.00094263000563502,0.00094262285676054,-0.00082578728168757,0.00082578058060414,-0.0008257871371348,0.00082578043621499,2.1744941830483e-10,-4.9050922486812e-10,8.4302966508123e-10,-1.1065797204256e-09,-0.0011722347853046,0.0011722345207323,-0.0012583886965223,0.0012583893172128,-0.0012583904248524,0.0012583897515302,-0.0012583900931649,0.001258390237039,-0.0012583918216686,0.0012583906715463,-0.0010410080488135,0.001041009465258,-0.0010410103229069,0.0010410079081848,-0.0011062830360068,0.0011062828151966,-0.001106283768591,0.0011062821923232,-2.2581370813005e-09,-2.2581037070213e-09,-0.00067394554774549,0.00067393888898346,-3.4380913796389e-09,-1.5523983885232e-09,-0.00072787050351789,0.00072786337989978,-0.00072786987351045,0.00072786401564712,-0.00072787107334722,0.00072786394960257,-0.00072787043728222,0.00072786457931426,-0.00071584221947555,0.0007158380357911,-0.00071584199367524,0.0007158378100357,0.63057162958591,122718,2924,0.0036601396523658,0.0048721869921381,0.0028049675915375,36.778950655303,0.00020943160524242,0.00020943160524242,0.00020943160524242,4726043.1985305,0.011401937361014
6919200,0.77968166099932,0.013333329418482,0.0043190357713657,0.0055102770667838,0.0035040165803324,-0.001010651517269,0.0010106456543062,-2.3617015737116e-09,-2.361701732667e-09,-2.847046825887e-09,-1.9103483566984e-09,-0.0010926065100256,0.0010926007232529,-0.0010926070758622,0.0010926012889615,-0.0010926062289992,0.0010926010332577,-0.001092606786267,0.0010926015904009,-0.00094301021471402,0.00094300544483735,-0.0009430101844015,0.00094300541455166,1.7608091802529e-10,-8.3265917883365e-10,7.45060393387e-10,-1.3814933177392e-09,-0.0014404761769638,0.0014404755370225,-0.001565529332093,0.0015655297249839,-0.0015655309097454,0.0015655299128808,-0.0015655306438405,0.0015655303702673,-0.0015655322216154,0.0015655305582912,-0.0012586561202889,0.0012586572431023,-0.0012586590830398,0.0012586560146673,-0.001339724011065,0.0013397236402208,-0.0013397253368405,0.0013397230160632,-2.086678121243e-09,-2.0866763596028e-09,-0.00076152503486394,0.00076151894729531,-3.4418833543261e-09,-1.3735524482575e-09,-0.00083220058781147,0.0008321940543582,-0.00083219989961057,0.00083219474762139,-0.00083220097131021,0.00083219443778569,-0.00083220027930836,0.00083219512726352,-0.0008087147126237,0.00080871117128027,-0.00080871468295868,0.00080871114177048,0.66619137622791,122718,2924,0.0042023855479397,0.0059836696055699,0.003169388850732,38.633687192937,0.0002242694975435,0.0002242694975435,0.0002242694975435,4807703.5945272,0.013445247264893
7919200,0.8762595471258,0.014497598978755,0.0046498234982166,0.0060821316743569,0.0037656438061817,-0.0010589126300208,0.0010589075869965,-2.0022386238319e-09,-2.0022235273732e-09,-2.6239263725398e-09,-1.4346559314226e-09,-0.001160665261929,0.0011606601935019,-0.001160665794633,0.0011606607260533,-0.0011606648961939,0.0011606605898957,-0.0011606654198012,0.0011606611133475,-0.00098310277495564,0.00098309883239147,-0.0009831028231383,0.0009830988806403,2.3031914773166e-10,-1.0178380783336e-09,7.1978233355555e-10,-1.4830068694522e-09,-0.0016034588830736,0.0016034581160147,-0.0017580850717377,0.0017580854428179,-0.0017580866246559,0.0017580855577466,-0.0017580863704215,0.001758085916398,-0.0017580879234874,0.0017580860314672,-0.0013868012026531,0.0013868021939668,-0.0013868043383615,0.0013868009872479,-0.0014731077577811,0.0014731074653515,-0.0014731093172145,0.0014731066068521,-2.0993447629438e-09,-2.099327344475e-09,-0.0007946092517124,0.00079460319419161,-3.4956533084556e-09,-1.3513631081293e-09,-0.00088515732911464,0.00088515082518293,-0.00088515661542985,0.00088515154313812,-0.00088515768478622,0.00088515118073922,-0.00088515696837375,0.00088515189598419,-0.00083884721462937,0.00083884373742305,-0.0008388471452637,0.00083884366812534,0.52097674187994,122718,2924,0.0044028242084812,0.0066583038363562,0.0033073286146206,40.946393886838,0.0002427711510947,0.0002427711510947,0.0002427711510947,4371708.0434633,0.014472505101311
8919200,0.93338742144659,0.015072266638998,0.0048096251631375,0.0063589798768483,0.0039036615990123,-0.0010732862645133,0.0010732825521451,-1.4986047210515e-09,-1.4985876076138e-09,-2.2849631591406e-09,-7.6154736578014e-10,-0.0011831892964447,0.0011831853076155,-0.0011831896770495,0.0011831856880576,-0.0011831888184207,0.0011831858165659,-0.0011831891922408,0.0011831861902214,-0.00099329815659615,0.0009932953951575,-0.00099329824677148,0.00099329548539905,3.0545547548607e-10,-1.2603413459076e-09,7.9249397461777e-10,-1.7184730628864e-09,-0.0016840357554064,0.0016840348253442,-0.001858812054122,0.0018588124849024,-0.0018588135474623,0.0018588123176411,-0.0018588133243796,0.0018588127105852,-0.0018588148178597,0.0018588125434644,-0.0014458735495363,0.0014458745704092,-0.0014458769718041,0.0014458730516263,-0.0015336786031591,0.0015336783495328,-0.0015336804240183,0.0015336771309293,-1.372714043054e-09,-1.3726946115295e-09,-0.00080636991285303,0.0008063657384781,-2.9314095914492e-09,-4.6190949125141e-10,-0.00090466947394433,0.00090466456482358,-0.00090466864859631,0.00090466539299631,-0.00090466974108177,0.00090466483184352,-0.00090466891468099,0.00090466565898184,-0.00084753135344604,0.00084752954044998,-0.00084753126119323,0.00084752944826723,0.4329204863021,122718,2924,0.0044626083510874,0.006991701844201,0.0033564640361807,41.891171300065,0.00025032937040052,0.00025032937040052,0.00025032937040052,4144004.4587192,0.014921372652498
9919200,0.96260788265064,0.015354771859576,0.0048887535796483,0.0064909051872628,0.0039751130926653,-0.0010707890242853,0.001070787879659,-5.424877526822e-10,-5.4246982713669e-10,-1.5740864705642e-09,4.8363136262914e-10,-0.0011854612340418,0.001185459302308,-0.0011854612905171,0.0011854593586164,-0.0011854605763825,0.0011854599907234,-0.0011854606315317,0.0011854600457054,-0.00099002767264646,0.00099002711615628,-0.00099002777619868,0.0009900272197755,4.4986551556436e-10,-1.6235252964755e-09,1.0801401220489e-09,-2.2179323816294e-09,-0.0017205335734901,0.0017205324311077,-0.0019044315292852,0.0019044322073288,-0.0019044329255862,0.0019044313835659,-0.0019044327143618,0.0019044319922312,-0.0019044341108025,0.0019044311686082,-0.0014726698552991,0.0014726712577239,-0.0014726739354338,0.0014726688663577,-0.001560176759034,0.001560176516739,-0.0015601789276147,0.0015601746535525,2.4581608742476e-10,2.4583632098357e-10,-0.00080489976028416,0.0008048997009662,-1.7211140819697e-09,1.5725020034346e-09,-0.00090834683230263,0.0009083453276109,-0.00090834572456803,0.000908346434983,-0.00090834692362294,0.00090834541881283,-0.00090834581807914,0.00090834652839377,-0.00084428389532307,0.00084428577153054,-0.00084428376756153,0.00084428564383504,0.41373652453395,122718,2924,0.0044523617512356,0.0071426471779898,0.0033505361444988,39.825308714014,0.00023380246971211,0.00023380246971211,0.00023380246971211,3966803.2212859,0.015058196427742
10919200,0.97815940438437,0.01549690569378,0.0049286705980693,0.0065562119008456,0.0040120231948656,-0.0010633721267399,0.0010633712555899,-4.2849281162182e-10,-4.284743651016e-10,-1.6661258163143e-09,8.2988008285077e-10,-0.001182916511249,0.0011829146767119,-0.0011829165844,0.0011829147496957,-0.0011829157138236,0.001182915511931,-0.0011829157835386,0.0011829155814781,-0.00098323020316958,0.00098323003059189,-0.0009832303352095,0.00098323016269977,5.8978312282456e-10,-1.9200751351403e-09,1.3662784717188e-09,-2.6546458596265e-09,-0.0017399068360469,0.0017399055425179,-0.0019273589336651,0.0019273598396069,-0.0019273605420612,0.0019273587577383,-0.0019273602273931,0.001927359448435,-0.0019273618359275,0.0019273583667064,-0.0014880539503854,0.0014880557682173,-0.0014880587066044,0.0014880526317498,-0.0015745191856169,0.0015745189797321,-0.00157452175131,0.001574516651863,2.7642768415856e-10,2.7644846038691e-10,-0.00080031336023357,0.00080031336645989,-2.0305202170306e-09,1.9788902352341e-09,-0.00090912419685668,0.00090912250366157,-0.00090912285253674,0.00090912384781209,-0.00090912428569375,0.00090912259237988,-0.00090912294331193,0.00090912393848593,-0.00083836730172534,0.00083836948420823,-0.00083836714948746,0.00083836933203399,0.38968361053104,122718,2924,0.0044216826063805,0.0072227061552173,0.0033316109877854,37.954053630032,0.00021883242904026,0.00021883242904026,0.00021883242904026,3790208.4324579,0.015089140236236
11919200,0.98702487061945,0.015587470707842,0.004954389362293,0.0065968188283748,0.004036262517174,-0.0010592941053508,0.0010592926839531,-6.2350030767741e-10,-6.2348156312775e-10,-1.9578325035867e-09,7.3306140741837e-10,-0.0011816299451949,0.0011816275842776,-0.0011816301208498,0.0011816277597654,-0.0011816290879564,0.0011816284846166,-0.0011816292571429,0.0011816286536351,-0.00097983593823398,0.00097983541454906,-0.00097983609106957,0.00097983556745336,6.5512489209013e-10,-2.0548069889393e-09,1.507198741466e-09,-2.8620223054773e-09,-0.0017524431132411,0.0017524417529596,-0.0019417996690147,0.0019418006777809,-0.0019418014751633,0.0019417995798408,-0.0019418010741963,0.0019418002742796,-0.0019418028804839,0.0019417991764794,-0.0014982972913151,0.0014982993225091,-0.0014983024051148,0.0014982958536321,-0.0015840721528319,0.0015840719638867,-0.0015840749415622,0.0015840694611178,-1.7580803109158e-10,-1.7578696597729e-10,-0.00079837698900838,0.00079837584148378,-2.6390359197348e-09,1.7036282182033e-09,-0.00091020669697609,0.00091020387117096,-0.00091020524525544,0.00091020532376005,-0.00091020683302119,0.00091020400709661,-0.0009102053822019,0.00091020546060502,-0.00083580850103344,0.00083580984482862,-0.00083580834232041,0.00083580968617804,0.43347175395089,122718,2924,0.0044048214393341,0.0072745098057828,0.0033236409888365,37.104189058662,0.0002120335124693,0.0002120335124693,0.0002120335124693,3684964.45892,0.015116536325993
12919200,0.99213320437151,0.015637021698816,0.0049684321750995,0.0066189605750042,0.0040496289487123,-0.0010512646128376,0.0010512633991174,-5.5361993435536e-10,-5.5360087712901e-10,-1.9405059454452e-09,8.7723983768983e-10,-0.0011782337491609,0.0011782314949346,-0.0011782339216399,0.0011782316672475,-0.0011782328514574,0.0011782324375005,-0.0011782330169749,0.0011782326028509,-0.00097302842571266,0.00097302809820224,-0.00097302859227357,0.00097302826483175,7.1409072160686e-10,-2.1218547591466e-09,1.6289219309061e-09,-2.9901310740776e-09,-0.001761297340657,0.0017612959737906,-0.0019507072697515,0.0019507083958187,-0.0019507091312313,0.0019507071889286,-0.0019507086901359,0.0019507079246453,-0.0019507105517545,0.0019507067178951,-0.0015066970349603,0.0015066992631017,-0.0015067023599939,0.0015066955150101,-0.001591303341231,0.0015913031864125,-0.0015913062197872,0.0015913005243452,-1.0229364800846e-10,-1.022722821984e-10,-0.00079400068554633,0.00079399974134394,-2.678919804133e-09,1.9128673749399e-09,-0.00091062458185176,0.00091062181896102,-0.00091062304743768,0.00091062335429333,-0.00091062471055811,0.00091062194754744,-0.00091062317696461,0.00091062348371865,-0.00083059849225289,0.00083060008150228,-0.00083059832001378,0.00083059990932362,0.41108294703856,122718,2924,0.0043715820587046,0.0073110401247053,0.0033055465723607,36.135178765254,0.00020428143012204,0.00020428143012204,0.00020428143012204,3533561.5024966,0.015101534395878
13919200,0.99499163409506,0.015663898215201,0.0049760631316709,0.0066308475298623,0.0040569875536673,-0.0010443106741615,0.0010443105544847,-1.5600913687906e-10,-1.5599009404203e-10,-1.6466283813483e-09,1.4015869044822e-09,-0.0011719836623291,0.0011719822635474,-0.0011719836971177,0.0011719822981695,-0.001171982687948,0.0011719832835899,-0.0011719827176373,0.0011719833131117,-0.0009662868065195,0.00096628740752736,-0.0009662869754629,0.00096628757653992,7.8050390749433e-10,-2.274943002994e-09,1.812169634991e-09,-3.2567049207237e-09,-0.0017615270675475,0.0017615256171088,-0.0019523515332248,0.0019523528096738,-0.0019523533894916,0.0019523512851533,-0.0019523529163234,0.0019523521476452,-0.0019523547727291,0.0019523506232646,-0.0015053387314848,0.0015053412406725,-0.0015053444396196,0.0015053369983991,-0.0015897027630803,0.0015897025852584,-0.0015897057887629,0.001589699640708,5.8481459566112e-10,5.8483593216464e-10,-0.00078800139626619,0.00078800221415086,-2.2188445271757e-09,2.8364656749106e-09,-0.00090535689996692,0.00090535553589232,-0.00090535520839815,0.00090535722709991,-0.00090535695119223,0.00090535558699812,-0.00090535526174991,0.00090535728035003,-0.00082435113923907,0.00082435433927603,-0.00082435095126801,0.00082435415136606,0.39749187661516,122718,2924,0.0043427602091329,0.007311979047657,0.0032806653880918,33.831123902017,0.00018584899121614,0.00018584899121614,0.00018584899121614,3500745.8410718,0.015047978084352
14919200,0.99660032103552,0.015679265512203,0.0049804394273588,0.0066376047843105,0.0040612213005333,-0.0010359105655445,0.0010359112329592,1.3213201652009e-10,1.3215110121935e-10,-1.4824835576817e-09,1.8346245288917e-09,-0.0011643674261214,0.0011643666084208,-0.0011643673669602,0.0011643665490933,-0.00116436636392,0.0011643677186628,-0.0011643663003782,0.0011643676549535,-0.0009580425494013,0.00095804385464061,-0.00095804272276128,0.00095804402806986,8.6518969487224e-10,-2.4517050683872e-09,2.0522010596663e-09,-3.585070976072e-09,-0.0017584662737394,0.0017584647346461,-0.0019500116802061,0.0019500131497332,-0.001950013612965,0.0019500113176825,-0.0019500130707587,0.0019500123176969,-0.0019500150036564,0.0019500104857859,-0.0015014224678316,0.0015014253572717,-0.0015014286877855,0.0015014205143711,-0.0015856098874971,0.0015856096851783,-0.0015856131190185,0.0015856064325929,1.0772416225263e-09,1.0772629476685e-09,-0.00078015353763351,0.00078015561104187,-2.0072291013817e-09,3.6238561211463e-09,-0.00089835371280743,0.0008983532628701,-0.00089835182808344,0.00089835514636274,-0.00089835371062167,0.0008983532605647,-0.00089835182885577,0.00089835514703337,-0.00081634444781094,0.00081634888039694,-0.00081634424555796,0.00081634867820481,0.40343232234769,122718,2924,0.0043079313378891,0.0072993031592168,0.0032480994765896,30.575996224368,0.00015980796979495,0.00015980796979495,0.00015980796979495,3478472.6815163,0.014966711000247
15919200,0.99747627583065,0.015692008628326,0.0049841270097763,0.006643088074504,0.0040647935440456,-0.0010230600625815,0.0010230622309741,6.7591920088055e-10,6.7593838437556e-10,-1.0989940041824e-09,2.5788366887799e-09,-0.0011529821818497,0.0011529824998088,-0.0011529819387482,0.001152982256541,-0.0011529810005648,0.0011529837310485,-0.001152980755176,0.0011529834854924,-0.00094554276864161,0.00094554535798899,-0.0009455429408484,0.00094554553026513,9.8381307853871e-10,-2.680420827513e-09,2.3881246333141e-09,-4.026219035184e-09,-0.0017518557064485,0.0017518540616993,-0.001943564995822,0.0019435667470229,-0.001943566973853,0.001943564427876,-0.001943566353063,0.0019435656418254,-0.0019435683312328,0.0019435633228186,-0.0014943752665239,0.0014943786925474,-0.0014943821555044,0.0014943730008206,-0.0015783521031647,0.0015783518713478,-0.0015783555707344,0.0015783481736172,2.0329023981059e-09,2.0329237552416e-09,-0.00076791630116406,0.00076792081946872,-1.4374691078349e-09,4.9874562724809e-09,-0.00088764285515373,0.00088764427167996,-0.00088764070266499,0.00088764642124374,-0.0008876427505416,0.00088764416694792,-0.00088764060262176,0.00088764632109876,-0.00080406411201915,0.00080407083159213,-0.00080406388889475,0.00080407060852818,0.61253839243503,122718,2924,0.0042546437365969,0.0072719269430278,0.003197313739312,25.363274888211,0.00011810619910569,0.00011810619910569,0.00011810619910569,3451478.1100064,0.014833312046874
16919200,0.9980813298446,0.01570229182066,0.0049870961719071,0.0066475200828058,0.0040676755659469,-0.0010061643909202,0.0010061639774192,-2.7717638921995e-10,-2.7715668372905e-10,-2.0081680068661e-09,1.5680064625377e-09,-0.0011450897527679,0.0011450878608099,-0.0011450898902796,0.0011450879981569,-0.0011450886127955,0.0011450890566392,-0.0011450887405308,0.0011450891842094,-0.00093121922210612,0.0009312197485607,-0.00093121943956308,0.00093121996608717,1.0189033200265e-09,-2.5699369053681e-09,2.4540459832856e-09,-3.9481696177754e-09,-0.0017584260046215,0.0017584245037829,-0.0019472462902882,0.0019472481178544,-0.0019472486277507,0.0019472462152028,-0.0019472478628068,0.0019472473041126,-0.001947250200408,0.0019472454016009,-0.0015031450168216,0.0015031486134374,-0.0015031519844372,0.00150314300545,-0.0015850220368951,0.0015850218944141,-0.0015850255564018,0.0015850183849802,2.5805429205234e-10,2.5807612478334e-10,-0.00075868958025718,0.00075868959159399,-3.1654173423201e-09,3.2037673620107e-09,-0.00088696275205183,0.00088696016215789,-0.00088696062772694,0.00088696228718325,-0.00088696284339412,0.00088696025338015,-0.0008869607198802,0.00088696237923459,-0.00079374770176634,0.00079375065913818,-0.00079374748052899,0.00079375043795888,0.71546144280437,122718,2924,0.0041846621176392,0.0072989110050319,0.0031590924343192,23.78164868926,0.00010545318951408,0.00010545318951408,0.00010545318951408,3191922.1366359,0.014750939650601
17919200,0.99845486691155,0.015706780085444,0.0049883706838168,0.0066494718259475,0.0040689375756802,-0.00098741378881989,0.00098741548276368,4.6221663193189e-10,4.6223634425364e-10,-1.3107965455524e-09,2.4108146812663e-09,-0.0011296754042642,0.0011296751786904,-0.0011296752928534,0.0011296750671153,-0.0011296742127066,0.0011296764237306,-0.0011296740953975,0.0011296763062566,-0.00091362987069537,0.00091363205383526,-0.00091363009613188,0.0009136322793415,1.0678271777892e-09,-2.6481765789645e-09,2.6088035003144e-09,-4.1300372641377e-09,-0.0017554531091175,0.0017554515810709,-0.0019452951452573,0.0019452971233875,-0.0019452973027938,0.0019452947884492,-0.0019452965418181,0.0019452960317581,-0.0019452986994931,0.0019452936969598,-0.0014988722123936,0.0014988760611895,-0.0014988793647642,0.0014988699890843,-0.0015796093186333,0.0015796091527766,-0.0015796127999508,0.0015796053611735,1.5130666894983e-09,1.5130885818667e-09,-0.00074449787287909,0.00074450116515651,-2.0755512624807e-09,4.6568479363396e-09,-0.00087580372769777,0.00087580381909507,-0.00087580147691733,0.00087580606851406,-0.00087580367150467,0.00087580376278168,-0.00087580142371486,0.00087580601520932,-0.00077877800574787,0.00077878376914275,-0.00077877774900167,0.00077878351245377,0.50559518750567,122718,2924,0.0041069378158972,0.0072865463916196,0.0031002133389662,19.500678732914,7.1205429863309e-05,7.1205429863309e-05,7.1205429863309e-05,3068535.1530396,0.014599800334642
18919200,0.99871740326391,0.015710652983336,0.0049894903710489,0.0066511080870428,0.0040700545252443,-0.0009888400275446,0.00098884059312397,9.1912239515498e-11,9.1931290995241e-11,-1.7329664037442e-09,2.021426444692e-09,-0.0011220933680694,0.0011220923496304,-0.0011220933721787,0.001122092353573,-0.0011220921687669,0.0011220936068418,-0.001122092164418,0.0011220936023248,-0.00091307582042907,0.00091307719541139,-0.00091307605587796,0.00091307743093118,1.0044132984514e-09,-2.7478838189179e-09,2.5856390178558e-09,-4.2680535910102e-09,-0.0017455303336852,0.0017455286445241,-0.0019411432755072,0.001941145131218,-0.0019411456235042,0.0019411429282792,-0.0019411447981768,0.0019411441493183,-0.0019411471463125,0.0019411419465194,-0.0014837957287311,0.0014837995225712,-0.0014838031333568,0.0014837934692384,-0.0015658988474297,0.0015658985190527,-0.0015659025170065,0.0015658948426375,8.3637776384372e-10,8.3639906405699e-10,-0.00074036524812074,0.00074036674008372,-2.8227314691089e-09,4.0085942293588e-09,-0.00086348299693277,0.00086348165310859,-0.00086348071686806,0.00086348393265032,-0.00086348300771093,0.00086348166376758,-0.00086348073009071,0.00086348394577208,-0.00077516425060096,0.00077516859112539,-0.00077516400770208,0.00077516834828816,0.61793044359168,122718,2924,0.0041127637430855,0.007245698013732,0.0030829712885306,16.88200915824,5.0256073265921e-05,5.0256073265921e-05,5.0256073265921e-05,3257359.584195,0.014546726434054
19919200,0.99895696373774,0.015714285568335,0.004990535084285,0.0066526656963587,0.0040710847876918,-0.00098557556473099,0.00098557279080032,-1.1167234048629e-09,-1.1167039497139e-09,-2.7898033603065e-09,6.0906715024017e-10,-0.001124115597859,0.0011241118527054,-0.0011241160526216,0.0011241123073028,-0.0011241145215492,0.0011241129893118,-0.0011241149605121,0.0011241134281092,-0.00091109793209652,0.00091109659347985,-0.00091109818960333,0.00091109685105653,9.3983248635091e-10,-2.4902540722122e-09,2.3959016878481e-09,-3.8911875035987e-09,-0.0017538936194023,0.001753892117686,-0.0019471115298894,0.0019471132355951,-0.0019471141609742,0.0019471117435617,-0.0019471132763154,0.0019471127205179,-0.001947115907539,0.0019471112286241,-0.0014945735791981,0.0014945771261961,-0.0014945805868015,0.0014945717673589,-0.0015752752509735,0.0015752750001332,-0.0015752787998943,0.001575271825763,-1.31289962854e-09,-1.3128780281773e-09,-0.00074177293521562,0.00074176890791656,-4.6639990004144e-09,1.553306418182e-09,-0.00086995936641175,0.00086995336230755,-0.00086995730093496,0.00086995543142806,-0.00086995962439836,0.00086995362017364,-0.00086995755706942,0.00086995568746044,-0.00077562687362932,0.00077562645133232,-0.00077562666254427,0.00077562624030515,0.63718487385511,122718,2924,0.0040992796791696,0.0072801763764279,0.003088853540717,18.683585335192,6.4668682681533e-05,6.4668682681533e-05,6.4668682681533e-05,3098889.4415186,0.014574026604629
20919200,0.99913795551972,0.015716974609996,0.0049913088847295,0.0066538101287807,0.0040718555964859,-0.00097890803907849,0.00097890771702837,-2.4011279027055e-10,-2.4009336527051e-10,-1.8894078666219e-09,1.5148474489797e-09,-0.0011182852488125,0.0011182835389014,-0.001118285394358,0.0011182836842816,-0.0011182841633342,0.00111828467808,-0.0011182842991804,0.00111828481376,-0.00090492483509574,0.00090492538951722,-0.00090492508708427,0.00090492564157623,9.2976996769512e-10,-2.4836742533976e-09,2.3693960448714e-09,-3.8684322578146e-09,-0.001753137878348,0.00175313637302,-0.0019470171807469,0.0019470188938088,-0.0019470194605976,0.0019470170415871,-0.0019470186799358,0.0019470181185376,-0.001947020959925,0.0019470162664559,-0.0014931035913477,0.0014931070798183,-0.0014931104108038,0.0014931016458166,-0.0015733182785437,0.0015733180128032,-0.0015733216416363,0.0015733146952525,2.063593180336e-10,2.0638090507956e-10,-0.00073682251743864,0.00073682242041745,-3.1339410565167e-09,3.0714551997329e-09,-0.00086581850580207,0.00086581591422754,-0.00086581643610463,0.00086581798478568,-0.00086581859005197,0.00086581599835787,-0.00086581652140425,0.00086581806998356,-0.00077038359214936,0.00077038639850478,-0.0007703833505201,0.00077038615693461,0.6230606499008,122718,2924,0.0040716433540504,0.0072770324850579,0.0030683188443382,17.272208360627,5.3377666885013e-05,5.3377666885013e-05,5.3377666885013e-05,3054874.2171501,0.014521968501535
21919200,0.99926313958181,0.015718793778082,0.0049918324305105,0.0066545825459285,0.0040723788016428,-0.00097089530560117,0.0009708960988533,1.5973200642185e-10,1.5975136485091e-10,-1.5055627295461e-09,1.9192238724399e-09,-0.0011100716177006,0.0011100708587946,-0.0011100717630655,0.001110071003994,-0.0011100705249817,0.0011100720052377,-0.0011100706606443,0.0011100721407338,-0.00089721788498114,0.0008972193762507,-0.00089721814037679,0.00089721963171662,9.2407922466106e-10,-2.4900157240818e-09,2.3625560203e-09,-3.8735671194775e-09,-0.0017473001006145,0.0017472985833356,-0.0019414403073289,0.0019414420083004,-0.0019414425861256,0.0019414401560872,-0.0019414418052644,0.0019414412311492,-0.0019414440841995,0.0019414393790755,-0.0014871202246188,0.0014871236992692,-0.0014871270397438,0.0014871182642399,-0.0015672724489948,0.0015672721722973,-0.0015672758123509,0.0015672688538777,1.008915906728e-09,1.0089374273513e-09,-0.00072896582185545,0.00072896779779414,-2.3622369804582e-09,3.8827884893299e-09,-0.00085783914016276,0.00085783838230906,-0.00085783705634084,0.00085784046697011,-0.00085783922343703,0.00085783846546356,-0.0008578371406847,0.00085784055121189,-0.00076277254645488,0.00076277718293721,-0.00076277230207954,0.00076277693862106,0.60908433888304,122718,2924,0.0040383976204159,0.0072528802865267,0.0030356925242119,14.000471379987,2.7203771039899e-05,2.7203771039899e-05,2.7203771039899e-05,3042607.5191978,0.01443063929523
22919200,0.9993784903841,0.015720325902498,0.0049922723144154,0.0066552348774556,0.0040728187106268,-0.00097210253366534,0.00097210105327153,-6.3265145306473e-10,-6.3263213999044e-10,-2.2691005168383e-09,1.1250412237629e-09,-0.0011111972386992,0.0011111945747505,-0.0011111972502905,0.0011111945861762,-0.0011111961557904,0.0011111957095593,-0.0011111961595535,0.0011111957131558,-0.00089829648782835,0.00089829609373085,-0.00089829665848421,0.00089829626445702,9.2507119071012e-10,-2.5090818175669e-09,2.3716171826642e-09,-3.9005129171255e-09,-0.0017505263437666,0.0017505248086245,-0.001945224966864,0.0019452266784405,-0.0019452271187085,0.0019452246625732,-0.0019452263798623,0.0019452257963193,-0.0019452285318453,0.0019452237805915,-0.0014898094294678,0.0014898129131907,-0.001489816179898,0.001489807344951,-0.0015699422010992,0.0015699419122431,-0.0015699454939412,0.0015699384850729,-8.1712414184667e-10,-8.171026767538e-10,-0.00073074056395084,0.00073073779968799,-4.1205457215096e-09,2.043666283249e-09,-0.00085951465322884,0.00085950971663182,-0.00085951259754208,0.00085951177229253,-0.00085951466350818,0.00085950972679164,-0.00085951260979438,0.00085951178444296,-0.0007642866003861,0.00076428705106863,-0.00076428640695066,0.00076428685769266,0.55694569910199,122718,2924,0.0040434071403402,0.0072662336048432,0.0030430513951605,15.355611359255,3.8044890874037e-05,3.8044890874037e-05,3.8044890874037e-05,3030419.4938749,0.014456732127789
23919200,0.99948486524181,0.015722166778141,0.0049928069298178,0.0066560069871279,0.0040733528611954,-0.00097644179306414,0.00097643919000254,-1.0554948688894e-09,-1.0554756500673e-09,-2.6102917442319e-09,5.4541955368938e-10,-0.001113466180419,0.0011134626683842,-0.0011134666180066,0.0011134631058058,-0.0011134651808002,0.0011134637240815,-0.00111346560367,0.0011134641467845,-0.00090229907139773,0.00090229779059237,-0.00090229933269559,0.00090229805196067,8.3313783362284e-10,-2.3519555395492e-09,2.1383538209351e-09,-3.6054436313484e-09,-0.0017533031092443,0.0017533016361912,-0.0019498246187735,0.0019498260971646,-0.0019498270556151,0.0019498247644158,-0.0019498262665086,0.0019498256406338,-0.0019498287034884,0.0019498243080246,-0.0014910382788241,0.0014910414004145,-0.0014910447508562,0.0014910365746436,-0.0015709839916364,0.0015709837078724,-0.0015709872956781,0.0015709807747188,-1.257891006818e-09,-1.2578696445809e-09,-0.00073469720356094,0.00073469333714497,-4.3434109702763e-09,1.3342084794203e-09,-0.00086173255723095,0.0008617268716601,-0.00086173067053907,0.00086172876201821,-0.00086173280118078,0.00086172711549053,-0.00086173091288444,0.00086172900426207,-0.0007678501003682,0.00076784962714362,-0.00076784988703989,0.00076784941387523,0.72415240352451,122718,2924,0.0040614013257205,0.0072777667950477,0.003059471859812,17.008295941993,5.1266367535945e-05,5.1266367535945e-05,5.1266367535945e-05,3056073.7777061,0.014503336777763
24919200,0.9995794768107,0.015723508647001,0.0049931918024662,0.006656579090917,0.0040737377536183,-0.00096966015985909,0.000969657791345,-9.8093244422761e-10,-9.8091283063722e-10,-2.4526910886969e-09,5.5648871253417e-10,-0.0011133413996528,0.001113338103912,-0.001113341815442,0.0011133385195363,-0.0011133404454906,0.0011133391100163,-0.0011133408482434,0.0011133395126042,-0.00089726528052346,0.00089726411500914,-0.00089726555723045,0.00089726439178611,8.1599470262784e-10,-2.2212312442631e-09,2.0252014853671e-09,-3.3814745288037e-09,-0.0017614280125327,0.0017614266504918,-0.0019552879630349,0.0019552893971645,-0.0019552902545192,0.0019552881337268,-0.0019552895357552,0.0019552889595045,-0.0019552918273772,0.0019552876962067,-0.0015015050796829,0.0015015080283956,-0.0015015111921387,0.0015015035075135,-0.0015799020225523,0.0015799018171185,-0.0015799051436144,0.0015798989932028,-1.1380528057239e-09,-1.1380311176392e-09,-0.00073413614799857,0.00073413261606422,-4.0549667469317e-09,1.2944086603289e-09,-0.00086711797863382,0.00086711267311355,-0.00086711619910969,0.00086711445604622,-0.00086711820958933,0.00086711290395012,-0.00086711642869761,0.00086711468553187,-0.00076642962847926,0.00076642930342429,-0.00076642940191411,0.00076642907691691,0.59478479944116,122718,2924,0.0040333542816068,0.0073112302017291,0.0030572047632076,18.349819676824,6.1998557414591e-05,6.1998557414591e-05,6.1998557414591e-05,2872928.3758107,0.014506567188669
25919200,0.9996666311628,0.015724964024458,0.0049936146878303,0.0066571847566926,0.0040741645799347,-0.00097791303015048,0.00097790984188247,-1.2731354358768e-09,-1.2731161684145e-09,-2.6658677353427e-09,1.4969043341295e-10,-0.0011163618555274,0.0011163579558552,-0.0011163623675054,0.0011163584676669,-0.0011163609656118,0.0011163588974975,-0.0011163614630576,0.001116359394776,-0.00090467526080185,0.00090467340564215,-0.00090467553056531,0.00090467367547673,7.2598838572963e-10,-2.1242942605038e-09,1.8003448595827e-09,-3.1516528841678e-09,-0.0017630400957329,0.0017630387389207,-0.0019601314921367,0.0019601327106441,-0.0019601337533374,0.0019601317290698,-0.0019601330859918,0.0019601324232659,-0.0019601353473306,0.0019601314418311,-0.0015003313803028,0.0015003339527388,-0.0015003371119353,0.0015003299395498,-0.001579225759262,0.0015792255287188,-0.0015792287716878,0.0015792229637112,-1.6515966868715e-09,-1.6515753466135e-09,-0.0007399226018191,0.00073991774790282,-4.3461630452611e-09,5.3667798150495e-10,-0.00086828129076986,0.00086827499709636,-0.00086827966904605,0.0008682766232225,-0.00086828157449139,0.00086827528069843,-0.00086827995057013,0.00086827690464481,-0.00077230859552927,0.00077230703090643,-0.00077230838778281,0.00077230682322053,0.69731175834406,122718,2924,0.0040675480407391,0.0073180133849828,0.003081194379604,20.730491293135,8.1043930345083e-05,8.1043930345083e-05,8.1043930345083e-05,2958491.4579931,0.014572447972786
26919200,0.99973766659703,0.015726159376296,0.0049939607247769,0.0066576862240143,0.0040745124275049,-0.00097375103483261,0.0009737488978075,-9.0194988679273e-10,-9.0193038807579e-10,-2.3004503703938e-09,5.1995562535962e-10,-0.0011152955408534,0.001115292525287,-0.001115296056037,0.0011152930403052,-0.0011152946484973,0.0011152934687326,-0.0011152951493457,0.0011152939694147,-0.00090109587892335,0.00090109489324559,-0.00090109615460555,0.0009010951689993,7.3654274406593e-10,-2.1008406428193e-09,1.8004963661308e-09,-3.11819315781e-09,-0.0017663178114853,0.0017663164882565,-0.0019628774574912,0.0019628786946414,-0.0019628797060844,0.0019628777214771,-0.0019628790460056,0.0019628784102857,-0.0019628812947371,0.0019628774372609,-0.0015041134751867,0.0015041160528537,-0.0015041191646308,0.0015041120627317,-0.001582790098621,0.0015827899006731,-0.0015827930915664,0.0015827873413164,-8.9020478320052e-10,-8.9018320544335e-10,-0.00073864823201346,0.00073864535462393,-3.5984595797946e-09,1.2925986831308e-09,-0.00086957612400274,0.00086957157709844,-0.0008695744983414,0.00086957320724195,-0.00086957640917251,0.00086957186214884,-0.00086957478128065,0.00086957349007955,-0.00077100271399445,0.00077100287674398,-0.00077100250233174,0.00077100266514081,0.70385261694557,122718,2924,0.0040503258511725,0.0073315006104783,0.0030759351841977,21.292403319742,8.5539226557938e-05,8.5539226557938e-05,8.5539226557938e-05,2822972.1261992,0.014563341193854
27919200,0.99979812220279,0.015727254310098,0.0049942792922824,0.0066581409352276,0.0040748340825883,-0.0009738284481584,0.00097382585711185,-1.0630240810646e-09,-1.0630046090525e-09,-2.4122147972971e-09,3.3660016486072e-10,-0.0011165414503679,0.0011165380632091,-0.0011165418957167,0.0011165385083927,-0.0011165405794927,0.0011165389823088,-0.001116541012465,0.0011165394151151,-0.0009019051443775,0.0009019037208562,-0.00090190542830353,0.00090190400485311,7.1667146829623e-10,-2.061515868223e-09,1.7041200126563e-09,-3.0034274104131e-09,-0.0017716951843659,0.0017716938796919,-0.0019678077661875,0.0019678089413492,-0.0019678098675134,0.0019678079488197,-0.0019678092767473,0.0019678086117343,-0.0019678113782114,0.0019678076193442,-0.0015099746652642,0.0015099770703751,-0.0015099801198959,0.0015099732646528,-0.0015874392402061,0.0015874390702201,-0.0015874421329927,0.0015874365300055,-1.3062753779219e-09,-1.3062538472203e-09,-0.00074126721834272,0.00074126327250321,-3.8821498767802e-09,7.6920499617199e-10,-0.00087346411880258,0.00087345868799918,-0.0008734625713317,0.00087346023923025,-0.0008734643636584,0.00087345893273552,-0.00087346281465976,0.00087346048245647,-0.00077268311923591,0.00077268221410461,-0.00077268289410455,0.00077268198903217,0.75609808506124,122718,2924,0.0040506741082933,0.0073537210587388,0.0030868225886289,22.916918785778,9.8535350286221e-05,9.8535350286221e-05,9.8535350286221e-05,2808593.6537333,0.014597289605863
28919200,0.99984703262183,0.015728104819847,0.0049945260348925,0.006658494479659,0.0040750843052955,-0.00097171165227395,0.00097170950829248,-9.0482830543622e-10,-9.0480878520316e-10,-2.2445933146874e-09,4.9918886188763e-10,-0.0011160902738175,0.0011160872561587,-0.0011160906676512,0.0011160876498272,-0.0011160894030724,0.0011160881735374,-0.0011160897858193,0.0011160885561184,-0.00090039267285551,0.00090039158921694,-0.00090039296378911,0.00090039188022139,7.1765983592581e-10,-2.05161916009e-09,1.654029233307e-09,-2.9427224650251e-09,-0.0017757604087658,0.0017757591147519,-0.0019717725299922,0.0019717736824732,-0.0019717745350873,0.0019717726586764,-0.0019717739923052,0.0019717733061516,-0.0019717759975386,0.0019717722824943,-0.0015141921256248,0.0015141944332259,-0.0015141974440593,0.0015141907120587,-0.0015909557877483,0.0015909556545685,-0.0015909586372405,0.0015909530903255,-1.0470794914715e-09,-1.0470578978178e-09,-0.00074181188988806,0.00074180862283229,-3.569093039834e-09,9.791249784904e-10,-0.00087548272053596,0.00087547790886401,-0.00087548120568775,0.00087547942702182,-0.00087548293512029,0.00087547812332881,-0.00087548141922159,0.00087547964045384,-0.00077272391419264,0.00077272352741884,-0.00077272367819868,0.00077272329148306,0.72581667127725,122718,2924,0.0040419259353735,0.0073704998245165,0.0030891031892021,23.983579079454,0.00010706863263563,0.00010706863263563,0.00010706863263563,2741215.9486653,0.014607760090554
29919200,0.9998866832488,0.0157287799563,0.0049947221324872,0.0066587738904746,0.0040752839333384,-0.00097388368025916,0.00097388130903068,-9.8377103439482e-10,-9.8375160965522e-10,-2.3213592896811e-09,4.186969875062e-10,-0.001117476625892,0.0011174734230162,-0.0011174770192246,0.0011174738161834,-0.0011174757564594,0.0011174743391042,-0.0011174761387026,0.0011174747211813,-0.00090255518817943,0.00090255391752402,-0.00090255547983644,0.00090255420925193,7.1173949943509e-10,-2.0573683019283e-09,1.644145897295e-09,-2.944461833771e-09,-0.0017782037042775,0.0017782023986637,-0.0019745968542236,0.0019745979925312,-0.0019745988569287,0.0019745969716769,-0.0019745983160708,0.0019745976157018,-0.001974600318914,0.0019745965949868,-0.0015163144868176,0.0015163167748236,-0.0015163198005795,0.0015163130650722,-0.0015930672918967,0.0015930671494284,-0.0015930701434631,0.0015930645877425,-1.2203123627821e-09,-1.2202908700968e-09,-0.00074423153420151,0.00074422781776673,-3.7317907047968e-09,7.989021849644e-10,-0.00087720039676035,0.0008771951966031,-0.00087719888796637,0.00087719670867859,-0.00087720061081758,0.00087719541054081,-0.00087719910098826,0.0008771969215987,-0.00077508179294668,0.00077508100851754,-0.00077508155679264,0.00077508077242201,0.71002844492513,122718,2924,0.0040509333033147,0.0073806230191221,0.0030991421321044,25.464352649854,0.00011891482119884,0.00011891482119884,0.00011891482119884,2741638.4052128,0.0146373502443
30919200,0.99991827878195,0.015729340723521,0.0049948853460831,0.0066590053360927,0.0040754500413451,-0.00097668684304937,0.00097668423469287,-1.0697341023575e-09,-1.0697147187116e-09,-2.3904011576208e-09,2.9932487812456e-10,-0.0011192510327499,0.0011192476553727,-0.0011192514849208,0.0011192481073783,-0.0011192501803732,0.0011192485545811,-0.0011192506206372,0.001119248994679,-0.000905375176059,0.00090537371933562,-0.00090537546902644,0.00090537401237422,6.9151943637943e-10,-2.0274746303947e-09,1.551543019014e-09,-2.8428844671251e-09,-0.0017816902316879,0.0017816889351198,-0.0019794032860057,0.0019794043473179,-0.0019794052915177,0.0019794034641261,-0.0019794047776393,0.0019794040372228,-0.0019794067832894,0.0019794031541703,-0.0015188733284434,0.0015188754533979,-0.0015188784821001,0.001518871962079,-0.0015952192252052,0.0015952191089168,-0.0015952220642134,0.0015952166322003,-1.3488352951841e-09,-1.3488138349647e-09,-0.000747569803271,0.00074756576195792,-3.770746082972e-09,5.688985732027e-10,-0.00087979156183265,0.0008797861503751,-0.00087979011774825,0.00087978759834225,-0.00087979180818176,0.00087978639660465,-0.00087979036253574,0.00087978784302795,-0.00077798420722075,0.00077798311224213,-0.00077798397760343,0.00077798288268388,0.73995954051405,122718,2924,0.0040625661339461,0.0073950651532504,0.0031130024273687,27.120756607462,0.0001321660528597,0.0001321660528597,0.0001321660528597,2729483.0846581,0.014677867489476
31919200,0.99994321968898,0.015729790161318,0.0049950161726961,0.0066591907144367,0.0040755832741856,-0.0009784468185626,0.00097844380422147,-1.2175133751422e-09,-1.2174939287309e-09,-2.5011157557059e-09,1.0730936065505e-10,-0.0011222073920632,0.0011222036973879,-0.0011222078964684,0.0011222042016278,-0.0011222065666344,0.0011222045691124,-0.0011222070586442,0.001122205060956,-0.00090756648878898,0.00090756468799938,-0.00090756678544939,0.00090756498473099,6.6961757493685e-10,-1.97195567899e-09,1.452049524472e-09,-2.7109919046464e-09,-0.0017869787084773,0.0017869774444066,-0.0019843435870844,0.001984344574549,-0.0019843455724969,0.0019843438289535,-0.0019843450928388,0.0019843443328674,-0.0019843470783893,0.0019843435874113,-0.0015245819989549,0.0015245839563813,-0.001524586946219,0.0015245807109719,-0.0016004227836677,0.0016004227027289,-0.0016004255699888,0.0016004203247195,-1.6093106898543e-09,-1.6092891830494e-09,-0.00075126054928157,0.0007512558441626,-3.9148968781465e-09,1.8920869424636e-10,-0.00088451084742567,0.00088450493217602,-0.00088450948258791,0.00088450630139023,-0.0008845111230842,0.0008845052077149,-0.00088450975620309,0.00088450657490357,-0.0007813231764499,0.00078132145138514,-0.00078132295109089,0.00078132122608472,0.75110016285862,122718,2924,0.0040698913940793,0.0074169121652117,0.0031283382843377,29.26643841169,0.00014933150729352,0.00014933150729352,0.00014933150729352,2679551.1906993,0.014723036067344
32919200,0.99996048320291,0.015730067248916,0.0049950965638396,0.0066593052228874,0.0040756654621887,-0.00097644667464309,0.00097644498369817,-7.4811611719666e-10,-7.4809667773153e-10,-2.0466477918387e-09,5.7937850344325e-10,-0.0011206329482843,0.0011206303706503,-0.0011206334542286,0.0011206308764292,-0.0011206321164211,0.0011206312486816,-0.0011206326099982,0.0011206317420926,-0.00090577797706657,0.00090577727893382,-0.00090577827659955,0.00090577757853803,6.6786168516631e-10,-1.9683436246299e-09,1.4445431240227e-09,-2.7016944865585e-09,-0.001787219897265,0.0017872186349956,-0.0019846517633476,0.0019846527453787,-0.0019846537443307,0.0019846520063281,-0.0019846532674638,0.0019846525055284,-0.0019846552485851,0.0019846517666172,-0.0015247811756624,0.0015247831201388,-0.0015247861012974,0.0015247798861354,-0.0016005578820781,0.0016005578032333,-0.0016005606613299,0.0016005554287618,-6.4234707511646e-10,-6.4232556907446e-10,-0.00075010109462675,0.00075009889432187,-2.9773654153244e-09,1.1595190421105e-09,-0.00088367251564209,0.00088366880940463,-0.00088367113872235,0.0008836701907167,-0.00088367279152803,0.000883669085171,-0.00088367141255812,0.0008836704644507,-0.00078020744958412,0.0007802079269201,-0.00078020722209456,0.00078020769948917,0.66891578141054,122718,2924,0.0040616044496985,0.0074178978882787,0.0031235321430734,29.173885747612,0.0001485910859809,0.0001485910859809,0.0001485910859809,2647610.804379,0.01471075183508
33919200,0.99997294506309,0.015730287968439,0.0049951610229573,0.0066593956211545,0.0040757313243275,-0.00098028609029219,0.00098028411370528,-8.4050652604192e-10,-8.404872405869e-10,-2.1552246299166e-09,5.3127653357247e-10,-0.00112180259344,0.0011217997582456,-0.0011218029698847,0.0011218001345245,-0.001121801739732,0.0011218006565351,-0.0011218021062078,0.0011218010228443,-0.00090920383005709,0.00090920286565291,-0.00090920412810167,0.00090920316376902,6.8077959212136e-10,-2.028499065746e-09,1.4369070210651e-09,-2.7402014940194e-09,-0.0017878159176257,0.001787814609183,-0.0019868869721247,0.0019868879559373,-0.0019868888277957,0.001986887054407,-0.0019868884001893,0.001986887582095,-0.0019868902559986,0.0019868866807039,-0.0015240095853932,0.0015240114849638,-0.0015240145037835,0.0015240081896383,-0.001599797015065,0.0015997969462152,-0.0015997998118782,0.0015997944493427,-9.8103420817394e-10,-9.8101285149319e-10,-0.00075261891054681,0.00075261582500313,-3.3025109542632e-09,8.3137190293202e-10,-0.00088404763779545,0.00088404313540384,-0.00088404625971664,0.00088404451665367,-0.00088404783997777,0.00088404333746698,-0.00088404646111581,0.00088404471795148,-0.00078250533401164,0.00078250495539352,-0.00078250509249489,0.00078250471393654,0.73731717524021,122718,2924,0.0040775096839138,0.0074204227608962,0.0031339685063498,30.072352345974,0.0001557788187678,0.0001557788187678,0.0001557788187678,2701109.2399264,0.014740030478242
34919200,0.99998270692136,0.015730465984114,0.0049952129277448,0.0066594687957583,0.0040757842606111,-0.00098374958170969,0.00098374544476441,-1.6228956124692e-09,-1.6228761420247e-09,-2.8632947489469e-09,-3.6617592775323e-10,-0.001128049095426,0.0011280444990811,-0.0011280497442601,0.0011280451477501,-0.0011280483085828,0.0011280453330402,-0.0011280489429337,0.001128045967225,-0.00091335425741409,0.00091335154853827,-0.00091335456162543,0.00091335185282095,6.3676377624491e-10,-1.9035478772131e-09,1.2917756981391e-09,-2.5166771541816e-09,-0.001796412154589,0.0017964109246804,-0.0019940641867947,0.0019940650443337,-0.0019940662130084,0.0019940645901281,-0.0019940657705539,0.0019940649574497,-0.0019940677969056,0.0019940645033835,-0.0015340245201016,0.0015340262018863,-0.0015340291852009,0.0015340233640697,-0.0016091067027668,0.0016091066793949,-0.0016091094659688,0.0016091044741251,-2.3221133058744e-09,-2.3220918194232e-09,-0.000759131685155,0.00075912515530578,-4.4478195049614e-09,-7.1238257443664e-10,-0.00089288068882638,0.00089287330560028,-0.0008928794498116,0.00089287455035844,-0.00089288104492763,0.00089287366158205,-0.00089287980252816,0.00089287490297326,-0.00078857101444734,0.00078856765660927,-0.00078857080153608,0.00078856744375626,0.7596705580574,122718,2924,0.0040919166205039,0.0074559156184934,0.003161026859443,33.575028218287,0.0001838002257463,0.0001838002257463,0.0001838002257463,2617231.9789516,0.014818140493078
35919200,0.99998986551543,0.015730595009821,0.0049952505850154,0.0066595215861017,0.0040758228387034,-0.00098940440373012,0.00098939982306613,-1.7846260943868e-09,-1.784606606382e-09,-2.9337097104432e-09,-6.3298824570242e-10,-0.0011343078246358,0.0011343029172188,-0.0011343085262615,0.0011343036186794,-0.0011343071015167,0.0011343036852959,-0.0011343077885161,0.0011343043721294,-0.00091944407616923,0.00091944095828395,-0.00091944437704374,0.0009194412592298,5.7362191853826e-10,-1.7743525965697e-09,1.10781081714e-09,-2.2693535278075e-09,-0.0018046639068515,0.0018046627405521,-0.0020023029407172,0.0020023036521828,-0.0020023048868505,0.0020023034066634,-0.0020023045056042,0.0020023036756583,-0.0020023064518757,0.0020023034302779,-0.0015424137425501,0.0015424151295359,-0.0015424180082003,0.0015424127372138,-0.0016169857502432,0.0016169857470469,-0.0016169883514442,0.0016169837582484,-2.5987249587952e-09,-2.5987034596978e-09,-0.00076677970770665,0.00076677247341249,-4.5121581649595e-09,-1.2111938001035e-09,-0.00090098167034603,0.00090097381365155,-0.00090098057657223,0.00090097491366803,-0.00090098205682076,0.00090097420000691,-0.00090098095922556,0.00090097529621956,-0.00079583806580844,0.0007958339809855,-0.00079583786467291,0.00079583377990837,0.75000467571154,122718,2924,0.0041153987113418,0.0074900300201729,0.0031927910296078,37.531277308711,0.00021545021846969,0.00021545021846969,0.00021545021846969,2571188.468448,0.014908830344234
36919200,0.99999396845083,0.01573065890655,0.0049952691621635,0.0066595477951685,0.004075841949218,-0.00098718863451333,0.00098718683738379,-7.9806633150374e-10,-7.9804689909113e-10,-1.9777194331208e-09,3.5783547648947e-10,-0.0011319821724364,0.0011319796134797,-0.0011319828763755,0.0011319803172537,-0.0011319814365262,0.0011319803941307,-0.0011319821258789,0.0011319810833175,-0.0009173391301526,0.00091733832978,-0.00091733943406135,0.00091733863376016,5.6802141715914e-10,-1.7666183504926e-09,1.0928641616324e-09,-2.2524447289479e-09,-0.0018035239182699,0.0018035227539571,-0.0020013366129246,0.0020013373115352,-0.0020013385520744,0.0020013370799571,-0.0020013381747749,0.0020013373406773,-0.0020013401140629,0.0020013371092385,-0.0015411516554183,0.0015411530174401,-0.0015411558800896,0.0015411506467938,-0.0016156853808104,0.0016156853770015,-0.0016156879664029,0.0016156833990009,-5.5295294857691e-10,-5.5293148720864e-10,-0.00076483539746602,0.00076483346101849,-2.5305851560958e-09,8.4310677801593e-10,-0.00089895958979748,0.00089895640279067,-0.0008989584693752,0.00089895752946407,-0.00089895997656018,0.00089895678943404,-0.00089895885231093,0.00089895791229814,-0.00079393657197416,0.00079393714710861,-0.00079393636773827,0.0007939369429312,0.64797249646976,122718,2924,0.0041062117117527,0.0074853154065483,0.0031847270838082,36.859222149983,0.00021007377719986,0.00021007377719986,0.00021007377719986,2562392.9933402,0.014886536234011
37919200,0.99999647682707,0.015730695136385,0.0049952797021896,0.0066595626399881,0.0040758527942072,-0.00099201494812907,0.00099201301367395,-8.2753907086708e-10,-8.2751979391732e-10,-2.038655282146e-09,4.3450890716879e-10,-0.0011333744122804,0.0011333716847326,-0.0011333747855107,0.001133372057797,-0.0011333736258038,0.00113337251153,-0.0011333739905133,0.0011333728760727,-0.00092149675583624,0.0009214957534065,-0.00092149705624909,0.00092149605389072,6.0931314554871e-10,-1.885695122779e-09,1.1523752398451e-09,-2.3875095932796e-09,-0.0018031682728586,0.0018031670328963,-0.0020029467258322,0.002002947500394,-0.0020029483762719,0.0020029468088702,-0.0020029480827643,0.0020029471940567,-0.0020029497333422,0.0020029465026722,-0.0015391542835319,0.0015391556955715,-0.0015391585854781,0.0015391530367322,-0.0016139814735774,0.0016139814742973,-0.0016139840622008,0.001613979193132,-9.7643440890053e-10,-9.7641311476061e-10,-0.00076742163086804,0.00076741857522613,-2.9899383826995e-09,5.1357120529724e-10,-0.00089876969547343,0.00089876542829253,-0.00089876852577422,0.00089876660111435,-0.00089876989502991,0.00089876562772974,-0.00089876872468562,0.00089876679992431,-0.00079646177566361,0.00079646120602451,-0.0007964615343507,0.00079646096477158,0.60088035577967,122718,2924,0.0041261986730199,0.0074839199817685,0.0031954401146217,37.672465516144,0.00021657972412915,0.00021657972412915,0.00021657972412915,2630161.4312794,0.014916261244004
38880000,0.9999978853221,0.015730719281397,0.0049952867681732,0.0066595724874199,0.0040758600258035,-0.00099279370418104,0.00099279255220101,-5.4879109500728e-10,-5.4877183583001e-10,-1.7757107725085e-09,7.2210735199842e-10,-0.0011335614763165,0.0011335594058319,-0.0011335618491468,0.0011335597784962,-0.0011335606814732,0.0011335602411383,-0.0011335610457678,0.001133560605266,-0.00092208777039164,0.00092208742491344,-0.00092208807012142,0.00092208772471454,6.119711222317e-10,-1.8941188967914e-09,1.1558849468612e-09,-2.3966942517534e-09,-0.001801833003676,0.001801831758021,-0.0020015999801099,0.0020016007566843,-0.0020016016354986,0.0020016000618567,-0.0020016013413586,0.0020016004475422,-0.0020016029968852,0.0020015997528537,-0.0015378487192415,0.0015378501343917,-0.0015378530313335,0.001537847460797,-0.0016127337090375,0.00161273371071,-0.0016127363084148,0.0016127314184688,-3.9756337385521e-10,-3.9754209088269e-10,-0.00076728919196188,0.0007672876327269,-2.4398901594128e-09,1.1059101541984e-09,-0.00089820837784472,0.00089820542403481,-0.00089820719338433,0.00089820661159191,-0.00089820857737144,0.0008982056234421,-0.00089820739226972,0.00089820681037573,-0.0007963050378717,0.00079630579147441,-0.00079630479568577,0.00079630554934843,0.71322188760333,122718,2924,0.0041294199514993,0.007478411568101,0.0031948871114424,37.196081041824,0.00021276864833459,0.00021276864833459,0.00021276864833459,2661504.6050669,0.014913377654
