time,ASR_ext,ASR_strain,ASR_strain_xx,ASR_strain_yy,ASR_strain_zz,disp_x_101,disp_x_102,disp_x_103,disp_x_104,disp_x_105,disp_x_106,disp_x_p1_neg,disp_x_p1_pos,disp_x_p2_neg,disp_x_p2_pos,disp_x_p3_neg,disp_x_p3_pos,disp_x_p4_neg,disp_x_p4_pos,disp_x_p5_neg,disp_x_p5_pos,disp_x_p6_neg,disp_x_p6_pos,disp_y_101,disp_y_102,disp_y_103,disp_y_104,disp_y_105,disp_y_106,disp_y_p1_neg,disp_y_p1_pos,disp_y_p2_neg,disp_y_p2_pos,disp_y_p3_neg,disp_y_p3_pos,disp_y_p4_neg,disp_y_p4_pos,disp_y_p5_neg,disp_y_p5_pos,disp_y_p6_neg,disp_y_p6_pos,disp_y_p7_neg,disp_y_p7_pos,disp_y_p8_neg,disp_y_p8_pos,disp_z_101,disp_z_102,disp_z_103,disp_z_104,disp_z_105,disp_z_106,disp_z_p1_neg,disp_z_p1_pos,disp_z_p2_neg,disp_z_p2_pos,disp_z_p3_neg,disp_z_p3_pos,disp_z_p4_neg,disp_z_p4_pos,disp_z_p5_neg,disp_z_p5_pos,disp_z_p6_neg,disp_z_p6_pos,humidity,ndof,nelem,strain_xx,strain_yy,strain_zz,temp,thermal_strain_xx,thermal_strain_yy,thermal_strain_zz,vonmises,vstrain
2419200,0,0,0,0,0,0,0,0,0,0,0,0,0,0,0,0,0,0,0,0,0,0,0,0,0,0,0,0,0,0,0,0,0,0,0,0,0,0,0,0,0,0,0,0,0,0,0,0,0,0,0,0,0,0,0,0,0,0,0,0,0,0,0,0,0,0,0,0,0,0,0,0,0,0,0
3419200,0.15846859896348,0.0027326334164818,0.00091087780549393,0.00091087780549393,0.00091087780549393,-0.0002519224181778,0.000251707917578,-6.6610867995032e-07,3.5567054669327e-07,4.2905438407046e-07,-6.606132446569e-07,-0.00025709986395201,0.00025704619896572,-0.00025677256946042,0.00025739953116888,-0.00025757883370791,0.00025659877157236,-0.00025723275283135,0.00025702591521584,-0.00024912984893296,0.00024723790679741,-0.00024810906641713,0.00024848291912573,3.2129491150386e-06,4.3757558044987e-06,4.8876039949878e-06,2.9531670855093e-06,-0.00026588196722048,0.00027347268363693,-0.00026898700008214,0.00027663728352799,-0.00026956262133853,0.00027595056547096,-0.0002685430693123,0.00027703202966196,-0.00026920728848848,0.00027633177782933,-0.00025725947076275,0.00026741863783405,-0.00025893049607325,0.00026525685263402,-0.00026397618352241,0.00026995719727745,-0.00026296415809011,0.00027086673081124,8.8540369263134e-07,-1.4590575747681e-07,-0.00023023359571174,0.0002310124685325,-4.8900382728896e-07,1.414903499311e-06,-0.00023723597100047,0.00023769843058627,-0.00023656042433479,0.00023826183156787,-0.00023761025644795,0.00023732547286082,-0.00023694148348916,0.00023793206834807,-0.00023535368648754,0.00023558840073857,-0.00023405669403989,0.00023645631675237,0.78396790106755,131688,2924,0.0010486769210826,0.0011230196654718,0.00096047426591583,31.7853762714,0.0001694830101712,0.0001694830101712,0.0001694830101712,2433523.1991115,0.0031370837234897
4419200,0.34916290579618,0.005882883123346,0.0019634333859239,0.0021643200673681,0.0017551296700541,-0.00049586318983818,0.00049534980851568,-7.3770857731256e-07,2.5590811304435e-08,6.2274857062426e-07,-1.1598767124919e-06,-0.00051839165284193,0.00051849555119224,-0.00051818605098676,0.00051875043022804,-0.00051923763024646,0.00051775869648905,-0.00051897726127161,0.00051820763349526,-0.00047822227504262,0.00047575900570543,-0.00047740871434571,0.00047700321022119,6.6570023380028e-06,8.7024869131711e-06,8.9536701462477e-06,7.1247163457983e-06,-0.00057731831542136,0.00059281879078645,-0.00059911552450248,0.00061416238648167,-0.00059965486445194,0.00061350574557482,-0.00059826291893442,0.00061485963825588,-0.00059898979346313,0.00061411384734914,-0.00053461747602998,0.0005531985483683,-0.0005361641028619,0.00055092768799581,-0.00056244432799509,0.00057543920471078,-0.0005605694623973,0.00057694950286111,8.493850485347e-07,7.0786502176632e-08,-0.00041131580642502,0.00041229572022199,-2.6782140167536e-07,1.5052889685408e-06,-0.00043305161589166,0.00043367620710826,-0.00043237789150726,0.00043411462850044,-0.00043338290426469,0.00043336593758566,-0.00043273017839658,0.00043387779546688,-0.00043218213392447,0.00043268175229214,-0.00043086019596328,0.00043318974840615,0.77882048909573,131688,2924,0.0020628846630997,0.0024347700927598,0.0017145038340954,33.598604738448,0.00018398883790758,0.00018398883790758,0.00018398883790758,3775169.4186719,0.006231515606234
5419200,0.5492584276953,0.0090984391692061,0.0030036937986699,0.0035638445910863,0.0025309007794499,-0.00073043031633535,0.00073043056705126,-9.8752704736766e-07,8.1529691472014e-07,4.4445109954532e-08,-3.9994396744706e-08,-0.00077666082420264,0.00077625667909777,-0.00077606539041155,0.00077684270544758,-0.00077684347237037,0.000776167257292,-0.00077620989870541,0.00077688967867368,-0.0006922270023495,0.00068997405192857,-0.00069031732674437,0.00069204197532134,4.9984928248731e-06,5.3332903378045e-06,5.3545162710009e-06,5.7039464969171e-06,-0.00093646678638841,0.00094696986074199,-0.00099499157104707,0.0010049587973085,-0.00099482769847254,0.0010050651001911,-0.00099473154044982,0.0010050865414369,-0.00099471288273707,0.0010051149909357,-0.00084167738631948,0.00085257345189246,-0.0008413046663445,0.00085264750866488,-0.00089012282117924,0.00090024060423724,-0.00088977875716523,0.00090023183911225,9.4128396065457e-07,-8.7146693193664e-07,-0.00057213307927247,0.00057219783946416,2.9138847447734e-07,-8.3831863410816e-08,-0.00061113577154409,0.00061191067347767,-0.00061123373241406,0.00061168377188211,-0.00061181437412858,0.00061128243669672,-0.00061189518295502,0.00061111988244977,-0.0006086402336835,0.00060664818776179,-0.00060644409828079,0.00060819973545687,0.7731962008536,131688,2924,0.0030388425268595,0.0039159826166152,0.0023816621531774,36.266592193414,0.00020533273754732,0.00020533273754732,0.00020533273754732,4516686.9701345,0.0093802800274665
6419200,0.70588844846296,0.011436136863036,0.0037167175385467,0.0046679298431005,0.003051489481389,-0.00087641597813037,0.00087664191189159,-1.0280844312075e-06,1.0688305618188e-06,-1.4611753350158e-07,4.038089892904e-07,-0.00094820039748302,0.00094774080354404,-0.00094752447063722,0.00094842851816761,-0.00094819208188472,0.00094782511591647,-0.00094746508992861,0.00094866948365913,-0.00081859409264579,0.00081641200383129,-0.00081638703404577,0.00081883153015684,5.8521569803927e-06,5.5318419552882e-06,6.4601920482416e-06,5.6181087096682e-06,-0.0012192659443535,0.0012308057327296,-0.0013177693681154,0.0013293738749733,-0.001317987926749,0.0013290639874148,-0.0013177054162803,0.0013292866490896,-0.001318080810387,0.0013288882723577,-0.0010673179701378,0.0010801777629037,-0.0010680301602889,0.0010790442302569,-0.0011341782082854,0.00114564390106,-0.0011344670928087,0.0011449175315875,1.3370897209309e-06,-7.7236716076016e-07,-0.00066539120003817,0.00066597763078355,-1.4809418181396e-08,7.8672667450819e-07,-0.00072743109942368,0.00072841020518795,-0.000727138700006,0.00072858933318028,-0.00072819575885395,0.00072768443102241,-0.00072789845395904,0.0007279100869339,-0.00070613342239424,0.00070470965669505,-0.00070360248361917,0.00070656861952921,0.72914357019579,131688,2924,0.0036456522356244,0.0050910107736998,0.0027708591838834,36.738372752475,0.0002091069820198,0.0002091069820198,0.0002091069820198,4660653.7392244,0.011574149272794
7419200,0.83157877766151,0.013248154562572,0.0042399884168619,0.0055461468212885,0.0034620193244216,-0.00097318057308714,0.00097379677253919,-3.0058937259635e-07,7.4084312251045e-07,-8.2645455529033e-07,1.5191881270345e-06,-0.0010693969920376,0.0010690520756411,-0.0010690634086095,0.0010693746783532,-0.0010687796562924,0.0010697440965548,-0.0010683997344101,0.0010702205751912,-0.00090056726504193,0.00090043574705246,-0.00089935820300665,0.00090180593529358,5.9925831283081e-06,3.8744921056219e-06,5.0923748184345e-06,5.4929327090048e-06,-0.0014582289957823,0.0014682810554748,-0.001598477835537,0.0016088058029027,-0.0015983101628605,0.0016088973288622,-0.0015989896902078,0.0016081053806988,-0.0015989763558798,0.0016081443232304,-0.0012532197571898,0.0012627934964006,-0.0012528065303893,0.0012629325504739,-0.0013300631661301,0.0013421971024644,-0.0013320989276015,0.0013397032179539,6.4606371778078e-07,-4.0587856622372e-07,-0.00073106956043182,0.00073131159691623,4.0404055258574e-07,-2.4660384086289e-08,-0.00081432667875093,0.0008150269115058,-0.00081447028734697,0.0008148331564115,-0.00081473140642161,0.00081466659208587,-0.00081486959237698,0.00081449497233911,-0.00077251235012148,0.00077136638904087,-0.00077103704207672,0.00077226251234881,0.71234622060342,131688,2924,0.0040482900672014,0.0060778767355798,0.0030436642383778,40.760780655762,0.0002412862452461,0.0002412862452461,0.0002412862452461,4586677.1175607,0.013257209531301
8419200,0.90749221804766,0.014320969545469,0.0045413156142816,0.0060644985708369,0.00371515536035,-0.0010092082553794,0.0010097167259285,-2.6139155019146e-07,6.0002658178502e-07,-8.3897397185608e-07,1.4318382401057e-06,-0.0011232349649885,0.001122867066043,-0.0011229529688809,0.0011231153479477,-0.0011226311238257,0.0011235129377751,-0.0011223065949536,0.0011239334244646,-0.00093050099189966,0.00093043201691148,-0.00092948487532037,0.00093162738858905,5.7838185089806e-06,3.7350980408146e-06,4.4745367196278e-06,5.7609600622346e-06,-0.0016038886214534,0.0016135767334033,-0.0017727169026447,0.001782347963799,-0.0017722738886779,0.0017827645998904,-0.0017732041405823,0.0017816740016941,-0.0017729113174208,0.0017820092012271,-0.0013641934462841,0.0013725664451879,-0.0013629210363389,0.0013736039859867,-0.0014444381066609,0.0014564166803404,-0.0014463979828847,0.0014539959852532,4.6278110852411e-07,-4.0958860301536e-07,-0.00075695195764343,0.00075701166644667,7.416714230091e-07,-5.6797056948424e-07,-0.00085727914155865,0.00085803650201067,-0.00085771328518567,0.00085755193275729,-0.00085762929114504,0.00085774859820226,-0.00085806374427205,0.00085728423891393,-0.00079661089737285,0.00079517237142556,-0.00079533939923653,0.00079588442187603,0.6984878693936,131688,2924,0.0041977971409427,0.0066799944639652,0.0031513373763161,41.433084666473,0.00024666467733178,0.00024666467733178,0.00024666467733178,4255424.3066711,0.014128375262602
9419200,0.94952353629377,0.014902747336664,0.0047030045818026,0.0063403919944924,0.0038593507603686,-0.0010155136927647,0.0010158487219517,-3.4973692722189e-07,5.1532019491238e-07,-6.0263052552164e-07,1.0149438699883e-06,-0.0011411815557214,0.0011408521552426,-0.00114089996701,0.0011411036056162,-0.0011407806769974,0.0011412813714295,-0.0011404555230309,0.0011417020647566,-0.00093485831001584,0.00093438833087366,-0.00093384251320415,0.00093559069061309,5.522690303821e-06,4.1230957821513e-06,4.0508623233468e-06,6.2851947070072e-06,-0.0016849929489545,0.0016947924348582,-0.0018715469074756,0.0018807646793739,-0.001870794020914,0.0018814952034503,-0.0018718285578898,0.0018803136032004,-0.0018712328892255,0.0018809609912229,-0.0014249566430215,0.0014327118453421,-0.0014227671150362,0.0014346716493633,-0.0015050221310946,0.0015168114785065,-0.001506346854639,0.0015150269937211,4.2233462176146e-07,-4.529231489246e-07,-0.00076388487737069,0.00076386217610386,1.1615427608632e-06,-1.0859304408088e-06,-0.00087592892045395,0.00087692679312837,-0.00087667660537306,0.00087612761065749,-0.00087628178740611,0.0008766284388342,-0.00087702315008961,0.00087585535184131,-0.0008008477255871,0.00079901519939006,-0.00079957323926386,0.00079972173589258,0.67994985059107,131688,2924,0.0042238106311388,0.0070157057172912,0.0031803286845015,41.145479045477,0.00024436383236382,0.00024436383236382,0.00024436383236382,3926784.6926819,0.014524760260452
10419200,0.97054984074998,0.015201923973846,0.0047867836429572,0.0064778386548538,0.0039373016760347,-0.0010085635258166,0.0010087332419011,-4.6950750920401e-07,4.680083197182e-07,-2.2853969812198e-07,4.5409935110918e-07,-0.0011398188182179,0.0011396136336442,-0.0011395205483473,0.0011398987185459,-0.0011397249834237,0.00113973936836,-0.0011393730804778,0.0011401802457616,-0.00092819232439912,0.00092717039715508,-0.00092710616140072,0.0009284320408917,5.2088660567752e-06,4.7409925979058e-06,5.0148077427027e-06,5.6070896520097e-06,-0.0017206626354097,0.0017307548792721,-0.0019167649065396,0.0019265094771783,-0.0019165336389415,0.0019266905921254,-0.0019167570779572,0.0019263736518221,-0.0019166818645219,0.0019264718766417,-0.0014490797338205,0.0014590402466662,-0.0014484666120669,0.0014593646744137,-0.0015296418959302,0.0015402602262207,-0.0015300498183482,0.0015394192647674,5.9290908675017e-07,-3.5456144340792e-07,-0.00076090605926287,0.00076115390386145,5.0101598620497e-07,-1.196423784321e-07,-0.00087904646479496,0.00087978602302785,-0.00087926006913355,0.00087953456894697,-0.00087942060201681,0.00087946092126159,-0.00087962574460613,0.00087923265598421,-0.00079561211174992,0.00079452186969311,-0.00079426089157966,0.00079528822209315,0.69329668228383,131688,2924,0.0041947741462786,0.007163806730292,0.0031687105649366,38.100583821415,0.00022000467057132,0.00022000467057132,0.00022000467057132,3681878.6319291,0.014633803598001
11419200,0.98269121366378,0.015371915231536,0.0048345560541735,0.0065545375735103,0.0039828216038521,-0.0010032933280941,0.0010034200454696,-5.3201201774504e-07,4.8844706438288e-07,-1.6021856931486e-07,3.4020114068669e-07,-0.0011399683205587,0.0011397525965682,-0.0011396417539949,0.0011400643631964,-0.0011399314892219,0.0011398161322419,-0.0011395519046615,0.0011402851835499,-0.00092353778219215,0.00092233192647907,-0.00092236992383434,0.00092367616137728,5.1342717900529e-06,4.8473740794341e-06,4.9836937134873e-06,5.6661980057747e-06,-0.0017476829122017,0.0017578033849918,-0.0019482124640886,0.0019578948616831,-0.0019479524113263,0.0019581071183859,-0.0019481467554113,0.001957820027275,-0.0019480427563369,0.0019579481047356,-0.0014709448392077,0.0014809085577955,-0.0014702455298625,0.0014813186268326,-0.0015501046529248,0.0015606080675062,-0.0015503396389383,0.001559944173087,6.3083222296389e-07,-3.996588901517e-07,-0.00075993811332308,0.00076017937716505,5.4096778595925e-07,-1.6756778019569e-07,-0.00088402096705186,0.00088481181028253,-0.00088426546043459,0.00088453180866766,-0.00088442265305784,0.00088445879705187,-0.00088465815971663,0.00088420264450833,-0.00079273352167226,0.00079152603906735,-0.00079130398561279,0.00079237575577106,0.67906583948269,131688,2924,0.0041729388550756,0.0072755400288349,0.0031648204561828,37.628197100356,0.00021622557680285,0.00021622557680285,0.00021622557680285,3477066.9463873,0.014721109541075
12419200,0.98965476332757,0.01547201216111,0.004862904241652,0.0065988388215749,0.0040102690978827,-0.00099751590329803,0.00099769450669573,-4.8278246913057e-07,4.8920858404802e-07,-9.7498394827993e-08,3.4095686954697e-07,-0.0011365255483142,0.0011364035729195,-0.001136230444572,0.0011366918143414,-0.0011365290253648,0.0011364485256744,-0.0011361506836805,0.0011369025392975,-0.0009183286797936,0.00091716567053136,-0.00091715812531068,0.00091846839724297,5.0778388065423e-06,4.8503057929032e-06,4.9023880315113e-06,5.7085843883375e-06,-0.0017605451064816,0.0017706210209542,-0.0019647419243555,0.0019743052065962,-0.0019644354778659,0.0019745768540206,-0.0019646436174662,0.0019742611227422,-0.001964517789095,0.0019744325169202,-0.0014801780182233,0.0014900335257306,-0.0014793716914501,0.0014905445684706,-0.001558557046436,0.0015690210351138,-0.0015587535302501,0.0015683905762245,6.1001990215859e-07,-3.7374176041623e-07,-0.00075738028730208,0.00075762305808673,6.0248597568402e-07,-2.2791202184916e-07,-0.00088375516137431,0.00088456469101034,-0.00088404090362904,0.00088425639359581,-0.00088414253167753,0.00088423007374556,-0.00088442083247423,0.00088394063969484,-0.00078941216339026,0.00078820347724947,-0.0007880081242074,0.00078902588379083,0.69355173677586,131688,2924,0.0041491429634954,0.0073286122716554,0.0031542721900901,36.80426720048,0.00020963413760384,0.00020963413760384,0.00020963413760384,3361872.2637276,0.014740121863235
13419200,0.99354392721131,0.0155265546364,0.0048783640629899,0.0066228191711574,0.0040253714022531,-0.00099010756633516,0.0009902119757399,-4.9005556942093e-07,4.2635061515534e-07,-1.3595824894391e-07,2.9402225232196e-07,-0.0011315358614808,0.0011313553256788,-0.0011312455639483,0.0011316298459554,-0.0011315209823409,0.0011313923114364,-0.0011311742855156,0.0011318276343241,-0.0009114249515806,0.00091026874425369,-0.00091034899447323,0.00091151614717455,5.1031983494109e-06,4.8856183322442e-06,4.89409257133e-06,5.7603976222997e-06,-0.0017674444975275,0.0017775712468191,-0.0019729537380894,0.0019825595873443,-0.0019726342157121,0.0019828336226637,-0.0019728656976047,0.0019825090038735,-0.0019727044076567,0.0019826978846408,-0.0014856470659664,0.0014954580053592,-0.0014847703248364,0.0014960517947724,-0.0015626139747447,0.0015731222250472,-0.001562784877536,0.001572523272645,5.6934769064754e-07,-3.567888658586e-07,-0.00075358682692807,0.00075380935133746,6.2048647670178e-07,-2.6985837310637e-07,-0.00088277619178376,0.00088357466707384,-0.0008830812610904,0.00088323640600794,-0.00088314258536681,0.00088325679469678,-0.00088343992205316,0.00088293960209748,-0.00078404607060959,0.00078285671980065,-0.00078271492936912,0.00078361440914839,0.67550368756397,131688,2924,0.0041183139487018,0.0073572057802897,0.0031385269505611,34.794597943962,0.0001935567835517,0.0001935567835517,0.0001935567835517,3234117.8498172,0.014721895462051
14419200,0.99578955998116,0.015557647145062,0.0048871848699517,0.0066363994816696,0.0040340627934409,-0.00098290178631747,0.00098302776508857,-4.570037631657e-07,4.131131816152e-07,-1.8935209422944e-07,3.7022052810583e-07,-0.0011244494510759,0.0011242630052646,-0.0011241739954407,0.0011245242269202,-0.0011243936946145,0.0011243466591177,-0.0011240625702091,0.0011247643798551,-0.00090459948725913,0.00090355792749404,-0.00090357462608518,0.00090475286165744,5.1425555857326e-06,4.7952703045018e-06,4.8785934655635e-06,5.7259924669308e-06,-0.001767008269409,0.0017770849071506,-0.0019748187588127,0.0019844235094715,-0.0019745056322017,0.0019846915275238,-0.0019747725768351,0.001984329276567,-0.001974616994413,0.001984513197549,-0.0014831734064657,0.0014929095358388,-0.0014823158221776,0.0014934875676889,-0.0015594060409549,0.0015699789973477,-0.0015596983709826,0.0015692572261387,5.4714859094317e-07,-3.3288153942055e-07,-0.00074879151611367,0.00074901513288769,6.1154364774697e-07,-2.6027958448791e-07,-0.00087803034250141,0.00087880770424221,-0.00087832995587072,0.00087847691246802,-0.00087838155751956,0.00087850518018515,-0.00087867223618887,0.00087819618674236,-0.00077862254181967,0.00077748983755054,-0.00077733913515207,0.00077819474012119,0.66543916109165,131688,2924,0.0040884857177481,0.0073553045426293,0.0031186258775287,32.643906339658,0.00017635125071727,0.00017635125071727,0.00017635125071727,3171010.488235,0.014669502112761
15419200,0.99695894522846,0.015574766918827,0.0048920987780647,0.0066437462924427,0.0040389218483192,-0.00097082922404345,0.00097098422644849,-3.8842999804298e-07,3.7324838479145e-07,-2.5567477916073e-07,4.7160239911387e-07,-0.0011120939671006,0.0011119148829211,-0.0011118538572472,0.0011121401905182,-0.0011119843501945,0.0011120552750132,-0.0011116899240805,0.0011124361120447,-0.00089300360377496,0.00089215259477215,-0.00089208662641312,0.00089323784814773,5.1963515850386e-06,4.6813126255514e-06,4.8587442228173e-06,5.6850601952706e-06,-0.0017576382240861,0.0017676549646916,-0.001966429192847,0.001976036169335,-0.0019661226693931,0.0019762972382043,-0.0019664362305101,0.0019758856167408,-0.0019662874458145,0.0019760622618123,-0.0014733671225326,0.0014830038314476,-0.001472530330151,0.0014835620699424,-0.0015485954246951,0.0015592696591364,-0.0015490446969855,0.001558375294648,4.930075519087e-07,-2.7850089445222e-07,-0.00073992516264736,0.00074014886685705,6.0074874154061e-07,-2.496015798903e-07,-0.00086883840851601,0.00086957278511324,-0.00086913094032066,0.00086924906636041,-0.00086915425731822,0.00086930614471903,-0.00086943723812787,0.00086900531052502,-0.00076885646606774,0.00076784025299522,-0.0007676788020284,0.00076843445905071,0.70138893932865,131688,2924,0.004038463973672,0.0073164353943856,0.0030817818674391,27.069722384383,0.00013175777907507,0.00013175777907507,0.00013175777907507,3085052.5958758,0.014541925669375
16419200,0.99770964727832,0.015585379396549,0.0048951412623497,0.0066482886082155,0.0040419495259834,-0.00096380574530962,0.00096408649556201,-3.0917938242375e-07,4.1009204593775e-07,-2.0928141308766e-07,5.6058117258354e-07,-0.0011073879713445,0.0011073393517649,-0.0011071730727715,0.001107555282673,-0.0011072740071096,0.001107495489604,-0.0011069856058736,0.0011078675894238,-0.00088612657827166,0.00088542388299624,-0.00088523562329546,0.00088647999657909,5.2135853134502e-06,4.6635805018672e-06,4.8076027831525e-06,5.710960875209e-06,-0.0017584066571154,0.0017684142656347,-0.0019657064562053,0.0019752939692344,-0.0019653633213165,0.001975580068437,-0.0019657225048853,0.0019751284853468,-0.0019655403368468,0.0019753247839728,-0.0014755593082845,0.0014850804454521,-0.0014746348824824,0.0014856890859423,-0.0015498139569702,0.0015605450971038,-0.0015502735834003,0.0015596005177175,4.7310013587569e-07,-2.6028524536209e-07,-0.00073606496474348,0.0007362919313748,6.4251802261633e-07,-2.8516912782309e-07,-0.00086751046873202,0.00086825772130477,-0.00086783720111161,0.00086792137026995,-0.00086781265101978,0.00086800446826106,-0.00086812620103748,0.00086768884336738,-0.00076378785054798,0.00076277594216276,-0.00076261687828489,0.00076332143633382,0.67697638740558,131688,2924,0.0040096207702587,0.0073195393478629,0.0030657728967799,24.418335341227,0.00011054668272982,0.00011054668272982,0.00011054668272982,2972868.98733,0.014499594505828
17419200,0.9982137892071,0.015592705636533,0.0048972518803574,0.0066513927418143,0.0040440610143612,-0.00095707257103047,0.00095732908857933,-2.9996396622369e-07,3.8194572001068e-07,-2.3994735734456e-07,5.8114835361398e-07,-0.0011000286508316,0.0010999381573221,-0.0010998208646183,0.0011001397573093,-0.0010998869881385,0.001100102739415,-0.0010996138486428,0.0011004640072621,-0.00088000126079795,0.00087933549390031,-0.00087916086540038,0.0008803564604575,5.2342177287799e-06,4.6233796322808e-06,4.8474666769967e-06,5.6574351343556e-06,-0.0017529332029097,0.0017629210785293,-0.0019614205549437,0.0019710314146994,-0.0019611226715814,0.0019712912669051,-0.0019614491859305,0.0019708448082864,-0.0019613078289565,0.001971011665021,-0.0014693468251009,0.0014789318454951,-0.0014685356587751,0.0014794694027361,-0.0015430895532192,0.0015538494028789,-0.0015436093700691,0.0015528063369843,4.5023234064816e-07,-2.4206591486652e-07,-0.00073097331763199,0.00073119571306461,5.9246169463338e-07,-2.4489355865179e-07,-0.000861739975055,0.00086244880662977,-0.00086203073770859,0.00086213320746649,-0.00086203570953231,0.00086221332257773,-0.00086231717906352,0.00086191486747071,-0.00075848632383638,0.00075754637112299,-0.00075736894514276,0.00075804893934136,0.69394003813955,131688,2924,0.0039816299448094,0.0072968765958259,0.0030445998359052,21.98020207174,9.1041616573922e-05,9.1041616573922e-05,9.1041616573922e-05,2940991.2863348,0.014426716414654
18419200,0.99852698575584,0.015597183779916,0.0048985426128894,0.0066532853884845,0.0040453557785422,-0.00094749764514545,0.00094765410480385,-3.3818504352671e-07,3.2375183152231e-07,-3.0993527891804e-07,5.3055991809115e-07,-0.001091229808336,0.0010910480750101,-0.0010910238444634,0.0010912393800819,-0.001091084768824,0.0010912266592049,-0.0010908227296857,0.0010915745398976,-0.00087086519168256,0.00087014671449218,-0.00087004551379366,0.00087113855346851,5.2257169555093e-06,4.5985433782351e-06,4.8698628782811e-06,5.6185291517211e-06,-0.001746361467688,0.0017563256268682,-0.0019541373130128,0.0019637550753312,-0.0019538548547,0.0019639898812541,-0.0019541797956256,0.0019635668738097,-0.0019540556063078,0.001963716792288,-0.0014637515993839,0.001473370627802,-0.0014629903734484,0.0014738488818169,-0.0015364731493849,0.001547184169837,-0.0015370301928171,0.0015461717191913,4.5350856363937e-07,-2.1812640443684e-07,-0.00072431626889709,0.0007245620924259,5.7479906749122e-07,-1.989048904602e-07,-0.00085603622141651,0.00085673365573823,-0.00085630423667066,0.00085643613140284,-0.00085631854686711,0.00085650057444724,-0.0008565768592043,0.00085622484071025,-0.00075070412099846,0.00074982900987165,-0.00074962082989355,0.00075032563212472,0.68267067324666,131688,2924,0.0039417069361501,0.0072696252893001,0.0030169862248925,17.477991042025,5.5023928336201e-05,5.5023928336201e-05,5.5023928336201e-05,2850235.9750981,0.014330573759608
19419200,0.99878631836058,0.015601115648501,0.0048996869823426,0.0066549210525001,0.004046507613658,-0.0009451986511118,0.00094536047273404,-3.4006192439027e-07,3.3183865631883e-07,-3.0578487012553e-07,5.291937125932e-07,-0.0010888781094513,0.0010887012493893,-0.0010886694172701,0.0010888971804494,-0.0010887343652255,0.0010888769653772,-0.0010884686429394,0.0010892284919779,-0.00086888591242193,0.00086816495960302,-0.00086805479027753,0.00086916518262578,5.2228742635588e-06,4.6008630934522e-06,4.8946139615488e-06,5.5971968365583e-06,-0.0017470298375414,0.0017569951911893,-0.0019558502901797,0.0019654821115722,-0.0019555827536534,0.001965701447041,-0.0019558911859066,0.0019652956513775,-0.0019557812705958,0.0019654306399778,-0.001463469449461,0.0014731437606557,-0.0014627516034851,0.0014735769105539,-0.0015359694263563,0.0015466527077672,-0.001536526561116,0.0015456537460835,4.6135841119915e-07,-2.204015500234e-07,-0.00072295745924694,0.0007232082123922,5.5485290207638e-07,-1.733854520817e-07,-0.00085461094259009,0.00085530092995369,-0.0008548643725682,0.00085501931374196,-0.00085489656587121,0.00085506483286065,-0.0008551405797093,0.00085480443310981,-0.00074924773287503,0.00074838406646381,-0.00074815799692249,0.00074889425177956,0.72158242931198,131688,2924,0.0039321881714375,0.0072723963775587,0.0030113592613611,17.551568034682,5.5612544277453e-05,5.5612544277453e-05,5.5612544277453e-05,2831032.3874332,0.014318017944937
20419200,0.99901200922666,0.015604574364037,0.0049006951779721,0.0066563557530475,0.004047523433017,-0.00094496247405207,0.00094511546602881,-3.436792450272e-07,3.2679216403233e-07,-3.0426496507326e-07,5.1787571039777e-07,-0.0010910223344463,0.0010908419949571,-0.0010908141023206,0.0010910376484648,-0.0010908833369529,0.0010910135661712,-0.0010906179603442,0.0010913644901493,-0.00086876039751699,0.00086802857194858,-0.00086793029660026,0.0008690273667379,5.2127748792394e-06,4.6042592056559e-06,4.8723217525509e-06,5.6114966275753e-06,-0.0017540751603769,0.0017640337076282,-0.0019613618480866,0.0019709709532787,-0.0019610824186641,0.0019712022397534,-0.0019613987231431,0.0019707887740314,-0.0019612767143071,0.0019709362046811,-0.0014717589741534,0.0014813927973772,-0.0014710042690907,0.0014818633034402,-0.0015436412769819,0.0015543165594742,-0.0015441858338424,0.0015533325207309,4.6119030645337e-07,-2.1921441216395e-07,-0.00072417702460837,0.00072442875255588,5.7363590706493e-07,-1.9115579353567e-07,-0.00085847208597913,0.00085917441413806,-0.00085873789267855,0.00085888120499412,-0.00085875717923536,0.00085893882947194,-0.00085901372946353,0.00085866670308377,-0.00074972962495529,0.00074885559814558,-0.00074864172936766,0.00074936575283923,0.72910480566943,131688,2924,0.0039312265862758,0.0073014663057613,0.0030164567429532,18.597312401887,6.3978499215098e-05,6.3978499215098e-05,6.3978499215098e-05,2771210.0135222,0.014351724114037
21419200,0.99916555055365,0.015606865010746,0.0049013604313025,0.0066573085634097,0.004048196016034,-0.0009369894836537,0.00093717882158941,-3.2094896031006e-07,3.3782183932554e-07,-3.0245205621479e-07,5.615978146238e-07,-0.0010834906207192,0.001083334021499,-0.0010832884725486,0.0010835277478516,-0.0010833386333974,0.0010835167101327,-0.0010830723586324,0.0010838652678569,-0.00086131483354392,0.00086062943497591,-0.0008604907010646,0.00086162361579317,5.2429673942698e-06,4.5929115007742e-06,4.9174744917663e-06,5.5686171459855e-06,-0.0017478960441143,0.00175786378384,-0.0019550499631186,0.0019647099587387,-0.0019547985154313,0.0019649112588426,-0.0019551011779726,0.001964512351226,-0.0019550025833585,0.0019646269324945,-0.0014659319298046,0.0014756305940642,-0.001465259778644,0.0014760122715188,-0.0015372470956571,0.001547960878244,-0.0015378154589606,0.0015469124021061,4.656408236887e-07,-2.0328191813223e-07,-0.00071853967171109,0.0007188123750871,5.4073637649974e-07,-1.3679339994123e-07,-0.00085314933187161,0.00085383872518894,-0.00085338662705657,0.00085357990707446,-0.00085343052619938,0.00085360994668646,-0.00085366139724646,0.00085336748457083,-0.00074371590046968,0.0007428987200686,-0.00074262544622276,0.00074339412814994,0.70951084583708,131688,2924,0.0038982241120307,0.0072759177855615,0.0029930728408154,15.225615175098,3.7004921400783e-05,3.7004921400783e-05,3.7004921400783e-05,2709213.5408411,0.014268615867659
22419200,0.99929265304706,0.015608781138784,0.0049019187376168,0.0066581002277506,0.0040487621734161,-0.00093421412747294,0.00093437319325998,-3.3440759348071e-07,3.2339780650228e-07,-3.1788561903559e-07,5.3924997541953e-07,-0.0010803001517858,0.0010801180006866,-0.0010800967740277,0.0010803098100416,-0.0010801498373863,0.0010803012472861,-0.0010798885591621,0.0010806480019255,-0.00085895515065642,0.00085825192157396,-0.00085813679346059,0.00085923810929057,5.2252280293484e-06,4.5813981307345e-06,4.9450661599341e-06,5.5286460468109e-06,-0.0017466057570564,0.0017565540213666,-0.0019549220767674,0.0019645831973007,-0.0019546922124728,0.0019647624786085,-0.0019549699714947,0.0019643894171861,-0.0019548977698705,0.0019644844973086,-0.0014636619769268,0.0014734279054221,-0.0014630584973971,0.0014737422832894,-0.0015347845599945,0.0015454329042774,-0.0015353623622917,0.0015444114972159,4.6383667639575e-07,-2.0383422810684e-07,-0.000716581978912,0.00071685179321686,5.0669795976876e-07,-1.0359252106626e-07,-0.00085074042050884,0.00085140465405139,-0.00085095530761669,0.00085116299064187,-0.00085102136387307,0.00085117335535463,-0.000851226796293,0.00085095261070172,-0.00074175130471781,0.00074095966548053,-0.0007406749889157,0.00074145644988903,0.71604798205477,131688,2924,0.0038866472396939,0.0072705520788689,0.0029849346762363,14.858990590166,3.407192472133e-05,3.407192472133e-05,3.407192472133e-05,2697198.6225542,0.014243168708152
23419200,0.99940552169189,0.015610453790426,0.00490240572138,0.0066587914400702,0.0040492566289762,-0.00093367680683149,0.00093383654474004,-3.3270472397482e-07,3.2242227438304e-07,-3.1271835485295e-07,5.3308694782199e-07,-0.0010805779029193,0.0010804023522505,-0.0010803766804477,0.0010805927197151,-0.0010804319359555,0.0010805820765355,-0.0010801706501594,0.0010809276071463,-0.00085859891374651,0.00085789322545224,-0.00085777920003196,0.00085887752774341,5.2182774383746e-06,4.5856153403e-06,4.9298055539767e-06,5.540464651254e-06,-0.0017500078958518,0.0017599533513429,-0.001958375998947,0.0019680221875512,-0.0019581367149728,0.0019682102771141,-0.0019584204435994,0.0019678323501364,-0.0019583406712729,0.0019679365583622,-0.0014669487796316,0.0014766879132238,-0.0014663166309988,0.0014770259625052,-0.0015378083723412,0.0015484517981597,-0.0015383779188887,0.0015474467027481,4.6184656510628e-07,-2.0319578739867e-07,-0.0007168784930325,0.00071714703858949,5.2002730556035e-07,-1.1733348586929e-07,-0.00085188161301367,0.00085255134536686,-0.00085210551035283,0.00085230191553756,-0.00085216063641492,0.00085232050380154,-0.00085237537729494,0.0008520913915753,-0.00074186094667807,0.0007410598155335,-0.00074078504081763,0.00074155676754959,0.70404422419392,131688,2924,0.0038844369884994,0.0072846003928059,0.0029861797157584,15.705719495675,4.0845755965397e-05,4.0845755965397e-05,4.0845755965397e-05,2673231.0090939,0.01425644416923
24419200,0.99951206883993,0.015612059914918,0.0049028745639386,0.0066594524587854,0.0040497328921941,-0.00093529922009085,0.00093545393802027,-3.3796850828367e-07,3.2325974226808e-07,-3.1127765579033e-07,5.2796997241143e-07,-0.0010823199618286,0.0010821378511739,-0.0010821149392967,0.0010823306616708,-0.0010821741380428,0.0010823136758644,-0.0010819113337158,0.0010826619988974,-0.00086041605299246,0.00085969959039607,-0.00085959325095492,0.00086069014442112,5.2196826676949e-06,4.5936375103704e-06,4.9247452912962e-06,5.5565162036604e-06,-0.0017548607028434,0.0017648158149634,-0.0019642722478036,0.0019739182081763,-0.001964027702695,0.0019741136468634,-0.0019643142997816,0.0019737305408878,-0.0019642263205969,0.0019738411718387,-0.001470686661652,0.0014804205468028,-0.0014700362012847,0.0014807823505768,-0.0015415123458443,0.0015521649805272,-0.0015420740231754,0.0015511612628714,4.627808905249e-07,-2.0827763487344e-07,-0.00071855613603027,0.00071882038607476,5.2723076187041e-07,-1.3087776801011e-07,-0.00085369209949034,0.00085436841149389,-0.0008539230530914,0.00085411076092853,-0.00085397403169558,0.00085413614488988,-0.00085419591973657,0.00085389877467496,-0.00074367034278856,0.00074285372233013,-0.0007425917788909,0.00074335624256043,0.71549404783747,131688,2924,0.0038911719851054,0.007304692278438,0.0029931587365851,17.881578696201,5.8252629569606e-05,5.8252629569606e-05,5.8252629569606e-05,2678137.3922298,0.014290730444278
25419200,0.99960920852786,0.01561359772565,0.0049033259101428,0.0066600812002848,0.004050190615222,-0.00093689067217546,0.00093704118279005,-3.4100302727818e-07,3.2223770599483e-07,-3.1066210951285e-07,5.207571877098e-07,-0.0010850458386522,0.0010848628163681,-0.0010848408889705,0.0010850558831849,-0.0010849034456904,0.0010850373803141,-0.0010846400271229,0.0010853857389083,-0.00086211257935484,0.00086138839581058,-0.00086128652275775,0.00086238019269287,5.2117302436299e-06,4.5934640712532e-06,4.8909267985078e-06,5.5817179730213e-06,-0.0017612061970604,0.001771153381806,-0.001970513214794,0.0019801302660045,-0.001970248887561,0.0019803452421179,-0.0019705534727444,0.0019799451223518,-0.0019704471727122,0.001980076210551,-0.0014769598087376,0.0014866280084475,-0.0014762509761966,0.0014870477118416,-0.0015475661740726,0.0015582221932467,-0.0015481231854091,0.001557232913015,4.6113609397179e-07,-2.1196689484543e-07,-0.00072060871013925,0.0007208677480463,5.5394634704889e-07,-1.6270775134741e-07,-0.00085694893128842,0.00085763940178538,-0.00085719950895272,0.00085736302708323,-0.00085723075389359,0.00085740609117451,-0.00085747211382003,0.000857149910509,-0.00074557946565094,0.00074473530136815,-0.00074449910759463,0.0007452414352608,0.75065157253045,131688,2924,0.0038977904692233,0.0073308957370255,0.0030016991250077,19.926561128836,7.4612489030685e-05,7.4612489030685e-05,7.4612489030685e-05,2661313.4481554,0.014332694512415
26419200,0.99968885529542,0.0156148864972,0.0049037045459107,0.0066606072220276,0.0040505747292618,-0.00093581899205879,0.0009359671601365,-3.3656755053868e-07,3.152178188723e-07,-3.0660529594954e-07,5.1315229190659e-07,-0.0010857882716578,0.0010856116300144,-0.0010855878457565,0.0010858009582036,-0.001085650423922,0.001085782890917,-0.001085390340748,0.0010861272865489,-0.00086126059281059,0.00086053980968444,-0.00086044428858362,0.00086152112050612,5.2047120412327e-06,4.5989549104887e-06,4.8644665628259e-06,5.600987842168e-06,-0.0017651310595421,0.0017750741429085,-0.0019733913204987,0.0019829862201464,-0.0019731104675036,0.001983215208373,-0.0019734285895534,0.001982804594892,-0.0019733054940039,0.0019829503639287,-0.001481742856832,0.00149135747463,-0.0014809865064865,0.001491821925284,-0.0015518935540744,0.001562550515663,-0.0015524361124008,0.001561575520205,4.5490643542572e-07,-2.067619589893e-07,-0.00072085467813115,0.00072111287606167,5.7621495438142e-07,-1.8583321308385e-07,-0.0008590436412303,0.00085974389921886,-0.00085931004598244,0.00085945392479352,-0.00085932071064185,0.00085951464665095,-0.00085957799580516,0.00085924373268062,-0.00074543862564045,0.00074458820147989,-0.00074436697394623,0.00074508371379722,0.76692112580892,131688,2924,0.0038933661546032,0.007347077487542,0.0030027394916693,20.393280605255,7.8346244842044e-05,7.8346244842044e-05,7.8346244842044e-05,2615024.3597732,0.014345692818706
27419200,0.99975830905313,0.015615967650945,0.0049040208144123,0.0066610502599409,0.0040508965765918,-0.00093647654881413,0.00093662494424674,-3.3512439304918e-07,3.1370411199226e-07,-3.2122745924805e-07,5.3146495329239e-07,-0.0010877794217781,0.0010875912992798,-0.0010875792266446,0.0010877805709008,-0.001087630690908,0.0010877732591151,-0.001087372366784,0.0010881167482908,-0.00086237213448516,0.00086166651861041,-0.00086156216876244,0.0008626427062201,5.213197872484e-06,4.5741367809138e-06,4.9753314272386e-06,5.4774756350828e-06,-0.0017703872197854,0.0017803158830888,-0.001978454973094,0.0019881221558528,-0.0019782510661528,0.0019882737687202,-0.0019785016968356,0.0019879298034062,-0.0019784552020759,0.0019879976683887,-0.001486859208538,0.0014966854389235,-0.0014863337269993,0.0014969192833679,-0.0015569599451017,0.0015675567637231,-0.0015575328553644,0.0015665415710033,4.6649259264246e-07,-1.9221694021469e-07,-0.00072219427311472,0.00072247827142114,4.7439446898714e-07,-5.5285785460983e-08,-0.00086168424380531,0.00086233223751227,-0.00086187318046536,0.00086211800943886,-0.00086196205679337,0.0008621038096214,-0.00086214144795539,0.00086191033388507,-0.00074686957200313,0.00074612823778057,-0.00074580298375401,0.00074661691507489,0.73788855867307,131688,2924,0.0038961178639435,0.0073687559402063,0.0030083820571511,22.249487793028,9.3195902344225e-05,9.3195902344225e-05,9.3195902344225e-05,2595198.8482359,0.014376203331167
28419200,0.99981539782419,0.015616902613811,0.004904295914899,0.006661430372639,0.0040511763262732,-0.00093667347837173,0.00093681134336551,-3.4138928502038e-07,3.1063896934935e-07,-3.1793802624014e-07,5.2014244409755e-07,-0.0010875183139379,0.0010873212283657,-0.0010873172071865,0.0010875096865271,-0.0010873741234095,0.00108749848108,-0.0010871151268626,0.0010878423191238,-0.00086289789417129,0.00086217433045769,-0.00086208338429232,0.00086315228419567,5.1905832988894e-06,4.5632156903979e-06,4.9668497762816e-06,5.4642050843508e-06,-0.0017719168027486,0.0017818179406957,-0.0019812095624863,0.0019908435496384,-0.0019810127955661,0.0019909995904821,-0.0019812485007011,0.001990658866388,-0.0019812141259641,0.0019907277410689,-0.0014872750554942,0.0014971015008773,-0.0014867644534065,0.001497329544678,-0.0015574285475055,0.0015679855327015,-0.0015579998656827,0.0015669772284664,4.6637802578055e-07,-1.9504968222378e-07,-0.00072243507432854,0.00072271533335093,4.7021538397205e-07,-5.5234891904041e-08,-0.00086141283630357,0.00086205744181251,-0.00086159837212508,0.00086184220018718,-0.00086169397354629,0.0008618273102009,-0.0008618693487089,0.0008616352452181,-0.0007474369935875,0.00074669240222398,-0.00074637243222123,0.00074718479777312,0.77520834844898,131688,2924,0.0038969147014927,0.0073750367880575,0.0030093816827409,23.439579026492,0.00010271663221193,0.00010271663221193,0.00010271663221193,2606209.7382337,0.014384385637293
