time,ASR_ext,ASR_strain,ASR_strain_xx,ASR_strain_yy,ASR_strain_zz,disp_x_101,disp_x_102,disp_x_103,disp_x_104,disp_x_105,disp_x_106,disp_x_p1_neg,disp_x_p1_pos,disp_x_p2_neg,disp_x_p2_pos,disp_x_p3_neg,disp_x_p3_pos,disp_x_p4_neg,disp_x_p4_pos,disp_x_p5_neg,disp_x_p5_pos,disp_x_p6_neg,disp_x_p6_pos,disp_y_101,disp_y_102,disp_y_103,disp_y_104,disp_y_105,disp_y_106,disp_y_p1_neg,disp_y_p1_pos,disp_y_p2_neg,disp_y_p2_pos,disp_y_p3_neg,disp_y_p3_pos,disp_y_p4_neg,disp_y_p4_pos,disp_y_p5_neg,disp_y_p5_pos,disp_y_p6_neg,disp_y_p6_pos,disp_y_p7_neg,disp_y_p7_pos,disp_y_p8_neg,disp_y_p8_pos,disp_z_101,disp_z_102,disp_z_103,disp_z_104,disp_z_105,disp_z_106,disp_z_p1_neg,disp_z_p1_pos,disp_z_p2_neg,disp_z_p2_pos,disp_z_p3_neg,disp_z_p3_pos,disp_z_p4_neg,disp_z_p4_pos,disp_z_p5_neg,disp_z_p5_pos,disp_z_p6_neg,disp_z_p6_pos,humidity,ndof,nelem,strain_xx,strain_yy,strain_zz,temp,thermal_strain_xx,thermal_strain_yy,thermal_strain_zz,vonmises,vstrain
2419200,0,0,0,0,0,0,0,0,0,0,0,0,0,0,0,0,0,0,0,0,0,0,0,0,0,0,0,0,0,0,0,0,0,0,0,0,0,0,0,0,0,0,0,0,0,0,0,0,0,0,0,0,0,0,0,0,0,0,0,0,0,0,0,0,0,0,0,0,0,0,0,0,0,0,0
3419200,0.15971932813928,0.0026614135266323,0.00088713784221078,0.00088713784221078,0.00088713784221078,-0.00024491856119756,0.00024491855214573,-2.3613922613631e-12,-4.946435979304e-12,5.4757613695246e-12,-1.3093795522946e-11,-0.00024928959465666,0.00024928959384472,-0.00024928959605994,0.00024928959352287,-0.00024928960053612,0.00024928958761753,-0.0002492896020152,0.00024928958737538,-0.00024484324562571,0.00024484323430565,-0.00024484324843343,0.00024484323205195,-6.0961192089192e-12,1.2481968438109e-11,-1.5439009723851e-11,2.1532524357926e-11,-0.00025895518565899,0.0002589551917881,-0.00026181671426091,0.00026181670212113,-0.00026181670304964,0.00026181671515884,-0.00026181670895353,0.00026181670896373,-0.00026181669773997,0.00026181672200332,-0.00025530812215858,0.00025530809812165,-0.00025530808672952,0.00025530813525239,-0.00025530811017359,0.00025530811040274,-0.00025530809242142,0.00025530812934096,-6.8445205810651e-12,-4.2596202869653e-12,-0.00024491856311326,0.00024491855023386,1.2429217590052e-11,-2.4165417535371e-11,-0.00024928959425464,0.00024928959405651,-0.00024928960639676,0.00024928958192786,-0.0002492895939905,0.00024928959551372,-0.00024928960613556,0.00024928958339182,-0.0002448432508359,0.00024484322967816,-0.00024484325312191,0.00024484322689972,0.75746877217741,122718,2924,0.0010199727979384,0.0010783956999767,0.0010199727979464,31.872947273627,0.00017018357818901,0.00017018357818901,0.00017018357818901,1102263.5566712,0.0031232100992263
4419200,0.35127110537199,0.005722010329408,0.001863806239003,0.0019943978513789,0.0018638062390262,-0.00046953665700041,0.00046953663733604,-7.0756012772232e-12,-9.6632985885874e-12,5.6163250979176e-12,-2.3222275987174e-11,-0.00048387254507699,0.00048387253761766,-0.00048387254763949,0.00048387253845097,-0.00048387255426189,0.00048387252789997,-0.00048387255698978,0.00048387252890799,-0.0004706201094684,0.00047062008493263,-0.00047062011323123,0.00047062008363071,-6.8825295228592e-12,2.2078291221888e-11,-1.2616919914698e-11,2.731271846814e-11,-0.0005360070964371,0.00053600711121721,-0.00054951221051894,0.00054951220251159,-0.00054951219994944,0.00054951221822537,-0.00054951220347843,0.00054951221446939,-0.00054951219290317,0.00054951223018828,-0.00051975115711226,0.00051975114230077,-0.00051975112042671,0.00051975118382681,-0.00051975114988232,0.00051975114987692,-0.00051975112360021,0.00051975118039044,-1.2244856567743e-11,-9.6574079728156e-12,-0.00046953665958672,0.00046953663476007,7.9354656210901e-12,-3.116773728498e-11,-0.00048387254659965,0.00048387253587311,-0.00048387255945694,0.00048387252291429,-0.00048387254751824,0.00048387253851155,-0.00048387256043975,0.0004838725256263,-0.00047062011500108,0.00047062008184367,-0.00047062011640148,0.00047062007817269,0.73992840791513,122718,2924,0.0019545017407506,0.0022308556422878,0.0019545017407721,33.606623196848,0.00018405298557478,0.00018405298557478,0.00018405298557478,2174450.1843144,0.0061587598340567
5419200,0.55150441320325,0.0088088254996739,0.0028018718773296,0.003205081744997,0.0028018718773473,-0.00068094286798698,0.00068094285640074,-3.5813866076416e-12,-6.1715759799385e-12,7.614097896374e-12,-1.765107336006e-11,-0.0007093225838607,0.00070932258225455,-0.00070932258609881,0.00070932258276233,-0.00070932259192361,0.00070932257376573,-0.00070932259430829,0.00070932257442853,-0.00068258465564712,0.00068258463923677,-0.0006825846590825,0.00068258463760225,-7.0060071771722e-12,1.8485475649055e-11,-1.21060448157e-11,2.3212803923598e-11,-0.00084348088226349,0.00084348089340021,-0.00087643643740116,0.00087643642844617,-0.00087643642737763,0.00087643644156442,-0.00087643643048206,0.00087643643825093,-0.00087643642045204,0.00087643645137519,-0.00080408766863389,0.0008040876535826,-0.00080408763447345,0.00080408768863356,-0.00080408766212691,0.0008040876602957,-0.00080408763740661,0.00080408768555671,-7.4536617663377e-12,-4.8636899470225e-12,-0.00068094286923514,0.00068094285516028,1.0771231299219e-11,-2.3714745272538e-11,-0.00070932258425983,0.00070932258170303,-0.00070932259556873,0.00070932257028987,-0.0007093225848185,0.00070932258398349,-0.00070932259619803,0.0007093225726496,-0.00068258465934489,0.00068258463725769,-0.00068258466112299,0.00068258463395983,0.72499638738019,122718,2924,0.0028333178514522,0.0035082727591282,0.0028333178514682,36.277814904154,0.00020542251923324,0.00020542251923324,0.00020542251923324,2954891.381341,0.0092171689596806
6419200,0.70768055767732,0.010768404225449,0.0033650538007885,0.0040382966238574,0.0033650538008032,-0.00079479906624154,0.00079479905718277,-2.5225811979054e-12,-5.114116471239e-12,8.7281112188111e-12,-1.7125212542394e-11,-0.000840271730827,0.00084027173173405,-0.00084027173262479,0.00084027173180063,-0.00084027173910596,0.0008402717230404,-0.00084027174106824,0.00084027172327994,-0.00079144159581548,0.00079144158159826,-0.0007914415987063,0.00079144157941673,-5.8715969355676e-12,2.0197527008826e-11,-1.12776861509e-11,2.5196987366979e-11,-0.00105775260837,0.0010577526223354,-0.0011180387186573,0.0011180387119305,-0.0011180387080651,0.0011180387252987,-0.0011180387113933,0.0011180387217694,-0.0011180387007946,0.0011180387351436,-0.00098888137627422,0.00098888136311173,-0.0009888813415745,0.00098888139986808,-0.00098888136937375,0.00098888137025421,-0.00098888134465958,0.00098888139661144,-6.7940369468349e-12,-4.2027298153714e-12,-0.00079479906790246,0.00079479905552795,1.1713008381516e-11,-2.3888587817007e-11,-0.00084027173154988,0.00084027173083067,-0.0008402717432194,0.00084027171905043,-0.00084027173171104,0.00084027173271453,-0.00084027174345066,0.00084027172101298,-0.00079144159948018,0.00079144157859709,-0.00079144160178485,0.00079144157582298,0.59839168540088,122718,2924,0.0033063825701739,0.0043974782086097,0.0033063825701865,36.740412350384,0.00020912329880307,0.00020912329880307,0.00020912329880307,3289035.2152,0.011071179147877
7419200,0.83279351059903,0.012138095580839,0.0037519124276948,0.0046342707254362,0.0037519124277079,-0.00086979774169657,0.00086979773256704,-2.4250296412738e-12,-5.017555927129e-12,8.649436611237e-12,-1.6890541917303e-11,-0.00092852191469693,0.00092852191571092,-0.00092852191651004,0.00092852191579224,-0.00092852192288349,0.00092852190713603,-0.00092852192484755,0.00092852190737672,-0.00086167210047098,0.00086167208649724,-0.00086167210331377,0.0008616720842658,-6.1392978310184e-12,1.9607988136481e-11,-1.1551531520406e-11,2.4621470007463e-11,-0.0012225446265494,0.0012225446396586,-0.0013099042037058,0.0013099041963136,-0.0013099041931724,0.0013099042095602,-0.0013099041965383,0.0013099042060439,-0.0013099041859985,0.0013099042192965,-0.0011258709216682,0.0011258709078365,-0.0011258708872595,0.0011258709443124,-0.0011258709147426,0.0011258709149708,-0.0011258708903685,0.001125870941056,-6.3622528434252e-12,-3.7699563598328e-12,-0.00086979774301241,0.00086979773125635,1.1994293464921e-11,-2.3319140707251e-11,-0.0009285219150778,0.00092852191516791,-0.00092852192665402,0.00092852190348467,-0.00092852191523931,0.00092852191705275,-0.00092852192688333,0.00092852190544584,-0.00086167210374806,0.00086167208377048,-0.00086167210611151,0.00086167208105337,0.52694121020036,122718,2924,0.0036179457165675,0.0050807976313895,0.0036179457165782,40.777849910875,0.000241422799287,0.000241422799287,0.000241422799287,3395693.111103,0.012393014754064
8419200,0.90820228129013,0.012875931039847,0.0039591960067425,0.00495753902635,0.0039591960067549,-0.00089555200506881,0.00089555199833629,-1.5738854262335e-12,-4.166627748745e-12,9.0997750779707e-12,-1.565610989306e-11,-0.00096439276251514,0.00096439276524214,-0.00096439276405257,0.0009643927650477,-0.0009643927704516,0.0009643927569384,-0.00096439277213641,0.00096439275689974,-0.00088491708244713,0.00088491707061433,-0.00088491708521754,0.00088491706831013,-5.9772570165482e-12,1.8996020552259e-11,-1.1313684609995e-11,2.3945637124282e-11,-0.0013157633113871,0.0013157633240553,-0.0014202267180328,0.0014202267107681,-0.0014202267075376,0.0014202267234402,-0.0014202267108621,0.0014202267199739,-0.0014202267003604,0.001420226732652,-0.0012008704521096,0.0012008704384707,-0.0012008704185279,0.0012008704739956,-0.0012008704452751,0.0012008704455088,-0.0012008704216002,0.0012008704707796,-5.4483679825686e-12,-2.8558560790865e-12,-0.00089555200632006,0.00089555199708965,1.2443296218783e-11,-2.1954713299498e-11,-0.00096439276286016,0.00096439276474576,-0.00096439277412696,0.0009643927533694,-0.00096439276274346,0.00096439276635246,-0.00096439277407954,0.00096439275505391,-0.00088491708556563,0.00088491706789944,-0.00088491708799872,0.00088491706525163,0.47156008474719,122718,2924,0.003725005196128,0.0054670930874749,0.0037250051961375,41.436037207658,0.00024668829766126,0.00024668829766126,0.00024668829766126,3307614.4268566,0.013001100916384
9419200,0.94991946417941,0.013228243823557,0.0040582299412606,0.0051117839410241,0.0040582299412727,-0.00089867525213873,0.00089867524661381,-1.1367697963601e-12,-3.7294474602884e-12,9.3063935508446e-12,-1.4984806930317e-11,-0.00097452742938277,0.00097452743297585,-0.00097452743078018,0.00097452743264148,-0.00097452743717189,0.00097452742483331,-0.00097452743871366,0.0009745274246517,-0.00088664823299953,0.00088664822228195,-0.00088664823575097,0.00088664821995893,-5.8839539257171e-12,1.8629363209271e-11,-1.1139316877986e-11,2.350524622498e-11,-0.0013636105212853,0.0013636105336857,-0.0014781178836403,0.0014781178764683,-0.001478117873187,0.0014781178887721,-0.001478117876463,0.0014781178853593,-0.0014781178660032,0.0014781178976691,-0.0012376719900102,0.0012376719765514,-0.001237671956981,0.0012376720114303,-0.0012376719832768,0.0012376719834847,-0.0012376719600084,0.001237672008262,-4.9728318775173e-12,-2.3803840309018e-12,-0.00089867525335082,0.00089867524540603,1.2615315640178e-11,-2.116922392985e-11,-0.00097452742971794,0.00097452743249629,-0.00097452744077842,0.00097452742132543,-0.00097452742945948,0.00097452743396115,-0.00097452744058954,0.00097452742286839,-0.00088664823603519,0.00088664821961111,-0.00088664823848521,0.00088664821698038,0.40621133923259,122718,2924,0.0037380806248864,0.0056652878072875,0.0037380806248953,41.14427471976,0.00024435419775808,0.00024435419775808,0.00024435419775808,3179379.0541602,0.013228420363736
10419200,0.97077503174878,0.013418611251409,0.0041126636086666,0.0051932840340643,0.0041126636086786,-0.0008937070369544,0.00089370703379717,-3.112489437643e-13,-2.9037392826478e-12,9.8127196619736e-12,-1.3821792547843e-11,-0.00097283633724246,0.00097283634256651,-0.00097283633836356,0.00097283634195603,-0.00097283634481881,0.00097283633464779,-0.00097283634608387,0.00097283633418964,-0.00088144736129761,0.00088144735263435,-0.00088144736403862,0.00088144735030124,-5.7134620164808e-12,1.8159753555524e-11,-1.085458687041e-11,2.2930867536561e-11,-0.001383971872594,0.0013839718847034,-0.001503372256481,0.0015033722495287,-0.0015033722460017,0.0015033722612255,-0.0015033722492075,0.0015033722578875,-0.0015033722387217,0.0015033722695902,-0.0012523558603506,0.0012523558472261,-0.0012523558280661,0.0012523558811723,-0.0012523558537608,0.0012523558540117,-0.0012523558310293,0.0012523558780717,-4.1186646187995e-12,-1.5264065163875e-12,-0.00089370703813759,0.00089370703261815,1.3047159800577e-11,-1.9870462527076e-11,-0.00097283633758907,0.00097283634208259,-0.00097283634835709,0.00097283633120136,-0.00097283633705264,0.00097283634326939,-0.00097283634789268,0.00097283633246867,-0.0008814473642585,0.00088144735001657,-0.00088144736671676,0.00088144734739453,0.43665130715676,122718,2924,0.0037175233366061,0.0057496076624725,0.0037175233366148,38.087766249746,0.00021990212999797,0.00021990212999797,0.00021990212999797,3113366.8825099,0.013272209813182
11419200,0.98282369015127,0.013520579529985,0.0041418460972313,0.0052368873355107,0.0041418460972432,-0.00088854608365929,0.00088854607892349,-8.4199741910094e-13,-3.4342848324856e-12,9.2207823684133e-12,-1.4291205060554e-11,-0.00097305084138394,0.00097305084536952,-0.00097305084270312,0.00097305084495722,-0.00097305084892759,0.00097305083749302,-0.00097305085038551,0.00097305083722785,-0.00087634020202673,0.00087634019221594,-0.00087634020476176,0.00087634018987727,-5.6732692149315e-12,1.8060185509024e-11,-1.0697783072423e-11,2.2717861396693e-11,-0.0014010796272302,0.0014010796392826,-0.0015222587185992,0.0015222587117406,-0.0015222587084338,0.001522258723526,-0.0015222587115667,0.0015222587202656,-0.0015222587013948,0.001522258732057,-0.0012665454508543,0.0012665454379951,-0.0012665454189696,0.0012665454716114,-0.0012665454444141,0.0012665454446268,-0.001266545421861,0.0012665454685851,-4.6289808819292e-12,-2.0369239351367e-12,-0.00088854608482193,0.00088854607776491,1.2364240369179e-11,-2.0204113465702e-11,-0.00097305084175018,0.00097305084486934,-0.00097305085240616,0.00097305083410311,-0.00097305084141076,0.00097305084625295,-0.00097305085213537,0.00097305083556386,-0.00087634020492346,0.00087634018965061,-0.00087634020738624,0.00087634018703344,0.40445605707229,122718,2924,0.0036961695459596,0.0058204097903708,0.003696169545968,37.62614127246,0.00021620913017968,0.00021620913017968,0.00021620913017968,2995581.1199502,0.013300699049612
12419200,0.98973344996802,0.013586362703746,0.0041609123379188,0.0052645380278969,0.0041609123379307,-0.0008855456900409,0.00088554568569924,-7.0758044824124e-13,-3.2997777107724e-12,9.2965573972882e-12,-1.4093955409925e-11,-0.00097149781823843,0.000971497822508,-0.00097149781950913,0.00097149782204732,-0.00097149782574378,0.00097149781467368,-0.00097149782715229,0.00097149781435917,-0.00087337691868996,0.00087337690922323,-0.00087337692142466,0.00087337690688438,-5.6451792201204e-12,1.7968935708407e-11,-1.0585117631922e-11,2.2544170996933e-11,-0.0014092719975494,0.0014092720095404,-0.0015323316378831,0.0015323316310991,-0.0015323316277542,0.0015323316427307,-0.0015323316308341,0.0015323316395266,-0.0015323316206986,0.0015323316511642,-0.0012723690939293,0.0012723690812493,-0.0012723690623059,0.0012723691145665,-0.0012723690875973,0.0012723690877691,-0.0012723690651454,0.0012723691115948,-4.4797021040581e-12,-1.8877349045239e-12,-0.00088554569118853,0.00088554568455565,1.2374708137631e-11,-1.9908366778134e-11,-0.00097149781861867,0.00097149782199615,-0.00097149782917937,0.00097149781132493,-0.00097149781822996,0.00097149782333037,-0.00097149782885948,0.00097149781273651,-0.00087337692154411,0.00087337690669954,-0.00087337692400664,0.00087337690408231,0.45322610794666,122718,2924,0.0036837463319519,0.0058543268892951,0.0036837463319603,36.800802159216,0.00020960641727373,0.00020960641727373,0.00020960641727373,2956479.2025094,0.013309893850388
13419200,0.99359198684575,0.013619996640251,0.0041706370776342,0.0052787224849704,0.004170637077646,-0.00087680044179665,0.00087680043848722,-3.5923312310115e-13,-2.9512499876507e-12,9.5497207809677e-12,-1.3635547325742e-11,-0.0009666641746964,0.00096666417968174,-0.00096666417585355,0.00096666417910761,-0.00096666418213554,0.00096666417191799,-0.00096666418342979,0.00096666417148936,-0.00086482633298289,0.00086482632437438,-0.00086482633570813,0.00086482632202648,-5.5747954291205e-12,1.7839591748012e-11,-1.0431320447968e-11,2.2335046562012e-11,-0.0014137643247702,0.0014137643367053,-0.0015370107026793,0.0015370106960313,-0.0015370106925349,0.0015370107074029,-0.0015370106955627,0.0015370107042537,-0.0015370106854117,0.0015370107156313,-0.0012758362492195,0.0012758362367714,-0.0012758362178898,0.0012758362696737,-0.0012758362429941,0.001275836243182,-0.001275836220679,0.0012758362667538,-4.1222244953419e-12,-1.5304381579295e-12,-0.0008768004429351,0.00087680043735273,1.2558342145386e-11,-1.935962138476e-11,-0.00096666417509612,0.00096666417915312,-0.00096666418553388,0.00096666416860388,-0.00096666417459313,0.00096666418037294,-0.00096666418510034,0.00096666416990168,-0.00086482633579174,0.00086482632187714,-0.00086482633826255,0.00086482631926856,0.4150894025916,122718,2924,0.0036474888081553,0.0058728803695176,0.0036474888081635,34.786205539327,0.00019348964431462,0.00019348964431462,0.00019348964431462,2877080.9777685,0.013255231387619
14419200,0.99582019092729,0.013637941347753,0.0041758366642189,0.0052862680193034,0.0041758366642307,-0.00087133567265614,0.00087133566951807,-2.9986228426599e-13,-2.8917905256613e-12,9.530866250343e-12,-1.3494633189396e-11,-0.00096094753803104,0.00096094754312816,-0.00096094753916418,0.00096094754253011,-0.00096094754541951,0.0009609475354185,-0.00096094754668911,0.00096094753496527,-0.00085926754991073,0.00085926754148715,-0.00085926755264398,0.0008592675391474,-5.5330710273017e-12,1.7723352651978e-11,-1.0311797334611e-11,2.2143443768287e-11,-0.001412294494893,0.0014122945067558,-0.0015370404704813,0.0015370404639164,-0.0015370404604097,0.0015370404751555,-0.0015370404633886,0.0015370404720581,-0.0015370404533105,0.0015370404833033,-0.0012727945103447,0.0012727944980771,-0.0012727944793168,0.001272794530671,-0.0012727945042186,0.0012727945043849,-0.0012727944820589,0.0012727945278008,-4.0498957490531e-12,-1.4581986000925e-12,-0.00087133567378155,0.0008713356683966,1.2479337617743e-11,-1.9129316481998e-11,-0.00096094753844439,0.00096094754258797,-0.00096094754877936,0.0009609475321414,-0.0009609475379167,0.00096094754378305,-0.00096094754832131,0.00096094753341462,-0.00085926755268959,0.00085926753903567,-0.00085926755515195,0.00085926753641877,0.38312450045663,122718,2924,0.0036248104726086,0.0058667969700328,0.0036248104726168,32.634956999041,0.00017627965599233,0.00017627965599233,0.00017627965599233,2875351.9579508,0.013203107999244
15419200,0.99697993824192,0.013650435150141,0.0041795019230414,0.005291431304046,0.0041795019230532,-0.00085972994116508,0.00085972994064535,5.914488103213e-13,-2.0003025224159e-12,1.0178061831903e-11,-1.2331998177685e-11,-0.00094929056013826,0.00094929056716911,-0.00094929056096579,0.00094929056626557,-0.00094929056735671,0.00094929055963362,-0.00094929056832266,0.00094929055887687,-0.00084766835215439,0.00084766834590354,-0.00084766835489157,0.00084766834356805,-5.3809554978561e-12,1.7380791940502e-11,-1.005801391105e-11,2.1706165597423e-11,-0.0014035119983623,0.0014035120100409,-0.0015290177840988,0.0015290177777606,-0.0015290177739136,0.0015290177884122,-0.0015290177768292,0.0015290177853813,-0.0015290177666375,0.0015290177960389,-0.0012631958568739,0.00126319584493,-0.0012631958264124,0.0012631958767413,-0.0012631958508764,0.0012631958511057,-0.0012631958290958,0.0012631958739324,-3.1439894532803e-12,-5.5246799012919e-13,-0.00085972994227597,0.00085972993953837,1.30482620022e-11,-1.785567693401e-11,-0.00094929056057216,0.00094929056661243,-0.00094929057066836,0.00094929055640124,-0.00094929055973802,0.00094929056750093,-0.00094929056990711,0.00094929055737115,-0.00084766835489082,0.00084766834350222,-0.00084766835734791,0.00084766834088041,0.51103778709309,122718,2924,0.0035766338346631,0.0058304172256866,0.0035766338346713,27.046978035692,0.00013157582428554,0.00013157582428554,0.00013157582428554,2888834.9942645,0.013068631309881
16419200,0.99772509422706,0.013657732253479,0.0041816253143655,0.0052944816247366,0.0041816253143773,-0.00084718524638115,0.00084718524379182,-1.130258394176e-13,-2.704484591996e-12,9.5062971626765e-12,-1.3074297530361e-11,-0.00094256456261,0.0009425645679301,-0.00094256456369815,0.00094256456728736,-0.00094256456985731,0.00094256456037067,-0.00094256457107926,0.00094256455987012,-0.00083559659290708,0.00083559658505975,-0.00083559659562909,0.00083559658270965,-5.3668760162099e-12,1.7445212296033e-11,-9.958943584639e-12,2.1685888922744e-11,-0.001405323193605,0.0014053232053621,-0.0015293687253926,0.0015293687191354,-0.0015293687155158,0.0015293687300374,-0.0015293687183773,0.0015293687270631,-0.0015293687084939,0.0015293687379712,-0.0012653036099475,0.0012653035982228,-0.0012653035796556,0.0012653036299632,-0.0012653036040602,0.0012653036042864,-0.0012653035822845,0.0012653036272098,-3.8469051414533e-12,-1.2556804780586e-12,-0.00084718524749059,0.00084718524268626,1.2293842255087e-11,-1.8510483490781e-11,-0.00094256456307122,0.00094256456734699,-0.00094256457313895,0.00094256455716755,-0.00094256456249735,0.00094256456849557,-0.00094256457263421,0.00094256455839377,-0.00083559659559863,0.00083559658267325,-0.00083559659806981,0.0008355965800661,0.46538451425637,122718,2924,0.0035246104240802,0.0058378326403305,0.0035246104240883,24.407508046773,0.00011046006437418,0.00011046006437418,0.00011046006437418,2779506.2201098,0.012970767184918
17419200,0.99822560169167,0.013663279354024,0.0041832549450706,0.0052967694638709,0.0041832549450824,-0.00084140314725565,0.00084140314453476,-1.6003585917612e-13,-2.7513816037753e-12,9.4775787532395e-12,-1.3143963372706e-11,-0.00093529686326111,0.00093529686853643,-0.0009352968643529,0.00093529686789741,-0.0009352968705223,0.00093529686096387,-0.00093529687174761,0.00093529686046675,-0.00082967154750805,0.00082967153954092,-0.00082967155024364,0.00082967153720463,-5.3979790072114e-12,1.7455105993788e-11,-9.9354388909266e-12,2.1640838181366e-11,-0.0014009826110267,0.0014009826227623,-0.0015269163033193,0.0015269162970495,-0.0015269162934709,0.0015269163079353,-0.001526916296298,0.0015269163049979,-0.0015269162864431,0.0015269163158897,-0.0012591773941349,0.0012591773824696,-0.0012591773639293,0.0012591774141615,-0.0012591773883179,0.0012591773884594,-0.0012591773665235,0.0012591774114453,-3.8811729034202e-12,-1.290056633773e-12,-0.00084140314835229,0.00084140314344198,1.2225706336593e-11,-1.8512128001204e-11,-0.00093529686372795,0.00093529686794828,-0.00093529687377389,0.00093529685779075,-0.00093529686315729,0.00093529686909998,-0.00093529687327247,0.00093529685902022,-0.00082967155018288,0.0008296715371984,-0.00082967155264054,0.00082967153457794,0.52521873377382,122718,2924,0.0035006004841681,0.0058198756476864,0.0035006004841762,21.970372473322,9.0962979786576e-05,9.0962979786576e-05,9.0962979786576e-05,2796925.9473906,0.012903927385903
18419200,0.99853656578082,0.013666590665361,0.0041842238197986,0.0052981430257521,0.0041842238198105,-0.00082786311825916,0.00082786311716652,3.8456374081228e-13,-2.2065089673784e-12,9.9365639429541e-12,-1.2490823972725e-11,-0.00092450406047384,0.00092450406692826,-0.00092450406138255,0.00092450406610634,-0.00092450406767031,0.00092450405942229,-0.00092450406871322,0.00092450405874296,-0.00081630177193079,0.00081630176526636,-0.00081630177466293,0.0008163017629271,-5.3286615953989e-12,1.7340775721793e-11,-9.8124262959357e-12,2.1475658109857e-11,-0.001396138164969,0.001396138176662,-0.0015219063038267,0.0015219062976818,-0.0015219062938619,0.0015219063082501,-0.0015219062966554,0.0015219063053479,-0.0015219062866841,0.0015219063159222,-0.001253950219729,0.001253950208239,-0.0012539501897185,0.0012539502395656,-0.0012539502139806,0.0012539502141592,-0.0012539501922806,0.0012539502368823,-3.3335340892924e-12,-7.4268913488614e-13,-0.00082786311935294,0.00082786311607657,1.2636964272945e-11,-1.7804372766942e-11,-0.00092450406095618,0.00092450406632642,-0.00092450407090079,0.00092450405626853,-0.00092450406020212,0.00092450406729457,-0.00092450407021747,0.0009245040573159,-0.00081630177458218,0.0008163017629405,-0.00081630177704211,0.00081630176032283,0.50516361584657,122718,2924,0.0034444133422887,0.0057997652636802,0.0034444133422967,17.468055197384,5.4944441579069e-05,5.4944441579069e-05,5.4944441579069e-05,2747545.5953211,0.012769754503114
19419200,0.99879421512713,0.013670147692677,0.0041852748732002,0.0052995979462652,0.0041852748732121,-0.00082679322392099,0.00082679321942464,-7.5689619903185e-13,-3.347964229229e-12,8.9320165484668e-12,-1.3806482074391e-11,-0.00092278815589765,0.00092278815981071,-0.00092278815719922,0.00092278815938168,-0.00092278816320112,0.00092278815219914,-0.0009227881646329,0.00092278815190869,-0.00081513942544099,0.00081513941608763,-0.0008151394281798,0.00081513941375506,-5.4326590359956e-12,1.752186368968e-11,-9.8949906560041e-12,2.1631511054539e-11,-0.0013969871728511,0.0013969871846177,-0.0015238959556583,0.0015238959493873,-0.0015238959460529,0.0015238959604988,-0.0015238959488322,0.001523895957612,-0.0015238959392203,0.0015238959687295,-0.0012536846568287,0.0012536846452821,-0.0012536846267477,0.0012536846769959,-0.0012536846511095,0.0012536846511713,-0.0012536846292932,0.0012536846743305,-4.4681392072966e-12,-1.8773011203276e-12,-0.00082679322500785,0.00082679321834163,1.1615874260662e-11,-1.9088122340634e-11,-0.00092278815638,0.00092278815920756,-0.00092278816641833,0.00092278814906025,-0.00092278815601873,0.00092278816056846,-0.00092278816612367,0.00092278815049627,-0.00081513942808468,0.00081513941378332,-0.00081513943053854,0.00081513941115962,0.65325215552177,122718,2924,0.0034399728614495,0.0058032923965729,0.0034399728614575,17.551688956141,5.5613511649125e-05,5.5613511649125e-05,5.5613511649125e-05,2742289.0294517,0.012764327815213
20419200,0.99901846550071,0.013673464381605,0.0041862531038517,0.0053009581738899,0.0041862531038635,-0.00082134426469695,0.00082134425948666,-1.0041421513524e-12,-3.5949966253151e-12,8.8425255011069e-12,-1.422207264309e-11,-0.00092261687838932,0.00092261688180854,-0.00092261687977409,0.00092261688146284,-0.00092261688579908,0.00092261687408898,-0.00092261688731273,0.00092261687388054,-0.00081005819129636,0.00081005818128459,-0.00081005819402412,0.00081005817894141,-5.5233102372518e-12,1.775018339114e-11,-9.9941646851291e-12,2.1864577346288e-11,-0.001405036438821,0.0014050364507217,-0.001530729480004,0.0015307294736478,-0.0015307294703815,0.0015307294849653,-0.0015307294731652,0.0015307294820734,-0.0015307294635362,0.0015307294933969,-0.0012619284783605,0.0012619284667288,-0.0012619284479757,0.0012619284987903,-0.0012619284726324,0.0012619284726284,-0.0012619284505224,0.0012619284961224,-4.7244382010677e-12,-2.1338087694892e-12,-0.00082134426579293,0.00082134425839446,1.1520864692551e-11,-1.9517987535753e-11,-0.00092261687887739,0.00092261688119806,-0.00092261688902774,0.00092261687093985,-0.00092261687859956,0.00092261688264226,-0.00092261688881519,0.00092261687245785,-0.00081005819393987,0.00081005817895847,-0.00081005819640448,0.00081005817634594,0.70012779305903,122718,2924,0.0034174056604765,0.005836552834148,0.0034174056604844,18.599612989575,6.3996903916603e-05,6.3996903916603e-05,6.3996903916603e-05,2624848.210555,0.012752325485814
21419200,0.99917094195463,0.013675559305276,0.0041868715145663,0.0053018162761312,0.0041868715145781,-0.00080953663658613,0.00080953663486214,1.5506840982535e-13,-2.4355961160396e-12,9.881287822778e-12,-1.289709326736e-11,-0.00091206689354437,0.00091206689957028,-0.00091206689452377,0.00091206689881933,-0.00091206690085648,0.0009120668919494,-0.00091206690196774,0.00091206689133867,-0.00079828700426839,0.00079828699699224,-0.00079828700700495,0.00079828699465822,-5.4399905179062e-12,1.7572508760155e-11,-9.9122146004127e-12,2.1692370842373e-11,-0.0014015293450026,0.0014015293568126,-0.0015284611123106,0.0015284611060612,-0.0015284611023121,0.0015284611168083,-0.001528461105098,0.0015284611139145,-0.0015284610950931,0.0015284611246676,-0.0012567660167752,0.0012567660052056,-0.0012567659864693,0.0012567660368589,-0.001256766011043,0.0012567660111089,-0.0012567659890205,0.0012567660341867,-3.5633579065678e-12,-9.7292867475566e-13,-0.00080953663768032,0.00080953663377168,1.2566531189333e-11,-1.8196285249248e-11,-0.00091206689403071,0.00091206689896391,-0.00091206690408311,0.0009120668887998,-0.00091206689334714,0.00091206690000228,-0.00091206690346866,0.00091206688991578,-0.0007982870069205,0.00079828699467503,-0.00079828700937528,0.00079828699205307,0.64990944923706,122718,2924,0.0033684022990556,0.0058220049892593,0.0033684022990634,15.218210660037,3.6945685280296e-05,3.6945685280296e-05,3.6945685280296e-05,2585900.0989497,0.012638345003249
22419200,0.99929721788312,0.013677339843596,0.0041873987477319,0.0053025423481209,0.0041873987477437,-0.00080815536132262,0.00080815535730301,-6.066383205569e-13,-3.1972887719437e-12,9.1719409597496e-12,-1.3741430296972e-11,-0.00090864852411248,0.00090864852844342,-0.00090864852535291,0.00090864852795354,-0.00090864853147265,0.00090864852077639,-0.00090864853284236,0.00090864852042417,-0.00079662379202594,0.00079662378296669,-0.00079662379477005,0.00079662378064027,-5.4954718229904e-12,1.7635409985625e-11,-9.9698288403372e-12,2.1755605910585e-11,-0.0014005492364486,0.0014005492482644,-0.0015295227326187,0.0015295227262784,-0.0015295227228781,0.0015295227373805,-0.0015295227256653,0.001529522734486,-0.0015295227159183,0.0015295227455942,-0.0012540389911448,0.0012540389795079,-0.0012540389608462,0.0012540390113988,-0.0012540389854104,0.0012540389854125,-0.0012540389633977,0.0012540390087272,-4.3177438458893e-12,-1.7273241284924e-12,-0.00080815536240945,0.00080815535621988,1.1865981678875e-11,-1.903399295289e-11,-0.00090864852459079,0.00090864852784473,-0.00090864853469301,0.00090864851763359,-0.00090864852416818,0.00090864852914399,-0.00090864853433693,0.00090864851900789,-0.00079662379467894,0.00079662378066395,-0.00079662379712647,0.00079662377803476,0.66642562144511,122718,2924,0.003362657265382,0.0058179778493469,0.0033626572653897,14.858153797116,3.4065230376931e-05,3.4065230376931e-05,3.4065230376931e-05,2598786.210121,0.012622621144625
23419200,0.99940936989426,0.013678830741844,0.0041878389416647,0.0053031528585025,0.0041878389416765,-0.0008077198903384,0.0008077198853868,-9.191668612598e-13,-3.5098013127907e-12,8.9611784829574e-12,-1.4169384693847e-11,-0.00090887539932714,0.00090887540299383,-0.00090887540067594,0.00090887540261234,-0.00090887540675865,0.00090887539525418,-0.00090887540823574,0.00090887539500936,-0.00079614097933682,0.00079614096949765,-0.00079614098207611,0.00079614096716645,-5.5680464588263e-12,1.7772457298923e-11,-1.0063685561314e-11,2.1910896578326e-11,-0.0014036776671842,0.0014036776790616,-0.0015329732170215,0.0015329732105849,-0.0015329732073232,0.0015329732218996,-0.0015329732101231,0.0015329732189916,-0.0015329732004183,0.0015329732303123,-0.0012567531072594,0.0012567530955111,-0.0012567530767599,0.0012567531276881,-0.0012567531014989,0.0012567531014427,-0.0012567530793221,0.0012567531250051,-4.6316315803639e-12,-2.0412254360817e-12,-0.00080771989142663,0.00080771988430226,1.1671641351133e-11,-1.9482158841693e-11,-0.00090887539979939,0.00090887540239986,-0.00090887540998745,0.00090887539210415,-0.00090887539948532,0.00090887540380764,-0.00090887540973868,0.00090887539358574,-0.00079614098199273,0.0007961409671826,-0.00079614098444531,0.00079614096455849,0.62875729639221,122718,2924,0.0033608606041617,0.0058309260614829,0.0033608606041694,15.707577897846,4.0860623182768e-05,4.0860623182768e-05,4.0860623182768e-05,2568277.6694781,0.012632097426494
24419200,0.99951525428841,0.013680315433034,0.0041882789587707,0.0053037575154807,0.0041882789587825,-0.00081207593625688,0.00081207593025205,-1.2744381917881e-12,-3.8651575468029e-12,8.7377102840222e-12,-1.4673022455118e-11,-0.00091206333373956,0.00091206333667333,-0.00091206333520763,0.00091206333641106,-0.00091206334126258,0.00091206332883962,-0.00091206334285833,0.00091206332871341,-0.00080035518828382,0.00080035517754855,-0.00080035519102034,0.00080035517521442,-5.6648263257972e-12,1.7947705798143e-11,-1.0204641902253e-11,2.2126188177786e-11,-0.0014075740476119,0.001407574059564,-0.0015377995363047,0.0015377995297285,-0.0015377995266284,0.0015377995413064,-0.0015377995294556,0.0015377995383698,-0.0015377995197728,0.0015377995499537,-0.001259907492961,0.0012599074810299,-0.0012599074621649,0.0012599075136071,-0.001259907487145,0.0012599074870182,-0.0012599074647518,0.0012599075108989,-4.9878321545632e-12,-2.3973429981111e-12,-0.00081207593734598,0.00081207592916661,1.1487174104128e-11,-2.0027802621179e-11,-0.0009120633341974,0.00091206333609172,-0.0009120633445072,0.00091206332567565,-0.00091206333400288,0.00091206333761911,-0.00091206334437681,0.00091206332727568,-0.00080035519095163,0.00080035517521617,-0.00080035519340776,0.00080035517259544,0.66255127740754,122718,2924,0.0033789426991261,0.0058470848107191,0.0033789426991338,17.886371122464,5.8290968979715e-05,5.8290968979715e-05,5.8290968979715e-05,2569162.7802711,0.012685076730058
25419200,0.99961178207246,0.013681910032442,0.0041887534015758,0.0053044032292787,0.0041887534015876,-0.00081388110509389,0.00081388109918637,-1.2441063242881e-12,-3.8348460298417e-12,8.8350918752579e-12,-1.4711691362045e-11,-0.00091533823938738,0.00091533824243427,-0.00091533824084249,0.00091533824215901,-0.00091533824695366,0.00091533823455569,-0.0009153382485367,0.00091533823441675,-0.00080221826815017,0.00080221825744064,-0.00080221827088432,0.00080221825510406,-5.7093072610528e-12,1.8039482288552e-11,-1.0295909937607e-11,2.2263010115617e-11,-0.0014133170176682,0.001413317029666,-0.0015432376995704,0.0015432376929217,-0.0015432376898071,0.0015432377045605,-0.0015432376926637,0.0015432377015929,-0.0015432376828939,0.0015432377132378,-0.0012657081902556,0.0012657081781906,-0.0012657081592321,0.0012657082109893,-0.0012657081843801,0.0012657081842406,-0.001265708161847,0.0012657082082514,-4.9642622863712e-12,-2.3737517188085e-12,-0.00081388110618974,0.00081388109809418,1.1621395680222e-11,-2.0118954922017e-11,-0.00091533823983598,0.00091533824186097,-0.00091533825022007,0.00091533823137052,-0.00091533823962878,0.00091533824337565,-0.00091533825007702,0.0009153382329579,-0.00080221827083721,0.00080221825508412,-0.00080221827329592,0.00080221825246588,0.77991302017261,122718,2924,0.0033864557650877,0.0058708499147889,0.0033864557650953,19.931081930845,7.464865544676e-05,7.464865544676e-05,7.464865544676e-05,2526848.0830647,0.012724367418561
26419200,0.99969091196372,0.013683300522128,0.004189167601906,0.0053049653183044,0.0041891676019178,-0.00080903738365305,0.00080903737902322,-8.1785558860258e-13,-3.408474998687e-12,9.2243360024993e-12,-1.4231455591742e-11,-0.00091431613517171,0.0009143161391682,-0.00091431613648127,0.00091431613874747,-0.00091431614270702,0.00091431613132173,-0.00091431614414516,0.00091431613103796,-0.00079764693149817,0.00079764692178907,-0.00079764693423185,0.00079764691945228,-5.6774362346908e-12,1.7988597372463e-11,-1.0298023461276e-11,2.2248017632451e-11,-0.0014184494688087,0.0014184494807892,-0.0015475830767222,0.001547583070098,-0.0015475830667967,0.001547583081556,-0.0015475830696754,0.001547583078565,-0.0015475830597434,0.001547583090029,-0.00127086295805,0.0012708629459492,-0.0012708629269736,0.0012708629786745,-0.0012708629521298,0.0012708629520457,-0.0012708629296113,0.0012708629759122,-4.5457593066441e-12,-1.9553703824241e-12,-0.00080903738475675,0.00080903737792317,1.20367084927e-11,-1.968242399395e-11,-0.00091431613561694,0.00091431613859927,-0.00091431614599145,0.0009143161281171,-0.00091431613526418,0.00091431613996835,-0.00091431614570397,0.00091431612955996,-0.00079764693420409,0.00079764691941277,-0.00079764693666237,0.00079764691679439,0.82922923068302,122718,2924,0.0033663870819242,0.0058920466679996,0.0033663870819318,20.395173347779,7.8361386782229e-05,7.8361386782229e-05,7.8361386782229e-05,2442959.9677864,0.012705202454538
27419200,0.99975993157782,0.013684393638141,0.0041894930508483,0.0053054075364324,0.0041894930508601,-0.00080885708928309,0.0008088570835561,-1.1849674875567e-12,-3.7755415256643e-12,8.8954722273707e-12,-1.465167696015e-11,-0.0009151860202224,0.00091518602339803,-0.00091518602165699,0.00091518602310237,-0.00091518602778989,0.00091518601552106,-0.00091518602935141,0.00091518601536076,-0.00079745305382524,0.00079745304325229,-0.00079745305655475,0.00079745304091146,-5.7066904880522e-12,1.8042124649006e-11,-1.0352292156345e-11,2.2325840372666e-11,-0.001424222171474,0.001424222183478,-0.0015541193304856,0.0015541193238056,-0.0015541193206597,0.0015541193354585,-0.0015541193235545,0.001554119332451,-0.001554119313722,0.0015541193441098,-0.0012755679107068,0.0012755678985303,-0.0012755678795549,0.0012755679314367,-0.0012755679047544,0.0012755679046596,-0.0012755678822082,0.0012755679286587,-4.9144205442964e-12,-2.3240845890464e-12,-0.00080885709038831,0.0008088570824545,1.173005289023e-11,-2.0128719052957e-11,-0.00091518602066088,0.00091518602283594,-0.00091518603108374,0.00091518601230689,-0.00091518602043316,0.00091518602433002,-0.0009151860309198,0.00091518601387328,-0.00079745305653653,0.00079745304086198,-0.00079745305899891,0.00079745303824777,0.74718867332314,122718,2924,0.0033656599568552,0.005915940579716,0.0033656599568627,22.256950457229,9.3255603657829e-05,9.3255603657829e-05,9.3255603657829e-05,2395431.5505298,0.012727929889391
28419200,0.99981665010149,0.01368541648648,0.0041897997115358,0.0053058170633969,0.0041897997115476,-0.00081205834759165,0.00081205834240767,-1.0041920542397e-12,-3.5948152871335e-12,9.0660736755401e-12,-1.4455333046557e-11,-0.00091552253458913,0.00091552253820068,-0.00091552253595615,0.00091552253783745,-0.00091552254214706,0.00091552253033273,-0.00091552254364192,0.00091552253010569,-0.00080032997389422,0.0008003299637401,-0.00080032997663362,0.00080032996140902,-5.7087922179635e-12,1.8019013796203e-11,-1.0378615763942e-11,2.2326717287054e-11,-0.0014251639218286,0.0014251639338071,-0.0015571321004754,0.0015571320937729,-0.0015571320905677,0.0015571321053567,-0.0015571320934779,0.0015571321023331,-0.0015571320835637,0.0015571321139229,-0.0012748933073797,0.001274893295142,-0.0012748932761846,0.0012748933280607,-0.0012748933013955,0.0012748933013033,-0.0012748932788535,0.0012748933252672,-4.7302539498712e-12,-2.1398608198973e-12,-0.00081205834869341,0.00081205834130949,1.1928230777208e-11,-1.9953491309537e-11,-0.00091552253501602,0.00091552253765006,-0.00091552254544545,0.00091552252711382,-0.00091552253472069,0.00091552253907656,-0.00091552254521476,0.00091552252861346,-0.00080032997662035,0.00080032996135513,-0.00080032997907312,0.00080032995873123,0.8493285419621,122718,2924,0.0033789329330811,0.0059198890492427,0.0033789329330886,23.444427179106,0.00010275541743285,0.00010275541743285,0.00010275541743285,2422556.5654645,0.012758798599433
29419200,0.99986273570507,0.013686010439346,0.0041899754508935,0.0053060595375472,0.0041899754509053,-0.00081026746905258,0.00081026746376976,-1.0360514210314e-12,-3.6265873484008e-12,9.0367664587231e-12,-1.4489949812568e-11,-0.00091700684124465,0.0009170068447638,-0.00091700684262727,0.00091700684441623,-0.00091700684880508,0.00091700683689475,-0.00091700685031473,0.00091700683668256,-0.00079869265480061,0.00079869264457235,-0.00079869265753336,0.00079869264223482,-5.7072325009059e-12,1.8023811737865e-11,-1.0391917004657e-11,2.234694496323e-11,-0.0014311228662093,0.0014311228781947,-0.0015621519875515,0.0015621519808428,-0.0015621519776482,0.0015621519924541,-0.0015621519805679,0.0015621519894203,-0.001562151970658,0.0015621520010375,-0.0012812669314663,0.0012812669192038,-0.0012812669002369,0.0012812669521544,-0.0012812669254631,0.0012812669253856,-0.0012812669029153,0.0012812669493502,-4.7664772403333e-12,-2.1761723429581e-12,-0.00081026747015879,0.0008102674626671,1.1908547466755e-11,-2.0007884547677e-11,-0.00091700684167111,0.00091700684421407,-0.00091700685211218,0.0009170068336665,-0.00091700684139137,0.0009170068456561,-0.00091700685189657,0.00091700683518117,-0.00079869265752929,0.00079869264217155,-0.00079869265998803,0.0007986926395538,0.60881578646039,122718,2924,0.0033715322708128,0.0059445160412511,0.0033715322708202,24.783777898859,0.00011347022319088,0.00011347022319088,0.00011347022319088,2348434.325016,0.012768765339962
30419200,0.99989939394696,0.013686410538291,0.0041900941568,0.0053062222246795,0.0041900941568118,-0.00081980481953938,0.00081980481422212,-1.0468679784607e-12,-3.6376406133851e-12,9.0162407714305e-12,-1.4494111303084e-11,-0.0009187923730072,0.00091879237654175,-0.00091879237438521,0.00091879237618943,-0.00091879238056138,0.0009187923686771,-0.00091879238206762,0.00091879236846139,-0.00080768935605375,0.00080768934580298,-0.00080768935880189,0.00080768934348035,-5.7186222117816e-12,1.799811361116e-11,-1.0419631922691e-11,2.2336262054291e-11,-0.001427769095134,0.0014277691070811,-0.0015623467285486,0.0015623467218013,-0.0015623467186421,0.0015623467334194,-0.0015623467215718,0.0015623467303754,-0.0015623467116588,0.0015623467419995,-0.0012756196195498,0.0012756196072275,-0.0012756195883236,0.001275619640214,-0.0012756196135251,0.0012756196134295,-0.0012756195910125,0.0012756196374007,-4.7680047230815e-12,-2.1774625682485e-12,-0.00081980482063611,0.00081980481312893,1.1914063062963e-11,-2.0018430287093e-11,-0.00091879237341868,0.00091879237600627,-0.00091879238386527,0.00091879236545306,-0.00091879237313435,0.00091879237744384,-0.0009187923836457,0.00091879236696389,-0.00080768935879383,0.0008076893434213,-0.00080768936123851,0.00080768934078901,0.51512748248588,122718,2924,0.0034110647566553,0.0059307517574769,0.0034110647566626,26.134523740908,0.00012427618992726,0.00012427618992726,0.00012427618992726,2471602.5472851,0.012834865509529
31419200,0.99992907121111,0.013686828869865,0.0041902190572496,0.005306390755354,0.0041902190572614,-0.00082862536954598,0.00082862536343133,-1.3137152290339e-12,-3.9046842310063e-12,8.8037778668058e-12,-1.4824181572605e-11,-0.00092581419182058,0.00092581419475142,-0.00092581419329529,0.00092581419449567,-0.00092581419941329,0.00092581418684617,-0.00092581420101603,0.00092581418672681,-0.00081629103861471,0.00081629102772085,-0.00081629104135683,0.00081629102539184,-5.7562381214649e-12,1.807170968638e-11,-1.0477438509681e-11,2.2427863667689e-11,-0.001429786425112,0.0014297864370932,-0.0015640246648636,0.0015640246580579,-0.0015640246550173,0.0015640246698407,-0.001564024657959,0.0015640246667836,-0.0015640246481061,0.0015640246785724,-0.0012785629451809,0.001278562932785,-0.0012785629138411,0.0012785629659484,-0.0012785629391314,0.0012785629390131,-0.0012785629165408,0.0012785629631234,-5.035994683231e-12,-2.4452578872853e-12,-0.00082862537064382,0.00082862536233706,1.1718168635639e-11,-2.0368119755055e-11,-0.00092581419222606,0.00092581419422039,-0.00092581420272532,0.00092581418361546,-0.00092581419203872,0.00092581419575507,-0.00092581420260185,0.00092581418522252,-0.0008162910413559,0.00081629102532615,-0.00081629104380733,0.00081629102270025,0.66479676253864,122718,2924,0.003447662959705,0.0059391355938318,0.0034476629597124,28.445480069927,0.00014276384055942,0.00014276384055942,0.00014276384055942,2508964.3226835,0.012917491112448
32419200,0.9999507465466,0.013687188931995,0.0041903265728323,0.0053065357863185,0.0041903265728441,-0.00082497502320113,0.00082497501827626,-9.1188481901531e-13,-3.5027357676663e-12,9.1658929956137e-12,-1.4368677958516e-11,-0.00092842794719009,0.00092842795100506,-0.00092842794853202,0.0009284279506166,-0.00092842795475099,0.00092842794313268,-0.00092842795622142,0.00092842794288108,-0.0008131555998861,0.00081315558993127,-0.00081315560262286,0.0008131555875971,-5.7184355116028e-12,1.8024040377939e-11,-1.044773371126e-11,2.239066721578e-11,-0.0014362054830315,0.001436205495005,-0.0015674229476168,0.0015674229408632,-0.0015674229376389,0.0015674229524613,-0.0015674229405862,0.0015674229493979,-0.0015674229306019,0.0015674229610021,-0.0012869457184251,0.0012869457060556,-0.0012869456870885,0.0012869457390953,-0.0012869457123648,0.0012869457122964,-0.0012869456897945,0.0012869457362623,-4.6437895177708e-12,-2.053169380026e-12,-0.00082497502430872,0.00082497501717226,1.2078996994933e-11,-1.9932231107919e-11,-0.00092842794760275,0.00092842795046796,-0.00092842795807448,0.00092842793988911,-0.00092842794728261,0.00092842795186979,-0.00092842795781922,0.00092842794136433,-0.00081315560263434,0.00081315558751859,-0.00081315560509003,0.00081315558489715,0.7835582016357,122718,2924,0.0034325617659704,0.0059656211060652,0.0034325617659779,29.298069701955,0.00014958455761564,0.00014958455761564,0.00014958455761564,2401234.6489914,0.012913755319376
33419200,0.99996581009148,0.013687447782385,0.004190404128884,0.0053066395246051,0.0041904041288958,-0.00081937226724674,0.00081937226304088,-6.7384251200027e-13,-3.2645318779841e-12,9.3523911658696e-12,-1.406642313337e-11,-0.00092649028475947,0.0009264902890755,-0.00092649028602145,0.00092649028860718,-0.00092649029228305,0.00092649028124307,-0.00092649029367324,0.00092649028091134,-0.00080788184390318,0.00080788183453227,-0.00080788184663818,0.00080788183219666,-5.674632202705e-12,1.7956621084611e-11,-1.0399330660528e-11,2.2321120399211e-11,-0.0014400669987326,0.0014400670106846,-0.001570588580339,0.0015705885736446,-0.0015705885703046,0.0015705885851039,-0.0015705885732499,0.001570588582043,-0.0015705885632091,0.0015705885935083,-0.0012906623792266,0.0012906623669128,-0.0012906623479625,0.001290662399796,-0.001290662373171,0.0012906623731487,-0.0012906623506675,0.0012906623969639,-4.4086384661799e-12,-1.8181696473418e-12,-0.00081937226835724,0.00081937226193395,1.2259752649443e-11,-1.9630168407418e-11,-0.00092649028517692,0.00092649028853515,-0.00092649029560717,0.00092649027799717,-0.00092649028477659,0.00092649028985669,-0.00092649029527214,0.00092649027939253,-0.00080788184665154,0.00080788183211577,-0.00080788184910814,0.00080788182949557,0.80945760226261,122718,2924,0.0034093419094628,0.0059815540693475,0.0034093419094703,29.317375146495,0.00014973900117196,0.00014973900117196,0.00014973900117196,2326191.4723644,0.012882869373884
34419200,0.99997721259626,0.013687625513514,0.004190457381996,0.0053067107495103,0.0041904573820078,-0.00082098832114298,0.00082098831517946,-1.2627757943898e-12,-3.8535058976976e-12,8.8192663127621e-12,-1.4734574839441e-11,-0.00092835501189655,0.00092835501489486,-0.00092835501335794,0.00092835501462602,-0.00092835501946744,0.00092835500701673,-0.00092835502105496,0.00092835500688227,-0.00080940453653469,0.0008094045257822,-0.00080940453926413,0.00080940452344092,-5.7161019946548e-12,1.8036629581582e-11,-1.0440652280534e-11,2.2399511475006e-11,-0.0014454634325306,0.0014454634445198,-0.0015769393591707,0.00157693935242,-0.0015769393493244,0.00157693936416,-0.0015769393522695,0.0015769393610996,-0.0015769393424168,0.0015769393728457,-0.0012949576485137,0.0012949576361647,-0.0012949576172182,0.0012949576692464,-0.001294957642459,0.0012949576423998,-0.0012949576199221,0.0012949576664158,-4.9962726761229e-12,-2.4057707406494e-12,-0.00082098832225203,0.00082098831407392,1.1726807283499e-11,-2.029553678951e-11,-0.00092835501231248,0.0009283550143556,-0.00092835502279001,0.00092835500377251,-0.0009283550121116,0.00092835501587656,-0.00092835502265227,0.0009283550053652,-0.00080940453927573,0.00080940452336168,-0.00080940454173813,0.00080940452074714,0.73398852679868,122718,2924,0.0034160644048444,0.0060039012777607,0.0034160644048517,31.489045061008,0.00016711236048806,0.00016711236048806,0.00016711236048806,2295504.6871322,0.012919121975404
35419200,0.99998615619824,0.013687748865135,0.0041904943107616,0.0053067602435999,0.0041904943107734,-0.00083119524823003,0.00083119524031209,-1.919156429912e-12,-4.5101066722322e-12,8.3161450301984e-12,-1.5572060901876e-11,-0.00093588187429578,0.00093588187586572,-0.00093588187598268,0.00093588187582219,-0.00093588188197769,0.00093588186787467,-0.00093588188378899,0.00093588186796384,-0.00081927686079484,0.00081927684844507,-0.00081927686351283,0.00081927684609202,-5.8260085194389e-12,1.8245783897944e-11,-1.0575157347967e-11,2.2628403011938e-11,-0.0014523839172382,0.0014523839293221,-0.0015854839746262,0.0015854839677302,-0.0015854839649205,0.0015854839798644,-0.0015854839678804,0.0015854839767889,-0.0015854839581681,0.0015854839889292,-0.0013007326050159,0.0013007325925157,-0.0013007325734553,0.0013007326260398,-0.001300732598931,0.0013007325987804,-0.001300732576171,0.0013007326231976,-5.6512029478644e-12,-3.0604830190505e-12,-0.00083119524933739,0.00083119523920825,1.1245783125516e-11,-2.1151922304911e-11,-0.00093588187470166,0.00093588187533445,-0.00093588188530743,0.00093588186462565,-0.00093588187472605,0.00093588187708105,-0.00093588188539289,0.00093588186644165,-0.00081927686353037,0.00081927684600823,-0.00081927686600533,0.00081927684340602,0.64952121200817,122718,2924,0.0034584242533595,0.0060326087992799,0.0034584242533668,35.943761939583,0.00020275009551666,0.00020275009551666,0.00020275009551666,2312814.4385544,0.013034007598218
36419200,0.99999187836285,0.013687831675053,0.004190519169777,0.005306793335487,0.0041905191697888,-0.00083663966830594,0.00083663966279305,-1.1163414185948e-12,-3.7074472947175e-12,9.0722358733186e-12,-1.4696084103542e-11,-0.00093902588130144,0.00093902588474161,-0.00093902588270188,0.00093902588441151,-0.00093902588893908,0.00093902587679202,-0.00093902589046729,0.00093902587659801,-0.00082449324658996,0.00082449323610103,-0.00082449324932941,0.0008244932337691,-5.7979619350663e-12,1.8173816978837e-11,-1.0571934152316e-11,2.2582026840463e-11,-0.0014534958787752,0.001453495890816,-0.0015874667112404,0.0015874667043713,-0.0015874667012311,0.0015874667161484,-0.0015874667042067,0.001587466713056,-0.0015874666941909,0.0015874667248391,-0.0013014554986889,0.0013014554861535,-0.001301455467078,0.0013014555195379,-0.0013014554925713,0.0013014554924519,-0.0013014554698102,0.0013014555166787,-4.8484320454938e-12,-2.257559944858e-12,-0.00083663966941328,0.00083663966168924,1.2026985083861e-11,-2.0302018085078e-11,-0.00093902588169885,0.00093902588421896,-0.00093902589227691,0.00093902587353473,-0.00093902588143704,0.00093902588567928,-0.00093902589207927,0.00093902587506771,-0.00082449324935485,0.00082449323367651,-0.00082449325180888,0.000824493231053,0.6811981079479,122718,2924,0.0034810068332345,0.006037251830701,0.0034810068332418,37.485516754555,0.00021508413403644,0.00021508413403644,0.00021508413403644,2345172.8121561,0.013084456609057
37419200,0.99999525690602,0.013687878652533,0.0041905332361627,0.0053068121801956,0.0041905332361745,-0.00083567625129347,0.00083567624693185,-7.2560075251273e-13,-3.3166727466283e-12,9.3595833101252e-12,-1.4185624844781e-11,-0.0009397557167473,0.00093975572102003,-0.00093975571801838,0.00093975572056057,-0.00093975572431139,0.00093975571314584,-0.00093975572571098,0.00093975571282326,-0.00082364517384943,0.0008236451643154,-0.00082364517659321,0.00082364516198785,-5.7277839318973e-12,1.8028998932341e-11,-1.0502378041913e-11,2.2441184378398e-11,-0.001455151198793,0.0014551512107622,-0.0015882325993127,0.001588232592521,-0.0015882325892237,0.0015882326040715,-0.0015882325922003,0.0015882326009778,-0.0015882325821047,0.0015882326125343,-0.0013037682724089,0.0013037682599344,-0.0013037682409507,0.0013037682930621,-0.0013037682662894,0.0013037682662355,-0.001303768243686,0.0013037682901991,-4.4595534401742e-12,-1.8687126327e-12,-0.00083567625240273,0.00083567624582611,1.2315438742388e-11,-1.9796977177334e-11,-0.00093975571714675,0.00093975572049686,-0.00093975572765076,0.0009397557098853,-0.00093975571675544,0.00093975572182765,-0.00093975572732481,0.00093975571128996,-0.0008236451766213,0.00082364516189246,-0.00082364517907027,0.0008236451592639,0.65495763090949,122718,2924,0.003477021246166,0.0060440791315847,0.0034770212461733,37.681073039505,0.00021664858431604,0.00021664858431604,0.00021664858431604,2315600.2552641,0.013083306433902
38419200,0.99999719868214,0.013687908734524,0.004190542285152,0.0053068241642077,0.0041905422851639,-0.00083478227283482,0.0008347822690631,-5.2417964843626e-13,-3.1152386717854e-12,9.4549987408375e-12,-1.3868562942569e-11,-0.00093849643692861,0.00093849644160505,-0.00093849643813257,0.00093849644107847,-0.00093849644442074,0.00093849643380516,-0.0009384964457535,0.00093849643341573,-0.0008227531950549,0.00082275318604697,-0.00082275319780394,0.00082275318372468,-5.6587700402243e-12,1.7881631787247e-11,-1.0414157148765e-11,2.2277669138382e-11,-0.0014540401716233,0.0014540401835169,-0.0015873995759447,0.0015873995692357,-0.0015873995658608,0.0015873995806218,-0.0015873995688257,0.0015873995775403,-0.0015873995587353,0.0015873995889324,-0.0013023968277481,0.0013023968153724,-0.0013023967965114,0.0013023968482286,-0.001302396821652,0.0013023968216492,-0.0013023967992372,0.0013023968453756,-4.2554396168878e-12,-1.6646111325667e-12,-0.00083478227394138,0.00083478226796006,1.2397488647585e-11,-1.946041641124e-11,-0.00093849643733225,0.00093849644107929,-0.00093849644775081,0.00093849643055242,-0.00093849643687353,0.00093849644234267,-0.00093849644735814,0.00093849643189035,-0.00082275319782362,0.00082275318363753,-0.00082275320026698,0.00082275318100338,0.72891346290552,122718,2924,0.0034733073382827,0.006039483574218,0.0034733073382901,37.194402189676,0.00021275521751741,0.00021275521751741,0.00021275521751741,2322064.2522828,0.013071123702734
38880000,0.99999787681884,0.013687919476494,0.0041905455155558,0.005306828445371,0.0041905455155676,-0.00083209582178972,0.00083209581764865,-6.4746871659868e-13,-3.2384447338956e-12,9.2952265206662e-12,-1.395512806277e-11,-0.00093825336607921,0.00093825337041744,-0.00093825336733249,0.00093825336994025,-0.00093825337354946,0.00093825336264204,-0.00093825337493025,0.00093825336230071,-0.0008202517185685,0.00082025170930751,-0.00082025172130978,0.00082025170697764,-5.6267923406505e-12,1.7836005004643e-11,-1.0355502528859e-11,2.2206975180387e-11,-0.0014561460999549,0.0014561461118363,-0.0015885673021941,0.0015885672955369,-0.0015885672922026,0.0015885673069348,-0.0015885672951509,0.0015885673038707,-0.0015885672851529,0.0015885673152746,-0.0013050040426649,0.0013050040303798,-0.0013050040115605,0.0013050040631132,-0.0013050040366028,0.0013050040366221,-0.0013050040142705,0.0013050040602762,-4.3782930990924e-12,-1.78754656815e-12,-0.00083209582289589,0.00083209581654601,1.2213064252212e-11,-1.9520880994235e-11,-0.00093825336649166,0.00093825336988392,-0.00093825337687006,0.00093825335939786,-0.00093825336608207,0.00093825337119637,-0.00093825337652569,0.00093825336078404,-0.00082025172132047,0.00082025170689925,-0.00082025172377093,0.00082025170427236,0.74537476942469,122718,2924,0.0034621775921834,0.0060481646896504,0.0034621775921907,37.193613676963,0.0002127489094157,0.0002127489094157,0.0002127489094157,2277847.4870914,0.013057379205538
