time,ASR_ext,ASR_strain,ASR_strain_xx,ASR_strain_yy,ASR_strain_zz,disp_x_101,disp_x_102,disp_x_103,disp_x_104,disp_x_105,disp_x_106,disp_x_p1_neg,disp_x_p1_pos,disp_x_p2_neg,disp_x_p2_pos,disp_x_p3_neg,disp_x_p3_pos,disp_x_p4_neg,disp_x_p4_pos,disp_x_p5_neg,disp_x_p5_pos,disp_x_p6_neg,disp_x_p6_pos,disp_y_101,disp_y_102,disp_y_103,disp_y_104,disp_y_105,disp_y_106,disp_y_p1_neg,disp_y_p1_pos,disp_y_p2_neg,disp_y_p2_pos,disp_y_p3_neg,disp_y_p3_pos,disp_y_p4_neg,disp_y_p4_pos,disp_y_p5_neg,disp_y_p5_pos,disp_y_p6_neg,disp_y_p6_pos,disp_y_p7_neg,disp_y_p7_pos,disp_y_p8_neg,disp_y_p8_pos,disp_z_101,disp_z_102,disp_z_103,disp_z_104,disp_z_105,disp_z_106,disp_z_p1_neg,disp_z_p1_pos,disp_z_p2_neg,disp_z_p2_pos,disp_z_p3_neg,disp_z_p3_pos,disp_z_p4_neg,disp_z_p4_pos,disp_z_p5_neg,disp_z_p5_pos,disp_z_p6_neg,disp_z_p6_pos,humidity,ndof,nelem,strain_xx,strain_yy,strain_zz,temp,thermal_strain_xx,thermal_strain_yy,thermal_strain_zz,vonmises,vstrain
2419200,0,0,0,0,0,0,0,0,0,0,0,0,0,0,0,0,0,0,0,0,0,0,0,0,0,0,0,0,0,0,0,0,0,0,0,0,0,0,0,0,0,0,0,0,0,0,0,0,0,0,0,0,0,0,0,0,0,0,0,0,0,0,0,0,0,0,0,0,0,0,0,0,0,0,0
3419200,0.15884132862449,0.0030073338019453,0.0010024446006484,0.0010024446006484,0.0010024446006484,-0.00025973892289741,0.00025972742212164,-4.4556817765244e-09,-4.4556814374759e-09,-4.283313801119e-09,-4.3916648428816e-09,-0.00026904763324236,0.00026903781474539,-0.00026904800976539,0.00026903819125639,-0.00026904845352865,0.00026903864078899,-0.0002690488267876,0.00026903901404818,-0.00026696053792507,0.00026695113525177,-0.00026696087042678,0.00026695146777136,-4.2833173359389e-09,-4.3916970414907e-09,-4.6057764631049e-09,-4.3056165944579e-09,-0.00025973892291039,0.00025972742210581,-0.0002690476950342,0.00026903776727362,-0.00026904794801414,0.00026903823873658,-0.00026904851367529,0.00026903859167006,-0.00026904876666422,0.00026903906311675,-0.0002669606931779,0.00026695100016174,-0.00026696071519592,0.00026695160281429,-0.00026149868347081,0.00026148967004536,-0.00026149903662182,0.00026148989319891,-1.0696007735776e-09,-1.0696010987001e-09,-0.00028158963263699,0.00028158615637742,-8.9739937735179e-10,-1.214808216759e-09,-0.0002894199359932,0.00028941752590259,-0.00028942104077768,0.00028941841346465,-0.00028942093216854,0.00028941852208707,-0.00028942199554553,0.00028941936823151,-0.0002787489315492,0.00027874648040503,-0.0002787483659401,0.00027874591480528,0.75746877217741,125301,3014,0.0010816388574267,0.0010816388574208,0.0011725884486231,31.811536159701,0.0001696922892776,0.0001696922892776,0.0001696922892776,2464288.90631,0.0033414410752526
4419200,0.34870337288616,0.0063276798867046,0.0020173345434218,0.0020173345434034,0.0022930107998794,-0.00048369996631087,0.00048367597878799,-1.0176672757809e-08,-1.0176614715612e-08,-9.45734659734e-09,-9.8586029689392e-09,-0.00052093832882623,0.00052091575757332,-0.00052094006078275,0.00052091748964357,-0.00052094095167858,0.00052091825681353,-0.00052094266037189,0.0005209199656357,-0.0005208918666694,0.00052087093849421,-0.00052089378360593,0.00052087285558248,-9.4573570514723e-09,-9.8586395762078e-09,-1.1041380869061e-08,-9.3119351425883e-09,-0.00048369996632068,0.00048367597876602,-0.0005209386915331,0.000520915488488,-0.00052093969812832,0.00052091775872959,-0.00052094130275015,0.00052091797610111,-0.00052094230931863,0.00052092024629632,-0.00052089278041142,0.00052087017783619,-0.00052089286987094,0.0005208736161427,-0.00048861599878924,0.00048859687795337,-0.00048861669165814,0.00048859697848689,-5.3920528560159e-09,-5.3919945389739e-09,-0.00058808696468553,0.00058807380235581,-4.3561958467659e-09,-6.221952243924e-09,-0.00063121019151123,0.00063119937016271,-0.00063121491389227,0.00063120280352136,-0.00063121426943211,0.00063120344801582,-0.00063121881360506,0.0006312067031703,-0.00057022509917416,0.00057021345863118,-0.00057022282083493,0.00057021118027487,0.73992840791513,125301,3014,0.0020134125286085,0.0020134125285832,0.0024472580705674,33.601129363017,0.00018400903490413,0.00018400903490413,0.00018400903490413,4118242.7949044,0.0064951344291221
5419200,0.54810185420486,0.0095927308513287,0.0029757492356456,0.0029757492356158,0.0036412323800673,-0.00069075917923187,0.0006907575909466,3.3467332528317e-10,3.3466978006795e-10,9.9559186946944e-11,-2.1300139962992e-10,-0.00077446121206328,0.00077446037900559,-0.00077446178769649,0.0007744609546347,-0.00077446222819613,0.00077446112502442,-0.00077446277433635,0.00077446167116952,-0.00076706767831367,0.00076706849345955,-0.00076706801131898,0.0007670688261642,9.9572037483309e-11,-2.1302141831432e-10,-2.4280339939069e-10,9.1215789192203e-10,-0.00069075917921958,0.00069075759094497,-0.00077446147551073,0.00077446021121145,-0.00077446152421605,0.00077446112243999,-0.00077446247701121,0.00077446094258558,-0.00077446252550619,0.00077446185361905,-0.00076706834644439,0.00076706805648221,-0.00076706734318527,0.00076706926307798,-0.00069780978944809,0.00069780959053153,-0.00069780922545661,0.00069780845561879,-3.3968792242597e-09,-3.3968811660239e-09,-0.00090220091124885,0.00090219307790585,-2.5278939349873e-09,-3.9297942175136e-09,-0.0010050147559787,0.0010050080976569,-0.0010050157496347,0.0010050080635371,-0.0010050152357672,0.0010050085774456,-0.0010050160982922,0.0010050084122247,-0.00086617076918037,0.00086616327515879,-0.00086617272336156,0.00086616522879934,0.72499638738019,125301,3014,0.0028743277037964,0.0028743277037674,0.0037518221609879,36.269966274196,0.00020535973019357,0.00020535973019357,0.00020535973019357,4854060.8371043,0.0095459460825359
6419200,0.70462943370122,0.011633229406788,0.0035690722357646,0.0035690722357354,0.0044950849352877,-0.00080406770599615,0.00080406081857249,-2.9874173144811e-09,-2.98743502644e-09,-2.7045324089502e-09,-2.902026689812e-09,-0.00093657465622978,0.00093656839126817,-0.00093657497138917,0.00093656870689982,-0.00093657520120546,0.0009365688393662,-0.00093657551042922,0.00093656914907361,-0.00090100565234784,0.00090100022356783,-0.00090100608260688,0.00090100065338405,-2.7045267443357e-09,-2.9020597075845e-09,-3.2081230364717e-09,-2.7667415495029e-09,-0.00080406770599503,0.0008040608185605,-0.0009365747573934,0.00093656831916592,-0.00093657487021923,0.00093656877900811,-0.00093657529942575,0.00093656876430562,-0.00093657541221881,0.00093656922410923,-0.00090100592876168,0.0009010000795139,-0.00090100580621621,0.00090100079734372,-0.00080808172379406,0.00080807640427399,-0.00080808094439037,0.00080807533306121,-1.514608512279e-09,-1.5146249336009e-09,-0.0010876661983207,0.0010876625940382,-1.1095077511086e-09,-1.7137781296222e-09,-0.001250655864921,0.0012506532953094,-0.0012506567818504,0.0012506537310761,-0.00125065654131,0.0012506539716576,-0.0012506573913467,0.0012506543405468,-0.0010343685818371,0.0010343652653943,-0.0010343684734195,0.0010343651560998,0.59839168540088,125301,3014,0.0033452625805746,0.0033452625805474,0.004521233744228,36.738998878867,0.00020911199103094,0.00020911199103094,0.00020911199103094,4960495.0914214,0.011275230175131
7419200,0.83070066096742,0.013061249154488,0.0039972302758438,0.0039972302758175,0.0050667886028267,-0.00088256422548094,0.00088255774266889,-2.4971883394339e-09,-2.4972584489686e-09,-2.3817498607649e-09,-2.5616567646148e-09,-0.0010538794921513,0.0010538740095913,-0.0010538797390075,0.0010538742567402,-0.001053880118159,0.0010538745520795,-0.0010538803612637,0.0010538747954869,-0.00099208978577423,0.00099208525148324,-0.00099209012433741,0.0009920855895694,-2.3817445173643e-09,-2.5616875893827e-09,-2.503051183232e-09,-2.4914057988636e-09,-0.00088256422548,0.00088255774265876,-0.0010538795235535,0.0010538740048353,-0.0010538797075997,0.0010538742615049,-0.0010538801477434,0.0010538745454897,-0.0010538803316886,0.001053874802057,-0.00099208984145398,0.00099208530804988,-0.00099209006868161,0.00099208553291801,-0.00088480662476583,0.00088480170935746,-0.000884806097591,0.00088480090890545,-1.4770460748445e-09,-1.4771134063758e-09,-0.0012066944676173,0.001206690814926,-1.3068055411054e-09,-1.4628277163233e-09,-0.0014169138220932,0.001416911177168,-0.0014169144978776,0.00141691167465,-0.0014169144087512,0.0014169117638131,-0.0014169150204284,0.0014169121972098,-0.0011431095732098,0.0011431064742903,-0.0011431097489181,0.0011431066491388,0.52694121020036,125301,3014,0.0036714541304144,0.0036714541303913,0.0050146887044591,40.765899685865,0.00024132719748692,0.00024132719748692,0.00024132719748692,4865620.8173739,0.012434843225115
8419200,0.90695811131693,0.013835255026389,0.0042350508800861,0.0042350508800612,0.0053651532662418,-0.00091282808242163,0.00091282468556798,-1.3252366486359e-09,-1.3253117720763e-09,-1.2815768777355e-09,-1.4257586694631e-09,-0.0011116886091635,0.0011116858023669,-0.0011116887134397,0.0011116859069126,-0.0011116890387886,0.0011116861563316,-0.001111689141377,0.0011116862591999,-0.0010280102376606,0.0010280082212261,-0.0010280105461821,0.0010280085292492,-1.2815713801757e-09,-1.4257922058853e-09,-1.0316192409127e-09,-1.6189422331768e-09,-0.00091282808242221,0.00091282468555674,-0.0011116885352898,0.0011116858954054,-0.0011116887873097,0.0011116858138804,-0.0011116889641265,0.0011116862485651,-0.001111689216053,0.0011116861669442,-0.0010280099931572,0.0010280085617542,-0.0010280107907125,0.0010280081886329,-0.00091572248293809,0.00091571976622023,-0.00091572206401182,0.00091571912346651,-7.3861027178673e-10,-7.3868222000053e-10,-0.0012519559600469,0.0012519543268637,-8.861167823582e-10,-4.2822849938388e-10,-0.0014920373425381,0.0014920362076155,-0.0014920375256156,0.0014920366260706,-0.0014920376433292,0.001492036508393,-0.001492037774892,0.0014920368753556,-0.0011867957154923,0.0011867944033948,-0.001186795936917,0.0011867946239392,0.47156008474719,125301,3014,0.0037972851087379,0.0037972851087158,0.0052022402950606,41.433995330684,0.00024667196264547,0.00024667196264547,0.00024667196264547,4567495.8123208,0.012879793273707
9419200,0.9492158917591,0.014207807426635,0.0043521112292353,0.0043521112292109,0.0055035849681891,-0.00092024416653824,0.00092024211701184,-8.0200699444272e-10,-8.0208355986841e-10,-7.9650752277134e-10,-9.2273586280278e-10,-0.0011363745558948,0.0011363729647227,-0.0011363745743495,0.001136372983441,-0.0011363748908341,0.0011363732287718,-0.0011363749083019,0.0011363732465133,-0.0010369494024822,0.0010369485060123,-0.0010369497085632,0.0010369488115891,-7.9650200960137e-10,-9.2276931800318e-10,-2.2498546974677e-10,-1.3791196075992e-09,-0.00092024416653908,0.00092024211700045,-0.0011363743857371,0.0011363731516026,-0.0011363747445029,0.0011363727965669,-0.0011363747202377,0.001136373415195,-0.001136375078915,0.0011363730600692,-0.0010369488783867,0.0010369491208569,-0.0010369502326872,0.0010369481966539,-0.00092422714375046,0.00092422529512866,-0.00092422679462331,0.00092422474911832,-2.915733403993e-10,-2.9164665151264e-10,-0.0012611980695005,0.0012611975969462,-7.2906644102068e-10,3.0086679222602e-10,-0.0015186861394465,0.0015186858491713,-0.0015186859782819,0.0015186863065104,-0.0015186862875578,0.0015186859972692,-0.0015186860810778,0.0015186864093141,-0.0011975187608782,0.0011975185883726,-0.0011975190027891,0.0011975188294026,0.40621133923259,125301,3014,0.0038281868189897,0.0038281868189677,0.0052405222310353,41.145122586039,0.00024436098068832,0.00024436098068832,0.00024436098068832,4274093.2659086,0.012981300685979
10419200,0.97036258459094,0.014411131748288,0.0044171321107874,0.0044171321107631,0.0055768675267374,-0.00091813302380258,0.00091813416614355,4.4291487046062e-10,4.4283818050933e-10,3.8266909508947e-10,2.9237904660906e-10,-0.0011430029026062,0.0011430041510378,-0.0011430027610531,0.0011430040097458,-0.0011430030168568,0.0011430041976763,-0.0011430028757239,0.0011430040568147,-0.0010359897896521,0.0010359915475169,-0.0010359900829167,0.0010359918402757,3.8267463776774e-10,2.9234596264181e-10,1.3729809152859e-09,-4.8724270568977e-10,-0.00091813302380357,0.00091813416613213,-0.001143002609441,0.0011430044547493,-0.001143003054214,0.0011430037060391,-0.001143002723955,0.0011430045016338,-0.0011430031686428,0.0011430037528362,-0.001035988916391,0.0010359925023666,-0.0010359909562079,0.0010359908853365,-0.0009235128599614,0.00092351331939213,-0.00092351257486921,0.00092351288709153,4.7257875533753e-10,4.7250540316663e-10,-0.0012586282893738,0.0012586298856851,-3.3020451853744e-10,1.4155080049374e-09,-0.0015245861293881,0.0015245873850786,-0.0015245854249831,0.0015245877798859,-0.0015245859746131,0.0015245872302896,-0.0015245852363988,0.0015245875913086,-0.0011969027141066,0.0011969044177815,-0.00119690301244,0.001196904715233,0.43665130715676,125301,3014,0.0038194873023125,0.0038194873022908,0.0052298619192183,38.096748460932,0.00021997398768746,0.00021997398768746,0.00021997398768746,4130234.258198,0.012952956402474
11419200,0.98257913316312,0.014520355425255,0.0044523032278534,0.0044523032278292,0.0056157489695722,-0.00091656276781151,0.00091656132599376,-5.6353431744284e-10,-5.6361149614391e-10,-5.8232984659056e-10,-7.0144286387259e-10,-0.0011507425873955,0.0011507415373767,-0.0011507425536096,0.0011507415038498,-0.0011507428839878,0.0011507417652378,-0.0011507428483046,0.0011507417298241,-0.0010341049949148,0.0010341046140809,-0.0010341053099857,0.0010341049286459,-5.8232442399408e-10,-7.0147641528879e-10,5.5752347578546e-10,-1.6846846735944e-09,-0.00091656276781283,0.00091656132598219,-0.0011507422402159,0.0011507419059751,-0.0011507429007859,0.0011507411352562,-0.0011507425359113,0.0011507421329222,-0.0011507431963987,0.0011507413621183,-0.0010341039400413,0.0010341057644383,-0.0010341063648903,0.0010341037781993,-0.00092321486553319,0.00092321313059812,-0.00092321457976412,0.00092321265848974,4.8317136238772e-11,4.8243297259208e-11,-0.0012529816472507,0.0012529820224876,-9.2496387440032e-10,1.1851674706826e-09,-0.0015275216685522,0.0015275217750843,-0.001527521069364,0.0015275225122428,-0.0015275217375618,0.0015275218440785,-0.0015275210958074,0.0015275225386919,-0.0011939879376273,0.0011939888453567,-0.0011939881933793,0.0011939891002309,0.40445605707229,125301,3014,0.0038130238264429,0.0038130238264215,0.0052064604867207,37.627563646027,0.00021622050916822,0.00021622050916822,0.00021622050916822,3913562.5095079,0.012916251317423
12419200,0.98958692160832,0.014591281941704,0.0044753502229861,0.004475350222962,0.0056405814957556,-0.00091522317825223,0.00091522218509657,-3.9124975176512e-10,-3.9132693120146e-10,-4.2115833060798e-10,-5.3426948693391e-10,-0.0011529039676469,0.0011529033154278,-0.0011529039072791,0.0011529032553182,-0.0011529042340219,0.0011529035138755,-0.00115290417153,0.0011529034516521,-0.0010330625061238,0.0010330624980338,-0.0010330628197798,0.0010330628111821,-4.2115269066523e-10,-5.3430299955167e-10,9.243821096131e-10,-1.7069745656675e-09,-0.00091522317825356,0.00091522218508495,-0.0011529035566657,0.0011529037489033,-0.0011529043182567,0.0011529028218475,-0.0011529038220302,0.0011529039463228,-0.0011529045835399,0.0011529030191835,-0.0010330612612017,0.001033063839796,-0.001033064064733,0.0010330614693291,-0.00092271284525725,0.00092271133741063,-0.00092271257093112,0.00092271088560029,1.9625176858436e-10,1.9617796460373e-10,-0.0012499232970738,0.00124992406028,-9.6962320591193e-10,1.5277980062608e-09,-0.0015278109030003,0.0015278112209798,-0.0015278101293283,0.0015278120411269,-0.0015278109262622,0.001527811244226,-0.0015278101118021,0.0015278120236062,-0.0011922341388216,0.001192235493916,-0.0011922344044568,0.0011922357586718,0.45322610794666,125301,3014,0.0038074836428021,0.0038074836427807,0.0051937856169529,36.803228312369,0.00020962582649896,0.00020962582649896,0.00020962582649896,3837826.6490428,0.012892223741732
13419200,0.99350101037223,0.014627582777364,0.0044871804014385,0.0044871804014144,0.0056532219745107,-0.00090898617724866,0.0009089865125255,1.2276383453148e-10,1.2268632345821e-10,6.7659057400475e-11,-3.5497981163983e-11,-0.0011523838646694,0.0011523843470853,-0.0011523837405479,0.0011523842232212,-0.0011523840474999,0.0011523844604794,-0.0011523839214649,0.001152384334712,-0.0010263926694385,0.0010263937664529,-0.0010263929806913,0.0010263940771986,6.7664782781606e-11,-3.5531828352402e-11,1.6393874805689e-09,-1.3939532683698e-09,-0.00090898617725007,0.00090898651251375,-0.0011523833858696,0.0011523848474742,-0.0011523842193442,0.0011523837228365,-0.001152383567794,0.0011523849599447,-0.0011523844011888,0.0011523838352251,-0.0010263912274198,0.0010263953042316,-0.0010263944227414,0.0010263925393288,-0.00091734177994175,0.0009173412005861,-0.00091734153770379,0.00091734079186243,5.0471837172961e-10,5.0464428781635e-10,-0.0012399895605768,0.0012399911936367,-8.6310834013267e-10,2.0365709935953e-09,-0.0015232493224855,0.0015232502107157,-0.0015232482989261,0.0015232510494488,-0.0015232492300971,0.001523250118311,-0.0015232481691479,0.0015232509196757,-0.0011842244000162,0.0011842265634624,-0.0011842246938677,0.0011842268564383,0.4150894025916,125301,3014,0.0037816330036131,0.0037816330035916,0.0051526255849773,34.792088434711,0.00019353670747769,0.00019353670747769,0.00019353670747769,3700126.4396943,0.012798232788853
14419200,0.99576125092655,0.014647004091545,0.0044935415351427,0.0044935415351186,0.0056599210212841,-0.00090373058857397,0.00090373111321065,1.9390984012867e-10,1.9383254399001e-10,1.3310875638357e-10,3.4506533878488e-11,-0.001147678120073,0.0011476787882015,-0.0011476779820406,0.0011476786504265,-0.0011476782871217,0.0011476788869322,-0.0011476781468753,0.0011476787469534,-0.0010214109197996,0.0010214121696813,-0.0010214112352396,0.0010214124846126,1.3311451021074e-10,3.4472766395356e-11,1.8672922669134e-09,-1.4795656853782e-09,-0.00090373058857547,0.00090373111319915,-0.0011476775903273,0.0011476793408939,-0.0011476785117827,0.001147678097739,-0.0011476777563196,0.0011476794385503,-0.0011476786776956,0.0011476781953141,-0.0010214093248108,0.0010214138619918,-0.0010214128302601,0.0010214107922114,-0.00091239440410017,0.00091239386496237,-0.00091239417007032,0.00091239347213642,5.8477097100118e-10,5.8469708537598e-10,-0.001234395678567,0.0012343975107401,-9.3744523616211e-10,2.2736616903725e-09,-0.0015182145062156,0.0015182154844071,-0.0015182133561065,0.0015182164033839,-0.0015182143906741,0.0015182153688492,-0.0015182132043112,0.0015182162515936,-0.0011789403058807,0.0011789427411537,-0.0011789405963208,0.0011789430307156,0.38312450045663,125301,3014,0.0037598179787054,0.0037598179786845,0.005129435888088,32.641228173921,0.00017632982539137,0.00017632982539137,0.00017632982539137,3691308.146269,0.012730562375771
15419200,0.9969381123258,0.014660565353631,0.004497984714696,0.0044979847146719,0.005664595924263,-0.00089190817330701,0.00089191233446286,1.6040728662338e-09,1.6039955988884e-09,1.4774149978683e-09,1.4154743585976e-09,-0.0011364278818353,0.0011364317469387,-0.0011364275711247,0.0011364314364852,-0.0011364277996751,0.0011364315969131,-0.0011364274883482,0.0011364312858532,-0.0010100111553996,0.0010100154178036,-0.0010100114599887,0.0010100157218836,1.4774203365703e-09,1.4154398357975e-09,3.5454441876795e-09,-3.3739260759923e-10,-0.00089190817330888,0.00089191233445049,-0.0011364272560481,0.0011364323881912,-0.0011364281969092,0.0011364307952363,-0.0011364271736298,0.0011364322378899,-0.0011364281144123,0.0011364306448538,-0.0010100092943799,0.0010100173662404,-0.0010100133210405,0.0010100137733547,-0.00090081422297826,0.00090081640546842,-0.00090081404491871,0.00090081611682877,1.3743777122925e-09,1.374303930723e-09,-0.0012232471507078,0.0012232511801344,-4.2971196712378e-10,3.3284564339113e-09,-0.0015075597515732,0.0015075623992425,-0.0015075580907015,0.0015075631761622,-0.0015075593096219,0.0015075619572749,-0.0015075576238183,0.0015075627092833,-0.0011679344287264,0.0011679387524949,-0.0011679347759801,0.0011679390988708,0.51103778709309,125301,3014,0.0037107542201968,0.003710754220175,0.0050832189963244,27.062961759116,0.00013170369407293,0.00013170369407293,0.00013170369407293,3708314.4647659,0.012584399940838
16419200,0.99769382304694,0.014668467985026,0.0045005727560783,0.0045005727560542,0.0056673224728933,-0.00088269389242038,0.00088269495612101,4.0042170168599e-10,4.0034384556444e-10,3.2974347865131e-10,2.3060082193553e-10,-0.0011342744678062,0.0011342755545735,-0.0011342743041077,0.0011342753911319,-0.0011342746096644,0.0011342756256027,-0.001134274442874,0.0011342754590789,-0.00099995800092083,0.00099995970386625,-0.00099995832075149,0.00099996002318892,3.2974902573835e-10,2.3056675506265e-10,2.4450514299776e-09,-1.6443021610964e-09,-0.00088269389242208,0.00088269495610928,-0.0011342738182402,0.0011342762313543,-0.0011342749536704,0.0011342747143557,-0.0011342739586026,0.0011342763008692,-0.0011342750939549,0.0011342747837909,-0.00099995604470907,0.00099996176323165,-0.00099996027699578,0.00099995796373291,-0.00089260571004609,0.00089260535989072,-0.00089260550390778,0.00089260499073073,7.5035265806489e-10,7.5027842756787e-10,-0.0012085520915525,0.0012085543917415,-1.1337193038888e-09,2.811269437619e-09,-0.0014996983652756,0.0014996994493342,-0.001499696932302,0.0014997005720568,-0.001499698210175,0.0014996992942167,-0.0014996967411478,0.0014997003809063,-0.0011556869534815,0.0011556900012549,-0.0011556872585302,0.0011556903054311,0.46538451425637,125301,3014,0.0036725420984057,0.0036725420983848,0.0050223271951783,24.415099614998,0.00011052079691999,0.00011052079691999,0.00011052079691999,3529251.7095346,0.012445450982468
17419200,0.99820136524974,0.014674504904491,0.0045025613226874,0.0045025613226633,0.0056693822591408,-0.00087641017510131,0.00087641103196783,3.1632172611781e-10,3.1624421477985e-10,2.4668888082403e-10,1.5006088139014e-10,-0.0011270345481817,0.0011270354878728,-0.0011270343881268,0.0011270353280748,-0.0011270346984136,0.0011270355690038,-0.0011270345349586,0.0011270354058159,-0.00099412111431202,0.00099412263725558,-0.00099412143965218,0.00099412296208598,2.4669439418686e-10,1.500268395073e-10,2.4358795377512e-09,-1.8033299645464e-09,-0.00087641017510292,0.00087641103195591,-0.0011270338749307,0.0011270361896957,-0.0011270350613744,0.0011270346262558,-0.0011270340235123,0.0011270362691586,-0.0011270352098785,0.001127034705639,-0.00099411908523889,0.00099412477104401,-0.00099412346875739,0.00099412082820601,-0.00088654656609199,0.00088654599012058,-0.00088654635904185,0.00088654562616333,7.4179525010548e-10,7.4172138942069e-10,-0.0012026862509328,0.0012026885006182,-1.215119535947e-09,2.8780669426481e-09,-0.0014928828277432,0.0014928838605245,-0.0014928813549141,0.001492885041405,-0.0014928826817939,0.0014928837145581,-0.0014928811732622,0.0014928848597575,-0.0011498130684896,0.0011498161400923,-0.0011498133605429,0.0011498164312688,0.52521873377382,125301,3014,0.0036464446010561,0.0036464446010347,0.0049979994886578,21.977283830159,9.1018270641269e-05,9.1018270641269e-05,9.1018270641269e-05,3550961.4335987,0.012367961729346
18419200,0.99851678002961,0.0146781050026,0.0045037466798314,0.0045037466798073,0.0056706116429616,-0.00086445112288995,0.00086445412563715,1.1434619514341e-09,1.1433842281026e-09,1.0367120777459e-09,9.5711612258298e-10,-0.0011187143909358,0.0011187171685398,-0.001118714128754,0.0011187169066147,-0.0011187144015076,0.0011187171082872,-0.0011187141369119,0.0011187168439583,-0.00098187629217753,0.00098187959358757,-0.00098187661439387,0.000981879915295,1.0367179578553e-09,9.5708273728854e-10,3.3863747168922e-09,-1.0995441128474e-09,-0.00086445112289093,0.00086445412562537,-0.0011187136723916,0.0011187179110662,-0.0011187148472935,0.0011187161640929,-0.0011187136818059,0.0011187178496378,-0.001118714856631,0.0011187161025859,-0.00098187414024933,0.00098188184440598,-0.00098187876635236,0.00098187766438573,-0.00087517710716982,0.00087517816408925,-0.00087517694103163,0.00087517786072639,1.2024470078928e-09,1.2023729424496e-09,-0.0011880825613235,0.0011880861314078,-8.8596963788278e-10,3.4603563777821e-09,-0.0014818036741462,0.0014818056885901,-0.0014818019311366,0.0014818067704064,-0.0014818033435749,0.001481805358001,-0.0014818015702618,0.0014818064095352,-0.0011364719400955,0.0011364761066866,-0.0011364722702616,0.0011364764359787,0.50516361584657,125301,3014,0.0035968216296522,0.0035968216296298,0.0049374721483806,17.480702445989,5.5045619567913e-05,5.5045619567913e-05,5.5045619567913e-05,3469168.3159877,0.012206272100464
19419200,0.99877790515602,0.014681982583072,0.0045050262576686,0.0045050262576445,0.0056719300677586,-0.00086345504729262,0.00086345379542682,-4.7839403844933e-10,-4.7847163184361e-10,-5.2422607447386e-10,-6.8573894988109e-10,-0.0011173719460028,0.0011173710193161,-0.0011173716814475,0.0011173707550177,-0.0011173719822313,0.0011173709255949,-0.001117371715267,0.0011173706588977,-0.00098100245725699,0.00098100202946451,-0.00098100277766297,0.00098100234936124,-5.2422051888057e-10,-6.8577265712157e-10,1.7751783814781e-09,-2.7320602218213e-09,-0.00086345504729417,0.00086345379541507,-0.0011173712238917,0.0011173717653644,-0.0011173724035552,0.0011173700089737,-0.001117371258965,0.0011173716704701,-0.0011173724385518,0.0011173699140008,-0.00098100029484961,0.00098100429072037,-0.00098100494010202,0.00098100008801439,-0.00087434965912571,0.00087434710415807,-0.00087434955655366,0.00087434672836853,4.8479083861971e-10,4.8471691552507e-10,-0.0011866130094169,0.0011866144642295,-1.5877390270597e-09,2.7442871136477e-09,-0.0014799901502202,0.001479990423729,-0.0014799884075361,0.0014799914947507,-0.0014799898144141,0.0014799900879054,-0.0014799880416873,0.0014799911289056,-0.0011351928284134,0.0011351952755674,-0.0011351931573209,0.0011351956036005,0.65325215552174,125301,3014,0.003592671262502,0.0035926712624808,0.0049313750165972,17.551546672657,5.5612373381253e-05,5.5612373381253e-05,5.5612373381253e-05,3457658.044132,0.012191693634425
20419200,0.99900515017062,0.014685596336783,0.0045062191319472,0.0045062191319231,0.0056731580729125,-0.0008619297682883,0.00086192704221997,-1.0696708128792e-09,-1.0697488532598e-09,-1.0797299154334e-09,-1.2144299807918e-09,-0.0011220310287457,0.0011220288286853,-0.00112203103419,0.0011220288343858,-0.0011220314279058,0.0011220291568032,-0.0011220314277695,0.0011220291569336,-0.00097838485295882,0.00097838340942442,-0.00097838520378072,0.00097838375973781,-1.0797243373948e-09,-1.2144632036464e-09,1.1043082455543e-09,-3.2437440021707e-09,-0.0008619297682897,0.00086192704220835,-0.0011220303472335,0.00112202954934,-0.0011220317156987,0.0011220281137352,-0.0011220307436516,0.0011220298746988,-0.0011220321120418,0.001122028439017,-0.00097838277558354,0.00097838560550868,-0.0009783872811877,0.00097838156356395,-0.00087377692568567,0.00087377344784613,-0.00087377669942797,0.0008737730138754,1.937899072043e-11,1.9304723077491e-11,-0.0011783409121257,0.0011783411304844,-1.9701571384636e-09,2.2133951278423e-09,-0.0014780242348067,0.0014780235348878,-0.0014780230487257,0.0014780250566299,-0.0014780244026628,0.0014780237027253,-0.0014780231700488,0.0014780251779564,-0.0011293049602772,0.001129306495587,-0.0011293051906722,0.0011293067251121,0.70012779305902,125301,3014,0.0035863651346663,0.003586365134645,0.0048971240102147,18.596680032515,6.3973440260118e-05,6.3973440260118e-05,6.3973440260118e-05,3276573.1458721,0.012144337176688
21419200,0.99915977341338,0.01468788725011,0.004506979594351,0.0045069795943269,0.0056739280614319,-0.00085140516796639,0.00085140661999571,5.2276401156535e-10,5.2268607821086e-10,4.5046707487831e-10,3.9874556062624e-10,-0.0011127132086119,0.0011127146640291,-0.0011127132136985,0.0011127146693733,-0.0011127135819031,0.0011127150252821,-0.0011127135814509,0.0011127150250976,-0.00096834936850622,0.00096835159063282,-0.00096834972380779,0.00096835194542632,4.5047504647508e-10,3.9871485164343e-10,2.6911041969463e-09,-1.645665173566e-09,-0.00085140516796427,0.00085140661998711,-0.0011127125289152,0.0011127153827471,-0.0011127138933876,0.0011127139506699,-0.0011127128994814,0.001112715741258,-0.0011127142638807,0.0011127143091052,-0.00096834729653595,0.00096835378108433,-0.00096835179580254,0.00096834975488899,-0.00086398010948483,0.00086398017454501,-0.00086397982389628,0.0008639798197062,7.6026968519475e-10,7.6019557569404e-10,-0.0011655980497066,0.0011656004267353,-1.2505414263472e-09,2.9574699282061e-09,-0.0014666731599101,0.0014666742582523,-0.0014666719661539,0.0014666757900941,-0.0014666733289753,0.0014666744273005,-0.0014666720887542,0.0014666759126985,-0.0011175521309574,0.001117555437762,-0.0011175523601115,0.0011175556660453,0.64990944923705,125301,3014,0.0035426752330852,0.0035426752330629,0.0048442969622972,15.227649956365,3.7021199650918e-05,3.7021199650918e-05,3.7021199650918e-05,3189410.1584155,0.012002451028212
22419200,0.99928775654655,0.014689836507407,0.0045076275450646,0.0045076275450405,0.0056745814173022,-0.00084967048177045,0.00084966963630512,-3.5080649524943e-10,-3.5088416449434e-10,-3.7551244572019e-10,-5.162113747292e-10,-0.0011101891724848,0.001110188630287,-0.0011101890267796,0.0011101884848389,-0.0011101893604306,0.0011101887216051,-0.0011101892107629,0.0011101885722048,-0.00096643438768594,0.00096643455632672,-0.0009664346255649,0.00096643479369637,-3.7550743943633e-10,-5.162451878341e-10,1.8298487065697e-09,-2.5315563615634e-09,-0.00084967048177217,0.00084966963629329,-0.0011101884820868,0.0011101893523442,-0.0011101897171747,0.0011101877627862,-0.0011101886680991,0.0011101894417115,-0.0011101899031127,0.0011101878520771,-0.00096643230044396,0.00096643675462652,-0.00096643671283933,0.00096643259530569,-0.00086227635885468,0.00086227447749989,-0.00086227603503982,0.00086227392360932,5.4405282729487e-10,5.4397898108024e-10,-0.0011635576149587,0.0011635592745099,-1.4595538714252e-09,2.7383869919071e-09,-0.0014636088323228,0.0014636093626487,-0.0014636073621353,0.0014636106115265,-0.001463608721693,0.0014636092520009,-0.001463607212572,0.0014636104619664,-0.0011155293497842,0.0011155320922346,-0.001115529769195,0.0011155325107734,0.6664256214451,125301,3014,0.0035354619863924,0.0035354619863714,0.0048358362819601,14.859229604305,3.4073836834441e-05,3.4073836834441e-05,3.4073836834441e-05,3228040.8490632,0.011979279713897
23419200,0.99940140252591,0.014691466840812,0.0045081695959285,0.0045081695959044,0.0056751276489795,-0.00084980026135813,0.00084979794708642,-8.9874131836376e-10,-8.9881904319521e-10,-9.2173637166008e-10,-1.0633329808191e-09,-0.0011111430193378,0.0011111411575928,-0.0011111429278528,0.0011111410663647,-0.0011111433031349,0.0011111413519825,-0.0011111432073517,0.0011111412564666,-0.00096649977366816,0.00096649861865944,-0.00096650009687974,0.00096649894136128,-9.2173192315095e-10,-1.0633674023889e-09,1.2788609475702e-09,-3.0764395578041e-09,-0.00084980026136076,0.00084979794707374,-0.0011111423312096,0.0011111418787194,-0.0011111436159793,0.00111114034524,-0.001111142612906,0.001111142070991,-0.0011111438976016,0.0011111405374354,-0.00096649769001653,0.00096650081423062,-0.00096650218056543,0.00096649674569778,-0.00086257819128773,0.00086257499186847,-0.0008625779839367,0.00086257455882932,2.1173308222909e-10,2.116591793103e-10,-0.0011622724866221,0.0011622731964677,-1.7840651046827e-09,2.4049369617972e-09,-0.0014631806364183,0.0014631803417872,-0.0014631792804748,0.0014631816992034,-0.0014631806371804,0.0014631803425307,-0.0014631792402976,0.0014631816590291,-0.0011146793563173,0.0011146812694594,-0.0011146796420351,0.0011146815543052,0.6287572963922,125301,3014,0.0035359919637143,0.0035359919636934,0.0048305136918301,15.705209216149,4.0841673729193e-05,4.0841673729193e-05,4.0841673729193e-05,3174467.4328712,0.011974977580537
24419200,0.9995086798256,0.014693092100146,0.0045087103407307,0.0045087103407066,0.0056756714187087,-0.0008542653055517,0.00085426157398123,-1.4472269767975e-09,-1.4473045601921e-09,-1.4535978612302e-09,-1.608644143158e-09,-0.0011150746835169,0.0011150715940929,-0.0011150746459078,0.0011150715567404,-0.0011150750481768,0.0011150718670151,-0.0011150750056668,0.0011150718247724,-0.00097066383472783,0.0009706614433859,-0.00097066421050809,0.00097066181865588,-1.4535921400206e-09,-1.6086772563927e-09,7.2473671128635e-10,-3.6192839133263e-09,-0.00085426530555262,0.00085426157397004,-0.0011150739996998,0.001115072313728,-0.0011150753297209,0.0011150708371114,-0.0011150743619567,0.0011150725842298,-0.0011150756919032,0.0011150711075368,-0.00097066175776217,0.00097066363465374,-0.00097066628750405,0.00097065962729763,-0.00086696861135576,0.00086696420584474,-0.0008669684628903,0.00086696381407752,-8.484207063298e-11,-8.4915859467017e-11,-0.0011663122376616,0.0011663121071678,-2.0678025193613e-09,2.1030430772717e-09,-0.0014665082296047,0.0014665072481403,-0.0014665069781608,0.0014665086972117,-0.0014665083284434,0.0014665073469599,-0.0014665070334488,0.0014665087525023,-0.001118714401428,0.0011187156151618,-0.0011187146071248,0.0011187158199859,0.66255127740754,125301,3014,0.0035545210216019,0.0035545210215805,0.0048472657864112,17.88025815661,5.8242065252877e-05,5.8242065252877e-05,5.8242065252877e-05,3189346.7366944,0.012029426811908
25419200,0.99960648756193,0.014694838996072,0.0045092913911164,0.0045092913910923,0.0056762562138631,-0.00085756016071296,0.0008575564022983,-1.4724722549834e-09,-1.4725499590801e-09,-1.465981665884e-09,-1.6086881951652e-09,-0.0011201207609185,0.0011201176698763,-0.0011201208106136,0.0011201177198283,-0.0011201212329413,0.0011201180721265,-0.0011201212767486,0.0011201181162013,-0.00097313034348748,0.00097312804422064,-0.00097313070316062,0.00097312840338334,-1.4659764296093e-09,-1.6087217662425e-09,6.1597181881234e-10,-3.5610107348052e-09,-0.00085756016071466,0.00085755640228647,-0.0011201201092935,0.001120118362065,-0.0011201214622356,0.0011201170276436,-0.0011201205784198,0.0011201187614016,-0.001120121931289,0.0011201174269047,-0.00097312835038518,0.00097313015771239,-0.00097313269629513,0.0009731262897999,-0.0008706088225315,0.00087060457719278,-0.00087060858628736,0.00087060412449022,-1.5841132778973e-10,-1.5848524091409e-10,-0.0011670350025798,0.0011670347023007,-2.0599054830515e-09,1.9507386418177e-09,-0.0014687244350021,0.001468723384071,-0.0014687233952225,0.001468724935756,-0.0014687246909805,0.0014687236400304,-0.0014687236019884,0.0014687251425244,-0.0011204705595689,0.0011204716512214,-0.0011204707709985,0.0011204718617792,0.77991302017261,125301,3014,0.0035682021682361,0.003568202168215,0.0048502788476292,19.925316877913,7.4602535023307e-05,7.4602535023307e-05,7.4602535023307e-05,3122711.8504673,0.0120601878316
26419200,0.99968669080121,0.014696364489337,0.0045097996310336,0.0045097996310095,0.0056767652272943,-0.00085585493716473,0.00085585286405287,-8.2190666502145e-10,-8.2198462946322e-10,-8.4580698019205e-10,-9.7436192141213e-10,-0.0011226255080675,0.0011226238690236,-0.0011226254765198,0.0011226238377329,-0.0011226258707063,0.0011226241606354,-0.0011226258345342,0.0011226241247304,-0.00097068881770538,0.00097068791820356,-0.00097068917594579,0.00097068827593344,-8.4580161109892e-10,-9.7439544337703e-10,1.2461676809043e-09,-2.8900757565406e-09,-0.00085585493716656,0.00085585286404119,-0.0011226248579242,0.0011226245538769,-0.0011226261266602,0.0011226231528838,-0.001122625218298,0.0011226248432061,-0.0011226264869617,0.0011226234421384,-0.00097068684185978,0.00097069000717233,-0.00097069115182392,0.00097068618687337,-0.00086961287266768,0.00086960998865554,-0.00086961266945447,0.0008696095858548,1.9279581730836e-10,1.9272165798564e-10,-0.0011599331055699,0.0011599338229941,-1.6990863286084e-09,2.279730025342e-09,-0.001466204229234,0.0014662040104296,-0.0014662030532413,0.0014662054078116,-0.0014662043399543,0.0014662041211305,-0.0014662031192863,0.0014662054738584,-0.0011150454241223,0.001115047280387,-0.0011150456645139,0.0011150475199087,0.82922923068302,125301,3014,0.0035611432273756,0.0035611432273551,0.0048208782927504,20.393831693868,7.8350653550942e-05,7.8350653550942e-05,7.8350653550942e-05,2997113.5986695,0.012016199295978
27419200,0.99975663496661,0.01469756564894,0.0045102012975401,0.004510201297516,0.0056771630538837,-0.00085745269736252,0.00085744914724268,-1.392135104434e-09,-1.3922130023484e-09,-1.3920142415528e-09,-1.5335295072556e-09,-0.0011257724155997,0.0011257695034394,-0.0011257724542876,0.0011257695423845,-0.0011257728779751,0.0011257698954148,-0.001125772911298,0.0011257699290051,-0.00097179079960723,0.00097178867382002,-0.00097179116662634,0.00097178904032752,-1.3920088313579e-09,-1.5335629709025e-09,6.2574634477989e-10,-3.410111239596e-09,-0.00085745269736429,0.00085744914723091,-0.0011257717855342,0.0011257701718,-0.00112577308435,0.0011257688740276,-0.001125772245274,0.0011257705611224,-0.001125773544018,0.0011257692632762,-0.00097178887435945,0.00097179071638504,-0.00097179309190707,0.00097178699767176,-0.000871677358358,0.00087167332164588,-0.00087167714198079,0.00087167288980985,-1.2378842931904e-10,-1.2386254767243e-10,-0.0011580012042919,0.0011580010253301,-1.958645091281e-09,1.9141844321854e-09,-0.0014659041307158,0.0014659032143421,-0.0014659031186421,0.0014659047030237,-0.0014659043690456,0.0014659034526521,-0.0014659033084034,0.0014659048927867,-0.0011141591455466,0.0011141602736218,-0.0011141593570263,0.001114160484231,0.74718867332313,125301,3014,0.0035677711396149,0.003567771139594,0.004812889159155,22.251700135519,9.3213601084153e-05,9.3213601084153e-05,9.3213601084153e-05,2926071.4755953,0.012021544951318
28419200,0.99981412297947,0.01469869235221,0.0045105784902292,0.0045105784902051,0.005677535371776,-0.00085952331154049,0.00085952046473004,-1.1231141260167e-09,-1.1231916705302e-09,-1.1343988790694e-09,-1.2678119054666e-09,-0.0011254732783929,0.0011254709816894,-0.0011254732804345,0.0011254709839885,-0.0011254736919701,0.0011254713256236,-0.0011254736891305,0.0011254713230517,-0.00097397411269049,0.00097397256679304,-0.00097397447793845,0.0009739729315284,-1.1343935412886e-09,-1.2678456386713e-09,8.6580328947983e-10,-3.1121259648102e-09,-0.00085952331154242,0.00085952046471821,-0.0011254726556831,0.0011254716402597,-0.0011254739031416,0.001125470325422,-0.0011254730668667,0.0011254719817828,-0.0011254743142533,0.0011254706668711,-0.00097397221465956,0.00097397457891223,-0.00097397637600214,0.00097397091931813,-0.00087363984646933,0.0008736363918072,-0.00087363963468368,0.00087363597589481,4.2590602945139e-11,4.251680046446e-11,-0.0011614367812305,0.0011614370630957,-1.768551148447e-09,2.0508607905371e-09,-0.0014664354221897,0.0014664349180277,-0.0014664343639938,0.001466436326335,-0.0014664355972711,0.0014664350930895,-0.0014664344926145,0.0014664364549573,-0.0011172835787943,0.0011172850506284,-0.001117283799761,0.0011172852707217,0.8493285419621,125301,3014,0.0035763485461724,0.0035763485461518,0.0048271131578744,23.44103541007,0.00010272828328056,0.00010272828328056,0.00010272828328056,2965035.5752023,0.012053268231208
29419200,0.99986083550185,0.014699344658181,0.0045107970621575,0.0045107970621334,0.0056777505338898,-0.00086048644084441,0.00086048343851782,-1.1819857987334e-09,-1.1820636710015e-09,-1.1916665035387e-09,-1.3281844070398e-09,-0.0011298907438307,0.0011298883046915,-0.0011298907546042,0.0011298883157223,-0.0011298911710882,0.0011298886615007,-0.0011298911770733,0.0011298886677533,-0.00097414673651246,0.00097414506487324,-0.00097414710465302,0.0009741454325021,-1.191661187971e-09,-1.3282178467591e-09,7.8005121917475e-10,-3.1441178032432e-09,-0.00086048644084624,0.00086048343850597,-0.0011298901298486,0.0011298889542114,-0.0011298913685834,0.0011298876662061,-0.0011298905547585,0.0011298893086559,-0.001129891793422,0.0011298880205771,-0.00097414486465766,0.00097414705055507,-0.00097414897654067,0.00097414344672833,-0.00087505730344755,0.00087505374186434,-0.0008750570979283,0.00087505332730576,-2.3195364926935e-13,-3.0604850336948e-13,-0.0011577163372275,0.0011577165119059,-1.7845551299922e-09,1.9810946530212e-09,-0.001466529147215,0.0014665285584433,-0.0014665281221173,0.0014665299641016,-0.0014665293375213,0.0014665287487296,-0.001466528265365,0.0014665301073505,-0.0011148363434469,0.0011148377082797,-0.0011148365638996,0.0011148379278629,0.60881578646039,125301,3014,0.0035803587133288,0.0035803587133079,0.0048117302866879,24.779957178541,0.00011343965742833,0.00011343965742833,0.00011343965742833,2858082.4093247,0.012045865563761
30419200,0.99989799476564,0.014699784956911,0.0045109450047,0.0045109450046759,0.005677894947535,-0.00086541243610556,0.00086540939574076,-1.2000722417344e-09,-1.2001493353499e-09,-1.2069056735954e-09,-1.3397393268685e-09,-0.0011272178666044,0.0011272154133892,-0.0011272178751872,0.0011272154222302,-0.0011272182899462,0.0011272157687568,-0.0011272182936091,0.0011272157726885,-0.00098018435248907,0.00098018264105435,-0.00098018471908616,0.00098018300713734,-1.2068999169886e-09,-1.3397736351458e-09,7.4211020509089e-10,-3.1423488277207e-09,-0.00086541243610758,0.00086540939572876,-0.001127217259401,0.0011272160564524,-0.0011272184823882,0.001127214779171,-0.0011272176803302,0.0011272164093896,-0.0011272189032454,0.0011272151320336,-0.00098018250008879,0.00098018460713565,-0.00098018657151999,0.00098018104096511,-0.00087926320669652,0.00087925962694517,-0.00087926298561011,0.00087925920419208,2.1939886251535e-11,2.1866577432246e-11,-0.001169938914756,0.0011699391161459,-1.7433056437828e-09,1.9835364757487e-09,-0.0014701646225375,0.0014701641071194,-0.0014701636094675,0.0014701654989472,-0.0014701648119425,0.0014701642965045,-0.0014701637521026,0.0014701656415838,-0.0011250548007033,0.0011250561898519,-0.0011250550135921,0.0011250564018621,0.51512748248588,125301,3014,0.0036007662688382,0.0036007662688174,0.004862333946596,26.130653429664,0.00012424522743731,0.00012424522743731,0.00012424522743731,3039531.9768768,0.012138288797387
31419200,0.99992807631583,0.014700244478246,0.0045110984672001,0.004511098467176,0.0056780475438701,-0.00087272490119304,0.00087272077973646,-1.6183396890098e-09,-1.6184168323296e-09,-1.6039530744522e-09,-1.7485693555829e-09,-0.0011322006101616,0.0011321971990651,-0.0011322006726902,0.001132197261852,-0.001132201106499,0.0011321976271077,-0.0011322011634935,0.0011321976843706,-0.00098764864735097,0.00098764604090303,-0.00098764901096652,0.00098764640400645,-1.6039474427873e-09,-1.7486034272645e-09,2.6806919525511e-10,-3.5048424568461e-09,-0.00087272490119493,0.00087272077972469,-0.0011322000240335,0.0011321978238535,-0.0011322012588152,0.0011321966370674,-0.0011322005176516,0.0011321982491589,-0.0011322017523605,0.0011321970622978,-0.00098764685101165,0.00098764795472552,-0.00098765080733866,0.0009876444900922,-0.0008859330686539,0.00088592866669361,-0.0008859328224447,0.00088592820285455,-2.1725463399065e-10,-2.1732800380808e-10,-0.0011801438467995,0.0011801433747857,-1.9213276109074e-09,1.6895077375807e-09,-0.0014779415204359,0.0014779404728546,-0.0014779406440399,0.0014779419224935,-0.0014779418070831,0.0014779407594823,-0.0014779408803872,0.0014779421588428,-0.001134101544888,0.0011341023752172,-0.0011341017477096,0.0011341025771621,0.66479676253864,125301,3014,0.0036311118830338,0.0036311118830133,0.0049046289886199,28.438837263692,0.00014271069810954,0.00014271069810954,0.00014271069810954,3100449.1314396,0.012242508510342
32419200,0.99995005340553,0.014700639675673,0.0045112301602406,0.0045112301602165,0.0056781793552158,-0.00087283611196603,0.00087283360860193,-9.8774065205403e-10,-9.8781843164851e-10,-1.0045232763858e-09,-1.1362147470076e-09,-0.0011384600303762,0.0011384580279664,-0.0011384600180722,0.0011384580159196,-0.0011384604221482,0.001138458349644,-0.0011384604055899,0.0011384583333534,-0.00098676104493843,0.00098675978761187,-0.0009867614086795,0.00098676015084243,-1.0045178911949e-09,-1.1362481008766e-09,9.0249624510691e-10,-2.8780718239431e-09,-0.00087283611196768,0.00087283360859027,-0.0011384594378015,0.0011384586534259,-0.0011384606106437,0.0011384573904647,-0.0011384598274935,0.0011384589730062,-0.0011384610002637,0.0011384577099705,-0.00098675924225653,0.00098676170081774,-0.00098676321139347,0.000986758237546,-0.00088666155562309,0.00088665844367904,-0.00088666134971876,0.00088665803510212,1.0732038046546e-10,1.0724634596245e-10,-0.0011742165353248,0.0011742170025993,-1.6105468550462e-09,2.0160511932405e-09,-0.0014788017398031,0.0014788014467945,-0.001478800716544,0.0014788027632,-0.0014788018864023,0.001478801593374,-0.0014788008174634,0.0014788028641208,-0.0011299638558178,0.0011299654045183,-0.0011299640859058,0.0011299656337365,0.7835582016357,125301,3014,0.0036316133674466,0.0036316133674258,0.0048801147582661,29.295574523575,0.0001495645961886,0.0001495645961886,0.0001495645961886,2940336.9206828,0.012218790409818
33419200,0.99996532888494,0.014700924776483,0.0045113255559559,0.0045113255559318,0.0056782736645954,-0.00087025763751184,0.00087025605613256,-6.3348746701037e-10,-6.335653893946e-10,-6.6751639384708e-10,-7.9173810795898e-10,-0.0011397627287125,0.0011397615142844,-0.0011397626712433,0.0011397614570722,-0.0011397630620037,0.0011397617765229,-0.0011397630007952,0.0011397617155817,-0.00098364648366204,0.00098364599039071,-0.00098364684982624,0.0009836463560435,-6.6751100850011e-10,-7.9177171146734e-10,1.2865697028869e-09,-2.5536394769248e-09,-0.00087025763751365,0.00087025605612075,-0.0011397621240765,0.0011397621494693,-0.0011397632758763,0.0011397608218912,-0.0011397624555445,0.0011397624098674,-0.0011397636072733,0.001139761082216,-0.00098364465062246,0.00098364793083024,-0.00098364868289872,0.00098364441551293,-0.00088483354974431,0.00088483115241442,-0.00088483336789491,0.0008848307764382,3.022883367694e-10,3.022141350068e-10,-0.0011663565815828,0.0011663576213658,-1.449688240637e-09,2.2400057467591e-09,-0.0014754111133589,0.0014754112543016,-0.001475409990326,0.0014754125142159,-0.0014754111818256,0.0014754113227482,-0.0014754100154867,0.001475412539378,-0.0011236889547473,0.0011236909575479,-0.0011236891976543,0.0011236911995861,0.80945760226261,125301,3014,0.0036209260968338,0.003620926096813,0.004847571518945,29.317301172222,0.00014973840937778,0.00014973840937778,0.00014973840937778,2828374.5385428,0.012164260778319
34419200,0.99997688904241,0.01470112081728,0.0045113913697976,0.0045113913697735,0.0056783380777085,-0.00087303894508665,0.00087303501434351,-1.5401964026748e-09,-1.5402742081214e-09,-1.534677081301e-09,-1.6794840714733e-09,-0.0011432152269525,0.0011432119846078,-0.0011432152821129,0.0011432120400254,-0.0011432157176588,0.0011432124052639,-0.0011432157677315,0.0011432124556042,-0.00098601994377483,0.00098601750318655,-0.0009860203159845,0.00098601787488391,-1.534671806187e-09,-1.6795175690492e-09,3.3962417695257e-10,-3.4201118320668e-09,-0.00087303894508854,0.00087303501433167,-0.0011432146417395,0.0011432126068206,-0.001143215867323,0.0011432114178164,-0.0011432151299481,0.0011432130249617,-0.0011432163554613,0.001143211835885,-0.00098601815297156,0.00098601940947964,-0.00098602210682069,0.00098601596849975,-0.00088791833913169,0.0008879140889642,-0.00088791812325865,0.00088791365378682,-2.0104275013493e-10,-2.0111683766572e-10,-0.0011666105865873,0.0011666101948217,-1.9004529864511e-09,1.6986567084094e-09,-0.0014763198248186,0.0014763188253938,-0.0014763189367035,0.0014763202562087,-0.0014763200961945,0.0014763190967493,-0.0014763191585382,0.0014763204780445,-0.0011246478631921,0.0011246487348506,-0.0011246480675904,0.0011246489383788,0.73398852679868,125301,3014,0.0036324610256732,0.0036324610256525,0.0048486359362598,31.482778914304,0.00016706223131443,0.00016706223131443,0.00016706223131443,2782829.8373645,0.012188691882419
35419200,0.99998595553858,0.01470125692634,0.0045114371365201,0.004511437136496,0.0056783826533243,-0.0008823638395043,0.00088235728988847,-2.5513452464776e-09,-2.5514227529333e-09,-2.4982581848097e-09,-2.6676645451058e-09,-0.0011501324958468,0.0011501269654771,-0.0011501326793309,0.0011501271492189,-0.0011501331639513,0.0011501275644084,-0.0011501333408843,0.0011501277416095,-0.00099521169006963,0.00099520708097629,-0.00099521205987733,0.00099520745027086,-2.4982530797811e-09,-2.66769783319e-09,-7.8419096736637e-10,-4.3185939088231e-09,-0.0008823638395062,0.00088235728987676,-0.001150131954484,0.0011501275507356,-0.0011501332206911,0.0011501265639643,-0.0011501326193591,0.0011501281464207,-0.0011501338854955,0.0011501271595764,-0.00099521001279522,0.00099520888253055,-0.0009952137371846,0.00099520564862544,-0.00089701879667661,0.00089701253601943,-0.00089701852713408,0.00089701201589332,-7.6790292559273e-10,-7.6797677383672e-10,-0.0011768651209996,0.001176863119365,-2.3417236545821e-09,1.0215371739758e-09,-0.0014836411303697,0.0014836388736105,-0.0014836405542721,0.0014836404554199,-0.0014836416332518,0.0014836393764721,-0.0014836410000674,0.001483640901216,-0.0011345627920623,0.0011345623475261,-0.0011345629632716,0.0011345625178628,0.64952121200817,125301,3014,0.0036711460253519,0.0036711460253315,0.0048911323143083,35.930710495485,0.00020264568396388,0.00020264568396388,0.00020264568396388,2809027.3005659,0.012309991955407
36419200,0.9999917597563,0.014701348351011,0.0045114678444887,0.0045114678444646,0.005678412662058,-0.00088648445074405,0.00088648113011842,-1.3074952916516e-09,-1.3075726400534e-09,-1.3105950046928e-09,-1.4481135680216e-09,-0.0011519852670419,0.0011519825562892,-0.0011519852904532,0.0011519825799584,-0.0011519857142247,0.001151982934429,-0.0011519857332484,0.0011519829537209,-0.00099948518468957,0.00099948324557712,-0.00099948555194729,0.00099948361232208,-1.3105899425279e-09,-1.4481468069381e-09,4.5725328943406e-10,-3.0723380040082e-09,-0.00088648445074591,0.0008864811301067,-0.0011519847168647,0.0011519831399446,-0.0011519858406278,0.0011519819963069,-0.0011519851619001,0.00115198351592,-0.0011519862855921,0.0011519823722092,-0.00099948350495582,0.00099948503629467,-0.00099948723171354,0.00099948182151392,-0.00090080665010152,0.00090080296604382,-0.00090080643044847,0.00090080253751095,-6.5231394166861e-11,-6.530509444478e-11,-0.0011831626362858,0.0011831626223261,-1.6570911299299e-09,1.71844843308e-09,-0.0014872700983833,0.0014872694976431,-0.0014872692284593,0.0014872707996726,-0.0014872703144619,0.0014872697137016,-0.0014872693967991,0.0014872709680136,-0.0011401947183925,0.0011401958103021,-0.0011401949338051,0.0011401960248408,0.6811981079479,125301,3014,0.0036882452129638,0.0036882452129433,0.0049172249227112,37.480898152754,0.00021504718522203,0.00021504718522203,0.00021504718522203,2857640.8863777,0.012370999686422
37419200,0.99999518757017,0.014701400165245,0.004511485230947,0.0045114852309229,0.0056784297033747,-0.00088624386410113,0.00088624190193848,-7.8835956733284e-10,-7.8843712319886e-10,-8.1116842842014e-10,-9.2284079228844e-10,-0.0011529894440422,0.0011529879205916,-0.0011529894678216,0.0011529879446286,-0.0011529898831046,0.0011529883091361,-0.0011529899025279,0.0011529883288275,-0.00099928444821553,0.00099928370077283,-0.00099928481776757,0.0009992840698122,-8.1116338800566e-10,-9.228740727074e-10,9.7668128221396e-10,-2.5534948245964e-09,-0.00088624386410297,0.0008862419019267,-0.0011529888936578,0.0011529885043249,-0.0011529900182032,0.001152987360899,-0.0011529893305885,0.0011529888907207,-0.0011529904550631,0.0011529877472219,-0.00099928276815296,0.0009992854917239,-0.00099928649786266,0.00099928227877034,-0.00090069402043356,0.00090069148755323,-0.00090069378494692,0.0009006910860725,1.690284352091e-10,1.6895453434907e-10,-0.0011817037172599,0.0011817043909567,-1.4317447101672e-09,1.9558372954249e-09,-0.0014873363125622,0.0014873362778446,-0.0014873354387534,0.0014873375845427,-0.0014873365290328,0.001487336494295,-0.0014873356075024,0.0014873377532928,-0.0011390512411023,0.0011390528954931,-0.0011390514555378,0.001139053109056,0.6549576309095,125301,3014,0.0036872518747073,0.0036872518746866,0.0049111899012018,37.680464289418,0.00021664371431535,0.00021664371431535,0.00021664371431535,2804658.1168127,0.012362897458466
38419200,0.99999715782503,0.014701433389094,0.0045114963800689,0.0045114963800448,0.0056784406289803,-0.000885477804117,0.00088547680679462,-4.0818902775245e-10,-4.0826652429675e-10,-4.5318528563296e-10,-5.6860777554041e-10,-0.0011522840843031,0.0011522834069788,-0.0011522839952936,0.001152283318227,-0.0011522843757697,0.0011522836291634,-0.0011522842837325,0.0011522835373942,-0.00099829087989957,0.00099829086694001,-0.00099829125022333,0.00099829123675143,-4.5318023079557e-10,-5.6864128466011e-10,1.4329308778989e-09,-2.2494035200627e-09,-0.00088547780411894,0.00088547680678272,-0.0011522835028051,0.0011522840155503,-0.0011522845767889,0.001152282709659,-0.0011522837928042,0.0011522842362503,-0.0011522848667172,0.001152282930286,-0.00099828912234136,0.0009982927270901,-0.00099829300781432,0.00099828937651014,-0.00089995601556812,0.00089995413366676,-0.00089995584370974,0.00089995378123125,4.4278162261948e-10,4.4270777905183e-10,-0.0011808115170044,0.0011808129347534,-1.2376697212602e-09,2.3006346854984e-09,-0.0014863889854893,0.0014863895252889,-0.0014863878561689,0.0014863906800167,-0.001486388998219,0.0014863895379984,-0.0014863878278608,0.0014863906517098,-0.0011382481884031,0.0011382504398452,-0.0011382484316418,0.0011382506822118,0.72891346290552,125301,3014,0.0036840781025039,0.0036840781024831,0.0049074943858708,37.195823011185,0.00021276658408948,0.00021276658408948,0.00021276658408948,2824253.1008809,0.01235273064911
38880000,0.99999784585313,0.014701445251027,0.0045115003607232,0.0045115003606991,0.0056784445296051,-0.0008843396258999,0.00088433809124375,-6.1528951306302e-10,-6.1536551471181e-10,-6.5379022834848e-10,-7.7631947607583e-10,-0.0011532884497089,0.0011532872884536,-0.001153288377989,0.0011532872170206,-0.0011532887695056,0.001153287536528,-0.0011532886945144,0.0011532874618023,-0.00099709922807743,0.00099709874584821,-0.00099709961258991,0.000997099129916,-6.5367795164417e-10,-7.7618482369489e-10,1.2352547554723e-09,-2.4656900656313e-09,-0.00088433962578213,0.00088433809132613,-0.0011532878659092,0.001153287900286,-0.0011532889615053,0.0011532866052872,-0.0011532881841659,0.0011532881467762,-0.0011532892796917,0.0011532868517167,-0.00099709746162683,0.00099710061574248,-0.00099710137871626,0.0009970972599867,-0.00089910108407391,0.00089909873828265,-0.00089910093473613,0.00089909839762608,3.2400185240699e-10,3.2392975108022e-10,-0.001177051518942,0.0011770526149744,-1.362060166438e-09,2.1911359764912e-09,-0.0014852548994557,0.0014852551472239,-0.0014852537983868,0.0014852563396076,-0.0014852549451098,0.0014852551928632,-0.0014852538018569,0.001485256343102,-0.0011350798838755,0.0011350818693139,-0.001135080104837,0.0011350820893371,0.74537476942469,125301,3014,0.0036793598442904,0.0036793598442171,0.0048919295106916,37.193641922423,0.00021274913537938,0.00021274913537938,0.00021274913537938,2754633.5643772,0.012327450135607
