time,ASR_ext,ASR_strain,ASR_strain_xx,ASR_strain_yy,ASR_strain_zz,disp_x_101,disp_x_102,disp_x_103,disp_x_104,disp_x_105,disp_x_106,disp_x_p1_neg,disp_x_p1_pos,disp_x_p2_neg,disp_x_p2_pos,disp_x_p3_neg,disp_x_p3_pos,disp_x_p4_neg,disp_x_p4_pos,disp_x_p5_neg,disp_x_p5_pos,disp_x_p6_neg,disp_x_p6_pos,disp_y_101,disp_y_102,disp_y_103,disp_y_104,disp_y_105,disp_y_106,disp_y_p1_neg,disp_y_p1_pos,disp_y_p2_neg,disp_y_p2_pos,disp_y_p3_neg,disp_y_p3_pos,disp_y_p4_neg,disp_y_p4_pos,disp_y_p5_neg,disp_y_p5_pos,disp_y_p6_neg,disp_y_p6_pos,disp_y_p7_neg,disp_y_p7_pos,disp_y_p8_neg,disp_y_p8_pos,disp_z_101,disp_z_102,disp_z_103,disp_z_104,disp_z_105,disp_z_106,disp_z_p1_neg,disp_z_p1_pos,disp_z_p2_neg,disp_z_p2_pos,disp_z_p3_neg,disp_z_p3_pos,disp_z_p4_neg,disp_z_p4_pos,disp_z_p5_neg,disp_z_p5_pos,disp_z_p6_neg,disp_z_p6_pos,humidity,ndof,nelem,strain_xx,strain_yy,strain_zz,temp,thermal_strain_xx,thermal_strain_yy,thermal_strain_zz,vonmises,vstrain
2419200,0,0,0,0,0,0,0,0,0,0,0,0,0,0,0,0,0,0,0,0,0,0,0,0,0,0,0,0,0,0,0,0,0,0,0,0,0,0,0,0,0,0,0,0,0,0,0,0,0,0,0,0,0,0,0,0,0,0,0,0,0,0,0,0,0,0,0,0,0,0,0,0,0,0,0
3419200,0.15985862437083,0.0027569435541313,0.00091898118471042,0.00091898118471042,0.00091898118471042,-0.00024173618553158,0.00024173617758409,-2.6742954565213e-12,-2.6862814506515e-12,-2.5782166048995e-12,-2.630799362503e-12,-0.00024989367841338,0.00024989367225082,-0.00024989367885217,0.00024989367268162,-0.00024989367933877,0.00024989367318248,-0.000249893679775,0.00024989367361072,-0.00024795436350081,0.00024795435751603,-0.00024795436370069,0.00024795435769244,-2.5740334540413e-12,-2.6367342818386e-12,-3.1549120043695e-12,-2.2072206632952e-12,-0.00024173618553236,0.0002417361775833,-0.00024989367858172,0.00024989367209382,-0.00024989367868213,0.00024989367284047,-0.00024989367950904,0.00024989367302083,-0.00024989367960945,0.00024989367376748,-0.00024795436397966,0.0002479543570531,-0.00024795436322673,0.00024795435815043,-0.00024299242376952,0.00024299241825507,-0.00024299242397864,0.00024299241838502,-1.2608920614954e-12,-1.2489070599819e-12,-0.0002616519379173,0.00026165193414431,-7.6361951385979e-13,-1.7248762216566e-12,-0.00026842162197503,0.00026842161941871,-0.00026842162334614,0.00026842162014456,-0.00026842162301953,0.0002684216204712,-0.00026842162436864,0.00026842162117506,-0.00025870021209737,0.00025870020899001,-0.00025870021173506,0.00025870020860424,0.7839435038663,134343,3014,0.0010067291714425,0.0010067291714425,0.0010896170583069,31.882667636878,0.00017026134109502,0.00017026134109502,0.00017026134109502,2260135.9649894,0.0031078987162601
4419200,0.34991812579825,0.005844234060975,0.0018717261688623,0.0018717261688622,0.0021007817232505,-0.0004509030064437,0.00045090299220928,-5.4669965899481e-12,-5.479032163446e-12,-4.9301331819331e-12,-5.1220050556732e-12,-0.00048393207276132,0.00048393206030418,-0.00048393207459537,0.0004839320621302,-0.00048393207536752,0.00048393206286578,-0.00048393207718916,0.0004839320646794,-0.00048204650106729,0.0004820464895828,-0.00048204650231866,0.00048204649081061,-4.9256135195691e-12,-5.1295190228178e-12,-6.6155951632743e-12,-4.3330023487898e-12,-0.00045090300644499,0.00045090299220798,-0.0004839320731814,0.00048393205993275,-0.00048393207417396,0.00048393206250317,-0.00048393207578516,0.00048393206248416,-0.00048393207677772,0.00048393206505458,-0.00048204650222905,0.00048204648849922,-0.00048204650116342,0.00048204649188759,-0.00045531146267553,0.00045531145278622,-0.00045531146312492,0.00045531145292164,-3.5848495294253e-12,-3.5728203822016e-12,-0.00054255851230784,0.00054255850277273,-2.344410203407e-12,-4.7021584552281e-12,-0.00057942653770694,0.00057942653037096,-0.00057942654259106,0.00057942653366233,-0.00057942654179073,0.00057942653446276,-0.00057942654659291,0.00057942653767222,-0.00052617668049691,0.0005261766721683,-0.00052617667821059,0.00052617666985843,0.77879287408756,134343,3014,0.0018770597118392,0.0018770597118392,0.0022580405237899,33.607450480141,0.00018405960384112,0.00018405960384112,0.00018405960384112,3855991.3945484,0.0060303060874815
5419200,0.54929413431959,0.0089248533741389,0.0027867832378042,0.0027867832378042,0.0033512868985305,-0.00064740405841005,0.00064740405818723,6.4585047559365e-13,6.3377566800015e-13,5.1580071323051e-13,3.8150350709444e-13,-0.00072156051477023,0.00072156051518495,-0.00072156051551046,0.00072156051591712,-0.00072156051542947,0.00072156051571385,-0.00072156051616064,0.00072156051643698,-0.00071486331778734,0.00071486331905427,-0.00071486331761882,0.0007148633188621,5.2010545568957e-13,3.7591389844138e-13,8.8684159785529e-14,1.1900021466534e-12,-0.0006474040584105,0.00064740405818677,-0.00072156051496624,0.00072156051500961,-0.00072156051531203,0.00072156051609493,-0.00072156051562411,0.00072156051553075,-0.0007215605159699,0.00072156051661606,-0.00071486331838275,0.00071486331854598,-0.0007148633170276,0.00071486331936616,-0.00065292299749556,0.00065292299823173,-0.00065292299692509,0.00065292299736391,-1.210227028395e-12,-1.1981650145283e-12,-0.00083418342337972,0.0008341834196624,-5.4243495839613e-13,-1.7403713034396e-12,-0.00092578453365075,0.00092578453076806,-0.00092578453451174,0.00092578453080421,-0.00092578453409534,0.00092578453122067,-0.00092578453490824,0.00092578453120878,-0.0007983641860801,0.00079836418297878,-0.00079836418689574,0.00079836418377079,0.77316544217793,134343,3014,0.0026941457527188,0.0026941457527188,0.0034694880675187,36.279054989529,0.00020543243991623,0.00020543243991623,0.00020543243991623,4629899.8725199,0.0088972717042158
6419200,0.70555432802193,0.011125780353305,0.0034333658662147,0.0034333658662146,0.0042590486208756,-0.00077206632744512,0.00077206632630978,-3.8903002716442e-13,-4.0127500602989e-13,-2.4330684655462e-13,-2.8618358081746e-13,-0.00089447512897639,0.00089447512838123,-0.00089447512944426,0.00089447512884092,-0.00089447512926853,0.0008944751286151,-0.00089447512973814,0.00089447512907655,-0.00086171729614681,0.00086171729571365,-0.00086171729617316,0.00086171729571603,-2.3903529914075e-13,-2.9233466312671e-13,-7.0260393161232e-13,-8.9163528528092e-14,-0.00077206632744584,0.00077206632630905,-0.00089447512907341,0.00089447512827682,-0.00089447512934528,0.00089447512894742,-0.00089447512936967,0.00089447512850815,-0.00089447512964155,0.00089447512917876,-0.0008617172964863,0.00086171729542077,-0.00086171729583853,0.00086171729600406,-0.0007746553053101,0.00077465530493216,-0.00077465530521768,0.00077465530473336,-7.4062810961376e-13,-7.2840051257022e-13,-0.0010320487070304,0.0010320487047562,-3.7099685747714e-13,-1.0360178356604e-12,-0.0011820756217347,0.0011820756201849,-0.0011820756223218,0.0011820756203103,-0.0011820756220869,0.0011820756205453,-0.0011820756226683,0.0011820756206651,-0.00097820757203922,0.00097820757030094,-0.0009782075715033,0.00097820756974106,0.7291130398096,134343,3014,0.0032123326594769,0.0032123326594769,0.0042905278281661,36.740631119033,0.00020912504895227,0.00020912504895227,0.00020912504895227,4803076.4226458,0.010773127167693
7419200,0.83132971769385,0.012824054620511,0.0039452174225828,0.0039452174225828,0.0049336197753456,-0.0008644222203841,0.00086442221866957,-4.4564315061353e-13,-4.5786951240069e-13,-4.1468602280313e-13,-4.4226128333902e-13,-0.0010318272673829,0.0010318272665138,-0.0010318272677832,0.0010318272669059,-0.0010318272677304,0.0010318272668235,-0.0010318272681321,0.001031827267217,-0.00096788616334764,0.0009678861626325,-0.0009678861632976,0.0009678861625586,-4.1081148000621e-13,-4.4773660320411e-13,-6.1120240355377e-13,-2.9350903775129e-13,-0.00086442222038469,0.00086442221866896,-0.0010318272674335,0.0010318272664582,-0.0010318272677307,0.0010318272669635,-0.0010318272677847,0.0010318272667656,-0.0010318272680819,0.0010318272672708,-0.00096788616353786,0.00096788616248393,-0.00096788616311172,0.00096788616270297,-0.0008650092713153,0.00086500927045382,-0.00086500927137688,0.00086500927044756,-7.1601300864702e-13,-7.0380626390763e-13,-0.0011699746833635,0.0011699746810425,-4.9943255150191e-13,-8.6283246458989e-13,-0.0013739409463088,0.0013739409446576,-0.0013739409467205,0.0013739409448088,-0.0013739409465862,0.0013739409449432,-0.0013739409469942,0.0013739409450907,-0.0011035771428205,0.001103577141182,-0.0011035771423457,0.0011035771406835,0.71231368641774,134343,3014,0.0035961601219367,0.0035961601219367,0.0048624017496438,40.779748486892,0.00024143798789513,0.00024143798789513,0.00024143798789513,4694640.6283688,0.012128200505815
8419200,0.90732232508289,0.013829814785999,0.0042571181517037,0.0042571181517037,0.0053155784825915,-0.00090582471398086,0.0009058247144777,2.5595318080602e-13,2.4370261387596e-13,2.3270974381824e-13,2.2725327815658e-13,-0.0011073351325877,0.00110733513344,-0.0011073351328133,0.0011073351336574,-0.0011073351327193,0.0011073351335415,-0.0011073351329472,0.0011073351337612,-0.0010151936291177,0.0010151936300546,-0.0010151936290973,0.0010151936300102,2.3643405209051e-13,2.2196915833281e-13,2.9346741436752e-13,2.0501661096415e-13,-0.00090582471398145,0.00090582471447711,-0.0011073351325677,0.0011073351334515,-0.0011073351328316,0.0011073351336477,-0.0011073351327032,0.0011073351335512,-0.0011073351329671,0.0011073351337474,-0.0010151936291058,0.0010151936301011,-0.0010151936291132,0.0010151936299596,-0.00090656482825168,0.00090656482883859,-0.00090656482847575,0.00090656482903098,-2.0441687285191e-13,-1.9218654059781e-13,-0.0012279683715565,0.0012279683708256,-2.0016409100677e-13,-1.4953754937757e-13,-0.0014690109028445,0.0014690109023251,-0.0014690109028086,0.0014690109023069,-0.0014690109028134,0.0014690109023021,-0.0014690109027789,0.0014690109022854,-0.0011583510361178,0.0011583510357992,-0.0011583510356361,0.0011583510352935,0.69845438786562,134343,3014,0.0037682883494654,0.0037682883494654,0.0051027239844761,41.436353354889,0.00024669082683911,0.00024669082683911,0.00024669082683911,4370290.0383326,0.012720242244654
9419200,0.9494174757106,0.014377227260161,0.004430902794588,0.004430902794588,0.0055154216709851,-0.0009208064491316,0.00092080645058407,5.6214523861354e-13,5.4992808242751e-13,5.0537507584422e-13,5.1228442359192e-13,-0.0011449625453492,0.0011449625469967,-0.0011449625454576,0.0011449625470969,-0.0011449625453666,0.001144962546989,-0.0011449625454773,0.0011449625470915,-0.0010315670121753,0.0010315670138284,-0.0010315670121822,0.0010315670138114,5.0935526218539e-13,5.0666526437102e-13,8.1946248023006e-13,2.9136335574181e-13,-0.00092080644913221,0.00092080645058345,-0.0011449625452556,0.0011449625470816,-0.0011449625455494,0.0011449625470141,-0.0011449625452771,0.0011449625470719,-0.0011449625455709,0.0011449625470044,-0.0010315670119478,0.0010315670140894,-0.0010315670124141,0.0010315670135461,-0.0009223826968374,0.00092238269795134,-0.00092238269716582,0.00092238269826817,9.033171101647e-14,1.0252933838733e-13,-0.0012441924520515,0.0012441924522114,-1.2746787064993e-13,3.646303313819e-13,-0.0015084485033018,0.0015084485033878,-0.001508448502937,0.0015084485033356,-0.0015084485030893,0.0015084485031834,-0.0015084485027285,0.0015084485031352,-0.0011755064404943,0.0011755064409961,-0.0011755064400124,0.0011755064404903,0.67991627713621,134343,3014,0.0038306341305544,0.0038306341305544,0.0051699364785186,41.144138447562,0.0002443531075805,0.0002443531075805,0.0002443531075805,4041932.8986554,0.012914757837779
10419200,0.97047433972326,0.014660300388525,0.0045223269756964,0.0045223269756964,0.0056156464371318,-0.00091960036579831,0.00091960036953688,1.3082378871717e-12,1.2959829968443e-12,1.2010758373694e-12,1.2298646490674e-12,-0.0011562393093837,0.0011562393128965,-0.0011562393092745,0.0011562393127791,-0.0011562393091284,0.0011562393126191,-0.0011562393090223,0.0011562393125049,-0.0010310175854434,0.0010310175888192,-0.0010310175854936,0.0010310175888454,1.2046324915693e-12,1.224818058752e-12,1.8798352157069e-12,7.2326071672096e-13,-0.00091960036579887,0.00091960036953632,-0.0011562393091822,0.0011562393130856,-0.0011562393094743,0.0011562393125918,-0.0011562393089312,0.001156239312807,-0.0011562393092232,0.0011562393123132,-0.001031017584906,0.0010310175893849,-0.0010310175860349,0.0010310175882758,-0.00092259132077422,0.00092259132332551,-0.00092259132122553,0.00092259132379958,6.9074348649593e-13,7.0297875977555e-13,-0.0012400631917618,0.0012400631937386,1.5124220318392e-13,1.2777523478958e-12,-0.0015167981548544,0.0015167981562257,-0.0015167981539247,0.0015167981560335,-0.0015167981542894,0.0015167981556688,-0.0015167981533695,0.0015167981554865,-0.0011735949607776,0.0011735949628634,-0.0011735949602987,0.0011735949623605,0.69326328333173,134343,3014,0.0038257102513027,0.0038257102513027,0.0051528128717464,38.086341305118,0.00021989073044095,0.00021989073044095,0.00021989073044095,3831988.2793237,0.012887530070059
11419200,0.98264465827574,0.014821673594627,0.0045749048027662,0.0045749048027662,0.0056718639890948,-0.00092079764589613,0.00092079764777044,6.9336528875461e-13,6.8112604500805e-13,6.131683122466e-13,6.2582338152528e-13,-0.0011672794602879,0.0011672794623023,-0.0011672794603169,0.0011672794623231,-0.0011672794602557,0.001167279462248,-0.001167279460286,0.0011672794622702,-0.0010314643243796,0.0010314643263472,-0.001031464324422,0.0010314643263656,6.1678286017138e-13,6.2069646278148e-13,1.3415045776986e-12,3.1855545791744e-14,-0.00092079764589669,0.00092079764776988,-0.0011672794600681,0.0011672794625178,-0.001167279460535,0.0011672794621095,-0.0011672794600392,0.0011672794624614,-0.0011672794605062,0.0011672794620531,-0.0010314643237714,0.0010314643269942,-0.0010314643250342,0.0010314643257146,-0.00092464347936255,0.00092464348050152,-0.0009246434797868,0.00092464348092686,3.0443764081552e-13,3.1665809101856e-13,-0.0012366053729303,0.0012366053737149,-2.9653676453481e-13,9.7035612099247e-13,-0.001522539502327,0.0015225395026977,-0.0015225395016052,0.0015225395028029,-0.0015225395020147,0.0015225395023935,-0.0015225395012975,0.0015225395025033,-0.0011724744131134,0.0011724744143597,-0.00117247441262,0.0011724744138423,0.67903392424581,134343,3014,0.0038307365662439,0.0038307365662439,0.0051384950282119,37.625921837563,0.00021620737470051,0.00021620737470051,0.00021620737470051,3630771.3864142,0.012883302755048
12419200,0.98962559454924,0.014917034838511,0.0046061903252735,0.0046061903252735,0.0057046541879643,-0.00091884100157886,0.00091884100379303,7.9998817855734e-13,7.8776584605885e-13,7.1061876167286e-13,7.2778161971226e-13,-0.0011701307234342,0.0011701307257313,-0.0011701307234241,0.001170130725713,-0.0011701307233623,0.0011701307256388,-0.0011701307233535,0.0011701307256218,-0.0010294434242277,0.0010294434264464,-0.0010294434242844,0.0010294434264792,7.1445100269737e-13,7.223887476961e-13,1.5450887590769e-12,4.1480677761599e-14,-0.00091884100157944,0.00091884100379244,-0.0011701307231821,0.0011701307259792,-0.0011701307236742,0.0011701307254671,-0.0011701307231138,0.0011701307258843,-0.0011701307236059,0.0011701307253722,-0.0010294434235247,0.0010294434271884,-0.0010294434249917,0.0010294434257331,-0.00092360635116129,0.00092360635247537,-0.00092360635161637,0.0009236063529381,4.1144313657696e-13,4.2364623436893e-13,-0.0012311474299143,0.0012311474310243,-2.8625769620035e-13,1.1743009494415e-12,-0.0015217947620873,0.0015217947626686,-0.0015217947612459,0.0015217947627831,-0.0015217947617198,0.0015217947623092,-0.0015217947608837,0.0015217947624291,-0.001168666268939,0.0011686662704964,-0.0011686662684389,0.0011686662699724,0.69352050814956,134343,3014,0.0038226387735978,0.0038226387735978,0.005115880986191,36.800418347022,0.00020960334677617,0.00020960334677617,0.00020960334677617,3521595.6563819,0.012844031073202
13419200,0.99352426089122,0.014969052361036,0.0046233200298893,0.0046233200298893,0.0057224123012574,-0.00091424423179232,0.00091424423497624,1.1205813552441e-12,1.108351670029e-12,1.0111525511601e-12,1.0345428807193e-12,-0.0011704395921553,0.0011704395952245,-0.0011704395920569,0.0011704395951179,-0.0011704395919754,0.0011704395950236,-0.0011704395918785,0.0011704395949187,-0.0010241611587879,0.0010241611617478,-0.0010241611588679,0.0010241611618038,1.0150323316187e-12,1.0290876944303e-12,1.9751719957888e-12,2.5256482969925e-13,-0.00091424423179292,0.00091424423497564,-0.0011704395918652,0.0011704395955088,-0.0011704395923451,0.0011704395948357,-0.001170439591689,0.0011704395953056,-0.0011704395921689,0.0011704395946325,-0.001024161157977,0.0010241611625955,-0.0010241611596831,0.0010241611609518,-0.00091947914152909,0.00091947914347935,-0.00091947914204405,0.0009194791440097,6.6388436584716e-13,6.7609505164262e-13,-0.0012233207110393,0.0012233207129209,-1.4642517387027e-13,1.5355277671513e-12,-0.0015183982362143,0.0015183982373378,-0.0015183982351597,0.0015183982373877,-0.0015183982357079,0.0015183982368396,-0.0015183982346605,0.0015183982368966,-0.001162286317765,0.0011622863199785,-0.0011622863172638,0.0011622863194534,0.67547399841503,134343,3014,0.003803582647521,0.003803582647521,0.0050834540134953,34.785274792423,0.00019348219833938,0.00019348219833938,0.00019348219833938,3416049.9909306,0.01277264563489
14419200,0.99577581981879,0.014998733428901,0.0046331247535676,0.0046331247535676,0.0057324839217655,-0.0009079379664125,0.00090793796973138,1.1599106831719e-12,1.1476958210334e-12,1.0466892155394e-12,1.0732718887511e-12,-0.0011657440174049,0.0011657440205963,-0.0011657440172879,0.0011657440204712,-0.0011657440172072,0.0011657440203788,-0.0011657440170915,0.0011657440202551,-0.0010179779401522,0.0010179779432064,-0.001017977940241,0.0010179779432713,1.0506810415181e-12,1.0676711407325e-12,2.1181474905775e-12,1.8823131385719e-13,-0.00090793796641311,0.00090793796973077,-0.0011657440170812,0.0011657440209152,-0.0011657440176097,0.0011657440201543,-0.0011657440168871,0.0011657440206953,-0.0011657440174156,0.0011657440199344,-0.0010179779392403,0.0010179779441564,-0.0010179779411573,0.001017977942317,-0.00091377016130438,0.0009137701632759,-0.00091377016183208,0.00091377016382412,7.2002323907841e-13,7.3221927826249e-13,-0.0012151195869414,0.0012151195889861,-1.9204657428545e-13,1.6955441728776e-12,-0.0015118505399335,0.0015118505411373,-0.001511850538787,0.0015118505412317,-0.0015118505394034,0.0015118505406154,-0.0015118505382646,0.0015118505407174,-0.0011549542814564,0.0011549542838652,-0.0011549542809475,0.0011549542833324,0.66541085069833,134343,3014,0.0037774113047851,0.0037774113047851,0.005049460236987,32.633968078675,0.0001762717446294,0.0001762717446294,0.0001762717446294,3372901.0437377,0.012685216932205
15419200,0.99694770169779,0.01501510033645,0.0046385368284037,0.0046385368284037,0.005738026679643,-0.0008944015193265,0.00089440152530716,2.0317339907448e-12,2.0191439341859e-12,1.868833129019e-12,1.9191494742421e-12,-0.0011537990339254,0.0011537990392728,-0.0011537990335709,0.0011537990389099,-0.0011537990334122,0.0011537990387416,-0.0011537990330604,0.0011537990383814,-0.0010047148671468,0.0010047148722127,-0.0010047148672876,0.0010047148723289,1.8734147925765e-12,1.912788080343e-12,3.215965998472e-12,8.3354176217533e-13,-0.00089440151932718,0.00089440152530648,-0.0011537990335206,0.0011537990396666,-0.0011537990339735,0.0011537990385184,-0.0011537990330121,0.0011537990391332,-0.001153799033465,0.0011537990379851,-0.0010047148660107,0.0010047148733786,-0.0010047148684287,0.001004714871158,-0.00090079523081947,0.00090079523457353,-0.00090079523146533,0.00090079523527085,1.3896483413147e-12,1.402219398454e-12,-0.0012005620522445,0.0012005620563293,2.3945872881785e-13,2.5893663525177e-12,-0.0014988218089071,0.0014988218116194,-0.0014988218072205,0.0014988218114852,-0.0014988218079926,0.0014988218107132,-0.0014988218063202,0.0014988218105933,-0.0011411558177478,0.0011411558218482,-0.0011411558172329,0.0011411558213087,0.70136005659842,134343,3014,0.003721229273703,0.003721229273703,0.0049891091717251,27.04445949059,0.00013155567592472,0.00013155567592472,0.00013155567592472,3349771.3101092,0.01251034019783
16419200,0.99770074574124,0.015025243758059,0.004641894452668,0.004641894452668,0.0057414548527225,-0.00088866441964074,0.00088866442335233,1.2919967950907e-12,1.2794772363781e-12,1.1694033343544e-12,1.196134414797e-12,-0.0011520959300603,0.0011520959335562,-0.0011520959299044,0.0011520959333918,-0.0011520959298251,0.0011520959333002,-0.00115209592967,0.0011520959331367,-0.00099794560894566,0.00099794561230821,-0.00099794560905724,0.0009979456123953,1.173599700026e-12,1.1902766838202e-12,2.5033663970367e-12,6.683380064459e-14,-0.00088866441964137,0.00088866442335169,-0.0011520959296547,0.0011520959339597,-0.0011520959303079,0.0011520959329905,-0.0011520959294231,0.0011520959337009,-0.0011520959300763,0.0011520959327317,-0.00099794560778737,0.00099794561350812,-0.00099794561022012,0.00099794561119084,-0.00089502857715227,0.00089502857924884,-0.00089502857772962,0.00089502857984499,8.5760968296581e-13,8.7011009520445e-13,-0.0011925768029062,0.0011925768053536,-3.0191195326766e-13,2.0870910496246e-12,-0.001494250369697,0.0014942503710546,-0.00149425036833,0.001494250371261,-0.0014942503691125,0.0014942503704784,-0.0014942503677532,0.0014942503706925,-0.0011340505071818,0.0011340505100732,-0.0011340505066634,0.0011340505095303,0.67694980784925,134343,3014,0.0036974318707148,0.0036974318707148,0.0049560253720695,24.406321687479,0.00011045057349983,0.00011045057349983,0.00011045057349983,3270015.8994256,0.012428723451786
17419200,0.99820657025069,0.015032255283036,0.004644219469138,0.004644219469138,0.00574381634476,-0.00088138321884308,0.00088138322240872,1.2378448905706e-12,1.2252811861479e-12,1.1172081641751e-12,1.1453123497292e-12,-0.0011448029054254,0.0011448029088176,-0.001144802905277,0.0011448029086608,-0.0011448029052037,0.0011448029085764,-0.001144802905056,0.0011448029084203,-0.00099112405173461,0.00099112405497608,-0.00099112405184511,0.000991124055062,1.1213559397928e-12,1.1395085546047e-12,2.4586917921461e-12,3.1652797102765e-15,-0.00088138321884371,0.00088138322240809,-0.0011448029050171,0.0011448029092243,-0.0011448029056832,0.0011448029082562,-0.0011448029047989,0.0011448029089802,-0.001144802905465,0.0011448029080121,-0.00099112405056726,0.00099112405618574,-0.000991124053017,0.00099112405384783,-0.00088832754675905,0.00088832754873297,-0.00088832754732726,0.00088832754932335,8.3225286936377e-13,8.447976920104e-13,-0.001184428338812,0.0011844283411815,-3.3576763958791e-13,2.0714677180831e-12,-0.0014862526801031,0.0014862526814072,-0.0014862526787472,0.0014862526816365,-0.0014862526795356,0.0014862526808481,-0.0014862526781874,0.0014862526810851,-0.0011264674998713,0.0011264675027103,-0.0011264674993493,0.0011264675021637,0.69391424293923,134343,3014,0.0036672027363901,0.0036672027363901,0.004922237820561,21.969289191032,9.0954313528256e-05,9.0954313528256e-05,9.0954313528256e-05,3260762.617109,0.012333296274987
18419200,0.99852080302178,0.015036539218584,0.0046456407369109,0.0046456407369109,0.0057452577447626,-0.00087095930182992,0.00087095930820236,2.1660977095548e-12,2.153472889352e-12,1.9958234848449e-12,2.0431726854181e-12,-0.0011368560798833,0.0011368560855209,-0.0011368560794915,0.0011368560851206,-0.0011368560793388,0.0011368560849562,-0.0011368560789492,0.0011368560845582,-0.00098034488877778,0.00098034489415816,-0.00098034488894647,0.00098034489430215,1.9997539075121e-12,2.0376524790566e-12,3.5533594882075e-12,7.6499708902076e-13,-0.00087095930183052,0.00087095930820175,-0.0011368560794131,0.0011368560859823,-0.0011368560799598,0.0011368560846611,-0.0011368560788727,0.0011368560854157,-0.0011368560794194,0.0011368560840945,-0.00098034488744403,0.00098034489552489,-0.00098034489028456,0.00098034489293112,-0.00087808370234514,0.00087808370626667,-0.00087808370304856,0.00087808370701781,1.526972087345e-12,1.5395772316783e-12,-0.0011727581766815,0.0011727581811732,1.7887193264406e-13,2.9300979581069e-12,-0.0014767502387579,0.0014767502416469,-0.0014767502368913,0.0014767502415988,-0.0014767502377964,0.0014767502406938,-0.0014767502359434,0.0014767502406593,-0.0011154401809224,0.001115440185475,-0.0011154401803922,0.0011154401849202,0.68264644531433,134343,3014,0.003623940699805,0.003623940699805,0.0048738614204232,17.464467696541,5.491574157233e-05,5.491574157233e-05,5.491574157233e-05,3220382.1786182,0.012196780770333
19419200,0.9987812235549,0.015040308553185,0.0046468918871073,0.0046468918871073,0.0057465247789699,-0.00086963774241295,0.0008696377440696,6.0827018246934e-13,5.9432490260572e-13,5.2161477090915e-13,5.2953535247023e-13,-0.0011358315975152,0.0011358315993732,-0.0011358315975288,0.0011358315993775,-0.0011358315975227,0.0011358315993577,-0.0011358315975355,0.0011358315993612,-0.00097906988958534,0.00097906989137855,-0.00097906988967209,0.00097906989143802,5.2169743722136e-13,5.289002799595e-13,1.8695519940067e-12,-6.6730531970333e-13,-0.00086963774241312,0.00086963774406943,-0.0011358315971013,0.0011358315997927,-0.0011358315979427,0.0011358315989579,-0.0011358315971086,0.0011358315997767,-0.00113583159795,0.0011358315989419,-0.00097906988838045,0.0009790698926354,-0.00097906989087759,0.00097906989018068,-0.00087712689334853,0.00087712689389655,-0.0008771268938472,0.00087712689440552,3.9021040286946e-13,4.0413491866153e-13,-0.0011701662132742,0.001170166214287,-8.0335244342841e-13,1.6730865942354e-12,-0.0014744990239609,0.001474499024151,-0.0014744990228557,0.0014744990246729,-0.0014744990236646,0.001474499023864,-0.0014744990225624,0.0014744990243889,-0.0011133801998073,0.0011133802016558,-0.001113380199281,0.0011133802011023,0.72155884054382,134343,3014,0.0036184516309996,0.0036184516309995,0.0048631178633684,17.551745954458,5.5613967635662e-05,5.5613967635662e-05,5.5613967635662e-05,3195529.8080335,0.012174790586737
20419200,0.99900789652456,0.01504362675328,0.0046479940013883,0.0046479940013883,0.0057476387505031,-0.00087196167138387,0.00087196167205422,2.8646268993793e-13,2.724337361599e-13,2.1367320772429e-13,2.1387920143133e-13,-0.0011410569900769,0.001141056991132,-0.0011410569901759,0.0011410569912217,-0.0011410569902037,0.0011410569912358,-0.0011410569903021,0.0011410569913248,-0.00098026498750081,0.00098026498855407,-0.00098026498756931,0.00098026498859512,2.153215140663e-13,2.1119689366811e-13,1.3335347324771e-12,-7.7539299156175e-13,-0.00087196167138424,0.00087196167205385,-0.0011410569897336,0.0011410569914805,-0.0011410569905185,0.0011410569908739,-0.0011410569898614,0.0011410569915826,-0.0011410569906463,0.001141056990976,-0.00098026498650587,0.0009802649896003,-0.00098026498856645,0.00098026498754676,-0.00087924339499625,0.00087924339496785,-0.00087924339546269,0.00087924339542741,1.2000824559518e-13,1.3401449418449e-13,-0.0011702929789387,0.0011702929791599,-8.6073716095292e-13,1.1890396903595e-12,-0.0014770851923678,0.001477085192042,-0.0014770851915439,0.0014770851925611,-0.0014770851922108,0.0014770851918943,-0.0014770851913874,0.001477085192414,-0.001114042074269,0.0011140420753654,-0.0011140420737529,0.0011140420748219,0.72908277580457,134343,3014,0.0036281093087413,0.0036281093087413,0.004863669853059,18.600447146512,6.4003577172099e-05,6.4003577172099e-05,6.4003577172099e-05,3124017.2442686,0.012194957611909
21419200,0.99916199013012,0.015045823550302,0.0046487251016277,0.0046487251016277,0.0057483733470465,-0.00086342291664325,0.00086342292188056,1.7949219604838e-12,1.7808163325776e-12,1.6423696943803e-12,1.6778502722377e-12,-0.0011339158169055,0.001133915821605,-0.0011339158166129,0.001133915821303,-0.0011339158165046,0.0011339158211828,-0.0011339158162129,0.0011339158208817,-0.00097179715433393,0.00097179715886412,-0.00097179715449102,0.00097179715899362,1.646525654627e-12,1.672057280092e-12,3.3317281086183e-12,2.4275732993779e-13,-0.00086342291664387,0.00086342292187994,-0.0011339158163913,0.0011339158221169,-0.0011339158171251,0.0011339158207932,-0.001133915815994,0.0011339158216919,-0.0011339158167278,0.0011339158203682,-0.00097179715285701,0.00097179716038251,-0.00097179715597248,0.00097179715747073,-0.00087114445214796,0.00087114445514796,-0.00087114445282379,0.00087114445585336,1.2766978506982e-12,1.2907818027961e-12,-0.0011605857318029,0.0011605857355222,-2.0805312941383e-13,2.8327483438355e-12,-0.0014687534065168,0.0014687534086679,-0.0014687534047236,0.0014687534088827,-0.001468753405723,0.0014687534078834,-0.0014687534039399,0.0014687534081083,-0.00110502103063,0.0011050210347086,-0.0011050210300999,0.001105021034151,0.70949067210736,134343,3014,0.0035926680979121,0.0035926680979121,0.0048234251151652,15.215521519898,3.6924172159182e-05,3.6924172159182e-05,3.6924172159182e-05,3095535.8072824,0.012082495102761
22419200,0.99928962612852,0.015047662566297,0.0046493374854506,0.0046493374854506,0.0057489875953957,-0.00086106988946118,0.00086106989159996,7.6770125313604e-13,7.5359891924678e-13,6.6773863045496e-13,6.8232706714117e-13,-0.0011314062066618,0.0011314062088946,-0.0011314062066323,0.0011314062088557,-0.0011314062066183,0.0011314062088304,-0.0011314062065878,0.0011314062087906,-0.00096971712831046,0.00096971713047616,-0.00096971712841116,0.00096971713054926,6.7175794809007e-13,6.7668398401878e-13,2.1986189577809e-12,-6.7856232969842e-13,-0.0008610698894618,0.00086106989159936,-0.001131406206191,0.0011314062093718,-0.0011314062071011,0.0011314062083806,-0.00113140620615,0.001131406209304,-0.0011314062070602,0.0011314062083128,-0.00096971712694125,0.00096971713189823,-0.00096971712978482,0.00096971712912283,-0.00086923815199374,0.0008692381527848,-0.00086923815253355,0.00086923815332832,5.274134172939e-13,5.4149654588752e-13,-0.0011572681423367,0.0011572681437648,-8.3448325710931e-13,1.9805824210372e-12,-0.001465410217007,0.0014654102174103,-0.0014654102157239,0.0014654102179794,-0.0014654102166453,0.001465410217058,-0.0014654102153658,0.0014654102176307,-0.0011022070539501,0.0011022070562287,-0.001102207053422,0.0011022070556731,0.7160285969402,134343,3014,0.0035828956787824,0.0035828956787824,0.0048096673924495,14.857860055543,3.4062880444345e-05,3.4062880444345e-05,3.4062880444345e-05,3082409.1776872,0.012048775639911
23419200,0.9994029928312,0.015049268068444,0.0046498723961473,0.0046498723961473,0.005749523276149,-0.00086212573599266,0.00086212573688861,3.5717932371096e-13,3.4305543165675e-13,2.7812259178103e-13,2.8296050280969e-13,-0.0011334493481315,0.0011334493493679,-0.0011334493482079,0.0011334493494349,-0.0011334493482334,0.0011334493494489,-0.0011334493483086,0.0011334493495147,-0.00097041973452355,0.00097041973574469,-0.00097041973460291,0.00097041973579641,2.819915068489e-13,2.7751517283726e-13,1.5884476950611e-12,-8.894186014768e-13,-0.00086212573599325,0.00086212573688802,-0.0011334493477282,0.0011334493497786,-0.0011334493486093,0.0011334493490261,-0.0011334493478324,0.001133449349856,-0.0011334493487135,0.0011334493491035,-0.0009704197333502,0.00097041973697225,-0.00097041973578056,0.00097041973456464,-0.0008704155383699,0.00087041553838192,-0.00087041553885963,0.00087041553886299,2.0444072506442e-13,2.185440001014e-13,-0.0011568485370633,0.0011568485375284,-9.5610658571775e-13,1.4585181932704e-12,-0.0014658974324458,0.0014658974322017,-0.0014658974314705,0.0014658974328113,-0.0014658974322582,0.0014658974320236,-0.0014658974312838,0.0014658974326339,-0.0011022346486345,0.0011022346500444,-0.0011022346481088,0.0011022346494911,0.70402580109909,134343,3014,0.0035872805393318,0.0035872805393318,0.0048079390102707,15.708253207939,4.086602566351e-05,4.086602566351e-05,4.086602566351e-05,3046039.6291993,0.012055916927604
24419200,0.99951002943459,0.015050811709317,0.0046503870493643,0.0046503870493643,0.0057500376105885,-0.00086563785047072,0.00086563784999259,-9.7982565523411e-14,-1.1224198284918e-13,-1.5302563399545e-13,-1.5805114223433e-13,-0.0011368693819458,0.0011368693820844,-0.0011368693821371,0.0011368693822663,-0.0011368693822058,0.0011368693823237,-0.0011368693823976,0.0011368693825061,-0.00097386963464109,0.00097386963481473,-0.0009738696346993,0.00097386963484502,-1.4913648714532e-13,-1.6350918321551e-13,3.2746069804678e-13,-5.3887607030591e-13,-0.00086563785047131,0.00086563784999199,-0.0011368693818035,0.001136869382226,-0.0011368693822775,0.0011368693821267,-0.0011368693820667,0.0011368693824625,-0.0011368693825407,0.0011368693823631,-0.0009738696342527,0.00097386963524669,-0.00097386963509196,0.00097386963440883,-0.00087417615627089,0.00087417615580845,-0.0008741761567032,0.00087417615621932,-2.2097730811845e-13,-2.0674041951621e-13,-0.0011590735893605,0.0011590735886228,-5.9249792900674e-13,2.2577447039197e-13,-0.0014680952538443,0.0014680952531405,-0.0014680952535915,0.0014680952534132,-0.0014680952538495,0.0014680952531552,-0.0014680952535945,0.0014680952534256,-0.0011048725164629,0.0011048725163907,-0.0011048725159358,0.0011048725158357,0.71547577169656,134343,3014,0.0036018564660169,0.0036018564660169,0.004817170090004,17.888107071303,5.8304856570426e-05,5.8304856570426e-05,5.8304856570426e-05,3022382.21083,0.01209475475655
25419200,0.99960760512612,0.015052292140417,0.0046508806822172,0.0046508806822172,0.0057505307759824,-0.00086952023820088,0.00086952023786077,-5.1763389252226e-14,-6.6121950608032e-14,-1.106296497519e-13,-1.1446740015832e-13,-0.001141806732458,0.0011418067327054,-0.0011418067326377,0.0011418067328755,-0.0011418067327033,0.00114180673293,-0.0011418067328836,0.0011418067331007,-0.00097723652677467,0.00097723652705518,-0.00097723652683438,0.00097723652708681,-1.063657819848e-13,-1.2041068366862e-13,3.7427982428034e-13,-4.9345159275814e-13,-0.00086952023820151,0.00086952023786013,-0.0011418067323148,0.0011418067328474,-0.0011418067327787,0.0011418067327357,-0.0011418067325637,0.001141806733069,-0.0011418067330275,0.0011418067329573,-0.00097723652638564,0.00097723652748716,-0.00097723652722806,0.00097723652665022,-0.0008780817088873,0.00087808170852467,-0.00087808170932788,0.00087808170894383,-1.8891943452331e-13,-1.7458157841732e-13,-0.0011613321656657,0.0011613321650285,-5.6198884633239e-13,2.5840973811282e-13,-0.0014713077738474,0.0014713077732205,-0.0014713077735736,0.0014713077734743,-0.0014713077738327,0.0014713077732153,-0.0014713077735569,0.0014713077734672,-0.0011075282456614,0.001107528245665,-0.0011075282451378,0.0011075282451133,0.75063327654532,134343,3014,0.0036179752765433,0.0036179752765433,0.0048265502097599,19.93271368363,7.4661709469041e-05,7.4661709469041e-05,7.4661709469041e-05,2980894.2225142,0.012136895649167
26419200,0.99968758687444,0.015053533984747,0.0046512951262881,0.0046512951262881,0.0057509437321704,-0.00087031616514543,0.00087031616656304,5.3156029060976e-13,5.1716705384268e-13,4.4105136441886e-13,4.4842947725787e-13,-0.0011446331536851,0.001144633155329,-0.0011446331537154,0.0011446331553497,-0.0011446331537308,0.0011446331553532,-0.0011446331537626,0.0011446331553754,-0.00097736190274654,0.00097736190437027,-0.00097736190283819,0.00097736190443377,4.4501490056212e-13,4.4286822619439e-13,1.0615744974771e-12,-1.4064335193708e-14,-0.00087031616514604,0.00087031616656243,-0.0011446331535036,0.0011446331555053,-0.0011446331538949,0.0011446331551755,-0.001144633153553,0.0011446331555271,-0.0011446331539444,0.0011446331551973,-0.00097736190225374,0.00097736190490067,-0.00097736190333533,0.00097736190389906,-0.00087887185543289,0.00087887185629171,-0.00087887185595484,0.00087887185680733,2.4577346237767e-13,2.6014490569288e-13,-0.0011603233010186,0.0011603233017056,-2.3906672608738e-13,7.9555804918887e-13,-0.0014721816641739,0.0014721816645274,-0.0014721816635832,0.0014721816646095,-0.0014721816639149,0.0014721816642779,-0.0014721816633258,0.0014721816643617,-0.0011069900637395,0.0011069900648142,-0.0011069900632172,0.0011069900642637,0.76690380774561,134343,3014,0.0036212879184554,0.0036212879184554,0.0048223887046148,20.395382012359,7.8363056098869e-05,7.8363056098869e-05,7.8363056098869e-05,2928921.4344532,0.012139428253649
27419200,0.99975735152115,0.015054575937279,0.0046516434129041,0.0046516434129041,0.005751289111471,-0.00087341372090764,0.0008734137212647,1.8082765230994e-13,1.6611945457646e-13,1.0638769110553e-13,1.0724256204864e-13,-0.0011486777064448,0.0011486777072459,-0.0011486777065658,0.001148677707357,-0.0011486777066131,0.0011486777073933,-0.0011486777067348,0.0011486777075052,-0.00098021429279379,0.00098021429361014,-0.00098021429286649,0.00098021429365406,1.1114082603035e-13,1.0072226675389e-13,7.2381853535898e-13,-3.7822704902507e-13,-0.00087341372090832,0.00087341372126403,-0.0011486777062621,0.0011486777074269,-0.0011486777067462,0.0011486777071785,-0.0011486777064343,0.001148677707571,-0.0011486777069184,0.0011486777073225,-0.00098021429229025,0.000980214294156,-0.0009802142933751,0.00098021429310318,-0.0008822509334716,0.0008822509335409,-0.00088225093395238,0.00088225093400411,-8.0617243080915e-15,6.6254446560372e-15,-0.0011615152424166,0.0011615152423248,-4.9892309647717e-13,5.5625572735759e-13,-0.0014744174787849,0.001474417478512,-0.0014744174783358,0.0014744174787472,-0.0014744174786731,0.0014744174784099,-0.0014744174782233,0.0014744174786445,-0.0011088053019041,0.0011088053024013,-0.0011088053013831,0.0011088053018516,0.73787115040645,134343,3014,0.00363415016401,0.00363415016401,0.0048273458136029,22.257776690812,9.3262213526496e-05,9.3262213526496e-05,9.3262213526496e-05,2884935.3551114,0.012170490584976
28419200,0.99981468089044,0.015055478590657,0.0046519452642443,0.0046519452642443,0.005751588062168,-0.00087460385882478,0.00087460385968769,3.455883542777e-13,3.3075495448671e-13,2.6418894391499e-13,2.6823736435617e-13,-0.0011491473112088,0.0011491473124146,-0.0011491473112858,0.0011491473124816,-0.0011491473113185,0.001149147312503,-0.0011491473113963,0.001149147312571,-0.00098168277505631,0.00098168277625285,-0.00098168277513898,0.0009816827763065,2.6781134140322e-13,2.6309490196958e-13,9.3041854418302e-13,-2.5522968412388e-13,-0.00087460385882535,0.00087460385968711,-0.0011491473110116,0.0011491473126091,-0.0011491473114813,0.0011491473122888,-0.0011491473111244,0.0011491473126952,-0.0011491473115941,0.0011491473123749,-0.00098168277451086,0.00098168277683922,-0.00098168277568846,0.00098168277571613,-0.00088381975077037,0.00088381975118144,-0.000883819751269,0.00088381975167116,1.2028917818935e-13,1.3510113745887e-13,-0.0011618624386464,0.0011618624389451,-4.1434963602069e-13,7.2612089103462e-13,-0.0014741993886815,0.0014741993886954,-0.0014741993881343,0.00147419938889,-0.0014741993885003,0.001474199388524,-0.0014741993879536,0.0014741993887191,-0.0011095565241155,0.0011095565249362,-0.0011095565235897,0.0011095565243815,0.77519038654381,134343,3014,0.0036390843746836,0.0036390843746836,0.0048287818409587,23.444957328777,0.00010275965863022,0.00010275965863022,0.00010275965863022,2878747.8886198,0.012181907824124
29419200,0.99986126265273,0.015056127311575,0.0046521625410379,0.0046521625410379,0.0057518022294988,-0.00087744655650288,0.00087744655724983,3.1063559853099e-13,2.933228627173e-13,2.2949120978931e-13,2.2894357946021e-13,-0.0011538791220927,0.001153879123203,-0.0011538791221811,0.0011538791232798,-0.0011538791222193,0.001153879123306,-0.0011538791223085,0.0011538791233837,-0.00098378878389309,0.00098378878500786,-0.00098378878397617,0.00098378878505707,2.3069670712034e-13,2.2678719864499e-13,9.1523844772234e-13,-3.1196267445917e-13,-0.00087744655650321,0.00087744655724949,-0.0011538791218902,0.0011538791234034,-0.0011538791223831,0.0011538791230799,-0.0011538791220182,0.0011538791235058,-0.0011538791225111,0.0011538791231822,-0.00098378878332778,0.0009837887856151,-0.00098378878454327,0.0009837887844481,-0.00088658021457855,0.00088658021488882,-0.00088658021507591,0.00088658021537964,9.245961659865e-14,1.0974820609117e-13,-0.0011628570922007,0.0011628570924175,-4.601927502509e-13,7.2048754842349e-13,-0.0014769868725741,0.0014769868725025,-0.0014769868720297,0.0014769868727262,-0.0014769868724081,0.0014769868723479,-0.0014769868718638,0.0014769868725719,-0.001110924751229,0.0011109247520049,-0.0011109247507097,0.0011109247514517,0.68887395937293,134343,3014,0.0036508924397597,0.0036508924397597,0.0048329305343629,24.784378676027,0.00011347502940821,0.00011347502940821,0.00011347502940821,2827465.9861356,0.012210050714769
30419200,0.99989831524237,0.015056634565888,0.0046523326476737,0.0046523326476737,0.0057519692705409,-0.00087820175946777,0.00087820176019432,2.9759705567305e-13,2.8030255459642e-13,2.1981481422008e-13,2.2335125030203e-13,-0.0011513338973859,0.0011513338984915,-0.0011513338974732,0.0011513338985672,-0.0011513338975096,0.0011513338985943,-0.0011513338975976,0.0011513338986708,-0.00098555158963953,0.00098555159072609,-0.00098555158972598,0.00098555159077869,2.2247801139696e-13,2.1944860849565e-13,9.2033016533563e-13,-3.4335530677312e-13,-0.00087820175946822,0.00087820176019386,-0.0011513338971773,0.0011513338986985,-0.0011513338976806,0.0011513338983616,-0.0011513338973034,0.0011513338987995,-0.0011513338978066,0.0011513338984626,-0.00098555158905708,0.00098555159135083,-0.00098555159031152,0.00098555159015092,-0.0008878831895097,0.00088788318979185,-0.00088788318999935,0.00088788319027651,9.4357852726487e-14,1.1162864864494e-13,-0.001164152653601,0.0011641526538194,-4.7607622090413e-13,7.4080933937143e-13,-0.0014752248281379,0.0014752248280733,-0.0014752248275847,0.0014752248283121,-0.001475224827975,0.0014752248279219,-0.001475224827422,0.001475224828161,-0.0011123436730877,0.0011123436738774,-0.0011123436725549,0.0011123436733107,0.67661723253687,134343,3014,0.0036540066059144,0.0036540066059144,0.0048382735073413,26.13513227376,0.00012428105819008,0.00012428105819008,0.00012428105819008,2872440.1519327,0.012221687405194
31419200,0.99992831199798,0.015057076338646,0.0046524805228693,0.0046524805228693,0.0057521152929075,-0.00088248690783446,0.00088248690780652,4.8694277129141e-14,3.1100285201753e-14,-2.1297761132723e-14,-1.1105175450395e-14,-0.0011553516361866,0.0011553516366851,-0.0011553516363387,0.0011553516368254,-0.0011553516363944,0.0011553516368801,-0.0011553516365468,0.0011553516370208,-0.00098967993089437,0.00098967993141172,-0.00098967993097064,0.00098967993145356,-7.6712671200796e-15,-2.9045191733448e-14,6.184805295576e-13,-5.4215315091485e-13,-0.00088248690783619,0.00088248690780479,-0.0011553516359941,0.0011553516368779,-0.0011553516365242,0.0011553516366398,-0.0011553516362121,0.0011553516370628,-0.0011553516367422,0.0011553516368246,-0.00098967993036884,0.00098967993198202,-0.00098967993151004,0.00098967993086939,-0.00089224470256784,0.0008922447023436,-0.00089224470304023,0.00089224470277858,-9.2066834480228e-14,-7.4497282982671e-14,-0.0011675426520397,0.0011675426516914,-6.0715380480921e-13,5.0369764179456e-13,-0.0014783405521405,0.0014783405516576,-0.0014783405517297,0.0014783405519671,-0.0014783405520841,0.0014783405516128,-0.0014783405516718,0.0014783405519209,-0.001115938193412,0.0011159381937391,-0.001115938192876,0.0011159381931687,0.72613574125621,134343,3014,0.0036717901702446,0.0036717901702446,0.0048523338569362,28.446526293269,0.00014277221034615,0.00014277221034615,0.00014277221034615,2858505.6526231,0.012271918275591
32419200,0.99995021968112,0.015057415601581,0.0046525940715938,0.0046525940715938,0.0057522274583936,-0.00088498050626168,0.00088498050736733,4.2659373256018e-13,4.0901909298277e-13,3.3670084637321e-13,3.4767612873292e-13,-0.001160739252486,0.0011607392538836,-0.0011607392525418,0.0011607392539276,-0.0011607392525687,0.0011607392539484,-0.0011607392526255,0.0011607392539936,-0.00099101684501986,0.00099101684640547,-0.00099101684511356,0.00099101684646477,3.4510922529545e-13,3.3659244343484e-13,1.0434894226659e-12,-2.0997939653851e-13,-0.00088498050626272,0.00088498050736628,-0.0011607392522764,0.0011607392540903,-0.0011607392527471,0.0011607392537254,-0.0011607392523657,0.0011607392541493,-0.0011607392528364,0.0011607392537844,-0.00099101684444469,0.00099101684702121,-0.00099101684569725,0.00099101684584053,-0.00089437055596292,0.00089437055653355,-0.0008943705564837,0.00089437055703693,1.8206205577623e-13,1.9961160788475e-13,-0.0011681729397654,0.0011681729402588,-3.8559817612276e-13,8.2305285630021e-13,-0.0014815943062319,0.0014815943063784,-0.0014815943056279,0.0014815943065617,-0.0014815943060158,0.0014815943061739,-0.0014815943054126,0.0014815943063582,-0.0011167968690161,0.0011167968700081,-0.0011167968684908,0.0011167968694484,0.76212037556403,134343,3014,0.0036821519755708,0.0036821519755708,0.0048549783680201,29.298458796504,0.00014958767037203,0.00014958767037203,0.00014958767037203,2795454.5823472,0.012295637661067
33419200,0.99996544436132,0.015057654359854,0.0046526740895854,0.0046526740895854,0.005752306180683,-0.00088466210923167,0.00088466211098639,6.4272095355135e-13,6.2513840245092e-13,5.4172958288604e-13,5.5365342450322e-13,-0.0011621139422415,0.0011621139441487,-0.0011621139422431,0.0011621139441386,-0.0011621139422533,0.0011621139441406,-0.0011621139422562,0.0011621139441317,-0.00099029144979423,0.00099029145167731,-0.00099029144989963,0.0009902914517483,5.47778607838e-13,5.4552961018017e-13,1.3316938443216e-12,-6.544270263157e-14,-0.00088466210923247,0.00088466211098558,-0.0011621139420076,0.0011621139443786,-0.0011621139424738,0.0011621139439119,-0.0011621139420246,0.0011621139443665,-0.0011621139424908,0.0011621139438997,-0.00099029144914722,0.00099029145236368,-0.00099029145055292,0.00099029145105568,-0.00089416470230361,0.00089416470330189,-0.00089416470285497,0.00089416470384521,3.465990586955e-13,3.6415690466829e-13,-0.0011662441262152,0.0011662441272081,-2.9459610323244e-13,1.0590081186171e-12,-0.0014813767729431,0.0014813767734318,-0.0014813767722024,0.0014813767735755,-0.0014813767726388,0.0014813767731392,-0.0014813767719001,0.001481376773285,-0.0011153343725708,0.0011153343739899,-0.0011153343720466,0.0011153343734313,0.77026309110667,134343,3014,0.0036808376551979,0.0036808376551978,0.004847000172589,29.317385105085,0.00014973908084068,0.00014973908084068,0.00014973908084068,2751859.3499597,0.012284928344136
34419200,0.99997696928,0.015057828349695,0.0046527324790242,0.0046527324790241,0.0057523633916463,-0.00088848328051554,0.00088848328059662,8.8394417258288e-14,7.0947097320759e-14,1.5839310237592e-14,1.4328209341863e-14,-0.0011663511968266,0.0011663511974103,-0.0011663511969701,0.0011663511975422,-0.0011663511970304,0.0011663511975931,-0.0011663511971742,0.0011663511977252,-0.00099399427851282,0.00099399427911856,-0.00099399427858887,0.00099399427916046,2.0053255665757e-14,8.4637340857923e-15,7.1984700181528e-13,-5.6176704322207e-13,-0.00088848328051617,0.000888483280596,-0.0011663511966166,0.0011663511976208,-0.0011663511971779,0.0011663511973338,-0.0011663511968237,0.0011663511978005,-0.0011663511973851,0.0011663511975135,-0.00099399427792351,0.00099399427975312,-0.00099399427918277,0.00099399427852136,-0.00089824424997123,0.0008982442497736,-0.0008982442504526,0.00089824425023655,-6.2822669045878e-14,-4.5399230731723e-14,-0.0011684887633034,0.0011684887630461,-6.3765225545542e-13,5.9332506550299e-13,-0.0014841903985711,0.0014841903981097,-0.001484190398103,0.0014841903984418,-0.0014841903984973,0.0014841903980475,-0.0014841903980278,0.0014841903983782,-0.0011180817783568,0.0011180817787927,-0.0011180817778321,0.0011180817782339,0.74167726424824,134343,3014,0.0036966998130319,0.0036966998130319,0.0048563182380287,31.490036572444,0.00016712029257955,0.00016712029257955,0.00016712029257955,2719470.1642154,0.012326473600266
35419200,0.99998600902004,0.015057960139559,0.004652776754962,0.004652776754962,0.0057524066296347,-0.00089706296394478,0.00089706296219496,-5.1817046436565e-13,-5.3575510363758e-13,-5.5876493011494e-13,-5.720141283022e-13,-0.0011738930032982,0.0011738930024318,-0.0011738930035969,0.0011738930027188,-0.0011738930037103,0.001173893002824,-0.0011738930040085,0.0011738930031105,-0.0010025635141046,0.0010025635133134,-0.0010025635141529,0.0010025635133272,-5.5357762871584e-13,-5.7910822408245e-13,-4.9881536815055e-14,-1.0055210326833e-12,-0.00089706296394551,0.00089706296219422,-0.0011738930031457,0.0011738930025886,-0.0011738930037468,0.0011738930025648,-0.0011738930035614,0.0011738930029765,-0.0011738930041625,0.0011738930029527,-0.0010025635136772,0.0010025635137909,-0.0010025635145858,0.0010025635128442,-0.00090700113956126,0.00090700113812895,-0.00090700113996976,0.00090700113850058,-5.210731992185e-13,-5.0351267685688e-13,-0.0011760298277457,0.0011760298260987,-9.2580911422589e-13,-2.6402502245209e-14,-0.0014907896237223,0.0014907896222679,-0.001490789623619,0.0014907896227417,-0.0014907896239017,0.001490789622459,-0.0014907896237931,0.0014907896229275,-0.0011258909783138,0.0011258909775875,-0.0011258909777822,0.0011258909770215,0.71639572357285,134343,3014,0.0037323044158193,0.0037323044158193,0.004887585464865,35.945827967903,0.00020276662374323,0.00020276662374323,0.00020276662374323,2707661.9486758,0.012430192415898
36419200,0.99999179215617,0.015058046250501,0.0046528056851145,0.0046528056851145,0.0057524348802716,-0.00089956534079928,0.0008995653413392,2.3676359056424e-13,2.1923594955105e-13,1.5842148386182e-13,1.6175227916714e-13,-0.0011756914384258,0.0011756914393758,-0.0011756914385287,0.001175691439467,-0.0011756914385753,0.0011756914395052,-0.0011756914386792,0.0011756914395974,-0.0010051230720053,0.0010051230729542,-0.0010051230720907,0.0010051230730052,1.6302038847702e-13,1.5540330952086e-13,7.4705893889163e-13,-2.9240348314632e-13,-0.00089956534079994,0.00089956534133853,-0.001175691438253,0.0011756914395458,-0.0011756914386992,0.0011756914392993,-0.0011756914384064,0.0011756914396722,-0.0011756914388526,0.0011756914394257,-0.0010051230715331,0.0010051230734672,-0.0010051230725678,0.0010051230724874,-0.00090964347269629,0.00090964347291602,-0.00090964347319183,0.00090964347339864,3.456794397304e-14,5.2071762184585e-14,-0.0011780667656159,0.0011780667656742,-4.2595763434548e-13,5.6875519844851e-13,-0.0014921247735117,0.0014921247733797,-0.0014921247730588,0.0014921247735715,-0.0014921247733753,0.001492124773255,-0.001492124772922,0.0014921247734463,-0.0011280928844733,0.0011280928850596,-0.0011280928839429,0.001128092884495,0.73062628340262,134343,3014,0.0037426848978485,0.0037426848978485,0.0048960279912737,37.486240179228,0.00021508992143382,0.00021508992143382,0.00021508992143382,2707217.877486,0.012459743544731
37419200,0.99999520657099,0.015058096305394,0.0046528225063168,0.0046528225063168,0.0057524512927603,-0.00089985257617613,0.00089985257778665,5.9149869482678e-13,5.7397196555044e-13,4.9403192236977e-13,5.0437416524488e-13,-0.0011770187276931,0.0011770187294919,-0.0011770187277049,0.001177018729492,-0.0011770187277215,0.0011770187294997,-0.0011770187277347,0.0011770187295012,-0.00100501662772,0.0010050166294859,-0.0010050166278239,0.0010050166295555,4.9833989634776e-13,4.9838954292393e-13,1.1847565877495e-12,-2.0569012887669e-14,-0.00089985257617676,0.00089985257778601,-0.0011770187274906,0.0011770187296893,-0.0011770187279052,0.0011770187292968,-0.001177018727523,0.0011770187296945,-0.0011770187279375,0.001177018729302,-0.0010050166271654,0.0010050166300782,-0.0010050166283832,0.0010050166289585,-0.00090988807089553,0.0009098880718453,-0.00090988807143802,0.00090988807238482,3.0161796224888e-13,3.191213687083e-13,-0.0011773766558196,0.0011773766566902,-2.4617796472628e-13,9.1786959206696e-13,-0.0014924103786301,0.0014924103790868,-0.0014924103779718,0.0014924103791873,-0.0014924103783454,0.0014924103788138,-0.0014924103776889,0.0014924103789162,-0.0011275923635344,0.0011275923647908,-0.0011275923630062,0.0011275923642283,0.7195688567397,134343,3014,0.0037438797884912,0.0037438797884912,0.0048931793090094,37.681166354679,0.00021664933083743,0.00021664933083743,0.00021664933083743,2681344.4334994,0.012459300921914
38419200,0.99999716893905,0.015058126184152,0.0046528325471871,0.0046528325471871,0.0057524610897782,-0.0008981773723924,0.00089817737454638,7.6983033515287e-13,7.5238183878069e-13,6.63480422305e-13,6.7754991896212e-13,-0.0011753464151966,0.0011753464174305,-0.001175346415162,0.0011753464173842,-0.0011753464151628,0.0011753464173759,-0.001175346415129,0.0011753464173304,-0.0010033801204976,0.0010033801226746,-0.0010033801206111,0.0010033801227539,6.6717302569221e-13,6.7233897153534e-13,1.6665579568241e-12,-1.4549693246638e-13,-0.00089817737239297,0.0008981773745458,-0.001175346414896,0.001175346417729,-0.0011753464154608,0.0011753464170875,-0.0011753464148653,0.001175346417672,-0.0011753464154302,0.0011753464170304,-0.0010033801196472,0.0010033801235667,-0.0010033801214657,0.0010033801218577,-0.00090835399387357,0.00090835399501895,-0.00090835399443804,0.00090835399558783,4.6944504112918e-13,4.868680676912e-13,-0.0011753063860715,0.0011753063874205,-3.7566606777714e-13,1.3896599439014e-12,-0.0014903222516031,0.0014903222522549,-0.0014903222506695,0.0014903222524791,-0.0014903222512427,0.001490322251906,-0.0014903222503122,0.0014903222521334,-0.0011257188859312,0.0011257188877637,-0.001125718885401,0.0011257188871995,0.745807472294,134343,3014,0.0037369241373497,0.0037369241373497,0.0048845950550501,37.194176606797,0.00021275341285438,0.00021275341285438,0.00021275341285438,2677332.1051832,0.012436522051082
38880000,0.9999978542758,0.015058136679806,0.0046528360744526,0.0046528360744526,0.005752464530901,-0.0008983450813882,0.00089834508315936,6.4542310629655e-13,6.2797902155431e-13,5.4479562157361e-13,5.5509160115614e-13,-0.001176678867005,0.0011766788689284,-0.0011766788670041,0.0011766788689158,-0.0011766788670176,0.0011766788689197,-0.0011766788670173,0.0011766788689078,-0.0010031843709079,0.0010031843727982,-0.0010031843710156,0.0010031843728718,5.4861025159259e-13,5.4971851897659e-13,1.534845394615e-12,-2.6262947541368e-13,-0.00089834508138879,0.00089834508315877,-0.0011766788667078,0.0011766788692245,-0.0011766788672993,0.0011766788686216,-0.0011766788667236,0.0011766788692132,-0.0011766788673151,0.0011766788686102,-0.0010031843700652,0.0010031843736842,-0.0010031843718625,0.0010031843719816,-0.00090844786213471,0.00090844786300673,-0.00090844786268871,0.00090844786355919,3.753282104514e-13,3.9274644304223e-13,-0.0011746798347651,0.0011746798358275,-4.6014229590989e-13,1.2886398829361e-12,-0.0014908486649506,0.0014908486653726,-0.0014908486640773,0.0014908486656453,-0.0014908486646446,0.0014908486650782,-0.0014908486637734,0.001490848665353,-0.0011252153080484,0.0011252153096599,-0.0011252153075198,0.0011252153090972,0.74996681887961,134343,3014,0.0037376253039324,0.0037376253039324,0.0048820109105507,37.193611323697,0.00021274889058958,0.00021274889058958,0.00021274889058958,2652418.9850843,0.012435349833767
