time,ASR_ext,ASR_strain,ASR_strain_xx,ASR_strain_yy,ASR_strain_zz,disp_x_101,disp_x_102,disp_x_103,disp_x_104,disp_x_105,disp_x_106,disp_x_p1_neg,disp_x_p1_pos,disp_x_p2_neg,disp_x_p2_pos,disp_x_p3_neg,disp_x_p3_pos,disp_x_p4_neg,disp_x_p4_pos,disp_x_p5_neg,disp_x_p5_pos,disp_x_p6_neg,disp_x_p6_pos,disp_y_101,disp_y_102,disp_y_103,disp_y_104,disp_y_105,disp_y_106,disp_y_p1_neg,disp_y_p1_pos,disp_y_p2_neg,disp_y_p2_pos,disp_y_p3_neg,disp_y_p3_pos,disp_y_p4_neg,disp_y_p4_pos,disp_y_p5_neg,disp_y_p5_pos,disp_y_p6_neg,disp_y_p6_pos,disp_y_p7_neg,disp_y_p7_pos,disp_y_p8_neg,disp_y_p8_pos,disp_z_101,disp_z_102,disp_z_103,disp_z_104,disp_z_105,disp_z_106,disp_z_p1_neg,disp_z_p1_pos,disp_z_p2_neg,disp_z_p2_pos,disp_z_p3_neg,disp_z_p3_pos,disp_z_p4_neg,disp_z_p4_pos,disp_z_p5_neg,disp_z_p5_pos,disp_z_p6_neg,disp_z_p6_pos,humidity,ndof,nelem,strain_xx,strain_yy,strain_zz,temp,thermal_strain_xx,thermal_strain_yy,thermal_strain_zz,vonmises,vstrain
2419200,0,0,0,0,0,0,0,0,0,0,0,0,0,0,0,0,0,0,0,0,0,0,0,0,0,0,0,0,0,0,0,0,0,0,0,0,0,0,0,0,0,0,0,0,0,0,0,0,0,0,0,0,0,0,0,0,0,0,0,0,0,0,0,0,0,0,0,0,0,0,0,0,0,0,0
2919200,0.076598486095301,0.0015997062515434,0.00053323541718113,0.00053323541718113,0.00053323541718113,-0.00016044335451561,0.00016042179258347,-8.3310160027239e-09,-8.3310160452226e-09,-8.0143223880369e-09,-8.21664929253e-09,-0.00016215277388462,0.00016213443708229,-0.0001621534635298,0.00016213512672761,-0.00016215431831253,0.00016213599235303,-0.00016215500258383,0.00016213667662402,-0.00016565544319054,0.00016563786805806,-0.000165656093302,0.00016563851816966,-8.0143210524645e-09,-8.2166515581745e-09,-8.6085343709315e-09,-8.0534986630856e-09,-0.00016044335451605,0.00016042179258296,-0.00016215288566486,0.00016213434890946,-0.00016215335174937,0.00016213521490092,-0.00016215442740699,0.00016213590149183,-0.00016215489349148,0.00016213676748321,-0.00016565572877694,0.00016563761594032,-0.00016565580771747,0.00016563877028525,-0.00016336835439053,0.00016335149488251,-0.0001633691034397,0.00016335200226555,-1.8452970379275e-09,-1.8452969542241e-09,-0.00017010661829541,0.00017010046840271,-1.5315468508649e-09,-2.1147744607132e-09,-0.00017095050019901,0.00017094633774713,-0.00017095256136592,0.00017094800100389,-0.00017095236241091,0.00017094819995908,-0.00017095434559971,0.0001709497852375,-0.00017092201648851,0.00017091775940965,-0.00017092089524829,0.00017091663816965,0.83502648770561,125301,3014,0.00066824558992898,0.00066824558992883,0.00070851196577341,32.43441198599,0.00017467529588792,0.00017467529588792,0.00017467529588792,1437191.8697541,0.0020470981808212
3419200,0.15540813574573,0.0030952629831668,0.0010122130704762,0.0010122130704752,0.0010708368422155,-0.00026443452142929,0.00026441454543337,-8.4074952649673e-09,-8.4074950853257e-09,-7.809939121037e-09,-8.0828811799106e-09,-0.00027493826642689,0.0002749207234446,-0.00027493927464463,0.00027492173172822,-0.00027494029468824,0.00027492268779973,-0.00027494128828295,0.00027492368145667,-0.0002772421349793,0.00027722461831855,-0.00027724388338167,0.00027722636667934,-7.8099378424501e-09,-8.0828882011879e-09,-9.0899212017513e-09,-7.7250746658183e-09,-0.00026443452143119,0.00026441454543084,-0.00027493854134195,0.00027492050772699,-0.00027493899972877,0.00027492194744656,-0.00027494056228409,0.00027492246475519,-0.00027494102069007,0.00027492390449631,-0.00027724284150718,0.00027722400410674,-0.00027724317686013,0.00027722698087654,-0.00026889986419354,0.00026888382272071,-0.000268901272433,0.00026888486871128,-4.0021158115503e-09,-4.0021155952334e-09,-0.00029705189455518,0.00029704192207069,-3.2163897621182e-09,-4.6631380869279e-09,-0.00030577397595252,0.00030576647183915,-0.00030577751505702,0.00030576902207139,-0.00030577702063492,0.00030576951649353,-0.00030578045365792,0.00030577196064648,-0.00029519093032005,0.0002951820588321,-0.00029518795316432,0.0002951790816501,0.77960726241633,125301,3014,0.0011011691272663,0.001101169127265,0.0012369195020628,31.91084424783,0.00017048675398264,0.00017048675398264,0.00017048675398264,2260456.9180199,0.0034451882905645
3919200,0.24172034752142,0.0046209047711769,0.001484355418847,0.0014843554188461,0.0016521939334837,-0.00036903056024827,0.00036902273349525,-2.9829696800592e-09,-2.9829636566402e-09,-2.7715666102705e-09,-2.913221067802e-09,-0.00039270960558294,0.00039270369786748,-0.00039271019745386,0.00039270428981033,-0.00039271047703133,0.000392704501939,-0.00039271105444601,0.00039270507942236,-0.00039332773867401,0.0003933211338264,-0.00039332858566107,0.00039332198076023,-2.7715652537268e-09,-2.9132282101665e-09,-3.6515890027885e-09,-2.3143485599785e-09,-0.00036903056024956,0.00036902273349296,-0.00039270986512798,0.0003927034869638,-0.00039270993790782,0.00039270450071645,-0.00039271072934987,0.00039270428379772,-0.00039271080212859,0.00039270529755801,-0.00039332843958222,0.00039332053361455,-0.00039332788475552,0.00039332258095854,-0.00037374507512262,0.00037373919532892,-0.00037374582830675,0.00037373974436795,-3.2405964289594e-09,-3.2405904092168e-09,-0.00043539161507563,0.0004353838210239,-2.4502973403335e-09,-3.8885458991729e-09,-0.00046061225990232,0.00046060630600923,-0.00046061399578793,0.00046060705438922,-0.00046061350203675,0.00046060754814162,-0.00046061519575794,0.00046060825435755,-0.00042627697594345,0.0004262695850002,-0.00042627569672038,0.00042626830574807,0.74640349119053,125301,3014,0.0015364611808469,0.0015364611808448,0.0018124366241136,32.497096042917,0.00017517676834334,0.00017517676834334,0.00017517676834334,3110053.2557254,0.0048973353738512
4419200,0.3362621995553,0.006249995980582,0.0019777435030667,0.0019777435030641,0.0022945089744512,-0.00047881952476936,0.00047881594928951,-1.3724539458123e-09,-1.3724472465905e-09,-1.1281780693167e-09,-1.1291466326984e-09,-0.00051962337329836,0.00051962187665769,-0.0005196236941526,0.000519622197568,-0.00051962345752771,0.00051962197226632,-0.00051962377323913,0.00051962228802848,-0.00051939468214583,0.00051939143535989,-0.00051939518875403,0.00051939194195835,-1.1281768298202e-09,-1.1291500701752e-09,-1.810968584313e-09,-9.339338810886e-10,-0.00047881952476961,0.00047881594928947,-0.00051962352867177,0.00051962173388098,-0.00051962353877879,0.00051962234034862,-0.00051962361033377,0.00051962182691287,-0.00051962362042973,0.00051962243337928,-0.00051939514087248,0.00051939103402968,-0.00051939473002294,0.0005193923432841,-0.00048423347724796,0.00048423103957422,-0.00048423394297905,0.00048423152619222,-1.8259210654531e-09,-1.8259145413582e-09,-0.00058802459301447,0.00058801999361885,-1.3086875129654e-09,-2.2553739344627e-09,-0.00063558411803908,0.00063558108614149,-0.0006355848820709,0.00063558120000689,-0.00063558455699231,0.00063558152508762,-0.00063558535026568,0.00063558166819285,-0.00057041339318242,0.0005704090147343,-0.00057041172370344,0.00057040734521022,0.74424082049435,125301,3014,0.0019931722317285,0.001993172231729,0.0024470090757366,33.599483395938,0.00018399586716751,0.00018399586716751,0.00018399586716751,3816820.5676398,0.0064541485053222
4919200,0.43910442207048,0.0079937153267583,0.0024963835438806,0.0024963835438827,0.003000948238995,-0.00059377490634481,0.00059377365497091,-3.9953714812026e-10,-3.9952770952625e-10,-2.8568382879043e-10,-1.8905842830656e-10,-0.00065784132682965,0.00065784219195492,-0.000657841464488,0.00065784232965919,-0.00065784100801757,0.0006578419483398,-0.00065784114732159,0.00065784208768161,-0.00065403343092067,0.00065403218585763,-0.00065403363476402,0.00065403238969271,-2.8568294744272e-10,-1.8906426216326e-10,-6.5362363356491e-10,-1.4544635378123e-10,-0.00059377490634641,0.00059377365496986,-0.00065784140563847,0.00065784210344191,-0.0006578413856795,0.00065784241817711,-0.00065784108765549,0.00065784186064446,-0.00065784106768337,0.00065784217537567,-0.00065403368778121,0.00065403194053809,-0.00065403337790147,0.00065403263500628,-0.00060056592218198,0.00060056518552941,-0.00060056643455175,0.00060056587533631,-1.127735391252e-09,-1.1277261756218e-09,-0.00075518754159665,0.00075518453476255,-8.4087665658946e-10,-1.3817280096136e-09,-0.00083181942280162,0.00083181764745088,-0.00083181956047921,0.00083181741689098,-0.00083181937636281,0.00083181760101034,-0.00083181958876127,0.00083181744516841,-0.00072880043167202,0.00072879759430023,-0.00072879889898007,0.00072879606156197,0.74696695512676,125301,3014,0.0024711912056777,0.0024711912056789,0.0031414904945291,35.34488736718,0.00019795909893744,0.00019795909893744,0.00019795909893744,4337902.4218577,0.0081167606624935
5419200,0.53960554592814,0.0096329255666711,0.0029790753830719,0.002979075383073,0.0036747748005262,-0.00069658543344098,0.00069658622973888,3.4331751291506e-10,3.433266102842e-10,4.1156772365326e-10,5.7345252374256e-10,-0.00078791557206115,0.00078791848128976,-0.00078791557465623,0.000787918483925,-0.00078791503493786,0.00078791805088391,-0.00078791504282629,0.00078791805879797,-0.00077528054788676,0.00077528087447861,-0.00077528070085438,0.00077528102746184,4.1156605889101e-10,5.7345195653195e-10,2.9616694292428e-10,3.9047563204274e-10,-0.00069658543344024,0.00069658622973917,-0.00078791557062895,0.00078791845859659,-0.00078791557608236,0.00078791850662361,-0.00078791503616587,0.00078791803084045,-0.00078791504159389,0.00078791807884962,-0.00077528059025608,0.00077528081552627,-0.00077528065847121,0.0007752810864126,-0.00070451738641578,0.0007045180317708,-0.00070451810764968,0.00070451903805889,-4.5279526962121e-10,-4.5278637012837e-10,-0.00091071585610443,0.00091071448138616,-4.0688094199299e-10,-5.0548232843537e-10,-0.0010206296767607,0.0010206292630044,-0.0010206293554016,0.0010206288793404,-0.001020629324251,0.0010206289104968,-0.0010206291078614,0.0010206286317958,-0.00087578999431094,0.00087578866392094,-0.00087578830067884,0.00087578697023595,0.73229095938568,125301,3014,0.002898567578716,0.0028985675787151,0.0037871694502207,36.273631945886,0.00020538905556709,0.00020538905556709,0.00020538905556709,4693716.673966,0.0096306109698685
5919200,0.63092886552474,0.01090251262822,0.0033517513385469,0.003351751338546,0.0041990099511273,-0.00077127723459828,0.00077128014004979,1.2014157803667e-09,1.2014240237914e-09,1.1777401288475e-09,1.3919393774575e-09,-0.00089048668577937,0.00089049162960221,-0.00089048654426061,0.00089049148811189,-0.00089048596344751,0.00089049103165232,-0.00089048583048513,0.0008904908987137,-0.00086210732542985,0.00086210943537117,-0.00086210736258114,0.00086210947253696,1.1777403491025e-09,1.3919415804564e-09,1.4190620807819e-09,9.8378152129315e-10,-0.00077127723459456,0.00077128014005209,-0.00089048658509798,0.00089049169303303,-0.0008904866449297,0.00089049142469099,-0.00089048586705965,0.00089049109936964,-0.00089048592686235,0.00089049083101007,-0.00086210710054425,0.00086210962281559,-0.00086210758744614,0.00086210928509647,-0.0007769532701713,0.00077695538008183,-0.00077695413257969,0.00077695661901913,3.1045441859532e-10,3.1046254161188e-10,-0.0010278784861505,0.0010278789120708,6.0340000433818e-11,5.1811313664638e-10,-0.0011727533637727,0.0011727543998329,-0.0011727525196097,0.0011727538748054,-0.001172752679179,0.001172753715241,-0.0011727519574691,0.0011727533126585,-0.00098198435865215,0.00098198478823664,-0.00098198276625723,0.00098198319578787,0.6360792580923,125301,3014,0.0032090041378654,0.0032090041378624,0.0042732847851524,36.779462544701,0.00020943570035761,0.00020943570035761,0.00020943570035761,4864507.8722868,0.010748978053975
6419200,0.70843692613336,0.011899302082454,0.0036477487720702,0.0036477487720683,0.0046038045383151,-0.00082743077976933,0.00082743540341974,1.8503604120243e-09,1.8503681068774e-09,1.7723703113771e-09,2.0313383062738e-09,-0.00096904632393321,0.00096905295855072,-0.00096904604629368,0.00096905268093529,-0.00096904542447295,0.00096905219970535,-0.00096904515730861,0.0009690519325596,-0.00092768539959255,0.00092768888646289,-0.00092768542275535,0.00092768890964049,1.7723693824562e-09,2.0313419085296e-09,2.3754152805393e-09,1.3253166989431e-09,-0.00082743077976609,0.00082743540342237,-0.00096904611453833,0.00096905312328367,-0.00096904625567981,0.00096905251621054,-0.00096904522033018,0.00096905236968782,-0.00096904536144014,0.0009690517625889,-0.00092768486821404,0.0009276893667528,-0.00092768595411664,0.0009276884293555,-0.00083108766518131,0.00083109086909804,-0.0008310886301821,0.00083109229269463,8.8029536808077e-10,8.8030292082062e-10,-0.0011151587657545,0.0011151606166118,3.0032212048302e-10,1.3926366335391e-09,-0.001289218128391,0.0012892202967778,-0.0012892167945401,0.0012892197132462,-0.0012892171697018,0.0012892193380861,-0.0012892159716032,0.0012892188903011,-0.001060190571474,0.0010601923863892,-0.001060188957406,0.00106019077227,0.59525943091212,125301,3014,0.0034423505919363,0.0034423505919351,0.0046352598758904,36.741495445322,0.00020913196356257,0.00020913196356257,0.00020913196356257,5025138.7411963,0.011586989992711
6919200,0.77840165125297,0.012871035562427,0.0039398910611303,0.0039398910611289,0.0049912534401675,-0.00088435041092761,0.00088435269711826,9.236719359858e-10,9.2367910106103e-10,8.6414150371729e-10,1.1172294413045e-09,-0.0010482870933926,0.0010482918021331,-0.0010482868432194,0.0010482915519815,-0.0010482863132361,0.0010482911787,-0.0010482860728461,0.0010482909383241,-0.00099545250222249,0.00099545403389794,-0.00099545258635031,0.0009954541180437,8.6414082155451e-10,1.1172321845075e-09,1.6499324800473e-09,1.9742070575732e-10,-0.00088435041092506,0.0008843526971205,-0.0010482868197541,0.0010482920349772,-0.0010482871168511,0.0010482913191461,-0.0010482860445043,0.0010482914164455,-0.0010482863415696,0.0010482907005892,-0.00099545177430587,0.00099545471125425,-0.00099545331425065,0.00099545344069421,-0.00088933694246348,0.00088933810005244,-0.00088933804982723,0.00088933967676931,8.7837394257311e-10,8.783811462354e-10,-0.0011993869958835,0.0011993886079926,9.3218358390198e-11,1.5923321206703e-09,-0.0013998429675386,0.0013998449645901,-0.0013998416044236,0.0013998446262405,-0.0013998421168084,0.0013998441138562,-0.0013998408843445,0.0013998439061544,-0.0011407902537673,0.0011407921545561,-0.00114078850393,0.0011407904046647,0.64378173705164,125301,3014,0.0036788275072957,0.003678827507295,0.0049844261898458,38.625768946753,0.00022420615157402,0.00022420615157402,0.00022420615157402,5059911.2802165,0.012419119267498
7419200,0.83879713945699,0.013591695637415,0.0041576208701335,0.0041576208701325,0.0052764538971492,-0.00092091127721512,0.00092091289836456,6.3928609042523e-10,6.3929301474311e-10,5.8663165136455e-10,8.3587022560602e-10,-0.0011096526380547,0.0011096567483264,-0.0011096524273671,0.0011096565376597,-0.0011096519344484,0.0011096562045666,-0.0011096517323665,0.0011096560024969,-0.0010375766087138,0.0010375775506544,-0.0010375767476512,0.0010375776896106,5.8663168483228e-10,8.3587309466543e-10,1.4892704305873e-09,-2.1068894043222e-10,-0.0009209112772122,0.00092091289836679,-0.0011096523261675,0.0011096570240089,-0.0011096527392459,0.0011096562619839,-0.0011096516268804,0.0011096564845633,-0.0011096520399254,0.0011096557225105,-0.0010375757626716,0.0010375783517924,-0.001037577593677,0.0010375768884776,-0.00092586248337804,0.00092586298799426,-0.00092586368388834,0.00092586466027016,8.6898551214792e-10,8.6899249252291e-10,-0.0012544085660454,0.001254410114582,-3.8078278470025e-11,1.7079030377934e-09,-0.00148181706984,0.0014818189491611,-0.0014818157064269,0.0014818187761687,-0.0014818163016397,0.0014818181809571,-0.0014818150627904,0.001481818132526,-0.0011929765855598,0.0011929785448783,-0.0011929747611757,0.0011929767204408,0.55664260548471,125301,3014,0.0038307725111307,0.0038307725111293,0.0052124300008311,40.76470880719,0.00024131767045752,0.00024131767045752,0.00024131767045752,4840432.7300536,0.012957918833494
7919200,0.88421942384752,0.014087225832561,0.0043102766953982,0.0043102766953971,0.0054666724417654,-0.00094165880797749,0.00094166399219685,2.00821392959e-09,2.0082206996773e-09,1.8898591005135e-09,2.1791862830902e-09,-0.0011458185092854,0.0011458257383333,-0.0011458181593862,0.0011458253884553,-0.001145817582591,0.0011458249726256,-0.0011458172424832,0.0011458246325295,-0.0010618604007736,0.0010618642654002,-0.0010618605192791,0.0010618643839247,1.8898585798761e-09,2.1791887677147e-09,3.0872121837368e-09,9.2922511510134e-10,-0.00094165880797471,0.00094166399219913,-0.0011458181150474,0.0011458260900602,-0.0011458185536179,0.0011458250367356,-0.001145817193265,0.0011458253292598,-0.0011458176318012,0.0011458242759077,-0.001061859327262,0.0010618652849854,-0.0010618615927746,0.0010618633643457,-0.00094639346026639,0.00094639662670498,-0.00094639471390942,0.00094639840946047,1.5492688721347e-09,1.5492757707475e-09,-0.0012853413563462,0.0012853448192661,3.9862003569624e-10,2.6147507298365e-09,-0.0015305245475202,0.0015305278626913,-0.00153052272656,0.0015305275505994,-0.0015305234809966,0.0015305267961647,-0.0015305217942436,0.0015305266182749,-0.0012215266724138,0.0012215302531685,-0.0012215249035893,0.0012215284842894,0.5070717593097,125301,3014,0.0039170075075342,0.0039170075075332,0.0053405952118562,40.956269124293,0.00024285015299434,0.00024285015299434,0.00024285015299434,4742990.9693451,0.013262584485038
8419200,0.91807028105639,0.014439174992921,0.0044199374766645,0.0044199374766634,0.0055993000395934,-0.00095469922820181,0.0009547041847755,1.9207314326202e-09,1.9207381185336e-09,1.7982637373066e-09,2.0896124294658e-09,-0.0011718844827634,0.0011718915552575,-0.0011718841275395,0.0011718912000525,-0.0011718835720419,0.0011718908085084,-0.0011718832258849,0.0011718904623624,-0.0010769394737323,0.0010769431532038,-0.001076939616402,0.0010769432958932,1.7982632213351e-09,2.0896149523759e-09,3.1944447221864e-09,6.4702698015225e-10,-0.00095469922819937,0.0009547041847778,-0.0011718840255776,0.0011718919727341,-0.0011718845847185,0.0011718907825824,-0.0011718831194071,0.0011718912305311,-0.001171883678512,0.0011718900403507,-0.001076938211363,0.0010769443652315,-0.0010769408787568,0.001076942083872,-0.00095982016740868,0.00095982301190485,-0.00095982146414887,0.00095982484634077,1.6520682440962e-09,1.6520750270067e-09,-0.0013033321228937,0.0013033357873211,3.0870950363657e-10,2.9128480986077e-09,-0.0015623702119588,0.0015623736296841,-0.0015623682638615,0.0015623734494065,-0.001562369147774,0.0015623725654956,-0.0015623673316419,0.0015623725171795,-0.001239308129455,0.0012393120453433,-0.0012393063380713,0.0012393102539058,0.48138031764921,125301,3014,0.0039712208171996,0.0039712208171993,0.0054151235439492,41.43272521994,0.00024666180175952,0.00024666180175952,0.00024666180175952,4585074.6353043,0.013448078566528
8919200,0.94276452130854,0.014669633746727,0.0044924788830321,0.0044924788830311,0.0056846759806642,-0.00096095222729832,0.00096095740387483,2.0080276690743e-09,2.0080342924013e-09,1.8764615605197e-09,2.1716292056596e-09,-0.0011890271858168,0.0011890344683317,-0.0011890268154055,0.0011890340979392,-0.0011890262651583,0.0011890337131871,-0.0011890259033195,0.0011890333513587,-0.0010838523791501,0.0010838562459857,-0.0010838525347476,0.0010838564016037,1.8764611641921e-09,2.1716317934592e-09,3.4478384459247e-09,5.6822549560044e-10,-0.00096095222729572,0.00096095740387699,-0.0011890266744276,0.0011890349418062,-0.001189027326787,0.0011890336244709,-0.0011890257580727,0.0011890341909605,-0.0011890264103962,0.0011890328735957,-0.0010838509554838,0.0010838576218776,-0.0010838539583995,0.0010838550257173,-0.00096650366146152,0.00096650656691428,-0.00096650498676373,0.00096650843818804,1.7873412311876e-09,1.7873479640407e-09,-0.0013106113211814,0.0013106153127699,2.7932089743832e-10,3.214552075023e-09,-0.0015806386700347,0.0015806422837865,-0.0015806365859246,0.0015806421883647,-0.0015806375802709,0.0015806411940194,-0.0015806356270157,0.0015806412294487,-0.00124728980257,0.0012472941128773,-0.0012472880116938,0.0012472923219457,0.43063171924148,125301,3014,0.0039972469961689,0.003997246996168,0.0054452747997631,41.891736418697,0.00025033389134957,0.00025033389134957,0.00025033389134957,4402324.8805214,0.013531477388292
9419200,0.95967434745917,0.014819881308824,0.0045402786509795,0.0045402786509785,0.0057393240068664,-0.00096223119039026,0.00096223904875324,3.0539630438489e-09,3.0539696292947e-09,2.8692531454771e-09,3.1952058132733e-09,-0.0011967706911535,0.0011967803645827,-0.00119677019528,0.0011967798687274,-0.0011967695881502,0.0011967794291264,-0.0011967691019522,0.0011967789429386,-0.0010856853210571,0.0010856914154143,-0.0010856854671622,0.0010856915615402,2.8692524118678e-09,3.1952084119678e-09,4.7287021379682e-09,1.3792325061139e-09,-0.00096223119038774,0.00096223904875531,-0.0011967700964691,0.0011967809159466,-0.0011967707899574,0.0011967793173699,-0.0011967689983207,0.0011967799853411,-0.0011967696917729,0.0011967783867342,-0.0010856836648398,0.0010856930167764,-0.0010856871233651,0.001085689960184,-0.00096828015327597,0.00096828503851459,-0.00096828152071284,0.00096828699581264,2.3919217804315e-09,2.3919284951675e-09,-0.0013119214244032,0.0013119270608169,6.3801297240635e-10,4.0520165300294e-09,-0.0015885443106291,0.0015885491831848,-0.0015885418187999,0.0015885490027263,-0.0015885429744873,0.00158854784704,-0.0015885406217064,0.0015885478056252,-0.001249280456932,0.0012492862222556,-0.0012492787137731,0.0012492844790416,0.40723906797413,125301,3014,0.0040026026584202,0.0040026026584193,0.0054507003845173,41.15061198111,0.00024440489584888,0.00024440489584888,0.00024440489584888,4295912.7088904,0.013547885060027
9919200,0.97105161744574,0.014920808092426,0.0045725939743872,0.0045725939743862,0.0057756201436524,-0.00096082268408616,0.00096083198467448,3.6214674508905e-09,3.6214740180429e-09,3.4073917843729e-09,3.7486670558682e-09,-0.0012009010230838,0.0012009119825694,-0.0012009004569015,0.0012009114164053,-0.0012008998236524,0.0012009109518707,-0.0012008992672175,0.0012009103954459,-0.0010844667655246,0.0010844740672713,-0.0010844669131186,0.0010844742148868,3.4073910332445e-09,3.7486696736853e-09,5.5604889780018e-09,1.6824544602278e-09,-0.0009608226840836,0.00096083198467658,-0.001200900339614,0.0012009126221794,-0.0012009011403639,0.0012009107768016,-0.0012008991450737,0.0012009115963676,-0.0012008999457873,0.0012009097509593,-0.001084464850532,0.0010844759267246,-0.0010844688280967,0.001084472355439,-0.00096746124723286,0.00096746711246808,-0.00096746264736584,0.00096746912419987,2.7624045133207e-09,2.7624111892932e-09,-0.0013095920321743,0.0013095986533334,7.4255607889209e-10,4.6861980737479e-09,-0.0015915073919628,0.0015915129435943,-0.0015915045902789,0.001591512807165,-0.0015915059229084,0.0015915114745368,-0.0015915032638906,0.0015915114807694,-0.0012480594117083,0.0012480661446499,-0.0012480576939578,0.0012480644268442,0.40432824355073,125301,3014,0.0039967965621438,0.0039967965621428,0.005441046692201,39.827093335042,0.00023381674668033,0.00023381674668033,0.00023381674668033,4192412.3827929,0.013526385787985
10419200,0.97869843258317,0.014993124101101,0.0045958755194125,0.0045958755194116,0.0058013730622768,-0.00095783070110517,0.00095784101211617,4.0192430197376e-09,4.0192495677435e-09,3.7853115487276e-09,4.13558578734e-09,-0.0012027790897444,0.0012027909323051,-0.0012027784744498,0.0012027903170285,-0.0012027778252895,0.0012027898368678,-0.0012027772194781,0.0012027892310663,-0.0010815772248143,0.0010815853760472,-0.0010815773734116,0.0010815855246658,3.785310787631e-09,4.1355885624244e-09,6.2118374927977e-09,1.826656975356e-09,-0.0009578307011026,0.00095784101211826,-0.0012027783225117,0.0012027916567362,-0.0012027792416753,0.0012027895926034,-0.0012027770628157,0.001202790566054,-0.0012027779819431,0.0012027885018907,-0.0010815750623615,0.0010815874845105,-0.0010815795358501,0.0010815834162084,-0.00096518218277433,0.00096518869438554,-0.00096518360557631,0.00096519074063584,3.0326234629643e-09,3.032630143172e-09,-0.0013051674749759,0.0013051748175338,7.6084324773163e-10,5.2099375502194e-09,-0.0015915944388672,0.0015916004353873,-0.001591591378649,0.0015916003770993,-0.0015915928796162,0.0015915988761333,-0.0015915899639031,0.0015915989623462,-0.0012449851048749,0.0012449925866698,-0.0012449834099563,0.0012449908916956,0.42845224819223,125301,3014,0.0039844148815995,0.0039844148815985,0.0054227120586802,38.098640234429,0.00021998912187543,0.00021998912187543,0.00021998912187543,4096239.1925575,0.013482759004418
10919200,0.98430694212228,0.015042208502579,0.0046117381201849,0.004611738120184,0.0058187322622104,-0.00095631379176415,0.00095632121547346,2.9184225254893e-09,2.9184290794361e-09,2.7285004469637e-09,3.0178925752181e-09,-0.0012050393382212,0.0012050486399983,-0.0012050387202416,0.0012050480220367,-0.0012050380929439,0.0012050475209081,-0.0012050374843094,0.0012050469122837,-0.0010806079085589,0.001080613530994,-0.0010806080560068,0.0010806136784635,2.7284998060593e-09,3.0178954601539e-09,5.1299406411348e-09,7.0691311379895e-10,-0.00095631379176148,0.00095632121547573,-0.0012050385650598,0.0012050493709244,-0.0012050394933956,0.0012050472911171,-0.0012050373244725,0.0012050482565203,-0.0012050382527718,0.0012050461766825,-0.0010806057279384,0.001080615658372,-0.0010806102366127,0.0010806115510916,-0.00096442503917884,0.00096442910068948,-0.00096442651287808,0.00096443109592028,2.5853110534631e-09,2.5853177296709e-09,-0.0013017734843389,0.0013017795067489,3.1282702817255e-10,4.7755480937838e-09,-0.0015920260544987,0.0015920309395974,-0.0015920229855985,0.0015920308804551,-0.0015920244904794,0.0015920293755751,-0.0015920215651647,0.0015920294600142,-0.0012428212152184,0.001242827635338,-0.0012428195260666,0.0012428259461301,0.3959708145672,125301,3014,0.0039781338540417,0.0039781338540409,0.005408642873572,37.946101207249,0.000218768809658,0.000218768809658,0.000218768809658,3941304.7069291,0.01345581284438
11419200,0.988393871975,0.015078015521908,0.0046233582698585,0.0046233582698575,0.0058312989821923,-0.00095584040236774,0.00095584774366649,2.863938601671e-09,2.863945160353e-09,2.6658561999524e-09,2.9841982884084e-09,-0.0012062000303439,0.0012062092436735,-0.0012061995181458,0.0012062087314935,-0.0012061989412427,0.0012062083163256,-0.0012061984370455,0.0012062078121385,-0.0010801268387865,0.0010801324112815,-0.0010801270760942,0.0010801326486108,2.6658556941303e-09,2.9842013211815e-09,5.0816009927649e-09,6.4628518227161e-10,-0.00095584040236495,0.00095584774366889,-0.0012061992601467,0.0012062099774694,-0.0012062002883353,0.0012062079977045,-0.0012061981750633,0.0012062090541354,-0.0012061992032156,0.00120620707434,-0.0010801246547917,0.0010801345482154,-0.0010801292600743,0.0010801305116834,-0.00096423610090475,0.00096424007838353,-0.00096423763692143,0.0009642421936582,2.481354175392e-09,2.4813608491293e-09,-0.0013002711623632,0.0013002769560855,2.0034364625678e-10,4.6843465268114e-09,-0.0015921116107162,0.0015921162846459,-0.0015921087463346,0.0015921164431432,-0.001592110257776,0.0015921149317029,-0.001592107530188,0.0015921152269895,-0.0012417858065792,0.0012417920370646,-0.0012417839725294,0.0012417902029587,0.39457194111806,125301,3014,0.0039761818558381,0.0039761818558373,0.0054024199972854,37.628291429061,0.00021622633143249,0.00021622633143249,0.00021622633143249,3929433.0269901,0.013445563895228
11919200,0.99135602488261,0.015106074949798,0.0046324818092563,0.0046324818092554,0.0058411113312864,-0.00095488799606227,0.00095489586268838,3.0661122672573e-09,3.0661188223217e-09,2.8721807803634e-09,3.1966224210999e-09,-0.0012084559347658,0.0012084656135957,-0.0012084554222131,0.0012084651010611,-0.0012084548389159,0.0012084646855329,-0.0012084543336399,0.0012084641802668,-0.0010785215985127,0.0010785277222304,-0.0010785217723766,0.001078527896116,2.8721800197334e-09,3.1966252444272e-09,5.392754486355e-09,7.3947844850045e-10,-0.00095488799605974,0.00095489586269052,-0.0012084551313013,0.0012084663840331,-0.0012084562256703,0.0012084643306298,-0.0012084540391073,0.0012084654596223,-0.0012084551334398,0.0012084634061883,-0.0010785193100028,0.0010785299700029,-0.0010785240608723,0.0010785256483497,-0.00096362661117857,0.00096363107551473,-0.00096362802280805,0.00096363307739787,2.6101894047407e-09,2.6101960804191e-09,-0.0012977534400107,0.0012977595800531,2.2217063572194e-10,4.924417515631e-09,-0.0015923444374444,0.0015923493449478,-0.0015923415046927,0.0015923495780269,-0.00159234308761,0.0015923479951107,-0.0015923402894359,0.0015923483627629,-0.0012402764308275,0.001240283085732,-0.0012402746989118,0.0012402813537601,0.42516298576731,125301,3014,0.0039722512751,0.0039722512750993,0.0053919957028354,37.104697532064,0.00021203758025651,0.00021203758025651,0.00021203758025651,3896203.525493,0.013427066503127
12419200,0.99353694409928,0.015127834435186,0.0046395732162937,0.0046395732162927,0.0058486880025997,-0.0009534255879175,0.00095343301405528,2.8965474352877e-09,2.8965539937344e-09,2.7104343117246e-09,3.0284841434471e-09,-0.001210398556906,0.001210407833534,-0.0012103980657678,0.0012104073424139,-0.0012103974944109,0.0012104069383433,-0.0012103970099278,0.00121040645387,-0.0010767480163445,0.0010767537801055,-0.0010767481950348,0.0010767539588178,2.7104335295888e-09,3.0284869177318e-09,5.2905249553672e-09,5.0257830030599e-10,-0.00095342558791501,0.00095343301405741,-0.001210397733471,0.0012104086267671,-0.0012103988891956,0.0012104065491871,-0.0012103966743211,0.0012104077349173,-0.0012103978300091,0.0012104056573066,-0.0010767456634861,0.0010767560962225,-0.0010767505478788,0.0010767516427064,-0.00096265703190726,0.00096266110483415,-0.00096265844146109,0.000962663095487,2.5256917596152e-09,2.5256984368229e-09,-0.0012940460519621,0.0012940519599919,7.5638651555821e-11,4.908148335408e-09,-0.0015918188481276,0.0015918235054156,-0.0015918159143976,0.0015918238228567,-0.0015918175399851,0.0015918221972703,-0.0015918147382493,0.0015918226467015,-0.0012377294558167,0.0012377359755455,-0.0012377277224887,0.0012377342421611,0.44663644431852,125301,3014,0.003966203557229,0.0039662035572283,0.0053766415095272,36.802237032668,0.00020961789626134,0.00020961789626134,0.00020961789626134,3811644.1908564,0.013399290123201
12919200,0.99512366159551,0.015142690897816,0.0046444286950456,0.0046444286950446,0.0058538335077257,-0.00095086863849284,0.00095087686264077,3.2045908031272e-09,3.2045973683678e-09,3.0038963759541e-09,3.3289026926313e-09,-0.0012103270060296,0.0012103369679995,-0.00121032647719,0.0012103364391779,-0.0012103258914766,0.0012103360204658,-0.0012103253694796,0.0012103354984787,-0.0010740351360671,0.001074041562259,-0.0010740353135298,0.0010740417397439,3.003895541816e-09,3.3289054774856e-09,5.6810000509946e-09,7.2819000346451e-10,-0.00095086863849035,0.00095087686264293,-0.0012103261541993,0.0012103377886689,-0.0012103273290131,0.0012103356185148,-0.0012103250430852,0.0012103368445701,-0.0012103262178623,0.0012103346743852,-0.0010740327021541,0.001074043958335,-0.0010740377474285,0.0010740393436741,-0.00096055280863449,0.00096055746450394,-0.00096055423111625,0.00096055947678242,2.699573147364e-09,2.6995798358067e-09,-0.0012895862836251,0.001289592687677,1.6521855624534e-10,5.1640733801618e-09,-0.0015897686643061,0.001589773669865,-0.0015897656054847,0.0015897739736695,-0.0015897672867995,0.0015897722923557,-0.0015897643615516,0.0015897727297294,-0.0012341924518031,0.0012341994083854,-0.0012341907358019,0.0012341976923277,0.41875849256559,125301,3014,0.0039556091465944,0.0039556091465938,0.00535816854475,36.136398982922,0.00020429119186337,0.00020429119186337,0.00020429119186337,3748308.9727119,0.013359125261446
13419200,0.99625416509002,0.015153050081943,0.0046478221834482,0.0046478221834473,0.0058574057150477,-0.0009475408946471,0.00094755058867028,3.7706373164124e-09,3.7706438776531e-09,3.5421718326996e-09,3.8838906963199e-09,-0.0012068530124801,0.0012068642734106,-0.0012068524111198,0.0012068636720683,-0.0012068517960955,0.0012068632244668,-0.001206851202237,0.0012068626306182,-0.001070993000882,0.0010710006397158,-0.0010709931746978,0.0010710008135537,3.542171053147e-09,3.8838934840896e-09,6.3583290090172e-09,1.1829540087967e-09,-0.00094754089464457,0.00094755058867238,-0.0012068521206958,0.0012068651308613,-0.0012068533028969,0.0012068628146238,-0.0012068509080797,0.001206864085682,-0.0012068520902441,0.0012068617694137,-0.0010709904564146,0.0010710031420837,-0.0010709957191509,0.0010709983111917,-0.00095741002396201,0.00095741577152654,-0.0009574114687396,0.0009574178292078,3.0305150299637e-09,3.0305217302296e-09,-0.0012862998098459,0.0012863071321995,3.7880523137785e-10,5.6050681551918e-09,-0.0015864012728501,0.00158640698515,-0.0015863980029691,0.0015864072312329,-0.0015863997609528,0.0015864054732501,-0.0015863966294979,0.0015864058577549,-0.0012309839689742,0.001230991716365,-0.0012309822726911,0.0012309900200254,0.40900439415345,125301,3014,0.0039417980491023,0.0039417980491014,0.0053445460872659,34.795130165454,0.00019356104132363,0.00019356104132363,0.00019356104132363,3754002.6516228,0.01331732470019
13919200,0.99708667470917,0.015160518457783,0.0046502686724658,0.0046502686724648,0.0058599811128527,-0.00094511773337269,0.00094512664847853,3.4691954614306e-09,3.4692020146128e-09,3.2541507700601e-09,3.5884287187747e-09,-0.0012050174451423,0.0012050280323373,-0.0012050168794525,0.0012050274666653,-0.0012050162816573,0.0012050270364724,-0.0012050157226981,0.0012050264775229,-0.0010685677144594,0.0010685747073026,-0.0010685678962378,0.0010685748891031,3.2541499863135e-09,3.5884315117022e-09,6.1313177883731e-09,8.0708148837845e-10,-0.00094511773337017,0.00094512664848063,-0.0012050165317548,0.0012050289149518,-0.0012050177928328,0.001205026584057,-0.0012050153716528,0.0012050279224658,-0.001205016632694,0.0012050255915402,-0.001068565098837,0.001068577285381,-0.0010685705118459,0.0010685723110305,-0.0009550880677601,0.00095509314240933,-0.00095508950860339,0.00095509518694649,2.8885980066667e-09,2.8886046990504e-09,-0.0012835497634983,0.0012835566710843,1.6917437660363e-10,5.5386145940378e-09,-0.0015841925334174,0.00158419786374,-0.0015841892848866,0.0015841982247315,-0.0015841910896495,0.0015841964199695,-0.0015841879770154,0.0015841969168534,-0.0012284207336853,0.0012284282168573,-0.0012284190192701,0.0012284265023856,0.40047476240274,125301,3014,0.0039317414805541,0.0039317414805533,0.005333149172206,33.828476830587,0.00018582781464469,0.00018582781464469,0.00018582781464469,3741445.0197551,0.01328540355602
14419200,0.99770065997729,0.015165772762385,0.0046519906729182,0.0046519906729172,0.0058617914165493,-0.0009422461047941,0.00094225549375614,3.652677492504e-09,3.6526840377747e-09,3.4290387865424e-09,3.7679937843469e-09,-0.0012026688279186,0.0012026798306112,-0.0012026682397315,0.0012026792424418,-0.0012026676325637,0.0012026788029376,-0.0012026670511452,0.0012026782215289,-0.0010657218718149,0.0010657292576042,-0.0010657220525995,0.001065729438411,3.4290379639497e-09,3.7679966132899e-09,6.3967589211536e-09,9.0860440131415e-10,-0.00094224610479158,0.00094225549375825,-0.001202667887023,0.0012026807405268,-0.0012026691806198,0.0012026783325324,-0.0012026666950701,0.0012026797162513,-0.0012026679886302,0.001202677308226,-0.0010657191759033,0.0010657319157863,-0.001065724748497,0.0010657267802348,-0.00095233325727634,0.00095233865596601,-0.0009523347056008,0.00095234071420879,3.0007418096916e-09,3.0007485004872e-09,-0.0012804207619719,0.0012804279769827,1.9903086509663e-10,5.732547471198e-09,-0.0015815450302915,0.001581550566262,-0.0015815416847617,0.0015815509397277,-0.0015815435442613,0.0015815490802292,-0.0015815403359107,0.0015815495908699,-0.0012254831519139,0.0012254909318567,-0.0012254814454678,0.0012254892253539,0.38210045494667,125301,3014,0.0039198267810191,0.0039198267810183,0.0053201824458348,32.642223856099,0.0001763377908488,0.0001763377908488,0.0001763377908488,3731796.0148469,0.013248126176827
14919200,0.99814105618569,0.01516969313005,0.0046532759877586,0.0046532759877576,0.0058631411545342,-0.00093773086639982,0.0009377421301694,4.3786897855621e-09,4.3786963134215e-09,4.1208617431201e-09,4.4790645682991e-09,-0.0011981479810621,0.0011981606333713,-0.0011981473037513,0.0011981599560783,-0.001198146657021,0.0011981594772466,-0.0011981459872753,0.0011981588075107,-0.0010613917655225,0.0010614007025295,-0.0010613919410968,0.0010614008781259,4.1208608814565e-09,4.4790672910946e-09,7.2675271010095e-09,1.4898608729839e-09,-0.0009377308663973,0.00093774213017145,-0.0011981469885395,0.0011981615911653,-0.001198148296267,0.0011981589982904,-0.0011981456682984,0.0011981604388369,-0.0011981469759892,0.0011981578459311,-0.0010613889260372,0.001061403499269,-0.0010613947805674,0.001061398081392,-0.00094790123200902,0.00094790802688286,-0.0009479027097101,0.000947910140017,3.4094256839739e-09,3.4094323827105e-09,-0.0012762203504724,0.0012762287021835,4.559936629419e-10,6.2845306111978e-09,-0.0015773269296683,0.0015773333269061,-0.0015773233162995,0.0015773336312259,-0.0015773252751456,0.0015773316723809,-0.0015773218048392,0.0015773321197588,-0.0012212922921777,0.0012213010529859,-0.0012212906136771,0.0012212993744287,0.39678962402156,125301,3014,0.0039010906197465,0.0039010906197456,0.0053027727410094,30.578506974357,0.00015982805579486,0.00015982805579486,0.00015982805579486,3741480.5175156,0.013192519010949
15419200,0.99844112331722,0.015172978928997,0.0046543529194785,0.0046543529194776,0.0058642730900409,-0.00092972265338893,0.00092973695127021,5.5560500526612e-09,5.5560565963731e-09,5.2457333162127e-09,5.6307588553144e-09,-0.0011918315215714,0.0011918468074521,-0.0011918307040613,0.0011918459899598,-0.0011918299946517,0.0011918454476117,-0.0011918291858982,0.0011918446388681,-0.0010533555244957,0.0010533669799709,-0.0010533556901662,0.0010533671456632,5.2457325496816e-09,5.6307618260619e-09,8.6619113389174e-09,2.450196992004e-09,-0.00092972265338635,0.00092973695127229,-0.0011918304516334,0.0011918478370851,-0.0011918317739918,0.0011918449603324,-0.0011918289291097,0.0011918464816372,-0.0011918302514314,0.0011918436048536,-0.0010533524699497,0.0010533699845253,-0.0010533587446981,0.0010533641411146,-0.00094012159216495,0.00094013067118389,-0.00094012311568169,0.00094013286314856,4.050333534679e-09,4.0503402087104e-09,-0.0012676571167368,0.0012676672742193,8.6960814359755e-10,7.1403302234306e-09,-0.0015703323695548,0.0015703401081061,-0.0015703283430551,0.0015703402970368,-0.0015703304507721,0.0015703381893207,-0.0015703265754917,0.0015703385294664,-0.0012131963226476,0.0012132066236283,-0.0012131946982542,0.001213204999178,0.48651353790675,125301,3014,0.0038678721979389,0.003867872197938,0.0052672879745917,27.069355802362,0.0001317548464189,0.0001317548464189,0.0001317548464189,3717684.3861708,0.013089282032406
15919200,0.99867172197381,0.015176079538381,0.0046553698686892,0.0046553698686882,0.0058653398010035,-0.00092414647183529,0.00092415700356641,4.0983457479683e-09,4.0983523486196e-09,3.8572714025505e-09,4.2002913411739e-09,-0.0011909703933223,0.0011909823351714,-0.0011909697562624,0.0011909816981295,-0.0011909691307715,0.0011909812386206,-0.0011909684996989,0.0011909806075581,-0.0010471917746072,0.001047200120794,-0.0010471919579705,0.00104720030418,3.8572705114075e-09,4.200294213202e-09,7.2413441319451e-09,9.5535578397874e-10,-0.00092414647183282,0.00092415700356853,-0.0011909693227139,0.0011909833784263,-0.0011909708268639,0.0011909806548806,-0.001190968063174,0.001190982284883,-0.0011909695672874,0.0011909795613064,-0.0010471886901981,0.0010472031726473,-0.0010471950423652,0.0010471972523326,-0.00093515836415855,0.00093516442784532,-0.00093515983741297,0.00093516651240013,3.2644837059695e-09,3.2644903477666e-09,-0.0012585699432145,0.0012585779107189,7.1172302970293e-11,6.3959859843421e-09,-0.0015658367630249,0.0015658426152408,-0.0015658330670585,0.00156584316365,-0.0015658351892481,0.0015658410414614,-0.0015658316307479,0.0015658417273327,-0.0012056760085988,0.0012056846353232,-0.0012056743323457,0.001205682959013,0.59571470761932,125301,3014,0.0038447532160958,0.0038447532160951,0.0052296440894748,25.353298336878,0.00011802638669502,0.00011802638669502,0.00011802638669502,3602674.7936925,0.013004368830114
16419200,0.99885884012794,0.015178197307204,0.0046560669725409,0.00465606697254,0.0058660633621235,-0.00091927108130581,0.00091927996517586,3.4558482611196e-09,3.4558548858584e-09,3.2433135234393e-09,3.5687088778199e-09,-0.0011908780498116,0.0011908885255922,-0.0011908774896279,0.0011908879654265,-0.0011908769014318,0.0011908875430867,-0.001190876346238,0.001190886987903,-0.001041807425985,0.0010418144052744,-0.0010418076201611,0.0010418145994735,3.2433126149197e-09,3.5687118911746e-09,6.5688949214213e-09,3.4281010299992e-10,-0.00091927108130333,0.00091927996517803,-0.0011908769934351,0.0011908895592673,-0.0011908785459975,0.0011908869317578,-0.0011908758475678,0.0011908885792706,-0.0011908774000933,0.0011908859517301,-0.001041804373279,0.0010418174319455,-0.0010418106728526,0.0010418115728087,-0.00093109632801931,0.0009311010933032,-0.00093109778204034,0.00093110313539865,2.9071646654092e-09,2.9071713370877e-09,-0.0012491065455674,0.0012491135418769,-2.4744398910893e-10,6.0105222738174e-09,-0.0015613380063935,0.0015613430446829,-0.00156133448196,0.0015613437175962,-0.0015613365806351,0.001561341618922,-0.0015613331872084,0.001561342422838,-0.001197999152593,0.0011980069941038,-0.0011979974545973,0.0011980052960509,0.50210013400473,125301,3014,0.0038245440785339,0.0038245440785334,0.0051904506164552,24.411719195226,0.00011049375356181,0.00011049375356181,0.00011049375356181,3473712.6749179,0.012923785054394
16919200,0.99901435271284,0.015180503717584,0.0046568291130691,0.0046568291130681,0.0058668454914468,-0.00091713512887699,0.00091714335880234,3.1945363638128e-09,3.1945429987572e-09,2.9894432341054e-09,3.3163941252301e-09,-0.001185112615703,0.0011851225775575,-0.0011851120771575,0.0011851220390298,-0.0011851115043539,0.0011851216336141,-0.0011851109705767,0.0011851210998467,-0.0010404719412612,0.0010404783622327,-0.0010404721405247,0.0010404785615187,2.9894423412198e-09,3.3163971357061e-09,6.2673499033407e-09,1.2173128163115e-10,-0.00091713512887445,0.00091714335880447,-0.0011851115734976,0.0011851235979538,-0.0011851131193559,0.0011851210186395,-0.0011851104645501,0.0011851226564086,-0.0011851120103716,0.0011851200770633,-0.001040468928201,0.0010404813499503,-0.0010404751535706,0.0010404755738073,-0.00092898906534505,0.00092899331409735,-0.00092899051154659,0.00092899535495562,2.822688980848e-09,2.8226956803493e-09,-0.0012489866656976,0.0012489933794623,-2.9045538234627e-10,5.8859378928435e-09,-0.0015575928270199,0.0015575977215749,-0.0015575893748643,0.0015575984121119,-0.0015575914462122,0.0015575963407648,-0.0015575881253639,0.0015575971626048,-0.0011972084217534,0.0011972160383329,-0.0011972066938315,0.0011972143103538,0.65164127745866,125301,3014,0.0038156460873274,0.0038156460873266,0.0051899242036572,23.779557651501,0.000105436461212,0.000105436461212,0.000105436461212,3549448.369854,0.012905164872965
17419200,0.99913634376168,0.015182124634651,0.0046573637338335,0.0046573637338325,0.005867397166985,-0.00091079060565968,0.00091080125096004,4.1283619682875e-09,4.1283685752033e-09,3.8861116045463e-09,4.226430763956e-09,-0.0011852286106361,0.0011852405923902,-0.0011852279638522,0.0011852399456241,-0.0011852273451635,0.0011852394919335,-0.0011852267043818,0.0011852388511621,-0.0010330238459626,0.0010330322786533,-0.0010330240406139,0.0010330324733274,3.886110982444e-09,4.2264331470009e-09,7.2284746089839e-09,1.0282576918946e-09,-0.00091079060565718,0.00091080125096206,-0.0011852275539364,0.0011852416214654,-0.0011852290205446,0.0011852389165549,-0.0011852262914826,0.0011852405240238,-0.0011852277580542,0.0011852378190823,-0.0010330208037731,0.0010330352886191,-0.0010330270827895,0.0010330294633673,-0.00092321012887581,0.00092321630658993,-0.00092321161278177,0.00092321839717537,3.2773107393477e-09,3.2773174209671e-09,-0.0012373542697858,0.0012373623466684,1.2585852278499e-10,6.3661470724004e-09,-0.001552474959344,0.0015524808735357,-0.0015524712865004,0.001552481389027,-0.0015524733806695,0.0015524792948588,-0.0015524698423719,0.0015524799448919,-0.0011874278751436,0.0011874365307507,-0.0011874262062503,0.0011874348617997,0.58772740813402,125301,3014,0.0037893553483135,0.0037893553483126,0.005141759727505,21.982313204512,9.1058505636094e-05,9.1058505636094e-05,9.1058505636094e-05,3389158.4064564,0.012803220706157
17919200,0.99922954338317,0.015183161714455,0.0046577075010293,0.0046577075010284,0.0058677467123973,-0.00090423598546002,0.00090424807923931,4.6775713935812e-09,4.677578008585e-09,4.4044447899409e-09,4.7657933687545e-09,-0.0011765064448547,0.0011765197375837,-0.0011765057182246,0.0011765190109714,-0.0011765050735169,0.0011765185322067,-0.001176504353673,0.0011765178123726,-0.0010271271403137,0.001027136750857,-0.0010271273403171,0.0010271369508832,4.4044441817414e-09,4.7657960026465e-09,7.8689914021085e-09,1.4861597474568e-09,-0.00090423598545748,0.00090424807924138,-0.0011765053541506,0.0011765207967824,-0.0011765068089215,0.001176517951779,-0.0011765039862237,0.0011765195948122,-0.0011765054409578,0.0011765167497778,-0.001027124006556,0.00102713984663,-0.0010271304740607,0.001027133855116,-0.0009168891391472,0.00091689638126343,-0.00091689065624107,0.00091689853596226,3.6348931018638e-09,3.6348998087177e-09,-0.0012319883188305,0.0012319973768188,3.843507516719e-10,6.8134170155812e-09,-0.0015448467282679,0.0015448534491821,-0.0015448428498884,0.0015448538872413,-0.0015448450081094,0.0015448517290213,-0.0015448412703268,0.0015448523076734,-0.0011818958887095,0.001181905373787,-0.0011818942216516,0.0011819037066716,0.4915601615792,125301,3014,0.0037621316658041,0.0037621316658032,0.0051194953125761,19.501902518458,7.1215220147663e-05,7.1215220147663e-05,7.1215220147663e-05,3436546.9800807,0.012725489097341
18419200,0.99930363063448,0.015184024882669,0.004657993264218,0.0046579932642171,0.0058680383542336,-0.00090031869203121,0.00090032990132944,4.3379789723672e-09,4.3379855946943e-09,4.0764501177324e-09,4.4365387655508e-09,-0.0011687917961698,0.0011688043997666,-0.0011687911061669,0.0011688037097814,-0.0011687904768237,0.0011688032487133,-0.0011687897930752,0.0011688025649745,-0.0010239055250614,0.0010239143968253,-0.0010239057341498,0.0010239146059364,4.0764495341444e-09,4.4365410536904e-09,7.5889359408022e-09,1.0870302742037e-09,-0.00090031869202876,0.00090032990133144,-0.0011687906879379,0.0011688054789556,-0.0011687922143914,0.0011688026305984,-0.001168789371737,0.0011688043310431,-0.0011687908981536,0.0011688014826549,-0.0010239023339578,0.0010239175527338,-0.0010239089252395,0.0010239114500334,-0.00091267657910763,0.00091268306242689,-0.0009126780911723,0.00091268521534262,3.5061481122878e-09,3.5061547700844e-09,-0.001231327455957,0.0012313360744909,2.0068390003873e-10,6.7447928705017e-09,-0.0015402140115401,0.0015402204161054,-0.0015402101605514,0.0015402209569263,-0.0015402123564577,0.0015402187610208,-0.0015402086459079,0.0015402194422766,-0.0011801565508562,0.0011801657686937,-0.0011801548473576,0.0011801640651381,0.51421839069127,125301,3014,0.0037458397821737,0.0037458397821729,0.0051167251010068,17.478775898552,5.5030207188417e-05,5.5030207188417e-05,5.5030207188417e-05,3533568.7098571,0.012689637982093
18919200,0.99936829105279,0.015184885263544,0.0046582772189191,0.0046582772189182,0.0058683308257067,-0.00089877379673552,0.00089878205898617,3.2081246898752e-09,3.2081312989086e-09,3.002212747329e-09,3.3290461583809e-09,-0.0011689090469326,0.0011689190567705,-0.0011689085049312,0.0011689185147868,-0.0011689079350159,0.0011689181126785,-0.0011689073974015,0.0011689175750738,-0.0010219017212474,0.0010219081675177,-0.0010219019402318,0.0010219083865249,3.0022121812755e-09,3.3290487720805e-09,6.4117179898325e-09,4.5398038514583e-12,-0.00089877379673301,0.00089878205898828,-0.0011689079625389,0.001168920120995,-0.0011689095893177,0.0011689174505686,-0.0011689068528335,0.0011689191791102,-0.0011689084795755,0.0011689165086528,-0.001021898580877,0.0010219112843803,-0.0010219050805882,0.0010219052696682,-0.00091109806149136,0.00091110224542873,-0.00091109953263027,0.00091110431194137,2.874693602319e-09,2.8747002152346e-09,-0.0012287878620554,0.0012287946939978,-3.6640013784494e-10,6.0689902654251e-09,-0.001539173709317,0.0015391786434654,-0.0015391701688499,0.0015391794174587,-0.0015391723260817,0.0015391772602279,-0.0015391689159816,0.0015391781645839,-0.0011779521109443,0.0011779599192295,-0.0011779503649003,0.0011779581731283,0.5877987766322,125301,3014,0.0037394293626837,0.003739429362683,0.0051062061365938,16.874815900834,5.019852720667e-05,5.019852720667e-05,5.019852720667e-05,3493258.9514129,0.012666032963428
19419200,0.9994292783938,0.015185793920771,0.0046585773561874,0.0046585773561864,0.0058686392083969,-0.00089885145711015,0.00089885705554907,2.1823623095942e-09,2.1823689015105e-09,2.0238072962234e-09,2.3231384810964e-09,-0.0011723082954944,0.0011723159668153,-0.0011723078842887,0.0011723155556274,-0.001172307367967,0.001172315207285,-0.0011723069598633,0.0011723147991912,-0.0010213819205597,0.0010213861716046,-0.0010213821443268,0.0010213863953946,2.0238067502474e-09,2.3231409609784e-09,5.2612908642689e-09,-8.9655796913036e-10,-0.00089885145710769,0.00089885705555112,-0.0011723072582941,0.0011723169899513,-0.0011723089214818,0.0011723145324975,-0.0011723063323356,0.0011723162319858,-0.0011723079954864,0.0011723137745008,-0.0010213789052892,0.0010213891719189,-0.0010213851595835,0.0010213833950861,-0.00091160025693204,0.00091160240921439,-0.00091160168275032,0.00091160439411476,2.2853399745501e-09,2.2853466188178e-09,-0.0012256023044483,0.0012256074928197,-8.1941246512931e-10,5.3574244455077e-09,-0.0015393585306032,0.0015393621645617,-0.0015393553183014,0.0015393630909305,-0.0015393573876382,0.0015393610215944,-0.0015393542968542,0.0015393620694768,-0.0011759564807737,0.0011759629298158,-0.0011759547042823,0.0011759611532668,0.65664642788028,125301,3014,0.0037397668809254,0.0037397668809246,0.0050930254920857,17.545999907905,5.5567999263244e-05,5.5567999263244e-05,5.5567999263244e-05,3399031.0386309,0.012653415683339
19919200,0.99948808771862,0.015186648586222,0.0046588604520952,0.0046588604520942,0.0058689276820325,-0.00089879479715097,0.00089879950722434,1.8426556368999e-09,1.8426622627857e-09,1.697432610496e-09,1.9783772004787e-09,-0.0011743429180763,0.0011743498066067,-0.0011743425076578,0.001174349396206,-0.0011743419973046,0.0011743490409829,-0.0011743415900324,0.0011743486337203,-0.001021461902936,0.0010214653743953,-0.0010214621275409,0.001021465599023,1.697432758086e-09,1.9783804228306e-09,4.9112520019489e-09,-1.2259309468515e-09,-0.00089879479714785,0.00089879950722704,-0.001174341884107,0.0011743508262705,-0.0011743435416184,0.0011743483765494,-0.0011743409649266,0.0011743500622339,-0.0011743426224012,0.0011743476124814,-0.0010214588977405,0.0010214683645552,-0.0010214651327214,0.0010214626088703,-0.0009118912521979,0.0009118926594436,-0.0009118926929793,0.00091189462855388,2.1217253554527e-09,2.1217320160139e-09,-0.0012229396907151,0.0012229444164412,-9.6740925525249e-10,5.1817112590426e-09,-0.0015391750457221,0.0015391782937804,-0.0015391718429302,0.001539179211023,-0.0015391739029492,0.0015391771510052,-0.0015391708212342,0.0015391781893203,-0.001174029572056,0.0011740356295599,-0.0011740277968543,0.0011740338543007,0.63949909152816,125301,3014,0.0037395329444834,0.0037395329444826,0.0050820027527012,18.682230137305,6.4657841098438e-05,6.4657841098438e-05,6.4657841098438e-05,3295046.6537789,0.012641803726689
20419200,0.99954059889514,0.015187474957756,0.0046591346778046,0.0046591346778036,0.0058692056021479,-0.00089791626963212,0.00089792315243807,2.6688502693386e-09,2.6688568869894e-09,2.4871765200822e-09,2.8223854937223e-09,-0.0011732702618346,0.0011732790532634,-0.0011732698831712,0.0011732786746178,-0.0011732693709174,0.0011732783602635,-0.0011732689950555,0.0011732779844114,-0.0010205303675084,0.0010205357529164,-0.0010205306190172,0.0010205360044481,2.4871760124037e-09,2.8223880634103e-09,5.723653096427e-09,-3.8594417182557e-10,-0.0008979162696296,0.00089792315244016,-0.0011732692339289,0.001173280068509,-0.0011732709110696,0.0011732776593784,-0.0011732683444304,0.0011732793769236,-0.0011732700215342,0.0011732769677618,-0.0010205273764758,0.0010205387303473,-0.0010205336100359,0.001020533027023,-0.00091127240592775,0.00091127565799174,-0.00091127382895157,0.00091127770313652,2.4808099115483e-09,2.4808165877561e-09,-0.0012210217573304,0.0012210275361182,-6.0980366885768e-10,5.5337894339431e-09,-0.0015370310548009,0.0015370351891254,-0.001537027915223,0.001537036166543,-0.0015370299737223,0.0015370341080446,-0.0015370269533981,0.0015370352047117,-0.0011724095248443,0.0011724164406322,-0.0011724077069437,0.0011724146226738,0.69004788769245,125301,3014,0.0037358918128105,0.0037358918128097,0.0050740592650655,18.601885360134,6.401508288107e-05,6.401508288107e-05,6.401508288107e-05,3306284.8183195,0.012626380827731
20919200,0.99958427225542,0.015188115872802,0.004659347534844,0.004659347534843,0.0058694208031155,-0.00089335950191137,0.00089336901219139,3.6683289908909e-09,3.6683355843365e-09,3.4596461235681e-09,3.8204117183827e-09,-0.0011703681115155,0.0011703792015456,-0.0011703676608345,0.0011703787508822,-0.0011703671054037,0.0011703784018126,-0.0011703666582598,0.0011703779546787,-0.0010160301087558,0.0010160377893273,-0.0010160302985222,0.0010160379791171,3.459645345565e-09,3.8204139978002e-09,6.7199945026686e-09,6.1667125852436e-10,-0.00089335950190911,0.00089336901219319,-0.0011703670815123,0.0011703802154215,-0.0011703686908308,0.0011703777370118,-0.001170366077187,0.0011703794174709,-0.0011703676864685,0.0011703769390303,-0.001016027119338,0.0010160407619419,-0.0010160332879267,0.0010160350065078,-0.00090712091930452,0.00090712642130051,-0.0009071222579666,0.00090712841778384,3.0153118307345e-09,3.0153185067953e-09,-0.0012145954406511,0.0012146027601799,-8.5809884199293e-11,6.0654002785379e-09,-0.0015324126238713,0.001532418045115,-0.0015324093460076,0.0015324188905494,-0.0015324114076582,0.0015324168288998,-0.0015324082520716,0.0015324177966072,-0.0011667009477619,0.001166709134561,-0.0011666992361093,0.0011667074228504,0.64466974006305,125301,3014,0.0037169838731346,0.0037169838731338,0.0050474333123904,17.277026993981,5.3416215951844e-05,5.3416215951844e-05,5.3416215951844e-05,3235007.3534017,0.012561151516
21419200,0.9996193217601,0.015188628144111,0.0046595178948528,0.0046595178948518,0.0058695923544068,-0.0008885882907632,0.00088859961361595,4.3804231268156e-09,4.380429716379e-09,4.1197844046791e-09,4.4753882964449e-09,-0.001165049514525,0.0011650621624515,-0.0011650488221685,0.0011650614701127,-0.0011650482017268,0.0011650610172845,-0.0011650475159183,0.0011650603314857,-0.00101085687484,0.0010108658529311,-0.001010857098058,0.0010108660761721,4.1197837843878e-09,4.4753910765309e-09,7.5179879279483e-09,1.2428668102036e-09,-0.00088858829076059,0.00088859961361802,-0.0011650484424525,0.0011650632038912,-0.0011650498942335,0.0011650604286791,-0.0011650471329462,0.001165062062012,-0.0011650485846903,0.0011650592867688,-0.0010108537943611,0.001010868896822,-0.0010108601785225,0.0010108630322872,-0.00090246227233094,0.00090246893913779,-0.00090246379653762,0.00090247109588847,3.5248843678786e-09,3.5248910562625e-09,-0.0012102414674444,0.001210250189374,3.2893041944559e-10,6.6501162659982e-09,-0.0015270280757815,0.0015270345881625,-0.0015270243072667,0.0015270350638882,-0.0015270264293884,0.0015270329417674,-0.0015270227976905,0.0015270335543057,-0.0011625797582059,0.001162588967257,-0.0011625780600299,0.0011625872690233,0.64095610021346,125301,3014,0.00369717728965,0.003697177289649,0.005029379168683,15.23082428846,3.7046594307683e-05,3.7046594307683e-05,3.7046594307683e-05,3286959.800579,0.012502748273814
21919200,0.99964912763466,0.015189051036009,0.0046596584868753,0.0046596584868744,0.0058697340622598,-0.00088539257086136,0.0008854022229755,3.7391178117528e-09,3.7391243985516e-09,3.5079590742141e-09,3.8475043050022e-09,-0.0011620853017414,0.0011620965068035,-0.0011620846909357,0.0011620958960155,-0.0011620841029941,0.0011620954762027,-0.0011620834976004,0.0011620948708187,-0.0010075877745277,0.001007595373003,-0.001007588006621,0.0010075956051196,3.50795834035e-09,3.8475069032574e-09,6.8939698592913e-09,5.8427391293128e-10,-0.00088539257085893,0.00088540222297753,-0.0011620842288445,0.0011620975544564,-0.0011620857638255,0.0011620948483687,-0.0011620830328212,0.0011620965265754,-0.0011620845677651,0.0011620938204564,-0.0010075846795935,0.0010075984381042,-0.0010075911015414,0.0010075925400241,-0.0008993033533242,0.00089930867832707,-0.00089930485868782,0.00089931079587539,3.1822434743521e-09,3.182250138825e-09,-0.001206853954188,0.0012068616870169,-2.0708944503019e-11,6.3264746234841e-09,-0.0015237501899772,0.001523755887572,-0.0015237465628171,0.0015237565190304,-0.0015237486921279,0.0015237543897205,-0.0015237451968284,0.0015237551530353,-0.0011593001737855,0.0011593086386569,-0.0011592984437342,0.0011593069085478,0.62311101531201,125301,3014,0.0036839057599682,0.0036839057599675,0.0050153343822396,13.995690130733,2.7165521045868e-05,2.7165521045868e-05,2.7165521045868e-05,3280885.0619575,0.012461660581318
22419200,0.99967804693805,0.015189480141697,0.0046598011376281,0.0046598011376271,0.005869877866442,-0.00088690074901661,0.00088690598632783,2.0374395841781e-09,2.0374461934174e-09,1.8841161252957e-09,2.1820059031439e-09,-0.0011630903361138,0.0011630977000455,-0.0011630899399766,0.0011630973039259,-0.0011630894379733,0.0011630969709603,-0.0011630890447317,0.0011630965777283,-0.0010090697031756,0.0010090736506393,-0.0010090699415067,0.0010090738889935,1.8841154196763e-09,2.1820086033078e-09,5.0753423713452e-09,-1.0004549094125e-09,-0.00088690074901409,0.00088690598632989,-0.0011630893131207,0.0011630987097259,-0.0011630909629623,0.0011630962942515,-0.0011630884164459,0.0011630979821024,-0.0011630900662506,0.0011630955665968,-0.0010090667283641,0.0010090766110494,-0.0010090729163041,0.0010090709285893,-0.00090082198500695,0.00090082387008517,-0.00090082341736832,0.00090082586159335,2.2448134266672e-09,2.244820067582e-09,-0.0012083157900907,0.0012083208549892,-8.1836252061615e-10,5.2761466537238e-09,-0.0015246172831614,0.0015246208585562,-0.0015246141347049,0.0015246217937399,-0.0015246161765265,0.0015246197519192,-0.001524613147336,0.0015246208063647,-0.0011607797322408,0.0011607860660169,-0.0011607779359395,0.0011607842696579,0.65096373206223,125301,3014,0.0036901508133986,0.0036901508133977,0.0050213874449879,14.850213296249,3.4001706369992e-05,3.4001706369992e-05,3.4001706369992e-05,3281456.4294257,0.012480429192739
22919200,0.99970539736998,0.015189845647808,0.0046599226932046,0.0046599226932036,0.0058700002613997,-0.00088700026315815,0.00088700613340704,2.2782276315626e-09,2.2782342319786e-09,2.1162131164655e-09,2.4256380479815e-09,-0.0011641841905455,0.0011641921033507,-0.0011641837948711,0.0011641917076941,-0.001164183288453,0.001164191378856,-0.0011641828957266,0.0011641909861392,-0.001009197390095,0.0010092018925371,-0.0010091976283063,0.0010092021307715,2.1162122009324e-09,2.4256405329442e-09,5.3058705975518e-09,-7.4940748408949e-10,-0.00088700026315592,0.00088700613340882,-0.0011641831707259,0.0011641931095813,-0.0011641848146839,0.0011641907014687,-0.0011641822701255,0.0011641923865747,-0.0011641839140465,0.0011641899784308,-0.0010091944252787,0.0010092048428693,-0.0010092005931092,0.0010091991804448,-0.00090105123691577,0.00090105366658597,-0.00090105265908325,0.00090105566701232,2.3472572873423e-09,2.3472639259924e-09,-0.0012072413709303,0.0012072467443675,-7.1015258042908e-10,5.3697258949422e-09,-0.0015247006898219,0.0015247045212257,-0.0015246975460948,0.0015247054517191,-0.0015246995832066,0.0015247034146085,-0.0015246965585516,0.0015247044641696,-0.0011600327931722,0.0011600393704296,-0.0011600309996132,0.001160037576813,0.58748017292924,125301,3014,0.0036905663409646,0.0036905663409637,0.0050169437102524,15.357580695215,3.8060645561723e-05,3.8060645561723e-05,3.8060645561723e-05,3230761.9137541,0.012476787723076
23419200,0.9997309465753,0.015190197835833,0.0046600398949076,0.0046600398949066,0.0058701180460192,-0.00088839796773223,0.00088840420716142,2.4194125666951e-09,2.4194191671993e-09,2.2529231283773e-09,2.5647511090847e-09,-0.0011639813155393,0.0011639895566218,-0.0011639808966859,0.0011639891377862,-0.0011639803803936,0.0011639887970527,-0.0011639799647461,0.0011639883814148,-0.0010104403032033,0.0010104451240087,-0.0010104405218274,0.0010104453426558,2.2529222530082e-09,2.5647536388346e-09,5.4396162517727e-09,-6.0078318623269e-10,-0.00088839796772999,0.00088840420716331,-0.0011639802971524,0.0011639905602607,-0.001163981915066,0.0011639881341528,-0.0011639793636276,0.0011639898023084,-0.0011639809815043,0.0011639873761693,-0.0010104373451182,0.0010104480662585,-0.0010104434798989,0.0010104424004115,-0.00090232511643956,0.00090232786266607,-0.00090232651834307,0.00090232984530172,2.4537019845298e-09,2.4537086290916e-09,-0.0012095184421043,0.001209524097378,-5.981388995172e-10,5.4678637319281e-09,-0.001525098600897,0.0015251026849883,-0.0015250954194387,0.0015251035688692,-0.0015250974521097,0.0015251015361991,-0.0015250943910204,0.0015251025404446,-0.0011620025924645,0.0011620094050119,-0.001162000828105,0.0011620076405947,0.60459639632209,125301,3014,0.0036963639958127,0.0036963639958121,0.0050263756297232,15.705842469033,4.0846739752262e-05,4.0846739752262e-05,4.0846739752262e-05,3298256.7163488,0.012498054060993
23919200,0.99975612690088,0.015190607228024,0.0046601759448867,0.0046601759448858,0.0058702553382519,-0.00089067212189628,0.00089067639915913,1.6661227160653e-09,1.6661293136284e-09,1.5300971613173e-09,1.818594326074e-09,-0.0011669875651822,0.001166994086793,-0.001166987216304,0.0011669937379324,-0.0011669867334649,0.0011669934243371,-0.0011669863872963,0.001166993078178,-0.0010125204580053,0.0010125236121229,-0.0010125206955359,0.0010125238496767,1.5300964016379e-09,1.8185970595493e-09,4.5699095990195e-09,-1.2376559243424e-09,-0.00089067212189377,0.00089067639916118,-0.0011669865876092,0.0011669950518758,-0.0011669881938697,0.0011669927728556,-0.0011669857572646,0.0011669943907885,-0.0011669873634881,0.0011669921117371,-0.0010125176149664,0.0010125264420868,-0.0010125235385607,0.0010125210197186,-0.00090465031191896,0.00090465152282479,-0.00090465172410427,0.0009046534821412,2.0291588264143e-09,2.0291654501825e-09,-0.0012109762657798,0.0012109807300026,-8.985143243718e-10,4.9268878904128e-09,-0.0015272670194814,0.0015272701794265,-0.001527264047146,0.0015272711108605,-0.0015272659990321,0.0015272691589751,-0.0015272631429201,0.0015272702066283,-0.0011637416221147,0.0011637474006145,-0.001163739816103,0.0011637455945451,0.71228945632067,125301,3014,0.0037057981553061,0.0037057981553052,0.0050324234787979,17.00487867452,5.1239029396158e-05,5.1239029396158e-05,5.1239029396158e-05,3253191.9376781,0.012523294957496
24419200,0.99978013838103,0.015190979094433,0.0046602996401366,0.0046602996401356,0.0058703798141608,-0.00089104853487399,0.0008910537167465,2.0187230168681e-09,2.018729627225e-09,1.866413550009e-09,2.1618080787177e-09,-0.0011714591290103,0.001171466431505,-0.0011714587389551,0.0011714660414677,-0.0011714582370805,0.0011714657086574,-0.001171457850662,0.0011714653222485,-0.0010121654278614,0.0010121693385618,-0.0010121656644138,0.0010121695751374,1.8664129169802e-09,2.1618107790341e-09,4.8367573392722e-09,-7.9930289705024e-10,-0.00089104853487153,0.00089105371674863,-0.0011714581760988,0.0011714673675869,-0.0011714596918596,0.0011714651053922,-0.0011714572860052,0.0011714666465713,-0.0011714588017288,0.0011714643843454,-0.0010121626668829,0.0010121720814249,-0.0010121684253783,0.0010121668322805,-0.00090549533533046,0.00090549733087169,-0.00090549676142184,0.00090549931222833,2.1847271747609e-09,2.1847338008232e-09,-0.0012070113415751,0.0012070162787232,-6.6549884371714e-10,4.9956825378129e-09,-0.0015277445335812,0.0015277481210836,-0.0015277415365599,0.0015277489207291,-0.0015277434348947,0.001527747022395,-0.0015277405556313,0.0015277479397943,-0.0011611050573745,0.0011611111309512,-0.0011611032741375,0.0011611093476562,0.67894105241859,125301,3014,0.0037073862847463,0.0037073862847457,0.0050160311898347,17.88206422883,5.8256513830637e-05,5.8256513830637e-05,5.8256513830637e-05,3140657.5089896,0.012509972049058
24919200,0.99980237712194,0.015191287949859,0.0046604027259837,0.0046604027259827,0.0058704824978927,-0.00089121672408181,0.00089122275162641,2.3417986571585e-09,2.3418052789856e-09,2.1745253188324e-09,2.4792721127623e-09,-0.0011705772011482,0.0011705852423529,-0.0011705767676692,0.0011705848088916,-0.0011705762521765,0.001170584462475,-0.0011705758229812,0.0011705840332894,-0.0010125567933438,0.0010125613991402,-0.0010125570301822,0.0010125616360018,2.1745245408822e-09,2.4792746465195e-09,5.1157206162702e-09,-4.3211525348028e-10,-0.00089121672407947,0.00089122275162835,-0.0011705762599643,0.001170586163556,-0.0011705777088461,0.0011705838876942,-0.0011705753131524,0.0011705853858339,-0.0011705767619971,0.0011705831099409,-0.001012554073998,0.0010125640959455,-0.0010125597495142,0.0010125589392022,-0.00090585225584943,0.00090585495121347,-0.00090585369670657,0.00090585695993923,2.3799174973306e-09,2.3799241477745e-09,-0.0012072095662899,0.0012072150517329,-4.3258690610519e-10,5.145650490439e-09,-0.0015268088687438,0.0015268129449967,-0.0015268058239109,0.0015268136434835,-0.0015268076955721,0.001526811771823,-0.0015268047711306,0.0015268125906969,-0.001161417045302,0.001161423515097,-0.0011614152682468,0.0011614217379838,0.60789483588396,125301,3014,0.0037080759012428,0.003708075901242,0.0050168438767349,18.352108171696,6.2016865373568e-05,6.2016865373568e-05,6.2016865373568e-05,3153184.1605722,0.01251216831875
25419200,0.99982421990258,0.015191657099427,0.0046605258019428,0.0046605258019419,0.0058706054955424,-0.00089475108934764,0.00089475477327164,1.4357638860459e-09,1.4357705286077e-09,1.3106927920437e-09,1.5938923091252e-09,-0.0011715485874028,0.0011715545880832,-0.0011715482663408,0.0011715542670387,-0.0011715477977529,0.0011715539678822,-0.001171547479779,0.0011715536499181,-0.0010163380635712,0.0010163407275222,-0.0010163383022144,0.0010163409661886,1.3106921003538e-09,1.593895101505e-09,4.0886623857185e-09,-1.217126183189e-09,-0.00089475108934509,0.00089475477327372,-0.0011715476916409,0.0011715554694819,-0.0011715491620956,0.0011715533856461,-0.0011715469035528,0.0011715548508389,-0.0011715483739704,0.001171552766972,-0.0010163354652805,0.0010163433102471,-0.0010163409004908,0.0010163383834696,-0.00090916232559266,0.00090916323284968,-0.00090916372530461,0.00090916517323696,1.8874661279407e-09,1.8874727423269e-09,-0.0012125045059196,0.0012125085865557,-7.9347453207418e-10,4.5340119929135e-09,-0.0015292750046981,0.0015292780054593,-0.001529272252568,0.0015292788264836,-0.0015292740391465,0.0015292770399058,-0.0015292714010815,0.001529277974991,-0.0011661079293186,0.001166113239019,-0.001166106114057,0.0011661114236996,0.7372586897946,125301,3014,0.0037227224222331,0.0037227224222322,0.0050387703254461,19.920595061553,7.4564760492426e-05,7.4564760492426e-05,7.4564760492426e-05,3202968.6356919,0.012563993938358
25919200,0.99984454860923,0.01519199592018,0.0046606386501346,0.0046606386501336,0.0058707186199114,-0.00089513268425169,0.00089513799240591,2.0667504211933e-09,2.066757061961e-09,1.9120543112003e-09,2.208563767687e-09,-0.001176823452717,0.0011768308635902,-0.0011768230561425,0.0011768304670333,-0.0011768225532207,0.0011768301332268,-0.0011768221609939,0.0011768297410095,-0.0010157088986977,0.0010157129134889,-0.0010157091385121,0.0010157131533269,1.9120534887967e-09,2.2085661382654e-09,4.6752823743607e-09,-5.4177322341614e-10,-0.0008951326842493,0.0008951379924079,-0.0011768225663509,0.0011768317296786,-0.0011768239425014,0.0011768296009513,-0.0011768216690463,0.0011768310015026,-0.00117682304516,0.0011768288727437,-0.0010157063412325,0.001015715448309,-0.0010157116959635,0.0010157106185129,-0.0009098802288225,0.00090988246302814,-0.00090988165955178,0.00090988445068403,2.1913692901724e-09,2.1913758698832e-09,-0.0012080902738108,0.0012080952511235,-4.5650214364346e-10,4.7919568989325e-09,-0.0015301440045653,0.0015301477557353,-0.001530141133974,0.0015301484088324,-0.0015301428958197,0.0015301466469878,-0.0015301401427759,0.0015301474176276,-0.0011629995927922,0.0011630055489838,-0.0011629978104551,0.0011630037665887,0.72914636768882,125301,3014,0.0037243368317596,0.0037243368317588,0.0050205265142056,20.734716547822,8.1077732382579e-05,8.1077732382579e-05,8.1077732382579e-05,3073884.2025095,0.012548865667793
26419200,0.99986219501258,0.015192317026506,0.0046607458995908,0.0046607458995899,0.005870825227325,-0.00089336694138789,0.00089337468366211,3.0026555273171e-09,3.0026621786433e-09,2.8055650296642e-09,3.1255866493851e-09,-0.0011749332778575,0.0011749428005821,-0.0011749327612972,0.0011749422840394,-0.001174932215089,0.0011749419064911,-0.001174931704307,0.0011749413957187,-0.0010140781754354,0.001014084202793,-0.0010140784127246,0.0010140844401058,2.805564334267e-09,3.1255892090698e-09,5.6464104813523e-09,3.5890874937411e-10,-0.00089336694138549,0.00089337468366411,-0.0011749323733625,0.0011749436779154,-0.0011749336657851,0.0011749414067121,-0.0011749313135012,0.0011749427867275,-0.0011749326058866,0.0011749405154929,-0.0010140755802379,0.0010140867663034,-0.0010140810079084,0.0010140818766012,-0.00090842148983433,0.00090842564200411,-0.00090842295972006,0.0009084276989366,2.7293425484881e-09,2.729349163286e-09,-0.0012056088815275,0.001205615382922,3.2739201736919e-11,5.3627762811011e-09,-0.0015275255407616,0.0015275305260917,-0.0015275224285266,0.0015275309958289,-0.0015275242195141,0.0015275292048422,-0.0015275212315856,0.0015275297988817,-0.0011609114110784,0.0011609185695564,-0.0011609096617312,0.001160916820151,0.7920419595447,125301,3014,0.0037170081711936,0.0037170081711928,0.005010240598148,20.398785715412,7.8390285723296e-05,7.8390285723296e-05,7.8390285723296e-05,3067383.1030187,0.012523600419683
26919200,0.99987862496296,0.015192598570013,0.0046608400020789,0.0046608400020779,0.0058709185658562,-0.00089394959289996,0.00089395476832668,2.0147998871876e-09,2.0148065611896e-09,1.8614411248249e-09,2.1571543737528e-09,-0.0011776175509408,0.0011776248520789,-0.0011776171594971,0.0011776244606527,-0.001177616660955,0.0011776241314703,-0.0011776162737523,0.0011776237442772,-0.0010141861691146,0.0010141900711819,-0.0010141864185978,0.0010141903206887,1.8614404665643e-09,2.1571570237675e-09,4.6219372291263e-09,-5.9232918872337e-10,-0.00089394959289755,0.00089395476832878,-0.0011776166653814,0.0011776257177881,-0.0011776180450493,0.0011776235949495,-0.001177615777534,0.0011776249993141,-0.0011776171571649,0.001177622876444,-0.0010141836130917,0.0010141926047249,-0.0010141889746069,0.0010141877871516,-0.00090928186700891,0.00090928399053189,-0.00090928330709207,0.00090928598698767,2.1691376303049e-09,2.1691442232212e-09,-0.0012033277846388,0.0012033327009343,-4.7683964896428e-10,4.7684470515393e-09,-0.0015275710543123,0.001527574761147,-0.0015275681969885,0.0015275754253499,-0.0015275699577532,0.0015275736645859,-0.0015275672170072,0.0015275744453625,-0.0011593986526202,0.0011594045582883,-0.0011593968590879,0.0011594027646979,0.74688297492095,125301,3014,0.0037194285387994,0.0037194285387989,0.005000808486119,21.287381105252,8.5499048842013e-05,8.5499048842013e-05,8.5499048842013e-05,3001609.4180802,0.012518982045837
27419200,0.9998938766078,0.015192852994309,0.0046609251857525,0.0046609251857515,0.005871002622805,-0.00089534024148084,0.0008953452130664,1.9334425015705e-09,1.9334491747196e-09,1.7840357413298e-09,2.0789787619347e-09,-0.0011775223353757,0.0011775294592627,-0.0011775219525331,0.0011775290764377,-0.0011775214597566,0.0011775287531801,-0.0011775210811297,0.0011775283745627,-0.0010157061164792,0.001015709847592,-0.0010157063624815,0.001015710093618,1.78403502678e-09,2.0789815088692e-09,4.5019593014859e-09,-6.3506580644076e-10,-0.00089534024147834,0.00089534521306854,-0.0011775214627043,0.0011775303121373,-0.0011775228251974,0.0011775282235694,-0.0011775205892109,0.0011775296081765,-0.0011775219516669,0.0011775275195771,-0.0010157035983047,0.0010157123433622,-0.0010157088806419,0.0010157075978537,-0.00091072386729793,0.00091072585437403,-0.00091072529776678,0.00091072784088438,2.1390910806182e-09,2.1390976846517e-09,-0.0012052061274826,0.0012052109500425,-4.6834577678448e-10,4.6997853109025e-09,-0.0015276899010857,0.0015276935617989,-0.0015276870875011,0.0015276942183389,-0.0015276888225648,0.0015276924832761,-0.0015276861252574,0.0015276932560893,-0.0011612265026221,0.0011612323159466,-0.0011612247059839,0.0011612305192502,0.72588280929977,125301,3014,0.0037251865275653,0.0037251865275646,0.0050085802541889,22.251380898674,9.321104718939e-05,9.321104718939e-05,9.321104718939e-05,3022024.8306041,0.012538485076044
27919200,0.99990769989481,0.01519309617402,0.0046610065496239,0.0046610065496229,0.0058710830747733,-0.00089647389224411,0.0008964794238683,2.1466126438102e-09,2.1466192992245e-09,1.9889768737836e-09,2.295159483615e-09,-0.001178135438345,0.0011781430524184,-0.0011781350555673,0.0011781426696583,-0.0011781345593826,0.0011781423509343,-0.0011781341808253,0.0011781419723866,-0.0010167860974029,0.0010167903193062,-0.0010167863438503,0.0010167905657773,1.9889758420873e-09,2.2951619021606e-09,4.7120181566731e-09,-4.187850912881e-10,-0.00089647389224205,0.00089647942387007,-0.001178134566675,0.0011781439042622,-0.0011781359272307,0.0011781418178197,-0.0011781336898408,0.0011781432049024,-0.0011781350503595,0.0011781411184286,-0.0010167835822472,0.0010167928119821,-0.0010167888589927,0.0010167880731067,-0.00091180054496422,0.00091180300805426,-0.00091180196700641,0.00091180500496366,2.2408608342397e-09,2.2408674260089e-09,-0.0012064336734673,0.0012064387891952,-3.6725991907922e-10,4.7996432655017e-09,-0.0015282896063483,0.0015282935145528,-0.0015282867935133,0.0015282941712431,-0.0015282885282774,0.00152829243648,-0.0015282858317265,0.0015282932094503,-0.0011623865777881,0.0011623926312708,-0.0011623847806934,0.0011623908341178,0.76533978020323,125301,3014,0.0037298890957087,0.0037298890957081,0.0050136689124052,22.918840775201,9.8550726201609e-05,9.8550726201609e-05,9.8550726201609e-05,3030032.0044922,0.012553156862976
28419200,0.99992006294121,0.015193330900044,0.0046610850555244,0.0046610850555234,0.0058711607889959,-0.00089688713924675,0.00089689306738678,2.3027793007025e-09,2.3027859461171e-09,2.1367150396311e-09,2.4400572985127e-09,-0.0011799982076292,0.0011800061616988,-0.0011799977789846,0.0011800057330719,-0.0011799972684469,0.00118000539189,-0.0011799968446525,0.0011800049681052,-0.0010167938007531,0.0010167983249233,-0.0010167940485261,0.00101679857272,2.1367143283357e-09,2.4400599779235e-09,4.8643326544374e-09,-2.5876565988045e-10,-0.00089688713924429,0.00089689306738889,-0.0011799973344239,0.0011800070120469,-0.0011799986521829,0.0011800048827301,-0.0011799963976846,0.001180006244677,-0.0011799977154064,0.0011800041153289,-0.0010167912880169,0.0010168008113941,-0.0010167965612484,0.0010167960862552,-0.00091234247188114,0.00091234522751891,-0.00091234392087453,0.00091234724312313,2.3412312259049e-09,2.3412378153212e-09,-0.0012050738242253,0.0012050792253301,-2.652914684248e-10,4.8940063234221e-09,-0.0015284136970533,0.0015284178370681,-0.001528410802675,0.0015284184086264,-0.0015284125356447,0.0015284166756577,-0.0015284097597633,0.0015284173657084,-0.0011615001511114,0.0011615064049572,-0.0011614983686626,0.0011615046224503,0.82558911402084,125301,3014,0.0037316078233912,0.0037316078233905,0.0050080482643952,23.441669866494,0.00010273335893195,0.00010273335893195,0.00010273335893195,2981431.3760582,0.012550968178248
28919200,0.99993108201175,0.01519352446976,0.0046611498939461,0.0046611498939451,0.0058712246818692,-0.000896337242554,0.00089634314297018,2.2924835936116e-09,2.292490247526e-09,2.1271334510626e-09,2.4290926508575e-09,-0.0011808844624574,0.0011808923894335,-0.0011808840345011,0.0011808919614948,-0.0011808835240316,0.0011808916197033,-0.0011808831009142,0.0011808911965954,-0.0010163390599386,0.0010163435598719,-0.0010163393098734,0.0010163438098305,2.1271322886621e-09,2.4290948525329e-09,4.8535949161692e-09,-2.6862031755011e-10,-0.00089633724255202,0.00089634314297165,-0.0011808835894114,0.0011808932396483,-0.0011808849075408,0.0011808911112848,-0.0011808826534232,0.0011808924723516,-0.0011808839715154,0.0011808903439566,-0.0010163365476675,0.0010163460459505,-0.0010163418221316,0.0010163413237568,-0.00091202381313844,0.00091202654644976,-0.0009120252655973,0.00091202856307894,2.3331134227806e-09,2.3331200208437e-09,-0.0012025166822418,0.0012025220662307,-2.7274743817946e-10,4.8854425619215e-09,-0.0015276603818197,0.0015276645031256,-0.0015276574882145,0.0015276650746912,-0.0015276592208014,0.0015276633421056,-0.001527656445369,0.0015276640318395,-0.0011594574273651,0.0011594636644018,-0.0011594556444606,0.001159461881439,0.76400561131051,125301,3014,0.0037293243497561,0.0037293243497551,0.0049974635683023,23.983951375954,0.00010707161100763,0.00010707161100763,0.00010707161100763,2906802.6135232,0.012535645883088
29419200,0.9999409863769,0.015193666419196,0.0046611975449897,0.0046611975449887,0.005871271329218,-0.00089820520320544,0.00089821053055786,2.0690860695467e-09,2.0690927201083e-09,1.913088504327e-09,2.2117340874977e-09,-0.0011813531855159,0.0011813606205063,-0.001181352784754,0.001181360219762,-0.0011813522872911,0.0011813598919783,-0.001181351891041,0.0011813594957376,-0.0010179836204442,0.0010179876440162,-0.0010179838715442,0.0010179878951398,1.9130878060754e-09,2.2117368488895e-09,4.6125808775957e-09,-4.744004093446e-10,-0.00089820520320298,0.00089821053055995,-0.0011813523197027,0.0011813614649911,-0.0011813536505601,0.0011813593752833,-0.0011813514237517,0.0011813607387329,-0.0011813527545719,0.0011813586489937,-0.0010179811260218,0.0010179901139294,-0.0010179863659528,0.0010179854252327,-0.00091399903561607,0.00091400132026968,-0.00091400047721662,0.00091400332312924,2.2242894056619e-09,2.2242960180776e-09,-0.0012047523167031,0.0012047573804824,-3.6146189817536e-10,4.7594846270705e-09,-0.0015280442124237,0.0015280480930137,-0.0015280413839787,0.001528048704204,-0.0015280431037977,0.0015280469843859,-0.0015280403920487,0.0015280477122681,-0.0011617876398275,0.001161793623665,-0.0011617858438948,0.001161791827674,0.62417410960896,125301,3014,0.0037370701782271,0.0037370701782264,0.0050067198278549,24.778855542146,0.00011343084433717,0.00011343084433717,0.00011343084433717,2955598.5198161,0.012560679961805
29919200,0.99994977458024,0.015193805309,0.0046612441101211,0.0046612441101201,0.0058713170887589,-0.00090074536954979,0.00090075089634076,2.1416668311661e-09,2.1416734863451e-09,1.9825042976487e-09,2.285576813109e-09,-0.0011790544032936,0.001179062022636,-0.0011790539893177,0.0011790616086778,-0.0011790534900916,0.0011790612795124,-0.0011790530808503,0.0011790608702805,-0.0010212159966818,0.0010212201776523,-0.0010212162443478,0.0010212204253421,1.9825036788915e-09,2.2855796421366e-09,4.679957158331e-09,-3.9661493884611e-10,-0.00090074536954732,0.00090075089634297,-0.0011790535381702,0.0011790628652994,-0.0011790548544337,0.0011790607660203,-0.0011790526273534,0.0011790621245572,-0.0011790539435797,0.0011790600252465,-0.0010212135066352,0.0010212226413307,-0.0010212187343809,0.0010212179616708,-0.0009160959991983,0.00091609844107141,-0.00091609743938923,0.00091610044955065,2.298914402096e-09,2.2989209898359e-09,-0.0012118407073711,0.0012118459550911,-2.8398388303143e-10,4.8283333910674e-09,-0.0015296441091173,0.0015296481679716,-0.0015296412632007,0.0015296487566065,-0.0015296429804778,0.0015296470393303,-0.0015296402530701,0.0015296477464699,-0.0011676183066129,0.0011676244417858,-0.0011676165068273,0.0011676226419424,0.68688558505508,125301,3014,0.003747584895752,0.0037475848957516,0.0050360547480556,25.465439563732,0.00011892351650985,0.00011892351650985,0.00011892351650985,3070337.8117416,0.012611612624142
30419200,0.99995751362829,0.015193904868882,0.0046612774397424,0.0046612774397414,0.0058713499893986,-0.00090210351683131,0.00090210912926006,2.1802170618947e-09,2.1802236768985e-09,2.0197947310104e-09,2.3208845552317e-09,-0.0011833709448648,0.0011833786310995,-0.001183370531011,0.0011833782172632,-0.0011833700272355,0.0011833778830707,-0.0011833696181496,0.0011833774739941,-0.0010218106546419,0.0010218149151074,-0.0010218109040795,0.0010218151645685,2.0197939109131e-09,2.3208873185186e-09,4.7121190581595e-09,-3.5167661740708e-10,-0.00090210351682888,0.00090210912926216,-0.0011833700818021,0.0011833794716298,-0.0011833713940669,0.0011833773767392,-0.0011833691665745,0.0011833787259988,-0.0011833704788022,0.0011833766310768,-0.0010218081709974,0.0010218173726742,-0.0010218133877097,0.0010218127070076,-0.00091737369566991,0.00091737621695383,-0.00091737514074597,0.00091737822631163,2.2870447212654e-09,2.287051281565e-09,-0.0012108738218771,0.001210879055232,-2.8940589593677e-10,4.8102168976315e-09,-0.0015318465014375,0.0015318505346997,-0.0015318436543645,0.0015318511136382,-0.0015318453673716,0.0015318494006319,-0.0015318426381469,0.0015318500974144,-0.0011670767465603,0.0011670828577531,-0.0011670749557428,0.0011670810668777,0.56251928746541,125301,3014,0.003753239169896,0.0037532391698954,0.005032079415822,26.130741689737,0.0001242459335179,0.0001242459335179,0.0001242459335179,2997364.295243,0.012619088538414
30919200,0.99996439623857,0.015194011888277,0.0046613132681983,0.0046613132681973,0.0058713853518819,-0.00090542204464881,0.00090542690071691,1.8830890241582e-09,1.8830956478676e-09,1.7367353842056e-09,2.0325270799282e-09,-0.0011822688771982,0.0011822759043643,-0.0011822684967486,0.0011822755239322,-0.0011822680098828,0.001182275206906,-0.0011822676338132,0.0011822748308455,-0.0010259568900561,0.0010259605168232,-0.0010259571358022,0.0010259607625926,1.7367346861655e-09,2.0325299777955e-09,4.3898711230282e-09,-6.2368463393547e-10,-0.00090542204464626,0.00090542690071907,-0.0011822680241176,0.0011822767366803,-0.0011822693498217,0.0011822746916222,-0.0011822671590102,0.0011822760414259,-0.0011822684846772,0.0011822739963364,-0.0010259544316542,0.0010259629510151,-0.00102595959419,0.0010259583284067,-0.00092045814572372,0.00092046007617321,-0.00092045957223297,0.0009204620608934,2.1534980248194e-09,2.1535046057949e-09,-0.0012180258847176,0.0012180307192011,-3.945295248056e-10,4.6519523268732e-09,-0.0015342302130406,0.0015342339452537,-0.0015342274499523,0.001534234571829,-0.0015342291447855,0.0015342328769968,-0.0015342264983989,0.0015342336202697,-0.0011732430442534,0.0011732488403501,-0.0011732412372839,0.0011732470333229,0.67617106509292,125301,3014,0.0037669882575952,0.0037669882575944,0.0050616845712383,27.120029902873,0.00013216023922299,0.00013216023922299,0.00013216023922299,3101782.1689946,0.012676849626802
31419200,0.99997055374544,0.01519411061024,0.0046613462357835,0.0046613462357825,0.0058714181386739,-0.00090762140201583,0.00090762558165649,1.6273082328505e-09,1.6273148528836e-09,1.4918129046692e-09,1.7787078483285e-09,-0.0011891791965472,0.0011891856287225,-0.0011891788530576,0.0011891852852504,-0.0011891783751987,0.0011891849769913,-0.0011891780357751,0.0011891846375775,-0.0010271279120896,0.0010271309874172,-0.0010271281606153,0.0010271312359667,1.4918120997151e-09,1.7787108239748e-09,4.0872804750985e-09,-8.3265537929643e-10,-0.0009076214020132,0.0009076255816586,-0.0011891783605566,0.0011891864455386,-0.001189179689041,0.0011891844684402,-0.0011891775412589,0.0011891857958546,-0.0011891788697058,0.0011891838187249,-0.0010271255004811,0.0010271333774638,-0.001027130572209,0.0010271288459265,-0.00092279100470543,0.00092279243050697,-0.00092279242334133,0.00092279439482719,1.9621220000492e-09,1.962128556643e-09,-0.001216008288505,0.0012160126146396,-5.3582636265184e-10,4.4146167437388e-09,-0.0015373779134559,0.0015373812339559,-0.0015373752425757,0.0015373818876943,-0.0015373769048864,0.0015373802253844,-0.0015373743477018,0.0015373809928143,-0.0011722065418826,0.0011722118988152,-0.0011722047362214,0.0011722100930959,0.69952705654839,125301,3014,0.0037761436716655,0.0037761436716644,0.0050533723317994,28.437380648719,0.00014269904518975,0.00014269904518975,0.00014269904518975,2981289.0605843,0.012687047760763
31919200,0.99997585722184,0.015194198381639,0.0046613756245527,0.0046613756245518,0.0058714471325343,-0.00090869274048112,0.00090869796570505,2.0315103683704e-09,2.0315170078734e-09,1.8776525399597e-09,2.1744341096335e-09,-0.0011911820455229,0.0011911893881938,-0.0011911816513213,0.0011911889940097,-0.0011911811541664,0.0011911886664077,-0.001191180764738,0.0011911882769887,-0.0010281386570325,0.0010281425993346,-0.0010281389053531,0.0010281428476789,1.8776516986077e-09,2.1744371318077e-09,4.4823966499787e-09,-4.193674412496e-10,-0.00090869274047859,0.0009086979657072,-0.0011911812094522,0.0011911902017236,-0.0011911824873849,0.0011911881804859,-0.0011911803205001,0.0011911894823382,-0.0011911815983956,0.001191187461069,-0.0010281362527926,0.0010281449777313,-0.0010281413095787,0.0010281404692884,-0.00092417952057795,0.00092418178850738,-0.00092418095726917,0.00092418378349368,2.1876475491337e-09,2.1876541315797e-09,-0.0012154336400262,0.0012154386067936,-3.0776898335411e-10,4.6300054729963e-09,-0.0015379643085408,0.0015379681632955,-0.0015379615499804,0.0015379687228831,-0.0015379632090557,0.0015379670638086,-0.0015379605669226,0.0015379677398193,-0.001172206405934,0.0011722122511817,-0.0011722046143074,0.0011722104594969,0.71926751588325,125301,3014,0.0037805978142181,0.0037805978142173,0.0050510047081419,29.269481866374,0.00014935585493099,0.00014935585493099,0.00014935585493099,2948836.6485123,0.012693678527312
32419200,0.99998021177125,0.015194277603617,0.0046614021629018,0.0046614021629008,0.0058714732778147,-0.00090783347933441,0.00090784026428426,2.626379459675e-09,2.6263860953547e-09,2.4493693954463e-09,2.777005366157e-09,-0.001190941753576,0.0011909504609476,-0.0011909413595636,0.0011909500669527,-0.0011909408524031,0.0011909497513629,-0.0011909404631555,0.0011909493621248,-0.0010273417892645,0.0010273470997836,-0.0010273420401811,0.001027347350724,2.4493685088997e-09,2.7770083342759e-09,5.0766779560146e-09,1.7608932638423e-10,-0.00090783347933191,0.00090784026428637,-0.0011909409177135,0.0011909512742925,-0.001190942195419,0.0011909492536137,-0.0011909400189409,0.0011909505671043,-0.0011909412966092,0.0011909485463942,-0.001027339385608,0.001027349477611,-0.0010273444438234,0.0010273449729027,-0.00092345273106362,0.00092345632026758,-0.00092345414642666,0.00092345834543043,2.460088941648e-09,2.4600955349466e-09,-0.0012136154329288,0.0012136211964183,-4.4755695126588e-11,4.9052232389442e-09,-0.0015369311023414,0.0015369356183062,-0.0015369283402521,0.0015369361830788,-0.0015369300036844,0.0015369345196474,-0.0015369273578716,0.0015369352006922,-0.0011706317194882,0.0011706382179366,-0.0011706299264346,0.0011706364248247,0.78912843059552,125301,3014,0.0037770338911439,0.0037770338911431,0.0050434751794078,29.299131563339,0.00014959305250671,0.00014959305250671,0.00014959305250671,2917366.5379916,0.012678841226276
32919200,0.99998375944646,0.015194334023383,0.0046614210891796,0.0046614210891786,0.0058714918450242,-0.00090603418935507,0.00090604149606689,2.8272208700196e-09,2.8272275150813e-09,2.6494618749054e-09,2.9683671730822e-09,-0.001190968221443,0.0011909773821531,-0.0011909677735347,0.0011909769342624,-0.0011909672450497,0.0011909765839475,-0.0011909668024603,0.0011909761413677,-0.001025590686269,0.0010255964424421,-0.0010255908968384,0.0010255966530353,2.6494610387848e-09,2.9683701778967e-09,5.2831613027293e-09,3.7128890280245e-10,-0.00090603418935253,0.00090604149606905,-0.0011909673813556,0.0011909781971383,-0.0011909686136149,0.0011909761192833,-0.0011909664076396,0.0011909774016062,-0.0011909676398617,0.0011909753237199,-0.0010255882760058,0.001025598824397,-0.0010255933070874,0.0010255942710866,-0.00092193520482993,0.00092193924109208,-0.00092193658984212,0.00092194121613936,2.6119225897343e-09,2.6119291858269e-09,-0.0012094979284149,0.0012095041155129,1.0048578693407e-10,5.0598755409961e-09,-0.0015350564948003,0.0015350613598595,-0.0015350536287592,0.0015350618274669,-0.0015350552955847,0.0015350601606422,-0.0015350525480836,0.0015350607467853,-0.0011670883412124,0.0011670951933737,-0.0011670866187541,0.0011670934708568,0.69092321609742,125301,3014,0.0037695686314355,0.0037695686314348,0.0050264268053052,29.174570865336,0.00014859656692269,0.00014859656692269,0.00014859656692269,2842534.9665099,0.012646482074279
33419200,0.99998669112295,0.015194386570021,0.0046614387224955,0.0046614387224945,0.0058715091250314,-0.00090721812486721,0.0009072249558725,2.6516773781351e-09,2.6516840361082e-09,2.4752412847543e-09,2.7846238274329e-09,-0.0011900910084871,0.0011900997558752,-0.0011900905296824,0.0011900992770881,-0.0011900899996199,0.0011900989132668,-0.0011900895265475,0.001190098440204,-0.0010265292321916,0.0010265345458098,-0.0010265294352586,0.0010265347489004,2.4752403682252e-09,2.7846267397429e-09,5.1140003368782e-09,1.8936273366126e-10,-0.00090721812486476,0.00090722495587457,-0.0011900901644753,0.0011901005727459,-0.0011900913736872,0.0011900984602233,-0.0011900891584921,0.0011900997330177,-0.0011900903676669,0.0011900976204638,-0.0010265268148057,0.0010265369326448,-0.0010265318526304,0.0010265323620714,-0.00092301977101746,0.00092302336792035,-0.0009230211707283,0.00092302534066963,2.5698781305166e-09,2.5698847344619e-09,-0.0012118723294144,0.0012118783579118,5.4091149611333e-11,5.0218773684318e-09,-0.0015348442651101,0.0015348490056625,-0.0015348413449443,0.0015348494253927,-0.0015348430148936,0.0015348477554443,-0.0015348402151879,0.0015348482956304,-0.0011691249902049,0.0011691317097077,-0.0011691232781774,0.0011691299976218,0.7756730877268,125301,3014,0.0037744808325941,0.0037744808325934,0.0050362542292389,29.316149347066,0.00014972919477653,0.00014972919477653,0.00014972919477653,2942754.0421691,0.012666350097097
33919200,0.9999891822149,0.015194430378274,0.0046614534168593,0.0046614534168584,0.0058715235445565,-0.00090706449690559,0.0009070700900551,2.1826219890729e-09,2.1826286369581e-09,2.0214865685023e-09,2.3086376370725e-09,-0.0011919425096255,0.0011919501581335,-0.001191942039246,0.0011919496877715,-0.0011919415228722,0.0011919493235833,-0.0011919410582038,0.0011919488589245,-0.0010264058576307,0.0010264100682992,-0.001026406085189,0.0010264102958813,2.0214852248204e-09,2.308640086722e-09,4.6482329165257e-09,-2.829815257023e-10,-0.00090706449690367,0.0009070700900566,-0.0011919416645827,0.0011919509761399,-0.0011919428842828,0.0011919488697696,-0.0011919406807031,0.0011919501444597,-0.0011919419003658,0.0011919480380581,-0.001026403437077,0.0010264124581322,-0.0010264085057296,0.0010264079060535,-0.00092304845503605,0.00092305097928376,-0.00092304990740402,0.00092305296807838,2.3264023555344e-09,2.3264089356275e-09,-0.0012097750708119,0.0012097804081215,-1.847940869469e-10,4.7796193656592e-09,-0.0015351600538228,0.0015351641964995,-0.0015351571509101,0.0015351646310775,-0.001535158819657,0.0015351629623318,-0.0015351560368521,0.0015351635170135,-0.0011675837046913,0.0011675898348666,-0.0011675819598617,0.0011675880899785,0.76303060755975,125301,3014,0.0037738369685505,0.0037738369685497,0.0050275774881147,30.070011014388,0.00015576008811511,0.00015576008811511,0.00015576008811511,2835504.2069053,0.012656290955141
34419200,0.99999134619182,0.015194466731983,0.0046614656267546,0.0046614656267536,0.0058715354784751,-0.00091010415523112,0.00091010810963802,1.5404902338749e-09,1.5404968868481e-09,1.408333323369e-09,1.6935039955419e-09,-0.0011951503540487,0.0011951565938297,-0.0011951500217116,0.0011951562615102,-0.0011951495504959,0.0011951559604009,-0.0011951492221425,0.001195155632057,-0.0010288350224074,0.0010288379131775,-0.0010288352778186,0.0010288381686125,1.4083325259884e-09,1.69350681184e-09,3.9600391180513e-09,-8.7905027943659e-10,-0.00091010415522863,0.0009101081096401,-0.0011951495317217,0.0011951573972598,-0.0011951508440312,0.0011951554580861,-0.0011951487301788,0.0011951567658368,-0.0011951500424511,0.0011951548266317,-0.0010288326505193,0.0010288402638062,-0.0010288376496929,0.0010288358179898,-0.0009262539502274,0.00092625522419845,-0.00092625537085211,0.00092625718899318,1.9165502070597e-09,1.9165568031523e-09,-0.001211644002668,0.0012116482050015,-5.4095695626867e-10,4.3288520082338e-09,-0.0015369449042284,0.0015369481508693,-0.0015369422829776,0.0015369488005872,-0.0015369439184633,0.0015369471651024,-0.0015369414091255,0.0015369479267293,-0.0011699158053668,0.0011699210386644,-0.00116991399173,0.0011699192249691,0.7279005807102,125301,3014,0.0037864525922981,0.0037864525922973,0.0050353316057014,31.479832544365,0.00016703866035492,0.00016703866035492,0.00016703866035492,2846530.7943984,0.012689692588009
34919200,0.99999325093409,0.015194500093372,0.0046614768343293,0.0046614768343283,0.0058715464247149,-0.00091445339968201,0.00091445579132786,9.3663959580328e-10,9.3664624695304e-10,8.3270460404888e-10,1.1029325705935e-09,-0.001198362013168,0.0011983668850649,-0.0011983617574251,0.0011983666293396,-0.001198361316352,0.0011983663584404,-0.0011983610637923,0.0011983661058901,-0.0010331325582725,0.0010331341546856,-0.0010331328117066,0.0010331344081435,8.3270376576766e-10,1.1029354168742e-09,3.2765805176353e-09,-1.4032929164772e-09,-0.00091445339967952,0.00091445579132998,-0.0011983612208253,0.0011983676622963,-0.0011983625497606,0.0011983658521142,-0.0011983605256189,0.0011983671372774,-0.0011983618545168,0.0011983653270639,-0.0010331302660976,0.0010331364304515,-0.0010331351038676,0.0010331321323836,-0.00093051378231859,0.00093051386397447,-0.00093051517224536,0.00093051577882489,1.5781768525158e-09,1.5781834450202e-09,-0.0012164008029656,0.0012164040467022,-7.9249074801046e-10,3.9121565083335e-09,-0.0015403243974692,0.0015403268996222,-0.0015403219711685,0.0015403276321401,-0.001540323550579,0.0015403260527304,-0.0015403212317938,0.0015403268927596,-0.001174530080293,0.0011745345204686,-0.001174528246399,0.0011745326865162,0.7580868656877,125301,3014,0.0038044918065151,0.0038044918065143,0.0050550397239803,33.573431718002,0.00018378745374402,0.00018378745374402,0.00018378745374402,2858978.1004377,0.012746171335409
35419200,0.99999489773007,0.015194525677038,0.0046614854338505,0.0046614854338496,0.005871554809338,-0.00091909021398813,0.00091909199249282,7.0104863997468e-10,7.0105530100648e-10,6.0705348044758e-10,8.7167111292819e-10,-0.0012039448558052,0.0012039491969197,-0.0012039446306772,0.0012039489718092,-0.0012039441997081,0.0012039487112594,-0.0012039439776764,0.0012039484892371,-0.0010373667679917,0.0010373678584503,-0.0010373670202337,0.001037368110716,6.0705273363317e-10,8.7167410966753e-10,2.9534178514199e-09,-1.551312121036e-09,-0.00091909021398554,0.00091909199249489,-0.0012039440930539,0.0012039499449855,-0.0012039453934213,0.0012039482237493,-0.0012039434385227,0.0012039494608875,-0.0012039447388531,0.0012039477396199,-0.0010373645618156,0.0010373700490231,-0.0010373692263956,0.0010373659201492,-0.00093517539650349,0.00093517504685035,-0.00093517677356382,0.00093517694193247,1.4282045869185e-09,1.4282111583059e-09,-0.0012193953097758,0.001219398139232,-8.5409714977129e-10,3.6749573659427e-09,-0.0015444145214071,0.0015444167360057,-0.0015444122062037,0.0015444174623133,-0.0015444137269604,0.0015444159415574,-0.0015444115174513,0.0015444167735547,-0.0011778217859151,0.0011778258434923,-0.0011778199482229,0.0011778240057414,0.67379056419235,125301,3014,0.0038237380865363,0.0038237380865352,0.0050674712803541,35.929489848826,0.00020263591879061,0.00020263591879061,0.00020263591879061,2819517.26262,0.012797761483896
35919200,0.99999622970747,0.015194547902938,0.0046614929060008,0.0046614929059998,0.0058715620909373,-0.00092288593676136,0.00092288932847506,1.3196346516849e-09,1.3196412955701e-09,1.1990445582912e-09,1.4789528712403e-09,-0.001205050764563,0.0012050564999957,-0.0012050504589955,0.0012050561944455,-0.0012050500007225,0.0012050559060627,-0.001205049699403,0.0012050556047525,-0.0010414669011172,0.0010414693230411,-0.0010414671503723,0.0010414695723198,1.1990437373075e-09,1.4789555734684e-09,3.5383958926218e-09,-8.991182639783e-10,-0.0009228859367589,0.00092288932847709,-0.0012050500078525,0.0012050572364701,-0.0012050512156988,0.001205055457977,-0.0012050492461539,0.0012050566446751,-0.0012050504539631,0.0012050548661506,-0.0010414647251752,0.0010414714759772,-0.0010414693263004,0.0010414674193895,-0.00093880480305875,0.00093880576362549,-0.00093880620422524,0.00093880770211115,1.7885572650974e-09,1.7885638580136e-09,-0.0012253207712562,0.0012253246202549,-4.7109138568742e-10,3.9997843453044e-09,-0.0015471883919005,0.0015471914683784,-0.0015471859548729,0.0015471920372785,-0.001547187457838,0.0015471905343143,-0.0015471851313013,0.001547191213701,-0.0011832472577197,0.0011832520822651,-0.0011832454394295,0.0011832502639165,0.72183945217265,125301,3014,0.0038394793448829,0.0038394793448821,0.005092006645636,37.536382781638,0.00021549106225311,0.00021549106225311,0.00021549106225311,2874368.2657183,0.01285445661238
36419200,0.99999721201818,0.015194563866234,0.00466149826766,0.0046614982676591,0.0058715673309146,-0.00092214628569385,0.00092215298634797,2.5837049729984e-09,2.5837115775319e-09,2.4141760388292e-09,2.7590461972531e-09,-0.001205787467001,0.001205796101353,-0.0012057871611547,0.0012057957955241,-0.0012057866799467,0.0012057955308382,-0.0012057863783662,0.0012057952292671,-0.001040719369645,0.0010407246959084,-0.0010407196229262,0.0010407249492132,2.4141752873104e-09,2.7590489754403e-09,4.8000641759267e-09,3.6735410954523e-10,-0.00092214628569135,0.00092215298635009,-0.0012057867110074,0.0012057968370237,-0.0012057879171411,0.0012057950598595,-0.0012057859261039,0.0012057962686558,-0.0012057871322004,0.0012057944914602,-0.0010407171960567,0.0010407268464899,-0.0010407217965005,0.0010407227986377,-0.00093815355196285,0.00093815731863337,-0.00093815490608144,0.00093815931842119,2.3558640920279e-09,2.355870674121e-09,-0.001223306285733,0.0012233117966557,7.7446040311924e-11,4.5717531480207e-09,-0.0015469554491707,0.0015469599051399,-0.0015469530024771,0.0015469604812014,-0.0015469545138559,0.0015469589698235,-0.0015469521775521,0.0015469596562705,-0.0011815214590114,0.0011815276438442,-0.0011815196413407,0.0011815258261151,0.70447270805609,125301,3014,0.0038364188790642,0.0038364188790634,0.0050836751203684,37.488410027652,0.00021510728022122,0.00021510728022122,0.00021510728022122,2814335.778529,0.012839844099262
36919200,0.99999791968091,0.015194574436445,0.0046615018221525,0.0046615018221515,0.0058715707921408,-0.0009209952912944,0.0009210037751322,3.289175252395e-09,3.2891818628695e-09,3.0779974702901e-09,3.4071637526332e-09,-0.0012047896698828,0.0012047998608933,-0.0012047891165644,0.0012047993075923,-0.0012047885623339,0.0012047989233538,-0.001204788016305,0.0012047983773343,-0.0010393080298184,0.0010393146756574,-0.0010393082795813,0.0010393149254441,3.0779967247037e-09,3.4071666042961e-09,5.6273882440348e-09,9.5097062023427e-10,-0.00092099529129189,0.00092100377513433,-0.0012047888601177,0.0012048006359902,-0.0012047899263222,0.0012047985325015,-0.0012047877562315,0.0012047997021096,-0.0012047888223988,0.0012047975985894,-0.0010393057302703,0.0010393169338678,-0.0010393105791153,0.0010393126672398,-0.00093703931797401,0.00093704426760039,-0.00093704080832178,0.00093704635904307,2.8944950627509e-09,2.8945016647845e-09,-0.0012218920237012,0.0012218989959008,4.8738691745835e-10,5.2204693332453e-09,-0.0015455809719109,0.0015455865683565,-0.0015455779958696,0.0015455867810149,-0.0015455795902207,0.0015455851866646,-0.0015455767390852,0.0015455855242245,-0.0011802197727594,0.0011802270969153,-0.0011802180239323,0.0011802253480296,0.64727478642577,125301,3014,0.0038316508369805,0.0038316508369798,0.0050778188424215,36.861628806581,0.00021009303045265,0.00021009303045265,0.00021009303045265,2835276.3984802,0.012824254997195
37419200,0.99999846585605,0.0151945826914,0.0046615045975988,0.0046615045975978,0.0058715734962034,-0.00092311379690322,0.00092311904200663,2.0359061764638e-09,2.0359128070554e-09,1.8811564298594e-09,2.1799018778763e-09,-0.0012052172095439,0.0012052245797649,-0.0012052168124264,0.0012052241826648,-0.0012052163194476,0.0012052238599772,-0.0012052159273903,0.0012052234679293,-0.0010416174377913,0.0010416213918072,-0.0010416176959708,0.0010416216500105,1.8811556906335e-09,2.1799047529778e-09,4.3980931400782e-09,-3.2627246724922e-10,-0.0009231137969007,0.00092311904200874,-0.0012052164014696,0.0012052253637272,-0.0012052176204934,0.0012052233987085,-0.0012052155139214,0.0012052246464838,-0.0012052167329079,0.0012052226814335,-0.0010416151194024,0.0010416236816491,-0.0010416200143457,0.0010416193601743,-0.00093900710240468,0.00093900943890343,-0.00093900854888757,0.00093901144764481,2.2086961383197e-09,2.2087027220009e-09,-0.0012255200164444,0.0012255250373738,-2.0202648370019e-10,4.5618578101106e-09,-0.0015472348321559,0.0015472388054107,-0.0015472321318786,0.0015472393085988,-0.0015472337336124,0.0015472377068656,-0.0015472311493155,0.0015472383260299,-0.0011834547014264,0.0011834605325615,-0.0011834528969648,0.0011834587280416,0.654624582255,125301,3014,0.0038404271086581,0.0038404271086573,0.0050928350608838,37.674001103546,0.00021659200882837,0.00021659200882837,0.00021659200882837,2872668.5977479,0.012857217557807
37919200,0.99999886867829,0.015194588361188,0.0046615065030315,0.0046615065030305,0.005871575355126,-0.00092310867476404,0.00092311550732005,2.6410034517162e-09,2.6410100618084e-09,2.4634566304292e-09,2.7927214806434e-09,-0.0012057084854495,0.0012057172407436,-0.0012057080885181,0.0012057168438296,-0.0012057075847915,0.0012057165324332,-0.0012057071929164,0.0012057161405675,-0.0010415829863776,0.0010415883327712,-0.0010415832448082,0.0010415885912255,2.4634558490154e-09,2.7927243134668e-09,5.0044406516896e-09,2.7757449636231e-10,-0.00092310867476156,0.00092311550732214,-0.0012057076770012,0.0012057180251179,-0.0012057088969593,0.0012057160594613,-0.0012057067788893,0.0012057173193498,-0.0012057079988101,0.0012057153536617,-0.0010415806668279,0.0010415906239335,-0.0010415855643439,0.0010415863000691,-0.0009389951651832,0.00093899884710474,-0.00093899658724115,0.00093900088217934,2.4799189546488e-09,2.4799255328008e-09,-0.0012252312255368,0.0012252370439551,5.8140524935108e-11,4.8376921497373e-09,-0.0015475287577241,0.001547533386952,-0.001547526052085,0.0015475338957095,-0.0015475276592845,0.0015475322885108,-0.001547525069575,0.0015475329131937,-0.0011832148425644,0.0011832213271768,-0.001183213040115,0.0011832195246691,0.61069305856327,125301,3014,0.0038404107073736,0.0038404107073728,0.0050916449080754,37.676477906332,0.00021661182325065,0.00021661182325065,0.00021661182325065,2854830.1417271,0.012855988917537
38419200,0.99999915990115,0.015194593051479,0.004661508077946,0.004661508077945,0.0058715768955884,-0.00092257459974743,0.00092258275032962,3.1602490623545e-09,3.160255668241e-09,2.9536887677474e-09,3.281554467293e-09,-0.0012041688162993,0.0012041787369479,-0.0012041682784137,0.0012041781990797,-0.0012041677290074,0.0012041778203368,-0.001204167197856,0.0012041772891947,-0.0010411779069137,0.0010411842700211,-0.0010411781603303,0.0010411845234613,2.953687929068e-09,3.2815573398578e-09,5.6328532569371e-09,6.8765319003902e-10,-0.00092257459974493,0.00092258275033173,-0.0012041679642739,0.0012041795569801,-0.001204169130432,0.0012041773790535,-0.0012041668803669,0.0012041786437502,-0.0012041680464878,0.0012041764657921,-0.0010411754767866,0.0010411866617093,-0.0010411805904434,0.0010411821317792,-0.00093834422546101,0.00093834880982557,-0.00093834571729081,0.00093835090218581,2.8477699141721e-09,2.8477765048532e-09,-0.0012258821234866,0.0012258889335318,3.1156700881234e-10,5.3087466909621e-09,-0.0015470034931709,0.0015470088928536,-0.001547000455563,0.0015470092185125,-0.0015470021371976,0.0015470075368787,-0.0015469992244544,0.001547007987398,-0.0011835527906785,0.0011835600881097,-0.0011835510275195,0.0011835583248925,0.69725492786569,125301,3014,0.0038381938251138,0.003838193825113,0.0050943326450299,37.197974945972,0.00021278379956778,0.00021278379956778,0.00021278379956778,2890631.3999486,0.012854205783141
38880000,0.99999936327108,0.015194596450015,0.0046615092182762,0.0046615092182753,0.0058715780134633,-0.00092176176913144,0.00092176887046606,2.7591808860356e-09,2.7591891263721e-09,2.566485495821e-09,2.8803217472948e-09,-0.0012061517665813,0.0012061607446757,-0.0012061512639918,0.0012061602421362,-0.0012061507325866,0.0012061598773681,-0.0012061502364292,0.0012061593812039,-0.001040225911862,0.0010402313622085,-0.0010402261938958,0.0010402316444041,2.5665598454867e-09,2.8804670651441e-09,5.2432872552153e-09,2.75146515005e-10,-0.00092176176891348,0.00092176887044042,-0.0012061509126378,0.0012061615687323,-0.0012061521174629,0.0012061594178082,-0.0012061498818029,0.0012061607047162,-0.0012061510866419,0.0012061585538626,-0.0010402234714285,0.0010402337663839,-0.0010402286337387,0.0010402292398347,-0.00093775197057937,0.00093775565931165,-0.00093775350032804,0.00093775776841823,2.6081531310063e-09,2.6081605659556e-09,-0.0012222360436626,0.0012222421980593,6.8027046673361e-11,5.0808234988886e-09,-0.0015467508580878,0.0015467556735137,-0.0015467478807927,0.0015467560688541,-0.0015467495671848,0.0015467543824047,-0.0015467467119195,0.0015467548997482,-0.0011804842787331,0.0011804910318333,-0.0011804824741395,0.0011804892274034,0.72416034322602,125301,3014,0.003834830736613,0.0038348307361091,0.0050792513594775,37.193674448977,0.00021274939559181,0.00021274939559181,0.00021274939559181,2806810.9870956,0.012832162174296
