time,ASR_ext,ASR_strain,ASR_strain_xx,ASR_strain_yy,ASR_strain_zz,disp_x_101,disp_x_102,disp_x_103,disp_x_104,disp_x_105,disp_x_106,disp_x_p1_neg,disp_x_p1_pos,disp_x_p2_neg,disp_x_p2_pos,disp_x_p3_neg,disp_x_p3_pos,disp_x_p4_neg,disp_x_p4_pos,disp_x_p5_neg,disp_x_p5_pos,disp_x_p6_neg,disp_x_p6_pos,disp_y_101,disp_y_102,disp_y_103,disp_y_104,disp_y_105,disp_y_106,disp_y_p1_neg,disp_y_p1_pos,disp_y_p2_neg,disp_y_p2_pos,disp_y_p3_neg,disp_y_p3_pos,disp_y_p4_neg,disp_y_p4_pos,disp_y_p5_neg,disp_y_p5_pos,disp_y_p6_neg,disp_y_p6_pos,disp_y_p7_neg,disp_y_p7_pos,disp_y_p8_neg,disp_y_p8_pos,disp_z_101,disp_z_102,disp_z_103,disp_z_104,disp_z_105,disp_z_106,disp_z_p1_neg,disp_z_p1_pos,disp_z_p2_neg,disp_z_p2_pos,disp_z_p3_neg,disp_z_p3_pos,disp_z_p4_neg,disp_z_p4_pos,disp_z_p5_neg,disp_z_p5_pos,disp_z_p6_neg,disp_z_p6_pos,humidity,ndof,nelem,strain_xx,strain_yy,strain_zz,temp,thermal_strain_xx,thermal_strain_yy,thermal_strain_zz,vonmises,vstrain
2419200,0,0,0,0,0,0,0,0,0,0,0,0,0,0,0,0,0,0,0,0,0,0,0,0,0,0,0,0,0,0,0,0,0,0,0,0,0,0,0,0,0,0,0,0,0,0,0,0,0,0,0,0,0,0,0,0,0,0,0,0,0,0,0,0,0,0,0,0,0,0,0,0,0,0,0
3419200,0.15846859706322,0.0027326333822834,0.00091087779409446,0.00091087779409446,0.00091087779409446,-0.00023781693468662,0.00023644578452988,-2.2078577749823e-06,1.0215296422322e-06,-1.9177348992946e-06,6.9991730457718e-07,-0.00024767253335292,0.00024430414664767,-0.00024650355634372,0.00024496626024218,-0.00024703337617876,0.00024515832302023,-0.0002457056770209,0.00024630056854624,-0.00024513790227601,0.0002414368390381,-0.00024099856514074,0.0002444214991572,1.1618265942995e-06,-1.471517100183e-06,1.1994372681717e-06,-9.5016797725255e-07,-0.00023721666173487,0.00023708312297455,-0.00024522393711443,0.00024645368930431,-0.00024597115415531,0.00024592008391114,-0.00024593963686694,0.0002455310768305,-0.0002468865440549,0.00024497976222954,-0.0002418072069243,0.00024375836599617,-0.00024462053131596,0.00024229597233653,-0.00023828104017807,0.0002396232836095,-0.00024096203759616,0.00023700483156734,3.042082320947e-06,-2.0901352824437e-07,-0.00025760950340434,0.00026017675041647,3.1315821751487e-08,2.1844400837089e-06,-0.00026433538567889,0.00026732039467743,-0.00026349303468709,0.00026801007297005,-0.00026539770055094,0.0002663562669769,-0.00026466993121781,0.0002667044430387,-0.00025685274769692,0.00025711807373234,-0.00025382340545945,0.00026116739654027,0.78396790081718,134640,3014,0.00098756210775871,0.00098763924282522,0.0010781336749535,31.785376137825,0.0001694830091026,0.0001694830091026,0.0001694830091026,2563746.5138347,0.0030580054073574
4419200,0.34816274551436,0.0057943350272282,0.0018472415629075,0.0018472822929528,0.002099811171368,-0.00044506476253762,0.00044340200747993,-3.2676081554277e-06,1.954596496861e-06,-3.0856894573575e-06,1.7532211960277e-06,-0.00048282182658406,0.00047777131351911,-0.00048087451684585,0.00047844014385068,-0.00048176030588449,0.00047932755637057,-0.0004793909149746,0.00048126141095,-0.00047942559723776,0.00047395863154569,-0.00047190268987488,0.00047884859881583,2.0204120350669e-06,-2.877078749245e-06,1.9156299983103e-06,-1.4241631465716e-06,-0.00044444209594219,0.00044408374706097,-0.00047900252777214,0.00048086760842432,-0.00048019678524221,0.00048020139511399,-0.00048022121632952,0.00047920647155992,-0.00048192551640698,0.00047850336282384,-0.00047384353760227,0.00047697217296254,-0.0004788698390538,0.0004751727956933,-0.00044777822149065,0.0004502261959565,-0.00045281772317712,0.00044523111126483,5.6730276365156e-06,4.2460466914811e-07,-0.00053814072232916,0.00054353122242042,5.8683719543549e-07,3.9782252189344e-06,-0.00057813545654208,0.00058425385964853,-0.00057670610219687,0.00058533496786177,-0.00057989194777286,0.00058284458681455,-0.00057879374300726,0.00058302992688062,-0.00052391231009627,0.00052543054873852,-0.00051874218345985,0.00053261969850174,0.77882048870245,134640,3014,0.0018493278099375,0.0018494506847942,0.0022508715604606,33.598604737625,0.000183988837901,0.000183988837901,0.000183988837901,3931526.8822765,0.0059674255589781
5419200,0.54768388737371,0.0088688587953419,0.0027633132936447,0.0027634575664016,0.0033420879352956,-0.00064075702895522,0.00064200532439177,-4.008469548637e-07,1.8984735637177e-06,-1.6192351084829e-06,3.2179423436522e-06,-0.00072052591313788,0.00071940370365436,-0.00071968743655651,0.00071943907140629,-0.00071933266497031,0.00072082147921222,-0.0007181798912525,0.0007218024638558,-0.00070940661554527,0.00070962049112848,-0.00070540294740585,0.00071189130299444,2.0197133618329e-06,-2.8068436108978e-06,-8.7610387317545e-07,9.1824018416233e-07,-0.00064167008906512,0.00064118303041146,-0.00071966825957782,0.00071984193861648,-0.00071911925171036,0.00072073189090826,-0.00072102321620862,0.00071811455714076,-0.00072079003041603,0.00071900334938161,-0.0007099807614799,0.00070721945763284,-0.00070941481713954,0.00071004221872857,-0.00064512143775545,0.00064934537689724,-0.00064983202893191,0.00064447995735277,1.212851093389e-06,-1.1119806718196e-06,-0.00083047700122094,0.00083006968263956,3.7344146928751e-07,-1.3572299546931e-06,-0.00092633951959347,0.00092730398160185,-0.00092671655101287,0.00092677425771246,-0.00092705234205359,0.00092677875025864,-0.00092778839548576,0.00092564599067656,-0.00079708826119315,0.00079379302080755,-0.00079444896399312,0.00079738738233503,0.77319620037979,134640,3014,0.0026691272876891,0.002669315854851,0.0034532445724423,36.26659219334,0.00020533273754672,0.00020533273754672,0.00020533273754672,4730180.3924551,0.0088306011995566
6419200,0.70436362879152,0.011073141616366,0.0034118192905368,0.0034120402038832,0.0042492821219465,-0.00076713925135963,0.00076722704126931,-6.0967902009208e-07,9.8965037347425e-07,-2.1302534336876e-06,2.5553860146001e-06,-0.00089625952364478,0.00089427482973963,-0.00089570397951382,0.00089404666057225,-0.00089512364728001,0.000895626396524,-0.00089418186252613,0.00089641895866157,-0.0008569374868987,0.00085663618218057,-0.00085348230055153,0.00085827233313405,1.9554439066849e-06,-2.6994498825953e-06,-1.536193687326e-06,1.7914722565363e-06,-0.00076742665434303,0.00076706597530714,-0.00089523109171353,0.00089493638340179,-0.00089414433875993,0.00089632367109371,-0.00089649077345635,0.00089333969151977,-0.00089575882633081,0.00089467874350207,-0.00085779288141467,0.00085398835211129,-0.00085579838501192,0.0008583147340148,-0.00076833234309429,0.00077290218442012,-0.00077301144905661,0.00076819813021827,1.2812442198797e-06,-3.38584647233e-07,-0.00102771027685,0.0010280943771598,1.4628064070556e-06,-1.7632452532887e-06,-0.0011828320579164,0.0011848732602641,-0.001183690211135,0.0011838607785592,-0.0011833097976733,0.0011846162492406,-0.0011845656601943,0.0011829418694558,-0.00097706248703762,0.0009748029722052,-0.00097512030617539,0.00097785750649399,0.7291435696702,134640,3014,0.0031920710582955,0.0031923334830039,0.0042733173734923,36.738372753091,0.00020910698202472,0.00020910698202472,0.00020910698202472,4852172.1023377,0.010715046846892
7419200,0.83052133011658,0.012775978422934,0.0039270180782495,0.0039272649553863,0.0049216953892982,-0.00085802609665604,0.00085839096161605,-7.6122877390174e-07,1.4030585885815e-06,-2.0724505270543e-06,2.7604726743014e-06,-0.0010338025600271,0.0010318912378072,-0.0010330995762049,0.0010319002321257,-0.0010326151224709,0.0010332579857027,-0.0010315097737104,0.0010342614585265,-0.00096200028011628,0.00096135767779152,-0.00095796593196481,0.0009636597865766,2.0542164342694e-06,-2.7383543626435e-06,-1.3461854891524e-06,1.6421815221256e-06,-0.00085843215577126,0.00085812292103915,-0.0010327463034135,0.0010326578871002,-0.0010317444382346,0.0010339154287155,-0.0010340674605476,0.0010310431242635,-0.0010334181628632,0.0010322177868053,-0.00096256405181277,0.00095907425017402,-0.00096085525582727,0.00096296471647732,-0.0008579758110617,0.00086263853287937,-0.00086288224164619,0.00085783263235877,1.4521853287139e-06,-7.3463410436053e-07,-0.0011649737317573,0.0011651487673532,1.1937355894932e-06,-1.677819258201e-06,-0.0013745620731924,0.0013764497892697,-0.0013753269850561,0.0013755737968335,-0.0013751940990485,0.0013759704881125,-0.0013763657607426,0.0013744724743721,-0.001102726109805,0.0010997585033381,-0.0011001548383808,0.0011033633417078,0.71234622003331,134640,3014,0.0035704029102726,0.0035706894601774,0.0048420168627036,40.760780597514,0.00024128624478012,0.00024128624478012,0.00024128624478012,4816165.0078589,0.012055729026679
8419200,0.90685408980928,0.013784009848074,0.0042393055011469,0.0042395618068283,0.0053051425400989,-0.00089808668458799,0.00089837645174216,-7.2824296353427e-07,1.2567895221781e-06,-2.1246677045997e-06,2.7488625467654e-06,-0.0011089530220327,0.0011070559180854,-0.0011083443461647,0.0011070081892789,-0.0011077676367645,0.0011084264930475,-0.0011067329509685,0.0011093653752633,-0.0010090478774528,0.0010084120256684,-0.0010052055909752,0.001010597209023,2.0948759556521e-06,-2.7350462070997e-06,-9.898315209435e-07,1.3094454188955e-06,-0.00089843828655533,0.00089816437132292,-0.001107791404316,0.001107966134826,-0.0011069857932819,0.0011089833540418,-0.0011091118501334,0.0011063459542932,-0.0011086642163169,0.0011072663592581,-0.0010093278037011,0.0010065054979116,-0.0010082806717754,0.0010096895948917,-0.00089869821058557,0.00090323291005714,-0.00090363979970369,0.00089832328640742,1.452178220274e-06,-5.5353989403164e-07,-0.0012228888489322,0.0012232575350125,9.4487643807397e-07,-1.242607564465e-06,-0.0014708618835218,0.0014726570042446,-0.0014714011147461,0.0014720164160989,-0.0014714190705945,0.00147224245631,-0.0014723746008129,0.0014709954275632,-0.001157068231708,0.0011546656363371,-0.0011545558810589,0.0011580034990288,0.69848786892822,134640,3014,0.0037368321884439,0.0037371218645566,0.0050824204579491,41.433084654172,0.00024666467723338,0.00024666467723338,0.00024666467723338,4496875.3071108,0.012636275995967
9419200,0.94915872100958,0.014332804690837,0.0044131604201322,0.0044134190548725,0.0055062252158326,-0.00091189536395225,0.00091219538219429,-7.6039275663925e-07,1.284459993201e-06,-2.1291460715318e-06,2.7744271498305e-06,-0.0011460309835313,0.0011441298167579,-0.0011454217714227,0.0011441071697066,-0.0011448394427714,0.0011455102385161,-0.0011438008784034,0.0011464659759474,-0.001025172642322,0.0010244600781407,-0.0010213059943553,0.0010267290200403,2.1150664294833e-06,-2.7420118120235e-06,-8.3635440600489e-07,1.1590540219729e-06,-0.00091224797939241,0.00091198521576882,-0.0011448255596882,0.0011451221220588,-0.0011441157285923,0.0011460364334832,-0.0011461537486203,0.0011434897894711,-0.0011457928936244,0.0011443074794909,-0.0010252985608273,0.0010227693627537,-0.0010245120884954,0.0010256156431031,-0.00091369136836381,0.0009181661755283,-0.00091865539572474,0.00091321816016812,1.5121732360973e-06,-5.5308385839422e-07,-0.0012389544084885,0.0012393986862808,8.4071473844829e-07,-1.0473286825505e-06,-0.0015109857005903,0.0015127792522156,-0.0015114319109858,0.0015122366351263,-0.0015115452925267,0.0015123408109258,-0.0015124266681889,0.0015112075232111,-0.0011738813225309,0.001171567127309,-0.0011712605195815,0.0011749062843374,0.67994985009733,134640,3014,0.0037943494706839,0.0037946452668861,0.0051491361272696,41.145479049439,0.00024436383239551,0.00024436383239551,0.00024436383239551,4160583.8478444,0.012820501538584
10419200,0.97033172980219,0.014616714513012,0.0045046593778596,0.0045049194525474,0.0056071356826046,-0.00091179268559302,0.00091205694600948,-6.6938985227093e-07,1.1978587362455e-06,-1.9727927413989e-06,2.5599058437671e-06,-0.0011580562110957,0.0011562562643163,-0.0011574802540124,0.0011561950413659,-0.0011569575630827,0.0011575130413324,-0.0011559751448508,0.001158410711689,-0.0010254511149872,0.0010249243058804,-0.001021822147451,0.0010269365700704,1.9564958560117e-06,-2.5293252239273e-06,-7.2375224336273e-07,1.0734147350848e-06,-0.00091210218355052,0.00091188916895611,-0.0011568744520016,0.001157193311079,-0.0011562375675993,0.0011580231290661,-0.0011581089546118,0.001155681572173,-0.0011578017547612,0.0011564340241536,-0.0010255172311361,0.0010232927884501,-0.0010248807418751,0.0010259721711795,-0.00091512888301275,0.00091920514791219,-0.00091967334019367,0.00091468701349854,1.4614562109794e-06,-4.266145111852e-07,-0.0012351938360169,0.0012357114636785,7.853912777562e-07,-9.0647690501989e-07,-0.001519528033899,0.0015212642798878,-0.0015199078264444,0.0015207974097283,-0.0015200517730436,0.0015208830355174,-0.0015208575591336,0.0015198216262075,-0.001172047788193,0.0011701153438203,-0.0011697608423354,0.0011733280307608,0.69329668179238,134640,3014,0.0037939302438544,0.0037942245206601,0.0051337027769742,38.100583821454,0.00022000467057163,0.00022000467057163,0.00022000467057163,3907091.904644,0.012804104483376
11419200,0.98256127020325,0.014778643794325,0.0045573661526468,0.0045576267892789,0.0056636508523988,-0.00091254843781477,0.00091282515589752,-6.7530722779087e-07,1.2131588345619e-06,-2.0343531374411e-06,2.6367072334849e-06,-0.0011689555522698,0.0011671168539085,-0.001168375265813,0.0011670645085551,-0.0011678123842813,0.0011684161106348,-0.0011668218928419,0.0011693234902939,-0.0010257883090417,0.0010252896060504,-0.0010221371255097,0.0010273256331621,2.0212739661306e-06,-2.6030278655407e-06,-6.3408850766751e-07,9.7445813646565e-07,-0.00091286806689224,0.00091264742107291,-0.0011677078295603,0.0011681254650492,-0.0011671269194456,0.0011688921061415,-0.0011689866366079,0.0011665706381396,-0.0011687391903893,0.0011672541699026,-0.0010258081670412,0.0010237228348086,-0.0010253556624807,0.0010261980865477,-0.00091696019284705,0.00092111329117278,-0.00092165044392697,0.00091644316881588,1.4905959398555e-06,-4.1863231257077e-07,-0.0012315629411047,0.0012321191697409,7.144034723115e-07,-7.9142088575496e-07,-0.0015253539273518,0.001527072205618,-0.001525672870384,0.0015266672565069,-0.0015258854898786,0.0015266824983947,-0.0015266299044885,0.0015256878275177,-0.0011708398110068,0.0011689906556736,-0.0011685242146608,0.0011722105826464,0.67906583900308,134640,3014,0.003797156538725,0.0037974511819843,0.0051187492178812,37.628197098791,0.00021622557679033,0.00021622557679033,0.00021622557679033,3700907.5694971,0.012795595178322
12419200,0.98957649605981,0.014874330650882,0.0045887294050227,0.004588990316111,0.0056966109297488,-0.00091064500041704,0.00091092518874151,-7.0508346094766e-07,1.2401518728804e-06,-2.0504103796598e-06,2.6631454398432e-06,-0.0011717242863347,0.0011698693496102,-0.0011711427735536,0.0011698346438482,-0.0011705790097066,0.0011711816700267,-0.0011695740321881,0.0011721135858264,-0.0010239936185745,0.0010234059717481,-0.0010202640213059,0.0010255378433355,2.0194561130058e-06,-2.6471358364425e-06,-6.8699898917941e-07,9.8014621510384e-07,-0.00091098504572641,0.00091072604468608,-0.0011705019281973,0.0011708788567539,-0.0011698998591798,0.0011716700517972,-0.0011717859091997,0.0011693108853418,-0.0011715145263526,0.0011700159631432,-0.0010240404702411,0.0010218307135567,-0.0010235199712063,0.0010243577437866,-0.00091593502952595,0.0009201101377711,-0.00092068978339174,0.00091537807637004,1.5176376094411e-06,-4.4861938411588e-07,-0.001226176084458,0.0012267319125377,7.4228025580624e-07,-8.198823297905e-07,-0.001524606380005,0.0015263672772853,-0.0015249497755782,0.0015259501748851,-0.001525135624323,0.0015259514820509,-0.0015259285144918,0.0015249476854413,-0.0011670571426637,0.0011650966321519,-0.0011646359384527,0.0011683746560359,0.69355173629271,134640,3014,0.0037892875492441,0.0037895801598826,0.0050964314665009,36.804267200467,0.00020963413760373,0.00020963413760373,0.00020963413760373,3581571.8619601,0.012757085679159
13419200,0.99349486248301,0.014926550809921,0.0046059109833551,0.0046061720523084,0.0057144677742579,-0.000907203166921,0.00090746425183074,-8.4162312891325e-07,1.3631110039604e-06,-2.0170990867133e-06,2.6011777404822e-06,-0.0011729649595702,0.001171026060651,-0.0011722835695782,0.0011710804099048,-0.0011718384001897,0.0011723046269355,-0.0011707428002261,0.0011733190402893,-0.0010197032013091,0.0010188517482219,-0.0010157385802213,0.0010212070414237,2.0021641889165e-06,-2.568710500879e-06,-6.8475728039134e-07,1.0362138110807e-06,-0.00090750792656636,0.00090730192492524,-0.0011716876928141,0.0011720665065542,-0.0011710687584964,0.0011728703822951,-0.0011729499656783,0.0011705319838783,-0.0011726645627767,0.0011712489672924,-0.0010195965577189,0.001017426439841,-0.001019024527381,0.0010200074205198,-0.00091299466889299,0.00091715136804294,-0.00091764339156955,0.00091253146128124,1.6434910434485e-06,-5.8147987755003e-07,-0.0012187240173095,0.001219271507583,7.6599187176263e-07,-8.504799211726e-07,-0.001521202352458,0.0015230521368792,-0.0015215592731718,0.0015226132150858,-0.001521836938942,0.0015225565980277,-0.0015226223839978,0.0015215302001967,-0.0011613120885558,0.0011591010671132,-0.0011586768426595,0.0011626292250239,0.67550368708399,134640,3014,0.0037749806684469,0.0037752764511255,0.0050655468542415,34.794597944036,0.00019355678355229,0.00019355678355229,0.00019355678355229,3453169.3853358,0.012696890098777
14419200,0.99575747373824,0.014956364616187,0.0046157569002189,0.0046160180575601,0.0057245896584078,-0.00090224385269088,0.00090249528012557,-8.9714763441818e-07,1.4104484705472e-06,-1.9836858570523e-06,2.557263751511e-06,-0.0011690634695922,0.0011671038186703,-0.0011683475957874,0.0011671949483604,-0.0011679607752231,0.001168359085784,-0.0011668334570511,0.0011694061418516,-0.0010144887067335,0.0010135120531514,-0.0010104315262165,0.0010159652551714,1.9702568358303e-06,-2.522902663732e-06,-6.7774840840069e-07,1.0405258336321e-06,-0.000902537930288,0.00090234386270151,-0.0011677814173493,0.0011681491574394,-0.0011671652127843,0.0011689492480121,-0.001169021516167,0.0011666388656779,-0.0011687335619624,0.001167356824606,-0.0010143002258753,0.0010121659500433,-0.001013727147041,0.0010147497476483,-0.00090846680748073,0.00091255124478858,-0.00091302626374868,0.00090801905299767,1.6952433275101e-06,-6.3297550492491e-07,-0.001211041755273,0.0012115907917703,7.6465760847397e-07,-8.4937571808198e-07,-0.0015145994833539,0.0015164864097272,-0.0015149563603882,0.0015160492940564,-0.0015152656262498,0.0015159548672746,-0.0015160549251259,0.0015149314015184,-0.0011544947938662,0.0011521847173432,-0.0011517649713019,0.0011558177324854,0.66543916061311,134640,3014,0.0037543717297278,0.0037546679956422,0.0050337138001059,32.64390633966,0.00017635125071728,0.00017635125071728,0.00017635125071728,3385660.2426928,0.012622911329725
15419200,0.99693573341359,0.014972819127549,0.0046211997029687,0.0046214608972196,0.0057301585273609,-0.00089276952797476,0.00089300387463526,-9.6837456248278e-07,1.4631769216379e-06,-1.9378396464752e-06,2.493681763865e-06,-0.0011596408593747,0.0011576575782676,-0.0011588841624524,0.0011577914966415,-0.0011585682421002,0.0011588742332979,-0.0011574000215812,0.0011599602648174,-0.0010042930608461,0.0010031432814752,-0.0010001091663339,0.0010056989190241,1.9087167460733e-06,-2.4749347728647e-06,-7.3153059073529e-07,1.0723297048083e-06,-0.00089306113113173,0.00089285494616227,-0.0011583843852456,0.001158680426461,-0.0011577375227732,0.0011595116251833,-0.0011595860219797,0.0011572087532782,-0.0011592764220978,0.0011579574134369,-0.0010040503781387,0.0010018470471776,-0.0010033918876775,0.0010045039319224,-0.0008991144585059,0.00090311422563576,-0.00090356881947274,0.00089867916029794,1.7578699061286e-06,-6.9447171201181e-07,-0.0011979617721643,0.0011985082830951,8.0802393242203e-07,-8.8993227082577e-07,-0.0015016002909478,0.0015035524784654,-0.0015019891306203,0.0015030876994645,-0.0015023129591978,0.0015029760513716,-0.0015031296513343,0.001501929805961,-0.0011421407421985,0.001139694366629,-0.0011392926758166,0.0011434354106914,0.70138893884169,134640,3014,0.0037149916087448,0.0037152879339988,0.0049795016816166,27.069722384384,0.00013175777907507,0.00013175777907507,0.00013175777907507,3297097.06028,0.012488262035655
16419200,0.99769214638726,0.014983027468282,0.0046245852181308,0.004624846441496,0.0057335958086556,-0.00088891719839579,0.00088915527488534,-1.0126445782542e-06,1.5070990496381e-06,-1.9326025810902e-06,2.4901300945936e-06,-0.0011590469296808,0.0011570567539704,-0.0011582734656402,0.0011572183300015,-0.0011579916758945,0.001158269101254,-0.001156799009681,0.0011593864733155,-0.00099943434794206,0.00099816974485389,-0.00099513287442296,0.0010008174808643,1.8808604083183e-06,-2.4955221547918e-06,-7.8926999037469e-07,1.0819822209749e-06,-0.00088923048535161,0.00088898239957323,-0.001157835133654,0.0011580573483713,-0.0011571585962504,0.0011589220911054,-0.0011590202040688,0.0011565928052567,-0.0011586846406835,0.001157364522825,-0.00099918069294979,0.00099687736705298,-0.00099844694755066,0.00099958175476928,-0.00089525280508889,0.00089923979251344,-0.00089974273795885,0.00089478892505977,1.8512392005586e-06,-6.8978233452825e-07,-0.0011906163087801,0.0011912567714114,8.8990684752909e-07,-8.6994097117895e-07,-0.0014971006026064,0.0014992053122403,-0.0014975288769829,0.0014987170334455,-0.0014978263148568,0.0014985864428433,-0.0014986938802059,0.0014975294312138,-0.001135745543323,0.0011332824404221,-0.0011327859492852,0.0011371053321833,0.67697638692446,134640,3014,0.003699015836315,0.0036993074630323,0.0049492747407096,24.418335341461,0.00011054668273168,0.00011054668273168,0.00011054668273168,3188962.2585437,0.012425369157148
17419200,0.99820013042401,0.014990086889182,0.0046269319161828,0.004627193155545,0.0057359618174539,-0.00088336466951973,0.00088362856319949,-9.9724089895078e-07,1.525528622519e-06,-1.9087852650905e-06,2.5015192704327e-06,-0.0011528965394705,0.0011509093000588,-0.0011521108034231,0.0011510753264472,-0.0011518224465712,0.0011521188341337,-0.0011506243998578,0.001153231199058,-0.00099355601403999,0.00099234420573447,-0.0009892810282728,0.00099498281204992,1.8975055729321e-06,-2.4651159939585e-06,-7.9138575499015e-07,1.1209028941682e-06,-0.00088367341184243,0.00088346290299785,-0.0011516592126562,0.0011519123756866,-0.0011509758809168,0.0011527772977939,-0.001152855244098,0.0011504476509713,-0.0011525162728207,0.0011512339180586,-0.00099334728011462,0.00099103157807863,-0.00099257503077568,0.00099378376837371,-0.00089001406786869,0.00089402605849897,-0.00089443782869357,0.00088960643655431,1.8280001239507e-06,-7.160360410405e-07,-0.0011831791871956,0.0011837737629402,8.8992197484795e-07,-9.1495047924923e-07,-0.0014890690181629,0.0014911271020164,-0.0014894935710524,0.0014906324853789,-0.0014898140203023,0.0014905214917035,-0.001490663917316,0.0014894426232135,-0.0011288829651944,0.0011263595024515,-0.0011259527937561,0.0011301947035495,0.69394003766025,134640,3014,0.0036760063162718,0.0036763035174661,0.0049183488930356,21.980202071741,9.1041616573927e-05,9.1041616573927e-05,9.1041616573927e-05,3153978.5400326,0.012347449408373
18419200,0.9985157168363,0.014994403901617,0.0046283685762361,0.0046286298282771,0.0057374054971036,-0.00087632570694601,0.00087655749769257,-1.0373197146448e-06,1.5318108690918e-06,-1.9320746967843e-06,2.4829064535057e-06,-0.0011470733313414,0.0011450485398552,-0.0011462715756515,0.0011452277852444,-0.0011460087990885,0.0011462600981151,-0.0011447957869377,0.0011473946452888,-0.00098532498062842,0.00098403267481565,-0.00098101142498703,0.0009867381953135,1.91871380692e-06,-2.4488306016134e-06,-7.9115471103118e-07,1.169155813584e-06,-0.00087659983904445,0.00087642562583204,-0.0011458067373325,0.0011460766561958,-0.001145113191935,0.0011469569773036,-0.001147008379095,0.001144608936899,-0.0011466422445633,0.0011454056134542,-0.000985076470473,0.00098275601695449,-0.00098425644507181,0.00098557277374761,-0.00088290316998835,0.00088696709311708,-0.00088734065028137,0.00088255799058446,1.8141597164794e-06,-7.7515680205432e-07,-0.0011728079069536,0.0011733332984476,8.7195769769496e-07,-9.8005615597031e-07,-0.0014796301394837,0.0014816577298461,-0.0014800670582399,0.001481142690038,-0.0014803830710551,0.0014810377304072,-0.0014812529003173,0.0014799399304501,-0.001119294348467,0.0011166298606375,-0.0011163089137912,0.0011205143916726,0.68267067276954,134640,3014,0.0036467108076098,0.0036470062713255,0.0048752297868854,17.477991042013,5.5023928336105e-05,5.5023928336105e-05,5.5023928336105e-05,3064625.853655,0.012244510916153
19419200,0.99877702970655,0.014998202749145,0.0046296347209356,0.00462989597916,0.0057386720490489,-0.00087486622479841,0.00087509843756681,-1.0454719804864e-06,1.5392217840685e-06,-1.9317402191034e-06,2.4830686921968e-06,-0.0011459373598646,0.0011439083648113,-0.0011451309980099,0.0011440935554101,-0.0011448735455003,0.001145120503652,-0.0011436550197505,0.0011462599161452,-0.0009839033963989,0.00098259341418907,-0.00097957625047353,0.00098531887320724,1.9191998857204e-06,-2.4478339296997e-06,-7.7811402019517e-07,1.1586853704916e-06,-0.00087514024165659,0.00087496710561255,-0.0011446660447437,0.0011449423553412,-0.0011439782429194,0.0011458141831582,-0.0011458670972795,0.0011434751395172,-0.0011455072790531,0.0011442637725167,-0.00098362932406107,0.00098133987063699,-0.00098283772248183,0.00098413431199541,-0.00088177592001301,0.00088583322514968,-0.00088621464793919,0.00088142666581329,1.8231129553431e-06,-7.8200974698838e-07,-0.001170235078103,0.0011707639006428,8.6121435022172e-07,-9.6780287144135e-07,-0.0014773773426803,0.0014794081912028,-0.001477807280787,0.0014789013977792,-0.0014781338642197,0.0014787821985562,-0.0014789986260254,0.0014776928077509,-0.0011172254704776,0.0011145526189464,-0.0011142216833481,0.0011184527462875,0.72158242883005,134640,3014,0.0036406511631498,0.0036409475152427,0.0048645720463162,17.551568034682,5.5612544277452e-05,5.5612544277452e-05,5.5612544277452e-05,3043380.470366,0.012221451345195
20419200,0.99900444518059,0.015001545933674,0.0046307494971003,0.0046310107606059,0.0057397856759675,-0.00087641617606084,0.0008766583022346,-1.0614437092173e-06,1.5653595957901e-06,-1.9629123642706e-06,2.5247378290154e-06,-0.001150704722194,0.0011486474139086,-0.0011498848937933,0.0011488465812062,-0.0011496175757914,0.0011498832222649,-0.0011483846335838,0.0011510371802498,-0.00098481516814145,0.00098349730917797,-0.00098044538176877,0.00098626490695986,1.953360044415e-06,-2.4872237939786e-06,-7.6455875629709e-07,1.1403028213511e-06,-0.00087669731824183,0.00087651962751809,-0.0011494047600926,0.0011497108940167,-0.0011487268396623,0.0011505719474182,-0.0011506293373046,0.0011482196956104,-0.0011502802622992,0.0011489966634059,-0.00098453724139901,0.00098225150109687,-0.00098377492967927,0.000985010754526,-0.00088340915157633,0.00088752467600316,-0.00088792329284128,0.00088304446983987,1.8500603056291e-06,-7.9688341269702e-07,-0.0011701434299648,0.0011706848798369,8.5267910043243e-07,-9.4491267077802e-07,-0.0014800704044243,0.0014821167573702,-0.0014804898018553,0.0014816205187201,-0.0014808407445664,0.0014814764951343,-0.0014816951004152,0.0014803980998703,-0.0011178257363012,0.0011151347819751,-0.0011147796573593,0.0011190758328766,0.72910480519312,134640,3014,0.0036471221036523,0.0036474179937785,0.0048642409474692,18.597312401887,6.3978499215098e-05,6.3978499215098e-05,6.3978499215098e-05,2988878.1743099,0.012234282868108
21419200,0.99915916069807,0.015003760343776,0.0046314890236085,0.0046317502910272,0.0057405210291403,-0.0008703977522206,0.00087063882071802,-1.0773327447736e-06,1.5820848528002e-06,-1.9318403406161e-06,2.4930506682213e-06,-0.0011450638926565,0.0011430123685322,-0.0011442341082674,0.0011432238480023,-0.0011439937974243,0.0011442278838532,-0.0011427525775056,0.001145388677216,-0.00097833983025952,0.00097697620574324,-0.00097393676236704,0.00097975998925169,1.9258962039847e-06,-2.4516948671598e-06,-7.0617481664384e-07,1.0868486956754e-06,-0.00087067429506321,0.00087050469725631,-0.0011437574394869,0.0011440859590762,-0.0011431133920314,0.0011449118573418,-0.0011449577193088,0.0011426197824716,-0.0011446503784198,0.00114336037515,-0.0009779788757308,0.00097582385195239,-0.0009773102052709,0.00097846031866241,-0.0008776075060353,0.00088163363126121,-0.00088206014531998,0.00087720677928532,1.8897646177509e-06,-7.8994164203963e-07,-0.0011614197910285,0.0011620062278785,8.2514552326981e-07,-8.6151006888542e-07,-0.0014718465742834,0.0014739073066507,-0.0014722320212044,0.0014734486088152,-0.0014726305698365,0.0014732524678117,-0.00147344602526,0.0014722173447908,-0.0011096714330971,0.0011070420257158,-0.0011066025106979,0.0011110085014008,0.70951084536568,134640,3014,0.0036221279966445,0.0036224238097884,0.0048281797486039,15.225615175098,3.7004921400785e-05,3.7004921400785e-05,3.7004921400785e-05,2925058.9785961,0.012147183428354
22419200,0.99928723548535,0.015005614700618,0.004632109103423,0.0046323703743544,0.0057411352228409,-0.00086824448053365,0.00086847380013033,-1.0856845505497e-06,1.5765233296022e-06,-1.9210186436947e-06,2.468862328744e-06,-0.0011426638872079,0.0011406141075121,-0.0011418326448141,0.0011408262911511,-0.0011416077469706,0.0011418178585867,-0.001140363852294,0.0011429831881486,-0.00097625271383459,0.00097485617144566,-0.00097185126182751,0.00097765697842648,1.9105412104665e-06,-2.4319187012763e-06,-6.8386593479232e-07,1.06890633515e-06,-0.00086851397710134,0.00086834682776573,-0.0011413538667859,0.0011416885320366,-0.0011407249112801,0.0011424985396606,-0.0011425476376167,0.0011402300617427,-0.0011422464707777,0.0011409562281482,-0.00097584325869017,0.00097374677418977,-0.0009752257997752,0.00097635381999316,-0.0008758103012916,0.00087979009039231,-0.0008802250006002,0.00087540729199819,1.8789284557667e-06,-8.0349578855892e-07,-0.0011582609648384,0.0011588248560131,7.9055729788758e-07,-8.5698808264223e-07,-0.0014684987468587,0.0014705286002185,-0.0014688692198529,0.0014700824089076,-0.001469280425625,0.0014698757647176,-0.0014700864836392,0.0014688489383318,-0.0011069889882613,0.0011043366265528,-0.0011039089251782,0.0011083093134456,0.71604798158448,134640,3014,0.00361315952545,0.0036134555508775,0.004815034564753,14.858990590166,3.407192472133e-05,3.407192472133e-05,3.407192472133e-05,2909863.0390391,0.012115705686549
23419200,0.99940096780095,0.015007233479082,0.0046326507039937,0.0046329119776817,0.0057416707974061,-0.00086863673491749,0.00086886568324012,-1.0961883629276e-06,1.5848321869894e-06,-1.9343597856747e-06,2.4815660449231e-06,-0.0011442759175325,0.0011422152259823,-0.0011434411929057,0.0011424326516525,-0.0011432142030478,0.0011434269010867,-0.0011419638982414,0.0011446000911583,-0.00097658243278192,0.0009751624119109,-0.00097215370404969,0.00097799124877319,1.9211866270549e-06,-2.4475728279204e-06,-6.8145507145501e-07,1.0645800060485e-06,-0.00086890764917915,0.00086873718900337,-0.001142959654946,0.0011433002921035,-0.0011423320664135,0.0011441090120477,-0.001144160249652,0.0011418336621119,-0.0011438597896248,0.0011425563877765,-0.00097616418801597,0.00097406382017994,-0.00097555151170443,0.00097666334539214,-0.00087641639265643,0.00088041661749297,-0.00088086784058209,0.0008760058771961,1.8917434727675e-06,-8.0942514262149e-07,-0.0011576696319095,0.0011582405185611,7.9075357757021e-07,-8.5003606106403e-07,-0.0014690515297282,0.0014710920043997,-0.0014694201547423,0.001470648612753,-0.001469835604144,0.001470432866874,-0.0014706434969764,0.0014694085180329,-0.0011068498900301,0.0011041810041591,-0.0011037395107472,0.0011081737141711,0.70404422372856,134640,3014,0.0036147932361866,0.0036150890448057,0.0048126056191503,15.705719495704,4.0845755965631e-05,4.0845755965631e-05,4.0845755965631e-05,2886336.2396039,0.01211657335779
24419200,0.99950833047693,0.015008788853032,0.0046331712298014,0.0046334325059349,0.0057421851172959,-0.00087044306562723,0.00087067457182609,-1.0903102209614e-06,1.5812931234807e-06,-1.9430678113254e-06,2.4943318029191e-06,-0.001146639347734,0.0011445751009183,-0.0011458070301123,0.0011447907653692,-0.0011455700592152,0.0011457952333737,-0.001144322839591,0.0011469651324807,-0.00097870902092536,0.00097731158699316,-0.00097429726226789,0.00098013186106273,1.9326142278109e-06,-2.4573919002329e-06,-6.6616900460627e-07,1.0500024135077e-06,-0.00087071520664237,0.00087054515746117,-0.0011453125715111,0.0011456699588474,-0.0011446939612551,0.0011464678785118,-0.0011465207400607,0.0011441963197925,-0.0011462292912254,0.0011449075704567,-0.00097829075433105,0.00097621592908449,-0.0009777114287844,0.00097878614066578,-0.00087859481532581,0.00088260716150623,-0.00088306402046315,0.00087817510745984,1.8828473554457e-06,-8.0909079345716e-07,-0.0011593562504348,0.0011599203383329,7.7201220718146e-07,-8.3972155223069e-07,-0.0014712675188559,0.0014732909112881,-0.0014716261057048,0.0014728566025378,-0.0014720508580898,0.0014726347440209,-0.0014728466311452,0.001471620772638,-0.0011089244841655,0.0011062686468316,-0.0011058265608705,0.0011102485153412,0.71549404736864,134640,3014,0.0036223031225723,0.003622599567447,0.0048195821189101,17.881578696146,5.8252629569167e-05,5.8252629569167e-05,5.8252629569167e-05,2889532.1318143,0.012138836399533
25419200,0.99960621393269,0.015010279163507,0.0046336696663025,0.0046339309442934,0.0057426785529107,-0.00087275219920861,0.00087298830967893,-1.0881299394943e-06,1.584191228252e-06,-1.9624394254792e-06,2.5174775018389e-06,-0.0011506121742947,0.0011485391608557,-0.0011497796347167,0.0011487546559822,-0.0011495289233785,0.0011497720585762,-0.0011482813518355,0.001150941793093,-0.00098102352016193,0.00097964469171654,-0.00097660731467428,0.00098246306107923,1.9507003995699e-06,-2.4819356061337e-06,-6.5608833705775e-07,1.0346089197443e-06,-0.00087302909249602,0.00087285399786226,-0.0011492724518165,0.00114964723143,-0.0011486616280075,0.0011504368513718,-0.0011504942745193,0.0011481597691373,-0.0011502113123448,0.0011488632245673,-0.00098061075653448,0.00097854070701817,-0.0009800540606905,0.00098108584553195,-0.00088113855242031,0.00088517863401546,-0.00088565207827539,0.00088070577786549,1.8884813374065e-06,-8.0405098035194e-07,-0.0011610998418784,0.0011616736030326,7.6496342425932e-07,-8.2143165341567e-07,-0.0014745461456741,0.0014765692680619,-0.0014748966922302,0.001476143689103,-0.0014753293115649,0.0014759131799957,-0.0014761172973289,0.0014749075913654,-0.0011110913076151,0.0011084543762763,-0.0011079927264424,0.0011124367264774,0.75065157206611,134640,3014,0.0036319102406861,0.0036322063816339,0.0048268397527926,19.926561128835,7.4612489030681e-05,7.4612489030681e-05,7.4612489030681e-05,2873944.9684364,0.0121656588657
26419200,0.99968647073045,0.01501152863847,0.004634087641658,0.004634348921087,0.0057430920757255,-0.00087317512150926,0.00087341717471902,-1.0974881740447e-06,1.5992178588618e-06,-1.9834039991983e-06,2.5441884231844e-06,-0.0011532074900182,0.0011511204768403,-0.0011523701136308,0.0011513436386438,-0.0011521132883833,0.0011523687237007,-0.0011508585677705,0.0011535488323945,-0.0009811076269401,0.0009797170111358,-0.00097665715239058,0.00098256522860025,1.969948678468e-06,-2.5106329294299e-06,-6.3168706891195e-07,1.0053926061197e-06,-0.00087345769462159,0.00087327647530768,-0.0011518523389603,0.0011522513171744,-0.0011512574595216,0.0011530262284472,-0.0011530855914344,0.0011507494662571,-0.0011528187399139,0.0011514338901453,-0.00098067257256482,0.00097863595945492,-0.00098016318583071,0.00098112322069769,-0.00088170689490378,0.00088577141349011,-0.00088628143293521,0.00088124378114668,1.9061319290803e-06,-8.102770831114e-07,-0.001159995664205,0.0011605806258402,7.4512725345884e-07,-7.87801602969e-07,-0.0014755167414241,0.0014775427922642,-0.0014758534898748,0.0014771338507786,-0.0014763015348724,0.0014768751655211,-0.0014770804713526,0.0014758900975831,-0.0011105070984791,0.0011078731674233,-0.0011073782956027,0.0011118797978692,0.76692112534531,134640,3014,0.0036336900173884,0.0036339846844945,0.0048223046001397,20.393280605255,7.8346244842042e-05,7.8346244842042e-05,7.8346244842042e-05,2829766.7250068,0.012164714862585
27419200,0.99975645653828,0.015012576697899,0.0046344387168516,0.0046346999976424,0.0057434379834048,-0.00087475373837622,0.00087499997433961,-1.0942664290005e-06,1.6016250365483e-06,-1.9858031127058e-06,2.5521087308588e-06,-0.0011563481278438,0.0011542557742347,-0.0011555071312089,0.0011544800729698,-0.0011552448245244,0.0011555079969631,-0.0011539898253071,0.0011566850853939,-0.00098281481432484,0.00098144905061105,-0.00097837920804847,0.00098428552415368,1.9779158581853e-06,-2.5132410604432e-06,-6.2106774508915e-07,9.9256790504389e-07,-0.00087503769877726,0.00087485829777978,-0.0011549776158066,0.0011553945103509,-0.0011543924885489,0.0011561574919177,-0.0011562194796546,0.0011538873516242,-0.001155961826743,0.0011545656306784,-0.00098238617662828,0.00098036347696625,-0.00098190063258285,0.00098282960694043,-0.00088375570958847,0.00088782353809231,-0.00088831904962009,0.00088329380638499,1.9077836302502e-06,-8.0810211055158e-07,-0.0011606888302322,0.0011612781126286,7.3607990819984e-07,-7.7403347043099e-07,-0.0014777560105105,0.0014797760695508,-0.0014780813228979,0.0014793760489751,-0.0014785473572367,0.001479111278227,-0.0014793104142912,0.001478132275441,-0.0011118717140778,0.0011092559241634,-0.0011087546551824,0.0011132600602457,0.73788855822192,134640,3014,0.0036402650765295,0.00364056059698,0.0048251958857631,22.249487793028,9.3195902344224e-05,9.3195902344224e-05,9.3195902344224e-05,2809150.0914335,0.012180969711366
28419200,0.99981398274524,0.015013484053363,0.004634742601842,0.0046350038836185,0.0057437375679029,-0.00087494524531952,0.00087518916714439,-1.0892492948927e-06,1.5937452468501e-06,-1.978126072586e-06,2.5450134495162e-06,-0.0011561688860435,0.0011540801722122,-0.0011553319914651,0.0011543019174913,-0.0011550684767774,0.001155328910553,-0.0011538178276445,0.0011565023260511,-0.0009834165442961,0.00098205584596502,-0.00097900275911755,0.00098488559889456,1.9735123954365e-06,-2.5027056571144e-06,-6.2319429270521e-07,9.9813392629757e-07,-0.00087522632606771,0.00087505009280879,-0.0011548011107581,0.0011552150033799,-0.0011542140150219,0.001155978152327,-0.0011560397408841,0.0011537112672898,-0.0011557791630771,0.0011543906205084,-0.00098299730894402,0.00098097372782556,-0.00098250503960011,0.0009834453486705,-0.00088432496080578,0.00088838308083688,-0.00088886615234308,0.00088386701973996,1.8983536660691e-06,-8.0463049390225e-07,-0.0011607438864461,0.0011613299000469,7.3787670799251e-07,-7.8029228549854e-07,-0.0014775141533529,0.0014795294265088,-0.001477839255793,0.0014791279525272,-0.0014783043036238,0.0014788704468902,-0.0014790649454367,0.0014778890555777,-0.0011122530701107,0.0011096411235556,-0.0011091485204645,0.0011136281679849,0.7752083479988,134640,3014,0.00364105463963,0.0036413495866265,0.0048254093475181,23.439579026492,0.00010271663221194,0.00010271663221194,0.00010271663221194,2817294.5012374,0.012182760165291
