time,ASR_ext,ASR_strain,ASR_strain_xx,ASR_strain_yy,ASR_strain_zz,disp_x_101,disp_x_102,disp_x_103,disp_x_104,disp_x_105,disp_x_106,disp_x_p1_neg,disp_x_p1_pos,disp_x_p2_neg,disp_x_p2_pos,disp_x_p3_neg,disp_x_p3_pos,disp_x_p4_neg,disp_x_p4_pos,disp_x_p5_neg,disp_x_p5_pos,disp_x_p6_neg,disp_x_p6_pos,disp_y_101,disp_y_102,disp_y_103,disp_y_104,disp_y_105,disp_y_106,disp_y_p1_neg,disp_y_p1_pos,disp_y_p2_neg,disp_y_p2_pos,disp_y_p3_neg,disp_y_p3_pos,disp_y_p4_neg,disp_y_p4_pos,disp_y_p5_neg,disp_y_p5_pos,disp_y_p6_neg,disp_y_p6_pos,disp_y_p7_neg,disp_y_p7_pos,disp_y_p8_neg,disp_y_p8_pos,disp_z_101,disp_z_102,disp_z_103,disp_z_104,disp_z_105,disp_z_106,disp_z_p1_neg,disp_z_p1_pos,disp_z_p2_neg,disp_z_p2_pos,disp_z_p3_neg,disp_z_p3_pos,disp_z_p4_neg,disp_z_p4_pos,disp_z_p5_neg,disp_z_p5_pos,disp_z_p6_neg,disp_z_p6_pos,humidity,ndof,nelem,strain_xx,strain_yy,strain_zz,temp,thermal_strain_xx,thermal_strain_yy,thermal_strain_zz,vonmises,vstrain
2419200,0,0,0,0,0,0,0,0,0,0,0,0,0,0,0,0,0,0,0,0,0,0,0,0,0,0,0,0,0,0,0,0,0,0,0,0,0,0,0,0,0,0,0,0,0,0,0,0,0,0,0,0,0,0,0,0,0,0,0,0,0,0,0,0,0,0,0,0,0,0,0,0,0,0,0
3419200,0.15846859742842,0.0027326333187174,0.00091087777290581,0.00091087777290581,0.00091087777290581,-0.00023708430409419,0.00023707897326204,2.4387518506204e-07,-2.4909373883446e-07,7.0409003735362e-09,-1.3109612825178e-08,-0.00024560005529452,0.00024576618226766,-0.00024576432314492,0.00024560144326202,-0.00024560645249884,0.0002457590532665,-0.00024577107964561,0.0002455949343677,-0.00024391955123497,0.00024439142878496,-0.00024440267713962,0.00024390946432061,-7.8840308353603e-09,1.2253287861608e-08,-1.2228297795229e-07,1.2611849505679e-07,-0.00023707968192507,0.00023708357378075,-0.00024572422971255,0.00024563959817105,-0.00024564408141373,0.00024572295218353,-0.00024571785159653,0.00024564656886764,-0.00024563798647827,0.0002457298081546,-0.00024427130257878,0.00024403839392603,-0.00024403065313559,0.00024428450635344,-0.00023852714268001,0.00023859396405719,-0.00023850909313991,0.00023861520122753,-2.8874002243098e-07,2.0416859186903e-07,-0.00025887006644052,0.00025878537375504,7.8916029045148e-08,-1.6734923395977e-07,-0.00026640557762115,0.00026623961586264,-0.00026648711307952,0.00026615745251431,-0.00026624103273557,0.00026640380019868,-0.00026632275711085,0.00026632198084558,-0.0002559897017707,0.00025630539087338,-0.00025647359954309,0.00025582406931218,0.78396788080328,134640,3014,0.00098735521814,0.00098735517272374,0.0010778615564329,31.785376163658,0.00016948300930927,0.00016948300930927,0.00016948300930927,2581509.564568,0.0030572400109223
4419200,0.34815233033023,0.0057934049709113,0.0018460576589392,0.0018460575793294,0.0021012897326426,-0.00044380798303719,0.00044430714178013,2.0034832507586e-06,-1.5072832544844e-06,-8.292945440256e-07,1.3639453542193e-06,-0.0004791504591311,0.00048009519465441,-0.00048031830365004,0.00047891948512996,-0.00047844978890054,0.00048082343959551,-0.00047962025318254,0.00047965541603687,-0.00047522180579493,0.0004798783738298,-0.00047865680651572,0.0004764521465249,8.255304392725e-07,-1.3679101588909e-06,-1.5002948171056e-06,9.9540717027847e-07,-0.00044431086195287,0.0004438041503603,-0.00047992750026721,0.00047932801207059,-0.00047912506476742,0.00048016530392284,-0.00048062702787004,0.00047859736433074,-0.00047982652500327,0.00047943278418716,-0.00047936596696649,0.0004756841259911,-0.00047694926081368,0.00047815845116078,-0.00044699451301695,0.00044945610491605,-0.00044913518827171,0.00044726115547608,-2.1166158274101e-06,1.3924690921165e-06,-0.00054143499505083,0.00054070871628769,8.4963006265494e-07,-1.616867616636e-06,-0.00058321036827308,0.0005821455062486,-0.00058402523129289,0.00058132401523352,-0.00058204168378774,0.00058331789993541,-0.00058285813561378,0.00058249632569971,-0.00052297010370034,0.00052485120376385,-0.00052639629036404,0.0005214153127187,0.77882047341719,134640,3014,0.0018485979821193,0.0018485977327459,0.0022518532678275,33.598604763046,0.00018398883810437,0.00018398883810437,0.00018398883810437,3919540.4648002,0.0059668211328698
5419200,0.54767760722288,0.0088683938127412,0.0027629134460048,0.0027629115558187,0.0033425688109177,-0.00064090860405887,0.00064177354846606,1.0127531740458e-06,-1.5225139828212e-07,-7.1618999969504e-07,1.6598801712785e-06,-0.00071925785093489,0.00071971904400082,-0.00071963868915185,0.00071931802697299,-0.00071851115988208,0.00072050242372018,-0.00071889717194766,0.00072011613532498,-0.00070841221552151,0.00071119630295585,-0.00070954797626182,0.00071007115421978,7.1547406494305e-07,-1.6608498944181e-06,-2.092711670873e-06,1.2273188189723e-06,-0.00064177425488655,0.00064090717403743,-0.00072007509849787,0.00071891208739903,-0.00071900663632401,0.00072002849871211,-0.00072081898045816,0.00071812325598905,-0.00071975399149195,0.00071923639983317,-0.00071219858365442,0.0007072864446134,-0.00070901838258286,0.0007106032287916,-0.00064548440614263,0.00064799879429903,-0.00064778074417263,0.00064559300775467,-1.2034181639296e-06,-4.0431134802011e-08,-0.0008309354547026,0.00082968565902097,9.5206891498885e-07,-2.2955571969618e-06,-0.00092796158884354,0.00092743082804045,-0.00092901979956427,0.00092634512949482,-0.00092758446827879,0.00092783169014175,-0.00092864545026032,0.00092674477521971,-0.00079566914693797,0.00079446497089945,-0.00079677211844446,0.00079330540858853,0.77319618806759,134640,3014,0.0026689622747827,0.002668960776174,0.0034534019126262,36.266592204148,0.00020533273763319,0.00020533273763319,0.00020533273763319,4729490.2905314,0.0088302355126091
6419200,0.70435927668297,0.011072817626734,0.0034117216703999,0.0034117208381013,0.0042493751182326,-0.00076694367574706,0.00076752779452103,3.2566187147442e-07,2.5705580234487e-07,-9.5506955488349e-07,1.6298863635558e-06,-0.00089501670082832,0.00089476155566855,-0.00089502184243942,0.000894708559206,-0.00089419728135175,0.00089560534938924,-0.00089420538237256,0.00089557246226939,-0.00085680044923998,0.00085828868463472,-0.00085674244231208,0.00085811994643186,9.5424617343809e-07,-1.6313696018373e-06,-1.711881752223e-06,1.1222047461717e-06,-0.00076752857067826,0.00076694223303953,-0.00089519302567593,0.00089456603358466,-0.00089430613179673,0.00089550740858156,-0.00089601222907127,0.0008937161903206,-0.00089513243523751,0.00089465245620594,-0.00085957469479702,0.00085535284506543,-0.00085683056338179,0.00085814006353722,-0.00076876242781452,0.0007715952410573,-0.00077127322066056,0.00076896060713266,1.9747665297456e-07,2.687169696004e-07,-0.0010276355302017,0.0010280198999166,1.5271310016108e-06,-1.2200219526971e-06,-0.0011840893730921,0.0011853199696664,-0.0011849653301468,0.0011844083078562,-0.0011840675058492,0.0011853508254201,-0.0011849564790686,0.0011844426855567,-0.00097544266812897,0.00097506316323214,-0.00097546147278814,0.00097495878135356,0.72914355969499,134640,3014,0.0031922921866862,0.0031922908048014,0.0042730119707392,36.738372752932,0.00020910698202346,0.00020910698202346,0.00020910698202346,4849514.3196366,0.010714919109332
7419200,0.83051873493871,0.01277573342018,0.0039270934909905,0.0039270922671071,0.0049215476620819,-0.00085810559955329,0.00085849525278853,-5.5415039709377e-08,4.303331744155e-07,-9.0294881113101e-07,1.3472509195149e-06,-0.0010328085156689,0.0010322899933429,-0.0010326227313703,0.0010324498058852,-0.0010320873724801,0.0010330524687138,-0.0010319294722119,0.001033190458365,-0.00096182899042552,0.0009625483134799,-0.0009613391787202,0.00096293819385722,8.3846131444146e-07,-1.4181058654094e-06,-7.5370945457734e-07,2.5217870378926e-07,-0.0008585502441828,0.00085805028819542,-0.0010325862679833,0.0010325247677215,-0.0010322756958726,0.0010328554893536,-0.0010332879667169,0.001031766922653,-0.0010329823003296,0.001032098926223,-0.00096326919750757,0.00096100848161235,-0.00096237580674147,0.00096206425899874,-0.00085900304458062,0.00086089431974327,-0.0008611807745101,0.00085874745684307,3.8501717156378e-07,-1.0199670087617e-07,-0.001164815164424,0.0011650495177583,5.430582752912e-07,-3.8901987887528e-07,-0.0013758251895294,0.0013765510936485,-0.0013761317576573,0.0013762285000736,-0.0013760276056562,0.0013763878662445,-0.0013762914768542,0.0013760964301586,-0.0011009484795489,0.001100487503111,-0.0011004810318179,0.0011008962233479,0.71234621127444,134640,3014,0.0035707873586262,0.0035707866950861,0.0048414868176476,40.760780631893,0.00024128624505514,0.00024128624505514,0.00024128624505514,4814354.2768028,0.012055680729033
8419200,0.9068526275886,0.013783805907831,0.0042394512449952,0.0042394480850686,0.0053049065777671,-0.00089811795790142,0.00089857918499466,4.2580141523923e-07,4.6527661922646e-08,-8.9467844840871e-07,1.420495852708e-06,-0.0011078413660551,0.0011076499750211,-0.001107957167796,0.0011075174046633,-0.001107103621,0.0011084214815236,-0.0011072289858716,0.0011082868277131,-0.0010084732757429,0.001010125912254,-0.0010087664240463,0.0010096795720633,9.1961951181791e-07,-1.3979548503022e-06,-6.6152824444039e-07,2.7405352854429e-07,-0.00089854650061919,0.0008981484716234,-0.001107718567256,0.0011077895186621,-0.001107424099874,0.0011080999870099,-0.0011084441191524,0.0011070233040106,-0.0011081612833094,0.0011073267300111,-0.0010102194692606,0.0010081881030542,-0.0010094418928735,0.0010091166492815,-0.00089956959615992,0.00090166949029405,-0.00090185417988738,0.00089943544820999,-6.7761370635914e-08,3.118709210856e-07,-0.0012228153987721,0.0012229969182,4.8984383352167e-07,-3.8152870400272e-07,-0.0014722513801782,0.0014725967514383,-0.0014725385743948,0.0014722996488656,-0.0014721477221266,0.0014727250552461,-0.0014724030921261,0.0014724481692309,-0.001155028080019,0.0011553780275105,-0.0011554248183258,0.0011550143463997,0.69848786093482,134640,3014,0.0037373210537546,0.0037373165309583,0.0050817330205841,41.433084658873,0.00024666467727099,0.00024666467727099,0.00024666467727099,4495875.4366558,0.012636272808723
9419200,0.94915791115744,0.014332619714232,0.0044133377467459,0.0044133343212761,0.0055059476462099,-0.00091192887798857,0.00091242089225826,5.6093024668518e-07,-5.9922715927838e-08,-9.615760406685e-07,1.5341175378131e-06,-0.0011449503651213,0.0011448059143351,-0.0011451452965365,0.0011445904793986,-0.0011441569407214,0.0011456359779848,-0.0011443593396534,0.0011454189760723,-0.0010243892082288,0.0010263538295071,-0.0010249256221401,0.0010256849214348,9.6052691304606e-07,-1.5376456997772e-06,-5.7928682342632e-07,9.4096598748808e-08,-0.00091241480160676,0.00091193238252146,-0.0011448155497664,0.0011449659194788,-0.0011446042033405,0.0011451790248478,-0.0011455992367509,0.0011441306651704,-0.0011453935534976,0.0011443493899986,-0.001026282291852,0.0010242979156552,-0.0010257116386404,0.0010250068142291,-0.00091457134773535,0.00091666393080082,-0.00091699240828374,0.00091421671873385,-1.6860362958377e-07,4.4933319689309e-07,-0.0012388739560444,0.0012390914949125,3.8312549172183e-07,-2.2974459784819e-07,-0.0015124442755513,0.0015126458864394,-0.0015126309664367,0.0015124375624561,-0.0015122472644606,0.0015128587474586,-0.0015124296541494,0.0015126587012534,-0.001171662958828,0.0011723489716749,-0.0011722653780791,0.0011717516961342,0.67994984270372,134640,3014,0.0037948902867059,0.0037948849052676,0.0051483377727442,41.145479031653,0.00024436383225322,0.00024436383225322,0.00024436383225322,4159894.7535604,0.012820484223506
10419200,0.97033125339179,0.01461653754071,0.0045048512710005,0.0045048477017595,0.0056068385679496,-0.00091188357878375,0.00091223524071741,5.2791395758473e-07,-1.7402056568988e-07,-6.8947083225616e-07,1.1134975288725e-06,-0.001156937594905,0.0011569150382689,-0.0011571629772651,0.0011566749819508,-0.001156366534417,0.0011575092826568,-0.0011565998455162,0.0011572676336619,-0.0010248941053214,0.001026551927644,-0.0010255374827407,0.0010258137578778,6.8042973365726e-07,-1.1253059682144e-06,-8.4253625004581e-07,4.7488399506985e-07,-0.00091224086603539,0.00091187701419492,-0.0011570165215405,0.0011568418803462,-0.0011566025047382,0.0011572757706809,-0.0011575801784223,0.0011562462204204,-0.0011571713764255,0.0011566784263788,-0.0010267956058944,0.0010245396369699,-0.001025567203053,0.001025856637763,-0.00091600595308371,0.0009177687637409,-0.00091775795963981,0.0009159705889922,-2.8180922982641e-07,4.1924102039219e-07,-0.0012352203253518,0.0012353042729652,6.3460799168406e-07,-6.1420013977906e-07,-0.001520887196521,0.0015211455139915,-0.0015212853799544,0.001520725511421,-0.0015206708267836,0.0015213829956879,-0.001521055585256,0.0015209760277321,-0.0011702703594265,0.001170685330852,-0.0011709449458122,0.001169971578768,0.69329667458873,134640,3014,0.0037944920941842,0.0037944901266048,0.0051329187784345,38.10058385311,0.00022000467082488,0.00022000467082488,0.00022000467082488,3906473.9766714,0.012804149357857
11419200,0.98256098887498,0.01477847169451,0.0045575653268788,0.0045575618100134,0.0056633445576175,-0.00091264059167328,0.00091301070664855,6.2317842915837e-07,-2.5105227205829e-07,-7.6283163764292e-07,1.2087742822291e-06,-0.0011678158535234,0.0011678139521171,-0.0011680988351226,0.0011675161499861,-0.0011671914057777,0.0011684657124874,-0.0011674828123553,0.0011681646527311,-0.0010251089416993,0.0010270090619557,-0.0010259155983379,0.001026096104556,7.52249824719e-07,-1.2219654429495e-06,-8.9662912275727e-07,5.0687557366828e-07,-0.00091301775820693,0.00091263248801396,-0.0011679034762853,0.001167736050781,-0.001167462219878,0.0011681976194312,-0.0011685195719957,0.0011670835754908,-0.0011680837808217,0.0011675442129292,-0.0010272087769627,0.0010247868384757,-0.0010258962134837,0.0010261936453665,-0.00091780115884505,0.00091973475525383,-0.00091971565839201,0.00091776769339434,-3.767429080816e-07,4.9655599801696e-07,-0.0012316121546309,0.0012316755256806,6.6573045978574e-07,-6.6806643170409e-07,-0.0015267066800317,0.0015269125341976,-0.0015271315959037,0.0015264640242661,-0.0015264316516762,0.001527208122635,-0.0015268434502148,0.0015267722950972,-0.0011690485190474,0.0011695897198296,-0.0011698904697114,0.0011687059376483,0.67906583211782,134640,3014,0.0037977359850876,0.0037977337797699,0.0051179366660004,37.628197151642,0.00021622557721313,0.00021622557721313,0.00021622557721313,3700395.1825162,0.012795646187433
12419200,0.9895763274361,0.014874161246393,0.0045889325853831,0.0045889290930854,0.0056962995679245,-0.00091074451540682,0.00091110741765019,6.7029653940056e-07,-3.1647869822311e-07,-7.6706345466574e-07,1.2135550569052e-06,-0.0011705676107181,0.0011705984801818,-0.0011708953648375,0.0011702698409711,-0.001169933946888,0.0011712341894032,-0.0011702742147916,0.0011709174934447,-0.0010232475860194,0.0010252501192013,-0.0010241499375404,0.0010242048664712,7.6760280562876e-07,-1.2127092394478e-06,-8.6627007718719e-07,4.9812335824757e-07,-0.00091110964350444,0.00091074384261234,-0.0011706525887858,0.0011705085870142,-0.0011702253907512,0.0011709694867035,-0.0011712856245437,0.0011698649472249,-0.0011708551365974,0.0011703195282741,-0.0010253660405793,0.0010230089289633,-0.001024117329029,0.0010243712940503,-0.00091677672122005,0.00091871995030756,-0.00091869135262448,0.00091676583940912,-4.393263268512e-07,5.4749684399251e-07,-0.0012262288620906,0.0012262740465279,6.3783187080297e-07,-6.5914638894315e-07,-0.0015260156961108,0.0015261596728834,-0.0015264463972892,0.0015257290372178,-0.0015257105830104,0.0015264888519284,-0.0015261151137627,0.0015260765197562,-0.0011651091898493,0.0011657887015656,-0.0011660641416153,0.001164777038428,0.69355172955101,134640,3014,0.0037898753774221,0.0037898786624133,0.0050955968621889,36.804267166658,0.00020963413733326,0.00020963413733326,0.00020963413733326,3581114.961679,0.012757138963497
13419200,0.99349475710108,0.014926382871062,0.0046061162446451,0.0046061128028829,0.0057141538235343,-0.0009072936308439,0.00090765888531715,7.9307573847509e-07,-4.2635032898776e-07,-7.7499453146854e-07,1.2166318886979e-06,-0.0011717379736397,0.001171839366292,-0.0011721363812449,0.001171427426342,-0.001171107677469,0.0011724992378398,-0.0011715131577589,0.0011720817034033,-0.0010186485802381,0.001020885164502,-0.0010197917093975,0.0010196346014147,7.6258023048167e-07,-1.231911982943e-06,-8.4815997485209e-07,4.5778763024935e-07,-0.00090766781246884,0.00090728325684768,-0.0011718583410408,0.0011717309769397,-0.0011714480445172,0.0011721593921657,-0.0011724802709726,0.0011710713886333,-0.0011720763735026,0.0011714985036556,-0.001020871990697,0.0010185408925678,-0.0010196549147675,0.0010198493290859,-0.00091385700583283,0.00091578023505655,-0.00091579110275766,0.000913791902076,-5.45530053117e-07,6.7223998524122e-07,-0.0012187593335547,0.0012188287541049,6.2213459661439e-07,-6.1554077058147e-07,-0.0015226667579026,0.0015227309686228,-0.0015230611425768,0.0015223136753984,-0.0015222761346936,0.0015231415501525,-0.001522657560094,0.0015227367404497,-0.0011591708179675,0.0011600863878538,-0.0011603461986691,0.001158863638683,0.67550368063506,134640,3014,0.0037755753627621,0.0037755723332653,0.0050647071458705,34.794598025557,0.00019355678420445,0.00019355678420445,0.00019355678420445,3452790.7977477,0.012696942515586
14419200,0.99575740495847,0.01495619750367,0.0046159633858369,0.0046159599459872,0.0057242741718457,-0.0009023354036892,0.0009026945422107,8.4799444983797e-07,-4.8695670756274e-07,-7.5820868549891e-07,1.1934699599939e-06,-0.0011677949917415,0.0011679417029791,-0.0011682327189549,0.0011674921990369,-0.0011671765412521,0.0011685844492978,-0.0011676217177581,0.0011681331400487,-0.0010133680743285,0.001015701673661,-0.0010146292548043,0.0010143418254912,7.4955000782822e-07,-1.2046855910278e-06,-8.0472738001059e-07,4.2890281023369e-07,-0.00090270023585183,0.00090232892608379,-0.0011679257415325,0.0011678200242235,-0.0011675380829809,0.00116822609528,-0.0011685373428491,0.0011671759985689,-0.0011681547712102,0.0011675801760165,-0.0010155946539205,0.0010133637395182,-0.001014447599516,0.00101459673863,-0.0009093125550074,0.00091118424267224,-0.00091120906162949,0.00090923797255178,-6.028635489193e-07,7.3053284672123e-07,-0.0012110727755985,0.0012111460727151,5.8963903093597e-07,-5.7736427034815e-07,-0.0015161341654609,0.0015161426975741,-0.0015165060345066,0.0015157503012623,-0.0015157071018903,0.0015165905766208,-0.0015160649621322,0.0015162114348409,-0.0011521971879868,0.0011532514863383,-0.0011534908970132,0.0011519175683785,0.66543915435786,134640,3014,0.0037549783934903,0.003754976745671,0.0050328612097711,32.643906427228,0.00017635125141782,0.00017635125141782,0.00017635125141782,3385317.1237782,0.012622975856023
15419200,0.99693568373795,0.014972652448327,0.0046214067910167,0.004621403355302,0.0057298423020079,-0.00089285988742467,0.00089320263616883,8.8522036430203e-07,-5.4166251979907e-07,-7.2104813324951e-07,1.1377564916841e-06,-0.0011583516342897,0.0011585461445559,-0.001158822531606,0.0011580653781432,-0.0011577640655161,0.0011591568032646,-0.0011582391283057,0.0011586757914175,-0.0010030023909773,0.0010053704903311,-0.0010043480875505,0.0010039246122546,7.1093073787563e-07,-1.1504977923214e-06,-7.594896252429e-07,3.9622416544802e-07,-0.00089320972931736,0.00089285229298385,-0.0011585017185677,0.0011584042955929,-0.0011581383947057,0.0011587853623811,-0.0011590843048359,0.0011577921245214,-0.0011587258333135,0.0011581697385871,-0.0010051889520853,0.0010030774752659,-0.0010041174254322,0.0010042326591347,-0.00089998047695304,0.00090175403593246,-0.00090178903692086,0.00089989809115522,-6.3953799355618e-07,7.8564475820637e-07,-0.0011979813934773,0.0011980725573347,5.610725852797e-07,-5.2922711887638e-07,-0.0015031577357402,0.0015031264634236,-0.0015035046800019,0.0015027604018311,-0.0015026993457343,0.0015036063671535,-0.0015030322048446,0.0015032513619805,-0.0011397552867428,0.0011409396900201,-0.0011411329925628,0.0011395167847115,0.70138893249409,134640,3014,0.0037155946633758,0.0037155936055688,0.004978643850487,27.069722678286,0.00013175778142628,0.00013175778142628,0.00013175778142628,3296791.1726024,0.012488314470374
16419200,0.99769210896269,0.014982861057369,0.0046247926991186,0.0046247892663971,0.0057332790918531,-0.00088901022055254,0.00088936310241224,9.3158011935657e-07,-5.7806609873518e-07,-7.1425217331755e-07,1.149140483107e-06,-0.0011577590354011,0.0011579927113535,-0.0011582632569226,0.0011574858553569,-0.0011571664783257,0.0011585845805964,-0.0011576788379704,0.0011580959064826,-0.00099804590492394,0.0010005132808958,-0.00099947120842973,0.00099898364162826,7.1677127302726e-07,-1.1449126912144e-06,-7.3220717251575e-07,3.9041900257425e-07,-0.00088935960839127,0.00088901600437625,-0.00115791469748,0.0011578277033152,-0.0011575618056097,0.001158209629636,-0.0011585047822714,0.0011572274039915,-0.001158153420249,0.0011576042395669,-0.0010002534542822,0.00099820677922073,-0.00099922772293587,0.0009993216049153,-0.00089612834658489,0.00089790092462864,-0.00089793985308162,0.00089604930262571,-7.0674268422071e-07,8.0170266230552e-07,-0.0011906995947322,0.001190742767649,5.2138994332903e-07,-5.3780896974808e-07,-0.00149877822898,0.0014986737643014,-0.0014991295329356,0.0014983232691674,-0.001498296303863,0.0014991723971556,-0.0014986318153719,0.0014988360597503,-0.0011332861781837,0.0011345238177775,-0.0011347595262626,0.0011330266241693,0.67697638081785,134640,3014,0.0036996432882249,0.0036996480731825,0.0049483867510891,24.418335321124,0.00011054668256899,0.00011054668256899,0.00011054668256899,3188929.4314054,0.012425451224515
17419200,0.99820010123018,0.014989920665203,0.0046271396681508,0.00462713624131,0.0057356447557426,-0.00088347474539124,0.00088381273786998,9.4006196105673e-07,-6.0602173563495e-07,-7.1807446945997e-07,1.128392133077e-06,-0.0011515788324017,0.0011518141684087,-0.001152087114071,0.0011512910772492,-0.0011509950688736,0.0011524213936541,-0.0011515076512704,0.0011519040927126,-0.00099221707875274,0.00099468868318175,-0.00099367786988669,0.00099312758318604,7.0589101887239e-07,-1.1431871444921e-06,-7.4845269302977e-07,3.8722111777796e-07,-0.00088382032324178,0.00088346503077084,-0.0011517477261606,0.0011516546704163,-0.0011513865841889,0.0011520280197778,-0.0011523183885328,0.001151036629472,-0.0011519697446167,0.0011514111219862,-0.00099443812766294,0.00099236433314523,-0.00099340029252304,0.00099349150547586,-0.0008908828287942,0.00089265404672031,-0.00089269292321376,0.00089080779171239,-7.0198180392354e-07,8.4115699012614e-07,-0.0011832216730384,0.0011833045867133,5.4740858525358e-07,-5.2196349666698e-07,-0.0014907217938308,0.0014906355861465,-0.0014910650043789,0.0014902736598653,-0.0014902201900898,0.001491153862516,-0.001490556204493,0.0014908057047773,-0.0011263816569758,0.0011276793056161,-0.0011278599416816,0.0011261280702842,0.69394003157195,134640,3014,0.0036766200227496,0.0036766155604194,0.0049174691647195,21.980202011766,9.104161609413e-05,9.104161609413e-05,9.104161609413e-05,3153680.9999345,0.012347496894713
18419200,0.99851569275992,0.014994237786659,0.0046285764857536,0.0046285730569679,0.0057370882439374,-0.00087642003504841,0.00087675593804874,9.876248166704e-07,-6.5001253717673e-07,-7.0410710547344e-07,1.1134240322017e-06,-0.0011457211502015,0.0011459909460732,-0.0011462608615776,0.0011454402405849,-0.0011451461253423,0.0011465894324826,-0.0011456917499452,0.0011460368082501,-0.00098389876676061,0.0009864586449587,-0.00098545206936396,0.00098480077669249,6.9453288770177e-07,-1.1254246372971e-06,-7.6408258251305e-07,4.0896498892445e-07,-0.00087676229706304,0.00087641251404351,-0.001145914429113,0.0011458053422998,-0.0011455462251193,0.0011461918493993,-0.0011464830930208,0.0011452070002592,-0.0011461207731063,0.001145589989485,-0.00098617468892726,0.00098406934344188,-0.00098508798700861,0.00098524222045488,-0.00088381313887563,0.00088555775837798,-0.00088558008123385,0.0008837446979753,-7.539343214273e-07,8.819777152071e-07,-0.001172826576751,0.0011728987014332,5.5950099137101e-07,-5.4748441563406e-07,-0.0014812730603119,0.0014811582026125,-0.0014816256935311,0.0014807860396686,-0.0014807448110147,0.0014817072464336,-0.0014810825640199,0.0014813477920583,-0.0011166902212123,0.0011180616417482,-0.0011182785859616,0.0011164314587751,0.68267066683837,134640,3014,0.0036473214133445,0.0036473189762565,0.0048743722604567,17.477991088818,5.5023928710541e-05,5.5023928710541e-05,5.5023928710541e-05,3064377.4602754,0.012244578414797
19419200,0.9987770098654,0.014998036727144,0.0046298427537336,0.0046298393253317,0.005738354648079,-0.00087496224368154,0.00087529998510638,1.0086398600312e-06,-6.6899600092064e-07,-7.0772128219986e-07,1.1190788461213e-06,-0.0011445720963389,0.0011448532088499,-0.00114512446479,0.0011442898261747,-0.0011439932146964,0.0011454539772815,-0.0011445526834317,0.0011448892632756,-0.00098247623113888,0.0009850820502989,-0.00098407231127704,0.00098338698520414,6.9904792115343e-07,-1.1302135498434e-06,-7.7419062349033e-07,4.1981161472603e-07,-0.00087530564663066,0.00087495588599949,-0.0011447728468047,0.0011446597274159,-0.0011443976088072,0.0011450529958499,-0.0011453448298252,0.0011440574794861,-0.0011449747242557,0.0011444486692982,-0.00098478883083793,0.00098266008695045,-0.00098368058276725,0.000983853273759,-0.00088267124665776,0.00088443058542125,-0.0008844469798281,0.00088260968569989,-7.7645147974741e-07,8.9924480877424e-07,-0.0011702528010925,0.001170321166637,5.6814516337274e-07,-5.598986596601e-07,-0.0014790412496688,0.001478917722407,-0.0014794009775965,0.0014785387151706,-0.0014784997776025,0.0014794793057605,-0.0014788457287578,0.001479113330111,-0.0011145720898905,0.0011159698458887,-0.0011162011749912,0.0011143012315943,0.7215824228746,134640,3014,0.0036412717788344,0.0036412703112369,0.0048636957673824,17.551568050536,5.5612544404292e-05,5.5612544404292e-05,5.5612544404292e-05,3043150.261466,0.01222152021334
20419200,0.99900442902531,0.01500137999222,0.0046309576373985,0.0046309542097218,0.0057394681451002,-0.00087651585988838,0.00087685784687925,1.0510498423535e-06,-7.073651265494e-07,-7.2592216606946e-07,1.1420545098895e-06,-0.0011493168824949,0.0011496159570175,-0.0011498962581075,0.001149025551081,-0.001148724804341,0.0011502304018222,-0.0011493114176162,0.0011496387181074,-0.00098333612107192,0.00098603863761068,-0.00098501052193871,0.00098426363438916,7.1668330053336e-07,-1.1537229325011e-06,-7.9625405086354e-07,4.365770779659e-07,-0.00087686399119786,0.00087650906985434,-0.0011495285934938,0.0011494116799853,-0.0011491414773301,0.0011498178660172,-0.0011501137117918,0.0011487956442851,-0.0011497316574448,0.0011491997120674,-0.00098572524413902,0.00098353926967539,-0.00098457936754316,0.00098477101461245,-0.00088431222758302,0.00088611900576045,-0.00088612833742781,0.00088425773970226,-8.2225574564482e-07,9.3417698329402e-07,-0.0011701715406888,0.0011702286928638,5.8094592633198e-07,-5.8505583621293e-07,-0.0014817527107027,0.0014816037114605,-0.0014821249572786,0.0014812121017353,-0.0014811844784554,0.0014821921364332,-0.001481542603495,0.0014818137713002,-0.0011151339713235,0.0011165877947449,-0.001116841730739,0.0011148394597779,0.72910479949684,134640,3014,0.003647746104991,0.0036477447418038,0.0048633583605066,18.597312354036,6.3978498832291e-05,6.3978498832291e-05,6.3978498832291e-05,2988675.6066591,0.012234352792791
21419200,0.99915914705382,0.015003594456931,0.0046316972358035,0.0046316938086212,0.0057402034125059,-0.0008704938281771,0.00087084174547902,1.0911057921496e-06,-7.4341588558092e-07,-7.3889403887131e-07,1.1623898845871e-06,-0.0011436744856693,0.0011439969377808,-0.0011442815432268,0.001143378969489,-0.001143073752411,0.0011446190518921,-0.0011436840632247,0.0011440061967865,-0.00097676878552131,0.00097955129911114,-0.00097851491125415,0.00097771518293303,7.3430304397971e-07,-1.1690137104212e-06,-7.7904474073202e-07,4.2295592061257e-07,-0.0008708439247994,0.00087049116421839,-0.0011438870996052,0.0011437910385799,-0.0011435088764213,0.0011441872256,-0.0011444816453027,0.0011431624660304,-0.0011441094313345,0.0011435579771876,-0.00097919346674487,0.00097703038650231,-0.00097807717706245,0.00097822941366626,-0.00087845703242452,0.00088029625047196,-0.0008803106536252,0.00087839757458593,-8.6168134157707e-07,9.7042955881168e-07,-0.0011614700439816,0.0011615265756893,5.6626493794148e-07,-5.6926635470532e-07,-0.0014735476039818,0.0014733620312137,-0.0014739097805582,0.0014729822396533,-0.0014729506809099,0.0014739766140651,-0.0014733043172827,0.0014736070988875,-0.0011069942674464,0.0011085188367507,-0.0011087627545793,0.0011066990237932,0.70951083980742,134640,3014,0.0036227514985393,0.0036227504708912,0.004827294335547,15.225615260312,3.7004922082498e-05,3.7004922082498e-05,3.7004922082498e-05,2924900.4612696,0.012147249897647
22419200,0.99928722391796,0.015005448858382,0.0046323173751505,0.0046323139482472,0.0057408175349847,-0.00086833705312588,0.0008686817835881,1.1011495886796e-06,-7.5444361917776e-07,-7.3495923280068e-07,1.1546357442474e-06,-0.0011412677153755,0.0011415942173297,-0.0011418794565392,0.0011409717505149,-0.0011406688780549,0.0011422156500083,-0.0011412877238844,0.0011415917702173,-0.00097467974579916,0.00097748768461182,-0.000976449446677,0.00097561803239817,7.2639021870892e-07,-1.1656251143474e-06,-7.8714045165571e-07,4.2572711535939e-07,-0.00086868738750078,0.00086833077067978,-0.0011414876131236,0.0011413822587328,-0.0011411064599599,0.0011417818747216,-0.001142079627271,0.0011407594749729,-0.0011417035747987,0.0011411569023025,-0.00097711629161433,0.00097494128746559,-0.00097598978517853,0.00097615281894325,-0.00087664087368943,0.00087846036061894,-0.00087847764575221,0.0008765768487393,-8.6969209221568e-07,9.8379131898667e-07,-0.0011582979010918,0.001158357413327,5.7279219029313e-07,-5.7386124464747e-07,-0.0014701891593588,0.0014700039117084,-0.0014705553649999,0.0014696187348346,-0.001469588605674,0.0014706246600799,-0.0014699407658902,0.001470252551131,-0.0011042644538913,0.0011058217247725,-0.0011060679543364,0.0011039793956004,0.71604797611478,134640,3014,0.0036137863082956,0.0036137848757749,0.0048141468278423,14.858990533532,3.4071924268252e-05,3.4071924268252e-05,3.4071924268252e-05,2909681.7924818,0.01211577581163
23419200,0.99940095807829,0.015007067676387,0.0046328590275316,0.0046328556009716,0.0057413530478836,-0.00086872765195805,0.00086907184645837,1.1236138832814e-06,-7.7767712316563e-07,-7.3808228786553e-07,1.1568494076132e-06,-0.0011428790071286,0.0011432181621628,-0.0011435050755314,0.0011425800473016,-0.001142278591295,0.0011438429737164,-0.0011429119478804,0.0011432023340582,-0.00097494150138603,0.00097779595380769,-0.00097675555806216,0.0009758800426266,7.2905673522642e-07,-1.1685048411297e-06,-8.0700358268882e-07,4.4536486052077e-07,-0.00086907762757192,0.00086872086003794,-0.0011431109715224,0.0011429951221826,-0.0011427172693281,0.0011434067236571,-0.0011437034528177,0.0011423686592065,-0.0011433153510523,0.0011427792847918,-0.00097742082229044,0.00097520354376326,-0.00097625619159264,0.00097645644582217,-0.00087725371098409,0.0008790917459503,-0.00087909514194762,0.00087720335419331,-8.9421914709405e-07,1.0046452817571e-06,-0.0011577140116451,0.001157768766818,5.8935706714702e-07,-5.960386964655e-07,-0.0014707389654533,0.0014705457176932,-0.0014711173073103,0.0014701471991412,-0.0014701222496428,0.0014711822420591,-0.0014704879936496,0.0014707963114255,-0.001104125563385,0.0011057101464016,-0.0011059720067295,0.0011038227075755,0.70404421842774,134640,3014,0.003615412741378,0.0036154106159154,0.0048117242874808,15.705719502881,4.084575602305e-05,4.084575602305e-05,4.084575602305e-05,2886171.1831338,0.012116634747885
24419200,0.99950832249572,0.015008623086912,0.0046333796015497,0.0046333761751431,0.0057418673102191,-0.00087053741212779,0.00087088353844427,1.1228262022345e-06,-7.7481607143183e-07,-7.4104224356825e-07,1.1622379338537e-06,-0.0011452361284072,0.0011455729810676,-0.0011458610420554,0.0011449363804055,-0.0011446326261179,0.0011461997590032,-0.0011452652244672,0.0011455613550255,-0.00097711718185183,0.0009799732340033,-0.00097892799831996,0.0009780614017296,7.3295093584467e-07,-1.1728120933044e-06,-8.2422694570376e-07,4.6214650470476e-07,-0.00087088871412757,0.00087053138569921,-0.0011454713896793,0.0011453461670002,-0.0011450665558296,0.0011457693628741,-0.0011460669795868,0.0011447174987157,-0.0011456676417294,0.0011451396541982,-0.00097961504518956,0.00097736141507416,-0.00097841805768171,0.00097864817575215,-0.00087942250962051,0.00088127909404387,-0.00088127204763928,0.00087938310982071,-8.9579080301038e-07,9.9938787988278e-07,-0.0011593963134518,0.0011594447587359,6.0273070606482e-07,-6.164210759503e-07,-0.0014729579599875,0.0014727717680203,-0.0014733479355989,0.0014723623919983,-0.0014723426533485,0.001473406397723,-0.001472719705376,0.0014730101413613,-0.001106185366396,0.0011077489242344,-0.0011080287637826,0.0011058655890565,0.7154940421358,134640,3014,0.0036229356405155,0.0036229338496942,0.0048186840010959,17.881578703145,5.825262962516e-05,5.825262962516e-05,5.825262962516e-05,2889384.2806375,0.012138906852011
25419200,0.99960620753884,0.015010113431005,0.0046338780828909,0.0046338746566912,0.0057423606914224,-0.00087284783941646,0.00087319396484397,1.1381444099119e-06,-7.9023595281951e-07,-7.4693159453731e-07,1.1680487318868e-06,-0.0011492006496888,0.0011495444483557,-0.001149836032793,0.0011488973198618,-0.0011485935403014,0.0011501751217481,-0.0011492364247994,0.0011495261892162,-0.00097940866111584,0.00098229772425344,-0.00098125003048928,0.00098035658565361,7.3806155649572e-07,-1.1794170142357e-06,-8.4730880623363e-07,4.8425079671328e-07,-0.00087319965373309,0.00087284135797299,-0.0011494449855239,0.0011493081535189,-0.0011490259230603,0.0011497465777143,-0.001150044341188,0.0011486755585166,-0.0011496305838306,0.0011491127358175,-0.00098194850920904,0.00097964593546478,-0.00098070654254801,0.00098097661233475,-0.00088197188774031,0.00088385391357193,-0.0008838334613142,0.0008819456801893,-9.155184413014e-07,1.0105827025703e-06,-0.0011611506061452,0.0011611906949098,6.2050688800436e-07,-6.4303879681358e-07,-0.0014762293527548,0.0014760391650943,-0.0014766335970191,0.001475614962158,-0.0014756039051089,0.0014766844362618,-0.0014759951410949,0.0014762731079237,-0.0011083729106544,0.0011099428334001,-0.0011102461747202,0.0011080285385638,0.7506515669828,134640,3014,0.0036325385101465,0.0036325368394252,0.004825948601312,19.926560985446,7.4612487883571e-05,7.4612487883571e-05,7.4612487883571e-05,2873779.5935262,0.012165728195467
26419200,0.99968646563938,0.01501136293354,0.0046342960941647,0.0046342926681505,0.0057427741712248,-0.00087327103309261,0.00087362588674614,1.1752549360684e-06,-8.1683258434677e-07,-7.484381180302e-07,1.1829549002793e-06,-0.0011517833836126,0.001152150938154,-0.0011524424326302,0.0011514837018116,-0.001151170485927,0.0011527801215578,-0.0011518368454073,0.0011521161473487,-0.00097944903731617,0.00098241957743013,-0.00098135046394814,0.00098041449203501,7.4632195351632e-07,-1.1864019149036e-06,-8.6531826399806e-07,5.0299566982553e-07,-0.00087362758341844,0.000873269830035,-0.0011520418236695,0.0011518941968392,-0.0011516108534866,0.0011523488337463,-0.0011526514075742,0.0011512633634602,-0.0011522232965117,0.0011517139456005,-0.00098204922744324,0.00097970808455752,-0.00098077717977595,0.00098107118459334,-0.00088254506924991,0.00088445282043487,-0.00088441696180708,0.00088253086119103,-9.5693221004366e-07,1.0331262987713e-06,-0.0011600588995355,0.0011600813980349,6.2913097551814e-07,-6.708859559976e-07,-0.0014772143949782,0.001477001337672,-0.0014776362234322,0.0014765677026472,-0.0014765690546527,0.0014776657314903,-0.0014769743086077,0.0014772458321328,-0.0011077581493488,0.0011093665394989,-0.0011097066298082,0.0011073975118373,0.76692112057547,134640,3014,0.0036343251975745,0.0036343262203858,0.0048214055394134,20.393280622158,7.8346244977261e-05,7.8346244977261e-05,7.8346244977261e-05,2829678.8256962,0.012164794435763
27419200,0.9997564525832,0.015012411017341,0.0046346472006489,0.0046346437751132,0.0057431200415791,-0.00087485516216842,0.00087520280221638,1.1864019748272e-06,-8.3667879311384e-07,-7.5557569687701e-07,1.1787090479833e-06,-0.0011549103801219,0.0011552808452873,-0.0011555775716258,0.0011546023231992,-0.0011542969418624,0.0011559169124596,-0.0011549716126835,0.001155237359704,-0.00098116929960116,0.00098415965375897,-0.00098310373897715,0.00098212620284642,7.4701398827453e-07,-1.1896828357123e-06,-8.9005448579518e-07,5.2583503237643e-07,-0.00087520841069374,0.00087484891727709,-0.0011551788612084,0.001155019078595,-0.001154732755084,0.0011554861524307,-0.0011557851640535,0.0011543812728497,-0.0011553441055445,0.0011548464308148,-0.00098380514603017,0.00098141299007594,-0.00098248173328318,0.00098282592777585,-0.0008845796428153,0.00088650661901965,-0.00088646009521275,0.00088457979540592,-9.7127480123062e-07,1.0495128397029e-06,-0.0011607531313724,0.001160776907969,6.5311464327457e-07,-6.9350666365503e-07,-0.0014794525630974,0.0014792432485553,-0.0014798849203446,0.0014787919502728,-0.0014787961301303,0.0014799196733168,-0.0014792146921514,0.0014794814494043,-0.0011091274957929,0.0011107463837179,-0.0011110954214395,0.001108740321435,0.73788855372382,134640,3014,0.0036408994690249,0.0036408981238758,0.0048242949274455,22.24948783746,9.3195902699681e-05,9.3195902699681e-05,9.3195902699681e-05,2809004.1744213,0.012181042487454
28419200,0.99981397972406,0.01501331839254,0.0046349511109785,0.0046349476856052,0.0057434195959563,-0.00087504818729445,0.00087539089379388,1.1785520224087e-06,-8.3527597834978e-07,-7.5526209217336e-07,1.1713687352782e-06,-0.0011547342545658,0.0011551005502065,-0.0011553984738277,0.0011544244089591,-0.0011541240332747,0.0011557366023531,-0.0011547948951166,0.0011550584451333,-0.00098178711576485,0.00098475906268922,-0.00098371018271369,0.00098273209463343,7.4651912681361e-07,-1.1832481001971e-06,-8.9207210515834e-07,5.2989126787935e-07,-0.00087539713437869,0.00087504082777874,-0.0011550031543981,0.0011548435289503,-0.001154554548992,0.0011553102222399,-0.0011556070238887,0.0011542046654121,-0.0011551636594378,0.0011546707139327,-0.00098441323935738,0.00098201763929683,-0.00098308789235768,0.00098343994828208,-0.00088513644347979,0.00088706484095698,-0.00088700892260496,0.0008851480206651,-9.6475281203751e-07,1.0463442557983e-06,-0.0011608057297435,0.0011608313853052,6.5603863622053e-07,-6.961178003138e-07,-0.001479207201996,0.0014790027815101,-0.0014796392889448,0.0014785483223408,-0.0014785525277504,0.0014796782736658,-0.0014789712966117,0.0014792362576889,-0.0011095156542363,0.0011111275026163,-0.0011114700220588,0.0011091268071786,0.77520834363686,134640,3014,0.00364168992226,0.0036416875761389,0.004824508835532,23.43957903166,0.00010271663225328,0.00010271663225328,0.00010271663225328,2817147.8780472,0.012182834762091
29419200,0.9998607247769,0.01501397061575,0.0046351698280953,0.0046351664028365,0.0057436343848186,-0.00087683828569986,0.00087718577411697,1.2083953215863e-06,-8.5882569788945e-07,-7.580605006661e-07,1.1810351896291e-06,-0.0011588623028488,0.0011592453283663,-0.001159543757324,0.0011585520856431,-0.0011582474183395,0.0011598839647696,-0.0011589364515885,0.0011591888929602,-0.00098326498031834,0.00098630107281214,-0.00098524168466214,0.00098422254867384,7.4951257970624e-07,-1.1921081084342e-06,-9.0364490999314e-07,5.3934693037309e-07,-0.00087719127284353,0.00087683189951927,-0.001159140778441,0.0011589743625629,-0.0011586859337893,0.0011594497988081,-0.0011597481393938,0.0011583339285618,-0.0011592985560954,0.0011588081312561,-0.00098593647307169,0.00098351504770637,-0.00098458730468052,0.00098495649804936,-0.00088708173071783,0.00088902232646025,-0.00088896579603934,0.00088709125408449,-9.9441784907801e-07,1.0702724437474e-06,-0.0011614262980944,0.0011614468069332,6.644914443474e-07,-7.0880820449495e-07,-0.0014820780824621,0.001481859213696,-0.0014825191712871,0.0014813986653233,-0.0014814065380245,0.001482550736813,-0.0014818342926862,0.001482103021385,-0.0011105771623159,0.0011122280297196,-0.0011125878942468,0.0011101791115185,0.6888912616195,134640,3014,0.003649146093975,0.0036491442245653,0.0048270912236805,24.778337395781,0.00011342669916625,0.00011342669916625,0.00011342669916625,2782336.0921635,0.012200594031625
30419200,0.99989791088535,0.015014480460832,0.0046353409412836,0.0046353375160915,0.0057438020034569,-0.00087647577484358,0.00087681670394835,1.1495199218297e-06,-8.0639266709711e-07,-7.3265786343604e-07,1.1483031008116e-06,-0.0011555018983038,0.0011558608205841,-0.0011561467891021,0.0011552046160969,-0.0011549055319075,0.0011564791517223,-0.0011555577853391,0.0011558220909005,-0.00098398125535662,0.00098688095809048,-0.0009858508984448,0.00098491470350601,7.2420292565656e-07,-1.1591974724658e-06,-9.1523563445345e-07,5.577444024548e-07,-0.00087682225717509,0.00087646957684874,-0.0011557790309271,0.001155589665321,-0.0011553141634107,0.0011560757533788,-0.0011563684038341,0.0011549694820944,-0.0011559085201013,0.0011554537198726,-0.00098658750399977,0.00098416383440875,-0.0009852086248927,0.00098563392132304,-0.00088708990800001,0.00088899145953366,-0.00088891837348133,0.00088711692035497,-9.4209913191587e-07,1.0115757397906e-06,-0.0011624102791862,0.0011624256574531,6.7687086205239e-07,-7.2636432957139e-07,-0.0014802163619838,0.0014800402026617,-0.0014806673748701,0.0014795702614247,-0.0014795820543143,0.0014806943577868,-0.0014800195058584,0.0014802372373791,-0.001111496784367,0.0011130215858548,-0.0011133985743325,0.0011110813934761,0.67663456368008,134640,3014,0.0036476115796412,0.0036476102182265,0.0048311261573773,26.129009144289,0.00012423207315432,0.00012423207315432,0.00012423207315432,2842725.8507086,0.012201490402108
31419200,0.99992801358322,0.015014924075803,0.0046354894973291,0.0046354860722224,0.0057439485062513,-0.00087895554647971,0.00087929484101603,1.1384082598174e-06,-7.9697890198876e-07,-7.2911705026654e-07,1.1429872488697e-06,-0.001158370840268,0.0011587243121738,-0.001159008845795,0.0011580748424205,-0.0011577772788701,0.0011593395648437,-0.0011584226922679,0.0011586893600321,-0.0009867942367194,0.00098966893622614,-0.00098864399755218,0.00098772319645252,7.206662700557e-07,-1.1538848679508e-06,-9.3801173813557e-07,5.8218833751636e-07,-0.00087930037874316,0.00087894936869618,-0.001158653336263,0.0011584472324243,-0.0011581732858473,0.0011589490591921,-0.0011592398315744,0.0011578300441467,-0.0011587647873111,0.0011583300171766,-0.00098940867231535,0.00098694336592474,-0.00098798394438501,0.00098846024701513,-0.00088980060047073,0.00089171101673119,-0.00089162066447509,0.00088984500497858,-9.3582302586178e-07,9.9733486160669e-07,-0.0011651863827238,0.0011651939041424,6.9580012314319e-07,-7.5396971169413e-07,-0.0014833197283404,0.0014831582479792,-0.0014837861532396,0.0014826729579703,-0.0014826921838728,0.0014838055824004,-0.00148314510447,0.0014833330755561,-0.0011144724549559,0.0011159534911055,-0.0011163538572775,0.0011140332684701,0.72615477343953,134640,3014,0.0036579081911205,0.0036579068398104,0.0048426165509591,28.436007460711,0.00014268805968568,0.00014268805968568,0.00014268805968568,2856002.4360323,0.012233970215854
32419200,0.99995000885469,0.015015264584433,0.0046356034410203,0.0046356000159767,0.0057440611274361,-0.00088080387365255,0.00088114742370583,1.1820127082595e-06,-8.3575046123352e-07,-7.3972983348139e-07,1.1589085735741e-06,-0.0011634929045115,0.0011638675320303,-0.0011641573813471,0.0011631910737887,-0.0011628909634694,0.0011644928813428,-0.0011635629978041,0.0011638144577489,-0.0009878388635978,0.00099081175554692,-0.00098976631795221,0.00098878003235971,7.3250025499733e-07,-1.1687694481785e-06,-9.4609578072974e-07,5.8753562742135e-07,-0.00088115189382094,0.00088079836039851,-0.0011637854979484,0.0011635816890117,-0.0011633008189952,0.0011640869583816,-0.0011643801563381,0.0011629544480158,-0.0011639007037463,0.001163459052606,-0.00099051207890769,0.00098802037409564,-0.00098907621214737,0.00098955277822105,-0.00089156106629599,0.00089349660602795,-0.00089340311523904,0.00089160665206115,-9.7537167221376e-07,1.0395571787154e-06,-0.0011655409680063,0.0011655492032044,7.0211712631911e-07,-7.6045676331234e-07,-0.0014866846648507,0.0014864999773886,-0.001487156050672,0.0014860097808646,-0.0014860290849029,0.0014871753306377,-0.0014864875783981,0.0014866975156742,-0.0011152055687422,0.0011167669761014,-0.0011171698574463,0.0011147691276895,0.76213984606843,134640,3014,0.0036656064304689,0.0036656042381413,0.0048441170959792,29.294486906669,0.00014955589525336,0.00014955589525336,0.00014955589525336,2802926.9549395,0.01225115140364
33419200,0.99996529793462,0.015015504205303,0.0046356837147439,0.0046356802897134,0.0057441402008461,-0.00088038817210086,0.00088073063011348,1.2048305962616e-06,-8.6019875060565e-07,-7.4418761800837e-07,1.1616243554455e-06,-0.0011648587897831,0.0011652474660077,-0.0011655398384424,0.0011645548403873,-0.0011642543640324,0.0011658739708611,-0.0011649429971849,0.0011651805031516,-0.00098710040152678,0.00099011726533169,-0.00098907618274954,0.00098804306067039,7.3576301210653e-07,-1.1724763850304e-06,-9.6019436004182e-07,6.0130668787267e-07,-0.00088073611596098,0.00088038204821841,-0.0011651616018043,0.0011649501334084,-0.0011646685544389,0.0011654656474823,-0.0011657588178683,0.001164321775572,-0.0011652708560643,0.0011648353801334,-0.00098981294774242,0.00098729282440505,-0.0009883482789062,0.00098885006425192,-0.00089135160505803,0.0008933047217736,-0.00089320441859376,0.00089140634869497,-1.0034932489459e-06,1.0591998276119e-06,-0.0011635747555603,0.0011635760044448,7.1255773332565e-07,-7.7780393861089e-07,-0.0014865013962625,0.0014863039751808,-0.0014869814731444,0.0014858051400442,-0.0014858308669384,0.0014869943247544,-0.0014862971735998,0.0014865084937516,-0.001113776072792,0.0011153655839317,-0.0011157852519909,0.0011133187148451,0.77028159452287,134640,3014,0.003663887742942,0.0036638863946796,0.0048359691713634,29.317262035562,0.00014973809628449,0.00014973809628449,0.00014973809628449,2759742.8242206,0.012239457822976
34419200,0.99997686720421,0.015015678783567,0.0046357422736095,0.0046357388486091,0.0057441976613483,-0.00088240002933967,0.0008827389178656,1.2093291748848e-06,-8.6738473630835e-07,-7.5593573098492e-07,1.1753896603026e-06,-0.001167945926034,0.0011683308629949,-0.0011686376942621,0.001167635560174,-0.0011673340085036,0.0011689543624611,-0.0011680334174069,0.0011682630506912,-0.00098946687354048,0.00099250118306878,-0.00099145696704954,0.00099041526434143,7.535151742619e-07,-1.1782869794169e-06,-9.6411976442929e-07,6.1346148891005e-07,-0.00088274409681903,0.00088239751624473,-0.0011682417790262,0.0011680338004502,-0.0011677478436916,0.0011685598252566,-0.001168857638204,0.0011674111955263,-0.001168361144213,0.0011679287353417,-0.00099220175382788,0.00098966297319572,-0.00099072138741007,0.0009912320008577,-0.00089378379427994,0.00089577212441098,-0.00089565264188964,0.00089385059947869,-1.0199772423477e-06,1.0562670178219e-06,-0.0011651839428776,0.0011651689620212,7.1258316280972e-07,-7.9453471251214e-07,-0.001489246108934,0.0014890373817158,-0.0014897362806949,0.0014885362620673,-0.0014885744064916,0.0014897288057017,-0.0014890400262884,0.0014892451365691,-0.0011158773780402,0.0011174711702136,-0.0011179212510712,0.0011154146647405,0.74169710424149,134640,3014,0.0036722429955947,0.0036722485760574,0.0048426106164442,31.480106692783,0.00016704085354226,0.00016704085354226,0.00016704085354226,2751264.7984325,0.012263110514661
35419200,0.99998594050848,0.015015810919241,0.004635786615726,0.0046357831908764,0.0057442411126391,-0.00088749323761993,0.00088782461327114,1.1917637520444e-06,-8.5594506149825e-07,-7.6987234561458e-07,1.1758188556367e-06,-0.0011733327482021,0.001173692366538,-0.0011740119607599,0.0011730105770568,-0.0011727141429061,0.0011743345556153,-0.0011734053906571,0.0011736412333413,-0.00099534473916006,0.00099836127171049,-0.00099730564082398,0.00099628070919251,7.7143932545942e-07,-1.1767345976638e-06,-9.6369371083638e-07,6.2770940943436e-07,-0.00088782652240324,0.00088749244839516,-0.0011736165400578,0.0011734206094413,-0.0011731162877611,0.0011739470871342,-0.001174236954977,0.0011727879055668,-0.0011737343520687,0.0011733065094297,-0.00099806544378674,0.00099551269379397,-0.00099657232054582,0.00099710471107255,-0.00089932811063583,0.00090134889192232,-0.00090120533431803,0.0008994247111814,-9.9589501333455e-07,1.0496405180191e-06,-0.0011714815562533,0.0011714776961853,7.2305270092802e-07,-7.9664139025139e-07,-0.0014957594787848,0.0014955717590449,-0.0014962491387576,0.0014950613063701,-0.0014950991053408,0.0014962546411108,-0.0014955587791887,0.0014957642830466,-0.0011224677429382,0.0011240544551324,-0.0011244893969648,0.0011220209674474,0.71641844054344,134640,3014,0.0036933814883411,0.0036933838415893,0.0048687297230218,35.925106812988,0.00020260085450391,0.00020260085450391,0.00020260085450391,2790608.0903555,0.012332334393584
36419200,0.99999175054893,0.015015897201951,0.0046358155377648,0.0046358121129908,0.0057442695511949,-0.00088878030814152,0.00088912539550185,1.1902126996529e-06,-8.4285719077641e-07,-7.5217241970924e-07,1.1728500308483e-06,-0.0011743298350656,0.0011747041160868,-0.0011750002354608,0.0011740222470837,-0.0011737191813293,0.0011753365764776,-0.001174397480248,0.0011746539032323,-0.00099707340457833,0.0010000682010642,-0.00099901877463389,0.00099802557224264,7.4398860080573e-07,-1.183395253831e-06,-9.7152149534242e-07,6.1028045188431e-07,-0.00088913077520204,0.00088877439029043,-0.001174626795603,0.0011744125389514,-0.0011741272325784,0.0011749348487376,-0.0011752302636014,0.0011737781576387,-0.0011747354379974,0.0011742987301717,-0.000999788915265,0.00099723988735926,-0.00099830462452643,0.00099881796643271,-0.00090083885585435,0.00090281508354,-0.00090271013145107,0.00090089746658997,-9.901454224759e-07,1.0405940037471e-06,-0.0011731274972268,0.0011731237692614,7.1990855810869e-07,-7.9058810623645e-07,-0.0014971524638436,0.0014969677812808,-0.0014976392533397,0.0014964624681001,-0.0014964925180185,0.0014976473565271,-0.0014969655214012,0.0014971550874991,-0.0011241804659945,0.0011257270784717,-0.0011261588377754,0.0011237114651843,0.73065038834389,134640,3014,0.0036987535317075,0.0036987523927858,0.0048755460817221,37.478875580639,0.00021503100464512,0.00021503100464512,0.00021503100464512,2808726.7820513,0.012350095499982
37419200,0.99999518216182,0.015015947351795,0.0046358323451153,0.0046358289203504,0.0057442860863291,-0.00088886846386346,0.0008892160082507,1.2087289845161e-06,-8.5808345928346e-07,-7.5089266974678e-07,1.1757861837279e-06,-0.0011755953524914,0.0011759818269096,-0.0011762782707001,0.0011752893915637,-0.0011749841125764,0.0011766129879731,-0.0011756737915313,0.0011759215408196,-0.00099687194406876,0.0009999050587791,-0.00099884577763448,0.00099782655528919,7.4477909184447e-07,-1.1840447510033e-06,-9.7542294825444e-07,6.1371813416152e-07,-0.00088922017360415,0.0008888640235392,-0.001175898876059,0.0011756823198473,-0.0011753963530439,0.0011762083500319,-0.0011765051112616,0.0011750488634668,-0.0011760063818052,0.0011755725912425,-0.0009996086457996,0.0009970517314602,-0.00099812111410508,0.00099863772398457,-0.00090095353680765,0.00090293190347363,-0.00090282291393101,0.00090101435947818,-1.0079886212517e-06,1.0562078538524e-06,-0.0011723331848236,0.001172326101804,7.2106821375706e-07,-7.9652529555407e-07,-0.0014974808361456,0.0014972846567277,-0.0014979719851932,0.001496777862275,-0.0014968097638602,0.0014979754688494,-0.0014972866359881,0.0014974810184902,-0.0011236007058959,0.0011251776942074,-0.0011256158467282,0.0011231340563528,0.71959281111447,134640,3014,0.0036991293742863,0.0036991287871034,0.0048722580030843,37.680188805287,0.0002166415104423,0.0002166415104423,0.0002166415104423,2784136.490732,0.012347555724008
38419200,0.99999715467108,0.015015977285748,0.0046358423778646,0.0046358389531071,0.0057442959547759,-0.00088749480979832,0.00088783532169333,1.2083897266848e-06,-8.6563998741263e-07,-7.4458162798318e-07,1.1603360816383e-06,-0.0011740764749086,0.0011744669077903,-0.0011747611818436,0.001173771448002,-0.001173472565964,0.0011750926894683,-0.0011741645099152,0.0011743963026625,-0.00099541300045567,0.00099843533028756,-0.00099739717771303,0.00099635268954288,7.3625728820979e-07,-1.1710403723013e-06,-9.6907133072981e-07,6.1176112343384e-07,-0.00088784103469435,0.00088748861631543,-0.001174382934181,0.0011741659173868,-0.001173883506706,0.0011746882104384,-0.0011749803137191,0.0011735388946312,-0.0011744857577734,0.0011740585800282,-0.000998136802443,0.00099559926214612,-0.00099665326259041,0.00099717584519528,-0.00089967438047937,0.00090163544135061,-0.00090152627891666,0.0008997371425143,-1.0102650712653e-06,1.061474494618e-06,-0.001170385902094,0.0011703826348664,7.197506718048e-07,-7.8977338298387e-07,-0.0014953727608519,0.0014951742358465,-0.0014958593037362,0.0014946691826455,-0.0014946993811012,0.0014958674794306,-0.0014951712554176,0.0014953756470672,-0.0011218374140017,0.0011234252951425,-0.0011238557668799,0.0011213696958027,0.7458304254951,134640,3014,0.0036934083163053,0.0036934072983539,0.004864192873724,37.196433269657,0.00021277146615725,0.00021277146615725,0.00021277146615725,2774837.5393334,0.012327800542894
38880000,0.99999784346331,0.015015987800827,0.0046358459027269,0.0046358424779714,0.0057442994201282,-0.0008876311932917,0.00088796786855576,1.2203822519471e-06,-8.8139217663409e-07,-7.2862847804697e-07,1.1397154204274e-06,-0.0011754676611694,0.0011758752438601,-0.0011761611443321,0.0011751705068965,-0.0011748751654459,0.0011764891136457,-0.0011755762595434,0.001175783521292,-0.00099524145730457,0.00099827622513708,-0.00099725357017356,0.00099616617197896,7.2041547051421e-07,-1.1503492977423e-06,-9.7033327863577e-07,6.1732544682501e-07,-0.00088797332252648,0.00088762517568811,-0.0011757872348994,0.0011755605215017,-0.0011752857577694,0.0011760848198273,-0.0011763728318797,0.0011749449350368,-0.0011758762188933,0.0011754671889611,-0.00099796672765036,0.00099543908127154,-0.00099647662167462,0.00099702236048458,-0.00089982682184626,0.00090175821161587,-0.00090164290830636,0.00089989731402422,-1.0248115562611e-06,1.0746038997697e-06,-0.0011696974299532,0.0011696928824111,7.2238698180493e-07,-7.9384508175803e-07,-0.0014959168174542,0.0014957101725995,-0.0014964056144209,0.0014952029318961,-0.0014952340425893,0.0014964126295361,-0.0014957087729875,0.0014959184634801,-0.0011213463992816,0.0011229577458033,-0.0011233922625127,0.0011208751290536,0.74998938909384,134640,3014,0.0036939728299864,0.0036939716374925,0.0048613496151505,37.193663116545,0.00021274930493236,0.00021274930493236,0.00021274930493236,2748711.4367508,0.0123260947273
