time,ASR_ext,ASR_strain,ASR_strain_xx,ASR_strain_yy,ASR_strain_zz,disp_x_101,disp_x_102,disp_x_103,disp_x_104,disp_x_105,disp_x_106,disp_x_p1_neg,disp_x_p1_pos,disp_x_p2_neg,disp_x_p2_pos,disp_x_p3_neg,disp_x_p3_pos,disp_x_p4_neg,disp_x_p4_pos,disp_x_p5_neg,disp_x_p5_pos,disp_x_p6_neg,disp_x_p6_pos,disp_y_101,disp_y_102,disp_y_103,disp_y_104,disp_y_105,disp_y_106,disp_y_p1_neg,disp_y_p1_pos,disp_y_p2_neg,disp_y_p2_pos,disp_y_p3_neg,disp_y_p3_pos,disp_y_p4_neg,disp_y_p4_pos,disp_y_p5_neg,disp_y_p5_pos,disp_y_p6_neg,disp_y_p6_pos,disp_y_p7_neg,disp_y_p7_pos,disp_y_p8_neg,disp_y_p8_pos,disp_z_101,disp_z_102,disp_z_103,disp_z_104,disp_z_105,disp_z_106,disp_z_p1_neg,disp_z_p1_pos,disp_z_p2_neg,disp_z_p2_pos,disp_z_p3_neg,disp_z_p3_pos,disp_z_p4_neg,disp_z_p4_pos,disp_z_p5_neg,disp_z_p5_pos,disp_z_p6_neg,disp_z_p6_pos,humidity,ndof,nelem,strain_xx,strain_yy,strain_zz,temp,thermal_strain_xx,thermal_strain_yy,thermal_strain_zz,vonmises,vstrain
2419200,0,0,0,0,0,0,0,0,0,0,0,0,0,0,0,0,0,0,0,0,0,0,0,0,0,0,0,0,0,0,0,0,0,0,0,0,0,0,0,0,0,0,0,0,0,0,0,0,0,0,0,0,0,0,0,0,0,0,0,0,0,0,0,0,0,0,0,0,0,0,0,0,0,0,0
3419200,0.15884132862448,0.0030073338019451,0.0010024446006484,0.0010024446006484,0.0010024446006484,-0.00025973891765618,0.00025972741682693,-4.4557094664873e-09,-4.4557092590818e-09,-4.2833302651528e-09,-4.3917142032707e-09,-0.00026904765249875,0.00026903783397059,-0.00026904802901695,0.00026903821048474,-0.00026904847277457,0.00026903865999629,-0.00026904884604029,0.00026903903323906,-0.00026696051560305,0.00026695111291445,-0.00026696084809174,0.00026695144540834,-4.283332838025e-09,-4.3916791296349e-09,-4.6046351208199e-09,-4.3067495228487e-09,-0.00025973891763938,0.00025972741684237,-0.00026904771390471,0.00026903778689719,-0.00026904796760317,0.00026903825758681,-0.00026904853252882,0.00026903861129753,-0.00026904878623566,0.00026903908197589,-0.00026696066972063,0.00026695097899989,-0.00026696069392858,0.00026695157938393,-0.00026149869065613,0.00026148967644825,-0.00026149904375584,0.00026148989964513,-1.0693776391295e-09,-1.0693778332854e-09,-0.00028158964508057,0.0002815861692836,-8.9827423811804e-10,-1.2134337350867e-09,-0.00028941990611004,0.00028941749574263,-0.00028942101017835,0.0002894183840626,-0.00028942090229622,0.00028941849192026,-0.00028942196493296,0.00028941933882239,-0.00027874894069556,0.00027874649075851,-0.00027874837514816,0.00027874592520834,0.75746877217741,125301,3014,0.0010816388354981,0.0010816388354953,0.0011725885013657,31.8115361597,0.0001696922892776,0.0001696922892776,0.0001696922892776,2464288.6735793,0.003341441084171
4419200,0.34870337290037,0.0063276798882811,0.0020173345146356,0.0020173345146261,0.0022930108590193,-0.00048369996473759,0.00048367597719239,-1.0176705768816e-08,-1.0176647618842e-08,-9.4573544311816e-09,-9.8586398519595e-09,-0.00052093840495439,0.00052091583372493,-0.00052094013683211,0.00052091756573144,-0.00052094102775799,0.00052091833291993,-0.00052094273643799,0.00052092004169485,-0.0005208910841837,0.0005208701557508,-0.00052089300122642,0.00052087207290802,-9.4573549383125e-09,-9.858609223919e-09,-1.1052730033762e-08,-9.3005927712538e-09,-0.00048369996472377,0.00048367597720572,-0.00052093877123897,0.00052091556085121,-0.00052093977053028,0.00052091783863818,-0.00052094138244131,0.00052091804845681,-0.00052094238171914,0.00052092032619469,-0.0005208920089511,0.0005208693838942,-0.00052089207641084,0.00052087284479695,-0.00048861610225731,0.00048859698897326,-0.00048861679502506,0.00048859708950795,-5.3942503421489e-09,-5.3941915358278e-09,-0.00058808697516415,0.00058807380843806,-4.3473181447677e-09,-6.2355380706216e-09,-0.00063120972229089,0.00063119890411184,-0.0006312144520639,0.00063120232995116,-0.00063121380012052,0.00063120298184759,-0.00063121835166761,0.00063120622949932,-0.00057022593454261,0.0005702142820383,-0.00057022365605903,0.00057021200351472,0.73992840791513,125301,3014,0.0020134125216122,0.0020134125216112,0.0024472581044264,33.601129363016,0.00018400903490413,0.00018400903490413,0.00018400903490413,4118236.9800899,0.0064951344491138
5419200,0.54810185415108,0.0095927308366924,0.0029757495557983,0.0029757495558157,0.0036412317250784,-0.00069075923641972,0.00069075764835421,3.3467784364514e-10,3.3467396932232e-10,9.9785920049815e-11,-2.1279304877431e-10,-0.00077446196786943,0.00077446113513133,-0.0007744625433006,0.00077446171058863,-0.00077446298399465,0.00077446188112734,-0.00077446353008037,0.00077446242720368,-0.00076706489941406,0.00076706571356483,-0.0007670652327016,0.00076706604648834,9.976677726128e-11,-2.1280964827824e-10,-2.6001008040614e-10,9.2931990052476e-10,-0.00069075923644183,0.00069075764833733,-0.00077446223675231,0.00077446096148437,-0.00077446227445226,0.00077446188420025,-0.00077446323830562,0.00077446169290546,-0.00077446327581626,0.00077446261540551,-0.00076706558413454,0.00076706525934537,-0.00076706454802606,0.00076706650068557,-0.00069781018912359,0.0006978100021431,-0.00069780962480128,0.00069780886694548,-3.4028112626282e-09,-3.4028135227356e-09,-0.00090220073295619,0.000902192887632,-2.5176218079555e-09,-3.9530526744543e-09,-0.0010050132045153,0.0010050065455485,-0.0010050142088983,0.001005006500123,-0.0010050136839912,0.0010050070250163,-0.0010050145572796,0.0010050068485209,-0.00086617306223209,0.00086616554489546,-0.0008661750153829,0.00086616749747211,0.72499638738019,125301,3014,0.0028743279382089,0.0028743279382198,0.0037518213917633,36.269966274193,0.00020535973019354,0.00020535973019354,0.00020535973019354,4854057.3328726,0.0095459457790558
6419200,0.70462943321266,0.011633229235551,0.0035690730614177,0.0035690730614265,0.004495083112707,-0.00080406778707897,0.00080406089985902,-2.9874422031619e-09,-2.9874603860182e-09,-2.7042600766374e-09,-2.9017781926828e-09,-0.00093657582096365,0.00093656955626453,-0.00093657613594602,0.00093656987175742,-0.00093657636597457,0.00093657000437968,-0.00093657667512292,0.00093657031399537,-0.00090100142336504,0.00090099599350439,-0.00090100185384657,0.0009009964234742,-2.7042664600579e-09,-2.9017739377411e-09,-3.2214616423734e-09,-2.7534430213855e-09,-0.0008040677870811,0.00080406089985926,-0.00093657592632094,0.00093656947967808,-0.0009365760305883,0.00093656994834502,-0.00093657646842709,0.00093656992488526,-0.00093657657267119,0.00093657039349586,-0.00090100171258436,0.00090099583608459,-0.00090100156462145,0.00090099658090642,-0.0008080823128442,0.00080807700285,-0.0008080815330829,0.00080807593134569,-1.5182956794327e-09,-1.5183125160948e-09,-0.001087665752,0.0010876621403221,-1.1007639630195e-09,-1.7308802245031e-09,-0.0012506530702787,0.00125065050208,-0.0012506539954454,0.0012506509291889,-0.0012506537464354,0.0012506511781726,-0.0012506546047261,0.0012506515384353,-0.0010343718660964,0.0010343685334489,-0.0010343717565446,0.00103436842298,0.59839168540088,125301,3014,0.0033452629099585,0.0033452629099634,0.0045212318669956,36.738998878866,0.00020911199103093,0.00020911199103093,0.00020911199103093,4960478.1399992,0.011275228941875
7419200,0.83070066035559,0.013061248736858,0.0039972312526499,0.0039972312526568,0.0050667862315509,-0.00088256495129636,0.00088255846884252,-2.4968613128361e-09,-2.4969323717535e-09,-2.3816610341108e-09,-2.5615917573655e-09,-0.0010538635504809,0.0010538580681981,-0.0010538637972687,0.001053858315311,-0.0010538641766161,0.0010538586108028,-0.001053864419646,0.0010538588541202,-0.00099214679130984,0.00099214225774821,-0.00099214712993926,0.00099214259582691,-2.3816691805492e-09,-2.5615930380304e-09,-2.4919034667508e-09,-2.501899468597e-09,-0.0008825649513022,0.00088255846883929,-0.0010538635784123,0.0010538580670795,-0.0010538637693417,0.0010538583164266,-0.0010538642027153,0.0010538586078469,-0.0010538643935534,0.0010538588570727,-0.00099214683634997,0.00099214232486004,-0.00099214708490251,0.00099214252872307,-0.00088479896206711,0.0008847940392428,-0.00088479843564941,0.0008847932396042,-1.4764418314802e-09,-1.4765099576931e-09,-0.0012066938385984,0.0012066901870988,-1.3171771779061e-09,-1.4514216843874e-09,-0.0014169426165339,0.0014169399655498,-0.0014169432847738,0.0014169404701676,-0.0014169432029666,0.0014169405519507,-0.0014169438071169,0.0014169409925038,-0.0011430616144974,0.0011430585239048,-0.0011430617908003,0.0011430586993058,0.52694121020036,125301,3014,0.0036714572347063,0.0036714572347117,0.0050146862550373,40.765899685908,0.00024132719748726,0.00024132719748726,0.00024132719748726,4865707.0272936,0.012434847028375
8419200,0.90695811151703,0.013835255325403,0.0042350464074151,0.0042350464074217,0.0053651625105666,-0.00091282768827873,0.00091282429203965,-1.3248931268068e-09,-1.3249690511932e-09,-1.2809963594258e-09,-1.4251981788945e-09,-0.0011116863797717,0.0011116835731742,-0.0011116864840079,0.0011116836777139,-0.0011116868095694,0.0011116839272893,-0.0011116869121669,0.0011116840301531,-0.0010280135564409,0.0010280115403741,-0.0010280138646507,0.0010280118480118,-1.2810025173254e-09,-1.4251972774037e-09,-1.0361010043908e-09,-1.6137680782963e-09,-0.00091282768828286,0.00091282429203764,-0.0011116863074024,0.0011116836646021,-0.001111686556378,0.0011116835862841,-0.0011116867364253,0.0011116840179372,-0.0011116869853145,0.001111683939505,-0.0010280133165878,0.001028011876059,-0.0010280141045047,0.001028011512339,-0.00091572203010271,0.00091571931836541,-0.00091572161002777,0.00091571867452258,-7.3991139703825e-10,-7.3998441680754e-10,-0.0012519571550831,0.0012519555191122,-8.8309089459111e-10,-4.3439831631197e-10,-0.0014920416069208,0.0014920404721362,-0.0014920417929017,0.0014920408875964,-0.0014920419076446,0.0014920407728292,-0.0014920420421369,0.0014920411368242,-0.0011867935810228,0.00118679226329,-0.001186793802471,0.0011867924838169,0.47156008474719,125301,3014,0.0037972834763702,0.0037972834763746,0.0052022452695448,41.433995330686,0.00024667196264549,0.00024667196264549,0.00024667196264549,4567481.6528197,0.012879795006625
9419200,0.9492158918862,0.014207807774582,0.0043521074203144,0.0043521074203208,0.0055035929339463,-0.00092024399615883,0.00092024194690961,-8.0194300054475e-10,-8.0202043317924e-10,-7.9627745137339e-10,-9.2252825033638e-10,-0.0011363707018392,0.0011363691109147,-0.0011363707201887,0.0011363691295625,-0.0011363710368536,0.0011363693750209,-0.0011363710542648,0.0011363693926931,-0.001036959152656,0.0010369582556806,-0.00103695945894,0.0010369585613864,-7.9628398459139e-10,-9.2252842889159e-10,-2.3056945327664e-10,-1.3734012512271e-09,-0.00092024399616269,0.00092024194690687,-0.0011363705334447,0.0011363692959154,-0.0011363708885847,0.0011363689445584,-0.0011363708680309,0.0011363695595896,-0.0011363712230898,0.0011363692081235,-0.0010369586339818,0.0010369588648218,-0.0010369599776135,0.0010369579522552,-0.00092422603653124,0.00092422419221037,-0.00092422568728666,0.00092422364614315,-2.9312587008823e-10,-2.9320024052215e-10,-0.0012611987933421,0.001261198317669,-7.2550818463473e-10,2.9360579001524e-10,-0.0015186928957076,0.0015186926060167,-0.0015186927378663,0.001518693059725,-0.0015186930436456,0.0015186927539228,-0.0015186928405089,0.0015186931623591,-0.0011975107549789,0.0011975105755585,-0.0011975109962251,0.0011975108158823,0.40621133923259,125301,3014,0.0038281861219356,0.0038281861219379,0.0052405252690972,41.145122586039,0.00024436098068831,0.00024436098068831,0.00024436098068831,4274082.4350421,0.012981302350584
10419200,0.97036258467075,0.014411132115474,0.0044171284556807,0.0044171284556869,0.0055768752041063,-0.00091813289553512,0.00091813403822932,4.4304169035106e-10,4.4296409969199e-10,3.8298689604263e-10,2.9267558757935e-10,-0.0011429987493186,0.0011429999979806,-0.0011429986076854,0.0011429998566428,-0.0011429988636754,0.0011430000447111,-0.0011429987225195,0.001142999903813,-0.0010359999895901,0.0010360017472175,-0.001036000282888,0.0010360020399347,3.829812031533e-10,2.9267599191075e-10,1.3653340706578e-09,-4.7933429077809e-10,-0.00091813289553854,0.00091813403822729,-0.0011429984585949,0.0011430002991015,-0.0011429988984087,0.0011429995555201,-0.0011429985732307,0.001143000346106,-0.001142999012966,0.0011429996024184,-0.001035999123821,0.001036002694265,-0.0010360011486557,0.0010360010928977,-0.00092351180151469,0.00092351226700566,-0.00092351151599754,0.00092351183434074,4.7079615961814e-10,4.7072175753813e-10,-0.0012586288749314,0.0012586304676119,-3.2481449678714e-10,1.4058869842059e-09,-0.001524592682339,0.0015245939394614,-0.001524591982708,0.0015245943293072,-0.0015245925274512,0.0015245937845408,-0.0015245917940297,0.0015245941406194,-0.001196894393238,0.0011968960882478,-0.0011968946911183,0.0011968963852041,0.43665130715676,125301,3014,0.0038194867788578,0.0038194867788606,0.0052298643843692,38.09674846093,0.00021997398768744,0.00021997398768744,0.00021997398768744,4130222.4078738,0.012952957837596
11419200,0.9825791332114,0.014520355799587,0.004452299646122,0.0044522996461282,0.0056157565073365,-0.00091656235638213,0.00091656091561275,-5.6283591927842e-10,-5.6291400601058e-10,-5.813339523968e-10,-7.004617754324e-10,-0.0011507425988565,0.0011507415490305,-0.0011507425652106,0.0011507415156785,-0.0011507428958077,0.0011507417772375,-0.0011507428602439,0.0011507417419291,-0.001034102095064,0.0010341017160155,-0.0010341024090179,0.0010341020293891,-5.8133894380545e-10,-7.0046285083889e-10,5.7276937755293e-10,-1.6985260192286e-09,-0.000916562356386,0.00091656091561053,-0.0011507422470132,0.0011507419225085,-0.0011507429170536,0.0011507411421989,-0.0011507425430451,0.0011507421497898,-0.0011507432130094,0.0011507413693765,-0.0010341010260492,0.0010341028807898,-0.0010341034780345,0.0010341008646254,-0.00092321531573131,0.00092321357461189,-0.00092321502741605,0.0009232131000164,4.9835923546744e-11,4.9761050657589e-11,-0.0012529829259567,0.0012529833038462,-9.3786200419484e-10,1.2012788800195e-09,-0.0015275233937104,0.0015275234926991,-0.0015275227849838,0.0015275242397056,-0.001527523462856,0.0015275235618102,-0.0015275228115833,0.0015275242662952,-0.0011939905396606,0.0011939914605769,-0.0011939907965687,0.0011939917165656,0.40445605707229,125301,3014,0.0038130221122796,0.003813022112283,0.0052064658105052,37.627563646026,0.00021622050916821,0.00021622050916821,0.00021622050916821,3913572.5544878,0.012916253240956
12419200,0.98958692163772,0.014591282320087,0.0044753466723745,0.0044753466723806,0.0056405889753322,-0.00091522315724661,0.00091522216446473,-3.9111115008754e-10,-3.9118923679028e-10,-4.2083430158037e-10,-5.3396613267176e-10,-0.0011528999931475,0.0011528993411716,-0.0011528999327224,0.001152899281039,-0.0011529002596361,0.0011528995397164,-0.0011529001971151,0.0011528994774505,-0.0010330731621014,0.001033073153764,-0.0010330734757822,0.0010330734668622,-4.208392790838e-10,-5.3396658718913e-10,9.2489776366031e-10,-1.7072045935362e-09,-0.00091522315725005,0.00091522216446256,-0.0011528995820123,0.0011528997747849,-0.0011529003438565,0.0011528988474242,-0.001152899847492,0.0011528999723147,-0.0011529006092615,0.0011528990448516,-0.0010330719167626,0.0010330744958187,-0.0010330747211201,0.0010330721248166,-0.00092271180437933,0.00092271029719871,-0.00092271152965257,0.00092270984504662,1.9556902714752e-10,1.9549418025757e-10,-0.0012499237046124,0.0012499244663918,-9.7101261120185e-10,1.5274588625626e-09,-0.0015278176349925,0.0015278179511806,-0.0015278168607601,0.0015278187716585,-0.0015278176581207,0.0015278179742746,-0.0015278168431205,0.0015278187540082,-0.0011922252386062,0.0011922265925641,-0.0011922255037679,0.0011922268568044,0.45322610794666,125301,3014,0.003807483564864,0.0038074835648667,0.0051937873515171,36.803228312369,0.00020962582649895,0.00020962582649895,0.00020962582649895,3837821.3921494,0.012892225339723
13419200,0.99350101039076,0.014627583157849,0.0044871768716686,0.0044871768716747,0.005653229414506,-0.00090898631403851,0.00090898664979827,1.2298524297348e-10,1.2290680636967e-10,6.8092778856464e-11,-3.5084337668155e-11,-0.0011523794848012,0.0011523799674568,-0.0011523793605904,0.0011523798435378,-0.0011523796677492,0.001152380080951,-0.0011523795417041,0.0011523799551602,-0.0010264058644207,0.0010264069614546,-0.0010264061755306,0.0010264072719821,6.8087718612614e-11,-3.5084839954281e-11,1.6251406850391e-09,-1.3792552432829e-09,-0.000908986314042,0.00090898664979599,-0.0011523790105776,0.0011523804630147,-0.001152379834813,0.0011523793479783,-0.0011523791926466,0.0011523805756238,-0.001152380016809,0.0011523794604867,-0.0010264044364055,0.0010264084848033,-0.001026407603545,0.0010264057486426,-0.00091734050992091,0.00091733994146737,-0.00091734026693368,0.0009173395320544,5.0223073431346e-10,5.0215563260776e-10,-0.0012399896768894,0.0012399913048432,-8.5192889680405e-10,2.0195268628112e-09,-0.0015232570038613,0.0015232578964042,-0.0015232559894582,0.0015232587258023,-0.0015232569113646,0.0015232578038725,-0.0015232558595929,0.0015232585959257,-0.0011842131777167,0.0011842153267726,-0.0011842134713052,0.0011842156194433,0.4150894025916,125301,3014,0.0037816335850709,0.0037816335850734,0.0051526261108306,34.792088434709,0.00019353670747767,0.00019353670747767,0.00019353670747767,3700122.6333425,0.012798234498123
14419200,0.99576125093871,0.014647004473264,0.0044935380164978,0.0044935380165039,0.0056599284402619,-0.00090373055882635,0.00090373108379224,1.9401255719661e-10,1.9393431226341e-10,1.3338774462537e-10,3.4764129244421e-11,-0.0011476745038451,0.0011476751722195,-0.0011476743657076,0.0011476750343738,-0.0011476746709762,0.0011476752710164,-0.0011476745306886,0.0011476751309831,-0.0010214203979703,0.0010214216474891,-0.0010214207135471,0.0010214219624822,1.3338259385153e-10,3.4763821950499e-11,1.8573098979911e-09,-1.4693695873867e-09,-0.00090373055882981,0.00090373108379,-0.0011476739772754,0.0011476757215507,-0.0011476748922765,0.0011476744850407,-0.0011476741433695,0.0011476758193048,-0.0011476750582977,0.0011476745826943,-0.0010214188127199,0.0010214233297022,-0.001021422298797,0.0010214202802787,-0.00091239352207162,0.00091239299035659,-0.00091239328777688,0.00091239259732551,5.8271304539881e-10,5.8263816162763e-10,-0.0012343960848764,0.0012343979128967,-9.3008897812604e-10,2.2614440392899e-09,-0.0015182206970685,0.0015182216777286,-0.0015182195532065,0.0015182225902015,-0.0015182205813797,0.0015182215620049,-0.0015182194012837,0.0015182224382672,-0.0011789323622422,0.0011789347867251,-0.0011789326521183,0.0011789350756811,0.38312450045663,125301,3014,0.0037598178617766,0.0037598178617791,0.0051294376099762,32.641228173919,0.00017632982539136,0.00017632982539136,0.00017632982539136,3691305.3596245,0.012730563881875
15419200,0.99693811233462,0.014660565735782,0.004497981202224,0.0044979812022301,0.0056646033313282,-0.00089190814559347,0.00089191230747549,1.6045000126848e-09,1.6044217925156e-09,1.4780783604266e-09,1.4161186833845e-09,-0.0011364244588783,0.0011364283241997,-0.0011364241480725,0.0011364280136853,-0.0011364243768709,0.0011364281743014,-0.0011364240655644,0.001136427863249,-0.0010100201985539,0.001010024461532,-0.0010100205027149,0.0010100247651089,1.4780733358081e-09,1.416118910225e-09,3.5215993121011e-09,-3.1268336332451e-10,-0.00089190814559614,0.0008919123074732,-0.0011364238407818,0.0011364289573358,-0.0011364247661668,0.001136427380547,-0.0011364237585618,0.0011364288072197,-0.0011364246838741,0.0011364272303304,-0.001010018361068,0.0010100263858275,-0.0010100223401998,0.0010100228408235,-0.00090081338962411,0.0009008155902293,-0.00090081321024473,0.00090081530032735,1.370734600293e-09,1.3706598176952e-09,-0.0012232475761158,0.0012232515980008,-4.1020472626248e-10,3.3004187969418e-09,-0.0015075658091501,0.0015075684650344,-0.0015075641638663,0.001507569226259,-0.0015075653671265,0.0015075680229758,-0.0015075636969372,0.0015075687593184,-0.0011679268638145,0.0011679311645672,-0.0011679272112264,0.0011679315110576,0.51103778709309,125301,3014,0.0037107541123704,0.0037107541123713,0.0050832207898573,27.062961759112,0.0001317036940729,0.0001317036940729,0.0001317036940729,3708312.9144502,0.012584401538058
16419200,0.9976938230536,0.014668468367531,0.0045005692475353,0.0045005692475414,0.005667329872454,-0.00088269436124621,0.0008826954246463,4.0000936372381e-10,3.9993062704093e-10,3.2940928112552e-10,2.3024010261703e-10,-0.0011342691141515,0.0011342702011853,-0.0011342689501787,0.0011342700375037,-0.0011342692559064,0.0011342702720929,-0.0011342690889565,0.0011342701053969,-0.00099997610426942,0.00099997780488254,-0.00099997642546919,0.00099997812550026,3.2940399863077e-10,2.3023997778628e-10,2.4180147426214e-09,-1.6180815988775e-09,-0.00088269436124973,0.00088269542464401,-0.0011342684730355,0.0011342708690825,-0.0011342695912936,0.0011342693696046,-0.0011342686133391,0.0011342709385331,-0.0011342697315261,0.0011342694389565,-0.00099997417383877,0.0009999798376846,-0.0009999783558986,0.00099997609270635,-0.00089260408655826,0.00089260375236154,-0.00089260388224285,0.00089260338508357,7.4613815987374e-10,7.4606287435013e-10,-0.001208551524699,0.0012085538167298,-1.1124999416551e-09,2.7802750406236e-09,-0.0014997071390509,0.001499708232956,-0.0014997057229203,0.0014997093381816,-0.0014997069836043,0.0014997080774735,-0.0014997055314388,0.0014997091466879,-0.0011556712672633,0.0011556742883995,-0.0011556715701009,0.0011556745903231,0.46538451425637,125301,3014,0.0036725440639972,0.0036725440639997,0.0050223248892201,24.415099614996,0.00011052079691997,0.00011052079691997,0.00011052079691997,3529245.4570881,0.012445452625681
17419200,0.99820136525494,0.014674505287256,0.0045025578183423,0.0045025578183484,0.0056693896505657,-0.00087641018348406,0.00087641104067001,3.164177898596e-10,3.1633941184223e-10,2.469576868916e-10,1.5030807744141e-10,-0.0011270309782938,0.0011270319182276,-0.0011270308180932,0.0011270317583184,-0.0011270311285875,0.0011270319994034,-0.0011270309650888,0.0011270318361589,-0.00099413069123989,0.0009941322137757,-0.00099413101677655,0.00099413253872784,2.4695240815754e-10,1.5030801116586e-10,2.414442755047e-09,-1.781691935685e-09,-0.00087641018348733,0.00087641104066778,-0.0011270303118655,0.0011270326128616,-0.0011270314845203,0.0011270310636825,-0.0011270304605471,0.00112703269242,-0.0011270316331308,0.0011270311431421,-0.00099412868302438,0.00099413432610648,-0.0009941330249907,0.00099413042640626,-0.0008865457007971,0.00088654513976872,-0.00088654549353521,0.00088654477566,7.3840782882416e-10,7.3833289381926e-10,-0.0012026865909699,0.0012026888338426,-1.1980118082381e-09,2.8530266229215e-09,-0.0014928890278661,0.0014928900680656,-0.0014928875687509,0.0014928912349669,-0.0014928888817653,0.001492889921929,-0.0014928873869675,0.0014928910531713,-0.0011498049829926,0.0011498080336095,-0.0011498052744391,0.0011498083241374,0.52521873377382,125301,3014,0.0036464446415443,0.0036464446415465,0.0049980009316773,21.977283830155,9.1018270641241e-05,9.1018270641241e-05,9.1018270641241e-05,3550960.6120101,0.01236796327137
18419200,0.9985167800339,0.014678105385497,0.0045037431771612,0.0045037431771673,0.0056706190311686,-0.00086445121441703,0.00086445421750732,1.1435835093382e-09,1.1435048896223e-09,1.0370040429442e-09,9.5738634371026e-10,-0.0011187110745251,0.0011187138523553,-0.0011187108121943,0.0011187135903159,-0.001118711085154,0.0011187137921397,-0.0011187108205033,0.0011187135277429,-0.00098188601976524,0.00098188932079556,-0.00098188634214567,0.00098188964259218,1.0369987276734e-09,9.5738619090059e-10,3.3669111206419e-09,-1.0798288633893e-09,-0.00086445121442017,0.00086445421750505,-0.0011187103621867,0.0011187145883452,-0.0011187115245315,0.001118712854324,-0.0011187103716923,0.0011187145270004,-0.0011187115339664,0.0011187127928814,-0.00098188388680788,0.0009818915520932,-0.00098188847510128,0.00098188741130347,-0.0008751762870702,0.00087517735768675,-0.0008751761206854,0.00087517705413618,1.1993995031391e-09,1.1993244064626e-09,-0.0011880828261155,0.0011880863900503,-8.703985048202e-10,3.437612464093e-09,-0.0014818100773082,0.0014818120985031,-0.0014818083467243,0.001481813167586,-0.0014818097465642,0.001481811767723,-0.0014818079856981,0.0014818128065474,-0.0011364636554269,0.0011364678029759,-0.0011364639850168,0.0011364681316505,0.50516361584657,125301,3014,0.0035968220176076,0.0035968220176095,0.0049374732838159,17.480702445985,5.504561956788e-05,5.504561956788e-05,5.504561956788e-05,3469171.8006361,0.012206274035904
19419200,0.99877790515956,0.014681982966142,0.0045050227566662,0.0045050227566723,0.005671937452804,-0.00086345509869371,0.00086345384713758,-4.7829472136575e-10,-4.7837321079149e-10,-5.2395370313285e-10,-6.8548853535461e-10,-0.001117368477407,0.0011173675509389,-0.0011173682127109,0.0011173672865343,-0.0011173685136995,0.0011173674572631,-0.001117368246688,0.0011173671905057,-0.0009810121466253,0.00098101171842349,-0.00098101246720791,0.00098101203842213,-5.2395902325843e-10,-6.8548869512179e-10,1.7558826206898e-09,-2.7125567716606e-09,-0.00086345509869704,0.00086345384713535,-0.00111736776144,0.0011173682905146,-0.0011173689286769,0.0011173665469567,-0.0011173677966113,0.001117368195712,-0.001117368963778,0.0011173664520563,-0.00098101000300456,0.00098101396034762,-0.00098101461082726,0.00098100979650729,-0.00087434882192412,0.000874346280497,-0.00087434871911703,0.00087434590453114,4.8172087002279e-10,4.8164590975395e-10,-0.0011866132820049,0.0011866147306311,-1.5723791739397e-09,2.7217120705057e-09,-0.0014799964072397,0.0014799966873596,-0.0014799946768683,0.0014799977457877,-0.0014799960712745,0.0014799963513583,-0.0014799943108809,0.0014799973797878,-0.0011351846015759,0.0011351870297789,-0.0011351849298925,0.001135187357179,0.65325215552181,125301,3014,0.0035926714821673,0.0035926714821696,0.0049313761827566,17.551546672657,5.5612373381253e-05,5.5612373381253e-05,5.5612373381253e-05,3457659.0229677,0.012191695259142
20419200,0.9990051501735,0.014685596719968,0.0045062156324466,0.0045062156324527,0.0056731654550686,-0.00086193085004133,0.00086192812306752,-1.0705741587826e-09,-1.0706530974004e-09,-1.0806387432429e-09,-1.2153686386018e-09,-0.0011220258531029,0.0011220236533294,-0.0011220258582572,0.0011220236587747,-0.0011220262520845,0.0011220239812612,-0.001122026251722,0.0011220239811523,-0.00097840737577335,0.00097840592827483,-0.00097840772911746,0.00097840628103499,-1.0806441401392e-09,-1.2153687252885e-09,1.0916803202235e-09,-3.2329138897239e-09,-0.00086193085004471,0.00086192812306529,-0.001122025175289,0.0011220243700931,-0.0011220265360705,0.0011220229420091,-0.0011220255715477,0.0011220246952967,-0.0011220269322606,0.0011220232671165,-0.0009784053096874,0.0009784081125294,-0.00097840979520197,0.0009784040967897,-0.0008737753310328,0.00087377185713817,-0.00087377510843962,0.00087377142689289,1.6525622388874e-11,1.6450324277415e-11,-0.0011783395421655,0.0011783397554348,-1.9620271502997e-09,2.1987082832359e-09,-0.0014780342633761,0.0014780335669361,-0.0014780330843292,0.0014780350808609,-0.0014780344308217,0.001478033734345,-0.0014780332052536,0.0014780352017718,-0.0011292850218077,0.0011292865424011,-0.001129285248612,0.0011292867682932,0.70012779305905,125301,3014,0.0035863696576564,0.0035863696576588,0.0048971183909495,18.596680032517,6.3973440260136e-05,6.3973440260136e-05,6.3973440260136e-05,3276576.7798425,0.012144340647659
21419200,0.9991597734144,0.014687887633557,0.0045069760966449,0.0045069760966511,0.0056739354402613,-0.00085158013511636,0.00085158203341023,7.0623407932777e-10,7.0615523141299e-10,6.1604904694802e-10,5.2348470882795e-10,-0.0011138824515849,0.0011138842373031,-0.0011138822304707,0.0011138840164804,-0.0011138825411004,0.0011138842540922,-0.0011138823171033,0.0011138840303489,-0.00096789912315279,0.00096790150066251,-0.00096789946529001,0.00096790184221437,6.160445564365e-10,5.2348634343059e-10,2.9431148107097e-09,-1.5307292186685e-09,-0.00085158013511838,0.00085158203340944,-0.0011138817373403,0.0011138849779607,-0.0011138829447123,0.0011138832758238,-0.0011138818254494,0.0011138849933383,-0.0011138830327532,0.0011138832911056,-0.00096789697822926,0.0009679037477058,-0.00096790161020915,0.00096789959518248,-0.00086410858713003,0.0008641087552181,-0.00086410843310645,0.00086410844608944,1.0077855039035e-09,1.0077103597579e-09,-0.0011650605719092,0.0011650636244213,-1.0694525824724e-09,3.2603662965624e-09,-0.0014669522473234,0.0014669538129844,-0.001466950603824,0.0014669549818925,-0.001466952010035,0.0014669535756584,-0.0014669503326282,0.001466954710683,-0.0011172131997939,0.0011172169528596,-0.0011172135051052,0.0011172172572572,0.64990944923707,125301,3014,0.0035434102451921,0.0035434102451947,0.0048420800099145,15.22764978968,3.7021198317443e-05,3.7021198317443e-05,3.7021198317443e-05,3211522.3536462,0.012001704809853
22419200,0.99928775654714,0.014689836818347,0.0045076243061051,0.0045076243061112,0.0056745882061309,-0.00084981827824887,0.00084981741467563,-3.4288134335738e-10,-3.4295992163334e-10,-3.9487902931965e-10,-5.384048433222e-10,-0.0011107246759465,0.001110724075677,-0.0011107244522327,0.0011107238522549,-0.0011107247800666,0.0011107240699564,-0.0011107245534771,0.001110723843621,-0.00096623136424488,0.00096623132529358,-0.00096623170662345,0.00096623166708683,-3.9488475537145e-10,-5.3840450746114e-10,1.9009954360262e-09,-2.5868430195848e-09,-0.00084981827825215,0.00084981741467346,-0.0011107239593213,0.0011107248186324,-0.0011107251688572,0.0011107231092975,-0.0011107240620386,0.001110724811504,-0.0011107252715066,0.0011107231020735,-0.00096622921238562,0.00096623357909975,-0.00096623385848096,0.00096622941328975,-0.00086244394047142,0.00086244176493648,-0.00086244382626657,0.00086244141164516,5.5824529578353e-10,5.5817043065884e-10,-0.0011635216732766,0.0011635233746276,-1.5095168370174e-09,2.8120263668189e-09,-0.0014638050345541,0.0014638055103697,-0.0014638033886508,0.0014638066703628,-0.0014638047916059,0.0014638052673843,-0.001463803112111,0.0014638063938095,-0.0011156895556786,0.0011156922208443,-0.0011156898585586,0.0011156925228092,0.66642562144511,125301,3014,0.0035360785917748,0.0035360785917772,0.0048356905297002,14.859229602773,3.4073836822181e-05,3.4073836822181e-05,3.4073836822181e-05,3234247.4392458,0.011980383180262
23419200,0.99940140252689,0.014691467234783,0.0045081664470354,0.0045081664470415,0.0056751343407058,-0.000849846513836,0.00084984417231947,-9.093769704813e-10,-9.0945560722606e-10,-9.4918748925316e-10,-1.0921404650055e-09,-0.0011113778643359,0.0011113759732615,-0.0011113777384643,0.0011113758476818,-0.0011113781117441,0.001111376125013,-0.0011113779820019,0.001111375995525,-0.0009663218374632,0.00096632052406706,-0.00096632226077101,0.00096632094678943,-9.4919351116902e-10,-1.0921404744593e-09,1.3299709983008e-09,-3.1488106004302e-09,-0.00084984651383965,0.0008498441723169,-0.0011113771533811,0.0011113767151587,-0.001111378449419,0.0011113751057815,-0.0011113773988889,0.0011113768650049,-0.0011113786948593,0.0011113752555324,-0.00096631969194981,0.00096632277597421,-0.00096632440628327,0.00096631869489074,-0.00086264262040005,0.00086263918751116,-0.00086264258366032,0.00086263892130119,2.0426341130476e-10,2.0418849185821e-10,-0.0011622739211325,0.001162274628993,-1.8533273460482e-09,2.4571460622715e-09,-0.001463257156206,0.0014632568037971,-0.0014632556975675,0.0014632581424757,-0.001463257096233,0.0014632567437869,-0.0014632555993557,0.0014632580442501,-0.0011148254820625,0.0011148273234055,-0.0011148256522206,0.0011148274926486,0.62875729639222,125301,3014,0.0035361850652908,0.0035361850652931,0.0048305208385093,15.70520921639,4.0841673731122e-05,4.0841673731122e-05,4.0841673731122e-05,3176480.6398107,0.011975376785575
24419200,0.99950867982617,0.014693092522816,0.0045087072130768,0.0045087072130829,0.0056756780966561,-0.00085434509930771,0.00085434119999749,-1.5270238784687e-09,-1.5271023535419e-09,-1.5177519069858e-09,-1.6619205564531e-09,-0.0011152625292666,0.0011152593159991,-0.0011152625818219,0.0011152593688462,-0.0011152630050157,0.0011152597212849,-0.0011152630514332,0.0011152597679569,-0.0009703759919153,0.00097037356659461,-0.00097037635494752,0.00097037392904059,-1.5177573564376e-09,-1.6619200702712e-09,6.0514771513201e-10,-3.6592799034165e-09,-0.0008543450993108,0.00085434119999546,-0.0011152618641148,0.0011152600229544,-0.0011152632469723,0.0011152586618892,-0.00111526233683,0.0011152604252012,-0.0011152637196202,0.0011152590640408,-0.00097037395654115,0.00097037572362728,-0.0009703783903198,0.00097037177201784,-0.00086715041652661,0.00086714602245652,-0.00086715018212694,0.00086714556959784,-1.8099275153097e-10,-1.8106754777541e-10,-0.0011663063075123,0.001166305935366,-2.1239470104797e-09,1.9719988928904e-09,-0.0014662899924371,0.0014662888573523,-0.0014662889299954,0.0014662904428433,-0.0014662902539689,0.0014662891188466,-0.001466289142159,0.0014662906549931,-0.0011190110518521,0.0011190121149614,-0.001119011255134,0.0011190123173271,0.66255127740755,125301,3014,0.0035548489184948,0.003554848918497,0.0048472373995777,17.880258090921,5.8242064727365e-05,5.8242064727365e-05,5.8242064727365e-05,3185323.320361,0.012030059314837
25419200,0.99960648756253,0.014694839472152,0.004509288291062,0.0045092882910681,0.0056762628900221,-0.00085757029218649,0.00085756653134998,-1.4730470210423e-09,-1.4731256379641e-09,-1.4668374155944e-09,-1.6102759575572e-09,-0.0011201570075748,0.0011201539121046,-0.001120157053719,0.0011201539585406,-0.0011201574754396,0.0011201543091317,-0.0011201575159117,0.0011201543498581,-0.00097311461447834,0.00097311230567346,-0.00097311497699912,0.00097311266760841,-1.4668430200056e-09,-1.6102755633817e-09,5.7282836344075e-10,-3.5190072094675e-09,-0.00085757029218968,0.00085756653134787,-0.0011201563692619,0.0011201545900737,-0.0011201576920307,0.0011201532805694,-0.0011201568343252,0.0011201549842943,-0.0011201581570271,0.0011201536746954,-0.00097311266263439,0.00097311437666489,-0.00097311692884148,0.00097311059662638,-0.00087062022230726,0.00087061599666481,-0.00087061999178151,0.0008706155482987,-1.6436776108949e-10,-1.6444269118278e-10,-0.0011670340392598,0.0011670337276368,-2.024888113911e-09,1.9017934688973e-09,-0.0014687399012006,0.001468738864487,-0.0014687388825575,0.0014687403820897,-0.0014687401506874,0.0014687391139362,-0.0014687390830811,0.0014687405825992,-0.0011204819198603,0.0011204829669359,-0.0011204821280856,0.0011204831742466,0.77991302017261,125301,3014,0.0035682443853088,0.003568244385311,0.0048502750517215,19.925316877523,7.4602535020186e-05,7.4602535020186e-05,7.4602535020186e-05,3122614.4522955,0.012060269637477
26419200,0.99968669080169,0.014696364969465,0.0045097965308087,0.0045097965308148,0.0056767719078416,-0.0008547985699135,0.00085479631246757,-8.9918512118824e-10,-8.9926398345553e-10,-9.1515905878365e-10,-1.0299668939978e-09,-0.0011204154515752,0.001120413669488,-0.0011204154983285,0.0011204137165329,-0.001120415911954,0.0011204140794288,-0.0011204159531494,0.0011204141208784,-0.00097058362433295,0.00097058263443284,-0.0009705839901659,0.00097058299967998,-9.1516474439087e-10,-1.0299666022089e-09,1.1407451694694e-09,-2.9392006994045e-09,-0.00085479856991687,0.00085479631246531,-0.0011204148148824,0.0011204143453627,-0.0011204161350203,0.0011204130406557,-0.0011204152725168,0.0011204147525542,-0.0011204165925884,0.0011204134477529,-0.00097058167811873,0.00097058469942443,-0.00097058593637888,0.00097058093469769,-0.00086838462399365,0.00086838167618367,-0.00086838437842735,0.0008683812602958,9.276415453052e-11,9.2688983621057e-11,-0.0011602941208042,0.001160294570712,-1.7719066614237e-09,2.1562183946405e-09,-0.0014656648538918,0.0014656644454551,-0.0014656638349661,0.0014656659644303,-0.0014656651039238,0.0014656646954493,-0.001465664036137,0.0014656661655867,-0.0011148528641675,0.0011148545283083,-0.0011148530713288,0.0011148547345567,0.82922923068302,125301,3014,0.0035567405963037,0.003556740596306,0.0048223555016273,20.393831693015,7.835065354412e-05,7.835065354412e-05,7.835065354412e-05,2966277.7717407,0.012008766791071
27419200,0.99975663496619,0.014697565746516,0.0045101977423813,0.0045101977423874,0.0056771702617469,-0.00085744377838779,0.00085744022668769,-1.3922323532867e-09,-1.3923111547323e-09,-1.3922366285825e-09,-1.5342066923769e-09,-0.0011257723154471,0.0011257693995138,-0.0011257723516497,0.001125769436008,-0.0011257727750209,0.0011257697879697,-0.0011257728060261,0.0011257698192289,-0.00097177318670808,0.00097177105446946,-0.00097177355512172,0.00097177142229677,-1.3922419965462e-09,-1.5342062115184e-09,5.9335105621313e-10,-3.3779007708623e-09,-0.00085744377839094,0.00085744022668564,-0.0011257716954865,0.0011257700570875,-0.0011257729716093,0.0011257687784326,-0.0011257721524957,0.0011257704429736,-0.0011257734285529,0.0011257691642254,-0.00097177129278129,0.00097177306482101,-0.00097177544904647,0.00097176941195475,-0.00087166683934807,0.00087166281902295,-0.00087166662589166,0.00087166238926769,-1.282294011504e-10,-1.283045334434e-10,-0.0011579962274757,0.0011579960394682,-1.9320752824558e-09,1.8771514591203e-09,-0.0014659051724016,0.0014659042659614,-0.0014659041767368,0.0014659057292465,-0.0014659054062189,0.0014659044997408,-0.0014659043621779,0.001465905914673,-0.0011141573369101,0.0011141584314682,-0.0011141575464598,0.0011141586401051,0.74718867332313,125301,3014,0.0035677339635198,0.0035677339635221,0.0048128684452473,22.251700135521,9.3213601084169e-05,9.3213601084169e-05,9.3213601084169e-05,2926075.1801662,0.012021448663412
28419200,0.99981412297921,0.014698692449906,0.0045105749356522,0.0045105749356583,0.0056775425785954,-0.00085978173280448,0.00085977880229976,-1.1565427157963e-09,-1.1566211889578e-09,-1.1661788920501e-09,-1.2945178959551e-09,-0.0011261123447591,0.0011261099745264,-0.0011261123805265,0.0011261100105857,-0.0011261127997183,0.0011261103680956,-0.0011261128302406,0.0011261103988722,-0.00097404793380276,0.00097404634620682,-0.00097404830265332,0.00097404671447081,-1.1661847746512e-09,-1.2945179503799e-09,8.2490152404481e-10,-3.138072608447e-09,-0.0008597817328083,0.00085977880229727,-0.0011261117263466,0.001126110630761,-0.0011261129989389,0.0011261093543479,-0.0011261121787177,0.001126111021737,-0.0011261134512443,0.0011261097452304,-0.00097404604393511,0.00097404835246634,-0.00097405019252058,0.00097404470822,-0.00087388710581481,0.00087388361308524,-0.00087388687991287,0.0008738831939431,-6.47219877877e-12,-6.5470246105393e-12,-0.0011612662862607,0.0011612664405203,-1.8103341648133e-09,1.9961607581591e-09,-0.0014667798451445,0.0014667792354047,-0.0014667788506762,0.0014667806982129,-0.0014667800793218,0.0014667794695441,-0.0014667790364343,0.0014667808839563,-0.0011171647546492,0.0011171661331723,-0.0011171649635103,0.0011171663411194,0.8493285419621,125301,3014,0.0035774314857633,0.0035774314857661,0.0048264172481697,23.4410354334,0.0001027282834672,0.0001027282834672,0.0001027282834672,2979614.1518772,0.012054764250835
29419200,0.99986083550175,0.014699344809055,0.0045107935800221,0.0045107935800282,0.0056777576490051,-0.00085948528147811,0.00085948230275596,-1.1750937777211e-09,-1.1751725600203e-09,-1.1803236970977e-09,-1.3182569572872e-09,-0.0011280537905962,0.0011280513754859,-0.0011280538053726,0.0011280513905543,-0.0011280542196201,0.0011280517334011,-0.0011280542294523,0.0011280517434877,-0.00097390854915309,0.00097390691275603,-0.00097390890270299,0.00097390726571941,-1.1803300272419e-09,-1.3182575024966e-09,8.0490481275414e-10,-3.155179303854e-09,-0.00085948528148269,0.00085948230275313,-0.0011280531714025,0.0011280520310673,-0.0011280544245675,0.0011280507349688,-0.0011280535979886,0.0011280523865395,-0.0011280548510884,0.001128051090348,-0.00097390666013163,0.00097390891691248,-0.00097391079172521,0.00097390526157077,-0.00087393370854091,0.00087393017988856,-0.00087393347925904,0.00087392973917575,1.1301237725533e-11,1.122611907918e-11,-0.0011578441420167,0.001157844344934,-1.7903535146644e-09,2.0108338577589e-09,-0.001466101078409,0.0014661005071263,-0.0014661000458745,0.0014661019285343,-0.0014661012728534,0.0014661007015323,-0.0014661001930553,0.0014661020757003,-0.0011145751991641,0.0011145766156176,-0.0011145754353087,0.0011145768508493,0.60881578646038,125301,3014,0.0035761925373628,0.0035761925373664,0.0048122481487933,24.779957194667,0.00011343965755733,0.00011343965755733,0.00011343965755733,2837162.9788249,0.01203794595378
30419200,0.99989799476539,0.014699784963792,0.0045109413766411,0.0045109413766472,0.005677902210504,-0.00086539511084721,0.00086539206785608,-1.2010268943352e-09,-1.2011048708942e-09,-1.2081263853623e-09,-1.341352375841e-09,-0.0011272004038265,0.0011271979470116,-0.0011272004104349,0.0011271979539126,-0.0011272008248285,0.0011271982994599,-0.0011272008265207,0.0011271983014073,-0.0009801732881979,0.00098017156819237,-0.00098017365803047,0.00098017193743592,-1.2081314214207e-09,-1.3413513916449e-09,7.5542023915266e-10,-3.1575573534714e-09,-0.00086539511084998,0.00086539206785438,-0.0011271997919324,0.0011271985948675,-0.001127201022327,0.0011271973060553,-0.0011272002105103,0.0011271989448868,-0.0011272014408392,0.0011271976559813,-0.00098017142184808,0.00098017354818484,-0.00098017552437802,0.00098016995745417,-0.00087924109884256,0.00087923750151453,-0.00087924088354967,0.00087923708386589,2.2142255481059e-11,2.2067881664893e-11,-0.0011699296406059,0.0011699298426861,-1.7571710563951e-09,1.9978960919105e-09,-0.0014701633182627,0.0014701627925591,-0.0014701622919119,0.0014701641900827,-0.0014701635038565,0.0014701629781149,-0.0014701624308889,0.0014701643290453,-0.001125037391191,0.0011250387860656,-0.0011250375998535,0.0011250389938078,0.51512748248587,125301,3014,0.0036006941935447,0.0036006941935469,0.0048622954684844,26.130653429787,0.0001242452274383,0.0001242452274383,0.0001242452274383,3039533.9860517,0.012138103824061
31419200,0.99992807631566,0.014700244485378,0.0045110948400733,0.0045110948400794,0.0056780548052258,-0.00087270714649087,0.00087270302234339,-1.6193557999978e-09,-1.6194338326727e-09,-1.6052528168048e-09,-1.7502620703422e-09,-0.0011321824213808,0.0011321790067006,-0.0011321824818863,0.0011321790674988,-0.0011321829153423,0.001132179431787,-0.0011321829703347,0.0011321794870349,-0.00098763593679753,0.0009876333215875,-0.0009876363038108,0.00098763368801373,-1.6052581855101e-09,-1.7502612354119e-09,2.7629515014856e-10,-3.5150903512271e-09,-0.00087270714649374,0.00087270302234155,-0.0011321818321553,0.0011321796346021,-0.0011321830711104,0.0011321784395954,-0.0011321823233944,0.0011321800569616,-0.0011321835622828,0.0011321788618607,-0.00098763413137639,0.00098763524432434,-0.00098763810922914,0.00098763176528681,-0.00088591074470237,0.00088590632821791,-0.00088591050451088,0.00088590586970789,-2.1772948130792e-10,-2.1780391918095e-10,-0.0011801348769136,0.0011801344043117,-1.9310300288434e-09,1.6981427093912e-09,-0.0014779385593907,0.0014779375036475,-0.0014779376729404,0.0014779389556706,-0.001477938842184,0.001477937786403,-0.0014779379055876,0.0014779391883033,-0.0011340854406063,0.0011340862719572,-0.0011340856390685,0.0011340864695009,0.66479676253864,125301,3014,0.0036310380229737,0.0036310380229758,0.0049045917642528,28.438837263709,0.00014271069810967,0.00014271069810967,0.00014271069810967,3100437.3024465,0.012242321172028
32419200,0.99995005340541,0.014700639682996,0.004511226533888,0.0045112265338942,0.0056781866152141,-0.00087281923725187,0.00087281673176939,-9.8832070936309e-10,-9.883993500195e-10,-1.0052404065956e-09,-1.137314621319e-09,-0.0011384393233126,0.0011384373173377,-0.0011384393090792,0.0011384373033963,-0.0011384397128508,0.0011384376362063,-0.0011384396944002,0.0011384376180104,-0.00098676220749644,0.00098676094305881,-0.00098676257345081,0.00098676130842819,-1.0052459079145e-09,-1.1373140718817e-09,9.0803213082442e-10,-2.8847582107105e-09,-0.00087281923725492,0.0008728167317673,-0.0011384387286288,0.0011384379448515,-0.0011384399037616,0.0011384366758805,-0.0011384391160925,0.0011384382616407,-0.0011384402911594,0.0011384369925762,-0.0009867603987836,0.00098676286212648,-0.00098676438216175,0.00098675938937025,-0.00088663821706323,0.00088663509498405,-0.00088663801515901,0.00088663468972923,1.0651203357166e-10,1.0643694130686e-10,-0.0011742059885021,0.0011742064541793,-1.6175814539675e-09,2.0212319707066e-09,-0.0014788029885541,0.001478802688121,-0.0014788019574483,0.0014788040050501,-0.0014788031314733,0.0014788028310015,-0.0014788020548422,0.0014788041024294,-0.0011299352735236,0.0011299368211887,-0.0011299355005943,0.0011299370473474,0.7835582016357,125301,3014,0.0036315431826506,0.0036315431826526,0.0048800710111114,29.295574523581,0.00014956459618865,0.00014956459618865,0.00014956459618865,2940320.9133504,0.012218603907126
33419200,0.99996532888486,0.01470092478394,0.0045113219302518,0.0045113219302579,0.0056782809234307,-0.00086930721693979,0.00086930553570922,-6.7558007131609e-10,-6.7565886723246e-10,-7.049250113042e-10,-8.2161469505858e-10,-0.0011377701539598,0.0011377688637186,-0.0011377701402338,0.0011377688502844,-0.0011377705407074,0.001137769190664,-0.0011377705228069,0.001137769173018,-0.00098350482391335,0.00098350428113971,-0.00098350519373172,0.00098350465037267,-7.0493052214994e-10,-8.2161418081326e-10,1.220830176188e-09,-2.5720751846103e-09,-0.0008693072169429,0.00086930553570714,-0.0011377695591788,0.0011377694912048,-0.0011377707350136,0.0011377682227961,-0.0011377699438729,0.0011377698160919,-0.0011377711196424,0.0011377685475903,-0.00098350301505197,0.00098350620018542,-0.00098350700259125,0.00098350273133675,-0.00088365964223242,0.00088365721653029,-0.00088365943634124,0.00088365683269072,2.4647057316964e-10,2.4639534355609e-10,-0.0011667906723363,0.0011667915629344,-1.4828319695453e-09,2.1629717687854e-09,-0.0014749414128944,0.001474941454968,-0.0014749403805519,0.001474942775609,-0.0014749415570512,0.0014749415990861,-0.0014749404792109,0.0014749428742529,-0.0011235573940957,0.0011235592849203,-0.0011235576181359,0.0011235595080495,0.8094576022627,125301,3014,0.0036169643213148,0.003616964321317,0.0048493511408394,29.317301172051,0.00014973840937641,0.00014973840937641,0.00014973840937641,2799851.0844406,0.012158026479695
34419200,0.99997688904237,0.014701120774473,0.0045113876781287,0.0045113876781348,0.0056783454182097,-0.00087212306594324,0.00087211941602101,-1.4277356848607e-09,-1.4278143700452e-09,-1.4258711836435e-09,-1.5901154931955e-09,-0.001141474998156,0.001141471985479,-0.001141474955199,0.0011414719428137,-0.0011414753612253,0.0011414722506934,-0.0011414753143893,0.0011414722041121,-0.00098608668020764,0.00098608440319608,-0.00098608702766985,0.00098608475007229,-1.4258765675487e-09,-1.590114868029e-09,4.7218179975056e-10,-3.3277376675907e-09,-0.00087212306594604,0.00087211941601891,-0.0011414744010221,0.0011414726139812,-0.0011414755523314,0.0011414713143097,-0.0011414747621856,0.0011414728772848,-0.0011414759134297,0.001141471577521,-0.00098608486727208,0.00098608632487649,-0.00098608884060312,0.00098608282840191,-0.00088673827238829,0.00088673417757708,-0.0008867380852982,0.00088673373072128,-5.7810524751681e-11,-5.7885671632466e-11,-0.0011666234575835,0.0011666234495308,-1.7771432687724e-09,1.8560428407976e-09,-0.0014759114852661,0.0014759107833693,-0.0014759104045235,0.001475912046631,-0.0014759115765334,0.0014759108745976,-0.0014759104516342,0.0014759120937265,-0.0011239377079923,0.0011239388656551,-0.0011239379676567,0.0011239391244083,0.73398852679874,125301,3014,0.0036286517520736,0.0036286517520751,0.0048486806921342,31.482778971144,0.00016706223176915,0.00016706223176915,0.00016706223176915,2768001.1525056,0.012181018094003
35419200,0.99998595553855,0.014701256841466,0.0045114334079483,0.0045114334079544,0.0056783900255635,-0.00088232307403459,0.0008823165215306,-2.5525063327719e-09,-2.5525847099952e-09,-2.4996020413293e-09,-2.6695624277591e-09,-0.0011500677643948,0.0011500622304597,-0.0011500679455177,0.0011500624118746,-0.0011500684295606,0.0011500628257063,-0.0011500686041614,0.001150063000562,-0.00099520368932195,0.00099519907121471,-0.00099520406234413,0.0009951994436493,-2.4996075290838e-09,-2.6695616648578e-09,-7.7716449625232e-10,-4.3279321122647e-09,-0.00088232307403762,0.00088231652152876,-0.001150067220258,0.0011500628184734,-0.0011500684896534,0.0011500618238591,-0.0011500678821959,0.0011500634104876,-0.001150069151527,0.0011500624157812,-0.00099520200396846,0.00099520088061791,-0.00099520574769497,0.00099519763425669,-0.00089696666101392,0.00089696038644349,-0.00089696639746306,0.00089695987131239,-7.6859505527218e-10,-7.6866996689544e-10,-0.0011768491455454,0.001176847143118,-2.3506167312136e-09,1.0288656730952e-09,-0.0014836199518398,0.0014836176875568,-0.0014836193656595,0.0014836192703195,-0.0014836204501386,0.001483618185817,-0.0014836198070364,0.0014836197116812,-0.0011345194048801,0.0011345189604606,-0.001134519572089,0.0011345191267549,0.64952121200821,125301,3014,0.0036709763041907,0.0036709763041932,0.004891065728296,35.930710495816,0.00020264568396653,0.00020264568396653,0.00020264568396653,2809108.0155859,0.012309580496512
36419200,0.99999175975629,0.014701348265979,0.0045114641162183,0.0045114641162244,0.0056784200335367,-0.00088644310338092,0.00088643978099863,-1.3077674223676e-09,-1.3078456427428e-09,-1.3109039666513e-09,-1.4489727847143e-09,-0.0011519224341065,0.0011519197196799,-0.0011519224553341,0.0011519197412,-0.0011519228786083,0.0011519200943729,-0.0011519228954899,0.0011519201115097,-0.00099946682342356,0.0009994648779787,-0.0009994671920104,0.00099946524597785,-1.3109094353015e-09,-1.4489720431708e-09,4.6232218125477e-10,-3.0779410128497e-09,-0.00088644310338388,0.00088643978099665,-0.0011519218820618,0.0011519203051283,-0.0011519230073774,0.0011519191557496,-0.0011519223244241,0.001151920677677,-0.0011519234496748,0.0011519195282059,-0.00099946513843085,0.00099946667381891,-0.00099946887700055,0.0009994634501475,-0.00090075523115943,0.00090075153859551,-0.00090075501457558,0.00090075111212505,-6.5482240444856e-11,-6.5557009601886e-11,-0.0011831479461955,0.0011831479317638,-1.6627563147742e-09,1.7233869314769e-09,-0.0014872454265456,0.0014872448195239,-0.0014872445486412,0.0014872461208545,-0.0014872456382663,0.0014872450312058,-0.0014872447128005,0.0014872462849985,-0.0011401604400387,0.0011401615318931,-0.0011401606536238,0.0011401617445625,0.68119810794793,125301,3014,0.0036880730720752,0.0036880730720772,0.0049171636627924,37.480898152729,0.00021504718522184,0.00021504718522184,0.00021504718522184,2857730.2591072,0.012370588702415
37419200,0.99999518757016,0.014701400080121,0.0045114815028435,0.0045114815028496,0.0056784370744276,-0.00088620254753684,0.00088620058331034,-7.8888868043351e-10,-7.8896710600825e-10,-8.1179096335801e-10,-9.2401439456805e-10,-0.0011529263735057,0.0011529248464032,-0.0011529263950133,0.0011529248682031,-0.0011529268097832,0.0011529252313935,-0.0011529268269775,0.0011529252488428,-0.00099926696605904,0.00099926621136258,-0.00099926733756076,0.00099926658227681,-8.1179640092741e-10,-9.2401362853814e-10,9.8130082341414e-10,-2.5591623449234e-09,-0.00088620254753976,0.0008862005833084,-0.001152925821306,0.0011529254318689,-0.0011529269472115,0.0011529242827356,-0.0011529262554602,0.0011529258147311,-0.0011529273813011,0.0011529246655056,-0.00099926528091289,0.00099926800721804,-0.00099926902270432,0.00099926478643126,-0.00090064254708139,0.00090064000467826,-0.00090064231562233,0.00090063960622094,1.684801336358e-10,1.6840516933767e-10,-0.0011816888156702,0.0011816894884891,-1.4375376240506e-09,1.9602781824059e-09,-0.0014873118050525,0.0014873117640073,-0.0014873109232377,0.0014873130697573,-0.0014873120170278,0.0014873119759436,-0.0014873110876704,0.0014873132341746,-0.0011390160824138,0.0011390177357061,-0.0011390162942812,0.0011390179466589,0.6549576309095,125301,3014,0.0036870798593867,0.0036870798593888,0.0049111277620189,37.680464289419,0.00021664371431535,0.00021664371431535,0.00021664371431535,2804745.3399903,0.012362485838278
38419200,0.99999715782502,0.014701433303913,0.0045114926520676,0.0045114926520737,0.0056784479997713,-0.00088543662414973,0.0008854356249248,-4.086276066777e-10,-4.0870597398951e-10,-4.5359833464695e-10,-5.6956925378556e-10,-0.0011522198438525,0.0011522191629579,-0.0011522197527174,0.0011522190721152,-0.0011522201326945,0.001152219381784,-0.0011522200385943,0.0011522192879389,-0.00099827753661143,0.00099827751743489,-0.00099827790816148,0.00099827788839779,-4.5360386373217e-10,-5.6956869093143e-10,1.430496075012e-09,-2.2478356904777e-09,-0.00088543662415282,0.00088543562492272,-0.0011522192628385,0.0011522197708705,-0.0011522203337302,0.0011522184642005,-0.0011522195502314,0.0011522199882427,-0.0011522206210585,0.0011522186814804,-0.0009982757809179,0.00099827937543043,-0.00099827966385286,0.00099827603041184,-0.00089990414060536,0.00089990225520374,-0.00089990397155223,0.00089990190458085,4.4150727663812e-10,4.4143236989705e-10,-0.0011807962699974,0.0011807976853024,-1.2372593112244e-09,2.2971884622046e-09,-0.001486365505149,0.0014863660418321,-0.0014863643728227,0.0014863671912579,-0.0014863655137064,0.0014863660503507,-0.0014863643405023,0.0014863671589222,-0.001138209440085,0.0011382116848961,-0.0011382096816291,0.001138211925526,0.72891346290553,125301,3014,0.0036839066582102,0.0036839066582123,0.004907430813862,37.195823011193,0.00021276658408955,0.00021276658408955,0.00021276658408955,2824333.3412526,0.012352318736166
38880000,0.99999784585313,0.014701445165825,0.0045114966327595,0.0045114966327657,0.0056784519003,-0.0008842976655045,0.00088429612883885,-6.1589100607018e-10,-6.1596937294083e-10,-6.5444228161988e-10,-7.7752491327997e-10,-0.0011532231349526,0.0011532219703186,-0.0011532230608447,0.0011532218965949,-0.0011532234518767,0.0011532222147388,-0.001153223374653,0.0011532221377819,-0.00099708443482565,0.00099708394524518,-0.00099708482178228,0.00099708433138998,-6.5446209925269e-10,-7.775201599215e-10,1.2324081240121e-09,-2.464195325799e-09,-0.00088429766551914,0.00088429612891733,-0.0011532225518227,0.001153222581491,-0.0011532236440262,0.0011532212856063,-0.001153222867208,0.0011532228243294,-0.0011532239592638,0.0011532215282517,-0.00099708267068494,0.00099708581282063,-0.00099708658585374,0.00099708246387238,-0.00089904855313892,0.00089904620229525,-0.00089904840815113,0.0008990458648689,3.2243752954892e-10,3.2236428828639e-10,-0.0011770363995088,0.0011770374927798,-1.3617367887288e-09,2.187277907529e-09,-0.0014852307244495,0.0014852309690998,-0.0014852296200193,0.0014852321556434,-0.0014852307655319,0.0014852310101393,-0.0014852296192042,0.0014852321547307,-0.0011350420318374,0.0011350440090385,-0.0011350422497132,0.0011350442261422,0.7453747694247,125301,3014,0.0036791851390521,0.0036791851392454,0.0048918664450237,37.193641922423,0.00021274913537939,0.00021274913537939,0.00021274913537939,2754692.652335,0.012327032126667
