time,ASR_ext,ASR_strain,ASR_strain_xx,ASR_strain_yy,ASR_strain_zz,disp_x_101,disp_x_102,disp_x_103,disp_x_104,disp_x_105,disp_x_106,disp_x_p1_neg,disp_x_p1_pos,disp_x_p2_neg,disp_x_p2_pos,disp_x_p3_neg,disp_x_p3_pos,disp_x_p4_neg,disp_x_p4_pos,disp_x_p5_neg,disp_x_p5_pos,disp_x_p6_neg,disp_x_p6_pos,disp_y_101,disp_y_102,disp_y_103,disp_y_104,disp_y_105,disp_y_106,disp_y_p1_neg,disp_y_p1_pos,disp_y_p2_neg,disp_y_p2_pos,disp_y_p3_neg,disp_y_p3_pos,disp_y_p4_neg,disp_y_p4_pos,disp_y_p5_neg,disp_y_p5_pos,disp_y_p6_neg,disp_y_p6_pos,disp_y_p7_neg,disp_y_p7_pos,disp_y_p8_neg,disp_y_p8_pos,disp_z_101,disp_z_102,disp_z_103,disp_z_104,disp_z_105,disp_z_106,disp_z_p1_neg,disp_z_p1_pos,disp_z_p2_neg,disp_z_p2_pos,disp_z_p3_neg,disp_z_p3_pos,disp_z_p4_neg,disp_z_p4_pos,disp_z_p5_neg,disp_z_p5_pos,disp_z_p6_neg,disp_z_p6_pos,humidity,ndof,nelem,strain_xx,strain_yy,strain_zz,temp,thermal_strain_xx,thermal_strain_yy,thermal_strain_zz,vonmises,vstrain
2419200,0,0,0,0,0,0,0,0,0,0,0,0,0,0,0,0,0,0,0,0,0,0,0,0,0,0,0,0,0,0,0,0,0,0,0,0,0,0,0,0,0,0,0,0,0,0,0,0,0,0,0,0,0,0,0,0,0,0,0,0,0,0,0,0,0,0,0,0,0,0,0,0,0,0,0
3419200,0.15985851953087,0.0026637872408911,0.00088792908029702,0.00088792908029702,0.00088792908029702,-0.00024754755804266,0.00024754755414734,-8.4450715676841e-13,-1.7925696573451e-12,-6.3570971553397e-13,-1.9882169231025e-12,-0.00025257777699583,0.00025257777477421,-0.00025257777776334,0.00025257777490657,-0.00025257777785723,0.00025257777476072,-0.00025257777863006,0.00025257777489233,-0.00024793509446583,0.00024793509202631,-0.0002479350956028,0.00024793509131355,-1.6478660073282e-12,-3.450505715338e-13,-2.6368576662817e-12,5.6919087025507e-13,-0.00024754755775367,0.00024754755443645,-0.00025257777783149,0.00025257777389989,-0.00025257777722199,0.00025257777543827,-0.00025257777783914,0.00025257777478532,-0.00025257777722683,0.00025257777632688,-0.00024793509574441,0.00024793509071738,-0.00024793509287328,0.00024793509408397,-0.00024793509449824,0.00024793509200917,-0.00024793509343436,0.00024793509352033,-1.9880619204848e-12,-1.0400074270164e-12,-0.00024754755824371,0.00024754755394678,6.9945127930236e-14,-3.1249520973585e-12,-0.00025257777716608,0.0002525777745466,-0.00025257777870829,0.00025257777393681,-0.00025257777730499,0.00025257777532346,-0.00025257777883731,0.00025257777470387,-0.00024793509520639,0.00024793509175632,-0.0002479350959077,0.00024793509061227,0.75746877217741,125301,3014,0.0010309151036582,0.0010309151036584,0.0010309151036592,31.88266033072,0.00017026128264576,0.00017026128264576,0.00017026128264576,974207.0288298,0.0030975348557682
4419200,0.35106322943618,0.0056944364272536,0.0018981454757582,0.0018981454757546,0.0018981454757408,-0.0004835050296288,0.00048350502112284,-2.7140519405174e-12,-3.6631482698054e-12,-2.3107390040978e-12,-3.9701269212301e-12,-0.00050293792958481,0.00050293792323537,-0.00050293793148741,0.00050293792449934,-0.00050293793164434,0.00050293792422243,-0.00050293793354899,0.00050293792547505,-0.00048695017851037,0.00048695017208538,-0.00048695018051908,0.00048695017223531,-3.4422183646506e-12,-1.9808583620559e-12,-4.7661544558467e-12,-8.6708190008735e-13,-0.0004835050292487,0.00048350502150163,-0.00050293793057464,0.00050293792223222,-0.00050293793080023,0.00050293792514153,-0.00050293793160663,0.00050293792428778,-0.00050293793182599,0.00050293792720404,-0.00048695017997468,0.00048695017062546,-0.00048695017726696,0.00048695017549725,-0.00048695017834166,0.00048695017233206,-0.0004869501779221,0.00048695017482735,-3.9254773734784e-12,-2.976457865373e-12,-0.00048350502989779,0.00048350502084744,-1.4803028954097e-12,-5.400753937145e-12,-0.00050293792970503,0.00050293792297831,-0.00050293793266788,0.00050293792326467,-0.00050293793098664,0.00050293792490472,-0.00050293793391289,0.0005029379251547,-0.00048695018027295,0.00048695017254532,-0.00048695018012664,0.00048695017054989,0.73992840791513,125301,3014,0.002012576279015,0.0020125762790123,0.0020125762790017,33.607449931172,0.00018405959944937,0.00018405959944937,0.00018405959944937,1835524.2377537,0.0060560101116163
5419200,0.55102009206486,0.0087234502179709,0.0029078167393294,0.0029078167393263,0.0029078167393152,-0.00071634267692723,0.00071634267210868,-1.1963905687364e-12,-2.1463961937755e-12,-9.4067726295532e-13,-2.2990321926152e-12,-0.00076014266521224,0.00076014266171411,-0.00076014266653037,0.00076014266239391,-0.00076014266665254,0.00076014266222433,-0.00076014266796678,0.00076014266289076,-0.00072534783557749,0.00072534783234303,-0.00072534783670901,0.00072534783161134,-2.0609738250557e-12,-9.1375337406459e-13,-3.1024599294696e-12,-5.3461405221375e-14,-0.00071634267683419,0.00071634267220062,-0.00076014266622565,0.00076014266069014,-0.00076014266619567,0.00076014266270854,-0.00076014266683145,0.00076014266204768,-0.00076014266679713,0.00076014266407094,-0.00072534783703813,0.00072534783092093,-0.00072534783422446,0.00072534783406709,-0.0007253478357409,0.00072534783226127,-0.00072534783473562,0.00072534783354196,-2.2039703761002e-12,-1.2540352489075e-12,-0.0007163426769859,0.00071634267204497,-1.5797479162561e-13,-3.2488831606143e-12,-0.00076014266525862,0.00076014266159572,-0.00076014266733529,0.00076014266156554,-0.00076014266594817,0.00076014266292786,-0.00076014266799561,0.00076014266286872,-0.00072534783615178,0.00072534783220541,-0.0007253478369009,0.00072534783109895,0.72499638738019,125301,3014,0.0029803252672407,0.0029803252672384,0.0029803252672303,36.27905408625,0.00020543243269,0.00020543243269,0.00020543243269,2565894.0833385,0.0089811298052427
6419200,0.70714583235521,0.010628938109558,0.0035429793698562,0.0035429793698543,0.0035429793698476,-0.00085176757774421,0.00085176757419378,-8.0690458491293e-13,-1.7574908098622e-12,-5.8964898662821e-13,-1.9257893008117e-12,-0.00092564334454348,0.00092564334217617,-0.00092564334558938,0.00092564334258375,-0.00092564334573247,0.00092564334244667,-0.00092564334678663,0.00092564334285239,-0.00086145855609025,0.00086145855376139,-0.00086145855718368,0.0008614585529916,-1.5393496814147e-12,-3.5029077863657e-13,-2.3729749231457e-12,3.4377104996055e-13,-0.00085176757747498,0.00085176757446255,-0.00092564334530313,0.00092564334136838,-0.00092564334515658,0.00092564334302879,-0.00092564334566532,0.0009256433424967,-0.00092564334551404,0.00092564334416234,-0.0008614585571873,0.00086145855265534,-0.00086145855470855,0.00086145855548588,-0.0008614585561492,0.00086145855373497,-0.00086145855511916,0.00086145855506383,-1.8951008118534e-12,-9.4457602620372e-13,-0.00085176757788571,0.00085176757405035,-5.8485286844045e-14,-2.7850687857074e-12,-0.00092564334474581,0.00092564334192649,-0.00092564334642419,0.00092564334175564,-0.00092564334516217,0.00092564334298585,-0.00092564334682911,0.00092564334280368,-0.00086145855664854,0.00086145855356621,-0.0008614585574209,0.00086145855248315,0.59839168540088,125301,3014,0.0035427914209105,0.0035427914209096,0.0035427914209065,36.740630764926,0.0002091250461194,0.0002091250461194,0.0002091250461194,2883608.4626459,0.010685199563314
7419200,0.83240993651821,0.011956248356559,0.0039854161188552,0.0039854161188539,0.0039854161188494,-0.00094439095138518,0.00094439094749935,-8.9237491502949e-13,-1.8433613924571e-12,-6.9714584973165e-13,-1.9962824414123e-12,-0.001044463572493,0.0010444635699818,-0.0010444635735012,0.0010444635703517,-0.0010444635736348,0.0010444635702316,-0.0010444635746512,0.0010444635705998,-0.0009544433314212,0.0009544433288735,-0.00095444333249037,0.00095444332807892,-1.6805498151132e-12,-5.1572428909462e-13,-2.4231246479994e-12,9.6055223552201e-14,-0.00094439095118029,0.0009443909477041,-0.0010444635732743,0.0010444635691549,-0.001044463573156,0.0010444635707108,-0.0010444635736092,0.0010444635702395,-0.0010444635734863,0.0010444635718006,-0.00095444333249509,0.00095444332779122,-0.00095444333018531,0.00095444333040196,-0.00095444333157296,0.000954443328748,-0.00095444333054475,0.00095444333003416,-1.9214983877785e-12,-9.7057179087449e-13,-0.00094439095146723,0.00094439094741697,-1.8556216943839e-13,-2.7111212653416e-12,-0.0010444635726687,0.0010444635697694,-0.0010444635742373,0.0010444635696262,-0.0010444635730452,0.0010444635707887,-0.0010444635746054,0.0010444635706373,-0.00095444333186698,0.00095444332874011,-0.00095444333266276,0.00095444332767978,0.52694121020036,125301,3014,0.0039273261972635,0.0039273261972632,0.0039273261972628,40.779745460726,0.00024143796368581,0.00024143796368581,0.00024143796368581,3026046.0971642,0.011851887202238
8419200,0.90796492504064,0.012669959233862,0.0042233197446225,0.0042233197446214,0.0042233197446179,-0.00098144718479526,0.00098144718243417,-3.8891394247543e-13,-1.3400586503634e-12,-2.2453994928221e-13,-1.481415170254e-12,-0.0011006425735167,0.0011006425722163,-0.0011006425743248,0.0011006425723861,-0.0011006425744567,0.0011006425722854,-0.0011006425752743,0.0011006425724549,-0.00099301116114517,0.0009930111597435,-0.00099301116217221,0.00099301115890648,-1.1920570185062e-12,-4.2089103912649e-14,-1.7483435851676e-12,4.0422296164053e-13,-0.00098144718460272,0.00098144718262675,-0.0011006425742354,0.0011006425714476,-0.0011006425740489,0.0011006425726829,-0.0011006425743872,0.0011006425723321,-0.0011006425741962,0.0011006425735724,-0.0009930111620577,0.00099301115881448,-0.00099301116007113,0.00099301116103307,-0.00099301116136815,0.00099301115953132,-0.00099301116032998,0.00099301116077014,-1.3880153617894e-12,-4.3693068147937e-13,-0.00098144718484729,0.00098144718238268,1.5459961532317e-13,-1.995908879295e-12,-0.0011006425737282,0.0011006425719819,-0.0011006425749667,0.0011006425717625,-0.001100642573902,0.0011006425727985,-0.0011006425751373,0.001100642572576,-0.00099301116146097,0.00099301115965369,-0.00099301116229621,0.00099301115863247,0.47156008474719,125301,3014,0.0040811546178094,0.0040811546178096,0.0040811546178106,41.436352882143,0.00024669082305714,0.00024669082305714,0.00024669082305714,3002830.3085183,0.012319025748505
9419200,0.94978148634533,0.013010619086786,0.0043368730289305,0.0043368730289295,0.0043368730289263,-0.00099094039603614,0.0009909403944534,-1.2280289551466e-13,-1.0739402800969e-12,2.4959796318885e-14,-1.2093197766992e-12,-0.0011228073107185,0.0011228073100601,-0.0011228073114127,0.001122807310116,-0.0011228073115436,0.0011228073100253,-0.0011228073122477,0.0011228073100814,-0.0010038476910658,0.0010038476902627,-0.0010038476920736,0.0010038476894063,-9.3436514954755e-13,2.0852185590338e-13,-1.3376463945525e-12,5.1345291259667e-13,-0.00099094039585,0.0009909403946397,-0.0011228073113871,0.0011228073093405,-0.0011228073111905,0.0011228073103617,-0.0011228073114334,0.0011228073101108,-0.0011228073112323,0.001122807311137,-0.0010038476918408,0.0010038476894686,-0.001003847690132,0.0010038476913756,-0.0010038476913448,0.0010038476899862,-0.0010038476903034,0.0010038476912037,-1.1007566667571e-12,-1.4967928034191e-13,-0.00099094039606716,0.00099094039442343,2.8726879766483e-13,-1.5584309204169e-12,-0.0011228073109621,0.0011228073098015,-0.0011228073119823,0.0011228073095685,-0.0011228073110203,0.0011228073105024,-0.00112280731204,0.001122807310269,-0.0010038476912931,0.0010038476902219,-0.0010038476921458,0.0010038476892182,0.40621133923259,125301,3014,0.0041205837138946,0.0041205837138949,0.0041205837138968,41.144138656454,0.00024435310925163,0.00024435310925163,0.00024435310925163,2927326.6939577,0.012438834207825
10419200,0.97069078596398,0.013195017230191,0.0043983390767319,0.004398339076731,0.004398339076728,-0.00098932951551966,0.00098932951554564,4.2027116100452e-13,-5.3083113641434e-13,5.4555964235094e-13,-6.6392054121261e-13,-0.001127637661546,0.0011276376621944,-0.0011276376620274,0.0011276376620376,-0.0011276376621629,0.0011276376619593,-0.0011276376626555,0.001127637661804,-0.0010036116916904,0.0010036116921123,-0.0010036116926764,0.0010036116912343,-4.0688693468698e-13,7.3945905525404e-13,-5.8595609392884e-13,8.4100218106498e-13,-0.0009893295153371,0.0009893295157284,-0.0011276376621392,0.0011276376615449,-0.0011276376618811,0.0011276376622137,-0.0011276376619846,0.0011276376621082,-0.0011276376617219,0.001127637662782,-0.0010036116922616,0.0010036116915141,-0.0010036116909527,0.0010036116929934,-0.0010036116920477,0.0010036116917425,-0.0010036116909995,0.0010036116929511,-5.276903205994e-13,4.2335236099362e-13,-0.00098932951552075,0.00098932951554585,6.3836880709467e-13,-7.7513123203764e-13,-0.0011276376618378,0.0011276376618997,-0.0011276376624971,0.001127637661597,-0.0011276376616809,0.0011276376623855,-0.0011276376623444,0.0011276376620871,-0.0010036116917965,0.0010036116921483,-0.0010036116926679,0.0010036116911633,0.43665130715676,125301,3014,0.0041139196979077,0.0041139196979081,0.0041139196979104,38.086342966102,0.00021989074372881,0.00021989074372881,0.00021989074372881,2888995.0541006,0.012418625146371
11419200,0.98277314472519,0.013293809381014,0.0044312697936728,0.0044312697936719,0.004431269793669,-0.00098664734577843,0.00098664734467871,4.556384334998e-14,-9.0547130906129e-13,1.8041212088649e-13,-1.0334836336668e-12,-0.0011322316358324,0.0011322316355546,-0.0011322316364554,0.0011322316355394,-0.0011322316365821,0.0011322316354558,-0.0011322316372142,0.00113223163544,-0.0010022187737182,0.0010022187732971,-0.0010022187747072,0.0010022187724223,-7.6867041576799e-13,3.6170900518524e-13,-8.643627455063e-13,3.6580463311119e-13,-0.0009866473455981,0.00098664734485928,-0.0011322316364014,0.0011322316349394,-0.0011322316363343,0.0011322316356808,-0.0011322316363819,0.0011322316356339,-0.0011322316363102,0.0011322316363803,-0.0010022187742023,0.0010022187727989,-0.0010022187730785,0.0010022187740732,-0.0010022187741022,0.0010022187729102,-0.0010022187730594,0.001002218774099,-8.9769507603163e-13,5.3280166445135e-14,-0.00098664734577484,0.0009866473446838,1.8513815298004e-13,-1.0437774515506e-12,-0.0011322316361454,0.0011322316352321,-0.001132231636887,0.0011322316351304,-0.0011322316361304,0.0011322316358597,-0.0011322316368729,0.0011322316357591,-0.0010022187737924,0.001002218773372,-0.0010022187746624,0.0010022187723859,0.40445605707229,125301,3014,0.0041028158518018,0.0041028158518023,0.004102815851805,37.625922124859,0.00021620737699887,0.00021620737699887,0.00021620737699887,2807380.8530041,0.012384948300876
12419200,0.98970281927883,0.013357653785621,0.0044525512618751,0.0044525512618742,0.0044525512618714,-0.00098491419615319,0.00098491419531989,1.3311466873236e-13,-8.1788819054779e-13,2.630098769935e-13,-9.4442736898039e-13,-0.0011332910461363,0.0011332910460736,-0.0011332910467211,0.0011332910460202,-0.0011332910468479,0.0011332910459393,-0.0011332910474417,0.0011332910458854,-0.0010012193959996,0.0010012193957808,-0.0010012193969845,0.0010012193949019,-6.8348050513513e-13,4.4568296005915e-13,-6.9661385035887e-13,3.7098813106633e-13,-0.00098491419597403,0.00098491419549932,-0.0011332910466782,0.0011332910454858,-0.0011332910466272,0.0011332910461347,-0.0011332910466229,0.0011332910461421,-0.0011332910465673,0.0011332910467961,-0.0010012193964065,0.00100121939536,-0.0010012193954376,0.0010012193964707,-0.0010012193964119,0.0010012193953629,-0.0010012193953692,0.0010012193965479,-7.9976897937137e-13,1.5117394056342e-13,-0.00098491419613928,0.0009849141953354,2.0170874970086e-13,-8.6451413380429e-13,-0.0011332910464673,0.0011332910457357,-0.0011332910471156,0.0011332910456494,-0.0011332910464134,0.0011332910463244,-0.0011332910470636,0.00113329104624,-0.0010012193960331,0.0010012193958882,-0.0010012193969065,0.0010012193949054,0.45322610794666,125301,3014,0.0040956334534504,0.0040956334534509,0.0040956334534537,36.800418769779,0.00020960335015823,0.00020960335015823,0.00020960335015823,2780774.748724,0.012363148669794
13419200,0.99357261566131,0.013390287188552,0.0044634290628522,0.0044634290628513,0.0044634290628485,-0.00097744907836287,0.00097744907826507,3.7957861001637e-13,-5.7134292821867e-13,5.0285831449426e-13,-6.9795214862919e-13,-0.0011305807980654,0.0011305807985582,-0.0011305807985621,0.0011305807984169,-0.0011305807986911,0.0011305807983391,-0.0011305807991973,0.0011305807981977,-0.00099460941519202,0.00099460941553564,-0.00099460941615993,0.00099460941463996,-4.4216493061272e-13,6.8889575066358e-13,-3.4980256606952e-13,5.1567458134156e-13,-0.00097744907818452,0.00097744907844371,-0.0011305807985724,0.001130580798004,-0.0011305807985033,0.0011305807984979,-0.0011305807984327,0.001130580798574,-0.0011305807983591,0.001130580799073,-0.00099460941550064,0.00099460941521093,-0.00099460941471436,0.00099460941610949,-0.00099460941563977,0.00099460941507751,-0.00099460941458463,0.00099460941624985,-5.4804969863437e-13,4.028119884879e-13,-0.00097744907834372,0.00097744907828594,3.4956383577065e-13,-5.1238043536471e-13,-0.0011305807984273,0.0011305807981932,-0.0011305807989183,0.0011305807980865,-0.0011305807982847,0.0011305807986931,-0.001130580798779,0.0011305807985898,-0.00099460941516978,0.00099460941566451,-0.00099460941605917,0.00099460941469784,0.4150894025916,125301,3014,0.0040646740855761,0.0040646740855767,0.0040646740855797,34.785275961958,0.00019348220769566,0.00019348220769566,0.00019348220769566,2723188.650699,0.012269162357649
14419200,0.99580742186796,0.013407706320432,0.0044692354401457,0.0044692354401448,0.0044692354401419,-0.00097240081141313,0.00097240081141215,4.0874786597445e-13,-5.4213749689514e-13,5.2898851623453e-13,-6.6793410977732e-13,-0.0011260181554526,0.0011260181560383,-0.0011260181559309,0.0011260181558786,-0.0011260181560598,0.0011260181558024,-0.0011260181565474,0.0011260181556423,-0.00098977844696505,0.00098977844737727,-0.00098977844793869,0.00098977844648741,-4.145648103411e-13,7.1627053019168e-13,-2.2581653804065e-13,4.490325470698e-13,-0.00097240081123533,0.00097240081159026,-0.0011260181559284,0.0011260181555162,-0.0011260181559029,0.0011260181559279,-0.0011260181557715,0.0011260181560679,-0.0011260181557415,0.0011260181564846,-0.00098977844718208,0.00098977844714563,-0.00098977844658713,0.0009897784478615,-0.00098977844744532,0.00098977844688456,-0.000989778446398,0.0009897784480638,-5.0408204181611e-13,4.4674364640591e-13,-0.00097240081137924,0.00097240081144782,2.9980047365426e-13,-3.7271673140676e-13,-0.0011260181558324,0.0011260181556572,-0.0011260181562414,0.0011260181555943,-0.0011260181556708,0.0011260181561381,-0.0011260181560836,0.0011260181560791,-0.00098977844690291,0.00098977844755774,-0.0009897784477859,0.00098977844658476,0.38312450045663,125301,3014,0.0040437255958898,0.0040437255958904,0.0040437255958934,32.633969296473,0.00017627175437179,0.00017627175437179,0.00017627175437179,2722724.128571,0.012205546013882
15419200,0.99697056247277,0.013419851570172,0.0044732838567255,0.0044732838567246,0.0044732838567217,-0.00096115538063443,0.0009611553824538,1.0156657956365e-12,6.4877135695097e-14,1.1175681531777e-12,-6.3530368014396e-14,-0.0011151413961605,0.0011151413981984,-0.0011151413964084,0.0011151413978084,-0.0011151413965457,0.0011151413977415,-0.0011151413968044,0.0011151413973526,-0.00097875046577127,0.00097875046756042,-0.00097875046672878,0.00097875046665458,1.7505243259923e-13,1.3187868994655e-12,5.4362921740866e-13,8.9273810832297e-13,-0.00096115538045703,0.00096115538263151,-0.0011151413965757,0.0011151413977296,-0.0011151413964409,0.0011151413978046,-0.0011151413961986,0.0011151413980601,-0.0011151413960592,0.00111514139814,-0.00097875046582574,0.00097875046748146,-0.00097875046554165,0.00097875046787433,-0.0009787504663133,0.00097875046699097,-0.00097875046525645,0.00097875046817624,1.2527790814002e-13,1.076006864023e-12,-0.00096115538057815,0.00096115538251187,7.5398846616992e-13,4.1704778888809e-13,-0.0011151413965811,0.0011151413977878,-0.0011151413966442,0.0011151413976062,-0.0011151413961872,0.0011151413980363,-0.0011151413962587,0.0011151413978631,-0.00097875046561579,0.00097875046780105,-0.00097875046651184,0.00097875046684127,0.51103778709309,125301,3014,0.0039970587713546,0.0039970587713552,0.0039970587713583,27.044461057015,0.00013155568845612,0.00013155568845612,0.00013155568845612,2735301.7077231,0.012063848962984
16419200,0.99771797943559,0.013426938028126,0.004475646009377,0.0044756460093761,0.0044756460093733,-0.00094984478469943,0.00094984478508016,5.3718938335073e-13,-4.1347330985067e-13,6.5587421349299e-13,-5.3887574359829e-13,-0.0011099929671145,0.0011099929679526,-0.0011099929675551,0.0011099929677553,-0.0011099929676836,0.001109992967679,-0.0011099929681328,0.0011099929674806,-0.00096846960492888,0.00096846960563841,-0.00096846960588714,0.00096846960473363,-2.8653263845592e-13,8.4275063322311e-13,1.278207854201e-13,3.5142314055679e-13,-0.00094984478452224,0.00094984478525767,-0.0011099929675181,0.0011099929675063,-0.0011099929675997,0.0011099929677289,-0.0011099929673236,0.0011099929680186,-0.0011099929674008,0.0011099929682462,-0.0009684696049276,0.00096846960562908,-0.00096846960475598,0.00096846960588298,-0.00096846960548292,0.00096846960507029,-0.00096846960442367,0.00096846960623255,-3.6323993268116e-13,5.8736214472496e-13,-0.00094984478465314,0.00094984478512832,2.1986437152967e-13,-5.4292900212696e-15,-0.0011099929675574,0.0011099929675097,-0.0011099929677794,0.0011099929675565,-0.0011099929673573,0.0011099929679519,-0.0011099929675833,0.0011099929680028,-0.00096846960476501,0.0009684696058903,-0.0009684696056627,0.00096846960493247,0.46538451425637,125301,3014,0.0039501446772242,0.0039501446772249,0.0039501446772281,24.406322707108,0.00011045058165687,0.00011045058165687,0.00011045058165687,2653503.2293212,0.011921472527761
17419200,0.99822001977449,0.013432333842646,0.0044774446142168,0.0044774446142159,0.0044774446142131,-0.00094418041412385,0.00094418041439522,4.9587876300888e-13,-4.5475322524818e-13,6.1313435740155e-13,-5.7963867478931e-13,-0.001103555796549,0.001103555797331,-0.0011035557969932,0.0011035557971373,-0.0011035557971216,0.0011035557970619,-0.001103555797574,0.0011035557968669,-0.00096289290049263,0.00096289290111151,-0.00096289290146224,0.00096289290021811,-3.2863888726645e-13,8.0085693694384e-13,1.3102574633427e-13,2.6510233843214e-13,-0.00094418041394693,0.00094418041457247,-0.0011035557969384,0.0011035557968999,-0.0011035557970519,0.0011035557970959,-0.001103555796748,0.001103555797416,-0.0011035557968569,0.001103555797617,-0.00096289290044882,0.00096289290114653,-0.00096289290037483,0.00096289290132198,-0.0009628929010624,0.0009628929005268,-0.00096289290001453,0.00096289290170148,-3.9146174699469e-13,5.5911068425827e-13,-0.00094418041406457,0.00094418041445641,1.4867206111176e-13,1.157692574463e-14,-0.0011035557969945,0.0011035557968867,-0.0011035557971905,0.0011035557969659,-0.0011035557967976,0.0011035557973321,-0.0011035557969977,0.0011035557974155,-0.00096289290031283,0.00096289290140213,-0.0009628929011988,0.00096289290043261,0.52521873377382,125301,3014,0.0039266309918819,0.0039266309918826,0.0039266309918859,21.969289883362,9.0954319066894e-05,9.0954319066894e-05,9.0954319066894e-05,2667303.4341917,0.011850078911881
18419200,0.99853192623197,0.013435552434943,0.0044785174783158,0.0044785174783149,0.0044785174783121,-0.00093139333667895,0.00093139333811056,8.809588226068e-13,-6.9545169560455e-14,9.8914148828886e-13,-1.9621416755657e-13,-0.0010939729208766,0.0010939729225422,-0.0010939729211813,0.0010939729222091,-0.0010939729213144,0.0010939729221379,-0.0010939729216283,0.0010939729218043,-0.00095069634576894,0.00095069634726855,-0.0009506963467216,0.00095069634635851,4.7426923411414e-14,1.183657917269e-12,6.0702460976706e-13,5.5892793125324e-13,-0.0009313933365023,0.00093139333828757,-0.0010939729212324,0.0010939729221408,-0.001093972921274,0.0010939729221377,-0.0010939729209077,0.0010939729225218,-0.0010939729209448,0.0010939729225237,-0.00095069634563398,0.00095069634738903,-0.00095069634572591,0.00095069634737609,-0.00095069634637261,0.0009506963466426,-0.00095069634531151,0.00095069634781127,-3.2858113854235e-15,9.4715877083206e-13,-0.00093139333661664,0.00093139333817485,4.38824564799e-13,4.8934752135736e-13,-0.0010939729213539,0.0010939729220716,-0.001093972921346,0.0010939729220739,-0.0010939729210167,0.0010939729223766,-0.0010939729210153,0.0010939729223854,-0.00095069634553827,0.00095069634757569,-0.00095069634643952,0.00095069634662175,0.50516361584657,125301,3014,0.0038735726690531,0.0038735726690539,0.0038735726690572,17.466071138348,5.4928569106787e-05,5.4928569106787e-05,5.4928569106787e-05,2630570.3342305,0.01168905859325
19419200,0.99879039069564,0.013439015345206,0.0044796717817369,0.004479671781736,0.0044796717817332,-0.00093045167529182,0.0009304516743048,7.8013587326693e-14,-8.7248555204764e-13,2.0672314063231e-13,-9.946811719965e-13,-0.0010929036535005,0.0010929036532925,-0.0010929036541017,0.001092903653256,-0.0010929036542232,0.0010929036531745,-0.001092903654831,0.0010929036531348,-0.00094987197906093,0.00094987197873006,-0.00094987198004594,0.00094987197785232,-7.3471072056171e-13,3.8433075895913e-13,-2.3497165909328e-13,-2.0547552915958e-13,-0.00093045167511544,0.00093045167448153,-0.0010929036538796,0.0010929036528799,-0.0010929036541713,0.0010929036531957,-0.001092903653839,0.0010929036535454,-0.0010929036541261,0.0010929036538662,-0.00094987197897104,0.00094987197882224,-0.00094987197900615,0.00094987197889739,-0.00094987197964273,0.00094987197814275,-0.0009498719786076,0.00094987197931643,-8.0754285953173e-13,1.4289669342763e-13,-0.00093045167523089,0.00093045167436773,-3.0636750832998e-13,-3.4955482134015e-13,-0.0010929036539557,0.0010929036528318,-0.0010929036542797,0.0010929036530979,-0.0010929036539164,0.0010929036534347,-0.0010929036542415,0.001092903653702,-0.00094987197887923,0.00094987197905464,-0.00094987197975133,0.0009498719780715,0.65325215552177,125301,3014,0.0038696627527703,0.003869662752771,0.0038696627527744,17.551719729885,5.5613757839082e-05,5.5613757839082e-05,5.5613757839082e-05,2626233.8524608,0.011677186529365
20419200,0.99901535618018,0.013442243227908,0.0044807477426376,0.0044807477426367,0.0044807477426339,-0.00092602954170657,0.00092602954026413,-6.9500817974189e-14,-1.0199579292207e-12,6.4644142812869e-14,-1.1412074016031e-12,-0.0010942088505844,0.0010942088499981,-0.0010942088512469,0.0010942088500229,-0.0010942088513659,0.0010942088499387,-0.0010942088520347,0.0010942088499601,-0.00094636652069403,0.00094636652002718,-0.00094636652167174,0.00094636651914222,-8.7687791565232e-13,2.3744653293611e-13,-4.4445750163209e-13,-2.9117597483358e-13,-0.00092602954153036,0.00092602954044071,-0.0010942088509857,0.0010942088495649,-0.0010942088512948,0.001094208849983,-0.0010942088510035,0.0010942088502887,-0.0010942088513081,0.0010942088507118,-0.00094636652066551,0.00094636652005984,-0.00094636652057086,0.0009463665202466,-0.00094636652125291,0.00094636651946802,-0.00094636652020922,0.00094636652062622,-9.7675448435039e-13,-2.6356371301537e-14,-0.00092602954166735,0.00092602954030544,-4.116152489661e-13,-5.8022755385828e-13,-0.0010942088510377,0.0010942088495359,-0.0010942088514658,0.0010942088498218,-0.0010942088510605,0.0010942088502008,-0.0010942088514883,0.0010942088504866,-0.00094636652054735,0.00094636652030248,-0.00094636652142768,0.00094636651932765,0.70012779305903,125301,3014,0.0038513339550698,0.0038513339550706,0.0038513339550741,18.600074111449,6.4000592891592e-05,6.4000592891592e-05,6.4000592891592e-05,2533949.482879,0.011621610633164
21419200,0.99916830232747,0.013444282800582,0.0044814276001954,0.0044814276001945,0.0044814276001917,-0.00091482516663603,0.00091482516765645,7.3888886862873e-13,-2.1144233469946e-13,8.5158405822098e-13,-3.3672640441595e-13,-0.0010851847250641,0.0010851847263787,-0.0010851847254197,0.0010851847260966,-0.0010851847255501,0.001085184726023,-0.0010851847259144,0.00108518472574,-0.0009357155552352,0.00093571555642481,-0.00093571555619035,0.0009357155555176,-8.9987807172772e-14,1.0413510146472e-12,4.2134913312836e-13,4.5936642671809e-13,-0.00091482516646011,0.00091482516783276,-0.0010851847254366,0.001085184725963,-0.0010851847254968,0.0010851847260389,-0.0010851847251603,0.0010851847263916,-0.001085184725216,0.0010851847264724,-0.00093571555514458,0.00093571555650412,-0.00093571555515231,0.00093571555657438,-0.00093571555582309,0.00093571555581977,-0.00093571555476339,0.0009357155569826,-1.6156924064119e-13,7.8870693495629e-13,-0.00091482516659018,0.00091482516770447,3.2685354426035e-13,2.8864635852247e-13,-0.0010851847255408,0.0010851847259059,-0.0010851847256143,0.0010851847259295,-0.0010851847252552,0.0010851847262624,-0.0010851847253338,0.0010851847262911,-0.00093571555503834,0.0009357155567039,-0.00093571555593763,0.00093571555574835,0.64990944923706,125301,3014,0.0038048356878882,0.0038048356878891,0.0038048356878928,15.216724427038,3.6933795416305e-05,3.6933795416305e-05,3.6933795416305e-05,2503342.3873378,0.011480517370277
22419200,0.99929497859037,0.013446017229638,0.0044820057432142,0.0044820057432133,0.0044820057432105,-0.00091341950679906,0.00091341950616813,1.9245826759086e-13,-7.5787390629592e-13,3.1782708471837e-13,-8.80139612339e-13,-0.0010824734456032,0.0010824734456674,-0.0010824734461568,0.0010824734455834,-0.0010824734462796,0.0010824734455036,-0.0010824734468401,0.0010824734454169,-0.0009342770500042,0.00093427704994026,-0.00093427705098837,0.00093427704906202,-6.2350483312855e-13,4.9692259141476e-13,-1.4081326350881e-13,-7.211838460859e-14,-0.00091341950662356,0.00091341950634403,-0.0010824734459877,0.0010824734452477,-0.0010824734462221,0.0010824734455295,-0.0010824734459015,0.0010824734458668,-0.0010824734461314,0.0010824734461535,-0.00093427704993347,0.00093427705001053,-0.00093427704993159,0.00093427705012664,-0.00093427705058161,0.00093427704935552,-0.00093427704954715,0.00093427705053086,-7.0278158932839e-13,2.4749120401948e-13,-0.00091341950674813,0.00091341950622125,-1.8546061371732e-13,-2.6514834107666e-13,-0.0010824734460632,0.0010824734452039,-0.001082473446351,0.0010824734454106,-0.0010824734459763,0.0010824734457591,-0.0010824734462659,0.0010824734459676,-0.00093427704983801,0.00093427705024783,-0.00093427705071009,0.00093427704926499,0.66642562144511,125301,3014,0.0037989934091151,0.0037989934091159,0.0037989934091197,14.857990882398,3.4063927059187e-05,3.4063927059187e-05,3.4063927059187e-05,2513168.7521661,0.011462772626546
23419200,0.99940748980761,0.013447468789539,0.0044824895965145,0.0044824895965136,0.0044824895965108,-0.00091321368332895,0.00091321368205177,-1.9264264431122e-14,-9.6958611510385e-13,1.1200375483276e-13,-1.0904170708599e-12,-0.0010832983306912,0.0010832983302476,-0.0010832983313266,0.0010832983302454,-0.0010832983314461,0.0010832983301628,-0.0010832983320879,0.0010832983301574,-0.00093426706363554,0.00093426706308762,-0.00093426706462122,0.0009342670622109,-8.2920233250043e-13,2.8582583623161e-13,-4.028626326209e-13,-2.3414596312632e-13,-0.00091321368315378,0.00091321368222734,-0.0010832983310948,0.0010832983298114,-0.0010832983313733,0.0010832983302076,-0.0010832983310871,0.0010832983305089,-0.001083298331361,0.0010832983309101,-0.00093426706361567,0.00093426706311064,-0.00093426706351449,0.00093426706332177,-0.00093426706419386,0.00093426706252732,-0.0009342670631594,0.00093426706369547,-9.2221106237919e-13,2.8051231289433e-14,-0.00091321368328579,0.00091321368209715,-3.5062959733001e-13,-5.3369885763095e-13,-0.0010832983311391,0.0010832983297925,-0.0010832983315444,0.0010832983300465,-0.0010832983311346,0.0010832983304301,-0.0010832983315402,0.0010832983306844,-0.0009342670634956,0.0009342670633722,-0.00093426706436716,0.00093426706238886,0.62875729639221,125301,3014,0.0037981434940158,0.0037981434940167,0.0037981434940204,15.707951103075,4.0863608824596e-05,4.0863608824596e-05,4.0863608824596e-05,2488322.6431784,0.011460203081384
24419200,0.99951371625298,0.013448915179,0.0044829717263347,0.0044829717263338,0.004482971726331,-0.00091748138124164,0.00091748137922625,-2.6447700864422e-13,-1.2148242408945e-12,-1.2704722173576e-13,-1.3340772007396e-12,-0.001086708533532,0.001086708532513,-0.0010867085342581,0.0010867085326014,-0.0010867085343741,0.001086708532516,-0.0010867085351059,0.0010867085326006,-0.00093848063485589,0.00093848063374887,-0.00093848063584842,0.00093848063287896,-1.0680080106688e-12,4.1360775059654e-14,-7.2133165866591e-13,-4.0669085043136e-13,-0.00091748138106675,0.00091748137940154,-0.0010867085339623,0.0010867085320528,-0.0010867085342784,0.0010867085325875,-0.0010867085340418,0.0010867085328374,-0.0010867085343533,0.001086708533377,-0.00093848063490942,0.00093848063370218,-0.00093848063466924,0.00093848063405863,-0.00093848063538746,0.00093848063322072,-0.00093848063435823,0.00093848063438695,-1.1726272358664e-12,-2.2233985472888e-13,-0.00091748138120377,0.00091748137926636,-5.2352312437497e-13,-8.5616477122452e-13,-0.0010867085339576,0.0010867085320763,-0.0010867085345046,0.0010867085323711,-0.0010867085340444,0.0010867085328052,-0.0010867085345901,0.0010867085330987,-0.0009384806347528,0.00093848063401072,-0.00093848063561855,0.00093848063302153,0.66255127740754,125301,3014,0.003815853496277,0.0038158534962778,0.0038158534962817,17.887330804721,5.8298646437769e-05,5.8298646437769e-05,5.8298646437769e-05,2488420.6525015,0.011513933692242
25419200,0.99961055446414,0.013450469322992,0.0044834897743322,0.0044834897743313,0.0044834897743285,-0.00091952838974999,0.00091952838782114,-2.3435239951859e-13,-1.1846941319369e-12,-9.7516035657931e-14,-1.303989737538e-12,-0.0010904073006394,0.0010904072996848,-0.0010904073013553,0.0010904072997632,-0.0010904073014718,0.0010904072996781,-0.0010904073021939,0.001090407299753,-0.00094077265555793,0.00094077265451903,-0.00094077265654636,0.00094077265364498,-1.0384537858876e-12,7.1080126345049e-14,-7.4859354734128e-13,-3.1950565326922e-13,-0.00091952838957526,0.00091952838799626,-0.0010904073010875,0.0010904072992052,-0.001090407301358,0.0010904072997684,-0.0010904073011576,0.0010904072999801,-0.0010904073014235,0.0010904073005484,-0.00094077265566688,0.00094077265441473,-0.00094077265531221,0.00094077265488172,-0.00094077265607096,0.00094077265400935,-0.00094077265503786,0.00094077265517154,-1.1527575487541e-12,-2.0247584391372e-13,-0.0009195283897224,0.00091952838785099,-4.4917667501973e-13,-8.9406014295869e-13,-0.0010904073010563,0.0010904072992569,-0.0010904073016305,0.0010904072995049,-0.0010904073011333,0.001090407299976,-0.0010904073017063,0.0010904073002227,-0.00094077265547952,0.00094077265474754,-0.0009407726563495,0.00094077265376256,0.77991302017261,125301,3014,0.0038243577477232,0.003824357747724,0.0038243577477279,19.931984403906,7.4655875231249e-05,7.4655875231249e-05,7.4655875231249e-05,2453888.4673422,0.011539755882735
26419200,0.99968993523605,0.013451824880238,0.0044839416267475,0.0044839416267466,0.0044839416267438,-0.00091536783291845,0.00091536783190704,7.0913686576729e-14,-8.7938351779011e-13,2.0038940765291e-13,-1.0001454168323e-12,-0.0010904643889152,0.0010904643886634,-0.00109046438952,0.0010904643886306,-0.0010904643896405,0.0010904643885492,-0.0010904643902526,0.0010904643885141,-0.00093728920238447,0.00093728920204405,-0.00093728920335926,0.00093728920115649,-7.4058195086763e-13,3.7470717611474e-13,-4.5150690760111e-13,-5.9992733841746e-15,-0.0009153678327438,0.00091536783208211,-0.001090464389362,0.0010904643881803,-0.0010904643895242,0.0010904643886393,-0.0010904643893255,0.0010904643888482,-0.0010904643894831,0.0010904643893121,-0.00093728920249877,0.00093728920192775,-0.00093728920211968,0.0009372892024052,-0.00093728920289816,0.00093728920152842,-0.00093728920185384,0.00093728920268582,-8.5538998607015e-13,9.4847925990379e-14,-0.00091536783289881,0.00091536783192902,-1.5187684556074e-13,-6.0658535158683e-13,-0.0010904643893408,0.0010904643882309,-0.0010904643898057,0.0010904643883651,-0.0010904643893064,0.0010904643888385,-0.0010904643897719,0.0010904643889735,-0.0009372892023022,0.0009372892022488,-0.00093728920318456,0.00093728920127631,0.82922923068302,125301,3014,0.0038071075870098,0.0038071075870106,0.0038071075870146,20.395380521171,7.8363044169366e-05,7.8363044169366e-05,7.8363044169366e-05,2385912.0343009,0.011487447182789
27419200,0.99975917560046,0.013452890716789,0.004484296905598,0.0044842969055971,0.0044842969055943,-0.00091550549606754,0.00091550549427572,-1.8798793356826e-13,-1.1382830497636e-12,-5.2092438023541e-14,-1.2576189188406e-12,-0.0010923292355685,0.0010923292347134,-0.0010923292362676,0.0010923292347749,-0.0010923292363846,0.0010923292346904,-0.0010923292370903,0.0010923292347489,-0.00093778982004863,0.0009377898191154,-0.00093778982103167,0.00093778981823613,-9.9301034215111e-13,1.1675055283605e-13,-7.4885789680235e-13,-2.2677136973977e-13,-0.00091550549589309,0.0009155054944506,-0.0010923292360312,0.001092329234218,-0.0010923292362564,0.0010923292347958,-0.0010923292360852,0.0010923292349765,-0.0010923292363058,0.0010923292355593,-0.00093778982020235,0.00093778981896402,-0.00093778981975316,0.00093778981951942,-0.00093778982054685,0.00093778981862031,-0.00093778981950906,0.00093778981977747,-1.1191375758211e-12,-1.6890281072331e-13,-0.00091550549605281,0.00091550549429284,-3.7173412907164e-13,-9.0750076176878e-13,-0.001092329235983,0.0010923292342883,-0.0010923292365704,0.0010923292344896,-0.0010923292360434,0.0010923292349907,-0.0010923292366298,0.0010923292351911,-0.00093778981999286,0.00093778981931074,-0.00093778982086786,0.00093778981833092,0.74718867332314,125301,3014,0.0038076856532246,0.0038076856532255,0.0038076856532295,22.257776055599,9.3262208444795e-05,9.3262208444795e-05,9.3262208444795e-05,2346413.903135,0.011489211863018
28419200,0.99981607408436,0.013453889093869,0.004484629697958,0.0044846296979571,0.0044846296979543,-0.00091847668161451,0.00091847668019227,-6.924797275726e-14,-1.0195841465218e-12,6.2312449338622e-14,-1.1392134036949e-12,-0.001092994679924,0.0010929946793685,-0.0010929946805729,0.0010929946793798,-0.0010929946806917,0.0010929946792977,-0.0010929946813475,0.0010929946793063,-0.00094055706203036,0.00094055706137151,-0.00094055706301712,0.00094055706049587,-8.7834305701458e-13,2.34268600608e-13,-6.4821630864996e-13,-9.0717635290627e-14,-0.00091847668144041,0.00091847668036681,-0.0010929946803906,0.0010929946788668,-0.0010929946805578,0.0010929946794067,-0.0010929946803969,0.0010929946795772,-0.0010929946805596,0.0010929946801221,-0.00094055706220102,0.00094055706120044,-0.00094055706172295,0.00094055706179772,-0.00094055706252516,0.00094055706087694,-0.00094055706149215,0.00094055706204271,-9.9602727793271e-13,-4.5750602350503e-14,-0.00091847668159548,0.00091847668021371,-2.345799219797e-13,-8.0278856359573e-13,-0.0010929946803304,0.001092994678954,-0.0010929946808775,0.0010929946790945,-0.0010929946803402,0.0010929946796059,-0.0010929946808873,0.0010929946797465,-0.00094055706197967,0.000940557061569,-0.0009405570628504,0.00094055706058482,0.8493285419621,125301,3014,0.0038200059064078,0.0038200059064087,0.0038200059064128,23.444957875208,0.00010275966300166,0.00010275966300166,0.00010275966300166,2368195.9636017,0.011526572322455
29419200,0.99986230569834,0.013454467665035,0.0044848225550132,0.0044848225550123,0.0044848225550095,-0.00091717511608755,0.00091717511460565,-8.6009166596647e-14,-1.0363071062351e-12,4.6888317594083e-14,-1.1557623981344e-12,-0.0010952120747701,0.0010952120741573,-0.0010952120754296,0.0010952120741792,-0.0010952120755478,0.0010952120740964,-0.0010952120762143,0.0010952120741157,-0.00093972635350198,0.00093972635280299,-0.00093972635448339,0.00093972635192204,-8.938979586038e-13,2.1739584216213e-13,-6.8198124544476e-13,-9.0689553198148e-14,-0.00091717511591361,0.00091717511478003,-0.0010952120752427,0.0010952120736498,-0.001095212075409,0.0010952120742117,-0.001095212075259,0.0010952120743701,-0.0010952120754207,0.0010952120749369,-0.0009397263536892,0.00093972635261519,-0.00093972635317275,0.0009397263532402,-0.00093972635399058,0.00093972635231591,-0.00093972635295222,0.00093972635347398,-1.0210666894665e-12,-7.0827836258221e-14,-0.00091717511607681,0.00091717511461883,-2.427474812899e-13,-8.4475966376037e-13,-0.0010952120751783,0.00109521207374,-0.0010952120757475,0.0010952120738801,-0.0010952120751991,0.0010952120744028,-0.001095212075768,0.0010952120745426,-0.00093972635345964,0.00093972635298126,-0.00093972635433597,0.00093972635200273,0.60881578646039,125301,3014,0.0038146202810053,0.0038146202810062,0.0038146202810104,24.784377771065,0.00011347502216852,0.00011347502216852,0.00011347502216852,2306834.741094,0.011510263957923
30419200,0.9998990797471,0.013454857601787,0.0044849525339306,0.0044849525339297,0.0044849525339269,-0.00092581756423207,0.0009258175626868,-1.1405142757188e-13,-1.0644458348516e-12,1.6861823118172e-14,-1.1831816781413e-12,-0.0010964101283132,0.0010964101276791,-0.0010964101289716,0.0010964101276999,-0.0010964101290896,0.0010964101276185,-0.001096410129755,0.0010964101276367,-0.00094751856202262,0.00094751856126345,-0.00094751856302008,0.00094751856039834,-9.2310517029e-13,1.8855184464999e-13,-7.2697906564518e-13,-1.027672014103e-13,-0.00092581756405852,0.00092581756286079,-0.0010964101287908,0.0010964101271663,-0.0010964101289457,0.0010964101277378,-0.0010964101288069,0.0010964101278861,-0.0010964101289572,0.0010964101284625,-0.00094751856222706,0.00094751856105867,-0.0009475185616941,0.0009475185617319,-0.00094751856250714,0.00094751856077934,-0.00094751856148514,0.00094751856195511,-1.0351886698144e-12,-8.4853731306166e-14,-0.00092581756420751,0.00092581756271377,-2.4030659997479e-13,-8.7524149726717e-13,-0.0010964101287028,0.0010964101272814,-0.0010964101292817,0.0010964101274093,-0.0010964101287222,0.0010964101279429,-0.0010964101293009,0.0010964101280707,-0.00094751856198836,0.00094751856146583,-0.00094751856284847,0.00094751856047087,0.51512748248588,125301,3014,0.003850456465277,0.0038504564652779,0.003850456465282,26.135131493841,0.00012428105195073,0.00012428105195073,0.00012428105195073,2408185.7140902,0.011618942396176
31419200,0.99992885098978,0.013455265474568,0.0044850884915243,0.0044850884915234,0.0044850884915206,-0.00093417082573007,0.00093417082362254,-2.9978842990454e-13,-1.250263364136e-12,-1.6332336352453e-13,-1.3676940120044e-12,-0.0011024677560469,0.0011024677549608,-0.0011024677567786,0.0011024677550549,-0.0011024677568935,0.0011024677549707,-0.0011024677576316,0.0011024677550615,-0.00095534526890728,0.00095534526772467,-0.00095534526990661,0.00095534526686131,-1.1030298041158e-12,3.3713142880744e-15,-9.5628381054263e-13,-2.4550648716386e-13,-0.00093417082555672,0.00093417082379632,-0.001102467756541,0.0011024677544339,-0.0011024677567362,0.0011024677551067,-0.0011024677566273,0.0011024677552235,-0.0011024677568179,0.0011024677559014,-0.00095534526915582,0.00095534526747904,-0.00095534526853741,0.00095534526823501,-0.00095534526937473,0.00095534526726232,-0.00095534526835379,0.00095534526843183,-1.2252204527091e-12,-2.7480554605567e-13,-0.00093417082570973,0.00093417082364523,-3.829770061977e-13,-1.1077739229729e-12,-0.0011024677564233,0.0011024677545727,-0.0011024677571065,0.0011024677547438,-0.0011024677565165,0.0011024677553079,-0.0011024677571981,0.0011024677554776,-0.0009553452688939,0.00095534526791026,-0.00095534526975323,0.0009553452669144,0.66479676253864,125301,3014,0.0038851181599143,0.0038851181599152,0.0038851181599192,28.446526103021,0.00014277220882417,0.00014277220882417,0.00014277220882417,2437532.9091581,0.01172412649777
32419200,0.99995059396533,0.013455616485546,0.0044852054951836,0.0044852054951827,0.0044852054951799,-0.00093119325609079,0.00093119325485642,-2.3332228392909e-15,-9.527518352619e-13,1.2752613357592e-13,-1.0719100185906e-12,-0.00110541254648,0.001105412546068,-0.0011054125471093,0.0011054125460597,-0.0011054125472284,0.0011054125459788,-0.0011054125478653,0.0011054125459684,-0.00095309218712448,0.00095309218661431,-0.00095309218810618,0.00095309218573344,-8.1234910582805e-13,2.9960830121618e-13,-6.5229098104652e-13,4.6034956025825e-14,-0.00093119325591723,0.00093119325503042,-0.0011054125469682,0.0011054125455423,-0.0011054125470729,0.0011054125461104,-0.0011054125469563,0.0011054125462337,-0.0011054125470565,0.0011054125468067,-0.0009530921873638,0.00095309218637129,-0.00095309218674526,0.00095309218710531,-0.00095309218759662,0.00095309218614208,-0.00095309218656035,0.00095309218730227,-9.3947465263542e-13,1.0884638070014e-14,-0.0009311932560821,0.00093119325486751,-1.1159270856641e-13,-8.1745070391271e-13,-0.0011054125468733,0.0011054125456666,-0.0011054125474465,0.0011054125457426,-0.0011054125468639,0.0011054125462994,-0.0011054125474374,0.0011054125463757,-0.00095309218710195,0.00095309218677311,-0.00095309218797784,0.00095309218579393,0.7835582016357,125301,3014,0.0038727884801636,0.0038727884801645,0.0038727884801686,29.298459220336,0.00014958767376269,0.00014958767376269,0.00014958767376269,2349508.8336495,0.011686762913968
33419200,0.99996570417859,0.013455869082615,0.0044852896942064,0.0044852896942055,0.0044852896942027,-0.00092621128828899,0.00092621128756881,1.6730130082481e-13,-7.8304954896202e-13,2.9336964070003e-13,-9.0321381920252e-13,-0.0011044780374732,0.0011044780374465,-0.001104478038041,0.0011044780373767,-0.0011044780381624,0.0011044780372975,-0.0011044780387381,0.001104478037226,-0.00094879141514273,0.00094879141502326,-0.00094879141611593,0.00094879141413402,-6.466146608593e-13,4.6872915674895e-13,-4.5831039323355e-13,1.9182422925694e-13,-0.00092621128811524,0.000926211287743,-0.0011044780379517,0.0011044780369288,-0.0011044780380142,0.0011044780374197,-0.0011044780378805,0.0011044780375607,-0.0011044780379385,0.0011044780380566,-0.00094879141535705,0.00094879141480246,-0.00094879141477931,0.00094879141548414,-0.00094879141562438,0.00094879141453842,-0.00094879141458068,0.00094879141569507,-7.717980691576e-13,1.7849207660135e-13,-0.00092621128828227,0.00092621128757798,2.8555377652814e-14,-6.2639556992767e-13,-0.0011044780378786,0.0011044780370356,-0.0011044780383724,0.0011044780370671,-0.0011044780378073,0.0011044780376064,-0.0011044780383025,0.0011044780376393,-0.00094879141510523,0.00094879141517971,-0.00094879141598896,0.00094879141420849,0.80945760226261,125301,3014,0.0038521288760986,0.0038521288760995,0.0038521288761037,29.317385110633,0.00014973908088506,0.00014973908088506,0.00014973908088506,2288184.4323767,0.0116240951604
34419200,0.99997714244504,0.01345604255525,0.0044853475184183,0.0044853475184174,0.0044853475184146,-0.00092797625802437,0.00092797625605433,-2.4782548792499e-13,-1.1981928960295e-12,-1.1127810053041e-13,-1.3163773591047e-12,-0.0011070933196047,0.0011070933186121,-0.0011070933203234,0.0011070933186932,-0.0011070933204392,0.0011070933186089,-0.0011070933211647,0.001107093318687,-0.00095075516446505,0.00095075516339602,-0.00095075516545068,0.00095075516251922,-1.0513933905916e-12,5.5632484289322e-14,-9.0103743394327e-13,-1.9585305195123e-13,-0.00092797625785071,0.00092797625622845,-0.0011070933200975,0.0011070933180859,-0.0011070933202825,0.0011070933187445,-0.001107093320171,0.001107093318863,-0.0011070933203515,0.0011070933195265,-0.00095075516470936,0.00095075516315313,-0.00095075516408411,0.00095075516389143,-0.00095075516493294,0.00095075516293298,-0.00095075516389851,0.00095075516408916,-1.1894842503079e-12,-2.3917684037053e-13,-0.00092797625802026,0.00092797625606095,-3.5161549368214e-13,-1.0695897365325e-12,-0.0011070933199983,0.0011070933182069,-0.0011070933206662,0.0011070933183677,-0.0011070933200787,0.0011070933189294,-0.0011070933207453,0.0011070933190889,-0.00095075516445286,0.00095075516355303,-0.00095075516532566,0.00095075516257089,0.73398852679868,125301,3014,0.0038594568808602,0.0038594568808611,0.0038594568808654,31.490035645427,0.00016712028516341,0.00016712028516341,0.00016712028516341,2262209.6708157,0.011646336932045
35419200,0.99998611421667,0.013456162938639,0.0044853876462146,0.0044853876462137,0.0044853876462109,-0.00093784032584924,0.00093784032249798,-7.0651756343223e-13,-1.6570004091867e-12,-5.5772085906941e-13,-1.7725600553894e-12,-0.001114641835332,0.0011146418332553,-0.001114641836222,0.0011146418335076,-0.0011146418363312,0.0011146418334171,-0.0011146418372266,0.0011146418336652,-0.00096032007962234,0.00096032007750693,-0.00096032008061756,0.00096032007663947,-1.4978803587462e-12,-4.0109666037529e-13,-1.4406617282033e-12,-5.7440990222348e-13,-0.00093784032567588,0.00093784032267179,-0.0011146418358571,0.001114641832703,-0.0011146418361492,0.0011146418335845,-0.0011146418360948,0.0011146418336443,-0.0011146418363825,0.0011146418345309,-0.00096032007994959,0.00096032007718983,-0.00096032007916907,0.00096032007808489,-0.00096032008005887,0.00096032007708642,-0.00096032007903002,0.00096032007823523,-1.6535623671577e-12,-7.0313731375537e-13,-0.00093784032585041,0.00093784032249931,-7.2459092306821e-13,-1.6120194303835e-12,-0.001114641835698,0.0011146418328705,-0.001114641836596,0.0011146418331455,-0.0011146418359505,0.0011146418337652,-0.001114641836844,0.0011146418340359,-0.00096032007965282,0.0009603200776408,-0.00096032008051872,0.00096032007665158,0.64952121200817,125301,3014,0.0039003855665864,0.0039003855665874,0.0039003855665916,35.945825109658,0.00020276660087726,0.00020276660087726,0.00020276660087726,2275594.6740742,0.011770535314823
36419200,0.99999185387027,0.013456243771978,0.0044854145906608,0.0044854145906599,0.0044854145906571,-0.00094297479633221,0.00094297479468348,-1.4460287659903e-13,-1.0951365149194e-12,-1.1954664204979e-14,-1.2133746381201e-12,-0.0011174933581441,0.0011174933574144,-0.0011174933588186,0.0011174933574511,-0.0011174933589361,0.0011174933573691,-0.0011174933596179,0.0011174933574036,-0.00096512359196228,0.0009651235911331,-0.00096512359294965,0.00096512359025768,-9.5202600277106e-13,1.5763930371277e-13,-8.8215806538252e-13,-9.4546495286196e-15,-0.00094297479615902,0.00094297479485713,-0.0011174933586621,0.0011174933568596,-0.0011174933587529,0.0011174933575305,-0.0011174933586939,0.0011174933575946,-0.0011174933587802,0.0011174933582705,-0.00096512359228798,0.00096512359080492,-0.00096512359150316,0.00096512359171374,-0.00096512359240523,0.00096512359069318,-0.00096512359137271,0.00096512359185496,-1.0885147172108e-12,-1.3804069471624e-13,-0.00094297479633032,0.00094297479468786,-1.7222001820843e-13,-1.0532832788012e-12,-0.0011174933585138,0.001117493357035,-0.001117493359191,0.0011174933570979,-0.0011174933585499,0.0011174933577133,-0.0011174933592266,0.0011174933577758,-0.00096512359198112,0.00096512359126166,-0.00096512359285212,0.00096512359027735,0.6811981079479,125301,3014,0.003921684846507,0.0039216848465079,0.0039216848465121,37.486239723577,0.00021508991778861,0.00021508991778861,0.00021508991778861,2302005.6248073,0.011835167182177
37419200,0.99999524261246,0.013456289604606,0.0044854298682037,0.0044854298682028,0.0044854298682,-0.00094218353186953,0.00094218353102891,1.2535122942952e-13,-8.2516711524046e-13,2.5097146534695e-13,-9.4484094458124e-13,-0.0011182899201476,0.0011182899200521,-0.0011182899207233,0.00111828991999,-0.0011182899208444,0.0011182899199114,-0.0011182899214282,0.0011182899198479,-0.00096450559907064,0.00096450559885407,-0.00096450560005386,0.00096450559797452,-6.8911194744242e-13,4.2607332382596e-13,-5.7235036021805e-13,2.2061311583205e-13,-0.00094218353169637,0.00094218353120252,-0.0011182899206494,0.00111828991951,-0.001118289920674,0.0011182899200566,-0.0011182899205863,0.0011182899201501,-0.0011182899206064,0.0011182899207016,-0.00096450559935524,0.00096450559856171,-0.00096450559864853,0.00096450559939469,-0.00096450559952982,0.00096450559839195,-0.00096450559849574,0.00096450559955866,-8.1672131443035e-13,1.3373756146812e-13,-0.00094218353186578,0.00094218353103515,5.3489307114855e-14,-7.429248923898e-13,-0.0011182899205322,0.0011182899196619,-0.0011182899210809,0.0011182899196546,-0.001118289920469,0.0011182899202408,-0.001118289921019,0.0011182899202348,-0.00096450559906963,0.00096450559899385,-0.00096450559994361,0.00096450559801255,0.65495763090949,125301,3014,0.0039184089342415,0.0039184089342425,0.0039184089342467,37.681166276907,0.00021664933021526,0.00021664933021526,0.00021664933021526,2277444.7499517,0.01182524057037
38419200,0.99999719022561,0.013456318976043,0.0044854396586825,0.0044854396586817,0.0044854396586789,-0.00094127833861762,0.00094127833817617,2.572108482675e-13,-6.9330367298987e-13,3.7876797301607e-13,-8.1362620310152e-13,-0.0011170859506508,0.0011170859508743,-0.0011170859511757,0.0011170859507615,-0.0011170859512986,0.0011170859506849,-0.0011170859518319,0.0011170859505709,-0.00096360965767036,0.00096360965775451,-0.00096360965865338,0.00096360965687478,-5.6119530985518e-13,5.5711329674767e-13,-3.9191422995474e-13,3.0380641093211e-13,-0.0009412783384445,0.00094127833834975,-0.0011170859511351,0.0011170859503484,-0.0011170859511437,0.0011170859508121,-0.0011170859510234,0.0011170859509396,-0.0011170859510275,0.0011170859514083,-0.00096360965790673,0.00096360965750855,-0.00096360965729654,0.00096360965824839,-0.00096360965814745,0.00096360965727104,-0.00096360965711436,0.0009636096584428,-6.7808240269511e-13,2.7237262037988e-13,-0.00094127833860709,0.00094127833818921,1.4122097991365e-13,-5.5610946711986e-13,-0.0011170859510468,0.0011170859504753,-0.0011170859515109,0.00111708595045,-0.0011170859509323,0.001117085951003,-0.0011170859513987,0.0011170859509801,-0.00096360965764611,0.00096360965791699,-0.00096360965851957,0.00096360965693519,0.72891346290552,125301,3014,0.0039146504421475,0.0039146504421485,0.0039146504421527,37.194176560433,0.00021275341248346,0.00021275341248346,0.00021275341248346,2282970.4691894,0.011813828095684
38880000,0.99999787040937,0.013456329463552,0.0044854431545189,0.004485443154518,0.0044854431545153,-0.00093890911012599,0.00093890910942425,1.7185089713188e-13,-7.7863103688571e-13,2.9674202297018e-13,-8.9851730091322e-13,-0.0011171766813355,0.0011171766813381,-0.0011171766818966,0.0011171766812615,-0.0011171766820179,0.001117176681183,-0.001117176682587,0.0011171766811047,-0.00096156495797859,0.0009615649578686,-0.00096156495895849,0.00096156495698582,-6.4326217492526e-13,4.7236117630795e-13,-4.481608016422e-13,1.8959549348874e-13,-0.00093890910995279,0.00093890910959791,-0.0011171766818122,0.0011171766808222,-0.0011171766818723,0.0011171766813021,-0.0011171766817346,0.0011171766814475,-0.0011171766817903,0.0011171766819325,-0.00096156495818753,0.00096156495765295,-0.00096156495762866,0.00096156495832935,-0.00096156495846335,0.00096156495737985,-0.00096156495742667,0.00096156495854407,-7.6445991098035e-13,1.8596270132007e-13,-0.00093890911011645,0.00093890910943631,2.9553611863326e-14,-6.1281745531798e-13,-0.0011171766817406,0.0011171766809282,-0.0011171766822232,0.001117176680957,-0.0011171766816624,0.0011171766814922,-0.0011171766821465,0.0011171766815225,-0.00096156495794293,0.00096156495803652,-0.00096156495881996,0.00096156495705834,0.74537476942469,125301,3014,0.003904829175933,0.003904829175934,0.0039048291759382,37.193611324069,0.00021274889059255,0.00021274889059255,0.00021274889059255,2246448.0374294,0.01178404047123
