time,ASR_ext,ASR_strain,ASR_strain_xx,ASR_strain_yy,ASR_strain_zz,disp_x_101,disp_x_102,disp_x_103,disp_x_104,disp_x_105,disp_x_106,disp_x_p1_neg,disp_x_p1_pos,disp_x_p2_neg,disp_x_p2_pos,disp_x_p3_neg,disp_x_p3_pos,disp_x_p4_neg,disp_x_p4_pos,disp_x_p5_neg,disp_x_p5_pos,disp_x_p6_neg,disp_x_p6_pos,disp_y_101,disp_y_102,disp_y_103,disp_y_104,disp_y_105,disp_y_106,disp_y_p1_neg,disp_y_p1_pos,disp_y_p2_neg,disp_y_p2_pos,disp_y_p3_neg,disp_y_p3_pos,disp_y_p4_neg,disp_y_p4_pos,disp_y_p5_neg,disp_y_p5_pos,disp_y_p6_neg,disp_y_p6_pos,disp_y_p7_neg,disp_y_p7_pos,disp_y_p8_neg,disp_y_p8_pos,disp_z_101,disp_z_102,disp_z_103,disp_z_104,disp_z_105,disp_z_106,disp_z_p1_neg,disp_z_p1_pos,disp_z_p2_neg,disp_z_p2_pos,disp_z_p3_neg,disp_z_p3_pos,disp_z_p4_neg,disp_z_p4_pos,disp_z_p5_neg,disp_z_p5_pos,disp_z_p6_neg,disp_z_p6_pos,humidity,ndof,nelem,strain_xx,strain_yy,strain_zz,temp,thermal_strain_xx,thermal_strain_yy,thermal_strain_zz,vonmises,vstrain
2419200,0,0,0,0,0,0,0,0,0,0,0,0,0,0,0,0,0,0,0,0,0,0,0,0,0,0,0,0,0,0,0,0,0,0,0,0,0,0,0,0,0,0,0,0,0,0,0,0,0,0,0,0,0,0,0,0,0,0,0,0,0,0,0,0,0,0,0,0,0,0,0,0,0,0,0
3419200,0.15861664149529,0.0030029821273423,0.0010009940424474,0.0010009940424474,0.0010009940424474,-0.00028642390991595,0.00028642390991817,2.3040031436973e-15,2.2219321214989e-15,1.4840943678181e-15,5.7744559472757e-16,-0.00028934170429067,0.00028934170430136,-0.0002893427279889,0.00028934272798725,-0.00028934171434524,0.0002893417143362,-0.00028934271793759,0.0002893427179348,-0.00027937114375793,0.00027937114376208,-0.00027937180051802,0.00027937180052883,-2.7155346893381e-15,-1.9804923035007e-15,-7.1146007455782e-10,7.1145581090397e-10,-0.0002864239099216,0.00028642390991448,-0.00028934201243873,0.00028934148617426,-0.00028934241986705,0.00028934294611062,-0.0002893420124335,0.00028934148617435,-0.00028934241986065,0.00028934294611445,-0.00027937189596677,0.00027937052215855,-0.00027937104831905,0.00027937242214005,-0.00028613226368889,0.00028613275608015,-0.00028613226368586,0.00028613275609052,-4.7786804578647e-09,-4.7786803746462e-09,-0.00025694461810392,0.00025693242243971,-3.9399761614622e-09,-5.4592117772724e-09,-0.00026269465294927,0.00026268474745613,-0.00026269517548044,0.00026268422492424,-0.00026269465294699,0.00026268474745748,-0.00026269517548406,0.00026268422493158,-0.00026357619112067,0.00026356568154574,-0.00026357619111103,0.00026356568154126,0.75746877217741,120135,2834,0.0011927174077384,0.0011927174077425,0.0010700086773218,31.795773042738,0.00016956618434191,0.00016956618434191,0.00016956618434191,1921254.632967,0.003461422444
4419200,0.35006511641732,0.0064760717641335,0.0022600519938307,0.0022600519938467,0.0019559677764561,-0.00059864694814535,0.00059864694815106,5.9247307682478e-15,5.6474745323532e-15,-6.5792107743329e-17,4.1593141122795e-15,-0.00061322464087587,0.00061322464088853,-0.00061322762042745,0.00061322762042021,-0.00061322468119664,0.00061322468119235,-0.00061322758009924,0.00061322758010474,-0.00056379752977337,0.00056379752978907,-0.00056379922672189,0.00056379922673804,-8.3686561080063e-15,-1.071523067636e-14,-1.070742405945e-09,1.0707205370948e-09,-0.00059864694816101,0.00059864694814321,-0.00061322516945693,0.00061322434737833,-0.00061322709189054,0.00061322791393536,-0.00061322516944449,0.00061322434737352,-0.00061322709188835,0.00061322791393661,-0.00056379867870164,0.00056379662452089,-0.00056379807784478,0.00056380013199772,-0.00060105178524641,0.00060105256766192,-0.00060105178526226,0.0006010525676751,-9.8590825211256e-09,-9.8590825961766e-09,-0.00046228961648459,0.00046226613818215,-8.445631878214e-09,-1.0873382814964e-08,-0.00047689434765515,0.00047687336722478,-0.00047689519059248,0.00047687252428171,-0.00047689434765095,0.00047687336722818,-0.00047689519060056,0.00047687252429345,-0.00049515385154299,0.00049513278335544,-0.00049515385152866,0.00049513278334242,0.73992840791513,120135,2834,0.0024912272789062,0.0024912272789225,0.001924403893843,33.599619515554,0.00018399695612443,0.00018399695612443,0.00018399695612443,3398211.5417146,0.0069307813833431
5419200,0.55047687695742,0.0099960180800787,0.0036091391636951,0.0036091391637103,0.0027777397526732,-0.00093586433608204,0.00093586433608924,5.9828466399067e-15,6.7964100213979e-15,3.8719846547031e-15,4.1362412877267e-15,-0.00096786960706908,0.00096786960707129,-0.00096787124939337,0.00096787124938733,-0.00096786964162646,0.0009678696416343,-0.0009678712148297,0.00096787121483832,-0.00085808976570606,0.00085808976571669,-0.0008580895555564,0.00085808955556613,-6.0989901506257e-15,-4.477354430833e-15,4.2258119330094e-10,-4.2259003540163e-10,-0.000935864336093,0.00093586433608764,-0.00096786946752554,0.00096786976706364,-0.00096787138896221,0.00096787108940959,-0.00096786946751012,0.00096786976705702,-0.0009678713889669,0.00096787108940929,-0.00085808927046561,0.00085809013331028,-0.00085809005083081,0.0008580891879835,-0.00094539235485375,0.00094539215345566,-0.00094539235485474,0.00094539215346332,-3.1338429567999e-09,-3.1338420176893e-09,-0.00063198356213887,0.0006319746982271,-3.4346390973685e-09,-2.744424043347e-09,-0.00065668868703276,0.00065668002269057,-0.00065668844872097,0.000656680260988,-0.00065668868702871,0.00065668002268765,-0.0006566884487244,0.00065668026099799,-0.00070274541284818,0.00070273910968451,-0.00070274541284179,0.00070273910966322,0.72499638738019,120135,2834,0.0038917458449334,0.0038917458449528,0.0026302268233562,36.267931440677,0.00020534345152541,0.00020534345152541,0.00020534345152541,4007046.9208403,0.010468175013263
6419200,0.70699268209584,0.012247383101843,0.0045023286693972,0.0045023286694186,0.0032427257630271,-0.0011594356904151,0.0011594356904196,3.7883842674611e-15,4.523420636134e-15,1.1187599402988e-15,3.4599825352027e-15,-0.001213614768362,0.0012136147683589,-0.0012136159808432,0.0012136159808364,-0.0012136147895172,0.0012136147895238,-0.0012136159596756,0.0012136159596869,-0.0010368766310149,0.001036876631025,-0.0010368764843098,0.0010368764843168,-1.0905019800307e-14,-9.9161720792387e-15,6.1380106825848e-10,-6.1382227327957e-10,-0.0011594356904319,0.0011594356904143,-0.0012136145561281,0.0012136149855625,-0.001213616193116,0.0012136157636471,-0.0012136145561134,0.0012136149855565,-0.0012136161931178,0.0012136157636443,-0.0010368759649019,0.0010368771983283,-0.0010368771504693,0.0010368759170187,-0.0011709887803963,0.0011709884326529,-0.0011709887803921,0.0011709884326522,-3.2044818223522e-09,-3.2044811847406e-09,-0.00071079755235123,0.00071078946703083,-3.7369816622019e-09,-2.6070930590525e-09,-0.00074647316157793,0.00074646505247533,-0.00074647277714799,0.00074646543689194,-0.00074647316157559,0.00074646505247001,-0.00074647277715468,0.00074646543689875,-0.00081022741911271,0.00081022162326764,-0.00081022741910548,0.00081022162324831,0.59839168540088,120135,2834,0.0048191535929597,0.0048191535929837,0.0029581819807416,36.738621354556,0.00020910897083645,0.00020910897083645,0.00020910897083645,4154783.2202432,0.012676265147303
7419200,0.83233899388253,0.013826402497196,0.0051271430586135,0.0051271430586365,0.0035721163799457,-0.0013245806129531,0.0013245806129552,2.8354427909338e-15,3.5463622493029e-15,1.7746516679627e-16,2.4842476373517e-15,-0.0013990854139258,0.0013990854139208,-0.0013990867055934,0.0013990867055836,-0.0013990854344864,0.001399085434491,-0.0013990866850192,0.0013990866850278,-0.001163962644457,0.0011639626444633,-0.0011639627311222,0.0011639627311281,-1.0692379237507e-14,-9.2343419206305e-15,6.1505310331499e-10,-6.1507300772123e-10,-0.0013245806129677,0.0013245806129518,-0.001399085217199,0.0013990856338984,-0.0013990869023527,0.0013990864856187,-0.0013990852171841,0.001399085633894,-0.0013990869023566,0.0013990864856189,-0.0011639620034001,0.001163963237537,-0.0011639633722155,0.0011639621380607,-0.001337225810293,0.0013372254594473,-0.0013372258102896,0.0013372254594488,-3.9917081671512e-09,-3.9917076716883e-09,-0.00076204456256612,0.00076203447959411,-4.4998783606285e-09,-3.3791476120806e-09,-0.00080334812985002,0.00080333842237715,-0.00080334775428684,0.00080333879793134,-0.00080334812984733,0.00080333842237427,-0.00080334775429048,0.00080333879793726,-0.00088622507221384,0.00088621756424286,-0.00088622507220688,0.00088621756422534,0.52694121020036,120135,2834,0.0055036325904811,0.0055036325905044,0.0031715531073581,40.762795433683,0.00024130236346947,0.00024130236346947,0.00024130236346947,4007659.5045488,0.014279992067229
8419200,0.90794816155915,0.014680268385228,0.005461924373188,0.0054619243732108,0.0037564196388295,-0.001413442823796,0.0014134428237977,2.5739801902015e-15,3.2836643921892e-15,-3.2881348438552e-16,2.398456140576e-15,-0.0014994843144482,0.0014994843144434,-0.0014994852724196,0.001499485272409,-0.0014994843318757,0.0014994843318793,-0.0014994852549813,0.0014994852549897,-0.0012297757727387,0.0012297757727457,-0.0012297757908701,0.0012297757908764,-1.0400211692437e-14,-9.2928108950134e-15,8.6209810347546e-10,-8.6211762959305e-10,-0.0014134428238102,0.0014134428237947,-0.0014994840168118,0.0014994846118372,-0.0014994855700891,0.0014994849750313,-0.0014994840167979,0.0014994846118336,-0.0014994855700921,0.001499484975031,-0.0012297748784096,0.0012297765895621,-0.0012297766852347,0.0012297749740628,-0.0014276251419263,0.0014276246201271,-0.0014276251419225,0.0014276246201294,-2.576630524207e-09,-2.5766300769845e-09,-0.00077523910913404,0.00077523269011087,-3.3689945867191e-09,-1.722997365672e-09,-0.00082208212893146,0.00082207544458841,-0.00082208157392729,0.00082207599958432,-0.00082208212892932,0.00082207544458504,-0.00082208157393173,0.00082207599959014,-0.00091497110933249,0.00091496675946081,-0.00091497110932591,0.00091496675944495,0.47156008474719,120135,2834,0.0058717164367935,0.0058717164368165,0.0032267627502242,41.433445292095,0.00024666756233676,0.00024666756233676,0.00024666756233676,3659474.8203076,0.015083041460143
9419200,0.94978295372666,0.015088905452214,0.005620432508552,0.0056204325085747,0.0038480404350871,-0.0014551481111386,0.0014551481111379,2.7246226470013e-16,1.2976074178076e-15,-1.408809903001e-15,3.278135149339e-16,-0.0015460649461678,0.0015460649461616,-0.0015460657987656,0.0015460657987564,-0.0015460649633613,0.0015460649633639,-0.0015460657815618,0.001546065781565,-0.0012625044527653,0.0012625044527688,-0.0012625044284112,0.0012625044284119,-1.1506177905928e-14,-9.5386686186037e-15,1.1963912725479e-09,-1.1964115962724e-09,-0.0014551481111521,0.0014551481111367,-0.0015460645375917,0.0015460653549658,-0.0015460662073771,0.0015460653899751,-0.0015460645375776,0.0015460653549632,-0.0015460662073792,0.0015460653899752,-0.001262503232319,0.0012625055982532,-0.0012625056489001,0.0012625032829357,-0.0014697274358841,0.0014697266911137,-0.0014697274358764,0.0014697266911145,-1.9601737420599e-09,-1.9601736330999e-09,-0.00077429680207242,0.00077429195645174,-3.0941676520522e-09,-7.697664736038e-10,-0.00082677097997048,0.00082676548167457,-0.00082677019887992,0.00082676626275297,-0.00082677097997054,0.00082676548167123,-0.00082677019888356,0.0008267662627601,-0.00091991302165598,0.00091991025097328,-0.00091991302164619,0.00091991025095334,0.40621133923259,120135,2834,0.0060443889763133,0.0060443889763387,0.0032230879607339,41.145339355475,0.0002443627148438,0.0002443627148438,0.0002443627148438,3317121.5874425,0.015429955463297
10419200,0.97070354933763,0.01530975442802,0.0057045425017018,0.0057045425017245,0.0039006694245938,-0.001473428835455,0.0014734288354566,2.3819860554905e-15,3.4099546517555e-15,-2.5013941723604e-16,2.0577312553697e-15,-0.0015682042142308,0.0015682042142258,-0.0015682046627378,0.0015682046627276,-0.0015682042280185,0.0015682042280216,-0.001568204648939,0.0015682046489471,-0.0012704317931178,0.0012704317931241,-0.0012704316621821,0.0012704316621886,-1.1025251421431e-14,-9.4793420762094e-15,1.7105956125735e-09,-1.7106158200411e-09,-0.0014734288354694,0.0014734288354535,-0.0015682036109613,0.0015682047877865,-0.00156820526604,0.0015682040891816,-0.0015682036109473,0.0015682047877832,-0.0015682052660431,0.0015682040891821,-0.001270430051216,0.0012704334181834,-0.0012704334041211,0.001270430037134,-0.001489926276142,0.0014899251823098,-0.0014899262761379,0.0014899251823125,-3.8932552223059e-10,-3.8932541690517e-10,-0.00076559246463305,0.00076559154021318,-2.0762991213547e-09,1.3070716299913e-09,-0.00081835952259512,0.00081835714224538,-0.00081835838295516,0.0008183582818765,-0.00081835952259339,0.00081835714224202,-0.00081835838295911,0.00081835828188208,-0.00091922996810112,0.0009192307879784,-0.00091922996809467,0.0009192307879634,0.43665130715676,120135,2834,0.0061200778453143,0.0061200778453377,0.003187125058165,38.099073892349,0.00021999259113879,0.00021999259113879,0.00021999259113879,3197797.6886481,0.015547170148201
11419200,0.98278256334638,0.015428080517309,0.005749495442593,0.0057494954426157,0.0039290896321002,-0.0014869615556137,0.0014869615556079,-2.9954967249254e-15,-2.3709863915227e-15,-1.6482143540652e-15,-3.0325544163677e-15,-0.0015823509491908,0.0015823509491818,-0.0015823516331835,0.0015823516331646,-0.0015823509635152,0.0015823509635185,-0.0015823516188563,0.0015823516188544,-0.0012813970207324,0.0012813970207254,-0.0012813969846198,0.0012813969846164,-1.2907840968436e-14,-7.6407663500534e-15,8.7170140717081e-10,-8.7172103287744e-10,-0.0014869615556243,0.0014869615556082,-0.0015823506298395,0.0015823512439981,-0.0015823519525729,0.0015823513383852,-0.0015823506298255,0.0015823512439978,-0.0015823519525728,0.0015823513383802,-0.0012813961010365,0.0012813978247989,-0.001281397904352,0.0012813961805741,-0.0015042748416031,0.0015042743077804,-0.0015042748415854,0.0015042743077713,-1.6688148663028e-09,-1.6688143216033e-09,-0.00075972739624831,0.0007597232750157,-2.5036668455347e-09,-8.1388894031037e-10,-0.00081743996112139,0.00081743526805474,-0.00081743938704928,0.00081743584211831,-0.000817439961123,0.00081743526805576,-0.00081743938705081,0.00081743584212236,-0.00091537783067925,0.000915375366065,-0.00091537783067373,0.00091537536604495,0.40445605707229,120135,2834,0.0061760688241927,0.0061760688242153,0.0031628976528171,37.627945904402,0.00021622356723522,0.00021622356723522,0.00021622356723522,2977284.9697432,0.015636308032321
12419200,0.9897096470727,0.015504389452462,0.0057781639608049,0.0057781639608277,0.0039480615308291,-0.0014935025546198,0.0014935025546201,1.8340616177354e-15,2.4361608710753e-15,3.0019671154947e-16,2.7240344296769e-16,-0.0015898195461047,0.0015898195460994,-0.0015898202122266,0.0015898202122158,-0.0015898195612877,0.0015898195612892,-0.0015898201970343,0.0015898201970403,-0.0012851253236567,0.0012851253236612,-0.0012851252680368,0.0012851252680406,-1.1766405250279e-14,-7.8771642293634e-15,1.2461121866736e-09,-1.2461314494992e-09,-0.0014935025546332,0.0014935025546182,-0.0015898191084917,0.0015898199677582,-0.0015898206498718,0.0015898197905732,-0.0015898191084768,0.0015898199677556,-0.001589820649874,0.0015898197905741,-0.0012851240454747,0.0012851265047805,-0.0012851265462531,0.0012851240869304,-0.0015114109586389,0.0015114101767514,-0.0015114109586324,0.0015114101767561,-1.4465219749164e-09,-1.4465214440275e-09,-0.0007562299047358,0.00075622635483132,-2.6479332388983e-09,-2.1168335198361e-10,-0.00081462396870031,0.00081461954846158,-0.00081462314732448,0.00081462036982837,-0.00081462396869865,0.00081461954845848,-0.00081462314732823,0.00081462036983406,-0.00091434398066419,0.00091434227611939,-0.00091434398065831,0.0009143422761035,0.45322610794666,120135,2834,0.0062031418397354,0.0062031418397591,0.0031484419817063,36.803857434988,0.0002096308594799,0.0002096308594799,0.0002096308594799,2903212.7338327,0.015676621513866
13419200,0.99357818074746,0.015543429719031,0.0057928321515938,0.0057928321516166,0.0039577654158202,-0.0014955757738768,0.0014955757738775,2.0428787679265e-15,2.648330860016e-15,6.5880340342001e-17,8.8209069979344e-16,-0.0015917534086202,0.001591753408615,-0.0015917539319504,0.0015917539319396,-0.0015917534232839,0.001591753423286,-0.0015917539172767,0.0015917539172834,-0.0012864185544164,0.0012864185544215,-0.0012864184344034,0.0012864184344079,-1.1459767559026e-14,-8.3968635413253e-15,1.5887590132562e-09,-1.5887784159872e-09,-0.0014955757738905,0.0014955757738753,-0.0015917528528495,0.0015917539434813,-0.0015917544877533,0.0015917533970894,-0.0015917528528349,0.0015917539434784,-0.0015917544877559,0.0015917533970901,-0.0012864169372968,0.0012864200668814,-0.0012864200515582,0.001286416921956,-0.0015139651166576,0.0015139641052164,-0.0015139651166518,0.0015139641052203,-7.9079045873047e-10,-7.9078993496913e-10,-0.00074752351655502,0.0007475216134346,-2.3429592835992e-09,7.8599964813264e-10,-0.00080977467405022,0.00080977142765337,-0.00080977362088535,0.00080977248080907,-0.00080977467404858,0.00080977142765027,-0.00080977362088902,0.00080977248081475,-0.00090630621834567,0.00090630612523476,-0.00090630621833989,0.00090630612521916,0.4150894025916,120135,2834,0.0062116906002735,0.0062116906002973,0.0031123711573563,34.793607899583,0.00019354886319667,0.00019354886319667,0.00019354886319667,2767917.596136,0.015657361130227
14419200,0.99581186520131,0.015564260902592,0.0058006311243642,0.005800631124387,0.0039629986538406,-0.0014933883083094,0.0014933883083102,2.0558195490651e-15,2.6602128499705e-15,-2.3828683814772e-16,1.2916664228304e-15,-0.0015903882798788,0.0015903882798735,-0.0015903887778618,0.0015903887778508,-0.0015903882950937,0.0015903882950963,-0.0015903887626366,0.0015903887626435,-0.0012824547982321,0.0012824547982375,-0.0012824546782819,0.0012824546782867,-1.1213775073928e-14,-8.8741585880466e-15,1.9254270732393e-09,-1.9254465948786e-09,-0.0014933883083232,0.0014933883083078,-0.0015903876160554,0.0015903889280122,-0.0015903894417173,0.0015903881297284,-0.001590387616041,0.0015903889280092,-0.0015903894417199,0.0015903881297287,-0.0012824528546319,0.0012824566452476,-0.0012824566219183,0.0012824528312842,-0.0015119481601774,0.0015119469252841,-0.0015119481601721,0.0015119469252871,-6.7135305086922e-10,-6.713525257e-10,-0.00074173199882146,0.00074173038992297,-2.554291919194e-09,1.2454651184838e-09,-0.0008030638420417,0.0008030606574562,-0.00080306256640308,0.00080306193308565,-0.0008030638420401,0.00080306065745317,-0.00080306256640675,0.0008030619330913,-0.00090201929721184,0.00090201967778332,-0.00090201929720609,0.00090201967776762,0.38312450045663,120135,2834,0.0062026356533091,0.0062026356533329,0.0030883351316924,32.642848260055,0.00017634278608044,0.00017634278608044,0.00017634278608044,2759255.1231634,0.015614554197262
15419200,0.99697494402243,0.015578752902875,0.0058060166909991,0.0058060166910219,0.0039667195208539,-0.0014842543854606,0.0014842543854618,2.2446373102239e-15,2.8389720948807e-15,-3.0034376588059e-16,1.7711811857482e-15,-0.0015816393679215,0.0015816393679165,-0.0015816394680966,0.0015816394680857,-0.0015816393802761,0.0015816393802793,-0.0015816394557314,0.0015816394557388,-0.0012722615021948,0.0012722615022007,-0.0012722612406918,0.0012722612406972,-1.1197069701912e-14,-9.4054711711501e-15,2.4850480568982e-09,-2.4850681368099e-09,-0.0014842543854748,0.001484254385459,-0.0015816384966277,0.001581640196954,-0.0015816403394233,0.0015816386390644,-0.0015816384966134,0.0015816401969509,-0.0015816403394262,0.0015816386390645,-0.0012722589939125,0.0012722638755562,-0.0012722637490112,0.0012722588673475,-0.0015030587138099,0.0015030571007008,-0.0015030587138052,0.001503057100703,1.0826426401828e-09,1.0826431749059e-09,-0.00072946396944946,0.00072946677157296,-1.3994768633248e-09,3.5520652680061e-09,-0.00079044885555975,0.00079044916338507,-0.00079044719105495,0.00079045082788135,-0.0007904488555583,0.00079044916338213,-0.00079044719105854,0.00079045082788727,-0.00089077784566496,0.00089078229466878,-0.00089077784565903,0.00089078229465249,0.51103778709309,120135,2834,0.0061648118611807,0.0061648118612045,0.0030374017769678,27.067044843069,0.00013173635874455,0.00013173635874455,0.00013173635874455,2771729.8640811,0.015486004374203
16419200,0.9977216644206,0.015587217940477,0.0058091780461708,0.0058091780461937,0.0039688618481127,-0.0014830721970589,0.0014830721970601,2.2832831884424e-15,2.8709122956e-15,-4.5680957419284e-16,1.9722338672562e-15,-0.0015793481382846,0.0015793481382795,-0.001579348583974,0.0015793485839631,-0.0015793481549108,0.001579348154914,-0.0015793485673368,0.0015793485673445,-0.0012719862308941,0.0012719862309003,-0.0012719860738621,0.0012719860738678,-1.0917431185854e-14,-9.4509994792806e-15,2.6530481157668e-09,-2.6530680622738e-09,-0.0014830721970731,0.0014830721970574,-0.001579347242213,0.0015793490316176,-0.0015793494800777,0.0015793476906411,-0.0015793472421989,0.0015793490316141,-0.0015793494800806,0.0015793476906411,-0.0012719835815856,0.0012719888008973,-0.0012719887232083,0.0012719835038767,-0.0015022822002907,0.0015022804826344,-0.0015022822002863,0.0015022804826365,-3.5018095956041e-10,-3.5018042193437e-10,-0.00071750176101982,0.00071750093860026,-2.9451405447721e-09,2.3011095537268e-09,-0.00078475257466805,0.00078474953608085,-0.00078475081935391,0.00078475129138603,-0.00078475257466649,0.0007847495360779,-0.00078475081935762,0.00078475129139166,-0.00087818153193951,0.00087818306910052,-0.00087818153193373,0.00087818306908494,0.46538451425637,120135,2834,0.0061598617303952,0.0061598617304189,0.0029878069481557,24.417051457962,0.0001105364116637,0.0001105364116637,0.0001105364116637,2598597.6333833,0.015425605296608
17419200,0.99822313947949,0.015593648546279,0.0058115598075124,0.0058115598075352,0.0039705289312317,-0.0014784015337016,0.0014784015337029,2.3781626428813e-15,2.9701445582402e-15,-5.5210078075895e-16,2.091759627591e-15,-0.0015757395919578,0.0015757395919525,-0.0015757400516394,0.0015757400516284,-0.0015757396090564,0.0015757396090598,-0.0015757400345296,0.0015757400345374,-0.001265250799774,0.0012652507997804,-0.0012652506605633,0.0012652506605691,-1.0860785857506e-14,-9.6266228480226e-15,2.7778174125321e-09,-2.7778374398186e-09,-0.0014784015337159,0.0014784015337001,-0.0015757386578797,0.0015757405278405,-0.0015757409857496,0.0015757391157565,-0.0015757386578656,0.0015757405278372,-0.0015757409857527,0.0015757391157565,-0.0012652480318129,0.0012652534967474,-0.0012652534285623,0.0012652479636079,-0.0014977208744057,0.0014977190744819,-0.0014977208744017,0.0014977190744839,-4.3624541880677e-10,-4.3624488201831e-10,-0.00071133363819454,0.00071133260229753,-3.1501491579732e-09,2.3424406722954e-09,-0.00077627668705424,0.00077627342338274,-0.00077627485065232,0.00077627525977567,-0.00077627668705259,0.00077627342337964,-0.00077627485065568,0.00077627525978116,-0.00087382516850095,0.00087382660856155,-0.00087382516849571,0.00087382660854624,0.52521873377382,120135,2834,0.0061405346915385,0.0061405346915623,0.0029621829233723,21.979043881068,9.1032351048546e-05,9.1032351048546e-05,9.1032351048546e-05,2619501.1827864,0.015360331286505
18419200,0.99853479743649,0.01559748999997,0.0058129862404049,0.0058129862404278,0.0039715175191371,-0.0014717717480659,0.0014717717480674,2.4745126406315e-15,3.0534361313869e-15,-5.4242460577122e-16,2.2824302733219e-15,-0.0015688405556567,0.0015688405556515,-0.0015688407819493,0.0015688407819386,-0.0015688405710783,0.0015688405710819,-0.0015688407665164,0.0015688407665244,-0.0012584064624489,0.0012584064624556,-0.0012584062241312,0.0012584062241371,-1.0893431919015e-14,-9.8270444022119e-15,3.03823896687e-09,-3.0382594865505e-09,-0.0014717717480804,0.0014717717480643,-0.0015688395222201,0.0015688415750569,-0.0015688418154184,0.0015688397625491,-0.0015688395222061,0.0015688415750534,-0.0015688418154215,0.001568839762549,-0.0012584034293036,0.0012584094010871,-0.0012584092573145,0.0012584032855104,-0.0014914366100964,0.00149143463343,-0.0014914366100924,0.0014914346334317,5.8884030476872e-10,5.8884085408081e-10,-0.00069785766644489,0.00069785922570583,-2.4087076348557e-09,3.6231860922402e-09,-0.00076550559947803,0.00076550437340596,-0.00076550358032973,0.00076550639254584,-0.00076550559947645,0.00076550437340287,-0.00076550358033335,0.00076550639255134,-0.00086059932716522,0.00086060310935468,-0.00086059932715968,0.00086060310933941,0.50516361584657,120135,2834,0.0061130536222007,0.0061130536222244,0.0029062621301378,17.483903124074,5.5071224992596e-05,5.5071224992596e-05,5.5071224992596e-05,2539843.6907388,0.015247758708531
19419200,0.99879275655002,0.01560160927956,0.005814505177148,0.0058145051771708,0.003972598925241,-0.001472025552786,0.0014720255527874,2.4338668235098e-15,3.0123197404056e-15,-5.8039403406654e-16,2.2520488485124e-15,-0.0015692912156358,0.0015692912156306,-0.0015692914354443,0.0015692914354336,-0.0015692912310707,0.0015692912310743,-0.0015692914199981,0.0015692914200061,-0.0012583363667649,0.0012583363667716,-0.0012583361340909,0.0012583361340968,-1.0806081646329e-14,-9.7514226315227e-15,3.0582257661517e-09,-3.0582459446085e-09,-0.0014720255528004,0.0014720255527845,-0.0015692901755919,0.0015692922417198,-0.0015692924755205,0.0015692904093602,-0.0015692901755779,0.0015692922417163,-0.0015692924755237,0.0015692904093603,-0.0012583333142097,0.0012583393252639,-0.0012583391866844,0.0012583331756097,-0.0014916821037741,0.0014916801139168,-0.0014916821037703,0.0014916801139186,-1.2476515557234e-09,-1.2476510069711e-09,-0.00069692066895718,0.00069691745236215,-4.194444146184e-09,1.7832918949949e-09,-0.00076400017010751,0.00076399475809051,-0.00076399817118864,0.00076399675700065,-0.00076400017010598,0.00076399475808751,-0.00076399817119225,0.00076399675700624,-0.00086002237328596,0.00086002197498175,-0.00086002237328044,0.0008600219749663,0.65325215552175,120135,2834,0.0061141074062662,0.00611410740629,0.0029023585319562,17.551529717677,5.5612237741414e-05,5.5612237741414e-05,5.5612237741414e-05,2528014.6075471,0.01524593204364
20419200,0.9990172358746,0.015605450423857,0.0058159228287132,0.005815922828736,0.0039736047664076,-0.0014763095343969,0.0014763095343986,2.5357460641101e-15,3.1186694326719e-15,-4.8354405159055e-16,2.370898158924e-15,-0.0015734477868929,0.0015734477868882,-0.0015734483516576,0.0015734483516473,-0.0015734478047587,0.0015734478047626,-0.001573448333781,0.0015734483337892,-0.0012624652299123,0.0012624652299193,-0.0012624652849332,0.0012624652849394,-1.0756671391073e-14,-9.7051877158426e-15,3.0338245606681e-09,-3.0338446670434e-09,-0.0014763095344113,0.0014763095343956,-0.0015734467737036,0.0015734488088004,-0.0015734493648793,0.001573447329751,-0.0015734467736899,0.0015734488087969,-0.0015734493648827,0.001573447329751,-0.0012624622123667,0.0012624681775397,-0.0012624683025173,0.0012624623373241,-0.0014962649781455,0.0014962630074094,-0.001496264978142,0.0014962630074112,-1.949480121361e-09,-1.9494795773547e-09,-0.00069323143928353,0.00069322645905978,-4.8713034035836e-09,1.0773577480486e-09,-0.00076377287558062,0.00076376591934489,-0.00076377088792078,0.00076376790699666,-0.00076377287557943,0.00076376591934221,-0.00076377088792446,0.0007637679070023,-0.00085664099692535,0.00085663904844803,-0.00085664099691968,0.00085663904843257,0.70012779305902,120135,2834,0.0061318113710546,0.0061318113710784,0.0028871064156746,18.595940081589,6.3967520652714e-05,6.3967520652714e-05,6.3967520652714e-05,2347282.5184705,0.015266405120868
21419200,0.9991700029536,0.015607878936854,0.0058168162551984,0.0058168162552213,0.0039742464264343,-0.0014714194592749,0.0014714194592752,2.0022329508048e-15,2.5895679493002e-15,-1.0007341341415e-15,1.861707831986e-15,-0.0015684738869401,0.001568473886933,-0.0015684746168841,0.0015684746168719,-0.0015684739064045,0.0015684739064069,-0.0015684745974068,0.0015684745974139,-0.0012572157817843,0.00125721578179,-0.0012572159178664,0.0012572159178716,-1.1056956335221e-14,-9.9997624139386e-15,3.0116960518761e-09,-3.011716937137e-09,-0.0014714194592891,0.0014714194592724,-0.0015684728929189,0.0015684749046952,-0.0015684756109369,0.0015684735991264,-0.0015684728929039,0.0015684749046913,-0.0015684756109394,0.0015684735991262,-0.0012572127938101,0.0012572187180935,-0.0012572189058787,0.0012572129815737,-0.0014916799180952,0.0014916779647242,-0.0014916799180905,0.0014916779647257,-2.5261721492262e-10,-2.5261667305757e-10,-0.0006824036952078,0.0006824031925468,-3.2223947210532e-09,2.78622927302e-09,-0.00075414794732801,0.00075414498684223,-0.00075414593942288,0.00075414699473712,-0.00075414794732513,0.00075414498683816,-0.00075414593942583,0.00075414699474229,-0.00084642811323852,0.00084643015115672,-0.00084642811323409,0.00084643015114214,0.64990944923705,120135,2834,0.0061115426820873,0.0061115426821111,0.0028421774630612,15.230026937642,3.7040215501134e-05,3.7040215501134e-05,3.7040215501134e-05,2286664.6541113,0.015179639165354
22419200,0.99929643159162,0.015609941798681,0.0058175726986812,0.005817572698704,0.0039747964012954,-0.0014704016087877,0.0014704016087891,2.5170407531916e-15,3.1041992864897e-15,-5.6789441592129e-16,2.2926946656341e-15,-0.0015679036542847,0.0015679036542793,-0.0015679040977901,0.0015679040977792,-0.0015679036722047,0.0015679036722081,-0.0015679040798585,0.0015679040798664,-0.0012552237626285,0.0012552237626351,-0.0012552236041916,0.0012552236041977,-1.0810316811065e-14,-9.7851782064711e-15,3.0341851067316e-09,-3.0342052390245e-09,-0.0014704016088021,0.0014704016087861,-0.0015679026407901,0.0015679046775318,-0.0015679051113169,0.0015679030745426,-0.0015679026407759,0.0015679046775282,-0.00156790511132,0.0015679030745426,-0.0012552207465493,0.0012552267150318,-0.0012552266203093,0.0012552206518062,-0.0014907260264535,0.001490724057036,-0.0014907260264496,0.0014907240570378,-1.1790329698972e-09,-1.1790324307803e-09,-0.00067991287373683,0.00067990997084107,-4.1065100196877e-09,1.845664196961e-09,-0.00075052280692885,0.00075051775085168,-0.0007505208196634,0.00075051973810815,-0.00075052280692706,0.00075051775084847,-0.00075052081966673,0.00075051973811356,-0.00084448793230148,0.00084448791245028,-0.00084448793229644,0.00084448791243525,0.6664256214451,120135,2834,0.0061073392956341,0.0061073392956579,0.0028318137322223,14.859515050291,3.4076120402326e-05,3.4076120402326e-05,3.4076120402326e-05,2311658.872749,0.015160579543255
23419200,0.99940869102826,0.015611668965776,0.0058182073601863,0.0058182073602092,0.0039752542453803,-0.0014725471983434,0.0014725471983452,2.6036263433554e-15,3.1917848461051e-15,-4.6460345374223e-16,2.4082205481624e-15,-0.0015703278119237,0.0015703278119189,-0.0015703284093514,0.001570328409341,-0.0015703278308617,0.0015703278308657,-0.001570328390402,0.0015703283904104,-0.0012566294482733,0.0012566294482803,-0.0012566294298089,0.0012566294298152,-1.077437673254e-14,-9.7549466507046e-15,3.0180121556316e-09,-3.0180322434366e-09,-0.001472547198358,0.0014725471983421,-0.0015703268114156,0.0015703288310826,-0.001570329409892,0.0015703273901927,-0.0015703268114017,0.0015703288310793,-0.0015703294098953,0.0015703273901928,-0.0012566264527426,0.0012566323907064,-0.0012566324253784,0.0012566264873943,-0.0014930393644954,0.0014930374068095,-0.0014930393644919,0.0014930374068115,-1.8450321522722e-09,-1.845031613786e-09,-0.00067971437598071,0.00067970972149257,-4.7473052635976e-09,1.1711644069372e-09,-0.00075039472351727,0.0007503881134673,-0.00075039274842061,0.00075039008855528,-0.00075039472351596,0.0007503881134646,-0.00075039274842432,0.00075039008856105,-0.00084485019165948,0.00084484861881132,-0.0008448501916538,0.00084484861879567,0.62875729639221,120135,2834,0.0061162235610906,0.0061162235611144,0.002830997454286,15.704613328923,4.0836906631387e-05,4.0836906631387e-05,4.0836906631387e-05,2268760.3301733,0.015177789454271
24419200,0.99951465458889,0.015613387931945,0.0058188373126587,0.0058188373126816,0.0039757133066046,-0.0014767299438737,0.0014767299438752,2.4761008274076e-15,3.0630240737759e-15,-6.1512826707721e-16,2.3185468170451e-15,-0.0015754220571773,0.0015754220571722,-0.001575423020631,0.0015754230206203,-0.0015754220794464,0.00157542207945,-0.0015754229983506,0.0015754229983586,-0.0012585268649805,0.0012585268649871,-0.0012585269271346,0.0012585269271407,-1.0825610461502e-14,-9.8804140953338e-15,2.7096837933378e-09,-2.7097041154857e-09,-0.0014767299438882,0.0014767299438721,-0.0015754211842836,0.0015754229804573,-0.0015754238935571,0.001575422097351,-0.0015754211842697,0.0015754229804538,-0.0015754238935603,0.0015754220973509,-0.0012585241937111,0.0012585295356324,-0.0012585295984423,0.0012585242565,-0.0014975803968163,0.0014975786516446,-0.0014975803968127,0.0014975786516463,-2.6670138628287e-09,-2.6670133236619e-09,-0.0006841446787097,0.00068413800269025,-5.2423719744288e-09,6.008058960864e-11,-0.00075264108229003,0.00075263296297139,-0.00075263931846108,0.00075263472679094,-0.00075264108228826,0.00075263296296816,-0.00075263931846456,0.00075263472679658,-0.00085100897708333,0.00085100564561372,-0.00085100897707794,0.00085100564559827,0.66255127740754,120135,2834,0.0061335620163128,0.0061335620163365,0.0028493970482991,17.878712366342,5.8229698930739e-05,5.8229698930739e-05,5.8229698930739e-05,2275190.3217307,0.015231669437466
25419200,0.99961126656005,0.015615233798794,0.0058195123259979,0.0058195123260207,0.0039762091467758,-0.0014812074336699,0.0014812074336719,2.6294490839001e-15,3.2136665305758e-15,-4.5610371340346e-16,2.4845123351477e-15,-0.0015798232698598,0.0015798232698557,-0.0015798242324272,0.0015798242324172,-0.0015798232920256,0.0015798232920296,-0.0015798242102507,0.0015798242102592,-0.0012629854884949,0.0012629854885019,-0.0012629855495779,0.0012629855495843,-1.0689496972617e-14,-9.7490192122985e-15,2.6875418068386e-09,-2.6875618791915e-09,-0.0014812074336845,0.0014812074336688,-0.0015798224035712,0.001579824185559,-0.0015798250987482,0.0015798233167292,-0.0015798224035579,0.0015798241855556,-0.0015798250987519,0.0015798233167293,-0.0012629828385199,0.0012629881369712,-0.0012629881995916,0.0012629829011199,-0.001502144096298,0.0015021423657919,-0.001502144096295,0.001502142365794,-2.6219460003515e-09,-2.6219454599836e-09,-0.00068654189645871,0.00068653534193617,-5.1781830453565e-09,8.3224594339888e-11,-0.00075601500412045,0.00075600700256306,-0.00075601325368126,0.00075600875299444,-0.00075601500411962,0.00075600700256067,-0.00075601325368482,0.00075600875300019,-0.00085336872594405,0.00085336548409808,-0.00085336872593849,0.00085336548408247,0.7799130201726,120135,2834,0.0061520946447649,0.0061520946447886,0.0028593759116152,19.923853336232,7.4590826689855e-05,7.4590826689855e-05,7.4590826689855e-05,2215571.5169853,0.01527943386334
26419200,0.99969049487106,0.015616843694825,0.005820100212704,0.0058201002127269,0.0039766432693939,-0.0014842986143067,0.0014842986143083,2.6049792432017e-15,3.1880790769608e-15,-6.2606910931258e-16,2.3429284251449e-15,-0.0015820849926131,0.0015820849926079,-0.0015820857520946,0.0015820857520839,-0.0015820850122935,0.0015820850122973,-0.0015820857324027,0.0015820857324111,-0.0012669293982442,0.0012669293982512,-0.0012669293778817,0.001266929377888,-1.0724672368621e-14,-9.7746162589108e-15,2.5736951518825e-09,-2.5737151707866e-09,-0.0014842986143212,0.0014842986143053,-0.0015820841460775,0.0015820858653664,-0.0015820865986625,0.0015820848793413,-0.0015820841460635,0.0015820858653629,-0.0015820865986657,0.0015820848793415,-0.0012669268452355,0.00126693191578,-0.0012669319309297,0.0012669268603651,-0.0015054540235156,0.0015054523647476,-0.0015054540235122,0.0015054523647497,-1.8346629276037e-09,-1.8346623846765e-09,-0.00068316088320915,0.00068315633144982,-4.306969501244e-09,7.4750670159514e-10,-0.00075671022086361,0.00075670400024759,-0.0007567085349067,0.00075670568619576,-0.00075671022086207,0.00075670400024454,-0.00075670853490992,0.00075670568620101,-0.00084933638136136,0.00084933472302042,-0.00084933638135658,0.00084933472300562,0.82922923068301,120135,2834,0.0061648586962048,0.0061648586962287,0.0028454005503395,20.393484320448,7.8347874563581e-05,7.8347874563581e-05,7.8347874563581e-05,2103259.0652664,0.015291172817378
27419200,0.99975958570755,0.015618109541703,0.0058205617301236,0.0058205617301464,0.0039769860814333,-0.0014885194314704,0.0014885194314718,2.4622777202823e-15,3.0452010888441e-15,-6.5974455113918e-16,2.339399121198e-15,-0.0015865673198206,0.0015865673198154,-0.00158656824099,0.0015865682409793,-0.0015865673406934,0.0015865673406971,-0.0015865682201057,0.0015865682201137,-0.0012703444686141,0.0012703444686209,-0.0012703445130099,0.001270344513016,-1.0816257806043e-14,-9.9078220930567e-15,2.3909398449519e-09,-2.3909603440527e-09,-0.0014885194314849,0.0014885194314688,-0.001586566543177,0.0015865681339928,-0.0015865690176658,0.0015865674268175,-0.001586566543163,0.0015865681339893,-0.001586569017669,0.0015865674268175,-0.0012703421016117,0.0012703468164807,-0.0012703468800514,0.0012703421651612,-0.0015098389720471,0.0015098374373498,-0.0015098389720435,0.0015098374373514,-2.5459621807505e-09,-2.5459616374137e-09,-0.00068397378764307,0.00068396743966802,-4.8190130830023e-09,-1.4320824680695e-10,-0.00075798336929519,0.00075797572503977,-0.00075798181163037,0.00075797728269613,-0.00075798336929367,0.00075797572503681,-0.00075798181163379,0.00075797728270162,-0.00085080678572388,0.0008508035031084,-0.00085080678571873,0.00085080350309324,0.74718867332313,120135,2834,0.0061823299949487,0.0061823299949724,0.0028488023448725,22.25036897435,9.3202951794797e-05,9.3202951794797e-05,9.3202951794797e-05,2039547.2262111,0.01533010469193
28419200,0.99981637457652,0.01561929346554,0.0058209912017995,0.0058209912018224,0.0039773110619182,-0.0014899075128922,0.0014899075128938,2.5207465223358e-15,3.0959054222145e-15,-6.5642112325586e-16,2.4000737382183e-15,-0.0015890146735449,0.0015890146735398,-0.0015890155137024,0.0015890155136916,-0.0015890146934442,0.001589014693448,-0.0015890154937916,0.0015890154937998,-0.0012699138195565,0.0012699138195634,-0.0012699138380409,0.001269913838047,-1.0785082287845e-14,-9.9580210994931e-15,2.272822833728e-09,-2.2728432457247e-09,-0.0014899075129068,0.0014899075128907,-0.0015890139288049,0.0015890154466197,-0.0015890162584747,0.0015890147406275,-0.001589013928791,0.0015890154466161,-0.0015890162584778,0.0015890147406274,-0.001269911562971,0.0012699160439244,-0.0012699160946657,0.0012699116136912,-0.0015113225846816,0.0015113211266182,-0.0015113225846782,0.0015113211266199,-2.2235900003332e-09,-2.2235894481334e-09,-0.00068686696202863,0.00068686144371247,-4.3912204620968e-09,5.7256431399441e-11,-0.00075747915960876,0.00075747231699883,-0.00075747767608701,0.00075747380051202,-0.00075747915960715,0.00075747231699583,-0.0007574776760904,0.00075747380051746,-0.000855158383662,0.00085515570971583,-0.0008551583836569,0.00085515570970061,0.8493285419621,120135,2834,0.006188105141996,0.0061881051420198,0.0028607926073906,23.440167393173,0.00010272133914538,0.00010272133914538,0.00010272133914538,2074338.1707066,0.015353997707122
29419200,0.99986251932147,0.015619981993044,0.005821242927337,0.0058212429273598,0.0039774961383468,-0.001494012573495,0.0014940125734966,2.6334489617066e-15,3.2016668971564e-15,-6.409804184882e-16,2.4112792782497e-15,-0.0015924344588353,0.0015924344588304,-0.0015924353163278,0.0015924353163171,-0.0015924344786185,0.0015924344786223,-0.0015924352965332,0.0015924352965414,-0.0012748150218356,0.0012748150218428,-0.0012748150439684,0.001274815043975,-1.0825845748432e-14,-9.9701992660614e-15,2.196346393411e-09,-2.1963670470017e-09,-0.0014940125735097,0.0014940125734935,-0.0015924337388667,0.0015924352060865,-0.0015924360363289,0.0015924345690762,-0.0015924337388529,0.001592435206083,-0.0015924360363323,0.0015924345690763,-0.0012748128391965,0.0012748171703543,-0.0012748172266472,0.001274812895468,-0.0015156347236192,0.001515633316565,-0.0015156347236157,0.0015156333165669,-2.3057610078966e-09,-2.3057604496598e-09,-0.00068637959538778,0.00068637386952589,-4.3978199025472e-09,-1.021446274341e-10,-0.00076015874553862,0.00076015176122905,-0.00076015731263661,0.00076015319412269,-0.00076015874553697,0.00076015176122605,-0.0007601573126399,0.00076015319412807,-0.00085395000378944,0.00085394710360578,-0.00085395000378448,0.00085394710359107,0.60881578646039,120135,2834,0.0062050759770951,0.0062050759771189,0.0028588139320671,24.778981164018,0.00011343184931215,0.00011343184931215,0.00011343184931215,1978122.3064436,0.015386460286157
30419200,0.99989922743805,0.015620445815426,0.0058214119616302,0.0058214119616531,0.0039776218921429,-0.0014935062957858,0.0014935062957873,2.4551602906561e-15,3.0120256317433e-15,-7.1936037697545e-16,2.4276905416027e-15,-0.0015939865812171,0.001593986581212,-0.0015939874403578,0.0015939874403469,-0.0015939866009952,0.0015939866009989,-0.0015939874205685,0.0015939874205764,-0.0012713554391734,0.0012713554391803,-0.0012713554723032,0.0012713554723093,-1.0689555794349e-14,-9.9832360346169e-15,2.0926656215719e-09,-2.0926857108274e-09,-0.0014935062958003,0.0014935062957844,-0.0015939858954156,0.0015939872941872,-0.0015939881261914,0.0015939867273879,-0.0015939858954017,0.0015939872941836,-0.0015939881261947,0.0015939867273879,-0.0012713533586662,0.0012713574858733,-0.0012713575528493,0.0012713534256217,-0.001514916790431,0.0015149154519081,-0.0015149167904277,0.0015149154519097,-2.327780271362e-09,-2.3277796998398e-09,-0.00069408310161579,0.00069407733196459,-4.3166079733542e-09,-2.2827802392483e-10,-0.00075958071067141,0.00075957378494553,-0.00075957934710997,0.00075957514849819,-0.00075958071066994,0.00075957378494257,-0.00075957934711347,0.0007595751485036,-0.00086414442172705,0.00086414141317699,-0.00086414442172176,0.00086414141316186,0.51512748248587,120135,2834,0.0062030488587998,0.0062030488588236,0.0028907154489524,26.129662350466,0.00012423729880373,0.00012423729880373,0.00012423729880373,2140275.0905008,0.015414715414909
31419200,0.99992894339666,0.015620930219205,0.0058215883135772,0.0058215883136001,0.0039777535920272,-0.0014971504492575,0.001497150449259,2.4492781174112e-15,3.0004965721835e-15,-7.3006593228102e-16,2.415132101725e-15,-0.0015975036469988,0.0015975036469935,-0.0015975046281758,0.0015975046281648,-0.0015975036676582,0.0015975036676619,-0.0015975046075049,0.001597504607513,-0.001275675659663,0.0012756756596698,-0.0012756757335804,0.0012756757335865,-1.077149446765e-14,-1.0064876520795e-14,1.9248768325594e-09,-1.9248972586549e-09,-0.0014971504492721,0.0014971504492559,-0.0015975030234994,0.0015975043057976,-0.0015975052517074,0.0015975039693764,-0.0015975030234855,0.0015975043057941,-0.0015975052517107,0.0015975039693764,-0.0012756737483749,0.0012756775485165,-0.0012756776449075,0.0012756738447448,-0.0015185018553209,0.0015185006301342,-0.0015185018553174,0.0015185006301358,-2.8503290734607e-09,-2.8503284981268e-09,-0.00070238787449677,0.00070238078669084,-4.6592151943946e-09,-9.1668955901321e-10,-0.00076644782884986,0.00076643985413152,-0.00076644658216177,0.00076644110081109,-0.00076644782884833,0.00076643985412857,-0.00076644658216515,0.00076644110081648,-0.00087173090534398,0.00087172668184067,-0.00087173090533874,0.00087172668182535,0.66479676253864,120135,2834,0.0062181547989752,0.0062181547989989,0.0029251671390121,28.437134780169,0.00014269707824135,0.00014269707824135,0.00014269707824135,2195989.6182642,0.015480375269382
32419200,0.99995065498237,0.01562134722805,0.0058217402965547,0.0058217402965775,0.0039778666349181,-0.0015008598429319,0.0015008598429335,2.521687670055e-15,3.0738472725464e-15,-6.6992071085272e-16,2.4946884948613e-15,-0.0016006521907894,0.0016006521907845,-0.0016006531695514,0.0016006531695408,-0.0016006522112904,0.0016006522112942,-0.0016006531490393,0.0016006531490476,-0.0012799230066973,0.0012799230067042,-0.0012799230748343,0.0012799230748405,-1.0686614707727e-14,-9.9600856618817e-15,1.9138056629401e-09,-1.9138259535099e-09,-0.0015008598429464,0.0015008598429305,-0.0016006515698832,0.0016006528455481,-0.0016006537904898,0.0016006525147932,-0.0016006515698695,0.0016006528455445,-0.0016006537904932,0.0016006525147931,-0.0012799211056494,0.0012799248842144,-0.001279924975921,0.0012799211973354,-0.001522503553836,0.0015225023360626,-0.0015225035538328,0.0015225023360642,-2.237690743765e-09,-2.2376901692778e-09,-0.00070054241336615,0.00070053691541027,-4.0614195615967e-09,-3.0722805496734e-10,-0.00076889941865501,0.00076889284249984,-0.00076889816689609,0.00076889409425079,-0.0007688994186538,0.00076889284249715,-0.00076889816689953,0.00076889409425627,-0.00086951419420462,0.00086951135995188,-0.0008695141941993,0.00086951135993659,0.78355820163569,120135,2834,0.0062334737380837,0.0062334737381074,0.0029175800617709,29.294926093094,0.00014955940874475,0.00014955940874475,0.00014955940874475,2043842.2473975,0.015503796506019
33419200,0.99996574647159,0.015621646994017,0.0058218491054011,0.005821849105424,0.0039779487831915,-0.0015023052718757,0.0015023052718771,2.4229848030069e-15,2.9805560048835e-15,-7.5788861172903e-16,2.4170438080296e-15,-0.0016015921321834,0.0016015921321782,-0.0016015929981226,0.0016015929981118,-0.0016015921517759,0.0016015921517796,-0.0016015929785187,0.0016015929785268,-0.0012818426643028,0.0012818426643096,-0.0012818426346329,0.001281842634639,-1.0779847153657e-14,-1.0041730858394e-14,1.9175866444778e-09,-1.9176071655461e-09,-0.0015023052718902,0.0015023052718741,-0.0016015915034313,0.0016015927866147,-0.001601593626907,0.0016015923436911,-0.0016015915034174,0.0016015927866111,-0.0016015936269102,0.001601592343691,-0.0012818407553844,0.0012818445407297,-0.0012818445435904,0.0012818407582239,-0.0015240878423459,0.001524086621205,-0.0015240878423425,0.0015240866212065,-1.7685378623446e-09,-1.7685372930761e-09,-0.00069657392962345,0.00069656963781281,-3.6055195720285e-09,1.6148195148429e-10,-0.00076818115966929,0.00076817562811592,-0.00076817990258255,0.00076817688519419,-0.0007681811596678,0.00076817562811301,-0.00076817990258594,0.00076817688519965,-0.00086521577178831,0.00086521399239725,-0.0008652157717831,0.00086521399238206,0.80945760226239,120135,2834,0.006239425874186,0.0062394258742097,0.0029011602572535,29.317278292887,0.00014973822634309,0.00014973822634309,0.00014973822634309,1942472.4295066,0.015499218484804
34419200,0.99997716669055,0.015621852815615,0.0058219236916324,0.0058219236916553,0.0039780054323272,-0.0015072303392507,0.0015072303392521,2.3930445411907e-15,2.9566743815095e-15,-7.473595216208e-16,2.4354844211521e-15,-0.0016057723516525,0.0016057723516471,-0.0016057733137897,0.0016057733137789,-0.001605772371636,0.0016057723716397,-0.0016057732937946,0.0016057732938028,-0.0012877228998186,0.0012877228998255,-0.0012877229636235,0.0012877229636296,-1.0799493612295e-14,-1.0076408854612e-14,1.8384463487818e-09,-1.8384669223401e-09,-0.0015072303392652,0.0015072303392491,-0.0016057717524227,0.0016057729800514,-0.0016057739130518,0.0016057726853906,-0.0016057717524088,0.0016057729800477,-0.001605773913055,0.0016057726853905,-0.0012877210690571,0.0012877246991041,-0.0012877247944244,0.0012877211643559,-0.0015288893753552,0.0015288882072602,-0.0015288893753518,0.0015288882072618,-2.7774200990397e-09,-2.7774195360926e-09,-0.00069849037695026,0.00069848347260015,-4.5081309952073e-09,-9.3231981331379e-10,-0.000772390056909,0.00077238228977425,-0.00077238886419843,0.00077238348247609,-0.00077239005690754,0.00077238228977136,-0.00077238886420186,0.00077238348248158,-0.00086625699382039,0.00086625286559826,-0.00086625699381519,0.00086625286558312,0.73398852679854,120135,2834,0.0062598052896194,0.0062598052896432,0.0029091369100139,31.481171236708,0.00016704936989367,0.00016704936989367,0.00016704936989367,1910483.1521932,0.015548712465823
35419200,0.99998612323062,0.015621995690253,0.0058219754498511,0.005821975449874,0.0039780447905282,-0.0015147446975219,0.0015147446975233,2.4028089487771e-15,2.9642623849954e-15,-7.2444845683222e-16,2.4454252939359e-15,-0.0016140780721057,0.0016140780721005,-0.0016140793302185,0.0016140793302076,-0.001614078094584,0.0016140780945877,-0.0016140793077286,0.0016140793077366,-0.0012940652394971,0.0012940652395037,-0.0012940654110529,0.0012940654110588,-1.0673791570053e-14,-9.9582513888733e-15,1.5717417989044e-09,-1.5717622836345e-09,-0.0015147446975363,0.0015147446975203,-0.0016140775801813,0.0016140786166277,-0.0016140798221751,0.0016140787856963,-0.0016140775801672,0.0016140786166241,-0.0016140798221783,0.0016140787856962,-0.0012940636846651,0.0012940667967923,-0.0012940669659231,0.0012940638537744,-0.0015364175567078,0.0015364165706931,-0.0015364175567041,0.0015364165706944,-4.0414859938921e-09,-4.0414854294826e-09,-0.00070871426479569,0.00070870416814426,-5.4717629467509e-09,-2.4559739037713e-09,-0.00077960675153221,0.00077959638955294,-0.00077960574996522,0.00077959739111123,-0.00077960675153066,0.00077959638955003,-0.00077960574996873,0.00077959739111684,-0.00087733016060139,0.00087732318671641,-0.0008773301605959,0.00087732318670086,0.64952121200808,120135,2834,0.0062909448598933,0.0062909448599168,0.0029515658220294,35.927331708009,0.00020261865366407,0.00020261865366407,0.00020261865366407,1933692.3320202,0.015655046136893
36419200,0.99999185791785,0.015622091639697,0.0058220101649297,0.0058220101649525,0.0039780713098153,-0.0015168590219467,0.0015168590219481,2.4296316587735e-15,2.9906733428646e-15,-7.4359493074411e-16,2.4261317656929e-15,-0.0016166624384895,0.0016166624384842,-0.0016166633304613,0.0016166633304504,-0.0016166624571509,0.0016166624571546,-0.0016166633117883,0.0016166633117964,-0.0012955968402922,0.001295596840299,-0.0012955968782936,0.0012955968782996,-1.0758906616906e-14,-1.0056662847085e-14,1.5599461264122e-09,-1.5599665388872e-09,-0.0015168590219612,0.0015168590219451,-0.0016166619221938,0.0016166629716473,-0.0016166638467892,0.0016166627973031,-0.0016166619221799,0.0016166629716437,-0.0016166638467924,0.0016166627973031,-0.0012955952755852,0.0012955983569776,-0.0012955984430396,0.0012955953616261,-0.0015385159721424,0.001538514987203,-0.001538515972139,0.0015385149872045,-2.5218529595248e-09,-2.5218523935522e-09,-0.00071370329419468,0.00071369706061507,-3.9904063844417e-09,-9.6046240954738e-10,-0.00078226665833484,0.00078225965518436,-0.00078226564539009,0.00078226066812056,-0.00078226665833334,0.00078225965518143,-0.00078226564539349,0.00078226066812596,-0.00088272705223355,0.00088272329000997,-0.00088272705222833,0.00088272328999472,0.68119810794784,120135,2834,0.0062997199052219,0.0062997199052457,0.0029722625408776,37.479682446663,0.0002150374595733,0.0002150374595733,0.0002150374595733,1976865.2096175,0.015693887039895
37419200,0.99999524488001,0.01562214609952,0.00582202991047,0.0058220299104928,0.0039780862785573,-0.0015179604278542,0.0015179604278556,2.4096910914736e-15,2.9673211150827e-15,-7.5771214653169e-16,2.4306904499576e-15,-0.0016172358129537,0.0016172358129483,-0.00161723653306,0.0016172365330491,-0.0016172358300872,0.0016172358300908,-0.0016172365159149,0.0016172365159231,-0.0012974972619747,0.0012974972619815,-0.0012974972379672,0.0012974972379732,-1.0749848070109e-14,-1.0052977987228e-14,1.6733446852171e-09,-1.6733651678538e-09,-0.0015179604278688,0.0015179604278526,-0.0016172352475316,0.0016172363808524,-0.0016172370985143,0.0016172359651611,-0.0016172352475177,0.0016172363808487,-0.0016172370985176,0.001617235965161,-0.0012974955767207,0.0012974988772382,-0.0012974989232603,0.0012974956227215,-0.0015396789024581,0.0015396778391711,-0.0015396789024547,0.0015396778391726,-1.7773122893498e-09,-1.7773117206116e-09,-0.00071319278231319,0.00071318842446757,-3.379999938822e-09,-1.0738076678246e-10,-0.00078360289970442,0.00078359744912572,-0.0007836018030577,0.00078359854576394,-0.00078360289970296,0.0007835974491228,-0.0007836018030611,0.0007835985457694,-0.00088152713913492,0.00088152502239829,-0.0008815271391297,0.00088152502238303,0.65495763090944,120135,2834,0.0063042652431083,0.006304265243132,0.0029701647657669,37.680299165663,0.00021664239332531,0.00021664239332531,0.00021664239332531,1939022.8870312,0.015700994600231
38419200,0.99999719169527,0.015622180957114,0.0058220425097667,0.0058220425097895,0.0039780959375581,-0.0015168938125729,0.0015168938125744,2.4372196622594e-15,2.9944379337413e-15,-7.5877093771575e-16,2.4280434719974e-15,-0.001616324939161,0.0016163249391557,-0.0016163255722547,0.0016163255722438,-0.001616324955737,0.0016163249557407,-0.0016163255556671,0.0016163255556753,-0.0012961562616965,0.0012961562617033,-0.0012961562073766,0.0012961562073827,-1.0753906769648e-14,-1.0059711294858e-14,1.8145704658926e-09,-1.8145909710429e-09,-0.0015168938125875,0.0015168938125713,-0.0016163243225463,0.0016163255530283,-0.0016163261889016,0.0016163249583871,-0.0016163243225325,0.0016163255530247,-0.0016163261889048,0.001616324958387,-0.0012961544347951,0.0012961580109637,-0.0012961580343171,0.0012961544581273,-0.0015385967974794,0.0015385956390257,-0.001538596797476,0.0015385956390272,-1.3949001275308e-09,-1.3948995580995e-09,-0.0007121962294396,0.00071219283444689,-3.1468997475934e-09,4.1503376492984e-10,-0.00078217814291391,0.00078217344228621,-0.00078217694888265,0.00078217463630897,-0.00078217814291241,0.00078217344228328,-0.00078217694888605,0.00078217463631438,-0.00088079480111933,0.00088079358602085,-0.00088079480111414,0.00088079358600567,0.72891346290548,120135,2834,0.0062998518883279,0.0062998518883516,0.0029660252060723,37.196189383224,0.00021276951506579,0.00021276951506579,0.00021276951506579,1946844.0895056,0.015687823587161
38880000,0.99999787152451,0.0156221934035,0.0058220470098653,0.0058220470098881,0.0039780993837471,-0.0015178338153274,0.0015178338152876,-2.7373281412101e-14,-2.6962588076148e-14,-2.0829275444639e-14,-1.7613961905555e-14,-0.001616958514068,0.001616958514056,-0.0016169591862779,0.0016169591862135,-0.0016169585310384,0.0016169585310327,-0.0016169591693161,0.0016169591692806,-0.0012973568346323,0.0012973568345825,-0.0012973568101143,0.0012973568100675,2.0709543808241e-14,2.3136404986393e-14,1.8326247839674e-09,-1.8325755477735e-09,-0.0015178338152884,0.0015178338153436,-0.0016169578941184,0.0016169591346136,-0.0016169598061764,0.0016169585657969,-0.0016169578941064,0.0016169591346172,-0.0016169598061597,0.0016169585658153,-0.0012973549914621,0.001297358603347,-0.00129735865316,0.0012973550414014,-0.0015396858467109,0.0015396846766978,-0.001539685846692,0.0015396846766802,-1.6372075187644e-09,-1.6372067756333e-09,-0.00071027699391882,0.00071027297648242,-3.3996310841187e-09,1.9115766357342e-10,-0.0007821734865737,0.00078216821243958,-0.00078217228343739,0.00078216941555599,-0.00078217348658872,0.0007821682124448,-0.00078217228345143,0.00078216941557165,-0.00087866631827756,0.00087866456875011,-0.00087866631828182,0.00087866456870735,0.74537476942466,120135,2834,0.0063037256420543,0.0063037256420896,0.0029580864453765,37.19365404369,0.00021274923234952,0.00021274923234952,0.00021274923234952,1888970.5319254,0.015687634997743
