time,ASR_ext,ASR_strain,ASR_strain_xx,ASR_strain_yy,ASR_strain_zz,disp_x_101,disp_x_102,disp_x_103,disp_x_104,disp_x_105,disp_x_106,disp_x_p1_neg,disp_x_p1_pos,disp_x_p2_neg,disp_x_p2_pos,disp_x_p3_neg,disp_x_p3_pos,disp_x_p4_neg,disp_x_p4_pos,disp_x_p5_neg,disp_x_p5_pos,disp_x_p6_neg,disp_x_p6_pos,disp_y_101,disp_y_102,disp_y_103,disp_y_104,disp_y_105,disp_y_106,disp_y_p1_neg,disp_y_p1_pos,disp_y_p2_neg,disp_y_p2_pos,disp_y_p3_neg,disp_y_p3_pos,disp_y_p4_neg,disp_y_p4_pos,disp_y_p5_neg,disp_y_p5_pos,disp_y_p6_neg,disp_y_p6_pos,disp_y_p7_neg,disp_y_p7_pos,disp_y_p8_neg,disp_y_p8_pos,disp_z_101,disp_z_102,disp_z_103,disp_z_104,disp_z_105,disp_z_106,disp_z_p1_neg,disp_z_p1_pos,disp_z_p2_neg,disp_z_p2_pos,disp_z_p3_neg,disp_z_p3_pos,disp_z_p4_neg,disp_z_p4_pos,disp_z_p5_neg,disp_z_p5_pos,disp_z_p6_neg,disp_z_p6_pos,humidity,ndof,nelem,strain_xx,strain_yy,strain_zz,temp,thermal_strain_xx,thermal_strain_yy,thermal_strain_zz,vonmises,vstrain
2419200,0,0,0,0,0,0,0,0,0,0,0,0,0,0,0,0,0,0,0,0,0,0,0,0,0,0,0,0,0,0,0,0,0,0,0,0,0,0,0,0,0,0,0,0,0,0,0,0,0,0,0,0,0,0,0,0,0,0,0,0,0,0,0,0,0,0,0,0,0,0,0,0,0,0,0
3419200,0.15948182781104,0.0026573617070639,0.00088578723568796,0.00088578723568796,0.00088578723568796,-0.00025602393073709,0.00025602393072835,-4.4121593292082e-15,-4.2765531777654e-15,8.6173985090967e-15,-1.7721539501486e-14,-0.00025825460564452,0.00025825460564444,-0.00025825460665444,0.00025825460665445,-0.00025825460565806,0.00025825460564077,-0.00025825460665773,0.00025825460664053,-0.00025196759784966,0.00025196759783212,-0.00025196759843977,0.00025196759842249,-8.6093693426175e-15,1.7729762969244e-14,-7.78160110584e-13,7.8686223028134e-13,-0.00025602393072834,0.0002560239307371,-0.00025825460594083,0.00025825460539314,-0.00025825460635767,0.00025825460690546,-0.00025825460593241,0.00025825460540194,-0.00025825460634926,0.00025825460691425,-0.00025196759862682,0.00025196759712148,-0.00025196759762791,0.0002519675991681,-0.00025515542351968,0.0002551554240336,-0.00025515542349402,0.00025515542405992,-3.1600314282969e-12,-3.1601671208284e-12,-0.00024223155806284,0.00024223154906668,-2.3131412432111e-12,-3.9269945587471e-12,-0.00024588277398771,0.00024588276751994,-0.00024588277453359,0.00024588276697409,-0.00024588277398774,0.00024588276751987,-0.00024588277453361,0.00024588276697403,-0.00024486160929838,0.00024486160187965,-0.00024486160929832,0.00024486160187987,0.75746877217741,120135,2834,0.001066195600158,0.001066195600158,0.0010087889560261,31.856358289233,0.00017005086631386,0.00017005086631386,0.00017005086631386,967158.33342396,0.0031461201679909
4419200,0.35135832825186,0.0057464519381228,0.0019556335209279,0.0019556335209279,0.0018351848962669,-0.00052013739043441,0.00052013739041171,-1.1394519552308e-14,-1.1245700569214e-14,2.9359103099553e-15,-2.6121099077177e-14,-0.00052894763603755,0.00052894763602445,-0.00052894763910264,0.00052894763908964,-0.00052894763606696,0.00052894763603495,-0.00052894763909162,0.0005289476390597,-0.00050314731945828,0.00050314731942581,-0.00050314732169815,0.00050314732166597,-2.9214548692062e-15,2.6136134319837e-14,-2.2793908579593e-12,2.3020563915883e-12,-0.0005201373904117,0.00052013739043442,-0.00052894763689158,0.00052894763530969,-0.00052894763822195,0.00052894763983001,-0.00052894763688238,0.0005289476353194,-0.00052894763821276,0.00052894763983972,-0.00050314732175023,0.00050314731731763,-0.00050314731934167,0.00050314732383899,-0.00051882107521371,0.00051882107676395,-0.00051882107518574,0.00051882107679281,-6.7624175493609e-12,-6.7625667170523e-12,-0.00045728925393422,0.00045728923626102,-4.2567131294535e-12,-9.0153023975236e-12,-0.00046715838539702,0.00046715837179827,-0.00046715838700812,0.00046715837018711,-0.0004671583853971,0.00046715837179824,-0.00046715838700819,0.00046715837018708,-0.0004721334784817,0.00047213346262344,-0.00047213347848154,0.00047213346262358,0.73992840791513,120135,2834,0.0021648832755825,0.0021648832755825,0.0019035799028423,33.605180698122,0.00018404144558498,0.00018404144558498,0.00018404144558498,1862399.7672105,0.0062528234843082
5419200,0.55185150343502,0.0088858582381937,0.0030833382262667,0.0030833382262667,0.0027191817856604,-0.00080174402484565,0.00080174402482606,-9.9071091093231e-15,-9.7478492687196e-15,3.1631974841352e-15,-2.3065751239486e-14,-0.00082005136331927,0.00082005136330842,-0.00082005136553642,0.00082005136552568,-0.00082005136335575,0.00082005136332767,-0.00082005136551691,0.00082005136548893,-0.00076261310835648,0.00076261310832786,-0.00076261310899871,0.0007626131089704,-3.157256489158e-15,2.3072258278751e-14,-1.1786603681944e-12,1.1983247964118e-12,-0.00080174402482605,0.00080174402484565,-0.00082005136377418,0.00082005136295892,-0.00082005136505964,0.00082005136589651,-0.00082005136376569,0.00082005136296767,-0.00082005136505115,0.00082005136590526,-0.00076261310951595,0.00076261310724257,-0.00076261310778234,0.00076261311011267,-0.00080246630963586,0.00080246631047176,-0.00080246630961038,0.00080246631049755,-3.9689559850919e-12,-3.969115628595e-12,-0.00065195727231672,0.00065195726126345,-2.5887340335993e-12,-5.1513292186637e-12,-0.00066905911107321,0.00066905910178049,-0.00066905911194422,0.00066905910090935,-0.00066905911107332,0.0006690591017805,-0.00066905911194433,0.00066905910090936,-0.00068793709566748,0.00068793708648542,-0.00068793709566719,0.00068793708648543,0.72499638738019,120135,2834,0.0033349934093979,0.0033349934093979,0.0027129284932216,36.275695585136,0.00020540556468109,0.00020540556468109,0.00020540556468109,2451892.1255226,0.0094270984845699
6419200,0.70809115419089,0.010892572138526,0.0038276278947525,0.0038276278947525,0.0032373163490212,-0.00098764008139269,0.00098764008137115,-1.0876050097076e-14,-1.0692408648373e-14,2.2632249776775e-15,-2.4180555418277e-14,-0.0010208407478821,0.0010208407478694,-0.0010208407497393,0.0010208407497267,-0.001020840747916,0.0010208407478859,-0.0010208407497226,0.0010208407496925,-0.000920932764791,0.00092093276476039,-0.00092093276524089,0.00092093276521063,-2.2513135768568e-15,2.4192473195282e-14,-7.3673194888236e-13,7.5832257641288e-13,-0.00098764008137114,0.0009876400813927,-0.0010208407481598,0.0010208407476604,-0.0010208407494361,0.0010208407499607,-0.0010208407481511,0.0010208407476693,-0.0010208407494275,0.0010208407499695,-0.00092093276548918,0.00092093276408339,-0.00092093276448192,0.0009209327659486,-0.00098746675981522,0.00098746676035967,-0.00098746675978961,0.00098746676038573,-3.0446404969969e-12,-3.044824276826e-12,-0.00075114252033556,0.000751142512076,-2.1451497612649e-12,-3.79585914205e-12,-0.00077755657091507,0.00077755656359065,-0.0007775565714757,0.00077755656302991,-0.0007775565709152,0.00077755656359065,-0.00077755657147581,0.00077755656302991,-0.00080428478252077,0.00080428477564614,-0.0008042847825205,0.00080428477564622,0.59839168540088,120135,2834,0.0041066410165591,0.004106641016559,0.0031251656373613,36.740035359886,0.00020912028287909,0.00020912028287909,0.00020912028287909,2802795.985276,0.011403044451947
7419200,0.83308250135234,0.012296277939733,0.0043516256523527,0.0043516256523527,0.0035930266350281,-0.001127220943704,0.0011272209436831,-1.0552030583885e-14,-1.0434269475524e-14,2.4340432887072e-15,-2.3758038914102e-14,-0.001175099022887,0.0011750990228749,-0.001175099024817,0.0011750990248049,-0.0011750990229212,0.0011750990228917,-0.0011750990247999,0.0011750990247705,-0.0010344476582743,0.0010344476582445,-0.0010344476587852,0.0010344476587555,-2.4236906637963e-15,2.376853778914e-14,-6.9599647916859e-13,7.170078091389e-13,-0.0011272209436831,0.001127220943704,-0.0011750990231567,0.001175099022681,-0.0011750990245228,0.0011750990250228,-0.0011750990231482,0.0011750990226897,-0.0011750990245142,0.0011750990250316,-0.0010344476589428,0.001034447657618,-0.0010344476580573,0.0010344476594417,-0.0011264826599843,0.0011264826605022,-0.0011264826599589,0.001126482660528,-3.6037854631812e-12,-3.6039039914422e-12,-0.00081475591307188,0.00081475590324588,-2.7315083484126e-12,-4.307900499538e-12,-0.00084629663572999,0.00084629662724232,-0.00084629663626718,0.00084629662670502,-0.00084629663573009,0.00084629662724234,-0.00084629663626727,0.00084629662670504,-0.00088481640100369,0.0008848163929103,-0.00088481640100349,0.00088481639291032,0.52694121020036,120135,2834,0.0046856324097072,0.0046856324097072,0.0033895668142261,40.774611640428,0.00024139689312342,0.00024139689312342,0.00024139689312342,2876664.2725644,0.012842728002401
8419200,0.90838054299568,0.01305259486726,0.0046342120894966,0.0046342120894966,0.0037841706882669,-0.0012026815455467,0.0012026815455259,-1.0453680647232e-14,-1.0323978727184e-14,2.4099263784034e-15,-2.3541104364833e-14,-0.0012595104236072,0.0012595104235951,-0.0012595104251077,0.0012595104250957,-0.001259510423639,0.0012595104236099,-0.0012595104250927,0.0012595104250636,-0.0010923606208591,0.0010923606208295,-0.0010923606212402,0.0010923606212108,-2.4022207314527e-15,2.3548774684278e-14,-4.4860355448819e-13,4.6940786211791e-13,-0.0012026815455259,0.0012026815455467,-0.0012595104237793,0.0012595104234798,-0.0012595104249113,0.0012595104252348,-0.0012595104237709,0.0012595104234885,-0.0012595104249028,0.0012595104252435,-0.0010923606212747,0.0010923606204302,-0.0010923606207656,0.0010923606216691,-0.0012026356191815,0.0012026356195306,-0.0012026356191563,0.0012026356195562,-2.4309874886199e-12,-2.4311179957199e-12,-0.00083315180856752,0.00083315180215926,-1.832921873142e-12,-2.8930080029443e-12,-0.00086910217120925,0.00086910216528133,-0.00086910217157092,0.00086910216491955,-0.00086910217120935,0.00086910216528134,-0.00086910217157102,0.00086910216491956,-0.00091565884240439,0.00091565883707026,-0.0009156588424042,0.00091565883707031,0.47156008474719,120135,2834,0.0049984906369927,0.0049984906369927,0.0034661504204755,41.435491958203,0.00024668393566562,0.00024668393566562,0.00024668393566562,2744064.880443,0.013554337585471
9419200,0.95002318842155,0.013413595679814,0.0047689163191365,0.0047689163191365,0.0038757630415413,-0.0012394400584649,0.0012394400584442,-1.0449092552101e-14,-1.0285332848965e-14,2.4602483705128e-15,-2.3528457692356e-14,-0.0013014600491329,0.0013014600491209,-0.0013014600504018,0.0013014600503899,-0.001301460049164,0.0013014600491349,-0.0013014600503876,0.0013014600503586,-0.0011181573990547,0.0011181573990251,-0.0011181573993711,0.0011181573993418,-2.4468076046484e-15,2.3543802696923e-14,-1.414459514991e-13,1.622058664133e-13,-0.0012394400584442,0.0012394400584649,-0.0013014600491983,0.0013014600491067,-0.0013014600503122,0.0013014600504278,-0.0013014600491899,0.0013014600491154,-0.0013014600503038,0.0013014600504365,-0.0011181573991667,0.0011181573989227,-0.0011181573992002,0.0011181573995032,-0.0012402313020931,0.0012402313022362,-0.0012402313020679,0.0012402313022618,-1.8266192344563e-12,-1.8267819283602e-12,-0.0008320250274911,0.0008320250227908,-1.5439744061711e-12,-1.9823295294289e-12,-0.00087134877212632,0.00087134876739477,-0.00087134877227979,0.0008713487672412,-0.00087134877212643,0.00087134876739477,-0.0008713487722799,0.00087134876724119,-0.00092244507089949,0.00092244506709573,-0.00092244507089924,0.00092244506709579,0.40621133923259,120135,2834,0.005150842878212,0.005150842878212,0.0034616209426032,41.144506076205,0.00024435604860964,0.00024435604860964,0.00024435604860964,2597084.2943713,0.013858652034317
10419200,0.97083925791024,0.01360833029441,0.0048408976389963,0.0048408976389963,0.0039265350164175,-0.0012536715137389,0.0012536715137183,-1.0420269903201e-14,-1.0262686481973e-14,2.4571602295593e-15,-2.3478047467648e-14,-0.0013179342703546,0.0013179342703427,-0.0013179342711421,0.0013179342711303,-0.0013179342703837,0.0013179342703546,-0.00131793427113,0.001317934271101,-0.0011266809059305,0.001126680905901,-0.0011266809061101,0.0011266809060808,-2.4445723788154e-15,2.3492274686969e-14,3.6801043658938e-13,-3.4731464896706e-13,-0.0012536715137182,0.0012536715137389,-0.0013179342702365,0.0013179342704944,-0.0013179342712362,0.0013179342710021,-0.0013179342702281,0.001317934270503,-0.0013179342712277,0.0013179342710108,-0.001126680905533,0.0011266809062834,-0.0011266809064489,0.0011266809057573,-0.0012554787636083,0.0012554787634083,-0.0012554787635831,0.0012554787634338,-4.554352280233e-13,-4.5559269960282e-13,-0.00082476059193803,0.00082476059106007,-7.0809369175318e-13,-1.0619821159989e-13,-0.00086527250661691,0.00086527250468686,-0.00086527250642035,0.00086527250488328,-0.000865272506617,0.00086527250468688,-0.00086527250642049,0.0008652725048833,-0.00092020623428241,0.00092020623381703,-0.00092020623428216,0.00092020623381707,0.43665130715676,120135,2834,0.0052098165236674,0.0052098165236674,0.0034315469764728,38.090197738059,0.00021992158190447,0.00021992158190447,0.00021992158190447,2516373.6623324,0.013947752503294
11419200,0.98286228691709,0.013712610546612,0.00487942356681,0.00487942356681,0.0039537634129922,-0.0012657383372586,0.001265738337238,-1.038780030689e-14,-1.0251686818005e-14,2.4626012398108e-15,-2.3447666042839e-14,-0.0013307757740431,0.0013307757740312,-0.0013307757751759,0.0013307757751641,-0.0013307757740751,0.0013307757740461,-0.0013307757751608,0.0013307757751318,-0.001135622346983,0.0011356223469535,-0.0011356223472484,0.0011356223472192,-2.4506310172575e-15,2.3458881692855e-14,5.4336707359023e-13,-5.2270309244109e-13,-0.001265738337238,0.0012657383372586,-0.0013307757738881,0.0013307757742472,-0.0013307757753069,0.0013307757749716,-0.0013307757738797,0.0013307757742559,-0.0013307757752984,0.0013307757749802,-0.001135622346431,0.0011356223475305,-0.0011356223477417,0.0011356223467008,-0.0012683922210971,0.0012683922207852,-0.001268392221072,0.0012683922208107,-1.4289905785448e-12,-1.4291270470321e-12,-0.0008178789568434,0.00081787895322953,-1.8184319775631e-12,-8.9452458465267e-13,-0.00086258559708462,0.00086258559276412,-0.00086258559678612,0.00086258559306253,-0.00086258559708471,0.00086258559276413,-0.00086258559678621,0.00086258559306253,-0.000916106921978,0.0009161069194989,-0.00091610692197779,0.00091610691949895,0.40445605707229,120135,2834,0.0052598026387961,0.0052598026387961,0.0034030656435972,37.626520097802,0.00021621216078242,0.00021621216078242,0.00021621216078242,2392614.1213628,0.014020253783102
12419200,0.98975691645775,0.013779800681804,0.0049040781277427,0.0049040781277427,0.0039716444263188,-0.0012713216162566,0.001271321616236,-1.0370153787155e-14,-1.0231922715902e-14,2.4330139083893e-15,-2.337755053776e-14,-0.0013371821814311,0.0013371821814192,-0.0013371821824795,0.0013371821824677,-0.0013371821814631,0.0013371821814341,-0.0013371821824644,0.0013371821824355,-0.0011388042830748,0.0011388042830454,-0.0011388042833178,0.0011388042832887,-2.4209848641036e-15,2.339321211124e-14,6.9165723190424e-13,-6.7103610324884e-13,-0.001271321616236,0.0012713216162566,-0.001337182181226,0.0013371821816845,-0.0013371821826606,0.0013371821822259,-0.0013371821812176,0.0013371821816932,-0.0013371821826522,0.0013371821822345,-0.001138804282377,0.001138804283767,-0.0011388042839571,0.0011388042826257,-0.0012744756875188,0.0012744756871079,-0.0012744756874938,0.0012744756871333,-1.2118320788563e-12,-1.2119706221882e-12,-0.00081399273871111,0.00081399273571748,-1.7511865171598e-12,-5.2900128055047e-13,-0.00085922755396876,0.00085922755005622,-0.00085922755357069,0.0008592275504542,-0.00085922755396885,0.00085922755005623,-0.00085922755357078,0.0008592275504542,-0.00091450261307892,0.00091450261117957,-0.0009145026130787,0.00091450261117962,0.45322610794666,120135,2834,0.0052829353831414,0.0052829353831414,0.0033869719138411,36.801457725383,0.00020961166180307,0.00020961166180307,0.00020961166180307,2351043.4680479,0.014050849159304
13419200,0.99360694433305,0.013814160512832,0.0049167019013765,0.0049167019013765,0.0039807567100791,-0.0012729554463902,0.0012729554463696,-1.0368036204787e-14,-1.0225687612263e-14,2.4388960816341e-15,-2.3372550690502e-14,-0.0013388564063102,0.0013388564062983,-0.0013388564071527,0.0013388564071409,-0.0013388564063415,0.0013388564063125,-0.0013388564071383,0.0013388564071094,-0.0011392281733288,0.0011392281732995,-0.0011392281734901,0.001139228173461,-2.4271611460107e-15,2.3386288437184e-14,9.3200874882027e-13,-9.1139020728712e-13,-0.0012729554463696,0.0012729554463902,-0.0013388564060203,0.0013388564066425,-0.0013388564074186,0.0013388564068202,-0.0013388564060119,0.0013388564066511,-0.0013388564074102,0.0013388564068288,-0.001139228172392,0.0011392281742515,-0.0011392281743685,0.0011392281725675,-0.0012766194036192,0.0012766194030468,-0.0012766194035942,0.0012766194030722,-6.0350632059167e-13,-6.0364961774207e-13,-0.0008043325822162,0.00080433258093994,-1.3918628030762e-12,3.1803212257226e-13,-0.00085296334814287,0.00085296334539041,-0.00085296334758126,0.00085296334595193,-0.00085296334814296,0.00085296334539041,-0.00085296334758135,0.00085296334595193,-0.00090605916052019,0.0009060591601263,-0.00090605916051996,0.00090605916012635,0.4150894025916,120135,2834,0.0052896842140168,0.0052896842140168,0.0033469199725634,34.787794546772,0.00019350235637418,0.00019350235637418,0.00019350235637418,2271828.1478189,0.014023929272869
14419200,0.99583012683387,0.013832486427134,0.0049234260796247,0.0049234260796247,0.0039856342678845,-0.0012705671659884,0.0012705671659678,-1.035656596696e-14,-1.0207217588274e-14,2.4125145346311e-15,-2.332528742848e-14,-0.0013371919541815,0.0013371919541696,-0.0013371919549816,0.0013371919549698,-0.0013371919542129,0.001337191954184,-0.001337191954967,0.0013371919549382,-0.0011352638229335,0.0011352638229042,-0.001135263823096,0.0011352638230669,-2.3973385276595e-15,2.334000727981e-14,1.1169471113734e-12,-1.0963444853697e-12,-0.0012705671659678,0.0012705671659884,-0.0013371919538316,0.0013371919545758,-0.0013371919553076,0.0013371919545871,-0.0013371919538232,0.0013371919545844,-0.0013371919552992,0.0013371919545957,-0.0011352638218168,0.0011352638240391,-0.0011352638241543,0.0011352638219904,-0.001274391104943,0.0012743911042478,-0.0012743911049181,0.0012743911042732,-5.01602334711e-13,-5.0175164241998e-13,-0.00079855799694493,0.00079855799595138,-1.4726573201533e-12,6.0625934684017e-13,-0.0008463839279105,0.00084638392530285,-0.00084638392722625,0.00084638392598698,-0.0008463839279106,0.00084638392530286,-0.00084638392722636,0.00084638392598698,-0.00090163913558308,0.00090163913553341,-0.00090163913558287,0.00090163913553348,0.38312450045663,120135,2834,0.0052797869510053,0.0052797869510053,0.0033229520163455,32.63664700959,0.00017629317607672,0.00017629317607672,0.00017629317607672,2269309.5076632,0.013979552190249
15419200,0.99698735045778,0.013845232018298,0.004928072276493,0.004928072276493,0.0039890874653122,-0.0012611736936316,0.0012611736936111,-1.0356389501763e-14,-1.018621822979e-14,2.4057206245333e-15,-2.3293317816895e-14,-0.0013281198360903,0.0013281198360784,-0.0013281198363453,0.0013281198363335,-0.0013281198361195,0.0013281198360906,-0.0013281198363329,0.0013281198363042,-0.0011250006805107,0.0011250006804814,-0.0011250006805129,0.0011250006804839,-2.3949268366291e-15,2.3302872040185e-14,1.6223938239309e-12,-1.6018255138595e-12,-0.0012611736936111,0.0012611736936317,-0.0013281198355553,0.0013281198366487,-0.0013281198368564,0.0013281198357868,-0.0013281198355469,0.0013281198366573,-0.001328119836848,0.0013281198357954,-0.0011250006788857,0.0011250006820938,-0.0011250006820796,0.0011250006789298,-0.001265195990497,0.0012651959894606,-0.0012651959904721,0.0012651959894859,1.0760414487317e-12,1.0758707211233e-12,-0.00078666420545557,0.00078666420887411,-4.3159015345236e-13,2.6832489109406e-12,-0.00083412319735074,0.0008341231979844,-0.00083412319631732,0.00083412319901774,-0.00083412319735085,0.00083412319798439,-0.00083412319631742,0.00083412319901773,-0.00089061639236894,0.00089061639611563,-0.0008906163923687,0.00089061639611572,0.51103778709309,120135,2834,0.0052408527796854,0.0052408527796854,0.0032735676359289,27.051280566046,0.00013161024452837,0.00013161024452837,0.00013161024452837,2278604.3046386,0.013850527845983
16419200,0.99773075592974,0.013852680983052,0.0049307996559885,0.0049307996559885,0.0039910816710748,-0.0012600022980843,0.0012600022980638,-1.0358683549328e-14,-1.0162983645473e-14,2.3870741353473e-15,-2.325043677394e-14,-0.001326205915603,0.0013262059155911,-0.0013262059163138,0.001326205916302,-0.0013262059156354,0.0013262059156065,-0.0013262059162982,0.0013262059162695,-0.001123867470096,0.0011238674700667,-0.0011238674701986,0.0011238674701696,-2.3748098041318e-15,2.3263034734669e-14,1.6993491835328e-12,-1.6788001200587e-12,-0.0012600022980637,0.0012600022980843,-0.0013262059150661,0.0013262059161933,-0.0013262059168268,0.0013262059157233,-0.0013262059150577,0.0013262059162019,-0.0013262059168184,0.0013262059157319,-0.0011238674684144,0.0011238674717798,-0.0011238674718219,0.0011238674685148,-0.0012645161714014,0.0012645161703196,-0.0012645161713766,0.0012645161703448,-1.6139417418329e-13,-1.6158744596739e-13,-0.00077322277327271,0.0007732227732154,-1.7031576314682e-12,1.5331867063162e-12,-0.00082636223816643,0.00082636223582689,-0.00082636223709823,0.00082636223689499,-0.00082636223816654,0.00082636223582687,-0.00082636223709834,0.00082636223689498,-0.00087746525667767,0.00087746525776824,-0.0008774652566774,0.00087746525776834,0.46538451425637,120135,2834,0.0052359620863416,0.0052359620863416,0.0032178233489032,24.409540504951,0.00011047632403961,0.00011047632403961,0.00011047632403961,2173792.0320348,0.013784108390053
17419200,0.99823006727239,0.013858337177133,0.0049328596523794,0.0049328596523794,0.0039926178723743,-0.0012553282763115,0.001255328276291,-1.0369800856761e-14,-1.0150042864334e-14,2.3958091626158e-15,-2.3257024807974e-14,-0.0013224463561857,0.0013224463561738,-0.0013224463569056,0.0013224463568939,-0.0013224463562183,0.0013224463561894,-0.0013224463568897,0.001322446356861,-0.0011174387487671,0.0011174387487378,-0.0011174387488982,0.0011174387488693,-2.3825154510825e-15,2.327062078509e-14,1.732463738025e-12,-1.7119146599028e-12,-0.001255328276291,0.0012553282763115,-0.0013224463556393,0.0013224463567874,-0.001322446357428,0.0013224463563036,-0.001322446355631,0.001322446356796,-0.0013224463574197,0.0013224463563122,-0.0011174387470543,0.0011174387504851,-0.0011174387505527,0.0011174387471803,-0.0012599386777698,0.0012599386766663,-0.0012599386777449,0.0012599386766916,-2.4253056937321e-13,-2.4275081942322e-13,-0.00076733059269942,0.00076733059242319,-1.8150982999929e-12,1.4863550634613e-12,-0.0008184026757015,0.00081840267323362,-0.00081840267461194,0.00081840267432308,-0.00081840267570162,0.00081840267323358,-0.00081840267461206,0.00081840267432306,-0.00087308657403991,0.00087308657497254,-0.00087308657403961,0.00087308657497266,0.52521873377382,120135,2834,0.0052165974963762,0.0052165974963762,0.0031933495908568,21.972225382147,9.0977803057174e-05,9.0977803057174e-05,9.0977803057174e-05,2189464.7337244,0.013720031020315
18419200,0.99854030683132,0.013861715289864,0.0049340927021889,0.0049340927021889,0.0039935298854867,-0.0012486936884835,0.001248693688463,-1.0371447865269e-14,-1.0152278090167e-14,2.4101616653332e-15,-2.3266230409102e-14,-0.0013156925940634,0.0013156925940515,-0.0013156925944498,0.001315692594438,-0.0013156925940945,0.0013156925940657,-0.0013156925944354,0.0013156925944067,-0.0011102336663197,0.0011102336662903,-0.0011102336663284,0.0011102336662994,-2.387044724481e-15,2.3285267511355e-14,1.9550828676551e-12,-1.9345366953495e-12,-0.001248693688463,0.0012486936884835,-0.001315692593432,0.0013156925947366,-0.0013156925950572,0.0013156925937764,-0.0013156925934237,0.0013156925947452,-0.0013156925950489,0.001315692593785,-0.0011102336643802,0.0011102336682441,-0.0011102336682095,0.0011102336644039,-0.0012536792490862,0.0012536792478315,-0.0012536792490613,0.0012536792478567,7.1884542499089e-13,7.1862775229781e-13,-0.00075322408539248,0.00075322408784213,-1.0962176583618e-12,2.6660969055108e-12,-0.00080675326970144,0.00080675326919291,-0.00080675326845583,0.00080675327043843,-0.00080675326970155,0.00080675326919288,-0.00080675326845594,0.00080675327043841,-0.0008596348729351,0.00085963487614464,-0.00085963487293481,0.00085963487614476,0.50516361584657,120135,2834,0.005189079660026,0.005189079660026,0.003134803412901,17.471447651829,5.4971581214632e-05,5.4971581214632e-05,5.4971581214632e-05,2141538.814692,0.013604902586786
19419200,0.99879729854948,0.013865339647366,0.0049354085313138,0.0049354085313138,0.0039945225847383,-0.001249111692334,0.0012491116923135,-1.0357801223341e-14,-1.01434548303e-14,2.3838095291964e-15,-2.3222555272759e-14,-0.0013166353652761,0.0013166353652642,-0.0013166353663706,0.0013166353663589,-0.0013166353653112,0.0013166353652824,-0.0013166353663523,0.0013166353663236,-0.0011095283076143,0.001109528307585,-0.0011095283078682,0.0011095283078393,-2.3700452438035e-15,2.3237403222198e-14,1.7327378032968e-12,-1.7122097133892e-12,-0.0012491116923135,0.001249111692334,-0.0013166353647476,0.0013166353658827,-0.0013166353668752,0.0013166353657638,-0.0013166353647393,0.0013166353658913,-0.0013166353668669,0.0013166353657724,-0.0011095283059154,0.0011095283093517,-0.0011095283095089,0.0011095283061309,-0.0012542376626139,0.0012542376615147,-0.0012542376625891,0.0012542376615399,-1.3047003943091e-12,-1.3049153710253e-12,-0.00075205255558216,0.00075205255230546,-2.8453911046667e-12,4.3230657274272e-13,-0.00080453366211912,0.00080453365725747,-0.00080453366104168,0.00080453365833482,-0.00080453366211923,0.00080453365725745,-0.00080453366104179,0.0008045336583348,-0.00085943792387195,0.00085943792246453,-0.00085943792387165,0.00085943792246465,0.65325215552177,120135,2834,0.0051908161415299,0.0051908161415299,0.0031299406645656,17.551642354017,5.5613138832137e-05,5.5613138832137e-05,5.5613138832137e-05,2136658.5101371,0.013603490999859
20419200,0.99902096752062,0.013868719633986,0.0049366369070232,0.0049366369070232,0.0039954458199397,-0.0012543211510092,0.0012543211509888,-1.0303214655629e-14,-1.0140513743678e-14,2.3345169174048e-15,-2.3119823117039e-14,-0.0013212251948727,0.0013212251948609,-0.0013212251961144,0.0013212251961027,-0.0013212251949077,0.001321225194879,-0.0013212251960961,0.0013212251960675,-0.0011147004311551,0.001114700431126,-0.0011147004314406,0.0011147004314118,-2.320634988547e-15,2.3131935281487e-14,1.3971288720957e-12,-1.3766597895766e-12,-0.0012543211509888,0.0012543211510092,-0.0013212251944562,0.0013212251953673,-0.0013212251965071,0.0013212251956197,-0.0013212251944479,0.0013212251953758,-0.0013212251964988,0.0013212251956282,-0.0011147004297852,0.0011147004325643,-0.0011147004327525,0.0011147004300315,-0.0012599129140318,0.0012599129131567,-0.0012599129140071,0.0012599129131818,-1.7650566179667e-12,-1.7652205737232e-12,-0.00074588338734118,0.00074588338281069,-2.9692376594747e-12,-3.6389861844111e-13,-0.00080342030366944,0.00080342029796658,-0.00080342030281614,0.00080342029881981,-0.00080342030366954,0.00080342029796658,-0.00080342030281623,0.0008034202988198,-0.00085352958713718,0.00085352958451024,-0.00085352958713694,0.00085352958451032,0.70012779305903,120135,2834,0.0052123761723534,0.0052123761723534,0.003104392596361,18.598825232071,6.399060185657e-05,6.399060185657e-05,6.399060185657e-05,2029997.4394059,0.013621312277878
21419200,0.99917307715744,0.01387085419327,0.0049374120602158,0.0049374120602158,0.0039960300728382,-0.0012490768461798,0.0012490768461593,-1.0310037976593e-14,-1.0139396130761e-14,2.3421343317568e-15,-2.3131999215655e-14,-0.0013165656313537,0.0013165656313418,-0.0013165656318575,0.0013165656318458,-0.0013165656313849,0.0013165656313561,-0.001316565631843,0.0013165656318144,-0.0011076947261681,0.0011076947261389,-0.001107694726206,0.0011076947261772,-2.3299876440063e-15,2.314485722129e-14,1.6097785647297e-12,-1.5893081866964e-12,-0.0012490768461593,0.0012490768461798,-0.0013165656308383,0.001316565631912,-0.001316565632349,0.001316565631299,-0.00131656563083,0.0013165656319205,-0.0013165656323407,0.0013165656313075,-0.0011076947245678,0.0011076947277553,-0.0011076947277484,0.0011076947246188,-0.0012550129903802,0.0012550129893561,-0.0012550129903556,0.0012550129893812,2.7969808363245e-13,2.7953231342088e-13,-0.00073362576601406,0.00073362576731363,-1.1876523650943e-12,1.8813159094433e-12,-0.00079174343383182,0.00079174343254838,-0.00079174343281756,0.00079174343356255,-0.00079174343383192,0.00079174343254837,-0.00079174343281766,0.00079174343356254,-0.00084289182018687,0.00084289182223618,-0.00084289182018663,0.00084289182223627,0.64990944923706,120135,2834,0.0051906297676181,0.005190629767618,0.0030535147801866,15.220748075664,3.6965984605311e-05,3.6965984605311e-05,3.6965984605311e-05,1994420.9629484,0.013525661053367
22419200,0.99929903028112,0.013872667482714,0.0049380693573516,0.0049380693573516,0.003996528768011,-0.0012480013669803,0.0012480013669598,-1.0315802506373e-14,-1.0153983920408e-14,2.3739274781451e-15,-2.3194967880241e-14,-0.0013164252986756,0.0013164252986638,-0.0013164252996562,0.0013164252996444,-0.0013164252987095,0.0013164252986807,-0.001316425299639,0.0013164252996104,-0.0011048697854387,0.0011048697854095,-0.00110486978566,0.0011048697856311,-2.3645748226858e-15,2.3205051499124e-14,1.4857511189059e-12,-1.4652639118256e-12,-0.0012480013669598,0.0012480013669803,-0.001316425298221,0.0013164252991976,-0.0013164253000869,0.001316425299134,-0.0013164252982126,0.0013164252992062,-0.0013164253000786,0.0013164252991425,-0.0011048697839752,0.0011048697869252,-0.0011048697870655,0.0011048697841736,-0.001254116647164,0.0012541166462274,-0.0012541166471392,0.0012541166462526,-1.0816003778877e-12,-1.0817627470083e-12,-0.00073224582367394,0.00073224582110028,-2.3902561999021e-12,4.0448370212408e-13,-0.00078774955833359,0.0007877495541516,-0.00078774955741516,0.00078774955506993,-0.00078774955833369,0.00078774955415159,-0.00078774955741526,0.00078774955506992,-0.00084292690991194,0.00084292690885867,-0.00084292690991172,0.00084292690885876,0.66642562144511,120135,2834,0.0051861846291302,0.0051861846291302,0.0030477715654964,14.858436540754,3.4067492326035e-05,3.4067492326035e-05,3.4067492326035e-05,2005505.712808,0.013510823831281
23419200,0.99941088951672,0.013874186193117,0.0049386207337905,0.0049386207337905,0.0039969447255363,-0.0012503829822743,0.0012503829822539,-1.0317625980079e-14,-1.0146631203852e-14,2.3698687786061e-15,-2.3172086226319e-14,-0.0013189126363356,0.0013189126363237,-0.0013189126375131,0.0013189126375013,-0.00131891263637,0.0013189126363412,-0.0013189126374953,0.0013189126374667,-0.0011067439080208,0.0011067439079916,-0.001106743908303,0.0011067439082741,-2.3593396884979e-15,2.3183513956254e-14,1.2507460719309e-12,-1.2302657176974e-12,-0.0012503829822539,0.0012503829822744,-0.0013189126359639,0.0013189126367804,-0.0013189126378609,0.001318912637068,-0.0013189126359555,0.001318912636789,-0.0013189126378525,0.0013189126370765,-0.0011067439067911,0.001106743909282,-0.0011067439094746,0.0011067439070418,-0.0012567291654468,0.0012567291646681,-0.0012567291654221,0.0012567291646933,-1.6543437606235e-12,-1.6545152498125e-12,-0.00073164963057917,0.00073164962639937,-2.7189461586495e-12,-4.0188222277396e-13,-0.00078757174574929,0.00078757174043666,-0.00078757174499118,0.00078757174119469,-0.0007875717457494,0.00078757174043665,-0.00078757174499128,0.00078757174119467,-0.0008427596347431,0.00084275963227349,-0.00084275963474285,0.00084275963227357,0.62875729639221,120135,2834,0.0051960522076441,0.0051960522076441,0.0030453099279939,15.706940894259,4.0855527154072e-05,4.0855527154072e-05,4.0855527154072e-05,1978110.5292292,0.013528331788818
24419200,0.99951649266237,0.013875697878307,0.004939168378655,0.004939168378655,0.0039973611209972,-0.001254350454964,0.0012543504549435,-1.0311626163369e-14,-1.0135396252955e-14,2.3704275850644e-15,-2.315276328721e-14,-0.0013232966471655,0.0013232966471536,-0.0013232966485607,0.001323296648549,-0.0013232966472006,0.0013232966471718,-0.0013232966485422,0.0013232966485136,-0.0011099924934401,0.0011099924934109,-0.0011099924937932,0.0011099924937643,-2.3504576068982e-15,2.3176259639725e-14,9.5598170413528e-13,-9.354954947842e-13,-0.0012543504549435,0.001254350454964,-0.001323296646897,0.0013232966475134,-0.0013232966488053,0.0013232966482125,-0.0013232966468886,0.001323296647522,-0.001323296648797,0.001323296648221,-0.0011099924925032,0.0011099924944178,-0.0011099924946722,0.0011099924928156,-0.0012607566499089,0.0012607566493279,-0.0012607566498842,0.0012607566493531,-2.2979655120812e-12,-2.2981424992065e-12,-0.0007360763653255,0.00073607635934579,-3.0582090591066e-12,-1.3388434668982e-12,-0.00079059156045605,0.00079059155390696,-0.00079059155989829,0.00079059155446462,-0.00079059156045615,0.00079059155390695,-0.00079059155989839,0.0007905915544646,-0.00084774675996894,0.00084774675588797,-0.00084774675996869,0.00084774675588806,0.66255127740754,120135,2834,0.0052125047965382,0.0052125047965382,0.0030636892625788,17.884730666162,5.8277845329298e-05,5.8277845329298e-05,5.8277845329298e-05,1979249.1708201,0.013580308195127
25419200,0.99961276653717,0.013877320941672,0.0049397551308955,0.0049397551308954,0.0039978106798815,-0.0012592664601798,0.0012592664601593,-1.0331919661064e-14,-1.0163983614924e-14,2.3962209147429e-15,-2.3199085401513e-14,-0.0013280399314104,0.0013280399313986,-0.0013280399327817,0.00132803993277,-0.0013280399314448,0.0013280399314161,-0.001328039932764,0.0013280399327354,-0.0011148839607666,0.0011148839607373,-0.0011148839611096,0.0011148839610807,-2.3861035767619e-15,2.3209203486254e-14,7.5211594875318e-13,-7.3160750467234e-13,-0.0012592664601593,0.0012592664601798,-0.0013280399312049,0.0013280399316891,-0.0013280399329635,0.0013280399325029,-0.0013280399311965,0.0013280399316977,-0.0013280399329551,0.0013280399325115,-0.0011148839600254,0.0011148839615393,-0.0011148839617928,0.001114883960337,-0.0012658465680165,0.0012658465675701,-0.0012658465679916,0.0012658465675954,-2.2613319419308e-12,-2.2614997950866e-12,-0.00073772540091156,0.00073772539505911,-2.8260612098876e-12,-1.508926873908e-12,-0.00079361850943918,0.00079361850310819,-0.00079361850901432,0.00079361850353297,-0.00079361850943931,0.00079361850310817,-0.00079361850901441,0.00079361850353292,-0.00084944175619242,0.0008494417520644,-0.0008494417561921,0.00084944175206447,0.77991302017261,120135,2834,0.0052328719582316,0.0052328719582316,0.0030705606574686,19.929537433299,7.4636299466394e-05,7.4636299466394e-05,7.4636299466394e-05,1941986.1572278,0.013628564292964
26419200,0.99969169448257,0.013878736044027,0.0049402663290887,0.0049402663290887,0.0039982033858501,-0.0012622918128233,0.0012622918128028,-1.0317037762755e-14,-1.0147101777712e-14,2.3857800572334e-15,-2.3195114934572e-14,-0.0013306829267873,0.0013306829267755,-0.0013306829278914,0.0013306829278796,-0.00133068292682,0.0013306829267913,-0.0013306829278753,0.0013306829278467,-0.0011177825218632,0.001117782521834,-0.0011177825221116,0.0011177825220828,-2.3738098346802e-15,2.3207293445799e-14,7.5290543773226e-13,-7.3242458449052e-13,-0.0012622918128028,0.0012622918128233,-0.0013306829265693,0.001330682927063,-0.0013306829280855,0.0013306829276155,-0.001330682926561,0.0013306829270716,-0.0013306829280771,0.001330682927624,-0.0011177825211116,0.0011177825226237,-0.0011177825228052,0.0011177825213512,-0.0012691781747352,0.0012691781742853,-0.0012691781747104,0.0012691781743105,-1.5184707328552e-12,-1.5186401654089e-12,-0.00073241593022358,0.00073241592648957,-2.1055154573598e-12,-7.7067195650074e-13,-0.00079191459108904,0.00079191458639786,-0.00079191459065548,0.00079191458683133,-0.00079191459108915,0.00079191458639785,-0.00079191459065558,0.00079191458683132,-0.00084439540827284,0.00084439540579501,-0.0008443954082726,0.0008443954057951,0.82922923068302,120135,2834,0.0052453866537483,0.0052453866537483,0.003048564232285,20.394816730014,7.8358533840116e-05,7.8358533840116e-05,7.8358533840116e-05,1868416.997862,0.013631645660884
27419200,0.99976053476179,0.013879848302921,0.0049406681635651,0.0049406681635651,0.0039985119757912,-0.0012667811057204,0.0012667811057,-1.0309038007142e-14,-1.0135572718152e-14,2.3733098499544e-15,-2.3163557075114e-14,-0.0013355228277998,0.001335522827788,-0.0013355228291326,0.0013355228291208,-0.0013355228278336,0.0013355228278049,-0.0013355228291154,0.0013355228290868,-0.0011211494051086,0.0011211494050794,-0.0011211494054344,0.0011211494054056,-2.3620454881905e-15,2.3174661917394e-14,6.3082766942207e-13,-6.103572216529e-13,-0.0012667811057,0.0012667811057204,-0.0013355228276308,0.0013355228280369,-0.0013355228292777,0.0013355228288952,-0.0013355228276225,0.0013355228280455,-0.0013355228292694,0.0013355228289038,-0.0011211494044832,0.0011211494057585,-0.0011211494060019,0.0011211494047847,-0.0012739160682055,0.0012739160678391,-0.0012739160681807,0.0012739160678643,-2.1817586239899e-12,-2.1819335493102e-12,-0.0007320292749805,0.00073202926937914,-2.6316720748128e-12,-1.5526584202922e-12,-0.00079210764132429,0.00079210763524356,-0.00079210764097791,0.00079210763558986,-0.00079210764132439,0.00079210763524355,-0.000792107640978,0.00079210763558984,-0.00084498346963466,0.00084498346561239,-0.00084498346963442,0.00084498346561249,0.74718867332313,120135,2834,0.0052639869316093,0.0052639869316093,0.0030469863233969,22.255539554092,9.3244316432732e-05,9.3244316432732e-05,9.3244316432732e-05,1827465.3209004,0.01366775488365
28419200,0.99981710840996,0.013880888277287,0.0049410423767397,0.0049410423767397,0.0039988035238073,-0.0012681799468376,0.0012681799468172,-1.0313037884948e-14,-1.0142807791243e-14,2.377456782092e-15,-2.31667040378e-14,-0.0013378702280253,0.0013378702280135,-0.0013378702292371,0.0013378702292253,-0.0013378702280584,0.0013378702280297,-0.0013378702292206,0.001337870229192,-0.0011209978727568,0.0011209978727276,-0.0011209978730556,0.0011209978730267,-2.360398479682e-15,2.3183131270334e-14,5.9487632469627e-13,-5.7439268982996e-13,-0.0012681799468172,0.0012681799468377,-0.0013378702278627,0.0013378702282491,-0.0013378702293758,0.0013378702290131,-0.0013378702278544,0.0013378702282577,-0.0013378702293674,0.0013378702290216,-0.0011209978721622,0.0011209978733654,-0.0011209978735922,0.0011209978724471,-0.0012753871741792,0.0012753871738353,-0.0012753871741544,0.0012753871738605,-1.8775550466811e-12,-1.8777250485534e-12,-0.00073539053528158,0.0007353905305586,-2.3014244283576e-12,-1.2870707396959e-12,-0.00079215457309901,0.00079215456775734,-0.00079215457277285,0.00079215456808341,-0.00079215457309911,0.00079215456775733,-0.00079215457277295,0.0007921545680834,-0.00084954791800942,0.00084954791463837,-0.00084954791800916,0.00084954791463846,0.8493285419621,120135,2834,0.0052698034247877,0.0052698034247877,0.0030609228217448,23.443518155284,0.00010274814524227,0.00010274814524227,0.00010274814524227,1850864.8016138,0.013693666921232
29419200,0.99986307669188,0.013881492983147,0.0049412615576782,0.0049412615576782,0.0039989698677905,-0.0012725169125059,0.0012725169124855,-1.0301802934051e-14,-1.0128690575456e-14,2.342163742623e-15,-2.3135410876137e-14,-0.0013417285428957,0.0013417285428838,-0.001341728544134,0.0013417285441222,-0.0013417285429288,0.0013417285429001,-0.0013417285441175,0.0013417285440889,-0.0011255745494112,0.001125574549382,-0.0011255745497097,0.0011255745496809,-2.329164139752e-15,2.3147984021448e-14,5.5524187591967e-13,-5.3479746745153e-13,-0.0012725169124855,0.0012725169125059,-0.0013417285427466,0.0013417285431063,-0.0013417285442592,0.0013417285439232,-0.0013417285427383,0.0013417285431148,-0.0013417285442509,0.0013417285439317,-0.0011255745488556,0.0011255745499812,-0.0011255745502073,0.0011255745491397,-0.0012800209066863,0.0012800209063691,-0.0012800209066617,0.0012800209063942,-1.9440138749229e-12,-1.9441870181858e-12,-0.00073327468787317,0.000733274682964,-2.327524822185e-12,-1.3931371317934e-12,-0.00079321309487838,0.00079321308938859,-0.000793213094579,0.00079321308968789,-0.00079321309487849,0.00079321308938859,-0.0007932130945791,0.00079321308968789,-0.0008472802270826,0.00084728022354114,-0.00084728022708235,0.0008472802235413,0.60881578646039,120135,2834,0.0052877574359429,0.0052877574359429,0.0030521793942255,24.782751597504,0.00011346201278003,0.00011346201278003,0.00011346201278003,1786682.1702083,0.013721210627221
30419200,0.99989964220075,0.013881900180013,0.0049414088886465,0.0049414088886465,0.0039990824027201,-0.0012717716116635,0.0012717716116431,-1.032774331806e-14,-1.0149337003545e-14,2.4032207009043e-15,-2.3222143520632e-14,-0.0013426546456939,0.001342654645682,-0.0013426546469287,0.001342654646917,-0.0013426546457271,0.0013426546456983,-0.0013426546469122,0.0013426546468835,-0.0011228818431815,0.0011228818431522,-0.001122881843503,0.0011228818434741,-2.3895152372439e-15,2.3236451390062e-14,5.2190986219303e-13,-5.0140724485285e-13,-0.0012717716116431,0.0012717716116635,-0.0013426546455559,0.0013426546458935,-0.0013426546470428,0.0013426546467289,-0.0013426546455475,0.0013426546459021,-0.0013426546470345,0.0013426546467374,-0.0011228818426584,0.0011228818437186,-0.001122881843968,0.001122881842966,-0.0012789345180626,0.0012789345177674,-0.0012789345180378,0.0012789345177927,-1.9770501046593e-12,-1.9772295381713e-12,-0.00074342975507922,0.00074342975008658,-2.3275523066394e-12,-1.4597015247675e-12,-0.00079525713112963,0.00079525712565798,-0.00079525713085228,0.00079525712593525,-0.00079525713112973,0.00079525712565797,-0.00079525713085238,0.00079525712593523,-0.00085891423266833,0.00085891422902849,-0.00085891423266808,0.0008589142290286,0.51512748248588,120135,2834,0.0052847181443019,0.0052847181443019,0.0030942709888291,26.133483771751,0.00012426787017401,0.00012426787017401,0.00012426787017401,1893864.1495093,0.013757701293087
31419200,0.9999292440213,0.013882325779634,0.0049415623883688,0.0049415623883688,0.0039992010028966,-0.0012752289415848,0.0012752289415644,-1.0319272988588e-14,-1.0143160721638e-14,2.392809254261e-15,-2.3196497245285e-14,-0.0013459113084416,0.0013459113084297,-0.0013459113098511,0.0013459113098393,-0.0013459113084756,0.0013459113084468,-0.0013459113098338,0.0013459113098051,-0.0011272732846849,0.0011272732846556,-0.0011272732850527,0.0011272732850239,-2.3809860860389e-15,2.3208558515149e-14,3.7889073420146e-13,-3.5840525684778e-13,-0.0012752289415644,0.0012752289415848,-0.0013459113083568,0.0013459113085951,-0.001345911309912,0.0013459113096974,-0.0013459113083485,0.0013459113086036,-0.0013459113099036,0.0013459113097059,-0.0011272732843063,0.0011272732850877,-0.0011272732853732,0.00112727328465,-0.0012822576899795,0.001282257689781,-0.0012822576899547,0.0012822576898062,-2.4579367362833e-12,-2.458113141625e-12,-0.00075258219184456,0.00075258218549563,-2.6550690659331e-12,-2.0816027467003e-12,-0.00080296359578857,0.00080296358930788,-0.00080296359561069,0.00080296358948567,-0.00080296359578867,0.00080296358930787,-0.00080296359561079,0.00080296358948566,-0.00086709553159674,0.00086709552680216,-0.00086709553159649,0.00086709552680226,0.66479676253864,120135,2834,0.0052990593505322,0.0052990593505322,0.0031322494330324,28.443691450269,0.00014274953160216,0.00014274953160216,0.00014274953160216,1927123.9397668,0.013825279499212
32419200,0.99995086595759,0.013882692159438,0.0049416945419821,0.0049416945419821,0.0039993030754735,-0.0012796310884765,0.001279631088456,-1.0315037823851e-14,-1.0163042467205e-14,2.4137792018787e-15,-2.3235348999567e-14,-0.001348888013476,0.0013488880134641,-0.0013488880146413,0.0013488880146296,-0.0013488880135083,0.0013488880134795,-0.0013488880146257,0.001348888014597,-0.0011333901261864,0.0011333901261571,-0.0011333901264661,0.0011333901264372,-2.3982796753786e-15,2.3251584544483e-14,4.3595426461706e-13,-4.1545554708881e-13,-0.001279631088456,0.0012796310884765,-0.0013488880133609,0.0013488880136453,-0.0013488880147325,0.0013488880144717,-0.0013488880133526,0.0013488880136539,-0.0013488880147241,0.0013488880144803,-0.0011333901257431,0.0011333901266334,-0.0011333901268512,0.0011333901260191,-0.0012868934366833,0.001286893436444,-0.0012868934366585,0.0012868934364692,-1.7433421947581e-12,-1.7434941492152e-12,-0.00074847862960818,0.00074847862526492,-2.01727988819e-12,-1.3147983926351e-12,-0.00080548867314356,0.00080548866819388,-0.0008054886729201,0.00080548866841725,-0.00080548867314365,0.00080548866819388,-0.00080548867292019,0.00080548866841724,-0.00086171927376786,0.00086171927058696,-0.00086171927376763,0.00086171927058703,0.7835582016357,120135,2834,0.0053172645857932,0.0053172645857932,0.0031152760183225,29.297401121003,0.00014957920896803,0.00014957920896803,0.00014957920896803,1832787.2591139,0.013844999258635
33419200,0.99996589297297,0.013882955397053,0.0049417892939198,0.0049417892939198,0.0039993768092132,-0.0012814697029707,0.0012814697029503,-1.0304155803349e-14,-1.0165571801701e-14,2.4037500964963e-15,-2.3218202464558e-14,-0.00135043351474,0.0013504335147281,-0.0013504335157568,0.001350433515745,-0.0013504335147718,0.001350433514743,-0.0013504335157417,0.001350433515713,-0.0011350025661439,0.0011350025661147,-0.0011350025663652,0.0011350025663363,-2.3907504936253e-15,2.3231175471275e-14,5.5470633196308e-13,-5.3421245223511e-13,-0.0012814697029503,0.0012814697029707,-0.0013504335145811,0.0013504335149478,-0.0013504335158918,0.0013504335155487,-0.0013504335145727,0.0013504335149564,-0.0013504335158834,0.0013504335155573,-0.001135002565581,0.0011350025667028,-0.0011350025668701,0.0011350025658065,-0.0012889277736783,0.0012889277733587,-0.0012889277736535,0.0012889277733839,-1.3141723272022e-12,-1.3143114957448e-12,-0.00074245899756504,0.00074245899444069,-1.7147252633791e-12,-7.6853172776561e-13,-0.00080290947201197,0.00080290946791386,-0.00080290947170633,0.0008029094682194,-0.00080290947201206,0.00080290946791386,-0.00080290947170642,0.0008029094682194,-0.00085607595492653,0.00085607595277895,-0.00085607595492632,0.00085607595277901,0.80945760226261,120135,2834,0.005324860563315,0.005324860563315,0.0030903307852773,29.31735690803,0.00014973885526424,0.00014973885526424,0.00014973885526424,1768130.1903589,0.01383511721336
34419200,0.99997726708904,0.013883136099871,0.0049418543267462,0.0049418543267462,0.0039994274463787,-0.00128603739855,0.0012860373985295,-1.0310979124313e-14,-1.016386597146e-14,2.3911916566186e-15,-2.3202261775065e-14,-0.0013554480573195,0.0013554480573076,-0.0013554480587018,0.00135544805869,-0.0013554480573532,0.0013554480573245,-0.0013554480586847,0.001355448058656,-0.0011384541426995,0.0011384541426703,-0.0011384541430451,0.0011384541430162,-2.3778685342191e-15,2.3217919155198e-14,4.4215719196471e-13,-4.2165230263512e-13,-0.0012860373985295,0.00128603739855,-0.0013554480572127,0.0013554480574936,-0.0013554480587846,0.0013554480585274,-0.0013554480572044,0.0013554480575021,-0.0013554480587763,0.001355448058536,-0.0011384541422584,0.0011384541431638,-0.0011384541434282,0.0011384541425809,-0.0012936757149032,0.0012936757146625,-0.0012936757148784,0.0012936757146877,-2.3638627606842e-12,-2.3640096634804e-12,-0.00074398889605914,0.00074398888997189,-2.6257562114207e-12,-1.924282479197e-12,-0.00080426029198305,0.00080426028563389,-0.00080426029176233,0.0008042602858545,-0.00080426029198314,0.00080426028563389,-0.00080426029176243,0.0008042602858545,-0.00085851908029835,0.00085851907575724,-0.00085851908029813,0.00085851907575726,0.73398852679868,120135,2834,0.0053437897905556,0.0053437897905556,0.0030967013835471,31.487353024859,0.00016709882419887,0.00016709882419887,0.00016709882419887,1742069.2746113,0.013879957952687
35419200,0.99998618822065,0.013883261513717,0.004941899476663,0.004941899476663,0.0039994625603915,-0.0012936145318869,0.0012936145318665,-1.0289391548504e-14,-1.0150866368589e-14,2.3693982047466e-15,-2.3173939110891e-14,-0.0013637618071104,0.0013637618070985,-0.0013637618089059,0.0013637618088942,-0.001363761807146,0.0013637618071172,-0.001363761808887,0.0013637618088584,-0.0011449706497199,0.0011449706496908,-0.001144970650192,0.0011449706501631,-2.3787508602058e-15,2.3165939240392e-14,1.0724887050711e-13,-8.6781973870268e-14,-0.0012936145318664,0.0012936145318869,-0.0013637618071287,0.0013637618071765,-0.0013637618088638,0.0013637618088396,-0.0013637618071204,0.0013637618071851,-0.0013637618088555,0.0013637618088482,-0.0011449706496174,0.0011449706498701,-0.0011449706502364,0.0011449706500417,-0.0013012670210078,0.0013012670209936,-0.0013012670209831,0.0013012670210188,-3.544350833441e-12,-3.544489100644e-12,-0.00075445482489201,0.00075445481548578,-3.4465270639052e-12,-3.4346187659308e-12,-0.00081175579733287,0.0008117557885578,-0.00081175579734512,0.00081175578854545,-0.00081175579733296,0.0008117557885578,-0.00081175579734518,0.00081175578854544,-0.00086971488903133,0.00086971488166631,-0.00086971488903116,0.00086971488166637,0.64952121200817,120135,2834,0.0053752102190867,0.0053752102190867,0.0031401438083772,35.940234885126,0.00020272187908101,0.00020272187908101,0.00020272187908101,1757439.4029803,0.013987715592177
36419200,0.99999189691597,0.013883345701102,0.0049419297378034,0.0049419297378034,0.0039994862254951,-0.0012956275662023,0.0012956275661819,-1.0299097134358e-14,-1.0161748389091e-14,2.3883093917287e-15,-2.3183674107611e-14,-0.0013661581285451,0.0013661581285332,-0.0013661581298196,0.0013661581298078,-0.0013661581285775,0.0013661581285488,-0.0013661581298038,0.0013661581297752,-0.0011466558182254,0.0011466558181962,-0.0011466558185492,0.0011466558185203,-2.3797508296574e-15,2.319464671588e-14,1.4570303267292e-13,-1.2522523695497e-13,-0.0012956275661819,0.0012956275662023,-0.0013661581285272,0.0013661581286178,-0.0013661581298135,0.0013661581297466,-0.0013661581285189,0.0013661581286264,-0.0013661581298052,0.0013661581297551,-0.0011466558180668,0.0011466558183886,-0.0011466558186497,0.001146655818386,-0.0013032209453618,0.0013032209453162,-0.001303220945337,0.0013032209453414,-2.1340048223808e-12,-2.1341435680848e-12,-0.00076011800752812,0.0007601180021348,-2.116320480215e-12,-1.996160268674e-12,-0.00081508065514779,0.00081508064955682,-0.00081508065511845,0.00081508064958607,-0.00081508065514788,0.00081508064955682,-0.00081508065511855,0.00081508064958606,-0.00087554338050139,0.00087554337628062,-0.00087554338050116,0.00087554337628066,0.6811981079479,120135,2834,0.0053835678046191,0.0053835678046191,0.0031636350777451,37.484275354001,0.00021507420283201,0.00021507420283201,0.00021507420283201,1785418.9593,0.014028480735342
37419200,0.99999526772339,0.013883393478171,0.0049419469367902,0.0049419469367902,0.0039994996045908,-0.0012967658991316,0.0012967658991112,-1.0287391609601e-14,-1.0154042742141e-14,2.3835154205341e-15,-2.3171645063325e-14,-0.0013668633987581,0.0013668633987462,-0.0013668633997956,0.0013668633997839,-0.0013668633987894,0.0013668633987607,-0.0013668633997809,0.0013668633997523,-0.001148357356601,0.0011483573565719,-0.0011483573568503,0.0011483573568214,-2.3701628872684e-15,2.3185005523739e-14,3.1981663141841e-13,-2.9934426516465e-13,-0.0012967658991112,0.0012967658991316,-0.0013668633986743,0.0013668633988868,-0.0013668633998555,0.0013668633996667,-0.001366863398666,0.0013668633988953,-0.0013668633998472,0.0013668633996753,-0.0011483573562657,0.0011483573569263,-0.0011483573571276,0.0011483573565251,-0.0013044490107064,0.0013044490105427,-0.0013044490106817,0.0013044490105679,-1.4415413410376e-12,-1.4416751636957e-12,-0.00075903842209584,0.00075903841864048,-1.6124241533136e-12,-1.1328295840103e-12,-0.0008158064139705,0.00081580640980684,-0.00081580641381953,0.00081580640995772,-0.00081580641397059,0.00081580640980684,-0.00081580641381962,0.00081580640995771,-0.00087401728147587,0.00087401727889387,-0.00087401728147566,0.00087401727889393,0.65495763090949,120135,2834,0.0053882744210572,0.0053882744210572,0.0031591692340594,37.680911463207,0.00021664729170566,0.00021664729170566,0.00021664729170566,1759758.0022921,0.014033501543417
38419200,0.99999720509578,0.013883424056907,0.0049419579157308,0.0049419579157308,0.0039995082254451,-0.0012956938565583,0.0012956938565379,-1.027680369776e-14,-1.0147748816769e-14,2.3844271573871e-15,-2.3165086440157e-14,-0.001365927318114,0.0013659273181021,-0.0013659273190296,0.0013659273190179,-0.001365927318145,0.0013659273181163,-0.0013659273190152,0.0013659273189866,-0.0011470513259327,0.0011470513259036,-0.0011470513261486,0.0011470513261197,-2.3573397495947e-15,2.3191796389352e-14,5.2973467117438e-13,-5.092183371117e-13,-0.0012956938565379,0.0012956938565584,-0.0013659273179583,0.0013659273183121,-0.0013659273191614,0.0013659273188313,-0.00136592731795,0.0013659273183207,-0.0013659273191531,0.0013659273188399,-0.0011470513253902,0.0011470513264617,-0.0011470513266331,0.0011470513256197,-0.0013033612118573,0.0013033612115533,-0.0013033612118326,0.0013033612115785,-1.0825599596714e-12,-1.0826893951704e-12,-0.00075815021688709,0.00075815021443002,-1.4674767725331e-12,-5.640682681016e-13,-0.00081449444529434,0.00081449444180491,-0.00081449444500168,0.00081449444209747,-0.00081449444529442,0.0008144944418049,-0.00081449444500174,0.00081449444209745,-0.00087334974331982,0.00087334974166393,-0.00087334974331961,0.00087334974166401,0.72891346290552,120135,2834,0.0053838337508784,0.0053838337508784,0.003155477969349,37.194787269471,0.00021275829815576,0.00021275829815576,0.00021275829815576,1765298.0616601,0.01402075153475
38880000,0.99999788168004,0.013883434976534,0.004941961837059,0.004941961837059,0.003999511302416,-0.001296801604377,0.0012968016043565,-1.0283685840457e-14,-1.0156748541833e-14,2.382574272815e-15,-2.3167704007251e-14,-0.0013665961602211,0.0013665961602093,-0.0013665961612239,0.0013665961612121,-0.001366596160253,0.0013665961602243,-0.0013665961612086,0.00136659616118,-0.0011485655284016,0.0011485655283724,-0.0011485655286318,0.0011485655286029,-2.3673982658433e-15,2.3182660926247e-14,6.4029507648835e-13,-6.1982273947313e-13,-0.0012968016043565,0.001296801604377,-0.0013665961600348,0.0013665961604577,-0.0013665961613863,0.001366596160987,-0.0013665961600265,0.0013665961604663,-0.001366596161378,0.0013665961609956,-0.0011485655277557,0.0011485655290455,-0.0011485655292197,0.0011485655279879,-0.0013045888016638,0.0013045888012875,-0.001304588801639,0.0013045888013126,-1.2926445869968e-12,-1.2927709773223e-12,-0.00075524945292829,0.00075524944986651,-1.7766960025685e-12,-6.6106431964469e-13,-0.00081406788825511,0.00081406788418046,-0.00081406788789325,0.00081406788454223,-0.0008140678882552,0.00081406788418046,-0.00081406788789332,0.00081406788454222,-0.00087017798778982,0.00087017798574381,-0.00087017798778961,0.00087017798574386,0.74537476942469,120135,2834,0.0053884086398399,0.0053884086398399,0.0031434612748795,37.193619224009,0.00021274895379207,0.00021274895379207,0.00021274895379207,1727191.2741441,0.01401784953894
