time,ASR_ext,ASR_strain,ASR_strain_xx,ASR_strain_yy,ASR_strain_zz,disp_x_101,disp_x_102,disp_x_103,disp_x_104,disp_x_105,disp_x_106,disp_x_p1_neg,disp_x_p1_pos,disp_x_p2_neg,disp_x_p2_pos,disp_x_p3_neg,disp_x_p3_pos,disp_x_p4_neg,disp_x_p4_pos,disp_x_p5_neg,disp_x_p5_pos,disp_x_p6_neg,disp_x_p6_pos,disp_y_101,disp_y_102,disp_y_103,disp_y_104,disp_y_105,disp_y_106,disp_y_p1_neg,disp_y_p1_pos,disp_y_p2_neg,disp_y_p2_pos,disp_y_p3_neg,disp_y_p3_pos,disp_y_p4_neg,disp_y_p4_pos,disp_y_p5_neg,disp_y_p5_pos,disp_y_p6_neg,disp_y_p6_pos,disp_y_p7_neg,disp_y_p7_pos,disp_y_p8_neg,disp_y_p8_pos,disp_z_101,disp_z_102,disp_z_103,disp_z_104,disp_z_105,disp_z_106,disp_z_p1_neg,disp_z_p1_pos,disp_z_p2_neg,disp_z_p2_pos,disp_z_p3_neg,disp_z_p3_pos,disp_z_p4_neg,disp_z_p4_pos,disp_z_p5_neg,disp_z_p5_pos,disp_z_p6_neg,disp_z_p6_pos,humidity,ndof,nelem,strain_xx,strain_yy,strain_zz,temp,thermal_strain_xx,thermal_strain_yy,thermal_strain_zz,vonmises,vstrain
2419200,0,0,0,0,0,0,0,0,0,0,0,0,0,0,0,0,0,0,0,0,0,0,0,0,0,0,0,0,0,0,0,0,0,0,0,0,0,0,0,0,0,0,0,0,0,0,0,0,0,0,0,0,0,0,0,0,0,0,0,0,0,0,0,0,0,0,0,0,0,0,0,0,0,0,0
2919200,0.076372423266401,0.0015950927133491,0.00053169757111636,0.00053169757111636,0.00053169757111636,-0.00017184513561394,0.00017184513560905,-2.4489398924497e-15,-2.3743024666894e-15,-1.4716976877047e-15,-4.1580347395988e-15,-0.00017050341871618,0.0001705034187114,-0.00017050530941259,0.00017050530940671,-0.00017050343647767,0.00017050343647755,-0.00017050529164522,0.00017050529163395,-0.00017092225978088,0.00017092225977681,-0.00017092353504586,0.00017092353504497,-2.2144985250607e-15,4.7353305514481e-16,-1.6252384308705e-09,1.6252402127417e-09,-0.00017184513561045,0.00017184513561074,-0.00017050408560863,0.00017050291060138,-0.00017050464250813,0.0001705058175149,-0.00017050408560928,0.00017050291060573,-0.00017050464250305,0.00017050581751516,-0.00017092395010871,0.00017092080151631,-0.00017092184471458,0.00017092499332184,-0.00017365106084548,0.00017365217636458,-0.0001736510608497,0.00017365217636548,-8.8883521751721e-09,-8.8883522501826e-09,-0.00015899383685432,0.00015897111386514,-7.0379930521507e-09,-1.0458797840938e-08,-0.00015921260529891,0.00015919440307589,-0.00015921377375745,0.00015919323462295,-0.00015921260530021,0.00015919440307585,-0.00015921377376064,0.00015919323461986,-0.00016393520799543,0.00016391546379136,-0.00016393520799715,0.00016391546378585,0.83502648770561,120135,2834,0.0007157640903574,0.00071576409035369,0.00066220799613252,32.402235261604,0.00017441788209283,0.00017441788209283,0.00017441788209283,1142374.2390043,0.0020959312291754
3419200,0.15585130113929,0.003130077827979,0.0010626790617924,0.0010626790617963,0.0010047197043904,-0.0003010677452416,0.00030106774524076,-4.1445792683013e-16,-3.1688737813165e-16,-1.2040440996322e-15,-9.7791130195158e-17,-0.00030188131848777,0.00030188131848576,-0.00030188402561746,0.00030188402561418,-0.00030188132748464,0.00030188132748875,-0.00030188401662146,0.00030188401661512,-0.00029461324299679,0.00029461324299662,-0.00029461625131522,0.00029461625131755,-1.0799346557964e-14,-1.2343967411413e-14,-6.0738643545371e-10,6.0735657816287e-10,-0.00030106774525058,0.00030106774523375,-0.00030188152612052,0.00030188112393095,-0.00030188381799229,0.00030188422016385,-0.00030188152612127,0.00030188112393344,-0.00030188381798913,0.0003018842201612,-0.00029461389524349,0.0002946127208204,-0.00029461559911617,0.00029461677348401,-0.00030245233070957,0.00030245277153472,-0.00030245233071976,0.00030245277152933,-5.9390892984143e-09,-5.9390893779257e-09,-0.00025998739660774,0.00025997201390947,-5.1873269047606e-09,-6.5063224982182e-09,-0.00026609599599292,0.00026608364369221,-0.00026609642854829,0.00026608321113157,-0.00026609599599357,0.00026608364369172,-0.00026609642855154,0.00026608321112996,-0.00027071021968312,0.00027069739420173,-0.00027071021968578,0.00027069739419881,0.77960726241633,120135,2834,0.0012536585273219,0.001253658527326,0.001082672784649,31.910930046552,0.00017048744037241,0.00017048744037241,0.00017048744037241,1821855.7461891,0.0035964444483323
3919200,0.24323445502802,0.0047306085089013,0.0016418011148382,0.0016418011148386,0.0014470062792245,-0.00044381174567227,0.00044381174567124,-5.0505810023349e-16,-4.4380997132178e-16,-9.8599193744665e-16,-5.1524896538014e-16,-0.00045085253997208,0.00045085253996864,-0.00045085451949429,0.00045085451949035,-0.00045085253950032,0.00045085253950684,-0.0004508545199636,0.00045085451995763,-0.00042400708362654,0.0004240070836286,-0.00042400873479237,0.00042400873479483,-6.523050725278e-15,-7.6192386586747e-15,9.1815312855389e-12,-9.2038847660573e-12,-0.00044381174567824,0.0004438117456667,-0.00045085252216807,0.00045085253963537,-0.00045085453730767,0.00045085451982378,-0.00045085252216774,0.00045085253963839,-0.00045085453730359,0.00045085451982067,-0.00042400712392125,0.00042400715464701,-0.00042400869454103,0.00042400866376826,-0.00044577438391635,0.00044577439297186,-0.00044577438392554,0.00044577439296814,-3.0669191474013e-09,-3.0669192442958e-09,-0.00035589224843154,0.00035588359036231,-3.0197724354588e-09,-3.0215985570397e-09,-0.00036660068066046,0.00036659369760932,-0.00036660066986755,0.00036659370840637,-0.0003666006806624,0.00036659369761021,-0.0003666006698716,0.00036659370840279,-0.00037727450304828,0.00037726804215753,-0.00037727450305289,0.00037726804215441,0.74640349119053,120135,2834,0.001847495398364,0.001847495398367,0.0014818113755533,32.496234472552,0.00017516987578041,0.00017516987578041,0.00017516987578041,2598582.8105475,0.0051902311776556
4419200,0.3388847003463,0.0064630711576749,0.0022837531386298,0.0022837531386274,0.0018955648804177,-0.00060310318136327,0.00060310318135922,-2.4812183181306e-15,-2.4499839782006e-15,-1.2841666519432e-15,-3.294796405055e-15,-0.00061823278843065,0.00061823278842633,-0.00061823422570424,0.00061823422569825,-0.0006182327748495,0.00061823277485203,-0.00061823423928169,0.00061823423927173,-0.00056580136007527,0.00056580136007046,-0.00056580276624506,0.00056580276624119,-5.4488629527418e-15,-3.8041672756503e-15,3.4043709003974e-10,-3.40456009037e-10,-0.00060310318136474,0.00060310318135657,-0.0006182326511268,0.00061823288634375,-0.00061823436301398,0.00061823412778083,-0.00061823265112549,0.0006182328863478,-0.000618234363008,0.00061823412777854,-0.00056580109773223,0.00056580176617204,-0.00056580302861647,0.00056580236014816,-0.00060668833572695,0.00060668810292844,-0.00060668833573524,0.00060668810292733,-1.7543401460369e-09,-1.7543403170193e-09,-0.00045305011656287,0.00045304473625307,-2.0792563946959e-09,-1.3707586693592e-09,-0.00046750588777074,0.00046750170954604,-0.00046750564195754,0.00046750195536874,-0.00046750588777379,0.00046750170954736,-0.00046750564196112,0.00046750195536626,-0.00048980494648985,0.00048980141925258,-0.00048980494649025,0.00048980141924825,0.74424082049435,120135,2834,0.0025097480679722,0.0025097480679697,0.0018860384592902,33.597832079136,0.00018398265663309,0.00018398265663309,0.00018398265663309,3201246.2226495,0.0069294466600112
4919200,0.44262245431396,0.0083412706978423,0.0029968640147004,0.0029968640146997,0.0023475426684423,-0.00078150788915345,0.00078150788914802,-3.2788704209946e-15,-3.2149900195559e-15,-1.6667284943533e-15,-4.1854162560534e-15,-0.00080555889468928,0.00080555889468419,-0.00080556012106264,0.00080556012105657,-0.00080555887680521,0.00080555887680465,-0.00080556013894529,0.00080556013893349,-0.00072298418365693,0.00072298418365304,-0.00072298564742194,0.0007229856474161,-6.1274304582644e-15,-4.0914931717546e-15,3.9414667412326e-10,-3.9416550937455e-10,-0.00078150788915523,0.0007815078891453,-0.0008055587627782,0.00080555901108481,-0.0008055602529796,0.00080556000465419,-0.00080555876277647,0.00080555901108791,-0.00080556025297466,0.00080556000465139,-0.0007229838977654,0.00072298466558918,-0.00072298593333979,0.00072298516548886,-0.00078832755444609,0.00078832727101333,-0.00078832755445391,0.00078832727101031,-1.5993390571563e-09,-1.599339215373e-09,-0.0005498489103629,0.00054984413674629,-1.9771419420385e-09,-1.1493824176414e-09,-0.00056900130793945,0.00056899769642698,-0.00056900102785174,0.0005689979765262,-0.00056900130794328,0.00056899769642784,-0.00056900102785539,0.00056899797652321,-0.00060567291136946,0.00060566974235055,-0.00060567291137062,0.00060566974234783,0.74696695512676,120135,2834,0.0032509302908378,0.0032509302908358,0.0022886781343085,35.342249144126,0.00019793799315301,0.00019793799315301,0.00019793799315301,3626104.532708,0.0088293157623742
5419200,0.54361474956019,0.010128317807293,0.0036893789963735,0.0036893789963801,0.0027495598145392,-0.00095389840719154,0.00095389840718697,-2.7220050799074e-15,-2.6707125292125e-15,-8.2941583838606e-16,-4.1155360379049e-15,-0.00098767849483526,0.00098767849482962,-0.00098767951118083,0.00098767951117616,-0.00098767847467999,0.00098767847467944,-0.00098767953133528,0.00098767953132423,-0.00087169991131466,0.00087169991131231,-0.00087170126013705,0.00087170126013254,-7.4481842277904e-15,-4.6910738899017e-15,4.7285933503727e-10,-4.7288055157742e-10,-0.000953898407197,0.00095389840718482,-0.00098767834083647,0.00098767863643347,-0.00098767966519312,0.00098767936957537,-0.00098767834083398,0.00098767863643762,-0.00098767966518878,0.00098767936957214,-0.00087169955967787,0.00087170047648072,-0.00087170161180498,0.00087170069496156,-0.00096429626607872,0.00096429592357532,-0.00096429626608518,0.00096429592357416,-1.103543094142e-09,-1.1035433125387e-09,-0.00063121104507776,0.00063120779973943,-1.5624697069612e-09,-5.7127167666006e-10,-0.00065620698644941,0.00065620455309208,-0.00065620665332275,0.00065620488623078,-0.0006562069864535,0.0006562045530928,-0.00065620665332716,0.0006562048862284,-0.00070691330920134,0.00070691131838809,-0.00070691330920318,0.00070691131838527,0.73229095938567,120135,2834,0.0039665882098454,0.0039665882098522,0.0026270882366187,36.272185269763,0.0002053774821581,0.0002053774821581,0.0002053774821581,3893512.4560393,0.010616266419668
5919200,0.63498632005312,0.011526750043475,0.0042403755929849,0.0042403755929905,0.0030459988574998,-0.0010914660049089,0.0010914660049058,-2.0504373605461e-15,-2.0783188617266e-15,-1.217080466086e-15,-3.0582889243138e-15,-0.0011385258281029,0.001138525828099,-0.00113852663422,0.0011385266342157,-0.0011385258063675,0.00113852580637,-0.0011385266559519,0.0011385266559421,-0.00098299338375118,0.00098299338375015,-0.00098299469735711,0.0009829946973529,-7.5038884084188e-15,-6.2309285028121e-15,5.9821232600793e-10,-5.9823501102775e-10,-0.0010914660049156,0.0010914660049024,-0.0011385256285848,0.0011385260101462,-0.0011385268337532,0.0011385264521673,-0.0011385256285815,0.0011385260101501,-0.0011385268337507,0.0011385264521651,-0.00098299290974648,0.00098299406941379,-0.00098299517139322,0.00098299401167535,-0.0011023740871462,0.0011023736567168,-0.0011023740871535,0.0011023736567128,-5.1945235626298e-10,-5.1945237470417e-10,-0.00068578121028615,0.00068577953215749,-1.1144849145009e-09,1.379830663738e-10,-0.00071716600721309,0.00071716488830108,-0.00071716558637329,0.00071716530914912,-0.00071716600721629,0.00071716488829958,-0.00071716558637481,0.00071716530914735,-0.00077772084228369,0.00077772017971156,-0.00077772084228801,0.00077772017970885,0.6360792580923,120135,2834,0.0045373051066955,0.0045373051067025,0.0028541146409315,36.778673009307,0.00020942938407446,0.00020942938407446,0.00020942938407446,4088404.480423,0.012000229232687
6419200,0.71220887256321,0.012626632642374,0.0046744513653559,0.004674451365362,0.0032777299116563,-0.001198422858193,0.0011984228581867,-3.1820204385187e-15,-3.4253659456569e-15,-9.3505084660319e-15,2.6252139191639e-16,-0.001257791525493,0.0012577915254723,-0.0012577921249457,0.0012577921249507,-0.0012577915045842,0.0012577915045742,-0.0012577921458175,0.0012577921458286,-0.0010686648187042,0.0010686648187127,-0.00106866607102,0.0010686660709752,-1.0860197640182e-14,-2.125567332151e-14,1.9259676354752e-09,-1.9260125945325e-09,-0.0011984228582104,0.0011984228581767,-0.0012577908959251,0.0012577921529058,-0.0012577927545059,0.0012577914974817,-0.0012577908959228,0.001257792152916,-0.0012577927545165,0.0012577914974929,-0.0010686630583749,0.0010686668223527,-0.0010686678313833,0.0010686640674117,-0.0012090507441816,0.0012090494296755,-0.0012090507442275,0.0012090494296778,3.492652583161e-10,3.4926545229783e-10,-0.00072559670099259,0.00072559716554555,-1.554268574059e-09,2.3446908556126e-09,-0.00076099424012534,0.00076099421099067,-0.00076099294105815,0.00076099551008715,-0.00076099424012504,0.00076099421099844,-0.00076099294106715,0.00076099551008566,-0.00083066309984047,0.00083066514330807,-0.0008306630998621,0.00083066514327625,0.59525943091212,120135,2834,0.0049807989247515,0.0049807989247668,0.0030197788018333,36.741535382875,0.000209132283063,0.000209132283063,0.000209132283063,4210678.797722,0.013066105309781
6919200,0.78162110103657,0.013695772464907,0.0050932662246302,0.0050932662246332,0.0035092400156432,-0.0013075700581305,0.0013075700581273,-1.6298913844076e-15,-1.7599462348506e-15,-5.3952763544814e-15,1.4950131519038e-15,-0.0013762417268149,0.001376241726803,-0.0013762425094406,0.0013762425094383,-0.0013762417084248,0.0013762417084249,-0.0013762425278073,0.001376242527806,-0.0011570732043165,0.0011570732043218,-0.0011570745936464,0.0011570745936372,-7.4449490325057e-15,-1.5664589587136e-14,1.6823355197833e-09,-1.6823689235967e-09,-0.0013075700581413,0.0013075700581181,-0.0013762411965404,0.0013762422787182,-0.0013762430397168,0.0013762419575084,-0.0013762411965427,0.0013762422787224,-0.0013762430397189,0.0013762419575074,-0.0011570716989882,0.0011570749885796,-0.0011570760990184,0.0011570728093783,-0.0013211837374424,0.0013211825879265,-0.0013211837374636,0.0013211825879178,-7.9389780278739e-10,-7.9389755906276e-10,-0.00076558624686021,0.00076558388678533,-2.4217602841651e-09,9.6611274265417e-10,-0.00080321041427997,0.00080320809757287,-0.00080320928966133,0.00080320922220666,-0.00080321041428288,0.00080320809757434,-0.00080320928966706,0.00080320922220594,-0.00088805405183437,0.00088805353420487,-0.00088805405184524,0.00088805353419646,0.64378173705164,120135,2834,0.0054331656065048,0.005433165606508,0.0031861938095818,38.622924515799,0.00022418339612639,0.00022418339612639,0.00022418339612639,4134629.9343153,0.01415185502898
7419200,0.84134031485548,0.014492058972837,0.005407827034393,0.0054078270343963,0.0036764049040476,-0.0013934265758786,0.0013934265758759,-1.7517111923079e-15,-1.8855306336275e-15,-4.9154674829013e-15,1.4421030035667e-15,-0.0014708189119583,0.0014708189119488,-0.0014708197764575,0.0014708197764558,-0.0014708188947409,0.0014708188947417,-0.001470819793653,0.001470819793652,-0.0012248464862579,0.0012248464862629,-0.0012248479372345,0.0012248479372238,-8.1358691018425e-15,-1.5805133719621e-14,1.4579332388192e-09,-1.4579675483863e-09,-0.0013934265758904,0.0013934265758663,-0.0014708184612624,0.001470819391437,-0.0014708202271592,0.0014708192969517,-0.0014708184612645,0.0014708193914407,-0.0014708202271603,0.0014708192969496,-0.0012248452054359,0.0012248480561216,-0.0012248492181041,0.001224846367366,-0.0014080109931087,0.001408009994231,-0.0014080109931287,0.0014080099942228,-1.2337940879881e-09,-1.2337938880025e-09,-0.00078700375508524,0.00078700040984709,-2.6280533005992e-09,3.0351573953779e-10,-0.0008321003064839,0.00083209721789763,-0.00083209933475511,0.00083209818964224,-0.00083210030648592,0.00083209721789961,-0.00083209933476068,0.00083209818964118,-0.00092104188122233,0.00092104031637195,-0.0009210418812321,0.00092104031636042,0.55664260548471,120135,2834,0.0057888252989696,0.0057888252989743,0.0032754795537964,40.761389280748,0.00024129111424599,0.00024129111424599,0.00024129111424599,3879102.4631256,0.014964157295469
7919200,0.88615365833488,0.015037467929795,0.0056218618592269,0.0056218618592304,0.0037937442113373,-0.001447467905095,0.0014474679050874,-2.9577331726936e-15,-1.1817874266171e-15,-1.3276212067893e-14,-3.5512150422299e-15,-0.0015325374762313,0.0015325374762352,-0.0015325380663101,0.0015325380662925,-0.0015325374587345,0.0015325374587253,-0.0015325380837873,0.0015325380837769,-0.0012641978320617,0.0012641978320657,-0.0012641992030839,0.0012641992031018,-3.0170019503084e-14,-4.1031150421281e-14,2.250568973426e-09,-2.2506948537252e-09,-0.0014474679051229,0.0014474679050532,-0.0015325367565029,0.0015325382195131,-0.0015325387860621,0.0015325373229834,-0.0015325367565132,0.0015325382195418,-0.0015325387860622,0.0015325373229886,-0.0012641957628887,0.0012642001632445,-0.0012642012725218,0.0012641968718502,-0.0014623475515542,0.0014623460213536,-0.0014623475515809,0.0014623460213448,3.3639458004388e-10,3.3639280819533e-10,-0.00079863062522257,0.00079863133152616,-1.872217369618e-09,2.6633845378424e-09,-0.00084530978768175,0.00084530974506386,-0.00084530827973833,0.00084531125302319,-0.00084530978768205,0.00084530974507347,-0.00084530827974537,0.00084531125301934,-0.00094222459833981,0.00094222694462469,-0.00094222459835867,0.00094222694465691,0.5070717593097,120135,2834,0.0060126356513641,0.006012635651351,0.0033240064024101,40.955904771074,0.00024284723816859,0.00024284723816859,0.00024284723816859,3753456.9368395,0.015467881177969
8419200,0.9194927976037,0.015423047574187,0.0057719423245146,0.0057719423245149,0.0038791629251574,-0.0014885452464146,0.0014885452464127,-1.8312381745778e-15,-1.8822954383429e-18,-5.3878059944605e-15,2.3542221977749e-15,-0.0015794625827942,0.0015794625827852,-0.0015794631151018,0.0015794631151001,-0.0015794625643794,0.0015794625643804,-0.0015794631334944,0.0015794631334936,-0.0012936668678551,0.0012936668678605,-0.00129366821785,0.0012936682178454,-9.5097683066354e-15,-1.8517205681562e-14,2.1910187841331e-09,-2.1910621093305e-09,-0.0014885452464284,0.0014885452463989,-0.0015794618767526,0.0015794633045372,-0.0015794638211492,0.0015794623933248,-0.0015794618767558,0.0015794633045425,-0.0015794638211512,0.0015794623933221,-0.0012936648606835,0.0012936691443029,-0.0012936702250887,0.0012936659413926,-0.0015043663505464,0.0015043648596961,-0.001504366350568,0.0015043648596872,2.9470961003867e-10,2.9470787146506e-10,-0.00080277268428256,0.00080277323909621,-1.8543061091183e-09,2.562790458143e-09,-0.00085176478451912,0.00085176462500654,-0.00085176331525758,0.00085176609428243,-0.00085176478452101,0.00085176462500772,-0.00085176331526401,0.00085176609428109,-0.00095390490962068,0.00095390706509722,-0.00095390490962937,0.0009539070650921,0.48138031764921,120135,2834,0.0061827147507791,0.006182714750779,0.0033414202159007,41.431989783623,0.00024665591826898,0.00024665591826898,0.00024665591826898,3615661.2872958,0.015831074462313
8919200,0.94378439331718,0.015674764163655,0.0058696435146889,0.0058696435146893,0.0039354771342767,-0.0015161571875958,0.0015161571875932,-2.2834596536397e-15,-4.4304528879996e-16,-5.4153345652463e-15,1.5000424100282e-15,-0.0016109650254033,0.0016109650253945,-0.0016109655332885,0.0016109655332865,-0.0016109650067552,0.0016109650067556,-0.0016109655519156,0.0016109655519142,-0.0013133303706455,0.0013133303706498,-0.0013133317167831,0.0013133317167776,-9.9530488823652e-15,-1.8157615965954e-14,2.1526885580151e-09,-2.1527315736347e-09,-0.0015161571876091,0.0015161571875799,-0.0016109643300547,0.0016109657339116,-0.0016109662286432,0.0016109648247472,-0.0016109643300575,0.0016109657339173,-0.001610966228645,0.0016109648247454,-0.0013133283995978,0.0013133326075799,-0.0013133336878973,0.0013133294798397,-0.0015325664461928,0.0015325649804586,-0.0015325664462142,0.0015325649804506,3.5831601888241e-10,3.5831426386284e-10,-0.00080307937127287,0.00080308010277197,-1.7558570163911e-09,2.587293367096e-09,-0.00085495671761761,0.00085495673330955,-0.00085495527242794,0.00085495817851372,-0.00085495671761977,0.00085495673331086,-0.0008549552724339,0.00085495817851161,-0.00095917836475204,0.00095918063282407,-0.00095917836476057,0.00095918063281907,0.43063171924148,120135,2834,0.0062970120332366,0.0062970120332368,0.0033428653684923,41.891018046201,0.0002503281443696,0.0002503281443696,0.0002503281443696,3432539.2850684,0.016064805333406
9419200,0.96040656212589,0.015838054004118,0.0059325270911576,0.005932527091158,0.0039729998218026,-0.0015316209198671,0.0015316209198648,-2.0312320649018e-15,-1.9864099047762e-16,-4.8815567541449e-15,1.3390473283174e-15,-0.0016293025125431,0.0016293025125344,-0.0016293027287385,0.001629302728737,-0.0016293024911428,0.0016293024911429,-0.001629302750118,0.0016293027501166,-0.0013229844195519,0.0013229844195564,-0.0013229856670138,0.0013229856670083,-9.8338760524251e-15,-1.732975597388e-14,2.361676389776e-09,-2.3617188683156e-09,-0.0015316209198802,0.0015316209198517,-0.0016293017276547,0.0016293032852763,-0.0016293035136327,0.0016293019559721,-0.0016293017276575,0.0016293032852821,-0.0016293035136344,0.0016293019559701,-0.0013229822283073,0.0013229868406945,-0.0013229878583232,0.0013229832458624,-0.0015484726684696,0.0015484710587599,-0.00154847266849,0.0015484710587527,1.6108576690265e-09,1.6108559218985e-09,-0.00080059071552493,0.00080059460264772,-7.4853560335407e-10,4.0412425668283e-09,-0.00085325589845972,0.00085325856382083,-0.00085325429954935,0.00085326016274569,-0.00085325589846166,0.00085325856382195,-0.0008532542995559,0.00085326016274362,-0.00096063069246504,0.00096063573790564,-0.00096063069247373,0.00096063573790062,0.40723906797413,120135,2834,0.0063610193537185,0.0063610193537186,0.0033326493044207,41.151727066028,0.00024441381652822,0.00024441381652822,0.00024441381652822,3327883.7660835,0.016184515167941
9919200,0.97158459847541,0.015947286894236,0.0059743060357278,0.0059743060357282,0.00399867482278,-0.0015410531736643,0.001541053173662,-2.1099943646499e-15,-2.7640332077416e-16,-4.7493549104676e-15,1.0337625369112e-15,-0.0016401723341351,0.0016401723341265,-0.0016401723953328,0.0016401723953312,-0.0016401723117521,0.0016401723117521,-0.0016401724176949,0.0016401724176932,-0.0013290012308395,0.0013290012308436,-0.0013290024226879,0.0013290024226821,-9.984518509225e-15,-1.703364967046e-14,2.6391173472232e-09,-2.6391595519873e-09,-0.0015410531736774,0.0015410531736489,-0.0016401714496773,0.0016401731973899,-0.0016401732797967,0.0016401715320448,-0.0016401714496798,0.0016401731973957,-0.0016401732797982,0.0016401715320429,-0.0013289987622308,0.0013290039163956,-0.0013290048913601,0.0013289997371225,-0.0015584797415564,0.0015584779451721,-0.0015584797415765,0.0015584779451655,2.3016706790077e-09,2.301668926506e-09,-0.00079627885961504,0.00079628446864785,-3.4909634808149e-10,5.0076059144884e-09,-0.00085062024069622,0.00085062424005142,-0.00085061845103512,0.00085062602972687,-0.00085062024069813,0.00085062424005245,-0.00085061845104162,0.00085062602972489,-0.00095875710474794,0.00095876378609696,-0.00095875710475654,0.00095876378609185,0.40432824355073,120135,2834,0.0064000482608161,0.0064000482608162,0.003314838399081,39.829126609969,0.00023383301287976,0.00023383301287976,0.00023383301287976,3222199.725783,0.016245748701448
10419200,0.97909477922704,0.016025226099744,0.0060039007070161,0.0060039007070165,0.0040174246857111,-0.0015467284744013,0.0015467284743988,-2.175757061527e-15,-3.3516623148993e-16,-4.6479756545931e-15,8.4394480630077e-16,-0.0016464190409384,0.0016464190409298,-0.0016464189966445,0.0016464189966429,-0.0016464190183118,0.0016464190183114,-0.0016464190192503,0.0016464190192484,-0.0013327174849399,0.0013327174849438,-0.0013327186321355,0.0013327186321295,-1.0073809899081e-14,-1.6833919788615e-14,2.9615281525309e-09,-2.9615703056042e-09,-0.0015467284744143,0.0015467284743859,-0.0016464180471042,0.0016464200111796,-0.0016464199904842,0.0016464180263696,-0.0016464180471067,0.0016464200111857,-0.0016464199904857,0.0016464180263678,-0.0013327146988749,0.001332720484198,-0.001332721418264,0.0013327156328682,-0.0015647237360626,0.0015647217241323,-0.0015647237360822,0.0015647217241259,2.7947765540425e-09,2.7947747959308e-09,-0.00079089951423189,0.00079090634875136,-1.8317886379086e-10,5.8234780959327e-09,-0.00084742443435876,0.00084742928060217,-0.00084742242757056,0.00084743128740475,-0.00084742443436073,0.00084742928060324,-0.00084742242757704,0.00084743128740283,-0.0009549891561669,0.00095499708823764,-0.00095498915617549,0.00095499708823254,0.42845224819223,120135,2834,0.0064235193016225,0.0064235193016226,0.0032925819465273,38.101290155727,0.00022001032124582,0.00022001032124582,0.00022001032124582,3123078.0652844,0.016270843287131
10919200,0.98460079100346,0.016078064986838,0.0060239574631331,0.0060239574631336,0.0040301500605715,-0.0015526939128845,0.001552693912882,-2.1966387765462e-15,-3.5398918587336e-16,-4.6502108804261e-15,8.2038670245526e-16,-0.0016525082369286,0.0016525082369201,-0.0016525081861741,0.0016525081861725,-0.0016525082143992,0.0016525082143988,-0.0016525082086828,0.0016525082086808,-0.001338197293329,0.0013381972933329,-0.0013381984327852,0.0013381984327791,-1.0050281206102e-14,-1.6788887616522e-14,2.9841682298822e-09,-2.9842101870872e-09,-0.0015526939128974,0.0015526939128691,-0.0016525072362133,0.0016525092148868,-0.0016525091868952,0.0016525072081823,-0.0016525072362158,0.0016525092148928,-0.0016525091868967,0.0016525072081806,-0.0013381944854204,0.0013382003151732,-0.0013382012407571,0.0013381954109319,-0.0015709293111026,0.0015709272842016,-0.0015709293111222,0.0015709272841952,1.533967933376e-09,1.533966174504e-09,-0.00078834562136,0.00078834919208946,-1.4162069293063e-09,4.5690909165559e-09,-0.00084748983839348,0.00084749177877676,-0.00084748784031133,0.00084749377687301,-0.00084748983839541,0.0008474917787778,-0.00084748784031787,0.00084749377687107,-0.0009529651150069,0.00095297019162521,-0.00095296511501543,0.00095297019162006,0.3959708145672,120135,2834,0.006448186437293,0.0064481864372932,0.0032820362793598,37.946388328266,0.00021877110662613,0.00021877110662613,0.00021877110662613,2989865.7618421,0.016310271273911
11419200,0.98861223560367,0.01611648405659,0.0060384600578834,0.0060384600578838,0.0040395639408231,-0.0015563490302178,0.0015563490302152,-2.2839302274993e-15,-4.3798661980941e-16,-4.5905656437236e-15,6.5836224042665e-16,-0.0016570496177504,0.0016570496177418,-0.0016570498822905,0.0016570498822888,-0.0016570495986464,0.0016570495986458,-0.0016570499013741,0.0016570499013718,-0.0013394111770418,0.0013394111770454,-0.0013394124310259,0.0013394124310195,-1.0068045369301e-14,-1.6586990866131e-14,2.955117471878e-09,-2.9551592887045e-09,-0.0015563490302306,0.0015563490302025,-0.0016570486516037,0.0016570505928123,-0.0016570508484429,0.0016570489071952,-0.0016570486516061,0.0016570505928183,-0.0016570508484442,0.0016570489071935,-0.0013394084174849,0.0013394141972332,-0.0013394151906454,0.0013394094108252,-0.0015748609644912,0.001574858962928,-0.0015748609645107,0.0015748589629218,1.4075915486759e-09,1.4075897871276e-09,-0.00078615474904967,0.00078615809975304,-1.5172341478324e-09,4.4409529261865e-09,-0.00084531952578308,0.0008453213086263,-0.00084531754146782,0.00084532329295582,-0.00084531952578499,0.00084532130862734,-0.00084531754147441,0.00084532329295392,-0.00095256491330761,0.00095256991920485,-0.000952564913316,0.00095256991919955,0.39457194111806,120135,2834,0.0064633154847734,0.0064633154847736,0.0032729805309265,37.628775767015,0.00021623020613612,0.00021623020613612,0.00021623020613612,2980185.5798684,0.016331821010124
11919200,0.99151927898045,0.016146518595763,0.0060497504725211,0.0060497504725215,0.0040470176507204,-0.0015590105464444,0.0015590105464416,-2.332575800234e-15,-4.8869095317977e-16,-4.5434788468988e-15,5.2368988398646e-16,-0.0016598403774596,0.0016598403774509,-0.0016598405898559,0.0016598405898543,-0.0016598403578942,0.0016598403578934,-0.0016598406094011,0.0016598406093988,-0.0013413494912839,0.0013413494912874,-0.0013413507239768,0.0013413507239703,-1.0122396650084e-14,-1.645753698538e-14,2.9803416865989e-09,-2.980383381907e-09,-0.001559010546457,0.001559010546429,-0.0016598393993909,0.0016598413599983,-0.0016598415679303,0.0016598396072839,-0.0016598393993933,0.0016598413600044,-0.0016598415679316,0.0016598396072823,-0.0013413467042734,0.0013413525324901,-0.0013413535110496,0.0013413476827614,-0.0015778361008084,0.0015778340816286,-0.0015778361008276,0.0015778340816226,1.6284266574878e-09,1.6284248984136e-09,-0.00078379818689451,0.00078380209741033,-1.3280820652692e-09,4.6856237086179e-09,-0.00084413874086254,0.00084414098690628,-0.00084413673713275,0.00084414299065021,-0.00084413874086446,0.00084414098690733,-0.00084413673713938,0.00084414299064831,-0.00095081600073515,0.00095082149043882,-0.00095081600074351,0.00095082149043354,0.42516298576731,120135,2834,0.0064743207214203,0.0064743207214205,0.0032632331098316,37.105494289674,0.00021204395431739,0.00021204395431739,0.00021204395431739,2927205.1899975,0.016344287927151
12419200,0.99365934043993,0.016169765298979,0.0060584661908316,0.006058466190832,0.004052832917315,-0.001561994047833,0.0015619940478303,-2.2773421934651e-15,-4.2863396435015e-16,-4.4847159361831e-15,4.2925159254085e-16,-0.0016625188660246,0.0016625188660161,-0.0016625191291518,0.0016625191291503,-0.0016625188470137,0.0016625188470129,-0.0016625191481425,0.0016625191481402,-0.0013442752698313,0.0013442752698348,-0.0013442765136992,0.0013442765136927,-1.0198453150139e-14,-1.6381975529944e-14,2.960997045743e-09,-2.9610388176919e-09,-0.0015619940478457,0.0015619940478176,-0.0016625178982447,0.0016625198431488,-0.0016625200969375,0.0016625181519944,-0.0016625178982471,0.0016625198431549,-0.0016625200969388,0.0016625181519929,-0.0013442725046644,0.0013442782960011,-0.0013442792789284,0.0013442734875202,-0.0015811190627506,0.0015811170574761,-0.0015811190627698,0.0015811170574704,1.4076747420752e-09,1.4076729797626e-09,-0.00078092034574412,0.00078092370391685,-1.5228185149985e-09,4.4471753121263e-09,-0.00084379673731032,0.00084379849087773,-0.0008437947489798,0.00084380047922242,-0.00084379673731216,0.00084379849087873,-0.00084379474898636,0.00084380047922047,-0.00094804129038017,0.00094804630408506,-0.00094804129038862,0.00094804630407984,0.44663644431852,120135,2834,0.0064866477182595,0.0064866477182596,0.0032513324288751,36.80270789543,0.00020962166316344,0.00020962166316344,0.00020962166316344,2844075.2750692,0.016357256090521
12919200,0.99521623605714,0.016185627202927,0.006064414025162,0.0060644140251625,0.0040567991526021,-0.0015631209715003,0.0015631209714976,-2.304753120786e-15,-4.5710368285508e-16,-4.4525404485339e-15,3.7816491790958e-16,-0.0016636451710365,0.001663645171028,-0.0016636453471722,0.0016636453471706,-0.0016636451512697,0.0016636451512688,-0.0016636453669189,0.0016636453669165,-0.0013449642827381,0.0013449642827415,-0.0013449654880975,0.0013449654880908,-1.0197864932815e-14,-1.6303464601193e-14,3.0042746242188e-09,-3.0043162144979e-09,-0.001563120971513,0.001563120971485,-0.0016636441831687,0.0016636461611063,-0.0016636463350456,0.0016636443570691,-0.001663644183171,0.0016636461611125,-0.0016636463350469,0.0016636443570676,-0.0013449614707815,0.0013449673453419,-0.0013449683001162,0.0013449624254845,-0.0015824027201645,0.0015824006846699,-0.0015824027201836,0.0015824006846642,1.7787440641188e-09,1.7787423049083e-09,-0.00077728977803042,0.0007772940809364,-1.2053439599665e-09,4.8592352919032e-09,-0.00084177902360639,0.00084178155257966,-0.0008417770023656,0.00084178357383442,-0.00084177902360822,0.00084178155258063,-0.00084177700237224,0.00084178357383254,-0.00094482393504485,0.00094482976498253,-0.00094482393505322,0.00094482976497722,0.41875849256559,120135,2834,0.0064912962159881,0.0064912962159882,0.0032362992072265,36.137405244807,0.00020429924195845,0.00020429924195845,0.00020429924195845,2783303.0185192,0.016351429919429
13419200,0.99632546577805,0.016196671734828,0.0060685471580728,0.0060685471580732,0.0040595774186818,-0.00156130300405,0.0015613030040473,-2.3189879800384e-15,-4.7651485456299e-16,-4.4171591764663e-15,3.3934257449375e-16,-0.001662492394387,0.0016624923943784,-0.0016624924036175,0.0016624924036159,-0.0016624923732679,0.001662492373267,-0.0016624924247165,0.001662492424714,-0.0013418333498054,0.0013418333498088,-0.0013418344998494,0.0013418344998427,-1.0195923815644e-14,-1.6227293674486e-14,3.1735835450349e-09,-3.1736250753846e-09,-0.0015613030040626,0.0015613030040347,-0.0016624913402788,0.0016624934382722,-0.0016624934577314,0.001662491359699,-0.001662491340281,0.0016624934382784,-0.0016624934577326,0.0016624913596975,-0.0013418303642779,0.0013418365680277,-0.0013418374854388,0.0013418312816179,-0.0015806319127034,0.0015806297618691,-0.0015806319127224,0.0015806297618634,2.4888543986496e-09,2.4888526449366e-09,-0.00077383586175591,0.00077384196053418,-6.8254062273484e-10,5.7349902872481e-09,-0.00083724050752803,0.00083724450491244,-0.00083723836639268,0.00083724664606182,-0.00083724050752987,0.00083724450491345,-0.00083723836639927,0.0008372466460599,-0.00094250625435201,0.00094251369625373,-0.00094250625436043,0.00094251369624843,0.40900439415344,120135,2834,0.0064837763910535,0.0064837763910536,0.0032219661362035,34.797147746384,0.00019357718197107,0.00019357718197107,0.00019357718197107,2789632.4620737,0.0163215745392
13919200,0.99714223583549,0.016204634138213,0.0060715268368927,0.0060715268368931,0.0040615804644271,-0.0015604160465579,0.0015604160465552,-2.335340421659e-15,-4.9363197870542e-16,-4.4087476687262e-15,3.0722590857703e-16,-0.0016618071709661,0.0016618071709575,-0.0016618072647991,0.0016618072647975,-0.0016618071509481,0.0016618071509471,-0.001661807284797,0.0016618072847946,-0.0013403975189695,0.0013403975189728,-0.0013403987038952,0.0013403987038885,-1.0224805286276e-14,-1.621450201563e-14,3.2475893549291e-09,-3.2476309481314e-09,-0.0015604160465705,0.0015604160465426,-0.001661806100287,0.0016618082416596,-0.0016618083354839,0.0016618061940723,-0.0016618061002892,0.0016618082416658,-0.0016618083354852,0.0016618061940708,-0.0013403944672356,0.0013404008182549,-0.0013404017556909,0.0013403954046006,-0.0015798950321913,0.0015798928339855,-0.0015798950322103,0.0015798928339798,2.1339018535055e-09,2.1339000999344e-09,-0.00077109017283491,0.00077109536696082,-1.097411353807e-09,5.4579425805712e-09,-0.00083449453233395,0.00083449770289209,-0.00083449234721453,0.00083449988802557,-0.00083449453233581,0.00083449770289307,-0.00083449234722117,0.0008344998880237,-0.00094019108419685,0.00094019782313777,-0.00094019108420523,0.00094019782313246,0.40047476240274,120135,2834,0.0064801031788155,0.0064801031788156,0.0032105717454965,33.829952908162,0.0001858396232653,0.0001858396232653,0.0001858396232653,2776929.9137335,0.016302528510189
14419200,0.99774459232778,0.01621023668396,0.0060736243891018,0.0060736243891023,0.0040629879057555,-0.0015588702162913,0.0015588702162885,-2.3573397495947e-15,-5.2674861407377e-16,-4.4181591459179e-15,2.8540304583874e-16,-0.0016604088094415,0.0016604088094329,-0.001660408851533,0.0016604088515314,-0.0016604087891423,0.0016604087891413,-0.0016604088718121,0.0016604088718096,-0.0013384314766074,0.0013384314766106,-0.0013384326427554,0.0013384326427487,-1.0224569999346e-14,-1.6202049730598e-14,3.3494623095652e-09,-3.3495038659634e-09,-0.0015588702163038,0.0015588702162759,-0.0016604077027253,0.0016604099135347,-0.0016604099582548,0.0016604077474065,-0.0016604077027276,0.0016604099135409,-0.001660409958256,0.001660407747405,-0.0013384283234442,0.0013384348735544,-0.0013384357959804,0.0013384292457991,-0.0015784510114562,0.0015784487448161,-0.0015784510114752,0.0015784487448104,2.3626213709901e-09,2.3626196275921e-09,-0.00076793799220957,0.00076794376185241,-9.7466888160824e-10,5.7880377349938e-09,-0.00083141455310401,0.00083141815894526,-0.00083141229838829,0.00083142041367504,-0.00083141455310583,0.00083141815894626,-0.00083141229839492,0.00083142041367318,-0.00093739219082323,0.00093739947953499,-0.00093739219083152,0.00093739947952959,0.38210045494667,120135,2834,0.006473701807056,0.0064737018070562,0.003197491480387,32.644005393166,0.00017635204314533,0.00017635204314533,0.00017635204314533,2767076.706637,0.016276224386862
14919200,0.9981766558275,0.016214411941489,0.0060751838469441,0.0060751838469446,0.0040640442475999,-0.0015552737133474,0.0015552737133447,-2.3145175283724e-15,-4.7863243693113e-16,-4.4086300252613e-15,2.9875557910449e-16,-0.0016570690003395,0.0016570690003309,-0.0016570688359926,0.0016570688359911,-0.0016570689784161,0.0016570689784151,-0.001657068857896,0.0016570688578936,-0.0013342751361059,0.0013342751361093,-0.0013342762293008,0.0013342762292942,-1.0208394022923e-14,-1.6189200513758e-14,3.5841209259033e-09,-3.5841624035415e-09,-0.00155527371336,0.0015552737133321,-0.0016570678035083,0.0016570701794539,-0.0016570700328294,0.0016570676568449,-0.0016570678035106,0.0016570701794601,-0.0016570700328306,0.0016570676568434,-0.0013342717436602,0.0013342787504446,-0.0013342796218082,0.0013342726149529,-0.0015749198058247,0.0015749173798225,-0.0015749198058436,0.0015749173798169,3.2630632915453e-09,3.2630615433568e-09,-0.0007633337609733,0.00076334179882035,-3.3100794778735e-10,6.9188087605681e-09,-0.00082639589638761,0.00082640133352693,-0.00082639347650315,0.00082640375342539,-0.00082639589638941,0.00082640133352793,-0.00082639347650971,0.00082640375342344,-0.00093329359693791,0.00093330294000717,-0.00093329359694639,0.00093330294000195,0.39678962402156,120135,2834,0.0064588149748352,0.0064588149748353,0.0031783776664702,30.581564276114,0.00015985251420891,0.00015985251420891,0.00015985251420891,2775429.6499227,0.016226541665139
15419200,0.99847106391623,0.016217903450934,0.0060764813179756,0.006076481317976,0.0040649408149826,-0.0015496713501898,0.0015496713501868,-2.4632776897339e-15,-6.2492208552984e-16,-4.4334822072207e-15,2.6428604388983e-16,-0.0016512420938248,0.0016512420938161,-0.0016512416052842,0.0016512416052825,-0.0016512420696198,0.0016512420696188,-0.001651241629469,0.0016512416294663,-0.0013287367819651,0.0013287367819681,-0.0013287377446839,0.0013287377446769,-1.0259392464955e-14,-1.6228368319965e-14,4.008312779604e-09,-4.0083544944812e-09,-0.0015496713502023,0.0015496713501743,-0.0016512407385622,0.0016512434098496,-0.0016512429605525,0.0016512402892259,-0.0016512407385643,0.0016512434098559,-0.0016512429605537,0.0016512402892244,-0.001328732960452,0.0013287407937346,-0.0013287415662585,0.0013287337329046,-0.0015694968709119,0.0015694941578672,-0.0015694968709307,0.0015694941578613,4.7159902279514e-09,4.7159884786421e-09,-0.00075467247701512,0.00075468417161555,6.6548758947272e-10,8.7899510207212e-09,-0.00081913718373969,0.00081914549870289,-0.00081913446826865,0.00081914821418803,-0.00081913718374161,0.00081914549870398,-0.00081913446827535,0.00081914821418628,-0.00092463938494935,0.00092465207659263,-0.00092463938495748,0.00092465207658698,0.48651353790675,120135,2834,0.0064356086693279,0.0064356086693282,0.0031424381316991,27.074482114283,0.00013179585691427,0.00013179585691427,0.00013179585691427,2750138.2242584,0.016142860676532
15919200,0.99869727145595,0.016221191412284,0.0060776992481169,0.0060776992481174,0.0040657929160494,-0.0015488234525027,0.0015488234524999,-2.314988102232e-15,-4.7363258967303e-16,-4.3922187619082e-15,2.324046649029e-16,-0.0016493646363719,0.0016493646363633,-0.0016493645690056,0.0016493645690039,-0.001649364616812,0.0016493646168109,-0.0016493645885454,0.0016493645885429,-0.0013290612716234,0.0013290612716267,-0.0013290623720098,0.001329062372003,-1.030803803769e-14,-1.6213515258091e-14,4.0526902547207e-09,-4.0527318721228e-09,-0.0015488234525153,0.0015488234524874,-0.0016493633001825,0.0016493659761581,-0.0016493659052004,0.0016493632291859,-0.0016493633001849,0.0016493659761643,-0.0016493659052017,0.0016493632291845,-0.0013290574326076,0.001329065362105,-0.0013290662110876,0.0013290582815191,-0.0015688894458647,0.0015688867115553,-0.0015688894458837,0.0015688867115498,2.9473926661055e-09,2.9473909163777e-09,-0.00074731015849268,0.00074731738102334,-1.087972690137e-09,7.0808396504739e-09,-0.00081636315495838,0.00081636749127609,-0.00081636043267753,0.00081637021357089,-0.00081636315496015,0.00081636749127708,-0.00081636043268424,0.00081637021356899,-0.00091641440097626,0.00091642339129905,-0.00091641440098461,0.00091642339129372,0.59571470761932,120135,2834,0.0064320577586076,0.0064320577586078,0.0031119187303774,25.355863363779,0.00011804690691023,0.00011804690691023,0.00011804690691023,2638336.446522,0.016104644322804
16419200,0.99888080938622,0.016223439277315,0.0060785354744401,0.0060785354744405,0.004066368328434,-0.0015492366753104,0.0015492366753075,-2.3929268977258e-15,-5.4410102514599e-16,-4.4079535753381e-15,1.9599401251745e-16,-0.0016490422978929,0.0016490422978842,-0.0016490424090001,0.0016490424089986,-0.0016490422799163,0.0016490422799151,-0.0016490424269567,0.0016490424269541,-0.0013301307144404,0.0013301307144434,-0.0013301318699961,0.0013301318699891,-1.0343684007554e-14,-1.6243073293533e-14,3.9538099821717e-09,-3.9538515994833e-09,-0.001549236675323,0.001549236675295,-0.0016490410064357,0.0016490436076765,-0.0016490437004628,0.0016490410991831,-0.0016490410064379,0.0016490436076827,-0.0016490437004641,0.0016490410991816,-0.0013301269816316,0.0013301347208989,-0.0013301356028667,0.0013301278635281,-0.0015694363643482,0.0015694336992127,-0.0015694363643671,0.0015694336992071,2.1480949086504e-09,2.1480931528169e-09,-0.00074047365532108,0.00074047887855867,-1.7672078319256e-09,6.1879133838172e-09,-0.00081382964177584,0.00081383226947762,-0.0008138269933587,0.00081383491790858,-0.00081382964177761,0.00081383226947855,-0.00081382699336547,0.00081383491790678,-0.00090919289275221,0.00090920013698596,-0.00090919289276033,0.00090920013698047,0.50210013400473,120135,2834,0.0064337278770831,0.0064337278770833,0.0030835974135782,24.413115940856,0.00011050492752684,0.00011050492752684,0.00011050492752684,2516289.1885083,0.016079271399285
16919200,0.99903333956103,0.016225869994566,0.0060794291221805,0.0060794291221809,0.0040670117502046,-0.0015462858899623,0.0015462858899595,-2.3068707031541e-15,-4.6686809044148e-16,-4.3409850329458e-15,2.5593335788218e-16,-0.0016479610071435,0.001647961007135,-0.0016479611709068,0.0016479611709053,-0.0016479609894473,0.0016479609894463,-0.001647961188583,0.0016479611885805,-0.0013240231496641,0.0013240231496672,-0.0013240243515992,0.0013240243515925,-1.0227746372898e-14,-1.6112219754254e-14,3.809143427209e-09,-3.809184990175e-09,-0.0015462858899748,0.0015462858899469,-0.0016479597664493,0.0016479622695192,-0.0016479624116065,0.0016479599084977,-0.0016479597664516,0.0016479622695255,-0.0016479624116079,0.0016479599084962,-0.0013240195613548,0.0013240270176427,-0.0013240279399702,0.0013240204836114,-0.0015663894547183,0.0015663868862848,-0.0015663894547371,0.0015663868862792,1.8603401281257e-09,1.8603383821453e-09,-0.0007395870175392,0.00073959152199833,-1.9042327247327e-09,5.7561559385931e-09,-0.0008077762872032,0.00080777846003457,-0.00080777373788553,0.0008077810093663,-0.00080777628720491,0.00080777846003553,-0.00080777373789209,0.00080778100936444,-0.00091101818752056,0.00091102472683209,-0.00091101818752875,0.00091102472682667,0.65164127745866,120135,2834,0.006421551540563,0.006421551540563,0.0030798784393902,23.780486200054,0.00010544388960043,0.00010544388960043,0.00010544388960043,2591580.9846686,0.016050733947425
17419200,0.99915299999359,0.016227586815355,0.006080065227848,0.0060800652278484,0.0040674563596584,-0.0015460846832083,0.0015460846832055,-2.2776951238598e-15,-4.3257502042418e-16,-4.4078947536057e-15,1.6158329903525e-16,-0.0016462603660719,0.0016462603660633,-0.0016462602794882,0.0016462602794868,-0.0016462603461001,0.001646260346099,-0.0016462602994403,0.0016462602994376,-0.0013256247543919,0.0013256247543952,-0.0013256258233789,0.0013256258233723,-1.0277980132409e-14,-1.6136637206847e-14,3.8543924206333e-09,-3.8544336766363e-09,-0.0015460846832208,0.001546084683193,-0.0016462590926856,0.0016462616389541,-0.0016462615528803,0.0016462590065728,-0.0016462590926878,0.0016462616389604,-0.0016462615528816,0.0016462590065715,-0.0013256211078568,0.0013256286479382,-0.0013256294699758,0.0013256219298238,-0.0015666888614117,0.0015666862587729,-0.0015666888614309,0.0015666862587675,2.9563402661869e-09,2.956338512976e-09,-0.00073072885727708,0.00073073615620625,-8.8584430379988e-10,6.889736304594e-09,-0.0008052106305055,0.00080521508216649,-0.0008052080384372,0.00080521767424853,-0.00080521063050727,0.00080521508216739,-0.00080520803844389,0.00080521767424668,-0.00090056764618509,0.00090057654822005,-0.00090056764619372,0.00090057654821478,0.58772740813402,120135,2834,0.006420663817113,0.0064206638171132,0.0030431763560661,21.984871359725,9.1078970877801e-05,9.1078970877801e-05,9.1078970877801e-05,2437630.6800304,0.01601165758558
17919200,0.99924442210295,0.016228684469622,0.0060804721404931,0.0060804721404935,0.0040677401886353,-0.0015402183953154,0.0015402183953126,-2.3590455798357e-15,-5.1792535420654e-16,-4.3676900994773e-15,1.9387643014932e-16,-0.0016418564957636,0.0016418564957551,-0.0016418562286884,0.0016418562286869,-0.0016418564743085,0.0016418564743074,-0.0016418562501234,0.0016418562501208,-0.0013171584211567,0.0013171584211598,-0.0013171594489286,0.0013171594489217,-1.0300214747275e-14,-1.6156783707653e-14,4.0219412593867e-09,-4.0219829227818e-09,-0.001540218395328,0.0015402183953,-0.0016418551558639,0.0016418578216789,-0.0016418575685937,0.0016418549027397,-0.0016418551558661,0.0016418578216851,-0.0016418575685949,0.0016418549027382,-0.0013171546018781,0.001317162467473,-0.001317163268269,0.0013171554026025,-0.0015607695503169,0.0015607668330609,-0.0015607695503359,0.0015607668330554,3.6724436664776e-09,3.6724419191261e-09,-0.00072485345389738,0.00072486257677366,-3.5646567454186e-10,7.769178850522e-09,-0.00079574802335471,0.00079575400689355,-0.00079574531231031,0.00079575671795183,-0.00079574802335646,0.00079575400689447,-0.00079574531231701,0.00079575671795001,-0.000897001392061,0.00089701191588513,-0.00089700139206924,0.00089701191587964,0.4915601615792,120135,2834,0.0063964028510494,0.0063964028510495,0.0030187606808822,19.505429938231,7.1243439505845e-05,7.1243439505845e-05,7.1243439505845e-05,2484272.4280937,0.015937544052897
18419200,0.99931709210328,0.016229597270411,0.0060808097306928,0.0060808097306932,0.0040679778090251,-0.0015347963408279,0.001534796340825,-2.3636336749666e-15,-5.289838399068e-16,-4.355043427001e-15,2.158169363525e-16,-0.0016378348282881,0.0016378348282794,-0.0016378346462859,0.0016378346462843,-0.0016378348078286,0.0016378348078275,-0.0016378346667253,0.0016378346667226,-0.0013094491122153,0.0013094491122185,-0.001309450207545,0.0013094502075383,-1.0296920730257e-14,-1.6150568766541e-14,4.1238443671935e-09,-4.1238860575032e-09,-0.0015347963408404,0.0015347963408125,-0.0016378334623104,0.0016378361901423,-0.0016378360122692,0.0016378332843981,-0.0016378334623126,0.0016378361901485,-0.0016378360122704,0.0016378332843966,-0.0013094451993434,0.0013094532670754,-0.0013094541204788,0.0013094460526754,-0.001555387612371,0.0015553848290664,-0.0015553876123897,0.0015553848290608,3.2946740441782e-09,3.2946723009934e-09,-0.0007221929295388,0.00072220106997864,-8.2226665555339e-10,7.4974091495469e-09,-0.00078834291606508,0.00078834808681128,-0.00078834014237108,0.00078835086051946,-0.00078834291606693,0.00078834808681224,-0.00078834014237776,0.0007883508605176,-0.00089623169193651,0.00089624147019601,-0.00089623169194476,0.0008962414701906,0.51421839069127,120135,2834,0.0063739939014068,0.0063739939014068,0.0030076575205389,17.481682534914,5.5053460279309e-05,5.5053460279309e-05,5.5053460279309e-05,2574482.3453988,0.015880722171795
18919200,0.99938050700377,0.016230507643327,0.0060811462244559,0.0060811462244563,0.0040682151944148,-0.0015344981197969,0.001534498119794,-2.3761038822457e-15,-5.4139522545337e-16,-4.3762486615485e-15,2.0014094465505e-16,-0.0016372423986454,0.0016372423986367,-0.0016372422201031,0.0016372422201014,-0.0016372423782498,0.0016372423782486,-0.0016372422404785,0.0016372422404758,-0.0013093647176677,0.0013093647176709,-0.0013093658167612,0.0013093658167544,-1.0282391762343e-14,-1.6134263543147e-14,4.1303228282555e-09,-4.1303642998897e-09,-0.0015344981198095,0.0015344981197815,-0.0016372410309153,0.0016372437627315,-0.0016372435878389,0.0016372408559833,-0.0016372410309175,0.0016372437627377,-0.00163724358784,0.0016372408559818,-0.0013093607985686,0.0013093688790078,-0.0013093697359221,0.0013093616554118,-0.0015554242993036,0.0015554215117632,-0.0015554242993222,0.0015554215117575,2.1318661387181e-09,2.1318643938297e-09,-0.00072020660892994,0.00072021172358879,-1.9461869931468e-09,6.3263109745129e-09,-0.00078738437944666,0.00078738686998944,-0.00078738162282138,0.0007873896266283,-0.00078738437944839,0.00078738686999031,-0.00078738162282806,0.00078738962662643,-0.00089411517511751,0.00089412229686644,-0.0008941151751258,0.00089412229686108,0.58779877663221,120135,2834,0.0063727500661496,0.0063727500661497,0.002999415262294,16.875721670863,5.0205773366901e-05,5.0205773366901e-05,5.0205773366901e-05,2531792.9979555,0.015869826812591
19419200,0.99944031277252,0.016231467450831,0.006081500147346,0.0060815001473464,0.0040684671561389,-0.0015372386269937,0.0015372386269911,-2.2611662170418e-15,-4.2992804246401e-16,-4.2769281663097e-15,2.9802030744888e-16,-0.0016395911879343,0.0016395911879261,-0.001639591238995,0.0016395912389937,-0.0016395911692286,0.0016395911692278,-0.0016395912576811,0.0016395912576787,-0.0013124308071459,0.0013124308071493,-0.0013124320917656,0.001312432091759,-1.0147925281966e-14,-1.6002575240767e-14,4.1088531161956e-09,-4.1088942185598e-09,-0.0015372386270062,0.0015372386269786,-0.0016395898398686,0.0016395925476659,-0.0016395925870664,0.0016395898792307,-0.001639589839871,0.0016395925476723,-0.0016395925870678,0.0016395898792294,-0.0013124269166031,0.0013124349562882,-0.0013124359823699,0.0013124279426146,-0.0015583850721245,0.0015583823008904,-0.0015583850721435,0.0015583823008849,8.7596305151663e-10,8.7596130989503e-10,-0.00071910295973693,0.00071910485714605,-3.1486282070108e-09,5.0514231959888e-09,-0.0007887733178893,0.00078877297027723,-0.00078877058746784,0.00078877570071288,-0.00078877331789129,0.00078877297027838,-0.00078877058747471,0.00078877570071123,-0.00089268885307683,0.0008926931450309,-0.00089268885308477,0.00089269314502518,0.65664642788027,120135,2834,0.006384071640935,0.0063840716409352,0.0029948688110704,17.545078113164,5.556062490531e-05,5.556062490531e-05,5.556062490531e-05,2441661.6606981,0.015888218232255
19919200,0.99949798065454,0.016232369123015,0.0060818324461849,0.0060818324461853,0.0040687042306445,-0.0015408915108035,0.0015408915108006,-2.3719863609743e-15,-5.2692507927111e-16,-4.3914246685202e-15,1.5543642799441e-16,-0.0016420872529025,0.0016420872528938,-0.0016420878106966,0.001642087810695,-0.0016420872387501,0.0016420872387488,-0.0016420878248292,0.0016420878248265,-0.0013178252821479,0.001317825282151,-0.0013178266374336,0.0013178266374269,-1.0147337064642e-14,-1.5978467751131e-14,3.6835946295623e-09,-3.6836357495079e-09,-0.0015408915108159,0.0015408915107883,-0.0016420860803891,0.0016420884799897,-0.0016420889832151,0.0016420865835763,-0.0016420860803914,0.0016420884799959,-0.0016420889832163,0.001642086583575,-0.0013178218366674,0.0013178290548491,-0.0013178300829757,0.0013178228647236,-0.0015619807712512,0.0015619782935884,-0.00156198077127,0.0015619782935829,1.2529406248142e-10,1.2529231164118e-10,-0.00071827216554414,0.00071827227706491,-3.466503050329e-09,3.9069494440822e-09,-0.00079191304841237,0.00079191149211316,-0.00079191060070134,0.00079191393983786,-0.00079191304841416,0.00079191149211412,-0.00079191060070801,0.00079191393983604,-0.00089041125408978,0.00089041403344972,-0.00089041125409818,0.00089041403344453,0.63949909152815,120135,2834,0.006399161936851,0.0063991619368513,0.0029914593464171,18.68061923631,6.4644953890479e-05,6.4644953890479e-05,6.4644953890479e-05,2366692.4587342,0.015915422124838
20419200,0.99954947790374,0.016233238826013,0.0060821516111567,0.0060821516111571,0.004068935603699,-0.001540396241924,0.0015403962419211,-2.3692805612817e-15,-5.2386634918381e-16,-4.3867777516568e-15,1.5940689493466e-16,-0.0016418623560434,0.0016418623560348,-0.0016418629146568,0.0016418629146552,-0.0016418623418522,0.001641862341851,-0.0016418629288281,0.0016418629288254,-0.0013169793949401,0.0013169793949432,-0.0013169807472525,0.0013169807472458,-1.0263451164494e-14,-1.6097896777289e-14,3.6521634061945e-09,-3.6522048785303e-09,-0.0015403962419365,0.0015403962419086,-0.0016418611939469,0.0016418635726354,-0.0016418640767587,0.0016418616980314,-0.0016418611939491,0.0016418635726416,-0.0016418640767599,0.00164186169803,-0.0013169759801655,0.0013169831364532,-0.0013169841620889,0.0013169770057302,-0.0015613769861323,0.0015613745291833,-0.0015613769861511,0.0015613745291778,1.1153671572898e-09,1.1153654060878e-09,-0.00071707912221682,0.00071708180651309,-2.4817794124013e-09,4.877366026507e-09,-0.00079006778610235,0.0007900685104038,-0.00079006534207077,0.00079007095444904,-0.00079006778610408,0.00079006851040471,-0.00079006534207744,0.00079007095444721,-0.00088955987215815,0.00088956489256603,-0.00088955987216648,0.00088956489256074,0.69004788769247,120135,2834,0.0063971149999292,0.0063971149999294,0.0029865062990705,18.601964816958,6.4015718535663e-05,6.4015718535663e-05,6.4015718535663e-05,2364675.474974,0.015906227374882
20919200,0.99959231222383,0.016233914284374,0.0060824001281847,0.0060824001281851,0.0040691140280047,-0.0015389615952426,0.0015389615952397,-2.4089264089518e-15,-5.5898292345539e-16,-4.3909246837944e-15,1.7902394270614e-16,-0.0016406253122818,0.0016406253122731,-0.0016406253019632,0.0016406253019615,-0.0016406252926273,0.0016406252926261,-0.0016406253215978,0.0016406253215951,-0.0013146064723297,0.0013146064723327,-0.0013146075993323,0.0013146075993253,-1.0284744631641e-14,-1.6144207805074e-14,3.6840361893634e-09,-3.6840776370306e-09,-0.0015389615952551,0.0015389615952272,-0.0016406240983309,0.0016406265290259,-0.0016406265159196,0.0016406240851857,-0.0016406240983331,0.0016406265290321,-0.0016406265159208,0.0016406240851842,-0.0013146029948034,0.001314610201819,-0.0013146110769203,0.0013146038698338,-0.0015602901709445,0.0015602876824563,-0.0015602901709633,0.0015602876824506,2.5399806318019e-09,2.5399788768888e-09,-0.00071175595806121,0.00071176221473138,-1.1255759517067e-09,6.3035033113007e-09,-0.00078570067965535,0.00078570439076865,-0.0007856982036968,0.00078570686674103,-0.00078570067965713,0.0007857043907696,-0.0007856982037035,0.00078570686673923,-0.00088498266776282,0.00088499056991882,-0.00088498266777098,0.00088499056991329,0.64466974006306,120135,2834,0.0063911646936021,0.0063911646936023,0.0029644385453214,17.278884851388,5.3431078811103e-05,5.3431078811103e-05,5.3431078811103e-05,2312855.5046629,0.015871723725256
21419200,0.99962669012036,0.016234453539413,0.0060825981812559,0.0060825981812563,0.0040692571769012,-0.0015344158989259,0.0015344158989231,-2.3573985713271e-15,-4.9857300423107e-16,-4.4068065515554e-15,2.1622868847964e-16,-0.0016370025803306,0.001637002580322,-0.0016370023868301,0.0016370023868286,-0.0016370025592094,0.0016370025592082,-0.0016370024079314,0.0016370024079289,-0.0013083568692959,0.001308356869299,-0.0013083579426072,0.0013083579426004,-1.0250510383356e-14,-1.6161736279242e-14,3.8532813492737e-09,-3.8533229806831e-09,-0.0015344158989385,0.0015344158989105,-0.0016370012992212,0.001637003850653,-0.0016370036679453,0.0016370011164744,-0.0016370012992234,0.0016370038506592,-0.0016370036679465,0.0016370011164729,-0.0013083532171935,0.0013083607530299,-0.0013083615947717,0.0013083540588641,-0.0015557901426616,0.001555787538541,-0.0015557901426805,0.0015557875385355,3.3007947175248e-09,3.3007929525999e-09,-0.00070707099592743,0.00070707918058325,-5.5382157261641e-10,7.2293332698898e-09,-0.00077865015619262,0.00077865546424199,-0.00077864755982258,0.00077865806062584,-0.00077865015619438,0.00077865546424289,-0.00077864755982928,0.00077865806062401,-0.00088178464093441,0.00088179426309593,-0.00088178464094265,0.00088179426309048,0.64095610021347,120135,2834,0.0063723622835308,0.0063723622835309,0.0029449695820734,15.233729387241,3.7069835097932e-05,3.7069835097932e-05,3.7069835097932e-05,2343826.6813014,0.015813739419371
21919200,0.99965592247682,0.016234899137298,0.0060827620949043,0.0060827620949047,0.0040693749474892,-0.0015322197111437,0.0015322197111405,-2.4678069631324e-15,-6.1098133493961e-16,-4.5148032523303e-15,1.1332006756149e-16,-0.0016348036164802,0.001634803616471,-0.0016348034216539,0.0016348034216518,-0.0016348035953818,0.0016348035953803,-0.001634803442732,0.0016348034427291,-0.0013061089692005,0.0013061089692034,-0.0013061100452573,0.0013061100452503,-1.0258157208574e-14,-1.616102611022e-14,3.8643891127573e-09,-3.8644306287271e-09,-0.0015322197111561,0.0015322197111281,-0.0016348023318624,0.0016348048905311,-0.0016348047062771,0.0016348021475691,-0.0016348023318642,0.0016348048905371,-0.001634804706278,0.0016348021475676,-0.0013061053063226,0.0013061128639886,-0.0013061137081969,0.0013061061504598,-0.0015537049871455,0.0015537023757064,-0.0015537049871638,0.0015537023757007,2.6600416476128e-09,2.6600398820193e-09,-0.00070399234459097,0.00070399885491915,-1.1807126908466e-09,6.5916620509402e-09,-0.00077548476190454,0.00077548859975631,-0.00077548216990891,0.00077549119176528,-0.00077548476190577,0.00077548859975665,-0.00077548216991545,0.00077549119176328,-0.00087886183624816,0.0008788699978512,-0.00087886183625666,0.00087886999784605,0.62311101531201,120135,2834,0.0063632691316598,0.0063632691316599,0.0029321782025465,13.997480387996,2.7179843103969e-05,2.7179843103969e-05,2.7179843103969e-05,2334845.1762989,0.01578227244988
22419200,0.99968428003998,0.016235350880237,0.0060829279962312,0.0060829279962316,0.0040694948877741,-0.0015337135026984,0.0015337135026958,-2.2295201249847e-15,-3.724592098621e-16,-4.3018097591353e-15,3.2025492231431e-16,-0.0016364522476289,0.0016364522476206,-0.0016364521762043,0.0016364521762029,-0.0016364522274401,0.0016364522274391,-0.0016364521963733,0.0016364521963708,-0.0013073025770461,0.0013073025770494,-0.001307303764697,0.0013073037646903,-1.0134866857363e-14,-1.6042968135928e-14,3.8605057270946e-09,-3.8605468268415e-09,-0.0015337135027109,0.0015337135026833,-0.001636450971124,0.0016364535219019,-0.0016364534527147,0.0016364509018984,-0.0016364509711265,0.001636453521908,-0.0016364534527161,0.0016364509018969,-0.0013072989221235,0.0013073064730097,-0.0013073074196813,0.0013072998687248,-0.0015552065653565,0.0015552039575585,-0.0015552065653756,0.0015552039575529,8.4591167511823e-10,8.459099102976e-10,-0.0007053061922379,0.00070530799949989,-2.9297662718132e-09,4.7606248425465e-09,-0.00077630706199508,0.00077630678803086,-0.00077630449982006,0.00077630935021988,-0.000776307061997,0.00077630678803188,-0.00077630449982664,0.00077630935021797,-0.00088028040807169,0.00088028444585901,-0.00088028040808011,0.00088028444585377,0.65096373206224,120135,2834,0.0063694589511322,0.0063694589511324,0.0029376187523645,14.849052767306,3.3992422138445e-05,3.3992422138445e-05,3.3992422138445e-05,2337887.5368806,0.015800372336505
22919200,0.99971110001317,0.016235736214964,0.0060830699424865,0.0060830699424869,0.0040695963299911,-0.0015352297668612,0.0015352297668585,-2.3127528763989e-15,-4.546919918247e-16,-4.3583374440181e-15,2.6175670939456e-16,-0.0016379433831467,0.0016379433831382,-0.0016379436739782,0.0016379436739767,-0.0016379433657194,0.0016379433657184,-0.0016379436913858,0.0016379436913832,-0.001308741226484,0.0013087412264872,-0.0013087426921998,0.001308742692193,-1.0125631845368e-14,-1.6029528921027e-14,3.8204052065381e-09,-3.8204463921782e-09,-0.0015352297668737,0.0015352297668461,-0.0016379421405816,0.0016379446488442,-0.0016379449165487,0.001637942408248,-0.0016379421405839,0.0016379446488504,-0.00163794491655,0.0016379424082465,-0.0013087376235259,0.0013087450985718,-0.0013087462952194,0.0013087388201031,-0.0015568615355081,0.0015568589578295,-0.0015568615355271,0.0015568589578238,7.8704953309355e-10,7.8704776752507e-10,-0.00070526415944987,0.00070526588661626,-2.9703207184616e-09,4.6906216089355e-09,-0.00077690914912032,0.00077690885088851,-0.00077690659832312,0.00077691140169983,-0.00077690914912214,0.00077690885088945,-0.00077690659832982,0.00077691140169792,-0.00088032542358301,0.00088032940797976,-0.00088032542359124,0.00088032940797449,0.58748017292925,120135,2834,0.006375729362783,0.0063757293627832,0.0029374594146206,15.356845871025,3.8054766968198e-05,3.8054766968198e-05,3.8054766968198e-05,2296797.9895108,0.015812952044924
23419200,0.99973615410362,0.016236106909538,0.0060832060864055,0.0060832060864059,0.0040696947367271,-0.0015351790022875,0.0015351790022848,-2.3034002209397e-15,-4.4692752314154e-16,-4.3388380397115e-15,2.8210902882164e-16,-0.0016381731574573,0.0016381731574489,-0.0016381735037219,0.0016381735037204,-0.0016381731410121,0.0016381731410112,-0.0016381735201473,0.0016381735201448,-0.0013083134407965,0.0013083134407997,-0.0013083148711844,0.0013083148711777,-1.0161748389091e-14,-1.6065150994562e-14,3.7954886527808e-09,-3.7955299596945e-09,-0.0015351790022999,0.0015351790022723,-0.0016381719303905,0.0016381744173025,-0.0016381747307941,0.0016381722438438,-0.0016381719303929,0.0016381744173087,-0.0016381747307955,0.0016381722438423,-0.0013083098678103,0.001308317296378,-0.0013083184442323,0.0013083110155939,-0.0015566902711534,0.0015566877120542,-0.0015566902711724,0.0015566877120486,9.1760166706111e-10,9.1759990207051e-10,-0.00070671290757834,0.0007067150324987,-2.8121291925894e-09,4.8002405193148e-09,-0.00077676935512491,0.0007767694808801,-0.00077676682239386,0.00077677201362516,-0.00077676935512673,0.00077676948088107,-0.00077676682240058,0.00077677201362335,-0.00088201980767646,0.0008820242119502,-0.00088201980768464,0.00088202421194476,0.60459639632209,120135,2834,0.0063755338856583,0.0063755338856585,0.002943453741185,15.705339460608,4.0842715684865e-05,4.0842715684865e-05,4.0842715684865e-05,2345652.2766273,0.015818638234735
23919200,0.99976084462658,0.016236537466957,0.006083363846164,0.0060833638461645,0.0040698097746284,-0.0015380794822188,0.001538079482216,-2.3312817221201e-15,-4.7427962872996e-16,-4.3594844678008e-15,2.6225669412037e-16,-0.0016411105408092,0.0016411105408007,-0.0016411108884195,0.0016411108884181,-0.0016411105247182,0.0016411105247172,-0.001641110904491,0.0016411109044884,-0.0013110543500736,0.0013110543500768,-0.0013110557274441,0.0013110557274373,-1.0149807577404e-14,-1.605535051271e-14,3.7734712041789e-09,-3.7735124241883e-09,-0.0015380794822312,0.0015380794822037,-0.0016411093233271,0.0016411117942108,-0.0016411121059071,0.0016411096349852,-0.0016411093233295,0.0016411117942171,-0.0016411121059084,0.0016411096349836,-0.0013110508012415,0.0013110581883205,-0.0013110592763377,0.0013110518891882,-0.0015597195790727,0.001559717035748,-0.0015597195790917,0.0015597170357423,1.4895928760511e-10,1.489575231558e-10,-0.00070889376498699,0.00070889390731307,-3.5263070583135e-09,4.0006639575211e-09,-0.00077925832975675,0.0007792567388269,-0.00077925582741735,0.00077925924118051,-0.00077925832975859,0.00077925673882789,-0.00077925582742408,0.00077925924117867,-0.00088429867254325,0.00088430136560902,-0.00088429867255139,0.00088430136560362,0.71228945632067,120135,2834,0.006387539825224,0.0063875398252241,0.0029525160027013,17.003048351009,5.1224386808076e-05,5.1224386808076e-05,5.1224386808076e-05,2311026.7376515,0.015852238293589
24419200,0.99978439004721,0.016236928736625,0.0060835074441635,0.006083507444164,0.004069913848297,-0.0015416224570352,0.0015416224570325,-2.2437549842372e-15,-3.8775286029864e-16,-4.3015156504731e-15,2.5752154465829e-16,-0.001643601499588,0.0016436014995797,-0.0016436019856559,0.0016436019856545,-0.001643601484163,0.0016436014841618,-0.0016436020010611,0.0016436020010586,-0.0013159827368853,0.0013159827368885,-0.0013159840660053,0.0013159840659985,-1.0198217863209e-14,-1.6049868717859e-14,3.4247969323179e-09,-3.424838165738e-09,-0.0015416224570477,0.0015416224570201,-0.0016436004037216,0.0016436026379915,-0.0016436030815277,0.0016436008472196,-0.0016436004037239,0.0016436026379978,-0.0016436030815291,0.0016436008472182,-0.0013159795376346,0.0013159862458743,-0.0013159872653177,0.0013159805570072,-0.001563484631627,0.0015634823240551,-0.0015634846316459,0.0015634823240496,3.5841780489786e-10,3.5841604134185e-10,-0.00070775908617619,0.00070775981027406,-2.989702463539e-09,3.8756914212139e-09,-0.00078233007222096,0.00078232919886347,-0.00078232779160642,0.00078233147949139,-0.00078233007222255,0.00078232919886427,-0.00078232779161312,0.00078233147948956,-0.00088201273275758,0.000882015834583,-0.00088201273276576,0.00088201583457756,0.6789410524186,120135,2834,0.0064021696959217,0.0064021696959219,0.0029478635491187,17.880797549304,5.8246380394436e-05,5.8246380394436e-05,5.8246380394436e-05,2208111.7628358,0.015877247313275
24919200,0.99980619800765,0.016237253363985,0.0060836265029551,0.0060836265029555,0.0040700003580744,-0.0015419087484038,0.001541908748401,-2.3088706420573e-15,-4.5198619213209e-16,-4.3397203656982e-15,2.1908154250338e-16,-0.0016441878288609,0.0016441878288525,-0.0016441883151315,0.00164418831513,-0.00164418781341,0.0016441878134087,-0.0016441883305627,0.0016441883305601,-0.0013159129541875,0.0013159129541906,-0.0013159142836585,0.0013159142836516,-1.0198453150139e-14,-1.6049359255022e-14,3.4023542298576e-09,-3.4023955182737e-09,-0.0015419087484163,0.0015419087483886,-0.0016441867405035,0.0016441889597927,-0.0016441894034943,0.0016441871841669,-0.0016441867405059,0.0016441889597988,-0.0016441894034956,0.0016441871841654,-0.0013159097768463,0.0013159164408141,-0.0013159174610613,0.0013159107970226,-0.0015635839168372,0.0015635816240054,-0.0015635839168561,0.0015635816239997,6.9893310681244e-10,6.989313427743e-10,-0.00070820238711907,0.00070820399328884,-2.6383749922639e-09,4.1972348610767e-09,-0.00078184983401878,0.00078184975475393,-0.00078184756301196,0.00078185202577451,-0.00078184983402048,0.0007818497547548,-0.00078184756301856,0.00078185202577259,-0.0008827642802601,0.00088276814428924,-0.00088276428026846,0.00088276814428393,0.60789483588396,120135,2834,0.0064033615877267,0.0064033615877269,0.0029496984345574,18.351423611486,6.2011388891886e-05,6.2011388891886e-05,6.2011388891886e-05,2220985.4849247,0.015881527864733
25419200,0.99982761595317,0.016237640372016,0.0060837676780689,0.0060837676780693,0.0040701050158775,-0.0015440015402503,0.0015440015402479,-2.2209909737797e-15,-3.641653455869e-16,-4.2384587532886e-15,3.2090196137124e-16,-0.0016467636839165,0.0016467636839086,-0.0016467641043576,0.0016467641043565,-0.0016467636680018,0.0016467636680011,-0.0016467641202532,0.0016467641202508,-0.0013173602924684,0.0013173602924717,-0.0013173615739231,0.0013173615739165,-1.006633953906e-14,-1.5917546875549e-14,3.3865973270763e-09,-3.3866382960836e-09,-0.0015440015402627,0.0015440015402355,-0.0016467625974653,0.0016467648089349,-0.0016467651908143,0.0016467629793074,-0.0016467625974681,0.0016467648089413,-0.0016467651908158,0.001646762979306,-0.001317357128566,0.00131736376096,-0.001317364737887,0.0013173581054229,-0.0015655242549727,0.0015655219718822,-0.0015655242549918,0.0015655219718766,-1.28016686146e-10,-1.2801844991835e-10,-0.00071243315891706,0.00071243260296944,-3.4120739064402e-09,3.3380423171721e-09,-0.00078386757305416,0.00078386561450495,-0.00078386533143622,0.00078386785613753,-0.00078386757305633,0.00078386561450618,-0.00078386533144305,0.00078386785613574,-0.00088744812890082,0.00088745007912168,-0.00088744812890883,0.00088745007911618,0.7372586897946,120135,2834,0.0064120478986131,0.0064120478986133,0.0029672334475402,19.918383568201,7.4547068545606e-05,7.4547068545606e-05,7.4547068545606e-05,2270242.9385004,0.015916983223512
25919200,0.99984755069557,0.016237996347042,0.0060838979651957,0.0060838979651962,0.0040702004166502,-0.0015476797640189,0.0015476797640162,-2.2275790078139e-15,-3.7045927095886e-16,-4.3251031651848e-15,2.2125794660396e-16,-0.0016498039135859,0.0016498039135774,-0.0016498043831292,0.0016498043831278,-0.0016498038973562,0.0016498038973552,-0.0016498043993391,0.0016498043993367,-0.0013215253137784,0.0013215253137817,-0.0013215266362537,0.001321526636247,-1.0257921921644e-14,-1.6086228360773e-14,3.1502787481799e-09,-3.1503200445726e-09,-0.0015476797640315,0.0015476797640037,-0.0016498029032293,0.0016498049589823,-0.0016498053934912,0.0016498033376997,-0.0016498029032315,0.0016498049589886,-0.0016498053934925,0.0016498033376983,-0.0013215223789599,0.0013215285474036,-0.001321529571134,0.00132152340262,-0.0015697157658282,0.0015697136397608,-0.0015697157658471,0.0015697136397555,3.9009627900034e-10,3.9009451305687e-10,-0.00071124439177528,0.00071124521124171,-2.6927913654545e-09,3.6289131350624e-09,-0.00078625188795739,0.00078625127089828,-0.00078624978705912,0.00078625337181015,-0.00078625188795909,0.00078625127089913,-0.00078624978706576,0.00078625337180826,-0.00088584087879087,0.00088584386952275,-0.00088584087879921,0.00088584386951741,0.72914636768882,120135,2834,0.0064272413798091,0.0064272413798093,0.0029623623208705,20.733526840988,8.1068214727904e-05,8.1068214727904e-05,8.1068214727904e-05,2147805.2905611,0.015942918788194
26419200,0.99986485679882,0.016238332476988,0.0060840203237897,0.0060840203237901,0.0040702918294085,-0.0015468651645997,0.0015468651645969,-2.3546339499021e-15,-4.9516134374908e-16,-4.352690557703e-15,1.9108239785803e-16,-0.0016494737237099,0.0016494737237014,-0.001649473919792,0.0016494739197905,-0.0016494737047479,0.0016494737047468,-0.0016494739387342,0.0016494739387316,-0.0013197463416155,0.0013197463416186,-0.0013197475618026,0.0013197475617958,-1.0251510352807e-14,-1.6084348133286e-14,3.1277631671796e-09,-3.1278045981669e-09,-0.0015468651646122,0.0015468651645844,-0.0016494727004914,0.0016494747564264,-0.001649474943016,0.0016494728870424,-0.0016494727004937,0.0016494747564326,-0.0016494749430173,0.0016494728870409,-0.0013197434131467,0.0013197495314167,-0.0013197504903331,0.0013197443719922,-0.0015688533465696,0.0015688512302293,-0.0015688533465885,0.0015688512302237,1.5433040678963e-09,1.543302302174e-09,-0.00070943215498442,0.00070943590681819,-1.5528328173469e-09,4.7502360294471e-09,-0.00078365402885724,0.00078365595558943,-0.0007836519293703,0.00078365805509003,-0.00078365402885892,0.00078365595559029,-0.00078365192937704,0.00078365805508824,-0.00088495608299933,0.00088496150300379,-0.0008849560830075,0.00088496150299827,0.7920419595447,120135,2834,0.0064238725202916,0.0064238725202918,0.0029548496884585,20.399232772331,7.839386217865e-05,7.839386217865e-05,7.839386217865e-05,2142815.9511423,0.015928438073011
26919200,0.99988096835867,0.016238627478843,0.0060841279279736,0.006084127927974,0.0040703716228953,-0.0015494805101958,0.0015494805101929,-2.4359255841455e-15,-5.7274720884827e-16,-4.3955716006578e-15,1.6284796628288e-16,-0.0016517282266549,0.0016517282266463,-0.0016517287071748,0.0016517287071732,-0.0016517282100268,0.0016517282100255,-0.0016517287237831,0.0016517287237804,-0.0013227353772957,0.0013227353772986,-0.0013227367071881,0.001322736707181,-1.0209099883712e-14,-1.6059672071866e-14,2.9320998601464e-09,-2.9321411603484e-09,-0.0015494805102083,0.0015494805101805,-0.001651727286098,0.001651729198606,-0.0016517296477371,0.0016517277351905,-0.0016517272861003,0.0016517291986122,-0.0016517296477384,0.0016517277351891,-0.0013227326538543,0.0013227383936941,-0.0013227394306909,0.0013227336907804,-0.0015716041259226,0.0015716021445209,-0.0015716041259416,0.0015716021445153,3.1900428255709e-10,3.1900251304514e-10,-0.00070913603208757,0.00070913667904486,-2.550036468401e-09,3.3373558406729e-09,-0.00078519740907135,0.00078519678800571,-0.00078519545214067,0.00078519874494994,-0.00078519740907308,0.00078519678800657,-0.00078519545214748,0.00078519874494821,-0.00088431115015849,0.00088431384847825,-0.00088431115016649,0.00088431384847247,0.74688297492095,120135,2834,0.0064346829162196,0.0064346829162197,0.0029536434650657,21.286138689853,8.5489109518828e-05,8.5489109518828e-05,8.5489109518828e-05,2083162.8075287,0.015949182846328
27419200,0.99989592446649,0.016238893743684,0.006084224893798,0.0060842248937984,0.0040704439560874,-0.0015506241035664,0.0015506241035636,-2.3128705198638e-15,-4.5792718710936e-16,-4.3394850787684e-15,2.0928772405075e-16,-0.0016536870575051,0.0016536870574967,-0.0016536875578923,0.0016536875578909,-0.001653687040685,0.0016536870406839,-0.0016536875746927,0.0016536875746902,-0.0013224582692279,0.001322458269231,-0.001322459608946,0.0013224596089392,-1.0145454769203e-14,-1.5984863006128e-14,2.7428087314394e-09,-2.7428498191002e-09,-0.0015506241035788,0.0015506241035512,-0.0016536861787231,0.0016536879661499,-0.0016536884366798,0.0016536866492148,-0.0016536861787254,0.0016536879661562,-0.0016536884366811,0.0016536866492133,-0.0013224557307097,0.0013224610989884,-0.0013224621475253,0.0013224567791765,-0.0015727458621888,0.0015727440064588,-0.0015727458622077,0.0015727440064533,2.1121875432214e-10,2.1121699358348e-10,-0.00071104345542227,0.00071104384157914,-2.4695412883559e-09,3.0388867688011e-09,-0.0007848185408111,0.0007848178200291,-0.00078481670995532,0.00078481965089836,-0.0007848185408127,0.00078481782002997,-0.00078481670996209,0.00078481965089662,-0.0008874169464238,0.0008874192950107,-0.00088741694643191,0.00088741929500507,0.72588280929977,120135,2834,0.0064394353112292,0.0064394353112293,0.0029615514018,22.249991808076,9.3199934464612e-05,9.3199934464612e-05,9.3199934464612e-05,2102212.0728848,0.015966866877415
27919200,0.99990948033632,0.016239148209078,0.0060843174768128,0.0060843174768132,0.0040705132554522,-0.0015517324004419,0.0015517324004391,-2.326281874862e-15,-4.7351494620813e-16,-4.3441319956318e-15,2.0984653050901e-16,-0.0016550955415524,0.0016550955415439,-0.0016550959699793,0.0016550959699778,-0.0016550955237455,0.0016550955237445,-0.0016550959877662,0.0016550959877636,-0.0013230264880151,0.0013230264880183,-0.0013230278021895,0.0013230278021827,-1.0227511085969e-14,-1.606660683244e-14,2.6374388105935e-09,-2.6374801757433e-09,-0.0015517324004544,0.0015517324004266,-0.0016550946905278,0.0016550964131763,-0.0016550968210094,0.0016550950983222,-0.0016550946905301,0.0016550964131825,-0.0016550968210106,0.0016550950983208,-0.0013230240469977,0.001323029206731,-0.0013230302432686,0.0013230250834646,-0.0015739520574167,0.0015739502700953,-0.0015739520574355,0.0015739502700898,4.9625108783067e-10,4.9624932774721e-10,-0.00071234860455902,0.00071234972189394,-2.0917106366612e-09,3.2147373866413e-09,-0.00078516643295645,0.00078516641311319,-0.0007851646676857,0.00078516817839775,-0.00078516643295815,0.00078516641311407,-0.00078516466769241,0.00078516817839594,-0.00088909303675219,0.00088909592066926,-0.00088909303676037,0.00088909592066377,0.76533978020323,120135,2834,0.0064440318907794,0.0064440318907795,0.0029669640534042,22.917865402407,9.8542923219257e-05,9.8542923219257e-05,9.8542923219257e-05,2106030.771326,0.015981704042996
28419200,0.99992160444049,0.016239393746636,0.0060844067257277,0.0060844067257282,0.0040705802951805,-0.0015534451106585,0.0015534451106557,-2.3285759224275e-15,-4.7575017204117e-16,-4.3560139855864e-15,1.9493522133339e-16,-0.0016564351675551,0.0016564351675466,-0.0016564355607923,0.0016564355607908,-0.0016564351492273,0.0016564351492262,-0.0016564355791003,0.0016564355790977,-0.0013252354551544,0.0013252354551576,-0.0013252367540999,0.0013252367540931,-1.0263745273157e-14,-1.6098203638319e-14,2.5736932371051e-09,-2.5737346596728e-09,-0.001553445110671,0.0015534451106432,-0.0016564343337707,0.0016564360168634,-0.0016564363945824,0.0016564347114509,-0.0016564343337729,0.0016564360168696,-0.0016564363945837,0.0016564347114494,-0.0013252330732637,0.0013252381069703,-0.0013252391360524,0.001325234102275,-0.0015757821721814,0.0015757804264542,-0.0015757821722004,0.0015757804264487,6.3827162327548e-10,6.3826986244089e-10,-0.00071216958841419,0.00071217106831971,-1.8930516497039e-09,3.2909081503238e-09,-0.00078643699088707,0.00078643731981543,-0.00078643526540222,0.00078643904531395,-0.00078643699088874,0.00078643731981629,-0.00078643526540892,0.00078643904531214,-0.00088845251491172,0.00088845565765337,-0.00088845251491992,0.00088845565764793,0.82558911402084,120135,2834,0.006451109572172,0.0064511095721721,0.0029662392573489,23.440906554605,0.00010272725243684,0.00010272725243684,0.00010272725243684,2064994.9743401,0.015995353411207
28919200,0.9999324105939,0.016239596266416,0.0060844804236599,0.0060844804236604,0.0040706354190955,-0.0015553161620656,0.0015553161620628,-2.3262230531296e-15,-4.7157382903734e-16,-4.356102218185e-15,1.847002398874e-16,-0.0016579239669628,0.0016579239669543,-0.0016579243647283,0.0016579243647268,-0.001657923948572,0.0016579239485709,-0.0016579243830993,0.0016579243830967,-0.0013275515556037,0.0013275515556069,-0.0013275528534369,0.0013275528534301,-1.0246804614212e-14,-1.607662755113e-14,2.5287270973216e-09,-2.5287684255295e-09,-0.0015553161620781,0.0015553161620503,-0.0016579231476161,0.00165792480113,-0.0016579251840805,0.001657923530528,-0.0016579231476184,0.0016579248011362,-0.0016579251840817,0.0016579235305265,-0.0013275492172563,0.0013275541626826,-0.0013275551918462,0.0013275502463491,-0.0015777182297079,0.0015777165138834,-0.0015777182297269,0.0015777165138779,6.1571649031489e-10,6.1571472830828e-10,-0.0007113606677481,0.000711362091977,-1.8715695138213e-09,3.2229516773474e-09,-0.00078745961408058,0.00078745991714322,-0.0007874579182071,0.00078746161303033,-0.00078745961408223,0.00078745991714408,-0.00078745791821379,0.00078746161302852,-0.00088730032795749,0.00088730339386041,-0.00088730032796573,0.0008873033938549,0.76400561131051,120135,2834,0.0064588380107356,0.0064588380107358,0.0029629093792188,23.983163029739,0.00010706530423791,0.00010706530423791,0.00010706530423791,2011122.5752764,0.016007678914273
29419200,0.99994212346184,0.01623974495157,0.0060845346726384,0.0060845346726389,0.0040706756062923,-0.0015559430147482,0.0015559430147454,-2.2627544038179e-15,-4.1034040555875e-16,-4.298486331252e-15,2.1261115193407e-16,-0.0016594381401808,0.0016594381401723,-0.0016594385974734,0.0016594385974719,-0.0016594381221956,0.0016594381221946,-0.0016594386154386,0.0016594386154361,-0.0013266837490061,0.0013266837490093,-0.001326685074654,0.0013266850746473,-1.0244628210111e-14,-1.6042610093097e-14,2.4458257395642e-09,-2.4458671113854e-09,-0.0015559430147607,0.0015559430147329,-0.0016594373516993,0.0016594389476105,-0.0016594393859604,0.0016594377900106,-0.0016594373517015,0.0016594389476167,-0.0016594393859617,0.0016594377900091,-0.0013266814946266,0.001326686278426,-0.0013266873290953,0.001326682545225,-0.0015783044781405,0.0015783028182377,-0.0015783044781594,0.0015783028182323,3.50272945415e-10,3.5027118548513e-10,-0.00071333752969817,0.000713338286691,-2.0476607386053e-09,2.8757185489488e-09,-0.00078676598769886,0.00078676577892084,-0.00078676434973889,0.00078676741689448,-0.0007867659877005,0.00078676577892166,-0.00078676434974557,0.0007867674168927,-0.00089056277510379,0.00089056522616651,-0.00089056277511214,0.00089056522616108,0.62417410960896,120135,2834,0.0064614545298292,0.0064614545298293,0.0029710991304712,24.777703088141,0.00011342162470513,0.00011342162470513,0.00011342162470513,2042103.6219849,0.016021309037222
29919200,0.99995074189945,0.016239890192512,0.0060845874693825,0.0060845874693829,0.0040707152537468,-0.0015552885522814,0.0015552885522787,-2.2369316632732e-15,-3.8987044266677e-16,-4.2859867131068e-15,2.2237555952048e-16,-0.0016601846356918,0.0016601846356832,-0.001660185065403,0.0016601850654015,-0.0016601846172598,0.0016601846172588,-0.0016601850838149,0.0016601850838124,-0.0013239558763396,0.0013239558763429,-0.0013239572004713,0.0013239572004646,-1.0231922715902e-14,-1.6018505590503e-14,2.3829362502378e-09,-2.3829778213159e-09,-0.001555288552294,0.0015552885522662,-0.0016601838651539,0.0016601854214271,-0.0016601858359468,0.0016601842796347,-0.0016601838651561,0.0016601854214333,-0.001660185835948,0.0016601842796333,-0.001323953681537,0.0013239583412433,-0.0013239593953359,0.0013239547355584,-0.0015775357550681,0.0015775341361711,-0.0015775357550869,0.0015775341361658,4.4847864557676e-10,4.4847688839773e-10,-0.00071759579022527,0.00071759680489779,-1.8910880908657e-09,2.9093982373956e-09,-0.00078561992561811,0.00078561999731203,-0.00078561832809471,0.00078562159484929,-0.00078561992561979,0.00078561999731286,-0.00078561832810141,0.00078562159484743,-0.0008965561677981,0.00089655878715576,-0.00089655616780644,0.00089655878715041,0.68688558505508,120135,2834,0.0064587920869026,0.0064587920869027,0.0029887215833497,25.464431548825,0.0001189154523906,0.0001189154523906,0.0001189154523906,2144335.6725932,0.016033790443446
30419200,0.99995833153001,0.016239994765544,0.0060846257837383,0.0060846257837387,0.0040707431980671,-0.0015580025144434,0.0015580025144406,-2.3302229309361e-15,-4.7610310243585e-16,-4.3147799511402e-15,1.8875893942632e-16,-0.0016617269677191,0.0016617269677106,-0.0016617273939319,0.0016617273939304,-0.0016617269491523,0.0016617269491512,-0.0016617274124788,0.0016617274124762,-0.0013285389910365,0.0013285389910397,-0.0013285403065589,0.0013285403065521,-1.0268451011753e-14,-1.6048204016876e-14,2.3400783421121e-09,-2.3401198074517e-09,-0.001558002514456,0.0015580025144282,-0.0016617262100788,0.0016617277387463,-0.0016617281515778,0.0016617266228717,-0.0016617262100811,0.0016617277387525,-0.0016617281515791,0.0016617266228702,-0.0013285368367373,0.0013285414121098,-0.0013285424609195,0.0013285378854764,-0.0015805291264148,0.0015805275359639,-0.0015805291264335,0.0015805275359583,4.6626185641189e-10,4.6626009157426e-10,-0.00071800090696572,0.00071800196283297,-1.8333877183225e-09,2.883457522602e-09,-0.00078959086589004,0.00078959098626979,-0.00078958929570061,0.00078959255647313,-0.00078959086589173,0.00078959098627066,-0.00078958929570734,0.00078959255647135,-0.00089516522572249,0.00089516785204602,-0.00089516522573064,0.00089516785204057,0.56251928746541,120135,2834,0.0064699997596643,0.0064699997596645,0.0029904290969474,26.129764521093,0.00012423811616874,0.00012423811616874,0.00012423811616874,2078323.3160589,0.016058310858396
30919200,0.99996508116344,0.016240106721315,0.0060846664819607,0.0060846664819612,0.0040707737573936,-0.0015579903882652,0.0015579903882625,-2.2476372185788e-15,-4.1404617470299e-16,-4.257928746729e-15,2.5540396229015e-16,-0.0016628828516955,0.0016628828516872,-0.0016628833577442,0.0016628833577427,-0.0016628828337277,0.0016628828337267,-0.0016628833756923,0.0016628833756898,-0.0013269083378224,0.0013269083378256,-0.0013269096873455,0.0013269096873389,-1.0120161424251e-14,-1.590556912795e-14,2.2407840434075e-09,-2.2408250211867e-09,-0.0015579903882776,0.0015579903882502,-0.0016628821318812,0.0016628835909813,-0.001662884077564,0.0016628826184255,-0.0016628821318835,0.0016628835909875,-0.0016628840775651,0.0016628826184241,-0.0013269062848855,0.0013269106668498,-0.0013269117403441,0.0013269073583098,-0.0015802173681732,0.0015802158448275,-0.0015802173681919,0.001580215844822,1.1707371210179e-10,1.170719660318e-10,-0.00072281476885284,0.00072281494931742,-2.0737560451469e-09,2.4366190641366e-09,-0.00078976765084536,0.00078976708242308,-0.00078976615082677,0.00078976858245521,-0.00078976765084705,0.00078976708242402,-0.00078976615083347,0.00078976858245344,-0.00090149927227813,0.00090150109820253,-0.00090149927228631,0.0009015010981971,0.67617106509292,120135,2834,0.0064699883974414,0.0064699883974415,0.0030103697115852,27.118582048135,0.00013214865638508,0.00013214865638508,0.00013214865638508,2172697.0260664,0.016078536103522
31419200,0.9999711196494,0.016240210251143,0.0060847042357738,0.0060847042357743,0.0040708017795945,-0.0015626385517857,0.0015626385517829,-2.3599279058224e-15,-5.2339577532422e-16,-4.3367792790758e-15,2.0728778514751e-16,-0.0016658615313843,0.0016658615313758,-0.0016658621167152,0.0016658621167136,-0.0016658615138799,0.0016658615138789,-0.0016658621341997,0.0016658621341971,-0.001334165439648,0.0013341654396512,-0.0013341668099197,0.0013341668099128,-1.0291332665675e-14,-1.6110327463716e-14,2.1108052037811e-09,-2.1108466146327e-09,-0.0015626385517983,0.0015626385517705,-0.0016658608579365,0.0016658622280303,-0.0016658627901685,0.0016658614200363,-0.0016658608579387,0.0016658622280366,-0.00166586279017,0.0016658614200347,-0.0013341635159949,0.001334167644277,-0.0013341687336339,0.0013341646052811,-0.0015851215072493,0.0015851200716609,-0.0015851215072681,0.0015851200716552,-2.3695912136015e-10,-2.3696086968456e-10,-0.00072344202063041,0.00072344130587105,-2.2926808405858e-09,1.9534745611931e-09,-0.0007959474491363,0.00079594617682409,-0.00079594603763548,0.00079594758833855,-0.00079594744913801,0.00079594617682508,-0.00079594603764222,0.0007959475883369,-0.00089974797555123,0.0008997489650287,-0.00089974797555938,0.00089974896502295,0.69952705654839,120135,2834,0.0064891857253439,0.0064891857253441,0.0030130244975477,28.4354391207,0.0001426835129656,0.0001426835129656,0.0001426835129656,2063715.9464146,0.016120261503508
31919200,0.9999763208928,0.016240302035626,0.0060847375884999,0.0060847375885003,0.0040708268586258,-0.0015645078867481,0.0015645078867453,-2.3502223199684e-15,-5.1269022001864e-16,-4.3548963726698e-15,1.9655281897571e-16,-0.0016676054508569,0.0016676054508484,-0.0016676059199755,0.001667605919974,-0.001667605432095,0.0016676054320939,-0.0016676059387176,0.0016676059387149,-0.0013361719299498,0.001336171929953,-0.0013361732568421,0.0013361732568352,-1.0214746770027e-14,-1.6047066528647e-14,2.0851680418891e-09,-2.0852093892753e-09,-0.0015645078867606,0.0015645078867329,-0.0016676047766765,0.0016676061365444,-0.0016676065941614,0.001667605234255,-0.0016676047766788,0.0016676061365506,-0.0016676065941627,0.0016676052342535,-0.0013361700243849,0.0013361740997457,-0.0013361751624687,0.001336171087037,-0.0015868840439978,0.0015868826232166,-0.0015868840440166,0.001586882623211,2.5652965009182e-10,2.5652790354275e-10,-0.00072410325136797,0.00072410378725003,-1.7898041656084e-09,2.4171468607344e-09,-0.00079750399411455,0.00079750382064744,-0.00079750259342474,0.000797505221351,-0.00079750399411627,0.00079750382064836,-0.00079750259343152,0.00079750522134924,-0.00090041898365517,0.00090042100089623,-0.00090041898366331,0.00090042100089064,0.71926751588325,120135,2834,0.0064969145630774,0.0064969145630775,0.0030157948980813,29.268229649309,0.00014934583719447,0.00014934583719447,0.00014934583719447,2035273.1567934,0.016138784572444
32419200,0.99998059179911,0.016240384759951,0.0060847675706231,0.0060847675706235,0.0040708496187041,-0.0015647496325955,0.0015647496325926,-2.3388109038735e-15,-5.0121998219124e-16,-4.3454848954781e-15,2.0464080718734e-16,-0.0016678646041187,0.0016678646041102,-0.0016678650735562,0.0016678650735546,-0.0016678645853542,0.0016678645853531,-0.0016678650923008,0.0016678650922982,-0.0013363713103075,0.0013363713103106,-0.0013363726352952,0.0013363726352883,-1.02342755852e-14,-1.6068211103283e-14,2.0835976945215e-09,-2.0836390985095e-09,-0.001564749632608,0.0015647496325802,-0.0016678639304346,0.0016678652892772,-0.0016678657472458,0.0016678643883646,-0.0016678639304368,0.0016678652892834,-0.0016678657472471,0.0016678643883631,-0.0013363694062301,0.0013363734784969,-0.0013363745394343,0.0013363704670967,-0.0015871251533471,0.0015871237336032,-0.0015871251533659,0.0015871237335976,9.3591818520149e-10,9.3591643877759e-10,-0.00072318342399341,0.00072318572429746,-1.1350471392214e-09,3.1036428442092e-09,-0.00079705756962216,0.00079705894640408,-0.00079705615755922,0.00079706035848072,-0.00079705756962385,0.00079705894640497,-0.00079705615756596,0.00079706035847896,-0.00089956199403268,0.00089956556145955,-0.00089956199404085,0.00089956556145399,0.78912843059544,120135,2834,0.0064979093723339,0.0064979093723341,0.0030119906751687,29.299062016515,0.00014959249613212,0.00014959249613212,0.00014959249613212,2010704.050432,0.016136941507287
32919200,0.99998407137348,0.016240443752722,0.0060847890154837,0.0060847890154842,0.0040708657217539,-0.0015652996663172,0.0015652996663144,-2.3483988462625e-15,-5.0957266819889e-16,-4.3578374592923e-15,1.9014125013886e-16,-0.0016682778817955,0.0016682778817869,-0.001668278226023,0.0016682782260215,-0.0016682778621673,0.0016682778621662,-0.0016682782456313,0.0016682782456286,-0.0013369938838558,0.001336993883859,-0.0013369951016158,0.0013369951016089,-1.0265039351271e-14,-1.6102847108596e-14,2.0970491753106e-09,-2.0970906056046e-09,-0.0015652996663297,0.0015652996663019,-0.001668277197079,0.001668278570036,-0.0016682789107451,0.0016682775377493,-0.0016682771970813,0.0016682785700423,-0.0016682789107464,0.0016682775377478,-0.0013369919626079,0.0013369960605289,-0.0013369970229255,0.0013369929249335,-0.0015877865628947,0.0015877851332288,-0.0015877865629136,0.0015877851332232,1.198100227049e-09,1.1980984810609e-09,-0.00072096721117249,0.00072097017955524,-8.8587887003802e-10,3.3715735140376e-09,-0.00079631912981979,0.00079632107268745,-0.00079631771091506,0.00079632249160566,-0.00079631912982145,0.00079632107268831,-0.00079631771092179,0.0007963224916039,-0.00089735242811821,0.0008973565830782,-0.00089735242812639,0.00089735658307264,0.69092321609737,120135,2834,0.0065001703233826,0.0065001703233828,0.0030028187928466,29.174750712549,0.0001485980057004,0.0001485980057004,0.0001485980057004,1952009.6039893,0.016132220837724
33419200,0.99998694671519,0.016240498530681,0.0060848088216698,0.0060848088216703,0.0040708808873405,-0.0015645656952532,0.0015645656952504,-2.3198114842927e-15,-4.8192645394823e-16,-4.3343675880454e-15,2.1572870375383e-16,-0.0016678637976393,0.0016678637976308,-0.0016678640747469,0.0016678640747454,-0.0016678637773349,0.0016678637773338,-0.0016678640950316,0.0016678640950289,-0.0013358095287831,0.0013358095287862,-0.0013358107181695,0.0013358107181627,-1.0182041886786e-14,-1.6017653709358e-14,2.1104225542387e-09,-2.1104637827286e-09,-0.0015645656952657,0.001564565695238,-0.0016678631035058,0.0016678644889731,-0.001667864768886,0.0016678633833802,-0.001667863103508,0.0016678644889793,-0.0016678647688872,0.0016678633833787,-0.0013358075912793,0.0013358117144269,-0.0013358126557349,0.0013358085325167,-0.0015868710873843,0.0015868696477969,-0.0015868710874032,0.0015868696477913,1.0284259543397e-09,1.0284242093169e-09,-0.00072199267796627,0.00072199517226668,-1.0621634793554e-09,3.2089570527118e-09,-0.00079541227901126,0.00079541379448537,-0.00079541085502986,0.0007954152184805,-0.00079541227901292,0.00079541379448624,-0.00079541085503655,0.00079541521847871,-0.00089864658527022,0.00089865030962843,-0.00089864658527844,0.00089865030962292,0.77567308772674,120135,2834,0.0064971508681322,0.0064971508681323,0.0030070466944432,29.315947014205,0.00014972757611364,0.00014972757611364,0.00014972757611364,2020704.3667488,0.016130372751345
33919200,0.9999893898394,0.016240544286548,0.0060848254183479,0.0060848254183483,0.0040708934498515,-0.0015672190655079,0.001567219065505,-2.3859271115645e-15,-5.5221842422385e-16,-4.3748075291036e-15,1.8802366777072e-16,-0.0016702202106295,0.001670220210621,-0.0016702206585601,0.0016702206585585,-0.0016702201917293,0.0016702201917281,-0.0016702206774405,0.0016702206774378,-0.0013385824169494,0.0013385824169525,-0.0013385837372896,0.0013385837372826,-1.0255980804473e-14,-1.6105051085384e-14,2.1060764779836e-09,-2.1061179051466e-09,-0.0015672190655204,0.0015672190654926,-0.0016702195283196,0.0016702209029871,-0.0016702213408756,0.0016702199661693,-0.0016702195283218,0.0016702209029933,-0.0016702213408769,0.0016702199661678,-0.0013385804896523,0.0013385846055882,-0.0013385856646484,0.0013385815486416,-0.0015898323718886,0.0015898309368619,-0.0015898323719073,0.0015898309368563,3.5530204203293e-10,3.5530030005502e-10,-0.00072181416157155,0.00072181494643355,-1.7146105003997e-09,2.5363544137313e-09,-0.00079720807671292,0.00079720810498223,-0.00079720666100086,0.00079720952070797,-0.00079720807671462,0.00079720810498312,-0.00079720666100764,0.00079720952070628,-0.00089831271495411,0.00089831495592239,-0.00089831271496217,0.00089831495591671,0.76303060755972,120135,2834,0.0065081176027285,0.0065081176027287,0.003006334961239,30.068905735348,0.00015575124588279,0.00015575124588279,0.00015575124588279,1947530.497182,0.016151944723654
34419200,0.99999151207865,0.016240582221104,0.0060848391615644,0.0060848391615648,0.0040709038979753,-0.0015696594360967,0.001569659436094,-2.2522841354422e-15,-4.1828133943926e-16,-4.3176622160301e-15,2.4946296731288e-16,-0.0016729805983242,0.0016729805983157,-0.0016729812090904,0.0016729812090889,-0.0016729805807513,0.0016729805807503,-0.0016729812266434,0.0016729812266409,-0.0013404576650973,0.0013404576651006,-0.001340459046218,0.0013404590462114,-1.0203452997397e-14,-1.6058758267061e-14,1.9816518536408e-09,-1.9816930992096e-09,-0.0015696594361092,0.0015696594360815,-0.0016729799675439,0.0016729812518401,-0.0016729818398761,0.0016729805555416,-0.0016729799675462,0.0016729812518463,-0.0016729818398774,0.0016729805555401,-0.001340455867894,0.0013404597428668,-0.0013404608434831,0.0013404569684399,-0.001592228669536,0.0015922273199629,-0.001592228669555,0.0015922273199574,-3.4724489880318e-10,-3.4724664076525e-10,-0.00072436861720125,0.00072436762561087,-2.2740726175543e-09,1.7135315976977e-09,-0.00079895650185991,0.00079895507761419,-0.00079895517637633,0.00079895640311137,-0.00079895650186154,0.00079895507761502,-0.00079895517638307,0.0007989564031096,-0.00090138517249445,0.000901385846323,-0.00090138517250267,0.00090138584631751,0.72790058071018,120135,2834,0.0065182253066448,0.006518225306645,0.0030169408387983,31.477738378059,0.00016702190702447,0.00016702190702447,0.00016702190702447,1943832.9882664,0.016183261335039
34919200,0.99999338004791,0.016240617002077,0.0060848517434288,0.0060848517434292,0.0040709135152185,-0.0015731780233129,0.0015731780233101,-2.2938711002831e-15,-4.646916863409e-16,-4.3257207933755e-15,2.2558134393891e-16,-0.0016768958090176,0.0016768958090092,-0.0016768965948732,0.0016768965948717,-0.0016768957926714,0.0016768957926703,-0.0016768966111996,0.0016768966111971,-0.0013433686265845,0.0013433686265877,-0.0013433700720085,0.0013433700720017,-1.017710086126e-14,-1.6012848594202e-14,1.7440512691706e-09,-1.7440924609703e-09,-0.0015731780233254,0.0015731780232977,-0.0016768952666076,0.001676896385812,-0.0016768971372888,0.0016768960180458,-0.0016768952666099,0.0016768963858183,-0.00167689713729,0.0016768960180444,-0.0013433670695142,0.0013433704812388,-0.0013433716291404,0.0013433682173454,-0.0015957460052441,0.0015957448162302,-0.0015957460052629,0.0015957448162246,-1.1073557981785e-09,-1.107357535458e-09,-0.00072914295280621,0.00072914004570214,-2.779023367582e-09,7.1888025218705e-10,-0.00080229068717113,0.00080228775231751,-0.00080228952709583,0.00080228891240646,-0.00080229068717279,0.00080228775231837,-0.00080228952710254,0.0008022889124047,-0.00090661474006487,0.00090661365108227,-0.00090661474007303,0.00090661365107672,0.75808686568767,120135,2834,0.0065328033620704,0.0065328033620705,0.0030367516044969,33.570286126011,0.00018376228900809,0.00018376228900809,0.00018376228900809,1954849.4369463,0.016233018016069
35419200,0.99999499509402,0.016240643717678,0.0060848614368468,0.0060848614368473,0.0040709208439836,-0.0015781289657779,0.0015781289657751,-2.3223996405204e-15,-4.9874946942842e-16,-4.3347499293063e-15,2.1255233020163e-16,-0.0016815074611401,0.0016815074611316,-0.0016815083144704,0.0016815083144688,-0.0016815074448764,0.0016815074448753,-0.0016815083307142,0.0016815083307116,-0.0013488752054938,0.001348875205497,-0.0013488766746688,0.001348876674662,-1.0184924151676e-14,-1.6014652767027e-14,1.5160928698282e-09,-1.5161340815453e-09,-0.0015781289657903,0.0015781289657627,-0.0016815069953048,0.0016815079620688,-0.0016815087803111,0.0016815078135087,-0.0016815069953071,0.001681507962075,-0.0016815087803124,0.0016815078135073,-0.0013488738722539,0.0013488768375424,-0.0013488780079704,0.0013488750426113,-0.0016007645214888,0.0016007634847515,-0.0016007645215075,0.001600763484746,-1.4273606558902e-09,-1.4273623877059e-09,-0.00073341696708567,0.00073341325956185,-2.8691828858441e-09,1.7030045217338e-10,-0.00080760811481065,0.00080760463766452,-0.00080760710758644,0.00080760564490227,-0.00080760811481233,0.00080760463766544,-0.00080760710759317,0.00080760564490049,-0.00091033172634554,0.00091032981110364,-0.00091033172635377,0.00091032981109808,0.67379056419233,120135,2834,0.0065532896035995,0.0065532896035996,0.0030545109763036,35.925899581561,0.00020260719665249,0.00020260719665249,0.00020260719665249,1919530.3225514,0.016292707872729
35919200,0.99999630152031,0.016240666883426,0.0060848698114782,0.0060848698114787,0.0040709272604692,-0.0015800372825922,0.0015800372825894,-2.2846360882887e-15,-4.6504461673559e-16,-4.3058684586743e-15,2.3455165813726e-16,-0.0016842469829911,0.0016842469829826,-0.0016842476546609,0.0016842476546594,-0.0016842469647181,0.0016842469647171,-0.0016842476729141,0.0016842476729115,-0.0013495610749532,0.0013495610749564,-0.0013495624764534,0.0013495624764466,-1.0170101075099e-14,-1.5990923827408e-14,1.4474892750615e-09,-1.4475305096351e-09,-0.0015800372826046,0.001580037282577,-0.0016842465252526,0.0016842474572495,-0.0016842481124049,0.0016842471803695,-0.0016842465252548,0.0016842474572557,-0.0016842481124061,0.001684247180368,-0.0013495597977511,0.0013495626244,-0.0013495637537172,0.0013495609269978,-0.0016025559896275,0.0016025549948904,-0.0016025559896463,0.0016025549948848,-6.7104633632829e-10,-6.7104806541282e-10,-0.00073819953290691,0.00073819775674936,-2.0697683448655e-09,8.5112405121506e-10,-0.00080932605428326,0.00080932428019316,-0.0008093250831568,0.00080932525133322,-0.00080932605428494,0.00080932428019401,-0.00080932508316354,0.00080932525133153,-0.00091615873045772,0.00091615837623522,-0.00091615873046585,0.00091615837622961,0.72183945217264,120135,2834,0.0065612150306873,0.0065612150306874,0.0030743452745669,37.533887305825,0.0002154710984466,0.0002154710984466,0.0002154710984466,1968472.7377292,0.016328966757617
36419200,0.99999726512168,0.016240683550485,0.0060848758503817,0.0060848758503822,0.0040709318497211,-0.0015807103328866,0.0015807103328839,-2.2976356911597e-15,-4.7822068480399e-16,-4.3188386506791e-15,2.2214027259069e-16,-0.0016846841472015,0.0016846841471931,-0.001684684818354,0.0016846848183525,-0.0016846841289274,0.0016846841289263,-0.0016846848366083,0.0016846848366057,-0.0013504529805883,0.0013504529805915,-0.0013504543765792,0.0013504543765724,-1.0213923265773e-14,-1.6036181176445e-14,1.443121282051e-09,-1.4431626372857e-09,-0.0015807103328991,0.0015807103328714,-0.0016846836907874,0.0016846846199753,-0.0016846852747738,0.0016846843455472,-0.0016846836907896,0.0016846846199815,-0.001684685274775,0.0016846843455457,-0.0013504517074873,0.0013504545255629,-0.0013504556497421,0.0013504528315958,-0.001603427394892,0.0016034264030625,-0.0016034273949109,0.0016034264030569,7.6445414868522e-10,7.644524191504e-10,-0.00073724733057933,0.00073724928064177,-6.857582130279e-10,2.3006364871934e-09,-0.00080967118953339,0.00080967269392148,-0.00080967019482466,0.00080967368864375,-0.00080967118953505,0.00080967269392233,-0.00080967019483141,0.00080967368864204,-0.00091501906851848,0.00091502198720745,-0.00091501906852659,0.00091502198720184,0.70447270805608,120135,2834,0.0065639893567989,0.006563989356799,0.0030704181080911,37.488428400879,0.00021510742720703,0.00021510742720703,0.00021510742720703,1923626.1710072,0.016330620027747
36919200,0.99999795933257,0.016240694585732,0.0060848798502283,0.0060848798502287,0.0040709348852754,-0.0015794970860196,0.0015794970860169,-2.2801068148902e-15,-4.6010359120994e-16,-4.3179269138261e-15,2.3502223199684e-16,-0.0016832559310437,0.0016832559310352,-0.0016832560335667,0.0016832560335652,-0.001683255907615,0.001683255907614,-0.0016832560569755,0.001683256056973,-0.0013496436643562,0.0013496436643594,-0.0013496448613393,0.0013496448613326,-1.0210982179151e-14,-1.6046083447467e-14,1.7521293731093e-09,-1.7521706769106e-09,-0.0015794970860321,0.0015794970860044,-0.0016832553334129,0.0016832564966532,-0.0016832566312031,0.0016832554679243,-0.0016832553334152,0.0016832564966594,-0.0016832566312044,0.0016832554679228,-0.0013496420586087,0.0013496454718197,-0.0013496464671485,0.0013496430538669,-0.0016021261590109,0.0016021249519671,-0.0016021261590298,0.0016021249519616,1.7636659820087e-09,1.7636642527971e-09,-0.00073569608580752,0.00073570046352191,-9.8244147826369e-12,3.5748409641654e-09,-0.00080853741942476,0.00080854079631133,-0.00080853621779237,0.00080854199795739,-0.0008085374194264,0.00080854079631219,-0.00080853621779909,0.00080854199795563,-0.00091309876732228,0.00091310376148777,-0.00091309876733048,0.00091310376148224,0.64727478642576,120135,2834,0.0065589641477885,0.0065589641477886,0.0030639795530226,36.862570067427,0.00021010056053942,0.00021010056053942,0.00021010056053942,1933366.8381652,0.016313861507221
37419200,0.99999849507107,0.016240703198808,0.0060848829690295,0.0060848829690299,0.0040709372607488,-0.0015803366202627,0.00158033662026,-2.2952240001294e-15,-4.7575017204117e-16,-4.307280180253e-15,2.4355138320184e-16,-0.0016845631711155,0.0016845631711071,-0.0016845636359379,0.0016845636359364,-0.001684563151584,0.001684563151583,-0.0016845636554496,0.001684563655447,-0.0013498088174998,0.001349808817503,-0.0013498101502911,0.0013498101502843,-1.0181688956391e-14,-1.6009820998274e-14,1.8075780302449e-09,-1.8076193215404e-09,-0.0015803366202752,0.0015803366202476,-0.0016845625839727,0.0016845637628466,-0.0016845642230864,0.0016845630441739,-0.001684562583975,0.0016845637628528,-0.0016845642230876,0.0016845630441724,-0.0013498071794424,0.0013498107092638,-0.0013498117884103,0.0013498082585181,-0.0016029157527802,0.0016029145156539,-0.001602915752799,0.0016029145156484,2.4713556730076e-10,2.4713383761325e-10,-0.00073843657576974,0.00073843710661965,-1.5307200403623e-09,2.1266238548069e-09,-0.00080941559354858,0.0008094156052715,-0.00080941437471893,0.00080941682411487,-0.00080941559355023,0.00080941560527239,-0.00080941437472567,0.00080941682411311,-0.0009164047170928,0.00091640653941158,-0.00091640471710091,0.000916406539406,0.65462458225499,120135,2834,0.0065624555348044,0.0065624555348045,0.0030753313337541,37.672798347098,0.00021658238677679,0.00021658238677679,0.00021658238677679,1966580.2596591,0.016332490469578
37919200,0.99999889022181,0.016240709123011,0.0060848851190039,0.0060848851190043,0.0040709388850023,-0.00158063796016,0.0015806379601573,-2.2981062650193e-15,-4.7880890212847e-16,-4.3161034401202e-15,2.3502223199684e-16,-0.0016847531854501,0.0016847531854416,-0.0016847536505362,0.0016847536505347,-0.0016847531659338,0.0016847531659328,-0.0016847536700326,0.0016847536700301,-0.0013502177667804,0.0013502177667836,-0.001350219096419,0.0013502190964122,-1.0193453302881e-14,-1.602286184529e-14,1.8103544881488e-09,-1.8103958073291e-09,-0.0015806379601725,0.0015806379601448,-0.0016847525974728,0.0016847537781231,-0.0016847542385191,0.0016847530578303,-0.0016847525974751,0.0016847537781293,-0.0016847542385203,0.0016847530578288,-0.0013502161260966,0.0013502196613741,-0.0013502207371646,0.0013502172018163,-0.001603311682911,0.0016033104439614,-0.0016033116829299,0.0016033104439558,9.2926242781621e-10,9.2926069778238e-10,-0.00073834570205085,0.00073834800869437,-8.7739618209008e-10,2.8203325955546e-09,-0.00080978179997698,0.00080978336468107,-0.00080978056690842,0.00080978459776331,-0.00080978179997863,0.00080978336468195,-0.00080978056691516,0.00080978459776156,-0.00091620048712871,0.00091620386969344,-0.00091620048713683,0.00091620386968786,0.61069305856336,120135,2834,0.0065636993903446,0.0065636993903447,0.0030749628107866,37.676448111577,0.00021661158489262,0.00021661158489262,0.00021661158489262,1953431.1161237,0.016334646506054
38419200,0.99999917590746,0.016240714015039,0.0060848868877685,0.006084886887769,0.0040709402395014,-0.0015792703688389,0.0015792703688362,-2.2778127673247e-15,-4.5922126522322e-16,-4.3131035317654e-15,2.5308050385845e-16,-0.0016835197815105,0.0016835197815021,-0.0016835199225784,0.001683519922577,-0.0016835197591676,0.0016835197591666,-0.0016835199449015,0.001683519944899,-0.0013487711298911,0.0013487711298944,-0.0013487723494591,0.0013487723494523,-1.0175806783147e-14,-1.6018820608453e-14,2.0659766881907e-09,-2.0660179341346e-09,-0.0015792703688514,0.0015792703688238,-0.0016835190876084,0.0016835204538017,-0.0016835206164861,0.0016835192502543,-0.0016835190876107,0.0016835204538079,-0.0016835206164874,0.0016835192502528,-0.0013487692227758,0.0013487732535243,-0.001348774256636,0.001348770225817,-0.0016018517237291,0.0016018503094613,-0.0016018517237479,0.0016018503094557,1.6357515967656e-09,1.6357498670232e-09,-0.00073810470864546,0.00073810874647596,-4.3841015817943e-10,3.7658451683533e-09,-0.000808703474658,0.0008087063784685,-0.00080870206855482,0.00080870778458532,-0.00080870347465965,0.00080870637846935,-0.00080870206856154,0.00080870778458356,-0.00091603087314925,0.00091603579943669,-0.00091603087315741,0.00091603579943117,0.69725492786574,120135,2834,0.0065580458495117,0.0065580458495119,0.0030739502781491,37.198693488804,0.00021278954791043,0.00021278954791043,0.00021278954791043,1982583.2720375,0.016322122948725
38880000,0.9999993754028,0.01624071756208,0.0060848881715208,0.0060848881715212,0.0040709412190377,-0.0015805715946861,0.001580571594732,2.3656747890826e-14,2.6289490991743e-14,1.5116861719663e-14,1.7278383921937e-14,-0.0016842521390372,0.0016842521390693,-0.0016842523609968,0.0016842523610941,-0.0016842521175487,0.001684252117585,-0.0016842523825295,0.001684252382562,-0.0013506561035699,0.0013506561036044,-0.0013506573843507,0.0013506573843618,2.2938358072436e-14,1.7910037879019e-14,2.0918313356097e-09,-2.0917506425272e-09,-0.0015805715946817,0.0015805715947363,-0.0016842514424499,0.0016842528214857,-0.0016842530576273,0.0016842516787493,-0.0016842514424572,0.0016842528214618,-0.0016842530576162,0.0016842516787384,-0.0013506541745232,0.0013506582563835,-0.0013506593133878,0.0013506552316156,-0.0016034197758435,0.0016034183453566,-0.0016034197759601,0.0016034183453317,1.1572493073499e-09,1.1572477377583e-09,-0.00073635026215128,0.00073635306600584,-9.2715591146451e-10,3.3140134891922e-09,-0.00080961537301512,0.00080961715153897,-0.00080961395570102,0.00080961856876943,-0.00080961537296278,0.00080961715152486,-0.00080961395572965,0.00080961856878119,-0.00091374542809127,0.00091374929109706,-0.00091374542801796,0.00091374929109545,0.72416034322607,120135,2834,0.0065634074860563,0.0065634074860564,0.0030667032154928,37.19369826973,0.00021274958615784,0.00021274958615784,0.00021274958615784,1913285.1126885,0.016325664729443
