time,ASR_ext,ASR_strain,ASR_strain_xx,ASR_strain_yy,ASR_strain_zz,disp_x_101,disp_x_102,disp_x_103,disp_x_104,disp_x_105,disp_x_106,disp_x_p1_neg,disp_x_p1_pos,disp_x_p2_neg,disp_x_p2_pos,disp_x_p3_neg,disp_x_p3_pos,disp_x_p4_neg,disp_x_p4_pos,disp_x_p5_neg,disp_x_p5_pos,disp_x_p6_neg,disp_x_p6_pos,disp_y_101,disp_y_102,disp_y_103,disp_y_104,disp_y_105,disp_y_106,disp_y_p1_neg,disp_y_p1_pos,disp_y_p2_neg,disp_y_p2_pos,disp_y_p3_neg,disp_y_p3_pos,disp_y_p4_neg,disp_y_p4_pos,disp_y_p5_neg,disp_y_p5_pos,disp_y_p6_neg,disp_y_p6_pos,disp_y_p7_neg,disp_y_p7_pos,disp_y_p8_neg,disp_y_p8_pos,disp_z_101,disp_z_102,disp_z_103,disp_z_104,disp_z_105,disp_z_106,disp_z_p1_neg,disp_z_p1_pos,disp_z_p2_neg,disp_z_p2_pos,disp_z_p3_neg,disp_z_p3_pos,disp_z_p4_neg,disp_z_p4_pos,disp_z_p5_neg,disp_z_p5_pos,disp_z_p6_neg,disp_z_p6_pos,humidity,ndof,nelem,strain_xx,strain_yy,strain_zz,temp,thermal_strain_xx,thermal_strain_yy,thermal_strain_zz,vonmises,vstrain
2419200,0,0,0,0,0,0,0,0,0,0,0,0,0,0,0,0,0,0,0,0,0,0,0,0,0,0,0,0,0,0,0,0,0,0,0,0,0,0,0,0,0,0,0,0,0,0,0,0,0,0,0,0,0,0,0,0,0,0,0,0,0,0,0,0,0,0,0,0,0,0,0,0,0,0,0
3419200,0.15948214615634,0.0027503555289359,0.00091678517631198,0.00091678517631198,0.00091678517631198,-0.0002658237367414,0.00026582373665715,-3.0799081168035e-14,-5.2958904200653e-14,8.3091013097174e-14,-1.7084619988351e-13,-0.00026810897316104,0.00026810897316807,-0.00026810897499635,0.00026810897498861,-0.0002681089732473,0.00026810897308843,-0.00026810897507232,0.00026810897489868,-0.00025890362808317,0.00025890362793703,-0.00025890362895704,0.0002589036287675,-8.3097534956759e-14,1.7083936261824e-13,-3.0232613333361e-12,3.1070382723709e-12,-0.00026582373665715,0.0002658237367414,-0.0002681089742206,0.00026810897215094,-0.00026810897393241,0.00026810897600278,-0.00026810897413949,0.00026810897223573,-0.0002681089738513,0.00026810897608757,-0.00025890363095716,0.00025890362513221,-0.00025890362574873,0.00025890363190943,-0.00026527749080143,0.00026527749269033,-0.00026527749055402,0.00026527749294417,-5.9472387378857e-12,-5.9250763753368e-12,-0.0002389858173967,0.00023898580090562,-2.8052559337098e-12,-8.9856381897742e-12,-0.00024374741418537,0.0002437474030697,-0.00024374741625386,0.00024374740100153,-0.00024374741417781,0.00024374740307692,-0.0002437474162463,0.00024374740100875,-0.00024478349090861,0.00024478347597549,-0.00024478349093103,0.00024478347595451,0.78394949833143,128637,2834,0.0011069827360736,0.0011069827360736,0.00099528210655819,31.856380513809,0.00017005104411047,0.00017005104411047,0.00017005104411047,1769700.9529067,0.0032144044359487
4419200,0.35092576236334,0.0059629349248329,0.002074194464412,0.002074194464412,0.0018145459960089,-0.00055324722411075,0.0005532472238756,-1.0589888250889e-13,-1.2804242662705e-13,6.1371463379215e-14,-3.0415442887921e-13,-0.00056544766654271,0.00056544766643786,-0.00056544767139575,0.00056544767127614,-0.00056544766667684,0.00056544766633083,-0.00056544767149824,0.00056544767113746,-0.00052163185811948,0.00052163185778604,-0.00052163186078789,0.00052163186041108,-6.1379271964198e-14,3.0414530648441e-13,-6.2071676865529e-12,6.441146769667e-12,-0.00055324722387559,0.00055324722411076,-0.00056544766860611,0.00056544766446721,-0.00056544766910332,0.00056544767346668,-0.0005654476684878,0.00056544766459007,-0.00056544766898501,0.00056544767358955,-0.00052163186404506,0.00052163185202051,-0.0005216318541551,0.00052163186689005,-0.00055359916159663,0.00055359916571865,-0.00055359916124444,0.00055359916608476,-1.0722035221731e-11,-1.0699876890812e-11,-0.00043108778735986,0.00043108775973534,-4.2163159150312e-12,-1.7006629106213e-11,-0.00044533902704765,0.00044533900695409,-0.00044533903132587,0.00044533900267618,-0.0004453390270401,0.00044533900696132,-0.00044533903131833,0.0004453390026834,-0.00045982820260872,0.00045982817576981,-0.0004598282026322,0.0004598281757499,0.77879974056444,128637,2834,0.0023025182635467,0.0023025182635467,0.0017946684721982,33.605182786703,0.00018404146229362,0.00018404146229362,0.00018404146229362,3168080.1480007,0.0064202410212919
5419200,0.55122599829572,0.0092591620199241,0.0033227570337085,0.0033227570337085,0.0026136479525071,-0.0008661786892368,0.00086617868901684,-9.8797717091678e-14,-1.2090457115423e-13,2.8670124147387e-14,-2.553698309799e-13,-0.00089574471374303,0.00089574471362735,-0.00089574471618568,0.00089574471605526,-0.00089574471384071,0.00089574471353707,-0.00089574471627159,0.0008957447159532,-0.00079406910051564,0.00079406910022247,-0.00079406910103504,0.00079406910069858,-2.8661977337443e-14,2.5537750756064e-13,-4.2082098647565e-12,4.4279446686681e-12,-0.00086617868901682,0.00086617868923681,-0.00089574471502123,0.00089574471231029,-0.00089574471465698,0.00089574471761404,-0.00089574471492943,0.00089574471240647,-0.00089574471456518,0.00089574471771022,-0.00079406910440978,0.0007940690962607,-0.00079406909651315,0.00079406910529189,-0.00087024544172181,0.00087024544456604,-0.00087024544145003,0.0008702454448486,-3.5137286551867e-12,-3.4915932165769e-12,-0.00059506524154204,0.00059506523072526,8.319498639145e-13,-7.8497360930095e-12,-0.00061897011683711,0.00061897010967167,-0.00061897011972077,0.00061897010678822,-0.00061897011682962,0.00061897010967893,-0.00061897011971329,0.00061897010679548,-0.00065814868386994,0.0006581486734505,-0.00065814868389211,0.00065814867342935,0.77317316850489,128637,2834,0.0036024871703103,0.0036024871703103,0.0024767476256961,36.275699207306,0.00020540559365845,0.00020540559365845,0.00020540559365845,3849769.0447302,0.0097287821446685
6419200,0.70752862495477,0.011665154762136,0.0042660297447746,0.0042660297447746,0.0031330952725864,-0.0011019540860583,0.0011019540858121,-1.1177429125448e-13,-1.3391952649745e-13,4.0831134989795e-14,-2.9344368255575e-13,-0.001151984509338,0.0011519845092135,-0.0011519845109154,0.0011519845107761,-0.001151984509443,0.0011519845090956,-0.0011519845110305,0.0011519845106684,-0.00098462951036999,0.00098462951003426,-0.0009846295113074,0.00098462951092829,-4.0825517514346e-14,2.9344882509166e-13,-3.6702306342115e-12,3.9159702595025e-12,-0.0011019540858121,0.0011019540860583,-0.0011519845104057,0.001151984508056,-0.0011519845095811,0.0011519845121947,-0.0011519845102957,0.0011519845081688,-0.0011519845094711,0.0011519845123075,-0.00098462951366638,0.00098462950659571,-0.00098462950729797,0.0009846295150836,-0.0011057968466167,0.0011057968490806,-0.0011057968462952,0.0011057968494113,-2.9532363280494e-12,-2.931049899614e-12,-0.00068497957967615,0.00068497957152821,7.9853438473445e-13,-6.7760750837928e-12,-0.00072096979631344,0.00072096979123056,-0.00072096979882703,0.00072096978871661,-0.00072096979630621,0.00072096979123813,-0.00072096979881981,0.00072096978872417,-0.00077720119124767,0.00077720118265069,-0.00077720119126973,0.00077720118262934,0.72912082706612,128637,2834,0.0045807707915672,0.0045807707915672,0.0028508704145329,36.740036522857,0.00020912029218286,0.00020912029218286,0.00020912029218286,4055489.7392664,0.012084956438416
7419200,0.83270160555808,0.013530362438348,0.0049996502534558,0.0049996502534558,0.0035310619314361,-0.0012934124832937,0.001293412483061,-1.051096125029e-13,-1.272926995307e-13,4.2640138549507e-14,-2.8184168404766e-13,-0.0013652170567319,0.0013652170566176,-0.0013652170584989,0.0013652170583698,-0.0013652170568335,0.0013652170565032,-0.0013652170586103,0.0013652170582652,-0.001132851882911,0.0011328518825918,-0.0011328518839041,0.0011328518835414,-4.2635168113115e-14,2.8184610303031e-13,-3.6416894091594e-12,3.8741281701025e-12,-0.001293412483061,0.0012934124832937,-0.0013652170578187,0.001365217055466,-0.0013652170571657,0.0013652170597618,-0.0013652170577122,0.0013652170555755,-0.0013652170570591,0.0013652170598713,-0.0011328518862141,0.0011328518791966,-0.0011328518799205,0.00113285188762,-0.0012949795373764,0.0012949795398123,-0.0012949795370641,0.0012949795401333,-3.9369982782438e-12,-3.9147611714393e-12,-0.00074605354550572,0.00074605353468524,-1.9479424034614e-13,-7.7116517084515e-12,-0.00079230159287982,0.0007923015858082,-0.00079230159537922,0.00079230158330848,-0.00079230159287255,0.00079230158581576,-0.00079230159537197,0.00079230158331604,-0.00086567482522894,0.00086567481448154,-0.00086567482525093,0.00086567481446001,0.71232201740583,128637,2834,0.005374426450458,0.005374426450458,0.0031051914616832,40.774622698112,0.00024139698158489,0.00024139698158489,0.00024139698158489,3891450.8901706,0.013950658969161
8419200,0.90815401122141,0.014633157251051,0.0054289497080381,0.0054289497080381,0.0037752578349743,-0.0014055059405535,0.0014055059403229,-1.0407370297275e-13,-1.2628843609261e-13,4.0750696270672e-14,-2.7781877753293e-13,-0.0014918631406514,0.0014918631405373,-0.0014918631418181,0.0014918631416891,-0.0014918631407485,0.0014918631404222,-0.0014918631419304,0.0014918631415893,-0.001215556670994,0.0012155566706788,-0.0012155566719164,0.0012155566715577,-4.0746402284203e-14,2.7782282744368e-13,-3.1268703188592e-12,3.3572705001907e-12,-0.0014055059403229,0.0014055059405535,-0.0014918631415495,0.0014918631395536,-0.001491863140674,0.0014918631429131,-0.0014918631414448,0.0014918631396611,-0.0014918631405693,0.0014918631430206,-0.0012155566737874,0.0012155566677697,-0.0012155566684505,0.0012155566751423,-0.0014057989408792,0.0014057989429695,-0.0014057989405726,0.0014057989432845,-2.2748110708236e-12,-2.2525333337117e-12,-0.00076643693436059,0.0007664369284327,9.1964067031467e-13,-5.5385830059734e-12,-0.00082131904478989,0.00082131904132001,-0.00082131904693247,0.00082131903917708,-0.00082131904478262,0.00082131904132761,-0.00082131904692522,0.00082131903918467,-0.00090465429190889,0.00090465428522707,-0.00090465429193086,0.00090465428520546,0.69846302650969,128637,2834,0.0058387555412857,0.0058387555412857,0.0031903856456865,41.435493849911,0.00024668395079928,0.00024668395079928,0.00024668395079928,3522185.6310606,0.014979260849659
9419200,0.94989493057353,0.015229916950408,0.0056584892102906,0.0056584892102906,0.0039129385298269,-0.0014657673322371,0.001465767332008,-1.0334013714739e-13,-1.2554098833839e-13,4.0163302450444e-14,-2.7574954662887e-13,-0.0015610017788841,0.0015610017787706,-0.0015610017797273,0.0015610017795989,-0.0015610017789792,0.0015610017786552,-0.0015610017798399,0.0015610017795011,-0.0012574297022274,0.0012574297019146,-0.0012574297031061,0.0012574297027499,-4.0166125893602e-14,2.7574608872669e-13,-2.739356169099e-12,2.9683182261657e-12,-0.001465767332008,0.0014657673322372,-0.0015610017796478,0.0015610017779139,-0.001561001778719,0.0015610017806948,-0.0015610017795439,0.0015610017780205,-0.0015610017786151,0.0015610017808014,-0.0012574297046397,0.0012574296993783,-0.0012574297000258,0.0012574297059566,-0.0014655660686827,0.0014655660705135,-0.0014655660683786,0.0014655660708258,-1.5323234644202e-12,-1.5100530453866e-12,-0.00076846699663792,0.00076846699287064,1.2618645244344e-12,-4.4085722770255e-12,-0.00082933017767699,0.00082933017574477,-0.00082933017955576,0.0008293301738657,-0.00082933017766972,0.00082933017575239,-0.00082933017954847,0.00082933017387325,-0.00091802060144356,0.00091802059667052,-0.00091802060146563,0.00091802059664909,0.6799250044441,128637,2834,0.0060882665410574,0.0060882665410574,0.003199197547603,41.14450526624,0.00024435604212992,0.00024435604212992,0.00024435604212992,3187186.0685743,0.015494892236594
10419200,0.97076301503231,0.015535845668749,0.0057743512738638,0.0057743512738638,0.0039871431210211,-0.0014907926473912,0.0014907926471632,-1.02785977606e-13,-1.2496082959126e-13,3.9520910310377e-14,-2.7389675028935e-13,-0.0015909641932789,0.0015909641931657,-0.0015909641934063,0.0015909641932783,-0.0015909641933708,0.0015909641930487,-0.0015909641935207,0.0015909641931838,-0.0012721308199745,0.0012721308196635,-0.0012721308207106,0.0012721308203562,-3.9516792789106e-14,2.7390086861482e-13,-1.9348164254299e-12,2.1626011527693e-12,-0.0014907926471632,0.0014907926473912,-0.0015909641937577,0.0015909641925722,-0.0015909641926836,0.0015909641941104,-0.0015909641936546,0.0015909641926779,-0.0015909641925805,0.0015909641942162,-0.0012721308215872,0.0012721308178974,-0.0012721308184339,0.0012721308227891,-0.0014908245822971,0.0014908245835882,-0.0014908245819954,0.0014908245838979,2.8508987778632e-13,3.0733605227104e-13,-0.0007601110716807,0.00076011107309448,2.2403929251811e-12,-1.7901361508047e-12,-0.00082363487990805,0.000823634881707,-0.00082363488123644,0.00082363488037826,-0.0008236348799008,0.00082363488171459,-0.0008236348812292,0.00082363488038583,-0.00091693640287926,0.00091693640266763,-0.00091693640290118,0.00091693640264604,0.69327203779801,128637,2834,0.0061918529276242,0.0061918529276242,0.0031647254955088,38.090190295814,0.00021992152236651,0.00021992152236651,0.00021992152236651,2976416.6559762,0.015670309705615
11419200,0.98281703579388,0.015709422534025,0.0058396378575323,0.0058396378575323,0.004030146818961,-0.001510010069276,0.0015100100690489,-1.0237634306123e-13,-1.2455254794633e-13,3.9210772726044e-14,-2.7276022618585e-13,-0.0016120204538999,0.001612020453787,-0.0016120204545687,0.0016120204544411,-0.0016120204539954,0.0016120204536746,-0.0016120204546785,0.001612020454343,-0.0012858670422375,0.0012858670419279,-0.0012858670430975,0.0012858670427445,-3.9206037576582e-14,2.7276443722448e-13,-1.7717726355682e-12,1.9987429747006e-12,-0.0015100100690488,0.001510010069276,-0.0016120204543551,0.0016120204532558,-0.0016120204538703,0.0016120204552101,-0.0016120204542525,0.0016120204533611,-0.0016120204537677,0.0016120204553154,-0.0012858670437158,0.0012858670403523,-0.001285867040958,0.0012858670449842,-0.001510889602588,0.0015108896037776,-0.0015108896022877,0.001510889604086,-1.1153020636276e-12,-1.0930520491867e-12,-0.00075623417350595,0.0007562341708951,7.3095389044863e-13,-3.0132024046172e-12,-0.00082334416476244,0.00082334416318757,-0.0008233441660027,0.00082334416194697,-0.00082334416475519,0.00082334416319516,-0.00082334416599545,0.00082334416195455,-0.00091652322435182,0.00091652322113371,-0.00091652322437375,0.00091652322111212,0.67904234049941,128637,2834,0.0062713832442259,0.0062713832442259,0.0031487885748517,37.626518898844,0.00021621215119075,0.00021621215119075,0.00021621215119075,2767815.6815977,0.015815705683792
12419200,0.98972972375426,0.015811476570939,0.0058776941030094,0.0058776941030094,0.0040560883649201,-0.0015185570317936,0.0015185570315669,-1.0213223287157e-13,-1.2428373262904e-13,3.8920311011215e-14,-2.7193857481615e-13,-0.0016226150373753,0.0016226150372625,-0.0016226150379291,0.0016226150378016,-0.0016226150374703,0.0016226150371504,-0.0016226150380386,0.0016226150377039,-0.001290219282805,0.0012902192824962,-0.0012902192836495,0.0012902192832973,-3.8916693474669e-14,2.7194196143144e-13,-1.5773027021805e-12,1.8037600140168e-12,-0.0015185570315669,0.0015185570317936,-0.001622615037765,0.001622615036796,-0.0016226150372964,0.0016226150385057,-0.0016226150376628,0.0016226150369009,-0.0016226150371941,0.0016226150386106,-0.0012902192840933,0.0012902192811102,-0.0012902192817016,0.0012902192853458,-0.0015196340150424,0.0015196340161025,-0.0015196340147432,0.0015196340164097,-8.4415641633439e-13,-8.219304494125e-13,-0.00075152420410795,0.0007515242022856,8.0535797039624e-13,-2.5466676275227e-12,-0.00081931253250784,0.00081931253146569,-0.00081931253361731,0.00081931253035588,-0.0008193125325006,0.00081931253147326,-0.00081931253361007,0.00081931253036345,-0.00091498076323975,0.00091498076075664,-0.00091498076326166,0.00091498076073508,0.69352878351277,128637,2834,0.0063067549741437,0.0063067549741437,0.0031293221101719,36.801455849022,0.00020961164679218,0.00020961164679218,0.00020961164679218,2664925.5162755,0.015867802327426
13419200,0.99358991901355,0.015867038965439,0.0058983599796715,0.0058983599796715,0.0040703190060964,-0.0015225445845069,0.0015225445842806,-1.0195141486602e-13,-1.2409844417183e-13,3.8794961899367e-14,-2.7144882507178e-13,-0.0016268281142854,0.0016268281141728,-0.0016268281145434,0.0016268281144161,-0.0016268281143792,0.0016268281140599,-0.0016268281146537,0.0016268281143196,-0.001292305103995,0.0012923051036868,-0.0012923051047762,0.0012923051044246,-3.8790226749905e-14,2.7145286027709e-13,-1.2538723229335e-12,1.4799638542966e-12,-0.0015225445842806,0.0015225445845069,-0.0016268281145604,0.0016268281138119,-0.0016268281140258,0.0016268281150142,-0.0016268281144584,0.0016268281139167,-0.0016268281139237,0.0016268281151189,-0.0012923051049607,0.0012923051026095,-0.0012923051031521,0.0012923051061631,-0.0015243819633918,0.0015243819642348,-0.0015243819630932,0.0015243819645414,-5.7021911627278e-14,-3.4799407490224e-14,-0.00074459467588261,0.000744594676278,1.2550905401985e-12,-1.4380646416417e-12,-0.00081458239528582,0.00081458239581649,-0.00081458239617401,0.00081458239492798,-0.00081458239527858,0.00081458239582407,-0.00081458239616676,0.00081458239493554,-0.0009092303784582,0.00090923037793152,-0.0009092303784801,0.00090923037790996,0.6754819315958,128637,2834,0.00632324031001,0.00632324031001,0.0031006186295358,34.787789980674,0.00019350231984539,0.00019350231984539,0.00019350231984539,2553871.8765161,0.015872144865504
14419200,0.99581900088092,0.015898693405021,0.0059101078817076,0.0059101078817076,0.0040784776416053,-0.0015209400549675,0.0015209400547415,-1.0185688834198e-13,-1.2400768223867e-13,3.8675906712892e-14,-2.7112830545167e-13,-0.0016266003219854,0.0016266003218729,-0.0016266003221896,0.0016266003220623,-0.0016266003220795,0.0016266003217605,-0.0016266003222994,0.0016266003219656,-0.0012883245111145,0.0012883245108066,-0.001288324511893,0.0012883245115417,-3.8671995067684e-14,2.71131609751e-13,-1.0256281416269e-12,1.2515296453049e-12,-0.0015209400547414,0.0015209400549675,-0.0016266003221869,0.0016266003215888,-0.0016266003217456,0.0016266003225836,-0.001626600322085,0.0016266003216934,-0.0016266003216437,0.0016266003226881,-0.0012883245118592,0.0012883245099557,-0.0012883245104905,0.0012883245130532,-0.0015226677502729,0.0015226677509644,-0.0015226677499748,0.0015226677512706,7.039871799111e-14,9.2625787992817e-14,-0.00073725921785242,0.00073725921861511,1.1574349352749e-12,-1.0799246708073e-12,-0.00080686932020144,0.00080686932091356,-0.0008068693209384,0.00080686932017627,-0.00080686932019419,0.00080686932092113,-0.00080686932093115,0.00080686932018383,-0.00090381554030011,0.00090381554020765,-0.00090381554032202,0.00090381554018608,0.66541847184507,128637,2834,0.0063165937223034,0.0063165937223034,0.0030701905633836,32.636642394205,0.00017629313915364,0.00017629313915364,0.00017629313915364,2518052.9676576,0.015827732702993
15419200,0.99697930245252,0.015916089957953,0.0059165214040568,0.0059165214040568,0.0040830471498393,-0.0015120609438293,0.0015120609436033,-1.017909491799e-13,-1.2406109237173e-13,3.8721317090342e-14,-2.7116201030437e-13,-0.0016185819867883,0.0016185819866758,-0.0016185819861728,0.0016185819860455,-0.0016185819868802,0.0016185819865612,-0.0016185819862848,0.0016185819859509,-0.001277628406412,0.0012776284061042,-0.0012776284070241,0.0012776284066727,-3.8718817166713e-14,2.7116428866997e-13,1.0063937992481e-13,1.252511846917e-13,-0.0015120609436032,0.0015120609438293,-0.0016185819865989,0.0016185819867628,-0.0016185819861198,0.0016185819861957,-0.0016185819864969,0.0016185819868674,-0.0016185819860178,0.0016185819863002,-0.0012776284060409,0.0012776284063409,-0.0012776284067374,0.0012776284070967,-0.0015139302868818,0.0015139302868184,-0.0015139302865836,0.0015139302871246,2.2436320040212e-12,2.2659788053147e-12,-0.0007228034664689,0.00072280347336966,2.1723778706414e-12,2.2171013867216e-12,-0.00079239164194544,0.00079239164695088,-0.00079239164191831,0.00079239164697768,-0.00079239164193816,0.0007923916469585,-0.00079239164191102,0.00079239164698529,-0.00089099261867638,0.00089099262413653,-0.0008909926186984,0.00089099262411485,0.70136789653156,128637,2834,0.0062798243910287,0.0062798243910287,0.0030101832668106,27.051272753622,0.00013161018202898,0.00013161018202898,0.00013161018202898,2495204.8808395,0.015692082914408
16419200,0.99772468906978,0.015926872961258,0.0059205024049651,0.0059205024049651,0.0040858681513279,-0.001511826486728,0.0015118264865021,-1.0167465861485e-13,-1.2393615501201e-13,3.8676406697618e-14,-2.7089251853715e-13,-0.0016170462644307,0.0016170462643184,-0.0016170462645165,0.0016170462643893,-0.0016170462645267,0.001617046264208,-0.0016170462646242,0.0016170462642907,-0.0012776632496044,0.0012776632492969,-0.0012776632503662,0.0012776632500152,-3.8672700928474e-14,2.7089565039231e-13,5.8395867700738e-15,2.1981191541158e-13,-0.0015118264865021,0.001511826486728,-0.0016170462643036,0.0016170462643817,-0.0016170462644014,0.0016170462645628,-0.0016170462642018,0.0016170462644862,-0.0016170462642995,0.0016170462646673,-0.0012776632493496,0.0012776632494717,-0.0012776632499638,0.0012776632505004,-0.0015148840251405,0.0015148840251478,-0.0015148840248426,0.0015148840254537,4.9813504213947e-13,5.2047424692785e-13,-0.00071551916215465,0.00071551916403393,5.7609315074969e-13,3.899261909637e-13,-0.00078800747282896,0.00078800747376714,-0.00078800747288607,0.00078800747370969,-0.00078800747282167,0.00078800747377474,-0.00078800747287879,0.00078800747371729,-0.00088312663852962,0.00088312664004437,-0.00088312663855164,0.0008831266400227,0.67695707169072,128637,2834,0.0062788282503408,0.0062788282503408,0.0029799734044747,24.409536482171,0.00011047629185737,0.00011047629185737,0.00011047629185737,2401087.8514842,0.0156593814835
17419200,0.99822533272702,0.015934311997036,0.005923239659519,0.005923239659519,0.0040878326779984,-0.0015065741617139,0.0015065741614881,-1.0160666069214e-13,-1.2387586273625e-13,3.8548351786078e-14,-2.7061702695323e-13,-0.001613038046059,0.0016130380459467,-0.0016130380461766,0.0016130380460495,-0.0016130380461549,0.0016130380458365,-0.0016130380462842,0.001613038045951,-0.0012707615373639,0.0012707615370567,-0.0012707615381351,0.0012707615377843,-3.8545645986386e-14,2.7061962148564e-13,-1.0867644247481e-13,3.3419928676472e-13,-0.0015065741614881,0.0015065741617139,-0.0016130380459701,0.0016130380459721,-0.0016130380460234,0.0016130380462609,-0.0016130380458684,0.0016130380460765,-0.0016130380459217,0.0016130380463653,-0.0012707615372224,0.0012707615371195,-0.00127076153762,0.001270761538381,-0.0015093080522273,0.001509308052311,-0.0015093080519298,0.0015093080526165,3.6843522841467e-13,3.9078235598492e-13,-0.00070797188318207,0.00070797188472702,5.6151247853216e-13,1.4571410735757e-13,-0.00077939272140762,0.00077939272217797,-0.00077939272154131,0.00077939272204394,-0.00077939272140033,0.00077939272218558,-0.00077939272153402,0.00077939272205155,-0.00087718212893458,0.00087718213009489,-0.00087718212895661,0.00087718213007322,0.69392132862853,128637,2834,0.0062570847491048,0.0062570847491047,0.0029486364684862,21.972222382676,9.0977779061406e-05,9.0977779061406e-05,9.0977779061406e-05,2400558.8548107,0.015583387215663
18419200,0.9985363459231,0.015938856641805,0.0059249119463394,0.0059249119463394,0.0040890327491266,-0.0015003468901563,0.0015003468899307,-1.0155307409388e-13,-1.2382898181549e-13,3.855729268941e-14,-2.7053670587757e-13,-0.0016063719330221,0.0016063719329099,-0.0016063719322934,0.0016063719321663,-0.0016063719331142,0.0016063719327959,-0.0016063719324047,0.0016063719320716,-0.0012642030619416,0.0012642030616345,-0.0012642030625411,0.0012642030621904,-3.8553763385464e-14,2.7054010874926e-13,4.334880491724e-13,-2.0806507390187e-13,-0.0015003468899307,0.0015003468901563,-0.0016063719327245,0.0016063719331083,-0.001606371932349,0.0016063719322046,-0.0016063719326229,0.0016063719332126,-0.0016063719322473,0.0016063719323089,-0.0012642030612462,0.0012642030621987,-0.0012642030625801,0.0012642030622854,-0.0015037105089649,0.0015037105086804,-0.0015037105086674,0.0015037105089859,2.6025353463537e-12,2.6248899584724e-12,-0.000696538959534,0.00069653896739957,2.2013272215527e-12,2.9114351164792e-12,-0.00076948067151441,0.00076948067703112,-0.00076948067126608,0.00076948067727912,-0.00076948067150712,0.00076948067703874,-0.00076948067125879,0.00076948067728673,-0.00086593033493526,0.00086593034140407,-0.0008659303349573,0.00086593034138239,0.68265313945188,128637,2834,0.0062312842480565,0.0062312842480565,0.0029011772993899,17.468112574613,5.4944900596903e-05,5.4944900596903e-05,5.4944900596903e-05,2353183.468536,0.015482791483132
19419200,0.99879403468941,0.015942844020008,0.0059263718942705,0.0059263718942705,0.0040901002314665,-0.0015004172337072,0.0015004172334817,-1.0138931439075e-13,-1.2387433337121e-13,3.844653136721e-14,-2.7029486032461e-13,-0.0016070437014146,0.0016070437013024,-0.0016070437021051,0.001607043701978,-0.0016070437015137,0.0016070437011957,-0.0016070437022092,0.0016070437018763,-0.00126339744594,0.0012633974456334,-0.0012633974468357,0.001263397446485,-3.8444649071772e-14,2.7029646930579e-13,-1.9997916116682e-13,4.2527721027903e-13,-0.0015004172334817,0.0015004172337072,-0.0016070437013808,0.0016070437013039,-0.0016070437018969,0.0016070437022132,-0.0016070437012792,0.0016070437014081,-0.0016070437017953,0.0016070437023174,-0.0012633974459077,0.0012633974456322,-0.0012633974462121,0.001263397447145,-0.0015036820831593,0.0015036820833098,-0.0015036820828622,0.0015036820836149,-1.1084993144157e-12,-1.0859350019017e-12,-0.00069493895801169,0.00069493895534608,-7.79898748158e-13,-1.4117887825865e-12,-0.00076745891425363,0.00076745891166857,-0.00076745891446529,0.00076745891145657,-0.00076745891424627,0.00076745891167625,-0.00076745891445793,0.00076745891146425,-0.00086516255116329,0.00086516254898569,-0.00086516255118553,0.0008651625489638,0.72156537812451,128637,2834,0.0062315764777436,0.0062315764777435,0.0028945418387362,17.551686816737,5.5613494533899e-05,5.5613494533899e-05,5.5613494533899e-05,2333746.1197189,0.015476645948116
20419200,0.99901831902338,0.015946351273788,0.0059276543319812,0.0059276543319811,0.0040910426098257,-0.0015058135042484,0.0015058135040228,-1.0140437275425e-13,-1.2390844997603e-13,3.8587380005558e-14,-2.7051105960223e-13,-0.0016111267702941,0.001611126770182,-0.0016111267712753,0.0016111267711482,-0.001611126770391,0.0016111267700729,-0.0016111267713818,0.0016111267710487,-0.0012695380720904,0.0012695380717836,-0.0012695380730345,0.0012695380726836,-3.8583644825547e-14,2.7051080248692e-13,-1.6542865784894e-12,1.8796344883831e-12,-0.0015058135040228,0.0015058135042484,-0.0016111267707286,0.001611126769694,-0.001611126770599,0.0016111267718728,-0.0016111267706269,0.0016111267697983,-0.0016111267704973,0.0016111267719771,-0.0012695380734685,0.0012695380703394,-0.0012695380710001,0.0012695380747869,-0.0015100081963887,0.0015100081975053,-0.0015100081960913,0.0015100081978108,-2.0207062630662e-12,-1.9981226351957e-12,-0.0006962590712015,0.00069625906604249,-2.625295240209e-13,-3.7913982783263e-12,-0.00077115094701439,0.00077115094330635,-0.00077115094818721,0.00077115094213321,-0.00077115094700701,0.00077115094331404,-0.00077115094817984,0.00077115094214089,-0.00086547899600208,0.00086547899086885,-0.00086547899602435,0.00086547899084695,0.72908888616729,128637,2834,0.0062539022713071,0.0062539022713071,0.002900054355031,18.599600402251,6.3996803218008e-05,6.3996803218008e-05,6.3996803218008e-05,2252403.1327822,0.015527592249165
21419200,0.99917081881801,0.01594867354614,0.0059285039897172,0.0059285039897172,0.004091665566706,-0.0014999951703508,0.0014999951701253,-1.014254897562e-13,-1.2391762616629e-13,3.8608614650972e-14,-2.7055447004077e-13,-0.0016054336866015,0.0016054336864894,-0.0016054336862153,0.0016054336860882,-0.0016054336866914,0.0016054336863733,-0.0016054336863288,0.0016054336859957,-0.0012633000349023,0.0012633000345955,-0.0012633000355673,0.0012633000352163,-3.8624525929599e-14,2.7054692575149e-13,-1.2644274456219e-12,1.4897855321923e-12,-0.0014999951701253,0.0014999951703508,-0.0016054336868537,0.0016054336861177,-0.0016054336857212,0.0016054336866965,-0.001605433686752,0.001605433686222,-0.0016054336856195,0.0016054336868008,-0.0012633000358583,0.0012633000334783,-0.001263300033955,0.0012633000369927,-0.0015042703214102,0.001504270322254,-0.0015042703211127,0.0015042703225595,1.5633699478418e-12,1.5859425211329e-12,-0.00068704757727916,0.00068704758229944,2.8389870208953e-12,1.6008641829334e-13,-0.00076270998298896,0.00076270998721715,-0.00076270998386565,0.00076270998634004,-0.00076270998298159,0.0007627099872248,-0.00076270998385832,0.00076270998634773,-0.00085677053060728,0.00085677053368226,-0.00085677053062949,0.00085677053366029,0.70949629803616,128637,2834,0.0062298003579701,0.0062298003579701,0.0028618107941793,15.218251051541,3.6946008412326e-05,3.6946008412326e-05,3.6946008412326e-05,2226779.3070378,0.015439808258142
22419200,0.99929711370624,0.015950615482172,0.0059292134071816,0.0059292134071815,0.0040921886678093,-0.0014984972634746,0.0014984972632491,-1.01407725593e-13,-1.2389668562954e-13,3.8590997542103e-14,-2.7049682474298e-13,-0.001604732538747,0.0016047325386349,-0.0016047325392827,0.0016047325391556,-0.0016047325388423,0.0016047325385242,-0.0016047325393907,0.0016047325390577,-0.0012608748633174,0.0012608748630106,-0.0012608748641753,0.0012608748638245,-3.8589350533595e-14,2.7049822072514e-13,-1.2654899408518e-12,1.4908287687045e-12,-0.001498497263249,0.0014984972634746,-0.00160473253904,0.0016047325382735,-0.0016047325387478,0.0016047325397535,-0.0016047325389384,0.0016047325383778,-0.0016047325386461,0.0016047325398578,-0.0012608748643061,0.0012608748619353,-0.0012608748625304,0.0012608748655588,-0.0015024945392781,0.0015024945401322,-0.0015024945389806,0.0015024945404377,-8.409017822479e-13,-8.1833220639517e-13,-0.00068456920314361,0.00068456920132987,5.0734708912998e-13,-2.2271916961166e-12,-0.00075949758540254,0.00075949758415064,-0.00075949758630779,0.00075949758324506,-0.00075949758539517,0.00075949758415832,-0.00075949758630043,0.00075949758325273,-0.00085526898272885,0.00085526898046788,-0.00085526898275111,0.000855268980446,0.71603401204564,128637,2834,0.0062236008567068,0.0062236008567068,0.002851521800124,14.858157226287,3.40652578103e-05,3.40652578103e-05,3.40652578103e-05,2221432.9579681,0.015416768622304
23419200,0.99940928242659,0.015952310791768,0.0059298328460906,0.0059298328460906,0.004092645099587,-0.0015009471868974,0.0015009471866719,-1.0140149048936e-13,-1.2388633300462e-13,3.858190958444e-14,-2.7046120818398e-13,-0.0016070550810678,0.0016070550809557,-0.0016070550819755,0.0016070550818484,-0.0016070550811647,0.0016070550808466,-0.0016070550820819,0.0016070550817489,-0.0012632034426655,0.0012632034423588,-0.0012632034436002,0.0012632034432495,-3.8579703769473e-14,2.7046312483039e-13,-1.5174564220448e-12,1.7427696897293e-12,-0.0015009471866719,0.0015009471868974,-0.0016070550814565,0.0016070550805135,-0.0016070550813449,0.0016070550825272,-0.0016070550813549,0.0016070550806178,-0.0016070550812432,0.0016070550826315,-0.0012632034439103,0.001263203441049,-0.0012632034416994,0.0012632034452183,-0.0015051447390279,0.0015051447400529,-0.0015051447387305,0.0015051447403584,-1.8327321493883e-12,-1.8101668182933e-12,-0.00068520020619187,0.00068520020157276,-2.1065452053135e-13,-3.4668259143775e-12,-0.00076067089125408,0.00076067088789662,-0.00076067089233598,0.00076067088681438,-0.00076067089124673,0.00076067088790431,-0.00076067089232864,0.00076067088682206,-0.00085593569740028,0.00085593569277601,-0.0008559356974225,0.0008559356927541,0.70403094493689,128637,2834,0.0062337399684803,0.0062337399684803,0.0028541569820749,15.707567740421,4.0860541923365e-05,4.0860541923365e-05,4.0860541923365e-05,2185559.7932083,0.015440036535404
24419200,0.9995151824856,0.015953938621392,0.005930426272369,0.005930426272369,0.0040930860766538,-0.0015047057065393,0.0015047057063138,-1.0137660889654e-13,-1.2385145171728e-13,3.8523087851992e-14,-2.7034600582098e-13,-0.0016112733837185,0.0016112733836064,-0.0016112733850275,0.0016112733849004,-0.0016112733838137,0.0016112733834957,-0.0016112733851356,0.0016112733848026,-0.001266434205629,0.0012664342053224,-0.0012664342066538,0.0012664342063031,-3.8521411432617e-14,2.7034929277249e-13,-3.1243580010201e-12,3.3496227632356e-12,-0.0015047057063138,0.0015047057065393,-0.0016112733846303,0.0016112733826253,-0.0016112733838739,0.0016112733861181,-0.0016112733845287,0.0016112733827295,-0.0016112733837722,0.0016112733862223,-0.0012664342084389,0.0012664342024247,-0.001266434203188,0.0012664342098596,-0.0015087465900424,0.0015087465921363,-0.0015087465897452,0.0015087465924416,-3.0618199211088e-12,-3.0392632408295e-12,-0.00068863849708207,0.00068863848909858,1.5034283360022e-13,-6.3137493251744e-12,-0.00076361774378056,0.00076361773872852,-0.0007636177459283,0.00076361773658044,-0.0007636177437732,0.00076361773873619,-0.00076361774592094,0.00076361773658812,-0.00085987349870037,0.00085987349032165,-0.00085987349872261,0.00085987349029978,0.71548085887013,128637,2834,0.0062493056221403,0.0062493056221403,0.0028684445751832,17.88634543302,5.8290763464159e-05,5.8290763464159e-05,5.8290763464159e-05,2167746.694518,0.01548615650805
25419200,0.99961172454494,0.015955496759266,0.0059309920836729,0.0059309920836729,0.0040935125919201,-0.0015096771836221,0.0015096771833966,-1.0138019702222e-13,-1.238589220773e-13,3.8565380677622e-14,-2.7040962152462e-13,-0.0016159086271086,0.0016159086269965,-0.0016159086283766,0.0016159086282495,-0.0016159086272036,0.0016159086268857,-0.0016159086284848,0.0016159086281518,-0.0012715492236946,0.001271549223388,-0.0012715492247054,0.0012715492243547,-3.8561527854147e-14,2.704161551026e-13,-3.0512478124389e-12,3.2765318453777e-12,-0.0015096771833966,0.0015096771836221,-0.0016159086279953,0.0016159086260397,-0.0016159086272481,0.0016159086294429,-0.0016159086278936,0.001615908626144,-0.0016159086271464,0.0016159086295471,-0.0012715492264321,0.0012715492205611,-0.001271549221312,0.0012715492278404,-0.0015139899960198,0.0015139899980644,-0.0015139899957225,0.0015139899983698,-2.9455532076393e-12,-2.9229941751226e-12,-0.00069211119073843,0.00069211118307612,1.9351476472736e-13,-6.1258583739375e-12,-0.0007678231264657,0.0007678231216246,-0.00076782312856496,0.00076782311952501,-0.00076782312645833,0.00076782312163227,-0.0007678231285576,0.00076782311953268,-0.0008630968828357,0.00086309687476033,-0.00086309688285795,0.00086309687473846,0.75063832771013,128637,2834,0.006269884606728,0.006269884606728,0.002882883064938,19.931057262793,7.4648458102343e-05,7.4648458102343e-05,7.4648458102343e-05,2125753.6822155,0.015542616777361
26419200,0.99969086483347,0.015956802462057,0.0059314654392731,0.0059314654392731,0.0040938715835108,-0.0015125271904237,0.0015125271901983,-1.013638445806e-13,-1.2385092232169e-13,3.8598379669526e-14,-2.7043179731775e-13,-0.0016179171351869,0.0016179171350748,-0.0016179171359336,0.0016179171358066,-0.0016179171352798,0.0016179171349618,-0.0016179171360439,0.001617917135711,-0.001275010174286,0.0012750101739794,-0.0012750101751787,0.001275010174828,-3.859499741991e-14,2.7043436215208e-13,-2.6815289383237e-12,2.9067833835865e-12,-0.0015125271901983,0.0015125271904237,-0.0016179171359345,0.0016179171342369,-0.0016179171349442,0.0016179171368808,-0.0016179171358329,0.0016179171343413,-0.0016179171348425,0.0016179171369851,-0.0012750101766483,0.0012750101714975,-0.0012750101721605,0.0012750101779687,-0.0015173188494763,0.0015173188512704,-0.0015173188491789,0.0015173188515759,-1.5320340576478e-12,-1.5094664456598e-12,-0.00069215352650195,0.00069215352281722,1.2078048670963e-12,-4.3485709041439e-12,-0.00076965027587205,0.00076965027398231,-0.00076965027771317,0.00076965027214086,-0.00076965027586468,0.00076965027398998,-0.0007696502777058,0.00076965027214853,-0.00086246570880498,0.00086246570410028,-0.00086246570882725,0.00086246570407841,0.76690856828112,128637,2834,0.0062816704379042,0.0062816704379042,0.002883080387934,20.394822419614,7.8358579356911e-05,7.8358579356911e-05,7.8358579356911e-05,2070496.621734,0.015566759305496
27419200,0.99975989033014,0.015957898383543,0.0059318632995169,0.0059318632995169,0.0040941717845095,-0.0015164787136387,0.0015164787134133,-1.0134272757865e-13,-1.2377645400841e-13,3.8496265141995e-14,-2.702292152712e-13,-0.0016217109898052,0.0016217109896932,-0.0016217109908667,0.0016217109907397,-0.0016217109899,0.0016217109895822,-0.001621710990975,0.0016217109906423,-0.0012792342290463,0.0012792342287398,-0.0012792342300045,0.001279234229654,-3.8493529931437e-14,2.7023188373288e-13,-2.6392580482021e-12,2.8644166190385e-12,-0.0015164787134133,0.0015164787136387,-0.001621710990553,0.0016217109888731,-0.0016217109898771,0.0016217109917962,-0.0016217109904515,0.0016217109889773,-0.0016217109897756,0.0016217109919004,-0.0012792342313783,0.0012792342263144,-0.001279234227017,0.0012792342327378,-0.0015212433752973,0.001521243377067,-0.0015212433750003,0.0015212433773721,-2.3517740415787e-12,-2.3292591956716e-12,-0.00069478311114753,0.00069478310512681,3.7053060701489e-13,-5.1193887091302e-12,-0.00077310490433122,0.00077310490054225,-0.0007731049061537,0.00077310489871945,-0.00077310490432386,0.00077310490054991,-0.00077310490614635,0.0007731048987271,-0.00086494055030269,0.00086494054380453,-0.0008649405503249,0.00086494054378271,0.73787588813388,128637,2834,0.0062980234943128,0.0062980234943128,0.0028940174342281,22.255541100245,9.3244328801961e-05,9.3244328801961e-05,9.3244328801961e-05,2031795.7270088,0.015611084313389
28419200,0.99981661619772,0.015958845612385,0.0059322057132442,0.0059322057132442,0.0040944341858967,-0.0015174738683244,0.001517473868099,-1.0142901906015e-13,-1.2377398349565e-13,3.8534234570291e-14,-2.7033921191088e-13,-0.0016235775294146,0.0016235775293025,-0.0016235775303265,0.0016235775301995,-0.001623577529509,0.001623577529191,-0.0016235775304353,0.0016235775301024,-0.0012793551037821,0.0012793551034754,-0.0012793551047125,0.001279355104362,-3.8533763996431e-14,2.7034055573472e-13,-2.4759250154532e-12,2.7011594740793e-12,-0.001517473868099,0.0015174738683244,-0.0016235775301047,0.0016235775285361,-0.0016235775293946,0.0016235775312023,-0.0016235775300031,0.0016235775286404,-0.001623577529293,0.0016235775313066,-0.001279355105952,0.0012793551012072,-0.0012793551018868,0.0012793551072889,-0.0015218594430085,0.0015218594446683,-0.0015218594427113,0.0015218594449736,-1.9548710487009e-12,-1.9324455533501e-12,-0.000696102796382,0.00069610279149532,5.977619593707e-13,-4.5597331591643e-12,-0.00077331451469201,0.00077331451171167,-0.00077331451640298,0.00077331451000037,-0.00077331451468469,0.0007733145117193,-0.00077331451639566,0.00077331451000799,-0.00086718880153989,0.00086718879603244,-0.00086718880156201,0.0008671887960107,0.77519523914378,128637,2834,0.0063021504591428,0.0063021504591428,0.0028995006246436,23.44351643228,0.00010274813145824,0.00010274813145824,0.00010274813145824,2033841.4667241,0.015625033232265
29419200,0.999862708185,0.015959528460045,0.0059324540365321,0.0059324540365321,0.0040946203869807,-0.0015219474037759,0.0015219474035511,-1.0128719986322e-13,-1.2320053042601e-13,3.7845579137653e-14,-2.6891652007902e-13,-0.0016271444016619,0.0016271444015496,-0.0016271444026092,0.0016271444024824,-0.0016271444017559,0.0016271444014392,-0.001627144402717,0.0016271444023857,-0.0012845563723025,0.0012845563719968,-0.0012845563732333,0.0012845563728846,-3.78424909967e-14,2.6891946340592e-13,-2.4077340214928e-12,2.6322579098571e-12,-0.0015219474035511,0.0015219474037759,-0.0016271444023317,0.0016271444008068,-0.0016271444016976,0.0016271444034617,-0.0016271444022308,0.0016271444009103,-0.0016271444015967,0.0016271444035652,-0.0012845563744078,0.0012845563697969,-0.001284556370475,0.0012845563757404,-0.0015268047747948,0.001526804776411,-0.0015268047744997,0.0015268047767142,-2.0272166304704e-12,-2.0052241829541e-12,-0.00069825586551142,0.00069825586039688,4.6096541782291e-13,-4.5626092918886e-12,-0.00077722394519216,0.00077722394197625,-0.00077722394685911,0.00077722394030898,-0.00077722394518498,0.00077722394198374,-0.00077722394685194,0.00077722394031646,-0.00086852753397861,0.00086852752834931,-0.0008685275340003,0.00086852752832799,0.68887861521326,128637,2834,0.0063206588480971,0.0063206588480971,0.0029084637896913,24.782753687767,0.00011346202950213,0.00011346202950213,0.00011346202950213,1978913.478577,0.015671736414601
30419200,0.999899372101,0.015960062326159,0.0059326481406086,0.0059326481406086,0.004094766044942,-0.0015205549075524,0.0015205549073274,-1.0146431209962e-13,-1.2333064409819e-13,3.8126982305686e-14,-2.6948682618597e-13,-0.0016281503596624,0.0016281503595501,-0.001628150360612,0.0016281503604852,-0.001628150359757,0.0016281503594397,-0.0016281503607199,0.001628150360388,-0.0012807630885644,0.001280763088258,-0.0012807630895154,0.0012807630891662,-3.8123776521267e-14,2.6949010130421e-13,-2.3770443146834e-12,2.6018785695428e-12,-0.0015205549073274,0.0015205549075524,-0.0016281503603235,0.0016281503588181,-0.0016281503597092,0.0016281503614538,-0.0016281503602223,0.0016281503589219,-0.001628150359608,0.0016281503615576,-0.0012807630906419,0.0012807630860913,-0.0012807630867837,0.00128076309199,-0.0015243592970231,0.0015243592986186,-0.0015243592967271,0.0015243592989225,-2.0627970703391e-12,-2.0408519474916e-12,-0.00070004046878349,0.00070004046360604,3.9738743361609e-13,-4.5659798065688e-12,-0.00077507822403791,0.00077507822077704,-0.00077507822568526,0.00077507821912935,-0.00077507822403075,0.00077507822078451,-0.00077507822567811,0.00077507821913682,-0.00087271885973944,0.00087271885406067,-0.00087271885976107,0.00087271885403939,0.67662188291752,128637,2834,0.0063149221212902,0.0063149221212902,0.0029158572143698,26.133485823251,0.00012426788658601,0.00012426788658601,0.00012426788658601,2038756.897933,0.015667583833027
31419200,0.99992905359104,0.015960526194232,0.0059328159303633,0.0059328159303633,0.0040948943335057,-0.001524672643121,0.0015246726428955,-1.0153848630424e-13,-1.2368328038421e-13,3.8621349556047e-14,-2.7058876311079e-13,-0.0016325914318689,0.0016325914317567,-0.0016325914330464,0.0016325914329195,-0.0016325914319653,0.001632591431647,-0.0016325914331535,0.0016325914328205,-0.0012844209717833,0.0012844209714764,-0.0012844209727897,0.0012844209724395,-3.8584644794999e-14,2.7063810047076e-13,-2.4533650759674e-12,2.6786785652674e-12,-0.0015246726428954,0.001524672643121,-0.0016325914325649,0.0016325914310018,-0.0016325914321086,0.001632591433911,-0.0016325914324632,0.0016325914311062,-0.0016325914320069,0.0016325914340154,-0.0012844209739427,0.0012844209692452,-0.0012844209699744,0.0012844209753295,-0.0015284045125993,0.0015284045142472,-0.0015284045123021,0.0015284045145529,-2.6560658534392e-12,-2.6338323323478e-12,-0.00070438341455252,0.00070438340768969,-1.0202201565039e-13,-5.2318678170883e-12,-0.00077885119010554,0.00077885118553699,-0.00077885119181062,0.00077885118383153,-0.00077885119009834,0.00077885118554446,-0.00077885119180338,0.00077885118383907,-0.00087742526170642,0.00087742525466132,-0.00087742526172862,0.00087742525463999,0.72614080415961,128637,2834,0.0063319753493785,0.0063319753493785,0.0029338993277081,28.443692828259,0.00014274954262607,0.00014274954262607,0.00014274954262607,2026892.5132618,0.015720549372268
32419200,0.99995073371748,0.015960881985541,0.0059329442658451,0.0059329442658451,0.0040949934538504,-0.0015296736356435,0.001529673635418,-1.0155042711592e-13,-1.2371310300256e-13,3.8620643695257e-14,-2.7049603064959e-13,-0.0016359420582585,0.0016359420581463,-0.0016359420590972,0.0016359420589702,-0.0016359420583529,0.0016359420580347,-0.0016359420592061,0.0016359420588732,-0.0012906835821267,0.0012906835818196,-0.0012906835830436,0.0012906835826932,-3.8617643786902e-14,2.7049889826649e-13,-2.337006348018e-12,2.5623086019075e-12,-0.001529673635418,0.0015296736356435,-0.0016359420589018,0.0016359420574261,-0.0016359420582121,0.0016359420599269,-0.0016359420588001,0.0016359420575304,-0.0016359420581104,0.0016359420600312,-0.0012906835841597,0.0012906835796871,-0.0012906835803545,0.0012906835854847,-0.001534414161313,0.00153441416288,-0.0015344141610156,0.0015344141631855,-1.7513115138583e-12,-1.7290687957822e-12,-0.00070594982309904,0.00070594981878258,6.6087425192172e-13,-4.2170473191579e-12,-0.00078316195904888,0.00078316195643891,-0.00078316196066657,0.00078316195482089,-0.00078316195904162,0.00078316195644647,-0.00078316196065932,0.00078316195482845,-0.00087749874312287,0.00087749873815628,-0.00087749874314481,0.00087749873813473,0.76212554171645,128637,2834,0.0063526606123224,0.0063526606123223,0.0029404291048718,29.297399998991,0.00014957919999193,0.00014957919999193,0.00014957919999193,1952937.6031069,0.015769209441833
33419200,0.99996580117575,0.015961132138209,0.005933034416075,0.005933034416075,0.0040950633060594,-0.0015310132234568,0.0015310132232314,-1.015206633193e-13,-1.2369169189195e-13,3.8613879196026e-14,-2.7044400282724e-13,-0.001636623907438,0.0016366239073259,-0.0016366239080878,0.0016366239079609,-0.0016366239075318,0.0016366239072137,-0.0016366239081973,0.0016366239078644,-0.0012926626035302,0.0012926626032233,-0.0012926626043995,0.0012926626040491,-3.8608879348768e-14,2.7044962162388e-13,-2.1127561294872e-12,2.3380110422793e-12,-0.0015310132232314,0.0015310132234568,-0.0016366239080025,0.0016366239066793,-0.0016366239072816,0.0016366239088439,-0.0016366239079009,0.0016366239067836,-0.0016366239071799,0.0016366239089482,-0.00129266260534,0.0012926626013058,-0.0012926626019338,0.0012926626066254,-0.0015360213179478,0.0015360213193642,-0.0015360213176504,0.0015360213196697,-1.2173188609746e-12,-1.1950673444541e-12,-0.0007049684891484,0.00070496848632216,9.6251833101981e-13,-3.4599749766101e-12,-0.00078380270155179,0.00078380269997763,-0.00078380270301671,0.00078380269851238,-0.00078380270154452,0.0007838026999852,-0.00078380270300946,0.00078380269851995,-0.00087593864153514,0.0008759386378952,-0.0008759386415571,0.00087593863787363,0.77026801566173,128637,2834,0.0063581931216779,0.0063581931216779,0.0029363698549461,29.317356885028,0.00014973885508023,0.00014973885508023,0.00014973885508023,1909637.7461529,0.01577632926895
34419200,0.99997720590607,0.015961314485242,0.005933100208485,0.005933100208485,0.0040951140682717,-0.0015350389238356,0.0015350389236101,-1.0150672256871e-13,-1.23755219363e-13,3.8638260804125e-14,-2.7051561828649e-13,-0.0016406681689252,0.0016406681688131,-0.0016406681700667,0.0016406681699397,-0.0016406681690213,0.0016406681687031,-0.0016406681701739,0.0016406681698409,-0.0012968520133864,0.0012968520130794,-0.0012968520143656,0.0012968520140151,-3.8634290337185e-14,2.7051990331184e-13,-2.3502613469816e-12,2.5755628624401e-12,-0.0015350389236101,0.0015350389238356,-0.0016406681695856,0.0016406681680916,-0.0016406681691644,0.0016406681708975,-0.0016406681694839,0.001640668168196,-0.0016406681690627,0.0016406681710019,-0.0012968520154421,0.0012968520109473,-0.0012968520116538,0.0012968520168062,-0.001539912669778,0.001539912671357,-0.0015399126694806,0.0015399126716626,-2.5418901212434e-12,-2.5195611467835e-12,-0.00070853175100938,0.00070853174443631,-9.3903881300885e-14,-5.0152074800305e-12,-0.00078774527787007,0.00078774527345659,-0.00078774527950531,0.00078774527182102,-0.00078774527786278,0.00078774527346418,-0.00078774527949803,0.00078774527182861,-0.0008794597858811,0.0008794597791484,-0.00087945978590312,0.00087945977912676,0.7416825155071,128637,2834,0.0063748560195558,0.0063748560195558,0.002951178653102,31.487355100611,0.00016709884080489,0.00016709884080489,0.00016709884080489,1883150.075006,0.015825224843109
35419200,0.99998615105139,0.015961452626974,0.0059331500773877,0.0059331500773877,0.004095152472199,-0.0015422894263677,0.0015422894261422,-1.0151895748906e-13,-1.2374257269052e-13,3.8576674450252e-14,-2.7044385577291e-13,-0.0016485959824854,0.0016485959823733,-0.0016485959841663,0.0016485959840393,-0.0016485959825832,0.0016485959822651,-0.0016485959842718,0.0016485959839389,-0.0013035466478399,0.001303546647533,-0.0013035466489531,0.0013035466486027,-3.8572703983312e-14,2.7044748048984e-13,-2.9880368136317e-12,3.2133352392259e-12,-0.0015422894261422,0.0015422894263677,-0.0016485959833709,0.0016485959814428,-0.001648595983039,0.0016485959852063,-0.0016485959832692,0.0016485959815471,-0.0016485959829374,0.0016485959853106,-0.0013035466505312,0.0013035466447895,-0.0013035466456058,0.001303546652005,-0.0015468116524372,0.0015468116544447,-0.0015468116521399,0.0015468116547501,-4.0335272600711e-12,-4.0112233128224e-12,-0.00071744493417854,0.000717444923418,-9.2275856035939e-13,-7.1411982677654e-12,-0.00079545245286954,0.00079545244551664,-0.00079545245494004,0.00079545244344583,-0.00079545245286226,0.00079545244552423,-0.00079545245493277,0.00079545244345341,-0.00088890506076508,0.00088890505031254,-0.00088890506078709,0.00088890505029092,0.71640168569816,128637,2834,0.0064048832578317,0.0064048832578316,0.0029881956941835,35.940242347544,0.00020272193878035,0.00020272193878035,0.00020272193878035,1878520.6765153,0.015923834159978
36419200,0.99999187511009,0.01596154280279,0.0059331825518676,0.0059331825518676,0.0040951776990547,-0.0015443669711925,0.0015443669709671,-1.0146925312514e-13,-1.2375821927135e-13,3.8514588111653e-14,-2.7033894721308e-13,-0.0016512928954235,0.0016512928953113,-0.001651292896429,0.0016512928963019,-0.0016512928955183,0.0016512928952003,-0.0016512928965374,0.0016512928962045,-0.0013048987930419,0.0013048987927351,-0.0013048987939989,0.0013048987936484,-3.8511941133693e-14,2.7034152870591e-13,-2.5529346365524e-12,2.7781993926215e-12,-0.001544366970967,0.0015443669711925,-0.0016512928961422,0.0016512928945202,-0.0016512928954684,0.0016512928973296,-0.0016512928960406,0.0016512928946245,-0.0016512928953667,0.0016512928974338,-0.0013048987952901,0.001304898790395,-0.0013048987910948,0.0013048987966472,-0.0015486767156844,0.0015486767173963,-0.0015486767153872,0.0015486767177015,-2.2244990204486e-12,-2.2021294617507e-12,-0.00072017369972232,0.00072017369409331,4.1124596612979e-13,-4.9053410569626e-12,-0.00079715750432841,0.00079715750080235,-0.00079715750609315,0.00079715749903729,-0.00079715750432111,0.00079715750080997,-0.00079715750608586,0.00079715749904489,-0.00089228641529965,0.00089228640914904,-0.00089228641532172,0.00089228640912737,0.73063259847883,128637,2834,0.0064134918619187,0.0064134918619187,0.0029995282340188,37.484277001898,0.00021507421601519,0.00021507421601519,0.00021507421601519,1881779.7888547,0.015952836575007
37419200,0.99999525498858,0.015961595230436,0.005933201434451,0.0059332014344509,0.0040951923615339,-0.001545793573181,0.0015457935729555,-1.0146207687379e-13,-1.2375074891133e-13,3.8534352213756e-14,-2.7034953512492e-13,-0.001652292403902,0.0016522924037899,-0.0016522924045898,0.0016522924044628,-0.0016522924039955,0.0016522924036775,-0.0016522924046995,0.0016522924043667,-0.0013065437103636,0.0013065437100568,-0.001306543711245,0.0013065437108946,-3.8531469948866e-14,2.7035236902273e-13,-2.3097180563119e-12,2.5349682882383e-12,-0.0015457935729555,0.001545793573181,-0.0016522924045301,0.0016522924030772,-0.0016522924037199,0.001652292405412,-0.0016522924044285,0.0016522924031814,-0.0016522924036183,0.0016522924055163,-0.0013065437123653,0.0013065437079444,-0.0013065437085874,0.0013065437136656,-0.0015504210060383,0.0015504210075857,-0.001550421005741,0.0015504210078909,-1.3599600383685e-12,-1.3375907257568e-12,-0.00072009263877468,0.00072009263558005,1.0139399513011e-12,-3.800922752066e-12,-0.00079790683391746,0.00079790683218319,-0.00079790683551267,0.00079790683058765,-0.00079790683391016,0.0007979068321908,-0.00079790683550538,0.00079790683059526,-0.00089189476903649,0.00089189476495955,-0.00089189476905856,0.00089189476493786,0.71957515716371,128637,2834,0.006419391408357,0.006419391408357,0.0029992019438536,37.680911734532,0.00021664729387625,0.00021664729387625,0.00021664729387625,1853419.9352941,0.015964494173967
38419200,0.99999719757451,0.015961626485832,0.0059332126649655,0.0059332126649655,0.0040952011559012,-0.0015446238572935,0.0015446238570681,-1.0147137070751e-13,-1.2374174918627e-13,3.8534175748558e-14,-2.7034844692287e-13,-0.0016514175284672,0.001651417528355,-0.0016514175289961,0.0016514175288691,-0.0016514175285618,0.0016514175282438,-0.0016514175291047,0.0016514175287719,-0.0013049295591795,0.0013049295588727,-0.001304929560027,0.0013049295596766,-3.8530881731541e-14,2.7034990574779e-13,-1.5119954233185e-12,1.7372450055635e-12,-0.0015446238570681,0.0015446238572935,-0.0016514175288375,0.0016514175279104,-0.0016514175283839,0.0016514175295502,-0.0016514175287359,0.0016514175280146,-0.0016514175282823,0.0016514175296545,-0.0013049295604062,0.0013049295575509,-0.0013049295581444,0.0013049295616571,-0.0015492091742357,0.001549209175253,-0.0015492091739385,0.0015492091755583,-8.6076177296529e-13,-8.3841103417724e-13,-0.00071836858651525,0.00071836858468468,7.271835938639e-13,-2.497424617157e-12,-0.00079587435360041,0.00079587435246226,-0.00079587435466775,0.0007958743513946,-0.00079587435359311,0.00079587435246986,-0.00079587435466046,0.00079587435140219,-0.00089058402579305,0.00089058402333596,-0.0008905840258151,0.0008905840233143,0.74581354470747,128637,2834,0.0064145502390772,0.0064145502390772,0.0029920442883855,37.194787289799,0.00021275829831839,0.00021275829831839,0.00021275829831839,1851207.8822279,0.015947384788237
38880000,0.9999978759795,0.015961637462182,0.0059332166071997,0.0059332166071996,0.0040952042477824,-0.0015457956583457,0.0015457956581202,-1.0145225364447e-13,-1.2372510263598e-13,3.8557616208939e-14,-2.7036365234071e-13,-0.0016519692251876,0.0016519692250755,-0.001651969225833,0.001651969225706,-0.0016519692252828,0.0016519692249648,-0.001651969225941,0.0016519692256081,-0.0013066542413627,0.0013066542410559,-0.0013066542422328,0.0013066542418824,-3.8553704563731e-14,2.7036762935617e-13,-1.5358740358125e-12,1.7611126440705e-12,-0.0015457956581202,0.0015457956583457,-0.0016519692255704,0.0016519692246239,-0.0016519692252083,0.001651969226394,-0.0016519692254688,0.0016519692247282,-0.0016519692251067,0.0016519692264982,-0.0013066542426159,0.0013066542397152,-0.0013066542403238,0.0013066542438818,-0.0015506893402126,0.001550689341247,-0.0015506893399153,0.0015506893415524,-1.1535711638343e-12,-1.131217589138e-12,-0.00071812682488835,0.00071812682221289,4.6581081391703e-13,-2.811899245467e-12,-0.00079680603221009,0.00079680603039645,-0.00079680603329624,0.00079680602931,-0.0007968060322028,0.00079680603040405,-0.00079680603328894,0.00079680602931759,-0.00088976463584355,0.00088976463271833,-0.00088976463586562,0.00088976463269669,0.74997280595698,128637,2834,0.006419392457924,0.006419392457924,0.0029910496908096,37.193619221458,0.00021274895377166,0.00021274895377166,0.00021274895377166,1823681.5360375,0.015956215809029
