time,ASR_ext,ASR_strain,ASR_strain_xx,ASR_strain_yy,ASR_strain_zz,disp_x_101,disp_x_102,disp_x_103,disp_x_104,disp_x_105,disp_x_106,disp_x_p1_neg,disp_x_p1_pos,disp_x_p2_neg,disp_x_p2_pos,disp_x_p3_neg,disp_x_p3_pos,disp_x_p4_neg,disp_x_p4_pos,disp_x_p5_neg,disp_x_p5_pos,disp_x_p6_neg,disp_x_p6_pos,disp_y_101,disp_y_102,disp_y_103,disp_y_104,disp_y_105,disp_y_106,disp_y_p1_neg,disp_y_p1_pos,disp_y_p2_neg,disp_y_p2_pos,disp_y_p3_neg,disp_y_p3_pos,disp_y_p4_neg,disp_y_p4_pos,disp_y_p5_neg,disp_y_p5_pos,disp_y_p6_neg,disp_y_p6_pos,disp_y_p7_neg,disp_y_p7_pos,disp_y_p8_neg,disp_y_p8_pos,disp_z_101,disp_z_102,disp_z_103,disp_z_104,disp_z_105,disp_z_106,disp_z_p1_neg,disp_z_p1_pos,disp_z_p2_neg,disp_z_p2_pos,disp_z_p3_neg,disp_z_p3_pos,disp_z_p4_neg,disp_z_p4_pos,disp_z_p5_neg,disp_z_p5_pos,disp_z_p6_neg,disp_z_p6_pos,humidity,ndof,nelem,strain_xx,strain_yy,strain_zz,temp,thermal_strain_xx,thermal_strain_yy,thermal_strain_zz,vonmises,vstrain
2419200,0,0,0,0,0,0,0,0,0,0,0,0,0,0,0,0,0,0,0,0,0,0,0,0,0,0,0,0,0,0,0,0,0,0,0,0,0,0,0,0,0,0,0,0,0,0,0,0,0,0,0,0,0,0,0,0,0,0,0,0,0,0,0,0,0,0,0,0,0,0,0,0,0,0,0
3419200,0.1586166414956,0.0030029821273482,0.0010009940424494,0.0010009940424494,0.0010009940424494,-0.00028642404762313,0.00028642404762302,-2.8682947285061e-16,-1.7352411072224e-18,2.0624369939656e-17,-2.0043946494723e-15,-0.00028934209013476,0.00028934209014131,-0.00028934311375585,0.00028934311375623,-0.00028934210016477,0.00028934210015641,-0.00028934310373064,0.00028934310373036,-0.00027937081639241,0.00027937081639314,-0.00027937147321735,0.00027937147322509,-8.76271759911e-15,-6.6996769930697e-15,-7.2046748237582e-10,7.2044720709477e-10,-0.0002864240476302,0.00028642404761782,-0.00028934240110525,0.00028934186894828,-0.00028934280280523,0.00028934333493455,-0.00028934240109884,0.00028934186894802,-0.00028934280280104,0.00028934333493163,-0.00027937157734231,0.00027937018583457,-0.0002793707122952,0.00027937210376408,-0.00028613259031953,0.0002861330886957,-0.00028613259029909,0.00028613308869444,-4.78008805858e-09,-4.7800883446778e-09,-0.0002569444196323,0.00025693222106198,-3.9326615940826e-09,-5.4696865540509e-09,-0.00026269386040142,0.00026268395786882,-0.00026269438881583,0.0002626834294625,-0.00026269386040307,0.00026268395787445,-0.00026269438882116,0.00026268342945994,-0.00026357631834844,0.00026356579989014,-0.00026357631835786,0.00026356579988855,0.75746877217741,120135,2834,0.0011927179808919,0.0011927179808958,0.0010700078453329,31.795773042759,0.00016956618434208,0.00016956618434208,0.00016956618434208,1921275.6107348,0.0034614227594124
4419200,0.35006512008811,0.0064760721211138,0.0022600532677319,0.0022600532677386,0.0019559655856433,-0.00059864731867001,0.0005986473186713,2.2783127520505e-15,2.144522721597e-15,7.6941767128888e-16,-1.6624492133177e-15,-0.00061322557658821,0.00061322557659958,-0.00061322855586656,0.00061322855586547,-0.00061322561682769,0.0006132256168128,-0.00061322851562601,0.00061322851563059,-0.00056379696700197,0.00056379696700044,-0.00056379866405255,0.00056379866406333,-1.5763136094071e-14,-1.5307100163524e-14,-1.0876980386135e-09,1.0876458136284e-09,-0.00059864731868888,0.00059864731865521,-0.00061322611045582,0.00061322527727087,-0.00061322802204452,0.00061322885515662,-0.00061322611044731,0.00061322527726906,-0.00061322802204283,0.00061322885515356,-0.00056379813241545,0.00056379604494052,-0.0005637974986861,0.00056379958606684,-0.00060105251843664,0.00060105331202628,-0.00060105251841935,0.00060105331200516,-9.8614386726922e-09,-9.8614391153777e-09,-0.00046228906209405,0.00046226557897082,-8.4316715991395e-09,-1.0892783068844e-08,-0.00047689234561535,0.00047687137147601,-0.00047689319961093,0.00047687051751501,-0.00047689234562791,0.00047687137148015,-0.00047689319960836,0.00047687051751533,-0.00049515403445163,0.00049513295017146,-0.00049515403446472,0.00049513295015988,0.73992840791513,120135,2834,0.0024912288198152,0.002491228819821,0.0019244015802627,33.599619515558,0.00018399695612447,0.00018399695612447,0.00018399695612447,3398214.1478609,0.006930782156999
5419200,0.55047688264147,0.0099960189727559,0.0036091404358927,0.0036091404358823,0.0027777381009809,-0.00093586471789874,0.00093586471790306,5.0097587200158e-15,5.6352690228701e-15,5.0533162128937e-15,-3.3877200368901e-15,-0.00096787059609844,0.00096787059611137,-0.00096787223810431,0.00096787223811367,-0.00096787063054548,0.00096787063053691,-0.00096787220366494,0.00096787220367292,-0.00085808897257025,0.00085808897257754,-0.00085808876266239,0.00085808876268319,-1.1322359992027e-14,-3.7161828886048e-15,3.9522780857967e-10,-3.9526104957934e-10,-0.00093586471790778,0.00093586471788827,-0.00096787046527092,0.00096787074683233,-0.00096787236897113,0.00096787208735585,-0.00096787046527278,0.00096787074684425,-0.00096787236897624,0.00096787208736397,-0.00085808850408143,0.00085808931316877,-0.00085808923117644,0.00085808842203277,-0.00094539297182899,0.00094539278840442,-0.0009453929718075,0.00094539278839258,-3.1364292748105e-09,-3.1364291695653e-09,-0.00063198313198644,0.00063197426289512,-3.4107288163112e-09,-2.7744687164734e-09,-0.00065668677485083,0.00065667812350475,-0.00065668655444908,0.00065667834393436,-0.00065668677485942,0.00065667812350627,-0.00065668655443881,0.00065667834394144,-0.00070274596267982,0.00070273963598813,-0.00070274596269729,0.00070273963598733,0.72499638738019,120135,2834,0.0038917474321305,0.0038917474321186,0.0026302250301126,36.267931440682,0.00020534345152546,0.00020534345152546,0.00020534345152546,4007050.9079552,0.010468176409099
6419200,0.7069926869282,0.012247384217893,0.0045023300337705,0.0045023300337677,0.0032427241503551,-0.001159435788538,0.0011594357885428,5.1027852898827e-15,5.539448420712e-15,2.8098553373188e-15,-6.6956778045804e-16,-0.0012136148505675,0.0012136148505778,-0.0012136160626005,0.0012136160626076,-0.0012136148715745,0.0012136148715705,-0.0012136160415984,0.001213616041609,-0.0010368762101525,0.0010368762101588,-0.0010368760636349,0.0010368760636547,-1.380410770575e-14,-1.0139716893021e-14,5.8644049337554e-10,-5.864796233692e-10,-0.0011594357885526,0.0011594357885276,-0.0012136146469473,0.0012136150583917,-0.0012136162662726,0.0012136158547567,-0.0012136146469467,0.0012136150584009,-0.001213616266276,0.0012136158547629,-0.0010368755706873,0.0010368767503502,-0.0010368767031287,0.0010368755233945,-0.0011709890848551,0.001170988755109,-0.0011709890848468,0.0011709887550945,-3.2071077088938e-09,-3.2071077944701e-09,-0.00071079759711275,0.00071078950651464,-3.713193704687e-09,-2.6372485179269e-09,-0.00074647101717707,0.0007464629210233,-0.00074647065064653,0.0007464632875807,-0.00074647101718271,0.0007464629210227,-0.00074647065063428,0.00074646328758449,-0.00081022844915164,0.00081022262965264,-0.0008102284491674,0.00081022262964854,0.59839168540088,120135,2834,0.0048191540032189,0.0048191540032179,0.0029581821565953,36.738621354556,0.00020910897083645,0.00020910897083645,0.00020910897083645,4154755.629093,0.012676266155681
7419200,0.83233899677093,0.013826403526826,0.0051271439685847,0.005127143968584,0.0035721155896572,-0.0013245805483198,0.0013245805483249,5.1221964615906e-15,5.6275927867857e-15,3.132198431135e-15,-7.33212894967e-16,-0.0013990851161061,0.0013990851161165,-0.0013990864073131,0.001399086407321,-0.0013990851365258,0.0013990851365208,-0.0013990863868985,0.0013990863869086,-0.0011639606806866,0.0011639606806938,-0.0011639607675453,0.0011639607675638,-1.1392299031908e-14,-7.4451616294118e-15,5.8768571078262e-10,-5.8772104922023e-10,-0.0013245805483331,0.0013245805483118,-0.0013990849280469,0.001399085326745,-0.0013990865954181,0.0013990861966599,-0.0013990849280458,0.0013990853267517,-0.0013990865954242,0.001399086196667,-0.0011639600663787,0.0011639612467227,-0.0011639613818824,0.0011639602014779,-0.0013372264410667,0.0013372261082117,-0.0013372264410574,0.0013372261081993,-3.9939487878857e-09,-3.993948758754e-09,-0.00076204482342861,0.00076203473595087,-4.4756624972888e-09,-3.4089021186449e-09,-0.00080334490430979,0.00080333521047234,-0.00080334454665361,0.00080333556815607,-0.0008033449043175,0.00080333521047327,-0.0008033445466411,0.00080333556816067,-0.00088622804213677,0.00088622051122163,-0.00088622804215285,0.00088622051122007,0.52694121020036,120135,2834,0.0055036323316382,0.0055036323316389,0.0031715541899198,40.76279543368,0.00024130236346944,0.00024130236346944,0.00024130236346944,4007644.8815495,0.01427999263933
8419200,0.90794816313812,0.014680269310371,0.0054619251194134,0.0054619251194133,0.0037564190715441,-0.0014134424863285,0.0014134424863337,5.1654892566725e-15,5.5508304259407e-15,3.8835578305623e-15,-1.349488185827e-15,-0.0014994836369769,0.0014994836369894,-0.001499484594512,0.001499484594521,-0.0014994836542566,0.0014994836542526,-0.0014994845772372,0.0014994845772463,-0.001229776285299,0.0012297762853065,-0.001229776303657,0.0012297763036759,-1.2433620161439e-14,-7.303076528378e-15,8.3360053209261e-10,-8.3363460077231e-10,-0.0014134424863413,0.0014134424863211,-0.0014994833483668,0.0014994839246488,-0.0014994848831648,0.0014994843068284,-0.0014994833483664,0.0014994839246571,-0.0014994848831709,0.0014994843068352,-0.0012297754188094,0.0012297770739404,-0.0012297771701771,0.0012297755149852,-0.0014276247299276,0.0014276242268639,-0.0014276247299147,0.0014276242268517,-2.5789507710988e-09,-2.5789506274168e-09,-0.00077523974101789,0.00077523331735075,-3.3437605424695e-09,-1.7539819375558e-09,-0.00082208154778745,0.00082207487776725,-0.00082208101143429,0.00082207541414745,-0.0008220815477936,0.0008220748777675,-0.00082208101142306,0.00082207541415197,-0.0009149716390304,0.00091496726534033,-0.00091497163904692,0.00091496726533874,0.47156008474719,120135,2834,0.0058717150394177,0.005871715039418,0.0032267653603168,41.433445292093,0.00024666756233674,0.00024666756233674,0.00024666756233674,3659455.3928473,0.015083041271808
9419200,0.94978295458394,0.015088906331542,0.0056204330965969,0.0056204330965967,0.0038480401383484,-0.0014562099731994,0.001456209973205,5.6110638799677e-15,5.9852289200708e-15,3.9378208787458e-15,-1.4845428835281e-15,-0.0015484656499086,0.0015484656499215,-0.0015484664465677,0.0015484664465763,-0.0015484656660555,0.0015484656660518,-0.0015484664304267,0.0015484664304359,-0.001259510145214,0.0012595101452227,-0.0012595101292484,0.0012595101292678,-1.2241802491925e-14,-6.9382219230571e-15,1.1309626982365e-09,-1.1309964135786e-09,-0.0014562099732122,0.0014562099731924,-0.001548465256527,0.0015484660348638,-0.0015484668399917,0.0015484660616008,-0.0015484652565273,0.0015484660348726,-0.0015484668399973,0.0015484660616081,-0.0012595089840901,0.0012595112198271,-0.001259511290401,0.0012595090546037,-0.0014715385905402,0.0014715378872517,-0.0014715385905278,0.0014715378872397,-1.9284028491493e-09,-1.9284026970037e-09,-0.00077290919397561,0.00077290441158378,-3.0028612741052e-09,-8.0678636515682e-10,-0.00082396572203071,0.00082396031357356,-0.0008239649822267,0.00082396105340355,-0.00082396572203646,0.00082396031357398,-0.00082396498221473,0.00082396105340779,-0.00092135842801671,0.00092135562159485,-0.00092135842803478,0.00092135562159405,0.40621133923259,120135,2834,0.0060487984132221,0.0060487984132225,0.0032173559738757,41.145339352962,0.0002443627148237,0.0002443627148237,0.0002443627148237,3353905.326042,0.015433092913632
10419200,0.97070356037166,0.01530979466334,0.0057046537732157,0.0057046537732156,0.0039004871169084,-0.0014734848414601,0.0014734848414656,5.4838324726822e-15,5.8659384466658e-15,3.9922898029928e-15,-1.4052805990541e-15,-0.0015683368411147,0.0015683368411272,-0.0015683372855438,0.0015683372855523,-0.0015683368544712,0.0015683368544672,-0.0015683372721931,0.0015683372722025,-0.0012702694213856,0.0012702694213941,-0.001270269291825,0.0012702692918441,-1.2180980820574e-14,-6.9045487215113e-15,1.6050779230703e-09,-1.6051114990264e-09,-0.0014734848414729,0.001473484841453,-0.0015683362706562,0.0015683373787291,-0.0015683378560447,0.0015683367479172,-0.0015683362706561,0.0015683373787376,-0.0015683378560506,0.0015683367479244,-0.0012702677814265,0.0012702709409452,-0.0012702709318124,0.0012702677722342,-0.001490021012964,0.001490019988766,-0.0014900210129509,0.0014900199887546,-3.9940619737141e-10,-3.9940604697825e-10,-0.00076554589024564,0.00076554494564849,-1.9844606560009e-09,1.190274945888e-09,-0.00081821330520671,0.00081821097522659,-0.00081821223455643,0.0008182120459029,-0.00081821330521274,0.00081821097522707,-0.00081821223454486,0.00081821204590707,-0.00091933632398642,0.00091933705033692,-0.00091933632400364,0.00091933705033577,0.43665130715676,120135,2834,0.0061203105458805,0.0061203105458808,0.0031869331743148,38.099073891879,0.00021999259113503,0.00021999259113503,0.00021999259113503,3196995.9894742,0.01554744808897
11419200,0.98278256999496,0.015428121453507,0.0057496049340769,0.0057496049340767,0.0039289115853539,-0.0014870837414381,0.0014870837414433,5.3011321716981e-15,5.6393571332753e-15,3.862646704677e-15,-1.4971895560044e-15,-0.001582595687908,0.0015825956879203,-0.0015825964090132,0.0015825964090217,-0.0015825957049214,0.0015825957049172,-0.0015825963920058,0.0015825963920149,-0.0012810171312094,0.0012810171312177,-0.0012810170955557,0.0012810170955744,-1.2109218306987e-14,-6.8643281556448e-15,1.7784221793675e-09,-1.7784557681397e-09,-0.0014870837414507,0.0014870837414309,-0.0015825950867117,0.0015825962905764,-0.0015825970102514,0.0015825958063327,-0.0015825950867114,0.0015825962905847,-0.0015825970102572,0.0015825958063396,-0.0012810153421689,0.0012810188484007,-0.0012810188846247,0.0012810153783338,-0.0015044973914513,0.0015044962577589,-0.0015044973914385,0.0015044962577475,-1.5896070077471e-09,-1.5896068094561e-09,-0.00075961781902744,0.0007596138671498,-3.3003194238306e-09,1.8546521312093e-10,-0.00081728923120287,0.00081728411831506,-0.00081728806346753,0.00081728528607616,-0.00081728923120898,0.00081728411831544,-0.0008172880634561,0.00081728528608056,-0.00091559961977277,0.00091559795049355,-0.00091559961978999,0.00091559795049193,0.40445605707229,120135,2834,0.006176575984716,0.0061765759847162,0.003162447774485,37.627945904021,0.00021622356723217,0.00021622356723217,0.00021622356723217,2978926.9688317,0.015636881873669
12419200,0.98970965118367,0.015504431570773,0.005778273350791,0.0057782733507908,0.0039478848691909,-0.0014935589998247,0.00149355899983,5.3774239586834e-15,5.7102961426078e-15,3.8942633858679e-15,-1.4615141752746e-15,-0.0015899548296331,0.0015899548296456,-0.00158995549875,0.0015899554987586,-0.0015899548465879,0.0015899548465836,-0.0015899554818012,0.0015899554818105,-0.0012849520986854,0.0012849520986938,-0.0012849520449898,0.0012849520450085,-1.2210332865065e-14,-6.9721292052276e-15,1.9593436404088e-09,-1.9593773846343e-09,-0.0014935589998374,0.0014935589998175,-0.0015899541678799,0.0015899554925364,-0.0015899561605456,0.0015899548358345,-0.0015899541678796,0.0015899554925448,-0.0015899561605515,0.0015899548358417,-0.0012849501327823,0.0012849539935201,-0.0012849540109213,0.0012849501501239,-0.0015115090885463,0.001511507834143,-0.0015115090885336,0.0015115078341316,-1.3709355627154e-09,-1.3709353588952e-09,-0.00075618817594225,0.00075618477933547,-3.2637762316853e-09,5.859930033307e-10,-0.0008144813268286,0.00081447658338889,-0.00081448003780957,0.00081447787243355,-0.00081448132683465,0.00081447658338926,-0.0008144800377981,0.00081447787243783,-0.0009144617399172,0.00091446065558021,-0.00091446173993451,0.00091446065557876,0.45322610794666,120135,2834,0.0062033764014285,0.0062033764014288,0.0031482706826882,36.803857434875,0.000209630859479,0.000209630859479,0.000209630859479,2902462.0586409,0.015676924187932
13419200,0.99357818333411,0.015543472056824,0.005792941029806,0.0057929410298059,0.0039575899972117,-0.0014956321068721,0.0014956321068774,5.4249519185016e-15,5.763470988741e-15,3.8874400649039e-15,-1.4081922748103e-15,-0.0015918880423562,0.0015918880423687,-0.0015918885677721,0.0015918885677807,-0.0015918880584572,0.001591888058453,-0.0015918885516772,0.0015918885516864,-0.0012862473028571,0.0012862473028658,-0.0012862471849885,0.0012862471850075,-1.2083513209907e-14,-6.9001176183675e-15,2.1902852843744e-09,-2.1903186011305e-09,-0.0014956321068846,0.0014956321068649,-0.0015918872972901,0.0015918887805457,-0.0015918893128805,0.0015918878295707,-0.0015918872972898,0.0015918887805541,-0.0015918893128864,0.0015918878295779,-0.0012862451055038,0.0012862494170564,-0.0012862493823699,0.0012862450707586,-0.0015140627375492,0.0015140613275911,-0.0015140627375364,0.0015140613275797,-7.3165042426048e-10,-7.3165022326438e-10,-0.00074748309713576,0.00074748131433671,-2.8674721115335e-09,1.4541067446989e-09,-0.00080963341244081,0.00080962988479279,-0.00080963196461559,0.00080963133264357,-0.00080963341244692,0.00080962988479318,-0.00080963196460413,0.00080963133264784,-0.00090642354171421,0.00090642396218424,-0.00090642354173165,0.00090642396218297,0.4150894025916,120135,2834,0.0062119246995662,0.0062119246995664,0.0031122051805859,34.793607899332,0.00019354886319466,0.00019354886319466,0.00019354886319466,2767193.9195881,0.015657668260465
14419200,0.99581186689664,0.015564303354955,0.0058007397414274,0.0058007397414273,0.0039628238721,-0.0014934443773278,0.0014934443773332,5.4033055209606e-15,5.7508243162647e-15,3.8846754434788e-15,-1.3982808128928e-15,-0.0015905218780914,0.0015905218781039,-0.0015905223774194,0.001590522377428,-0.0015905218944593,0.0015905218944551,-0.0015905223610575,0.0015905223610667,-0.0012822867410254,0.001282286741034,-0.0012822866227206,0.0012822866227394,-1.2158216810116e-14,-6.9949948899687e-15,2.4024699121374e-09,-2.4025035797971e-09,-0.0014934443773405,0.0014934443773206,-0.001590521064322,0.0015905226875307,-0.0015905231912312,0.001590521567968,-0.0015905210643218,0.0015905226875391,-0.0015905231912371,0.0015905215679752,-0.0012822843375188,0.0012822890654865,-0.0012822890262559,0.0012822842982284,-0.0015120448283564,0.001512043277395,-0.0015120448283437,0.0015120432773836,-6.2290769618966e-10,-6.2290750627974e-10,-0.00074169221503215,0.00074169070462473,-2.9683627071157e-09,1.7769663717059e-09,-0.0008029248992864,0.00080292149459326,-0.0008029233108032,0.00080292308310212,-0.00080292489929243,0.00080292149459364,-0.00080292331079173,0.0008029230831064,-0.0009021344721576,0.00090213526272977,-0.00090213447217498,0.00090213526272845,0.38312450045663,120135,2834,0.0062028686571987,0.006202868657199,0.0030881717455859,32.642848259789,0.00017634278607831,0.00017634278607831,0.00017634278607831,2758538.2535063,0.0156148617214
15419200,0.99697494525031,0.015578795428854,0.0058061251510344,0.0058061251510342,0.0039665451267854,-0.0014843102430932,0.0014843102430989,5.6730619859681e-15,6.0224630767105e-15,3.953732157373e-15,-1.2753139812098e-15,-0.0015817733454273,0.0015817733454399,-0.0015817734457905,0.0015817734457994,-0.0015817733586144,0.0015817733586105,-0.0015817734326093,0.0015817734326189,-0.0012720906168252,0.0012720906168348,-0.0012720903569973,0.0012720903570168,-1.202904428566e-14,-6.9278409786989e-15,2.8412881105794e-09,-2.8413214329188e-09,-0.0014843102431059,0.0014843102430863,-0.0015817723620885,0.0015817742948785,-0.0015817744291716,0.0015817724963275,-0.0015817723620884,0.0015817742948869,-0.0015817744291775,0.0015817724963347,-0.0012720877652392,0.0012720933468495,-0.001272093208612,0.001272087626943,-0.0015031555720416,0.0015031537228564,-0.0015031555720295,0.0015031537228452,1.1195714141781e-09,1.1195716029443e-09,-0.00072942480579098,0.00072942768283757,-1.7079257185564e-09,3.9497727349483e-09,-0.0007903093222119,0.00079030946669215,-0.00079030742407794,0.0007903113648521,-0.00079030932221796,0.00079030946669226,-0.00079030742406615,0.00079031136485602,-0.00089089586269039,0.00089090061812924,-0.00089089586270872,0.00089090061812868,0.51103778709309,120135,2834,0.0061650440114035,0.006165044011404,0.0030372409407536,27.06704484239,0.00013173635873912,0.00013173635873912,0.00013173635873912,2771019.6351503,0.015486312716151
16419200,0.9977216653472,0.015587260511255,0.00580928640761,0.0058092864076099,0.0039686876960348,-0.0014831280753164,0.0014831280753218,5.5152432778096e-15,5.8872907355445e-15,3.8490588844814e-15,-1.3581938022293e-15,-0.0015794834046057,0.0015794834046182,-0.0015794838503008,0.0015794838503096,-0.0015794834218993,0.0015794834218953,-0.0015794838330129,0.0015794838330224,-0.0012718120632384,0.0012718120632473,-0.0012718119081926,0.0012718119082116,-1.2140099716522e-14,-7.0307450616123e-15,2.9592199539417e-09,-2.9592533660175e-09,-0.001483128075329,0.0014831280753092,-0.0015794824120312,0.0015794844013212,-0.0015794848429176,0.0015794828535733,-0.0015794824120311,0.0015794844013297,-0.0015794848429235,0.0015794828535807,-0.001271809118654,0.0012718149395653,-0.0012718148528056,0.0012718090318348,-0.0015023800349607,0.0015023781143913,-0.0015023800349484,0.00150237811438,-3.2229597950662e-10,-3.2229581017247e-10,-0.00071746406189964,0.00071746329662192,-3.2145597976547e-09,2.6390256077557e-09,-0.00078461091301842,0.00078460772745323,-0.0007846089566871,0.00078460968381013,-0.00078461091302451,0.00078460772745363,-0.00078460895667553,0.0007846096838143,-0.0008783032061702,0.00087830499918798,-0.00087830320618794,0.00087830499918686,0.46538451425637,120135,2834,0.006160093988213,0.0061600939882131,0.0029876521180577,24.417051457657,0.00011053641166125,0.00011053641166125,0.00011053641166125,2597922.8888322,0.01542591993129
17419200,0.99822314020309,0.015593691149317,0.0058116681018212,0.005811668101821,0.0039703549456745,-0.0014784569447191,0.0014784569447245,5.4506570155814e-15,5.8323512374379e-15,3.8757345401467e-15,-1.3708110638394e-15,-0.0015758734714311,0.0015758734714435,-0.0015758739308977,0.0015758739309063,-0.0015758734891107,0.0015758734891065,-0.0015758739132241,0.0015758739132335,-0.001265077874418,0.0012650778744267,-0.0012650777366917,0.0012650777367106,-1.2096101060651e-14,-6.9641066447047e-15,3.0379763234639e-09,-3.0380096944039e-09,-0.0014784569447317,0.001478456944712,-0.0015758724555093,0.0015758744952124,-0.0015758749468616,0.0015758729071044,-0.0015758724555091,0.0015758744952208,-0.0015758749468675,0.0015758729071116,-0.0012650748557509,0.0012650808318655,-0.0012650807553871,0.0012650747792136,-0.0014978175414535,0.0014978155690906,-0.0014978175414411,0.0014978155690792,-4.111647437675e-10,-4.1116458882169e-10,-0.00071129676258335,0.00071129577797578,-3.3773779267609e-09,2.6310313608862e-09,-0.00077613761451508,0.00077613422856301,-0.00077613560744131,0.00077613623566249,-0.00077613761452127,0.00077613422856332,-0.00077613560742978,0.00077613623566668,-0.00087394669426657,0.0008739483543034,-0.00087394669428411,0.00087394835430221,0.52521873377382,120135,2834,0.0061407650163799,0.0061407650163802,0.0029620315230944,21.979043880793,9.1032351046342e-05,9.1032351046342e-05,9.1032351046342e-05,2618825.8698672,0.015360645461412
18419200,0.99853479803357,0.015597532622246,0.0058130944928455,0.0058130944928453,0.0039713436365557,-0.0014718271254502,0.0014718271254555,5.4187756365945e-15,5.7931171418949e-15,3.8696464908383e-15,-1.399369014943e-15,-0.0015689755143104,0.001568975514323,-0.001568975740066,0.0015689757400747,-0.0015689755301183,0.0015689755301142,-0.0015689757242644,0.0015689757242737,-0.0012582315921572,0.0012582315921659,-0.0012582313533066,0.0012582313533253,-1.2097924534357e-14,-6.9423787354076e-15,3.2262342743831e-09,-3.2262676247938e-09,-0.0014718271254627,0.0014718271254431,-0.0015689744216868,0.001568976597173,-0.001568976832732,0.0015689746571918,-0.0015689744216864,0.0015689765971814,-0.001568976832738,0.0015689746571988,-0.001258228378107,0.0012582347193593,-0.0012582345673852,0.0012582282260738,-0.0014915339271496,0.0014915318258973,-0.0014915339271369,0.0014915318258859,6.0679817947783e-10,6.0679834408005e-10,-0.00069782166684633,0.00069782326247366,-2.5731108140544e-09,3.8317271069847e-09,-0.00076536490337331,0.000765363587557,-0.00076536276085131,0.00076536573010416,-0.00076536490337941,0.00076536358755713,-0.00076536276083987,0.00076536573010852,-0.00086072285815748,0.00086072679949736,-0.00086072285817476,0.0008607267994957,0.50516361584657,120135,2834,0.0061132838317024,0.0061132838317026,0.0029061143245075,17.483903123588,5.5071224988706e-05,5.5071224988706e-05,5.5071224988706e-05,2539189.7206388,0.015248076260511
19419200,0.99879275704234,0.015601651921524,0.0058146133897969,0.0058146133897967,0.0039724251419307,-0.0014720808130504,0.0014720808130558,5.4410102514599e-15,5.8141753221114e-15,3.8846754434788e-15,-1.3828106972589e-15,-0.0015694255417283,0.0015694255417408,-0.0015694257609312,0.0015694257609399,-0.0015694255575458,0.0015694255575417,-0.0015694257451198,0.0015694257451291,-0.0012581626128506,0.0012581626128593,-0.001258162380362,0.0012581623803809,-1.2063219712212e-14,-6.9109123253613e-15,3.2441259119158e-09,-3.2441590807754e-09,-0.001472080813063,0.0014720808130433,-0.0015694244431623,0.0015694266305728,-0.0015694268595394,0.0015694246720749,-0.001569424443162,0.0015694266305812,-0.0015694268595454,0.0015694246720821,-0.0012581593813559,0.0012581657577219,-0.0012581656118851,0.0012581592354601,-0.0014917788665379,0.0014917767534496,-0.0014917788665253,0.0014917767534383,-1.2297786462054e-09,-1.2297784817292e-09,-0.00069688501176272,0.00069688183151835,-4.3568289670863e-09,1.98953735772e-09,-0.00076386082844448,0.00076385532835983,-0.00076385870757291,0.0007638574492569,-0.00076386082845059,0.00076385532836012,-0.00076385870756143,0.00076385744926116,-0.00086014545037657,0.00086014520921127,-0.00086014545039396,0.00086014520920987,0.65325215552176,120135,2834,0.0061143371258386,0.0061143371258389,0.0029022121455541,17.551529717678,5.5612237741428e-05,5.5612237741428e-05,5.5612237741428e-05,2527365.2460713,0.015246250040635
20419200,0.99901723627566,0.015605493084356,0.0058160310039107,0.0058160310039105,0.0039734310765346,-0.001476364861858,0.001476364861864,5.6520038057517e-15,6.0291099324772e-15,4.0814341385181e-15,-1.1777581379444e-15,-0.001573582078128,0.0015735820781414,-0.0015735826422095,0.001573582642219,-0.0015735820963673,0.0015735820963639,-0.001573582623977,0.0015735826239868,-0.0012622917357774,0.0012622917357865,-0.0012622917913372,0.0012622917913566,-1.1977987021895e-14,-6.820692827369e-15,3.2178814799535e-09,-3.2179145275837e-09,-0.0014763648618707,0.0014763648618513,-0.0015735810069487,0.0015735831621629,-0.0015735837134313,0.0015735815581641,-0.0015735810069489,0.0015735831621715,-0.0015735837134376,0.0015735815581714,-0.0012622885410285,0.0012622948678865,-0.0012622949861147,0.0012622886591982,-0.0014963618251284,0.0014963597323811,-0.0014963618251163,0.00149635973237,-1.9330420870853e-09,-1.9330419252784e-09,-0.0006931970931752,0.00069319214655818,-5.0334811521648e-09,1.2803239286005e-09,-0.00076363426979878,0.00076362722412954,-0.00076363216131322,0.0007636293326415,-0.00076363426980551,0.00076362722413039,-0.000763632161302,0.00076362933264592,-0.00085676501196588,0.00085676321640879,-0.00085676501198283,0.00085676321640716,0.70012779305903,120135,2834,0.0061320413767034,0.0061320413767037,0.0028869654345838,18.595940081695,6.3967520653557e-05,6.3967520653557e-05,6.3967520653557e-05,2346669.1403658,0.015266729187754
21419200,0.9991700032924,0.015607921608901,0.0058169244070126,0.0058169244070124,0.0039740727948757,-0.0014714745344747,0.0014714745344795,5.1780182856839e-15,5.5578302121021e-15,3.6462709618662e-15,-1.624568017621e-15,-0.001568607822951,0.0015686078229629,-0.0015686085521737,0.0015686085521815,-0.0015686078427818,0.0015686078427771,-0.0015686085323481,0.0015686085323567,-0.0012570425401555,0.0012570425401637,-0.0012570426770301,0.0012570426770485,-1.2320741256871e-14,-7.1561628179616e-15,3.1940294863065e-09,-3.194063431926e-09,-0.0014714745344873,0.0014714745344669,-0.001568606771481,0.0015686089022435,-0.0015686096036857,0.0015686074728675,-0.0015686067714808,0.0015686089022519,-0.0015686096036912,0.0015686074728745,-0.0012570393766043,0.0012570456591733,-0.0012570458406099,0.0012570395579804,-0.0014917762838111,0.0014917742095628,-0.0014917762837979,0.0014917742095512,-2.3649015761251e-10,-2.3648999398125e-10,-0.00068237041728483,0.00068236994766801,-3.3832035181019e-09,2.9871238486816e-09,-0.00075401033755787,0.00075400728833484,-0.00075400820995944,0.00075400941595745,-0.00075401033756356,0.00075400728833449,-0.00075400820994762,0.00075400941596122,-0.00084655283934207,0.00084655502827285,-0.00084655283936011,0.00084655502827235,0.64990944923706,120135,2834,0.0061117716503781,0.0061117716503783,0.0028420409031198,15.230026937316,3.7040215498531e-05,3.7040215498531e-05,3.7040215498531e-05,2286068.5154319,0.015179965584351
22419200,0.9992964318789,0.015609984480166,0.0058176808315037,0.0058176808315035,0.0039746228171587,-0.0014704563381676,0.001470456338173,5.4719504827277e-15,5.8490566094532e-15,3.8954398205168e-15,-1.3764873610207e-15,-0.0015680369837024,0.0015680369837148,-0.0015680374264773,0.0015680374264859,-0.0015680370019874,0.0015680370019833,-0.0015680374081981,0.0015680374082074,-0.0012550509599709,0.0012550509599796,-0.0012550508025242,0.0012550508025431,-1.2090101243941e-14,-6.935071398899e-15,3.2147825032924e-09,-3.2148157265955e-09,-0.0014704563381802,0.0014704563381604,-0.0015680359133378,0.0015680380679076,-0.0015680384968842,0.0015680363422598,-0.0015680359133376,0.001568038067916,-0.0015680384968901,0.0015680363422671,-0.0012550477699747,0.0012550540933162,-0.0012550539925488,0.0012550476691481,-0.0014908217699376,0.0014908196807792,-0.001490821769925,0.001490819680768,-1.1625481820939e-09,-1.1625480213089e-09,-0.00067988012973183,0.00067987726063014,-4.2651827856966e-09,2.0451134655404e-09,-0.00075038637105398,0.00075038122822599,-0.00075038426529021,0.00075038333401482,-0.00075038637105994,0.00075038122822616,-0.0007503842652787,0.00075038333401899,-0.00084461273660762,0.00084461286719522,-0.00084461273662512,0.00084461286719408,0.66642562144511,120135,2834,0.0061075668297065,0.0061075668297068,0.0028316794016618,14.859515050251,3.407612040201e-05,3.407612040201e-05,3.407612040201e-05,2311061.0405584,0.015160905308736
23419200,0.99940869126978,0.015611711655199,0.0058183154765953,0.0058183154765951,0.0039750807020085,-0.0014726017913311,0.0014726017913369,5.6049464197931e-15,5.981052577067e-15,4.024729988438e-15,-1.2419914697778e-15,-0.0015704608177343,0.0015704608177473,-0.0015704614144132,0.0015704614144223,-0.0015704608370359,0.0015704608370323,-0.001570461395118,0.0015704613951278,-0.001256456920157,0.001256456920166,-0.0012564569027828,0.0012564569028021,-1.1948458512206e-14,-6.7901778473564e-15,3.1969243776353e-09,-3.1969573242971e-09,-0.0014726017913437,0.0014726017913244,-0.0015704597608906,0.0015704618972883,-0.001570462471299,0.0015704603348481,-0.0015704597608907,0.0015704618972969,-0.0015704624713052,0.0015704603348555,-0.0012564537523286,0.0012564600418382,-0.0012564600706395,0.0012564537810715,-0.0014931349147266,0.0014931328384125,-0.0014931349147143,0.0014931328384014,-1.8288543958247e-09,-1.8288542341115e-09,-0.00067968218810393,0.00067967756680507,-4.9046666727704e-09,1.3686043986633e-09,-0.00075025904360634,0.00075025234737679,-0.00075025695111199,0.00075025443989733,-0.00075025904361275,0.00075025234737741,-0.00075025695110069,0.00075025443990173,-0.00084497520494625,0.00084497378075673,-0.00084497520496335,0.00084497378075519,0.62875729639221,120135,2834,0.0061164505309014,0.0061164505309017,0.0028308654328299,15.704613329003,4.0836906632027e-05,4.0836906632027e-05,4.0836906632027e-05,2268171.5334424,0.01517811642308
24419200,0.99951465478737,0.015613430629104,0.0058189454133553,0.0058189454133552,0.0039755398023934,-0.0014767025934126,0.0014767025934189,5.6911202578297e-15,6.0643441502137e-15,4.1383441646617e-15,-1.1310536823805e-15,-0.0015748966140136,0.0015748966140275,-0.0015748973441653,0.0015748973441752,-0.0015748966344314,0.0015748966344281,-0.0015748973237545,0.0015748973237648,-0.0012597690593656,0.0012597690593749,-0.0012597691357329,0.0012597691357525,-1.1964046271305e-14,-6.8132298200646e-15,3.1742033848041e-09,-3.1742364434945e-09,-0.0014767025934254,0.0014767025934062,-0.0015748955730527,0.0015748976881174,-0.0015748983851688,0.0015748962700514,-0.0015748955730533,0.001574897688126,-0.0015748983851753,0.0015748962700591,-0.001259765919507,0.0012597721659328,-0.0012597722756203,0.001259766029136,-0.0014973091573563,0.0014973070978101,-0.0014973091573446,0.0014973070977994,-2.4803624096065e-09,-2.480362249577e-09,-0.00068383294859405,0.00068382666500036,-5.5144631016434e-09,6.9621874545111e-10,-0.00075334567146466,0.00075333755434444,-0.00075334360160833,0.00075333962422752,-0.00075334567147184,0.00075333755434575,-0.00075334360159736,0.00075333962423233,-0.00084958849491289,0.00084958562653239,-0.00084958849492939,0.00084958562653015,0.66255127740754,120135,2834,0.006133443008513,0.0061334430085133,0.0028480967695657,17.878712395355,5.8229699162843e-05,5.8229699162843e-05,5.8229699162843e-05,2275005.1141524,0.015230108166722
25419200,0.99961126671852,0.015615276341376,0.0058196204590307,0.0058196204590305,0.0039760354233151,-0.0014812846057438,0.0014812846057493,5.3445426102448e-15,5.7195899763347e-15,3.8444707893505e-15,-1.42836812904e-15,-0.0015795969014597,0.0015795969014726,-0.0015795977749226,0.0015795977749315,-0.0015795969231051,0.0015795969231012,-0.0015795977532844,0.0015795977532938,-0.0012639230754984,0.001263923075507,-0.0012639232355964,0.0012639232356152,-1.2001398071409e-14,-6.8446282174828e-15,3.1428447609512e-09,-3.1428779693549e-09,-0.0014812846057562,0.001481284605737,-0.0015795958800148,0.0015795979674374,-0.0015795987964097,0.0015795967089343,-0.0015795958800149,0.001579597967446,-0.0015795987964158,0.0015795967089416,-0.0012639199726839,0.0012639261595289,-0.0012639263384389,0.0012639201515353,-0.001502067332227,0.0015020652954931,-0.0015020673322148,0.001502065295482,-2.5539168133174e-09,-2.5539166468642e-09,-0.00068644366145584,0.00068643723009998,-5.5613655679817e-09,6.0213446241138e-10,-0.00075652448614974,0.00075651627839607,-0.0007565224331989,0.00075651833137387,-0.00075652448615629,0.00075651627839671,-0.00075652243318762,0.00075651833137818,-0.00085256503167279,0.00085256205371965,-0.00085256503168976,0.00085256205371813,0.77991302017261,120135,2834,0.0061524107668063,0.0061524107668065,0.0028589630972145,19.92385333651,7.4590826692084e-05,7.4590826692084e-05,7.4590826692084e-05,2214282.1110945,0.015279656783175
26419200,0.99969049499722,0.01561688622718,0.0058202083510228,0.0058202083510226,0.0039764695251349,-0.0014843512460462,0.0014843512460518,5.5471834785289e-15,5.9279365526662e-15,3.9329092640863e-15,-1.3252536320583e-15,-0.0015822044595598,0.0015822044595724,-0.0015822052151828,0.0015822052151916,-0.0015822044801105,0.0015822044801066,-0.0015822051946383,0.0015822051946478,-0.0012667876848899,0.0012667876848987,-0.0012667876671865,0.0012667876672056,-1.206027862559e-14,-6.9089729889265e-15,2.9863393974007e-09,-2.9863725476039e-09,-0.0014843512460588,0.0014843512460392,-0.0015822034826101,0.0015822054715418,-0.0015822061921748,0.0015822042031893,-0.0015822034826099,0.0015822054715502,-0.0015822061921808,0.0015822042031965,-0.0012667847332523,0.0012667906144959,-0.0012667906188522,0.0012667847375497,-0.00150554261599,0.0015055406836914,-0.0015055426159775,0.0015055406836801,-1.7983354403906e-09,-1.7983352805916e-09,-0.00068312772427633,0.00068312324560787,-4.6715263916636e-09,1.2012718943506e-09,-0.0007565944131789,0.0007565879890139,-0.00075659245626701,0.00075658994595132,-0.00075659441318505,0.00075658798901417,-0.00075659245625547,0.00075658994595553,-0.00084943209163355,0.00084943077094905,-0.00084943209165107,0.00084943077094788,0.82922923068302,120135,2834,0.0061650774145174,0.0061650774145176,0.0028452643975514,20.393484320492,7.8347874563934e-05,7.8347874563934e-05,7.8347874563934e-05,2102694.5985048,0.015291478873359
27419200,0.99975958580558,0.015618152079873,0.0058206698571625,0.0058206698571623,0.0039768123655487,-0.0014885722809554,0.0014885722809607,5.4381868083024e-15,5.8194692780317e-15,3.8736463686448e-15,-1.3965161609193e-15,-0.001586683278092,0.0015866832781045,-0.0015866841949204,0.0015866841949291,-0.0015866832997047,0.0015866832997006,-0.0015866841733139,0.0015866841733232,-0.0012702131257143,0.0012702131257231,-0.0012702131737655,0.0012702131737845,-1.2066749016159e-14,-6.8995813296037e-15,2.7515380145511e-09,-2.7515710999928e-09,-0.0014885722809679,0.0014885722809483,-0.0015866823874158,0.001586684213907,-0.0015866850856388,0.0015866832590935,-0.0015866823874156,0.0015866842139154,-0.0015866850856448,0.0015866832591007,-0.0012702104104604,0.0012702158336963,-0.001270215889048,0.0012702104657528,-0.0015099248592114,0.0015099230854327,-0.0015099248591988,0.0015099230854214,-2.5141914465395e-09,-2.5141912895643e-09,-0.00068394023805131,0.00068393395402307,-5.1374881235143e-09,2.5333692549553e-10,-0.00075787326405664,0.00075786544193619,-0.00075787146960676,0.00075786723641132,-0.00075787326406274,0.00075786544193652,-0.00075787146959526,0.00075786723641546,-0.00085089500130745,0.00085089201184321,-0.00085089500132503,0.00085089201184218,0.74718867332314,120135,2834,0.0061825495763044,0.0061825495763047,0.0028486644595365,22.250368974509,9.3202951796074e-05,9.3202951796074e-05,9.3202951796074e-05,2038988.2243346,0.015330410748992
28419200,0.9998163746514,0.015619336008761,0.0058210993191957,0.0058210993191955,0.0039771373703694,-0.0014899601342802,0.0014899601342856,5.4497746895947e-15,5.8311748027889e-15,3.8925281447606e-15,-1.3488705576362e-15,-0.0015891303221957,0.0015891303222083,-0.0015891311579909,0.0015891311579996,-0.001589130342768,0.0015891303427639,-0.0015891311374247,0.0015891311374341,-0.0012697833227119,0.0012697833227206,-0.0012697833444505,0.0012697833444694,-1.2102630272953e-14,-6.9749161145747e-15,2.5941610839106e-09,-2.5941943679921e-09,-0.0014899601342929,0.0014899601342731,-0.001589129475958,0.0015891312037253,-0.0015891320042709,0.0015891302764496,-0.0015891294759579,0.0015891312037336,-0.0015891320042769,0.0015891302764568,-0.001269780755941,0.0012697858681081,-0.0012697859112496,0.0012697807990235,-0.0015114080452533,0.001511406374094,-0.0015114080452406,0.0015114063740826,-2.1935431710601e-09,-2.1935430158842e-09,-0.00068683364491077,0.00068682818693614,-4.6729508998812e-09,4.1235857164046e-10,-0.00075737007155916,0.00075736307364324,-0.00075736837719707,0.0007573647680309,-0.00075737007156524,0.00075736307364367,-0.00075736837718557,0.00075736476803507,-0.00085524598655436,0.00085524357663122,-0.00085524598657189,0.0008552435766301,0.8493285419621,120135,2834,0.0061883237737332,0.0061883237737336,0.0028606557128834,23.440167393279,0.00010272133914623,0.00010272133914623,0.00010272133914623,2073774.5864296,0.015354302852091
29419200,0.99986251937755,0.015620024539337,0.0058213510381649,0.0058213510381647,0.0039773224630077,-0.0014940657814835,0.0014940657814889,5.3669536903076e-15,5.753236007295e-15,3.8581468421447e-15,-1.381781316941e-15,-0.001592545532955,0.0015925455329674,-0.0015925463857344,0.0015925463857429,-0.0015925455532831,0.0015925455532789,-0.0015925463654123,0.0015925463654216,-0.0012747020621906,0.0012747020621991,-0.0012747020872435,0.0012747020872623,-1.2133276395558e-14,-6.9980213370349e-15,2.4769661546761e-09,-2.4769995070528e-09,-0.0014940657814961,0.0014940657814763,-0.0015925447241436,0.0015925463748248,-0.0015925471945879,0.0015925455438526,-0.0015925447241434,0.0015925463748332,-0.0015925471945939,0.0015925455438598,-0.0012746996085237,0.0012747044909009,-0.0012747045409386,0.0012746996585024,-0.0015157167200918,0.0015157151269114,-0.0015157167200792,0.0015157151268999,-2.2808749341338e-09,-2.2808747819587e-09,-0.00068634480678193,0.00068633913080012,-4.6454999483566e-09,2.0654003271142e-10,-0.00076005736863878,0.00076005024578362,-0.00076005575148444,0.00076005186296344,-0.00076005736864496,0.00076005024578403,-0.00076005575147298,0.00076005186296761,-0.00085402328924189,0.00085402061610057,-0.00085402328925931,0.00085402061609941,0.60881578646039,120135,2834,0.0062052969791284,0.0062052969791285,0.0028586707178292,24.778981164125,0.000113431849313,0.000113431849313,0.000113431849313,1977561.98724,0.015386763826973
30419200,0.99989922747916,0.015620488363596,0.0058215200680571,0.0058215200680569,0.0039774482274817,-0.0014935583874701,0.0014935583874758,5.597711346702e-15,5.9763468384711e-15,3.9479088058606e-15,-1.2977250612725e-15,-0.0015940999189575,0.0015940999189702,-0.0015941007733128,0.0015941007733217,-0.0015940999392394,0.0015940999392354,-0.0015941007530367,0.0015941007530464,-0.0012712282414218,0.0012712282414306,-0.0012712282776759,0.001271228277695,-1.2084924931486e-14,-6.9675574813796e-15,2.3389345278893e-09,-2.3389679896261e-09,-0.0014935583874829,0.0014935583874631,-0.0015940991553636,0.0015941007150526,-0.0015941015369489,0.0015940999772057,-0.0015940991553635,0.001594100715061,-0.0015941015369551,0.0015940999772132,-0.0012712259232357,0.00127123053412,-0.0012712305958909,0.001271225984947,-0.0015150006061982,0.0015149991042613,-0.0015150006061858,0.0015149991042502,-2.3030938597558e-09,-2.3030937041859e-09,-0.00069405004296542,0.00069404432272603,-4.5306322589121e-09,4.5435982873676e-11,-0.00075947592861998,0.00075946888682584,-0.00075947440360666,0.00075947041186456,-0.00075947592862593,0.0007594688868261,-0.00075947440359515,0.00075947041186871,-0.00086422971972501,0.0008642269148436,-0.00086422971974246,0.00086422691484255,0.51512748248588,120135,2834,0.0062032652744833,0.0062032652744837,0.0028905796313834,26.12966235059,0.00012423729880472,0.00012423729880472,0.00012423729880472,2139695.6001002,0.015415017174957
31419200,0.99992894342566,0.015620972769404,0.0058216964157507,0.0058216964157505,0.0039775799379029,-0.0014972027428208,0.0014972027428262,5.4153639761125e-15,5.7918818855135e-15,3.8597056180545e-15,-1.3903987007447e-15,-0.0015976181983576,0.0015976181983701,-0.0015976191745012,0.0015976191745098,-0.0015976182194536,0.0015976182194493,-0.0015976191534112,0.0015976191534206,-0.0012755442682688,0.0012755442682773,-0.0012755443455214,0.0012755443455402,-1.2050278931074e-14,-6.9321629399564e-15,2.1485231450082e-09,-2.148556415694e-09,-0.0014972027428334,0.0014972027428137,-0.0015976175040934,0.0015976189326058,-0.0015976198688074,0.0015976184402411,-0.0015976175040932,0.0015976189326142,-0.0015976198688133,0.0015976184402483,-0.0012755421410354,0.001275546380393,-0.0012755464727829,0.0012755422333664,-0.0015185867425358,0.0015185853688968,-0.0015185867425232,0.0015185853688854,-2.8279369209496e-09,-2.8279367626201e-09,-0.00070235410934588,0.00070234706638468,-4.8537277169794e-09,-6.6823183641727e-10,-0.00076634057713328,0.00076633249701901,-0.00076633918379271,0.00076633389038499,-0.00076634057713943,0.00076633249701942,-0.00076633918378124,0.00076633389038913,-0.00087181910019124,0.00087181506069632,-0.00087181910020862,0.00087181506069509,0.66479676253864,120135,2834,0.0062183720562997,0.0062183720563,0.002925028418941,28.43713478039,0.00014269707824312,0.00014269707824312,0.00014269707824312,2195400.154516,0.015480675812375
32419200,0.99995065500251,0.015621389780045,0.0058218483950411,0.0058218483950409,0.0039776929899633,-0.0015009124580423,0.0015009124580479,5.4848324421338e-15,5.8662325553281e-15,3.9149392248234e-15,-1.3267241753695e-15,-0.0016007673159844,0.0016007673159971,-0.001600768289675,0.0016007682896839,-0.0016007673369068,0.0016007673369028,-0.001600768268759,0.0016007682687685,-0.00127979144953,0.0012797914495388,-0.0012797915209109,0.0012797915209299,-1.2046455518465e-14,-6.9193747851294e-15,2.135547310333e-09,-2.1355805716523e-09,-0.0015009124580549,0.0015009124580354,-0.0016007666248249,0.0016007680455238,-0.0016007689808768,0.0016007675601242,-0.0016007666248248,0.0016007680455323,-0.0016007689808829,0.0016007675601314,-0.0012797893343637,0.0012797935484239,-0.0012797936361056,0.0012797894219864,-0.0015225890693132,0.0015225877043684,-0.0015225890693008,0.0015225877043571,-2.2172437939945e-09,-2.2172436367583e-09,-0.00070050923210727,0.00070050377511954,-4.2562753532537e-09,-6.2576351247188e-11,-0.00076879141434922,0.00076878473019739,-0.0007687900170466,0.00076878612752574,-0.0007687914143555,0.0007687847301979,-0.00076879001703522,0.00076878612752993,-0.00086960298670656,0.00086960033147952,-0.0008696029867238,0.00086960033147823,0.7835582016357,120135,2834,0.0062336923374421,0.0062336923374424,0.0029174437215045,29.294926093162,0.0001495594087453,0.0001495594087453,0.0001495594087453,2043281.4591662,0.01550410219456
33419200,0.99996574648558,0.015621689547284,0.0058219572013617,0.0058219572013615,0.0039777751445606,-0.0015023580044732,0.0015023580044786,5.4197756060461e-15,5.802705084284e-15,3.8546175381978e-15,-1.3838694884429e-15,-0.0016017076361106,0.0016017076361231,-0.0016017084969377,0.0016017084969464,-0.0016017076561086,0.0016017076561045,-0.0016017084769458,0.0016017084769552,-0.0012817109231271,0.0012817109231357,-0.0012817108966669,0.0012817108966858,-1.2081336805807e-14,-6.947372321368e-15,2.1376667034568e-09,-2.1377000417642e-09,-0.0015023580044858,0.0015023580044661,-0.0016017069375806,0.0016017083647318,-0.0016017091955099,0.0016017077683046,-0.0016017069375804,0.0016017083647402,-0.0016017091955159,0.0016017077683119,-0.0012817088016658,0.0012817130192451,-0.0012817130181566,0.0012817088005181,-0.0015241735411032,0.0015241721739014,-0.0015241735410907,0.0015241721738901,-1.7489799061855e-09,-1.748979750428e-09,-0.00069654149714332,0.00069653724454144,-3.7997256321372e-09,4.035681347558e-10,-0.00076807288516406,0.00076806724497809,-0.00076807148357483,0.00076806864659281,-0.00076807288517019,0.00076806724497843,-0.00076807148356333,0.00076806864659697,-0.00086530540453005,0.00086530380134352,-0.00086530540454747,0.00086530380134236,0.80945760226285,120135,2834,0.0062396449673665,0.0062396449673667,0.0029010269963795,29.317278292889,0.00014973822634311,0.00014973822634311,0.00014973822634311,1941937.5012145,0.015499528299258
34419200,0.99997716669987,0.015621895369745,0.0058220317858744,0.0058220317858742,0.0039778317979968,-0.0015072833943935,0.001507283394399,5.5344191625877e-15,5.9052313639412e-15,3.9059689106251e-15,-1.3731051114049e-15,-0.0016058836021412,0.0016058836021537,-0.0016058845590466,0.0016058845590553,-0.0016058836224503,0.0016058836224463,-0.0016058845387434,0.0016058845387529,-0.0012876074224651,0.0012876074224739,-0.0012876074882339,0.001287607488253,-1.2083866140302e-14,-6.9121377589729e-15,2.0291763860554e-09,-2.0292096509884e-09,-0.0015072833944062,0.0015072833943865,-0.0016058829423848,0.0016058842947826,-0.0016058852188451,0.0016058838663932,-0.0016058829423848,0.001605884294791,-0.0016058852188511,0.0016058838664005,-0.0012876054075086,0.0012876094121563,-0.0012876095032187,0.0012876054985119,-0.0015289719611549,0.0015289706664692,-0.0015289719611424,0.001528970666458,-2.7601937775616e-09,-2.7601936099505e-09,-0.00069845683488382,0.00069844996468752,-4.6761401887741e-09,-7.2227344149803e-10,-0.00077228931885025,0.00077228145729442,-0.00077228800092415,0.00077228277524604,-0.00077228931885627,0.00077228145729469,-0.00077228800091259,0.00077228277525018,-0.00086633303396677,0.00086632905856807,-0.00086633303398436,0.00086632905856704,0.73398852679883,120135,2834,0.006260025653017,0.0062600256530172,0.0029089988817626,31.481171236881,0.00016704936989505,0.00016704936989505,0.00016704936989505,1909942.5932079,0.015549020028242
35419200,0.99998612323629,0.015622038244949,0.0058220835428868,0.0058220835428866,0.0039778711591753,-0.0015147971423032,0.0015147971423088,5.5557126297339e-15,5.9278189092013e-15,3.9224684065768e-15,-1.3637818668119e-15,-0.0016141876372862,0.0016141876372987,-0.0016141888892263,0.0016141888892351,-0.001614187660092,0.001614187660088,-0.0016141888664261,0.0016141888664358,-0.0012939487456251,0.001293948745634,-0.0012939489223513,0.0012939489223704,-1.2083277922977e-14,-6.9129292674216e-15,1.767421336953e-09,-1.7674547250173e-09,-0.001514797142316,0.0015147971422962,-0.0016141870831641,0.0016141882477071,-0.0016141894433904,0.0016141882787933,-0.001614187083164,0.0016141882477154,-0.0016141894433963,0.0016141882788007,-0.0012939470015502,0.0012939504978476,-0.0012939506664547,0.0012939471700979,-0.0015364997016194,0.0015364985856201,-0.0015364997016067,0.0015364985856093,-4.0236754509554e-09,-4.0236752873643e-09,-0.00070868199314431,0.00070867193222127,-5.6440506362008e-09,-2.240556750191e-09,-0.00077950995756571,0.00077949950000785,-0.00077950882752545,0.00077950063007365,-0.00077950995757167,0.00077949950000809,-0.00077950882751383,0.00077950063007763,-0.00087740789920316,0.00087740107967686,-0.00087740789922077,0.00087740107967591,0.64952121200827,120135,2834,0.0062911626801401,0.0062911626801405,0.0029514331361238,35.927331708378,0.00020261865366702,0.00020261865366702,0.00020261865366702,1933148.2140185,0.01565535399785
36419200,0.99999185792118,0.01562213419477,0.0058221182571622,0.005822118257162,0.0039778976804459,-0.0015169110812438,0.0015169110812493,5.5108316478759e-15,5.8829379273434e-15,3.9090864624448e-15,-1.3685464271402e-15,-0.0016167773210792,0.0016167773210918,-0.0016167782077879,0.0016167782077967,-0.0016167773400519,0.0016167773400478,-0.0016167781888214,0.0016167781888308,-0.0012954637626327,0.0012954637626415,-0.0012954638046084,0.0012954638046274,-1.2109982989509e-14,-6.9554092426654e-15,1.7400304271839e-09,-1.7400637552008e-09,-0.0015169110812565,0.0015169110812367,-0.0016167767476457,0.0016167779149134,-0.0016167787812638,0.0016167776139418,-0.0016167767476455,0.0016167779149218,-0.0016167787812698,0.0016167776139491,-0.0012954620238912,0.0012954654588759,-0.0012954655433785,0.0012954621083346,-0.0015386009370733,0.0015385998325248,-0.0015386009370608,0.0015385998325137,-2.5054982854649e-09,-2.5054981216052e-09,-0.00071367176702751,0.00071366556643519,-4.1488897739712e-09,-7.621686009783e-10,-0.00078215955705067,0.0007821524663247,-0.0007821584259247,0.00078215359747623,-0.00078215955705672,0.00078215246632501,-0.00078215842591314,0.00078215359748032,-0.00088281842788472,0.00088281480881411,-0.00088281842790229,0.00088281480881303,0.68119810794797,120135,2834,0.0062999361922876,0.0062999361922879,0.0029721330723341,37.479682446805,0.00021503745957444,0.00021503745957444,0.00021503745957444,1976322.0609301,0.015694195068066
37419200,0.99999524488195,0.015622188654821,0.0058221380022307,0.0058221380022305,0.0039779126503597,-0.0015178762248132,0.0015178762248187,5.5140668431606e-15,5.8868201616849e-15,3.9176744353823e-15,-1.3558115220651e-15,-0.0016175572732464,0.001617557273259,-0.0016175581600559,0.0016175581600647,-0.0016175572921994,0.0016175572921954,-0.001617558141109,0.0016175581411185,-0.0012966072730345,0.0012966072730433,-0.001296607312691,0.00129660731271,-1.2116041627951e-14,-6.9617300514073e-15,1.7391894673986e-09,-1.7392228216021e-09,-0.0015178762248259,0.0015178762248062,-0.0016175566999924,0.0016175578667536,-0.0016175587333522,0.0016175575665368,-0.0016175566999923,0.0016175578667621,-0.0016175587333582,0.0016175575665441,-0.0012966055349159,0.0012966089682605,-0.0012966090508382,0.0012966056174344,-0.0015396780024529,0.0015396768984522,-0.0015396780024404,0.001539676898441,-1.9110742424106e-09,-1.9110740771164e-09,-0.00071321601821278,0.00071321135794003,-3.576662388228e-09,-1.6108506327071e-10,-0.00078282037929516,0.00078281463973939,-0.00078281923779355,0.00078281578126649,-0.0007828203793013,0.00078281463973978,-0.00078281923778204,0.00078281578127065,-0.00088223708014477,0.00088223481521101,-0.00088223708016225,0.00088223481520983,0.65495763090954,120135,2834,0.0063039219848551,0.0063039219848554,0.0029702616755275,37.680299165719,0.00021664239332575,0.00021664239332575,0.00021664239332575,1936446.8051209,0.015700394935673
38419200,0.99999719169642,0.015622223511744,0.0058221506009494,0.0058221506009493,0.003977922309845,-0.0015169446330292,0.0015169446330346,5.4868912027695e-15,5.8594092343641e-15,3.8967338986307e-15,-1.36589944918e-15,-0.0016164435801303,0.0016164435801429,-0.00161644420859,0.0016164442085987,-0.0016164435967847,0.0016164435967806,-0.0016164441919417,0.0016164441919511,-0.0012960098250996,0.0012960098251083,-0.0012960097752683,0.0012960097752872,-1.2084630822824e-14,-6.9397879942404e-15,1.9051645331076e-09,-1.905197791052e-09,-0.0015169446330418,0.0015169446330221,-0.0016164429345081,0.0016164442243992,-0.0016164448542545,0.0016164435643093,-0.0016164429345079,0.0016164442244076,-0.0016164448542605,0.0016164435643165,-0.0012960079106776,0.0012960116646051,-0.0012960116897186,0.001296007935732,-0.0015386819296311,0.0015386807108481,-0.0015386819296185,0.0015386807108368,-1.3875421374335e-09,-1.387541973751e-09,-0.00071216471217012,0.00071216133197758,-3.2276574945438e-09,5.1385363038902e-10,-0.00078206027660425,0.0007820555299686,-0.00078205902301668,0.00078205678358164,-0.00078206027661035,0.00078205552996895,-0.00078205902300515,0.00078205678358579,-0.0008808968220338,0.00088089567343389,-0.00088089682205132,0.00088089567343278,0.72891346290555,120135,2834,0.0063000631150375,0.0063000631150378,0.0029658957647969,37.196189383182,0.00021276951506545,0.00021276951506545,0.00021276951506545,1946321.1825539,0.015688121351512
38880000,0.99999787152538,0.015622235958181,0.0058221551009467,0.0058221551009466,0.0039779257562872,-0.0015178848053011,0.0015178848052664,-2.3116117347894e-14,-2.2487430671488e-14,-1.3155009888184e-14,-1.8819101559954e-14,-0.0016170765401615,0.0016170765401286,-0.0016170772079012,0.0016170772078912,-0.0016170765571968,0.0016170765571596,-0.0016170771909069,0.0016170771908685,-0.0012972139392624,0.0012972139392289,-0.0012972139188256,0.0012972139188334,2.2452843492808e-15,7.2811071857396e-15,1.92368024847e-09,-1.9236582134407e-09,-0.0015178848052695,0.0015178848052914,-0.0016170758911064,0.0016170771912125,-0.001617077856926,0.0016170765568562,-0.0016170758910982,0.001617077191214,-0.0016170778569063,0.0016170765568324,-0.0012972120082208,0.0012972157987548,-0.0012972158498578,0.0012972120593444,-0.0015397707653751,0.0015397695346992,-0.0015397707653442,0.0015397695346539,-1.6296252670078e-09,-1.6296244221513e-09,-0.00071024557840557,0.00071024157606183,-3.4806041566234e-09,2.9070158310442e-10,-0.00078205738708011,0.00078205206680643,-0.00078205612405086,0.00078205332982915,-0.00078205738708665,0.00078205206686425,-0.00078205612408392,0.00078205332984309,-0.00087876533238757,0.00087876365062365,-0.00087876533238915,0.00087876365054066,0.74537476942472,120135,2834,0.0063039375605596,0.0063039375605459,0.002957957384723,37.193654043688,0.00021274923234951,0.00021274923234951,0.00021274923234951,1888458.8615152,0.015687934551987
