time,ASR_ext,ASR_strain,ASR_strain_xx,ASR_strain_yy,ASR_strain_zz,disp_x_101,disp_x_102,disp_x_103,disp_x_104,disp_x_105,disp_x_106,disp_x_p1_neg,disp_x_p1_pos,disp_x_p2_neg,disp_x_p2_pos,disp_x_p3_neg,disp_x_p3_pos,disp_x_p4_neg,disp_x_p4_pos,disp_x_p5_neg,disp_x_p5_pos,disp_x_p6_neg,disp_x_p6_pos,disp_y_101,disp_y_102,disp_y_103,disp_y_104,disp_y_105,disp_y_106,disp_y_p1_neg,disp_y_p1_pos,disp_y_p2_neg,disp_y_p2_pos,disp_y_p3_neg,disp_y_p3_pos,disp_y_p4_neg,disp_y_p4_pos,disp_y_p5_neg,disp_y_p5_pos,disp_y_p6_neg,disp_y_p6_pos,disp_y_p7_neg,disp_y_p7_pos,disp_y_p8_neg,disp_y_p8_pos,disp_z_101,disp_z_102,disp_z_103,disp_z_104,disp_z_105,disp_z_106,disp_z_p1_neg,disp_z_p1_pos,disp_z_p2_neg,disp_z_p2_pos,disp_z_p3_neg,disp_z_p3_pos,disp_z_p4_neg,disp_z_p4_pos,disp_z_p5_neg,disp_z_p5_pos,disp_z_p6_neg,disp_z_p6_pos,humidity,ndof,nelem,strain_xx,strain_yy,strain_zz,temp,thermal_strain_xx,thermal_strain_yy,thermal_strain_zz,vonmises,vstrain
2419200,0,0,0,0,0,0,0,0,0,0,0,0,0,0,0,0,0,0,0,0,0,0,0,0,0,0,0,0,0,0,0,0,0,0,0,0,0,0,0,0,0,0,0,0,0,0,0,0,0,0,0,0,0,0,0,0,0,0,0,0,0,0,0,0,0,0,0,0,0,0,0,0,0,0,0
3419200,0.15846859806753,0.0027326333992278,0.00091087779974259,0.00091087779974259,0.00091087779974259,-0.00026596760858125,0.00026414095654578,-1.188515928959e-06,-5.8308494489318e-07,1.6388717835059e-06,-3.5338898013011e-06,-0.00026726169714534,0.00026697757160194,-0.00026718522782953,0.00026729602092358,-0.00026903174603483,0.00026530594301877,-0.00026898243003253,0.00026558396027145,-0.00026018695095831,0.00025584702148863,-0.00025979161179171,0.00025657355921994,-1.2632858497704e-06,3.924931525196e-06,2.8877684627408e-06,9.5779766626831e-08,-0.00026365764939923,0.00026644119752436,-0.00026631401685719,0.00026815206480833,-0.00026708442382994,0.00026723075283101,-0.00026453765610907,0.00026987808897224,-0.00026532738914487,0.00026897692680083,-0.00025449593594016,0.00026210128501532,-0.00025732968150511,0.00025956267249499,-0.00026654987849824,0.00026291999604615,-0.00026163748748468,0.00026803453799817,-4.0195800731225e-06,-4.6519806091477e-06,-0.00023790653804684,0.00022942835853584,-5.5235377174966e-06,-2.9227047865354e-06,-0.00024334156814729,0.00023437456907159,-0.00024244981270662,0.00023511597919608,-0.00024355987392687,0.00023414935585415,-0.00024266763479188,0.00023493513607228,-0.00024423520594304,0.00023592349509879,-0.00024342640535376,0.00023631503984856,0.78396790057437,128736,2834,0.0011037798672108,0.0011037596473223,0.00097314536681393,31.785376208574,0.00016948300966859,0.00016948300966859,0.00016948300966859,2043539.4046171,0.0031857502889157
4419200,0.34976087422954,0.0059361998331108,0.0020801939866625,0.0020800961328608,0.0017759097135875,-0.00055637700508066,0.00055397840513246,-1.9940377651151e-06,-3.0049468104969e-07,2.1113297864854e-06,-4.6827843008612e-06,-0.00056812401072493,0.00056749411246445,-0.00056781968864139,0.00056829695102816,-0.00057055657079513,0.00056537696650348,-0.00057029129074554,0.00056608866655836,-0.00052401814225984,0.00051749421352049,-0.0005228179439193,0.00051944676263772,-1.3028133424614e-06,5.5588360369909e-06,5.6015624967068e-06,-7.4841502702708e-07,-0.0005529215774296,0.00055738484397366,-0.00056598507152662,0.00057005881742202,-0.00056794302232968,0.00056789321747597,-0.00056361538701654,0.00057233949486876,-0.00056556295508487,0.00057022863876705,-0.00051452613833131,0.00052808318224126,-0.0005208299183497,0.00052210084048791,-0.00055933933289582,0.0005544224188962,-0.00055287545929188,0.00056121328911164,-5.7168612301778e-06,-7.4697265654235e-06,-0.00042587527895918,0.00041316744596508,-9.2668857287164e-06,-3.377625811957e-06,-0.00044100914264039,0.00042728938997364,-0.00043895979046294,0.00042899247051059,-0.00044158762087313,0.00042664403757294,-0.00043956452963164,0.00042845443862753,-0.0004569561134359,0.00044421429578504,-0.00045503938885742,0.0004456747849438,0.77882048872597,128736,2834,0.0023105399129975,0.0023104380272828,0.0017465733138217,33.598604763032,0.00018398883810426,0.00018398883810426,0.00018398883810426,3287399.1397662,0.0063878812928247
5419200,0.5501729619391,0.0092314901489633,0.0033349596769004,0.0033348357452567,0.0025616947268062,-0.00087066836241028,0.00086857929753313,-3.2522456676894e-06,1.2541322563256e-06,9.350297074213e-07,-3.178939318822e-06,-0.00090177916471134,0.00089959809084248,-0.00090045450708598,0.00090129541922435,-0.00090330017149914,0.00089836503580603,-0.00090197163256831,0.00089993384986516,-0.00079713790109195,0.00078921717199123,-0.00079293990764127,0.00079377583491799,1.4232388864538e-07,4.3469255836588e-06,8.7108681324707e-06,-3.8766488585477e-06,-0.00086730020014954,0.00087188620411212,-0.00089721645233464,0.00090441876956473,-0.00090132827841267,0.00090017899641606,-0.00089574106721849,0.0009058119246387,-0.00089984970707865,0.00090161492415109,-0.00078410595402223,0.00080276315107904,-0.00079654805878112,0.00079056015064685,-0.00087743857114741,0.00087355579818231,-0.00087345666505672,0.0008777507381257,1.9175545489462e-07,-4.3577565503122e-06,-0.00058210237688261,0.00057834508256713,-7.9597167020615e-06,4.2102168914887e-06,-0.00060690938717791,0.00060091857580698,-0.00060276802571048,0.00060478604229549,-0.00060841061053536,0.00059935613630867,-0.00060429864469468,0.00060330198649692,-0.00064882567571827,0.00064438538740097,-0.00064432178629552,0.0006488025774595,0.7731962005524,128736,2834,0.0036167836797197,0.0036166565876834,0.0024150893319578,36.266592204041,0.00020533273763233,0.00020533273763233,0.00020533273763233,3932440.9789311,0.0096952693106671
6419200,0.70675646919101,0.011640838769049,0.004283090168291,0.0042829236070267,0.0030748249937318,-0.0011072076345649,0.0011060225662846,-4.5642993052768e-06,3.4764053418893e-06,9.9238824240262e-07,-2.3196040307768e-06,-0.001159665105424,0.0011569432960111,-0.0011571412218315,0.0011597904283832,-0.0011609349844079,0.001155996868882,-0.0011584320486321,0.001158735326583,-0.00098957033342243,0.00097932231039567,-0.00098192497585595,0.00098733790854166,-2.3405795119328e-07,3.1746612582982e-06,8.3414185185523e-06,-4.9865437686367e-06,-0.0011050378936611,0.0011081107598169,-0.0011553277450662,0.0011615432185829,-0.0011597070918881,0.0011570204696279,-0.0011540853449666,0.001162665731586,-0.0011584713698183,0.0011581919965086,-0.00097583517677001,0.00099351735775156,-0.00098902155706611,0.00098065254052427,-0.0011150849021347,0.0011101360165426,-0.0011119341936008,0.0011135440303501,1.8783322672632e-06,-6.2184875741113e-06,-0.00067048104827734,0.00066656217380703,-8.4266847763933e-06,4.4919192634923e-06,-0.0007070113266922,0.00070183012496579,-0.00070264334055278,0.00070595732031117,-0.00070971234314628,0.0006990912770395,-0.00070535924808297,0.00070329309638306,-0.00076847582772876,0.00076065398145405,-0.00076045517980236,0.00076848569902376,0.72914356994695,128736,2834,0.0046000929358774,0.0045999237149361,0.0027825393579584,36.738372753792,0.00020910698203034,0.00020910698203034,0.00020910698203034,4116408.150678,0.012054743044572
7419200,0.83217292502581,0.013508868520038,0.0050199358755044,0.005019769334653,0.0034691633098804,-0.0013002890154559,0.0012986966298234,-4.8125936688622e-06,3.3138989154552e-06,1.3356948859727e-06,-3.0845657780919e-06,-0.001374778928842,0.0013719794657645,-0.0013722325246944,0.0013748575458212,-0.0013763919214838,0.0013706525095076,-0.0013738239154039,0.0013733864981428,-0.0011384636768008,0.0011273278628319,-0.0011306769652769,0.0011353642976041,-6.0845507674211e-07,3.9081364275113e-06,8.6920154961905e-06,-5.0138888201584e-06,-0.0012977475206214,0.0013011491610265,-0.0013703304879132,0.0013766375010565,-0.0013748382150552,0.0013719894999249,-0.0013687258479613,0.0013781214158688,-0.0013732718078014,0.0013735387283896,-0.0011236683844611,0.0011425054221338,-0.0011372709151406,0.0011292427689243,-0.0013063322387393,0.0013005197373741,-0.0013021236890643,0.0013049832948435,1.9844493173357e-06,-6.2110778201245e-06,-0.00072762722947103,0.00072380040680618,-8.5813235955891e-06,4.7198798228611e-06,-0.000775029108189,0.00076983458872975,-0.00077053367185227,0.00077411857139173,-0.00077778720647401,0.00076705311076795,-0.00077328533044721,0.00077143378214144,-0.00085426109845904,0.0008466224804197,-0.00084613585487025,0.00085448623828727,0.71234622030831,128736,2834,0.0053996083715352,0.0053994238594353,0.0030207937191076,40.760780627056,0.00024128624501645,0.00024128624501645,0.00024128624501645,4005403.4519221,0.013915968416119
8419200,0.90784818719943,0.014614006279687,0.0054524991226035,0.0054523246592872,0.0037091824977966,-0.0014135129834586,0.001412056973593,-5.3126978203228e-06,3.9468663204286e-06,1.3169941811218e-06,-2.9223347642387e-06,-0.0015031652355996,0.0015000607241494,-0.0015002394587471,0.0015033188066771,-0.0015047150612064,0.0014987886321526,-0.0015017725049699,0.001501915652856,-0.0012217670370457,0.0012097412629285,-0.0012128212733594,0.0012188770065733,-4.9478667828869e-07,3.8473647484909e-06,9.2523901707226e-06,-5.5680450432975e-06,-0.0014110323228903,0.0014144659844071,-0.0014983498583917,0.0015051111105717,-0.0015032136988327,0.0015000902291345,-0.0014967995652097,0.0015065351464542,-0.0015016945748544,0.0015015817778752,-0.0012059897359719,0.0012257765368141,-0.0012206512398711,0.0012114540110531,-0.0014185387811459,0.0014125959177881,-0.0014144882942007,0.0014169306499159,2.7234567362091e-06,-6.610087862453e-06,-0.00074500547851979,0.00074151539347399,-8.9629401755317e-06,5.4473090479078e-06,-0.0008012822559432,0.00079644395136376,-0.00079643294331997,0.00080109178053485,-0.00080443393277445,0.00079330158327057,-0.00079957893056626,0.00079802332396075,-0.00089176666085107,0.00088372233009736,-0.00088253421333857,0.00089276004159572,0.69848786925817,128736,2834,0.0058688850026235,0.0058687364401783,0.0030942524571196,41.433084658023,0.00024666467726419,0.00024666467726419,0.00024666467726419,3635688.4700924,0.014942706561837
9419200,0.94972637101144,0.015212298040345,0.0056838849397137,0.0056837134149573,0.0038446996856736,-0.0014744385173275,0.0014731198653567,-5.5990529072629e-06,4.3750676760847e-06,1.0812894419877e-06,-2.545161171888e-06,-0.001573411017655,0.0015700047756032,-0.0015702478842486,0.0015735027131442,-0.0015747717481096,0.0015689477697568,-0.0015715956394091,0.001572307793787,-0.0012638544010785,0.0012514791223746,-0.0012542565372728,0.0012613230417494,-3.3060500468194e-07,3.3972662762993e-06,9.349663393562e-06,-5.9206819873314e-06,-0.0014721607950016,0.0014753261904996,-0.0015684143286145,0.001575254696927,-0.001573421658772,0.0015700839183907,-0.0015670688026898,0.0015764779166029,-0.0015721022241375,0.001571371977921,-0.0012479454636071,0.0012677190352741,-0.0012630199117131,0.0012529224522002,-0.0014790202219024,0.001473237591565,-0.001475562481964,0.0014769573377223,3.1179464404013e-06,-6.9342439104908e-06,-0.00074518163807655,0.00074177038318544,-9.1358546644519e-06,5.72544514576e-06,-0.00080756449628318,0.00080287783210888,-0.00080256521605773,0.00080767932722337,-0.00081094675986727,0.00079949676764228,-0.00080594597612783,0.00080437221703201,-0.00090434880898004,0.00089581170228178,-0.00089442184438088,0.00090553397303103,0.67994985051621,128736,2834,0.0061214188846252,0.0061212708476626,0.0030955581395237,41.14547903217,0.00024436383225736,0.00024436383225736,0.00024436383225736,3292169.1373713,0.015456838889118
10419200,0.9706709232483,0.015519146503913,0.0058006875257445,0.0058005170113738,0.0039179419667944,-0.0014994675096607,0.0014980132374178,-5.7548478278625e-06,4.3899774190109e-06,1.2201465759596e-06,-2.8216944677306e-06,-0.0016033306171681,0.001599876431304,-0.0016001049864027,0.0016034231620196,-0.0016048241648896,0.0015986767335495,-0.0016015930109444,0.0016020956093434,-0.0012788623573502,0.0012660381828617,-0.0012691007066979,0.0012760723509665,-4.6447595441502e-07,3.6786772358904e-06,8.9040311803647e-06,-5.3311152494175e-06,-0.0014970426200623,0.0015003546090904,-0.0015984643288014,0.0016049772398059,-0.0016031351396084,0.0016001505838736,-0.0015969810487644,0.0016063433572211,-0.0016016747088627,0.0016015718608075,-0.0012631189819074,0.001282172437914,-0.0012771962205961,0.0012683822683472,-0.0015040695188168,0.0014983615489216,-0.0015001933791842,0.0015024943038294,3.133245285544e-06,-7.0921279902196e-06,-0.00073810320619842,0.00073455350034426,-8.7021466049345e-06,5.1354273141178e-06,-0.00080266387323223,0.00079824809665405,-0.00079801453144172,0.00080271275665149,-0.00080609388211729,0.00079480750751426,-0.00080144219059686,0.00079934107818365,-0.00090458530046883,0.00089538555697598,-0.00089449026715964,0.00090528692415291,0.69329668221453,128736,2834,0.0062247385411275,0.0062245652576381,0.0030660985894498,38.100583853112,0.0002200046708249,0.0002200046708249,0.0002200046708249,3045966.2474634,0.015636773000255
11419200,0.98276329353307,0.015693221389086,0.0058663847851621,0.0058662141183677,0.0039606224855558,-0.0015188511230516,0.0015173921978084,-5.8877772142814e-06,4.5199231790322e-06,1.2261291304802e-06,-2.8346875149466e-06,-0.0016245956769489,0.0016210552364346,-0.0016212820815781,0.0016246898695283,-0.0016260942312337,0.0016198483316133,-0.00162277533662,0.0016233545855837,-0.0012928232928732,0.0012797339193923,-0.0012828019330211,0.0012900231677249,-4.7104082717264e-07,3.6909558945064e-06,8.8894380752079e-06,-5.3158970091926e-06,-0.0015164225446645,0.0015197373930397,-0.0016196909884433,0.0016261908577906,-0.0016243533756596,0.0016213741457523,-0.001618201461709,0.0016275627839494,-0.0016228875925631,0.0016228027426131,-0.0012769477085259,0.0012959765835447,-0.0012909970982918,0.0012822209250946,-0.0015242852046817,0.0015185764260212,-0.0015203970100613,0.0015227318310714,3.264515073948e-06,-7.2256542772577e-06,-0.00073374006560126,0.0007301870891317,-8.6903076219341e-06,5.1184737341864e-06,-0.00080203634380906,0.00079771466899698,-0.00079739733635834,0.00080217168481246,-0.00080555766149241,0.00079418708735835,-0.00080091516281308,0.00079871249356135,-0.00090403410648793,0.00089456389355801,-0.0008936825965341,0.00090472755491909,0.67906583941701,128736,2834,0.0063049421989755,0.0063047692030501,0.0030481436361322,37.628197150487,0.0002162255772039,0.0002162255772039,0.0002162255772039,2832033.8259523,0.015781484707542
12419200,0.98969816143789,0.015795568296749,0.0059046713060895,0.0059045005594946,0.0039863964311648,-0.0015274006172205,0.0015259246233459,-5.8846846111425e-06,4.5015286137388e-06,1.1890946839244e-06,-2.8165715430245e-06,-0.0016350626746244,0.001631497576693,-0.001631755440446,0.0016351242862778,-0.0016365458894528,0.0016303058202761,-0.0016332279275472,0.0016338093612701,-0.0012976568566914,0.001284594930707,-0.001287662637898,0.001294862851512,-4.5867671882352e-07,3.6474020591387e-06,8.8512901916928e-06,-5.3142684075962e-06,-0.0015249786720504,0.0015282591538695,-0.0016301622763369,0.0016366241765867,-0.0016348019434566,0.0016318210082622,-0.0016286843309486,0.0016379864026947,-0.0016333488870403,0.0016332233301131,-0.0012818174472646,0.0013007581735487,-0.0012958296873711,0.001287036386895,-0.0015329013979308,0.0015272314494429,-0.001529080036244,0.0015313352534033,3.2533011712028e-06,-7.2166094140189e-06,-0.00072919687679071,0.00072564806124591,-8.666446051914e-06,5.1029807425511e-06,-0.00079837380090427,0.00079406758740655,-0.00079375822801977,0.00079851825702926,-0.00080188438305591,0.00079054800619622,-0.00079726097351532,0.00079505887357349,-0.00090222895061059,0.0008927720754508,-0.00089191482998589,0.0009029147294692,0.69355173671472,128736,2834,0.0063402862026614,0.0063401049054159,0.0030293745273089,36.804267166646,0.00020963413733317,0.00020963413733317,0.00020963413733317,2720805.6016706,0.01583422269333
13419200,0.99357112695026,0.015851304180039,0.0059254594559563,0.0059252885933196,0.0040005561307628,-0.0015311059188912,0.001529678581508,-5.8338750665334e-06,4.4986000909117e-06,1.1980535058082e-06,-2.7739268944109e-06,-0.0016389968739043,0.0016354840180783,-0.0016357094260696,0.001639092629966,-0.001640466950033,0.001634304926223,-0.0016371719903583,0.0016377880743021,-0.0012993889308633,0.0012864379510574,-0.0012894444079769,0.0012966603103528,-4.4850241103071e-07,3.6248546032802e-06,8.8573417583119e-06,-5.3296198534493e-06,-0.0015287152960758,0.001531986276023,-0.0016341173850603,0.0016405977169317,-0.0016387732415588,0.0016357858934896,-0.0016326578872845,0.0016419410321219,-0.0016373346693595,0.0016371846088936,-0.001283620060089,0.0013025545341054,-0.001297650288928,0.0012888183428454,-0.00153736236647,0.001531701765724,-0.0015335591717974,0.001535772309125,3.2271088665832e-06,-7.1891392070298e-06,-0.00072365342582339,0.0007201030997349,-8.6797070634987e-06,5.1119969636432e-06,-0.00079472578967424,0.00079038770182729,-0.00079009407702421,0.0007948429556085,-0.00079821862949671,0.00078688625901157,-0.00079358585491145,0.00079140514772195,-0.00089782695512785,0.00088842015403272,-0.00088755270528768,0.00089851879209844,0.67550368749538,128736,2834,0.0063557068739852,0.0063555348472581,0.0030064151663158,34.794598025423,0.00019355678420338,0.00019355678420338,0.00019355678420338,2590451.5787916,0.015842247606601
14419200,0.99580734537697,0.015883060674695,0.0059372670816275,0.0059370962110004,0.0040086973820676,-0.0015291366322692,0.0015276950809451,-5.8403605000295e-06,4.4887654016499e-06,1.2102851297178e-06,-2.7995669886655e-06,-0.0016383063050258,0.0016347928737988,-0.0016350186142459,0.0016384005658144,-0.00163978843271,0.0016336027858202,-0.0016364946897728,0.0016370825213233,-0.0012954083964476,0.0012824302970841,-0.0012854618274621,0.0012926393504112,-4.5983863387985e-07,3.6512505012048e-06,8.8459281175957e-06,-5.2995053088562e-06,-0.001526730232872,0.0015300176498698,-0.0016334308114085,0.0016399002083837,-0.0016380732705174,0.0016351034611211,-0.0016319570600307,0.0016412559816758,-0.0016366223835561,0.0016365136172932,-0.0012796369320297,0.001298565755399,-0.0012936310947555,0.0012848694769249,-0.0015351834439115,0.0015295139716865,-0.0015313405949919,0.001533616927478,3.2285838148799e-06,-7.1841549402472e-06,-0.00071802712086162,0.00071447934462963,-8.6596899171541e-06,5.0911019531925e-06,-0.00078840969348728,0.0007840878579271,-0.00078379362711525,0.00078852817468681,-0.00079190412464304,0.00078058672565022,-0.00078728366382751,0.00078509382494826,-0.0008936689989772,0.00088426422364875,-0.00088339539503729,0.00089434985418644,0.66543916100951,128736,2834,0.0063475252431238,0.006347351308861,0.0029830741044785,32.643906427211,0.00017635125141768,0.00017635125141768,0.00017635125141768,2534763.7926085,0.01580191354497
15419200,0.99697181068315,0.015900520293842,0.0059437096067482,0.0059435387254995,0.0040132719615947,-0.0015192252894842,0.001517725755864,-5.8437353239373e-06,4.440919151124e-06,1.2423850513557e-06,-2.896301919518e-06,-0.0016288679679516,0.0016253534234022,-0.0016255917282288,0.0016289413875516,-0.0016303899137156,0.0016241185503286,-0.0016271112876887,0.0016275811491534,-0.0012849909718093,0.0012719673751763,-0.0012750842448323,0.0012821311746936,-5.0400367082295e-07,3.7360759781382e-06,8.8476259449903e-06,-5.2619097655201e-06,-0.0015167720053587,0.0015200984557079,-0.0016239967453562,0.0016304518563218,-0.0016286343482168,0.0016256688290775,-0.0016224859128772,0.0016318521052508,-0.0016271428495487,0.0016271280400491,-0.0012691708998966,0.0012881459704802,-0.0012831411454905,0.0012745058717648,-0.0015251204831407,0.0015193736413622,-0.0015211576103009,0.0015236119151788,3.2022894829437e-06,-7.1661430698119e-06,-0.00070849159008762,0.00070493257766593,-8.6535979304455e-06,5.0613884883197e-06,-0.00077824793724181,0.00077391414044905,-0.00077364363131921,0.00077834545595408,-0.00078172663017888,0.00077043050486934,-0.00077711953503077,0.00077492376656575,-0.00088426587933739,0.00087488011704163,-0.00087404457626849,0.00088494145148937,0.70138893926396,128736,2834,0.0063063735994251,0.0063062063788726,0.0029434303954753,27.069722678282,0.00013175778142626,0.00013175778142626,0.00013175778142626,2458124.930927,0.015678052298068
16419200,0.99771934698368,0.015911340520439,0.005947697400087,0.0059475265256755,0.0040161165946766,-0.0015184831593436,0.0015170065790557,-5.8323210426278e-06,4.452141160543e-06,1.2445416374265e-06,-2.8714401614743e-06,-0.0016267615415814,0.0016232630336644,-0.0016234898692647,0.0016268482256572,-0.0016282776108796,0.0016220345604185,-0.0016249975268527,0.0016254975828639,-0.0012848085480276,0.0012718179074076,-0.0012749060072569,0.0012820007944711,-5.0115885669741e-07,3.7154955277585e-06,8.8228419835473e-06,-5.2651728298251e-06,-0.0015160507094038,0.0015193567617072,-0.0016219097642514,0.0016283538486683,-0.001626535219372,0.0016235706860348,-0.0016204112635858,0.0016297392240387,-0.0016250559855237,0.0016250246690745,-0.0012690357578665,0.0012879516589095,-0.0012829758525585,0.0012743210640145,-0.0015254653894974,0.001519729641824,-0.0015215186095365,0.0015239495260223,3.1926346436897e-06,-7.1743641989244e-06,-0.00070345748402829,0.00069989111143658,-8.6444822313791e-06,5.0492098897244e-06,-0.00077563549897399,0.00077130579043425,-0.00077104239172177,0.00077573520193365,-0.00077910568344893,0.00076781831370994,-0.00077451688749618,0.00077230388727651,-0.00087840550787157,0.0008689860600012,-0.00086818905928515,0.00087906982515683,0.67697638732006,128736,2834,0.0063033290316514,0.006303158362944,0.0029225320030557,24.418335321151,0.00011054668256921,0.00011054668256921,0.00011054668256921,2340457.3157697,0.015650645073323
17419200,0.99822135931148,0.01591880493551,0.0059504363366083,0.0059502654674082,0.0040181031314937,-0.0015127627054029,0.0015112260764031,-5.8370405369249e-06,4.4001385169411e-06,1.2566777272266e-06,-2.9517484935849e-06,-0.0016219181695109,0.0016184053576875,-0.0016186562855878,0.0016219746360264,-0.0016234609825408,0.0016171452582941,-0.0016201989748331,0.0016205921076086,-0.0012785076599247,0.0012654721203044,-0.0012686461667406,0.0012755903586237,-5.2650930026579e-07,3.7837489944973e-06,8.8419664738168e-06,-5.2326208071224e-06,-0.0015102815212301,0.0015136320463122,-0.00161705125535,0.0016234945525904,-0.001621683306981,0.0016187263580261,-0.001615519907805,0.0016249216731402,-0.0016201690609912,0.0016202122465531,-0.0012626741491959,0.0012816634233368,-0.0012766154612133,0.0012680659605812,-0.0015192094706994,0.0015134317309431,-0.0015151813500693,0.0015177419590107,3.1732246633742e-06,-7.1484771103616e-06,-0.00069808763079907,0.0006945159466253,-8.6451909659267e-06,5.0349805603424e-06,-0.00076927462482259,0.00076492347103688,-0.00076468269773423,0.00076934511851205,-0.00077273830758892,0.00076145830040221,-0.00076814151603603,0.00076593825306619,-0.00087351039134383,0.00086414363493902,-0.00086333728038609,0.00087416617532625,0.69394003806739,128736,2834,0.0062795259824955,0.0062793698830324,0.0029002034788928,21.980202011765,9.1041616094122e-05,9.1041616094122e-05,9.1041616094122e-05,2317732.8397416,0.01557962956548
18419200,0.99853323126284,0.015923366303092,0.0059521082169148,0.0059519373561816,0.0040193207299956,-0.0015056537216848,0.0015041161756708,-5.8064782883825e-06,4.3592536867055e-06,1.2924129870757e-06,-2.9815651200452e-06,-0.0016141082485497,0.0016106418385608,-0.0016108749712154,0.001614194786769,-0.0016156752533909,0.001609362474575,-0.0016124356572712,0.001612788070763,-0.0012719650146894,0.0012589635644405,-0.0012621774655618,0.0012690174364214,-5.4272346535439e-07,3.8319510469103e-06,8.8384456205447e-06,-5.199967796343e-06,-0.0015031506826613,0.001506531562024,-0.0016092683367805,0.0016157091825495,-0.001613874611888,0.0016109469953289,-0.0016077107171368,0.0016171525909932,-0.0016123386381504,0.0016124455868441,-0.0012561459031384,0.0012751472395485,-0.0012700357295103,0.0012615617587128,-0.001512491148864,0.0015066923107415,-0.0015083918854303,0.0015110613475476,3.1387912360147e-06,-7.1096970510988e-06,-0.00069070746850332,0.00068714483654164,-8.6156604433352e-06,5.0292862680512e-06,-0.00076279757963582,0.00075844182397868,-0.00075821623898292,0.00076284858695326,-0.00076623626548468,0.00075499694760385,-0.00076165302259345,0.00075946872236983,-0.00086532425689883,0.00085602510682612,-0.00085521019865563,0.00086595668344176,0.68267067316777,128736,2834,0.0062500829866245,0.0062499011224584,0.0028695595224987,17.477991088757,5.5023928710055e-05,5.5023928710055e-05,5.5023928710055e-05,2229101.358234,0.015488684651481
19419200,0.99879146632572,0.015927366314945,0.0059535644626156,0.005953393596758,0.0040204082555711,-0.0015057089755327,0.0015041816191523,-5.801637072252e-06,4.3646164224149e-06,1.2802665502166e-06,-2.958666771124e-06,-0.0016147706162341,0.0016113017953412,-0.0016115365832627,0.0016148539548062,-0.0016163252334313,0.0016100340737141,-0.0016130858869494,0.0016134593569851,-0.0012711300879368,0.0012581500207993,-0.0012613437571352,0.0012682015031136,-5.3098446284741e-07,3.8091358950475e-06,8.8281393356497e-06,-5.2002559082458e-06,-0.0015032184743293,0.0015065888043713,-0.0016099303359615,0.0016163686943782,-0.0016145360576265,0.0016116113611638,-0.0016083838460702,0.001617801349931,-0.0016130120090453,0.0016130991086713,-0.0012553378631359,0.0012743103147542,-0.0012692191238388,0.0012607303822258,-0.0015124549568267,0.0015066845031565,-0.0015083889317889,0.0015110162535388,3.1397842639601e-06,-7.1095997018754e-06,-0.00068902662399605,0.0006854652148638,-8.6101765909027e-06,5.0249361871448e-06,-0.00076070730394661,0.00075635671193624,-0.00075613140114807,0.00076076077924234,-0.00076414752405433,0.00075291078495367,-0.00075956669544527,0.00075737994614995,-0.00086446166533018,0.00085516181791738,-0.000854348218795,0.0008650904483403,0.72158242923599,128736,2834,0.0062503336882073,0.0062501608022089,0.0028625914290125,17.551568050536,5.5612544404289e-05,5.5612544404289e-05,5.5612544404289e-05,2212924.4522965,0.015482125703119
20419200,0.99901620135289,0.015930884133382,0.0059548436393762,0.0059546727718877,0.0040213677221182,-0.0015113027463353,0.0015098316183851,-5.7929468265117e-06,4.4114632230859e-06,1.2350164316874e-06,-2.8548929990433e-06,-0.0016191240524983,0.0016156495514062,-0.0016158775007146,0.0016192144748327,-0.001620630655025,0.0016144314566435,-0.0016173788791798,0.0016178694788158,-0.0012772527672925,0.0012643388597855,-0.0012674306263246,0.0012744310451622,-4.8570556590855e-07,3.7052323702192e-06,8.821723487366e-06,-5.2510492826337e-06,-0.0015088687546572,0.0015121823990311,-0.001614278676659,0.0016207244403061,-0.0016188983211261,0.0016159522670211,-0.0016127804083646,0.0016221069504035,-0.0016174218923161,0.0016173903053998,-0.00126152725736,0.0012804363749188,-0.0012754489124945,0.0012668112211519,-0.0015189889985065,0.0015132924944716,-0.0015150667807176,0.0015174753075843,3.1591994056217e-06,-7.1286210269514e-06,-0.00068937374583753,0.00068581389047471,-8.6307002941656e-06,5.0487709949867e-06,-0.00076359271130822,0.00075924117147487,-0.00075900225791639,0.00076366043993768,-0.0007670458530186,0.00075578292447529,-0.00076245052669733,0.00076026656144649,-0.000864236848257,0.00085491190037317,-0.00085408352309463,0.00086487854471757,0.72910480557641,128736,2834,0.0062735907632843,0.006273418106635,0.0028640748921483,18.597312354036,6.3978498832292e-05,6.3978498832292e-05,6.3978498832292e-05,2144718.8877689,0.015530874368526
21419200,0.99916909191469,0.015933214678372,0.0059556921046463,0.0059555212363268,0.0040220013373992,-0.0015048388662067,0.0015033471988566,-5.7753862761224e-06,4.3770446155405e-06,1.272206260839e-06,-2.9159398767511e-06,-0.001612561325684,0.0016091144135733,-0.0016093289316029,0.0016126597939614,-0.0016140976445194,0.0016078640005569,-0.0016108638963308,0.0016112808036367,-0.0012710901088012,0.0012581856221467,-0.0012613169937359,0.0012682183703898,-5.2355977657637e-07,3.7657416281428e-06,8.7967751381051e-06,-5.2054852900921e-06,-0.0015023848382489,0.0015057199815755,-0.001607744815624,0.0016141583922469,-0.0016123457290455,0.001609410888887,-0.0016062180401981,0.001615573117249,-0.0016108385470241,0.0016108855537544,-0.0012553734758473,0.0012742666324441,-0.0012692352988761,0.0012607250086945,-0.0015124353403892,0.0015066857841327,-0.0015084181028403,0.0015109712276769,3.1296933373689e-06,-7.1059839940976e-06,-0.00068325266185201,0.00067968254299689,-8.6055200959096e-06,5.0040592775553e-06,-0.00075778042458461,0.00075342663786942,-0.00075321385136472,0.00075782324976757,-0.00076121591718155,0.00074998574791471,-0.00075664432313108,0.00075444649533501,-0.00085778337381883,0.00084848138994985,-0.00084769047912528,0.00085840593387747,0.70951084564793,128736,2834,0.0062467813007442,0.0062466127096838,0.0028386180296354,15.225615260312,3.7004922082497e-05,3.7004922082497e-05,3.7004922082497e-05,2089316.0060371,0.015450578042081
22419200,0.99929565554335,0.015935163089171,0.0059563993762501,0.0059562285086347,0.0040225352042857,-0.001503252463577,0.00150174065894,-5.7818870388653e-06,4.3603087931893e-06,1.2698489783752e-06,-2.9321260681553e-06,-0.0016117327147067,0.0016082751611695,-0.0016085064531826,0.0016118190668645,-0.0016132751517166,0.0016070195767266,-0.0016100437472446,0.0016104366363097,-0.0012686978536598,0.0012557697789385,-0.001258934837487,0.0012657965156659,-5.2107935536272e-07,3.7820203656161e-06,8.7959444705013e-06,-5.1852647092654e-06,-0.0015007782224204,0.0015041318027712,-0.0016069082095385,0.0016133265920447,-0.0016114985895689,0.0016085851633236,-0.0016053734660939,0.0016147467823932,-0.0016099862819364,0.0016100604152469,-0.001252968065156,0.001271865508926,-0.0012668047656804,0.0012583336780973,-0.00151054131712,0.0015048058829448,-0.0015065114291568,0.0015091005755127,3.1245589382115e-06,-7.1008659755935e-06,-0.00068111472923223,0.00067754665738694,-8.5909173422478e-06,4.9977328689065e-06,-0.00075488501160619,0.00075053555188895,-0.00075032532877676,0.00075492495083374,-0.00075831780437316,0.00074709787106649,-0.00075375261519181,0.00075155212120753,-0.00085643831400357,0.00084714077637802,-0.00084634903078409,0.00085704570965806,0.71604798186498,128736,2834,0.006240174520014,0.0062400020870227,0.0028297439728708,14.858990533529,3.4071924268233e-05,3.4071924268233e-05,3.4071924268233e-05,2082570.6178934,0.015428143117152
23419200,0.99940804552556,0.015936863874295,0.0059570167806302,0.0059568459124329,0.0040230011812316,-0.0015058608440645,0.0015043666669255,-5.7825926833131e-06,4.3774610102696e-06,1.2494089846488e-06,-2.8924803606023e-06,-0.001614273080276,0.0016108076539113,-0.001611042148099,0.0016143582871484,-0.0016157965204294,0.0016095716484254,-0.0016125591866596,0.0016129968259479,-0.0012709988662411,0.0012580890160483,-0.0012612222472668,0.0012681404447928,-5.0121024548655e-07,3.7418067768336e-06,8.7976138719781e-06,-5.2082645085253e-06,-0.0015034053600817,0.001506738801251,-0.0016094419501415,0.0016158685480088,-0.0016140383351528,0.0016111177486958,-0.0016079261297292,0.0016172685844982,-0.0016125453941142,0.0016125718006006,-0.0012552864856349,0.0012741673722152,-0.0012691430733569,0.0012606040712857,-0.0015133827111328,0.0015076787778366,-0.0015094108874932,0.0015119134828975,3.1344362165444e-06,-7.1091394714002e-06,-0.00068097691310581,0.00067741361294969,-8.5985289516161e-06,5.0148267067683e-06,-0.00075540191218719,0.00075105466372035,-0.00075083446189224,0.00075545276920623,-0.0007588400142849,0.00074761070627125,-0.00075426735863992,0.00075207285036527,-0.00085658682029347,0.00084727880115046,-0.00084647896582658,0.00085720185790734,0.70404422400669,128736,2834,0.0062510043353817,0.0062508313927864,0.0028292027321789,15.705719502802,4.0845756022418e-05,4.0845756022418e-05,4.0845756022418e-05,2057392.3488256,0.015449588644646
24419200,0.99951414069417,0.015938496510237,0.0059576084358272,0.0059574375669442,0.0040234505074652,-0.0015100287621855,0.0015085640596057,-5.7899165417466e-06,4.4154269168843e-06,1.2332890997155e-06,-2.847211982321e-06,-0.0016190526794173,0.0016155803856105,-0.0016158057009072,0.0016191451244496,-0.0016205553690074,0.0016143651474533,-0.0016173030782478,0.0016178031626101,-0.0012741383677692,0.0012612348543689,-0.0012643145252315,0.0012713248432783,-4.8374132509956e-07,3.6984084763993e-06,8.8056237189735e-06,-5.2393732097575e-06,-0.0015076037383108,0.001510912812814,-0.0016142147719159,0.0016206495761658,-0.0016188278118267,0.0016158881861438,-0.0016127193839549,0.0016220297191042,-0.0016173548941365,0.0016173238200065,-0.0012584338742743,0.0012773100149661,-0.0012723318529743,0.0012637128347457,-0.001517525462702,0.0015118434816961,-0.001513613539724,0.0015160169043575,3.1615905191381e-06,-7.1280495588973e-06,-0.00068243966298476,0.00067888199598929,-8.616640403013e-06,5.0360037609418e-06,-0.00075665982021133,0.00075231961933987,-0.00075207887098212,0.00075673049687497,-0.00076011491459647,0.00074886060258967,-0.00075552728143389,0.00075333626226074,-0.00085909816071786,0.00084976752078536,-0.00084894532922369,0.0008597345547123,0.71549404764689,128736,2834,0.0062683213223052,0.0062681630290254,0.0028353148335017,17.881578703153,5.8252629625224e-05,5.8252629625224e-05,5.8252629625224e-05,2062579.5734517,0.015490979426062
25419200,0.9996108681725,0.01594005888371,0.0059581731050252,0.0059580022375931,0.0040238835410922,-0.0015154017270069,0.0015139611089697,-5.8030243851788e-06,4.4509678451233e-06,1.2055473621098e-06,-2.7931113455423e-06,-0.0016242369984891,0.0016207461654555,-0.0016209748282701,0.0016243283317561,-0.0016257142525779,0.0016195584855954,-0.0016224460223202,0.0016230144749176,-0.0012791769903049,0.0012662746233642,-0.0012693085982099,0.0012764184097531,-4.568600907143e-07,3.6429503806136e-06,8.8148168007253e-06,-5.2772474014614e-06,-0.0015129995651869,0.0015162807416622,-0.0016193825301563,0.0016258327157938,-0.0016240073883056,0.001621053408069,-0.0016179129785586,0.0016271846657563,-0.0016225603335878,0.0016224600151796,-0.0012634777630992,0.0012823435131633,-0.0012774162721382,0.0012686939551042,-0.0015232639435792,0.0015176179590946,-0.0015194305354939,0.0015217101312546,3.187711749332e-06,-7.150415118529e-06,-0.00068404605958545,0.00068049478464805,-8.634623549264e-06,5.0646692592591e-06,-0.00075925998550299,0.00075492674467689,-0.00075466383215686,0.00075935333864685,-0.00076273011827147,0.00075145160464414,-0.00075812853069944,0.00075594227741928,-0.00086106383364542,0.00085170307288068,-0.0008508614362816,0.00086171747684816,0.75065157227605,128736,2834,0.0062906077506965,0.0062904365101335,0.0028420326949987,19.926560985447,7.4612487883573e-05,7.4612487883573e-05,7.4612487883573e-05,2042214.5509281,0.015543055598807
26419200,0.99969017685159,0.015941368127953,0.0059586459991537,0.0059584751313006,0.0040242469974988,-0.0015183555075623,0.0015169323343881,-5.8023713522159e-06,4.4669299173911e-06,1.1895414491021e-06,-2.7578842035562e-06,-0.0016264222837928,0.001622927084005,-0.0016231560070652,0.0016265141563925,-0.0016278830795144,0.0016217566387433,-0.0016246099979974,0.0016252178026536,-0.0012825165089985,0.0012696352126503,-0.0012726367536834,0.001279800147299,-4.4071813420745e-07,3.6076052478217e-06,8.8094104916417e-06,-5.2941088702319e-06,-0.0015159705529655,0.00151923209838,-0.0016215657343222,0.0016280197911536,-0.0016261919106222,0.0016232343555792,-0.0016201140723896,0.001629352112225,-0.0016247624530161,0.0016246240030296,-0.0012668424646836,0.001285680077682,-0.0012807895379323,0.0012720157036739,-0.0015267193680744,0.0015211004926057,-0.0015229340844801,0.0015251432159043,3.1929246876435e-06,-7.1603743527954e-06,-0.00068364578105718,0.00068009301897619,-8.6402610185317e-06,5.0705218132031e-06,-0.00076064952015227,0.00075631754701933,-0.0007560508385743,0.00076074881016724,-0.00076412275274761,0.00075283622583765,-0.0007595203065958,0.00075733073975558,-0.00086030588442706,0.00085092681039086,-0.00085008993979534,0.00086096137360674,0.76692112556937,128736,2834,0.0063028583592117,0.0063026816231081,0.0028403941101754,20.393280622158,7.8346244977262e-05,7.8346244977262e-05,7.8346244977262e-05,1993353.4601426,0.015566273436265
27419200,0.99975933574077,0.015942466864114,0.0059590435078019,0.0059588726392526,0.0040245507170595,-0.0015226778622002,0.0015212655545807,-5.8086812381659e-06,4.4854733225464e-06,1.1775006044322e-06,-2.7360624333307e-06,-0.0016306631315661,0.0016271589916882,-0.0016273865805873,0.0016307536951159,-0.0016321126568748,0.001625999654178,-0.0016288309335736,0.0016294674516672,-0.0012867951109581,0.001273911238691,-0.0012768848119589,0.0012840901239188,-4.2929745554699e-07,3.5853071137536e-06,8.7934772075428e-06,-5.28497185398e-06,-0.0015203041813488,0.0015235563032875,-0.0016258048245637,0.001632249431229,-0.0016304260298608,0.0016274754446604,-0.0016243629443612,0.0016335728378272,-0.0016290061857903,0.0016288542628789,-0.0012711402459722,0.001289935500121,-0.0012850685725367,0.0012763048336886,-0.0015310775862744,0.0015254903003228,-0.001527327109651,0.0015294968483768,3.2057303797513e-06,-7.1729149537752e-06,-0.00068452632101171,0.00068096865805486,-8.6330524694643e-06,5.0531269181023e-06,-0.00076270374413427,0.00075838247601979,-0.0007581124234351,0.00076280518468692,-0.0007661880636702,0.00075489444470595,-0.00076159089964541,0.00075938110996479,-0.00086147003797248,0.00085206204068349,-0.00085122884412085,0.00086211674802556,0.73788855844678,128736,2834,0.0063207641194559,0.0063205920464772,0.0028440722380514,22.249487837461,9.3195902699687e-05,9.3195902699687e-05,9.3195902699687e-05,1974262.7316774,0.015606385999578
28419200,0.99981618207925,0.015943416439206,0.0059593859375837,0.0059592150687782,0.0040248154328437,-0.0015239120385014,0.0015225076252862,-5.8083508990857e-06,4.4933937009732e-06,1.1848506316688e-06,-2.7360623232876e-06,-0.0016327486538556,0.0016292527287238,-0.0016294683668488,0.0016328517821156,-0.0016342015408592,0.001628090181575,-0.0016309160255872,0.0016315621346602,-0.001287177043336,0.0012742900991741,-0.0012772572189048,0.0012844678222573,-4.2530348614362e-07,3.5966778319098e-06,8.7999291154074e-06,-5.273119718756e-06,-0.0015215337504746,0.0015248015192906,-0.0016278889088063,0.0016343382145748,-0.0016325061415228,0.0016295690943235,-0.0016264395559271,0.001635669481479,-0.0016310809475997,0.0016309460533712,-0.0012715047690062,0.0012903183651155,-0.0012854312175794,0.0012766912997033,-0.0015319487125036,0.0015263733436642,-0.001528196463737,0.001530384176406,3.2129213640417e-06,-7.1736635255317e-06,-0.00068472805467184,0.00068117402649058,-8.6276986391644e-06,5.053176138212e-06,-0.00076213137232577,0.00075781679550999,-0.0007575425261873,0.00076223659849559,-0.00076562076181425,0.00075432766700054,-0.00076102175277286,0.00075881231206706,-0.00086261011360926,0.00085320537425599,-0.00085236388857408,0.00086325627080949,0.77520834825056,128736,2834,0.0063258932026014,0.0063257180981107,0.0028449275636679,23.439579031668,0.00010271663225334,0.00010271663225334,0.00010271663225334,1988678.512738,0.01561766671097
29419200,0.99986237384055,0.015944101124763,0.0059596344181225,0.0059594635487051,0.0040250031579355,-0.0015286693382323,0.0015272669731206,-5.819657754023e-06,4.5060340649568e-06,1.1661691859568e-06,-2.7142287416941e-06,-0.0016367820270609,0.0016332663090549,-0.0016334950490456,0.001636871444529,-0.0016382206330112,0.0016321179596105,-0.0016349285897843,0.001635596412046,-0.0012920435530613,0.0012791489035393,-0.0012821027952544,0.0012893606350599,-4.1851460830366e-07,3.5629732441595e-06,8.779365235383e-06,-5.2826607438594e-06,-0.0015263064650197,0.0015295471864936,-0.0016319208605651,0.0016383598535737,-0.0016365370787833,0.0016335914067765,-0.0016304898912295,0.0016396721824142,-0.0016351278662824,0.0016349593388309,-0.0012764028529895,0.0012951588357928,-0.0012903145613207,0.0012815435531985,-0.001537289687943,0.0015317291282439,-0.0015335707223658,0.0015357031720416,3.2207276273292e-06,-7.189835799907e-06,-0.00068561964620428,0.0006820605384809,-8.6256529811604e-06,5.044536902105e-06,-0.00076481578903293,0.00076050876513842,-0.00076022974112354,0.00076492635938947,-0.00076831069528947,0.00075701041477424,-0.00076371889084643,0.00076149154820685,-0.00086338880614985,0.00085394084154889,-0.00085311546990239,0.00086402750424839,0.6888912659399,128736,2834,0.0063455779853258,0.0063454064790014,0.0028486562956046,24.778337395782,0.00011342669916626,0.00011342669916626,0.00011342669916626,1947762.5625477,0.015661448534481
30419200,0.99989911973914,0.015944636425457,0.0059598287770054,0.0059596579075146,0.0040251497409368,-0.0015275386615013,0.0015261127155984,-5.8380131262691e-06,4.5015593749264e-06,1.1949900789026e-06,-2.7678317673536e-06,-0.0016381732125353,0.0016346562907976,-0.0016348812861324,0.0016382661004505,-0.0016396387971149,0.0016334808896816,-0.0016363416720525,0.0016369637512919,-0.0012881221456314,0.0012751654617599,-0.0012781655787731,0.0012853858695975,-4.4782648798012e-07,3.616195355993e-06,8.7915238118368e-06,-5.2705818058675e-06,-0.0015251520691394,0.0015284159391147,-0.0016333127799899,0.001639747310669,-0.0016379291235069,0.0016349787120376,-0.0016318544351532,0.0016410874947084,-0.0016364934255672,0.0016363737484543,-0.0012724220944669,0.0012912304669727,-0.0012863367871474,0.0012776160540095,-0.0015352349883863,0.0015296164632835,-0.0015314370645663,0.0015336724672854,3.2328565963665e-06,-7.1916654369315e-06,-0.000686195813697,0.0006826454293833,-8.6219562043521e-06,5.0480992203503e-06,-0.00076147862466158,0.00075718578440733,-0.00075689319523083,0.00076160307157769,-0.00076497821508537,0.00075368228041201,-0.0007603865278104,0.00075816393435032,-0.0008665956783548,0.00085714827734377,-0.00085631177254759,0.00086724723932333,0.67663456786245,128736,2834,0.0063408751628842,0.0063407021702411,0.0028510593985805,26.12900914429,0.00012423207315432,0.00012423207315432,0.00012423207315432,2021815.0029346,0.015654323711441
31419200,0.99992886605336,0.015945101370518,0.005959996842515,0.0059598259728442,0.004025278555159,-0.0015321144760635,0.0015306973475932,-5.8442833150913e-06,4.5165081489483e-06,1.1880831570765e-06,-2.7517170333514e-06,-0.0016432363336068,0.0016397135754364,-0.0016399373762272,0.0016433303719135,-0.0016446945104403,0.0016385457943599,-0.0016413903296676,0.0016420358132633,-0.0012916701446668,0.0012787081274536,-0.0012816932131822,0.0012889512383609,-4.4135523844937e-07,3.5996504533314e-06,8.7773389357144e-06,-5.2664803084774e-06,-0.0015297372809339,0.0015329912016666,-0.0016383771237197,0.0016448035577633,-0.0016429878423524,0.0016400408978786,-0.0016369262926929,0.0016461359140251,-0.0016415594245966,0.0016414284170904,-0.0012759864373429,0.0012947582531236,-0.0012898820065924,0.0012811615524012,-0.0015398637248732,0.0015342637572418,-0.0015360874782972,0.0015382970915501,3.242606849224e-06,-7.2033388813197e-06,-0.00068840593261077,0.00068485408972589,-8.6137200539255e-06,5.0383446230942e-06,-0.00076337120247633,0.000759090059815,-0.00075879168317301,0.00076350160579402,-0.0007668777475409,0.0007555796455645,-0.00076229227749618,0.00076005510783532,-0.00086980097337004,0.00086032311476858,-0.00085949495945559,0.00087044370568206,0.72615477770363,128736,2834,0.0063598379686795,0.0063596650315502,0.0028602608577822,28.436007460712,0.00014268805968569,0.00014268805968569,0.00014268805968569,2033235.3300744,0.015702188953131
32419200,0.99995060088,0.015945458005935,0.0059601255375513,0.005959954667738,0.004025377800646,-0.0015373175437085,0.0015359124421762,-5.8422309161328e-06,4.5251718159602e-06,1.1686296482666e-06,-2.7190952738065e-06,-0.0016468108682611,0.0016432808442973,-0.0016435103506495,0.0016468996665524,-0.001648251589927,0.0016421300750203,-0.0016449460820596,0.0016456229825594,-0.0012979879018444,0.0012850440056942,-0.0012880069551993,0.0012953022516114,-4.2297524210143e-07,3.5659341584913e-06,8.7652550370274e-06,-5.2708357531069e-06,-0.001534954566515,0.0015381932714185,-0.0016419487192806,0.0016483752219733,-0.0016465575683427,0.0016436153065059,-0.001640516009503,0.0016496899481503,-0.0016451458743959,0.0016449863017581,-0.001282338719086,0.0013010683119927,-0.0012962234597261,0.0012874770738251,-0.0015460883761091,0.001540527253045,-0.0015423596644268,0.0015445091616479,3.2415034471476e-06,-7.2111952810287e-06,-0.00068912065582207,0.00068556186169279,-8.6126783249616e-06,5.0320163554932e-06,-0.00076710521048404,0.00076282057967567,-0.0007625270729485,0.00076722980966675,-0.0007706134715129,0.00075930885451962,-0.00076603029623736,0.00076378073410245,-0.0008693545977218,0.00085985188154109,-0.00085903648898895,0.00086998142043738,0.76213985017492,128736,2834,0.0063813806584223,0.0063812102025216,0.0028632484763268,29.29448690667,0.00014955589525336,0.00014955589525336,0.00014955589525336,1967066.0672645,0.015748997794099
33419200,0.99996570890517,0.015945708774094,0.0059602159871984,0.0059600451173581,0.0040254476695375,-0.0015387080642465,0.0015372694709569,-5.8564462556966e-06,4.5070386970764e-06,1.2050790599422e-06,-2.7910421481715e-06,-0.0016475093774066,0.0016439831908761,-0.0016442094374413,0.0016476007637273,-0.0016489851067458,0.0016427960690467,-0.0016456802039041,0.0016462868026796,-0.0013000661570909,0.0012870612364352,-0.0012900871734152,0.0012973066503804,-4.5728837259291e-07,3.6399040894718e-06,8.7795362355535e-06,-5.2459516898437e-06,-0.0015363085714876,0.0015395860684773,-0.0016426488049286,0.0016490738921606,-0.0016472530492469,0.0016443177825112,-0.0016411802346038,0.0016504250807027,-0.0016458066119991,0.0016457241730712,-0.0012843490077676,0.0013031455689422,-0.0012982274898553,0.0012895682012886,-0.0015477436998589,0.0015421187639479,-0.001543913035527,0.0015462077746121,3.239217994101e-06,-7.2096167854961e-06,-0.00068803078806208,0.00068446953459446,-8.609640817479e-06,5.0246763925557e-06,-0.00076773510734718,0.00076345128073465,-0.00076316185822499,0.00076785741410079,-0.00077124320517652,0.00075994010073911,-0.00076666351880359,0.00076440998209196,-0.00086772520014997,0.00085822916470413,-0.00085741636036602,0.00086835215969396,0.77028159841272,128736,2834,0.0063870534128272,0.0063868814148221,0.0028587348968037,29.317262035562,0.00014973809628449,0.00014973809628449,0.00014973809628449,1923990.284736,0.015755940466436
34419200,0.9999771411774,0.015945891535655,0.0059602819869524,0.0059601111170733,0.0040254984316293,-0.0015431665963979,0.0015417405475444,-5.8590701795049e-06,4.5168338494156e-06,1.1946121176352e-06,-2.7637090647783e-06,-0.0016521165842157,0.0016485897778071,-0.0016488152607123,0.0016522151355225,-0.0016535827505617,0.0016474142201958,-0.0016502717226477,0.0016509128125332,-0.0013042470209992,0.0012912470731714,-0.0012942602218908,0.001301510832237,-4.4276212357817e-07,3.6155166306889e-06,8.7702579546428e-06,-5.2532926449534e-06,-0.0015407747415542,0.0015440389501284,-0.0016472569841076,0.0016536781562787,-0.0016518496364933,0.0016489182850056,-0.0016457955396929,0.0016550172388587,-0.0016504136023402,0.0016503067424405,-0.0012885438827536,0.0013073094232252,-0.0013024101034825,0.0012937163050821,-0.0015521577940495,0.0015465647697013,-0.0015483686529701,0.0015506148911248,3.2456746636772e-06,-7.2151786927731e-06,-0.00068950932436872,0.00068595411621318,-8.6003548101844e-06,5.032506135708e-06,-0.00076992821138741,0.00076565586451422,-0.00076535874716145,0.00077006289150555,-0.00077343886458674,0.00076213847096653,-0.0007688628818511,0.00076660895590146,-0.00086969703995559,0.00086019117051663,-0.00085937269065684,0.00087031682458229,0.74169710775399,128736,2834,0.0064055282335173,0.0064053343924752,0.0028649179948786,31.480106691919,0.00016704085353535,0.00016704085353535,0.00016704085353535,1918632.8519292,0.015799732976565
35419200,0.9999861070408,0.01594602996215,0.0059603320531743,0.0059601611829418,0.0040255367260337,-0.0015513115372227,0.0015498707548931,-5.8980936465818e-06,4.5359236784982e-06,1.149506618364e-06,-2.7324929937669e-06,-0.0016611296606383,0.0016575525282609,-0.0016578145599481,0.0016612003968982,-0.0016625801139521,0.0016563954487009,-0.0016592445573125,0.0016599268718937,-0.0013111487594919,0.001298077204057,-0.001301100568135,0.001308412592822,-3.941316643477e-07,3.5857074221002e-06,8.7620647278687e-06,-5.2227755363654e-06,-0.0015488958289388,0.0015521791355636,-0.0016562296917211,0.0016626727047115,-0.0016607963694146,0.0016579257480167,-0.0016547849952306,0.0016639920534676,-0.0016593848392473,0.0016592784660709,-0.0012954241695689,0.0013141474400792,-0.0013092453719876,0.0013005754742845,-0.0015600533436699,0.0015545811201598,-0.0015563572398741,0.0015585477829401,3.2776499269008e-06,-7.2412936162691e-06,-0.00069428738887254,0.00069074014443873,-8.5711267703935e-06,5.0246823131521e-06,-0.00077425979455443,0.00077002102179031,-0.00076969881305685,0.00077441491059406,-0.00077778954091462,0.00076648755552216,-0.00077322463921932,0.00077094346558754,-0.00087591398950527,0.00086634463766575,-0.00086551708280307,0.00087650883080337,0.71641844393776,128736,2834,0.0064392156560332,0.0064389930937708,0.002884816004141,35.925106813475,0.0002026008545078,0.0002026008545078,0.0002026008545078,1957286.1617481,0.015888357323994
36419200,0.99999184826657,0.015946120349052,0.0059603647324606,0.0059601938617009,0.0040255617548907,-0.001553710427893,0.0015523088647575,-5.8831539954726e-06,4.570742605813e-06,1.1728670902595e-06,-2.7203164620639e-06,-0.0016644096321933,0.0016608561694189,-0.0016610793922362,0.0016645037524661,-0.0016658526423567,0.0016597035551865,-0.0016625173434115,0.0016632245560929,-0.001311933820212,0.0012989117468017,-0.0013018659369878,0.001309245171853,-4.2600997740188e-07,3.5682329062329e-06,8.7384589212309e-06,-5.2435752137124e-06,-0.0015513485962665,0.0015545869091994,-0.0016595450512753,0.0016659507946872,-0.0016641355244923,0.0016612091288691,-0.0016581089496139,0.0016672676364619,-0.0016627220927058,0.0016625806705643,-0.001296263385877,0.0013149443880949,-0.0013100997071982,0.0013014088468841,-0.0015624922774767,0.0015569436591797,-0.0015587626276525,0.0015609294182444,3.2845177444701e-06,-7.2554499589263e-06,-0.00069560303287001,0.00069204110154032,-8.589011667303e-06,5.0026271205184e-06,-0.00077440822255878,0.00077016865765695,-0.00076984948446025,0.00077456077539691,-0.00077794679298225,0.00076662711466817,-0.00077338138724663,0.00077108309612405,-0.00087865461615838,0.00086905572522965,-0.00086825741700979,0.00087926691618387,0.73065039168372,128736,2834,0.0064492346813181,0.006449060832613,0.0028902669895418,37.478875580645,0.00021503100464516,0.00021503100464516,0.00021503100464516,1976865.7794447,0.015914298674238
37419200,0.99999523923127,0.015946172909732,0.0059603837521852,0.0059602128814076,0.0040255762761389,-0.0015552029313973,0.0015538060483542,-5.8846996159264e-06,4.5762532189427e-06,1.16882455188e-06,-2.7110343449455e-06,-0.0016654889214269,0.0016619333344297,-0.001662157357933,0.0016655834971112,-0.0016669272480052,0.0016607850022655,-0.0016635900812721,0.0016643092100729,-0.0013135753229916,0.0013005540740854,-0.0013035023391933,0.0013109016632256,-4.2120390722089e-07,3.5599704912113e-06,8.7330086565608e-06,-5.2436053608313e-06,-0.0015528460298505,0.0015560802923691,-0.001660624933458,0.0016670303086529,-0.0016652134061897,0.0016622895571654,-0.0016591940875419,0.0016683421139247,-0.0016638043716415,0.0016636574197564,-0.0012979156471589,0.0013165800212294,-0.0013117448678368,0.001303048364483,-0.0015643204567337,0.0015587826822322,-0.0015606014848943,0.0015627576153593,3.2864403513276e-06,-7.2608155862418e-06,-0.0006952668076851,0.00069170348003644,-8.5862495822565e-06,5.0000343504183e-06,-0.00077499224055018,0.00077075521888518,-0.00077043456228349,0.00077514578460094,-0.00077853192902018,0.0007672113208031,-0.00077396917917857,0.0007716646834414,-0.00087811429242648,0.00086849798580648,-0.00086770744787573,0.0008787205055255,0.71959281437173,128736,2834,0.0064554152494401,0.0064552437431471,0.0028888816467406,37.680188805338,0.00021664151044271,0.00021664151044271,0.00021664151044271,1949571.5924253,0.015925454531122
38419200,0.99999718837493,0.015946204244012,0.005960395064152,0.0059602241933722,0.0040255849864876,-0.0015539607490289,0.001552549218349,-5.8873444887689e-06,4.564813602132e-06,1.1802565028317e-06,-2.7380059601974e-06,-0.001664509762729,0.001660955428622,-0.0016611802952318,0.0016646026076729,-0.0016659608157191,0.0016597942738319,-0.0016626259968565,0.0016633148653869,-0.001312003947155,0.0012989647741591,-0.0013019375583648,0.0013092972297176,-4.3375984251376e-07,3.5855407317065e-06,8.7462247372901e-06,-5.2425460837016e-06,-0.0015515893635984,0.0015548367932862,-0.0016596434947627,0.0016660522036088,-0.0016642355657899,0.0016613079725291,-0.0016581993375329,0.0016673773617385,-0.0016628139493465,0.001662687898627,-0.0012963142778411,0.0013150186230333,-0.0013101570519353,0.0013014771770498,-0.0015630105243535,0.0015574439997854,-0.0015592561265689,0.0015614555990953,3.2842357382366e-06,-7.2540929416837e-06,-0.00069392357336275,0.00069036285377441,-8.5917024529033e-06,5.006727882712e-06,-0.00077327169188601,0.00076903054658452,-0.00076871076528017,0.00077342517633461,-0.0007768096201458,0.00076548972064311,-0.00077224231705669,0.00076994788428665,-0.0008770423035159,0.00086744769163431,-0.00086664609998051,0.00087765780693244,0.74583042868453,128736,2834,0.006450245090819,0.0064500711925108,0.0028833062237048,37.196433269657,0.00021277146615725,0.00021277146615725,0.00021277146615725,1942778.5936613,0.015909281634389
38880000,0.99999786900821,0.015946215247376,0.0059603990338493,0.0059602281630659,0.0040255880504609,-0.0015551584180737,0.001553714683351,-5.9045092307412e-06,4.5496909646871e-06,1.210385813372e-06,-2.8015651636771e-06,-0.0016650461379529,0.0016614900534039,-0.001661716109027,0.0016651378714141,-0.0016665270326514,0.0016602974341741,-0.0016631917300165,0.001663818695815,-0.0013138183911011,0.0013007133067918,-0.0013037505146591,0.0013110489262785,-4.631779861177e-07,3.6498330657603e-06,8.7739966443173e-06,-5.2372938559133e-06,-0.0015527543643973,0.0015560353091696,-0.0016601735781108,0.0016665921164121,-0.0016647729054967,0.0016618404984674,-0.0016586996228927,0.0016679486632734,-0.0016633212625922,0.0016632519780082,-0.0012980541115866,0.0013168448944537,-0.0013119180757644,0.0013032804556701,-0.0015645271109289,0.0015588954210743,-0.001560681021891,0.0015630003817353,3.2855343724872e-06,-7.2548755610351e-06,-0.00069361944796128,0.00069005962483986,-8.6020828345084e-06,5.0187637244811e-06,-0.00077426065051239,0.00077001332289114,-0.000769692369405,0.00077441555746585,-0.00077779925069256,0.00076647187200389,-0.00077322449730438,0.00077093740442481,-0.00087616699057211,0.00086657735309096,-0.00086576814162462,0.00087678994429932,0.74998939223585,128736,2834,0.006455126330798,0.006454953230187,0.0028820558310863,37.193663116545,0.00021274930493236,0.00021274930493236,0.00021274930493236,1914135.054075,0.015917933905925
