time,ASR_ext,ASR_strain,ASR_strain_xx,ASR_strain_yy,ASR_strain_zz,disp_x_101,disp_x_102,disp_x_103,disp_x_104,disp_x_105,disp_x_106,disp_x_p1_neg,disp_x_p1_pos,disp_x_p2_neg,disp_x_p2_pos,disp_x_p3_neg,disp_x_p3_pos,disp_x_p4_neg,disp_x_p4_pos,disp_x_p5_neg,disp_x_p5_pos,disp_x_p6_neg,disp_x_p6_pos,disp_y_101,disp_y_102,disp_y_103,disp_y_104,disp_y_105,disp_y_106,disp_y_p1_neg,disp_y_p1_pos,disp_y_p2_neg,disp_y_p2_pos,disp_y_p3_neg,disp_y_p3_pos,disp_y_p4_neg,disp_y_p4_pos,disp_y_p5_neg,disp_y_p5_pos,disp_y_p6_neg,disp_y_p6_pos,disp_y_p7_neg,disp_y_p7_pos,disp_y_p8_neg,disp_y_p8_pos,disp_z_101,disp_z_102,disp_z_103,disp_z_104,disp_z_105,disp_z_106,disp_z_p1_neg,disp_z_p1_pos,disp_z_p2_neg,disp_z_p2_pos,disp_z_p3_neg,disp_z_p3_pos,disp_z_p4_neg,disp_z_p4_pos,disp_z_p5_neg,disp_z_p5_pos,disp_z_p6_neg,disp_z_p6_pos,humidity,ndof,nelem,strain_xx,strain_yy,strain_zz,temp,thermal_strain_xx,thermal_strain_yy,thermal_strain_zz,vonmises,vstrain
2419200,0,0,0,0,0,0,0,0,0,0,0,0,0,0,0,0,0,0,0,0,0,0,0,0,0,0,0,0,0,0,0,0,0,0,0,0,0,0,0,0,0,0,0,0,0,0,0,0,0,0,0,0,0,0,0,0,0,0,0,0,0,0,0,0,0,0,0,0,0,0,0,0,0,0,0
3419200,0.15948182781104,0.0026573617070639,0.00088578723568796,0.00088578723568796,0.00088578723568796,-0.00025602393079896,0.00025602393079076,-4.032148879443e-15,-4.1215358546147e-15,8.0784407091816e-15,-1.6621444432164e-14,-0.00025825460582414,0.00025825460582413,-0.00025825460683396,0.00025825460683388,-0.00025825460583707,0.00025825460582092,-0.0002582546068368,0.0002582546068206,-0.00025196759737423,0.00025196759735799,-0.00025196759796453,0.00025196759794811,-8.0786282034538e-15,1.6621406591524e-14,-8.1677226516589e-13,8.2492343150836e-13,-0.00025602393079076,0.00025602393079896,-0.00025825460613265,0.00025825460555985,-0.000258254606525,0.00025825460709789,-0.00025825460612476,0.0002582546055681,-0.00025825460651712,0.00025825460710613,-0.00025196759818964,0.00025196759660796,-0.00025196759711659,0.00025196759873093,-0.00025515542352855,0.00025515542406891,-0.00025515542350449,0.00025515542409361,-3.1683217287736e-12,-3.1682323523823e-12,-0.00024223155803822,0.00024223154902556,-2.2840932886944e-12,-3.9737856072539e-12,-0.00024588277374444,0.0002458827672856,-0.00024588277431546,0.00024588276671461,-0.00024588277374439,0.00024588276728562,-0.00024588277431542,0.00024588276671463,-0.00024486160971245,0.00024486160225231,-0.0002448616097126,0.0002448616022523,0.75746877217741,120135,2834,0.0010661956004167,0.0010661956004167,0.0010087889558893,31.856358289233,0.00017005086631386,0.00017005086631386,0.00017005086631386,967158.34051678,0.0031461201683726
4419200,0.3513583282567,0.0057464519385378,0.0019556335214676,0.0019556335214676,0.0018351848956027,-0.00052013739056879,0.0005201373905475,-1.0575426927967e-14,-1.0661321362774e-14,2.7485483866746e-15,-2.4496575175855e-14,-0.00052894763636656,0.00052894763635434,-0.00052894763943123,0.00052894763941896,-0.00052894763639517,0.00052894763636521,-0.00052894763941987,0.00052894763938986,-0.00050314731901916,0.00050314731898892,-0.0005031473212594,0.000503147321229,-2.7497689376229e-15,2.4495205330295e-14,-2.3175344332209e-12,2.3387657205112e-12,-0.0005201373905475,0.00052013739056879,-0.000528947637233,0.00052894763562586,-0.00052894763853981,0.00052894764017144,-0.00052894763722437,0.00052894763563497,-0.00052894763853118,0.00052894764018054,-0.00050314732134919,0.00050314731684111,-0.00050314731886888,0.00050314732343759,-0.00051882107522556,0.00051882107680079,-0.00051882107519934,0.00051882107682785,-6.7769805224121e-12,-6.7768948087507e-12,-0.00045728925379749,0.00045728923609541,-4.2358690529904e-12,-9.0674882444583e-12,-0.0004671583848892,0.00046715837128645,-0.0004671583865244,0.0004671583696512,-0.00046715838488919,0.0004671583712865,-0.00046715838652439,0.00046715836965124,-0.00047213347883966,0.00047213346292836,-0.00047213347883974,0.00047213346292827,0.73992840791513,120135,2834,0.0021648832761442,0.0021648832761442,0.0019035799022137,33.605180698122,0.00018404144558498,0.00018404144558498,0.00018404144558498,1862399.766697,0.0062528234848062
5419200,0.55185150343875,0.0088858582385646,0.0030833382267194,0.0030833382267194,0.0027191817851258,-0.0008017440249601,0.00080174402494198,-9.0458707136826e-15,-9.1382796553587e-15,2.7306812854435e-15,-2.1135427856599e-14,-0.00082005136356745,0.00082005136355737,-0.00082005136578431,0.00082005136577417,-0.00082005136360296,0.00082005136357719,-0.00082005136576425,0.00082005136573842,-0.00076261310812536,0.00076261310809924,-0.00076261310876825,0.00076261310874195,-2.7282401835469e-15,2.1136985024102e-14,-1.2098436113972e-12,1.2280337858814e-12,-0.00080174402494198,0.00080174402496011,-0.00082005136403269,0.00082005136319679,-0.00082005136529859,0.00082005136615475,-0.00082005136402497,0.00082005136320476,-0.00082005136529086,0.0008200513661627,-0.00076261310931696,0.00076261310698135,-0.00076261310752424,0.00076261310991229,-0.00080246630964939,0.00080246631050597,-0.0008024663096262,0.00080246631052942,-3.9774755484407e-12,-3.9773834642536e-12,-0.00065195727220026,0.00065195726113068,-2.5685625762941e-12,-5.1901830317064e-12,-0.00066905911067618,0.00066905910138749,-0.00066905911156666,0.00066905910049689,-0.0006690591106762,0.00066905910138758,-0.00066905911156669,0.00066905910049698,-0.00068793709588791,0.00068793708666962,-0.00068793709588787,0.00068793708666939,0.72499638738019,120135,2834,0.0033349934098765,0.0033349934098765,0.0027129284927039,36.275695585136,0.00020540556468109,0.00020540556468109,0.00020540556468109,2451892.125443,0.0094270984850133
6419200,0.70809115419357,0.010892572138881,0.0038276278951685,0.0038276278951685,0.003237316348544,-0.00098764008149761,0.00098764008147776,-9.8853744791835e-15,-9.9871360763189e-15,2.0428493570603e-15,-2.2234173702432e-14,-0.0010208407481276,0.0010208407481159,-0.0010208407499842,0.0010208407499725,-0.0010208407481605,0.0010208407481329,-0.0010208407499671,0.0010208407499393,-0.00092093276452143,0.00092093276449352,-0.00092093276497185,0.00092093276494374,-2.0377906880697e-15,2.2238629506108e-14,-7.6809101885994e-13,7.8797418712065e-13,-0.00098764008147776,0.00098764008149762,-0.0010208407484158,0.0010208407478955,-0.0010208407496725,0.0010208407502161,-0.0010208407484079,0.0010208407479036,-0.0010208407496645,0.0010208407502242,-0.00092093276525188,0.00092093276378359,-0.00092093276418544,0.00092093276570977,-0.00098746675981685,0.00098746676038158,-0.00098746675979334,0.00098746676040549,-3.0525550424947e-12,-3.0524536614006e-12,-0.00075114252023526,0.00075114251196058,-2.1243716607275e-12,-3.834228322839e-12,-0.00077755657053418,0.00077755656321505,-0.00077755657111432,0.0007775565626348,-0.0007775565705342,0.00077755656321514,-0.00077755657111434,0.00077755656263489,-0.0008042847827743,0.00080428477586461,-0.00080428478277431,0.00080428477586441,0.59839168540088,120135,2834,0.0041066410169982,0.0041066410169982,0.0031251656369135,36.740035359886,0.00020912028287909,0.00020912028287909,0.00020912028287909,2802795.9850531,0.011403044452382
7419200,0.83308250135397,0.012296277940078,0.0043516256527505,0.0043516256527505,0.0035930266345771,-0.0011272209438028,0.0011272209437835,-9.6577343746089e-15,-9.7163796418598e-15,2.2357552286242e-15,-2.1926536041728e-14,-0.0011750990231203,0.0011750990231091,-0.0011750990250497,0.0011750990250385,-0.0011750990231535,0.0011750990231264,-0.0011750990250322,0.001175099025005,-0.0010344476580095,0.0010344476579821,-0.0010344476585208,0.0010344476584932,-2.2312259552257e-15,2.1929624584783e-14,-7.2620996017713e-13,7.4559894305233e-13,-0.0011272209437835,0.0011272209438028,-0.0011750990234002,0.0011750990229041,-0.0011750990247472,0.0011750990252656,-0.0011750990233923,0.0011750990229122,-0.0011750990247393,0.0011750990252737,-0.0010344476587089,0.0010344476573239,-0.0010344476577664,0.0010344476592064,-0.0011264826599825,0.0011264826605199,-0.0011264826599592,0.0011264826605437,-3.6108212634078e-12,-3.6107630760195e-12,-0.00081475591297763,0.00081475590313821,-2.7109596379263e-12,-4.3443316954135e-12,-0.00084629663536314,0.00084629662688178,-0.00084629663591913,0.00084629662632569,-0.00084629663536317,0.00084629662688185,-0.00084629663591916,0.00084629662632576,-0.00088481640125481,0.00088481639312863,-0.00088481640125479,0.00088481639312848,0.52694121020036,120135,2834,0.0046856324101206,0.0046856324101206,0.003389566813807,40.774611640428,0.00024139689312342,0.00024139689312342,0.00024139689312342,2876664.2723804,0.012842728002814
8419200,0.90838054299661,0.013052594867598,0.0046342120898864,0.0046342120898864,0.0037841706878248,-0.0012026815463697,0.0012026815463504,-9.6067065217101e-15,-9.6764102746612e-15,2.2795774192981e-15,-2.1841273940544e-14,-0.0012595104234252,0.0012595104234142,-0.0012595104249251,0.001259510424914,-0.0012595104234562,0.0012595104234292,-0.0012595104249099,0.0012595104248828,-0.0010923606200481,0.0010923606200208,-0.0010923606204296,0.0010923606204022,-2.263813195002e-15,2.185605341781e-14,-4.9141560408878e-13,5.1068427946052e-13,-0.0012026815463504,0.0012026815463697,-0.0012595104236115,0.0012595104232835,-0.0012595104247164,0.0012595104250666,-0.0012595104236037,0.0012595104232916,-0.0012595104247085,0.0012595104250747,-0.0010923606205069,0.0010923606195775,-0.0010923606199163,0.0010923606209004,-0.0012026356203381,0.001202635620715,-0.0012026356203147,0.0012026356207387,-2.4397631634289e-12,-2.4396940278457e-12,-0.00083315180793743,0.00083315180151227,-1.801861880827e-12,-2.9439413146136e-12,-0.00086910217138545,0.00086910216546879,-0.0008691021717742,0.00086910216507995,-0.00086910217138547,0.00086910216546887,-0.00086910217177422,0.00086910216508003,-0.00091565884488999,0.00091565883951125,-0.00091565884488992,0.00091565883951106,0.47156008474719,120135,2834,0.004998490640407,0.004998490640407,0.0034661504177951,41.435491958203,0.00024668393566562,0.00024668393566562,0.00024668393566562,2744064.8596961,0.013554337589672
9419200,0.95002318842211,0.013413595680217,0.0047689163195557,0.0047689163195558,0.0038757630411059,-0.0012394400602121,0.001239440060193,-9.5226502660416e-15,-9.6034713264254e-15,2.2351376004335e-15,-2.1670249753451e-14,-0.0013014600491317,0.0013014600491207,-0.0013014600503999,0.0013014600503888,-0.0013014600491618,0.001301460049135,-0.0013014600503853,0.0013014600503585,-0.0011181574023217,0.0011181574022946,-0.0011181574026385,0.0011181574026113,-2.2296965901821e-15,2.1677509354745e-14,-1.9870889143638e-13,2.1785294768317e-13,-0.001239440060193,0.0012394400602121,-0.0013014600492158,0.0013014600490863,-0.0013014600502935,0.0013014600504451,-0.001301460049208,0.0013014600490943,-0.0013014600502857,0.0013014600504531,-0.0011181574024908,0.0011181574021334,-0.001118157402415,0.0011181574028268,-0.0012402313019002,0.0012402313020807,-0.0012402313018771,0.0012402313021043,-1.8373088660181e-12,-1.8372272857323e-12,-0.00083202502492797,0.00083202502020695,-1.50086073797e-12,-2.0497210736047e-12,-0.00087134877036353,0.00087134876564905,-0.00087134877055351,0.00087134876545898,-0.00087134877036356,0.00087134876564913,-0.00087134877055354,0.00087134876545905,-0.0009224450679799,0.0009224450641183,-0.00092244506797991,0.00092244506411814,0.40621133923259,120135,2834,0.0051508428854477,0.0051508428854477,0.0034616209318927,41.144506076205,0.00024435604860964,0.00024435604860964,0.00024435604860964,2597084.3166416,0.013858652038125
10419200,0.97083925791058,0.013608330294847,0.0048408976395741,0.0048408976395741,0.0039265350156984,-0.0012536715139633,0.0012536715139442,-9.4911218174493e-15,-9.5845307285771e-15,2.2163146460501e-15,-2.159586967277e-14,-0.0013179342705079,0.0013179342704969,-0.0013179342712948,0.0013179342712838,-0.001317934270536,0.0013179342705093,-0.0013179342712822,0.0013179342712554,-0.0011266809058069,0.0011266809057799,-0.0011266809059868,0.0011266809059596,-2.2162852351839e-15,2.1592949725208e-14,3.1652991283414e-13,-2.9747391053799e-13,-0.0012536715139442,0.0012536715139633,-0.0013179342704067,0.0013179342706304,-0.0013179342713737,0.001317934271172,-0.0013179342703989,0.0013179342706384,-0.001317934271366,0.00131793427118,-0.0011266809054608,0.0011266809061092,-0.0011266809062786,0.0011266809056843,-0.001255478763672,0.0012554787635057,-0.0012554787636489,0.0012554787635291,-4.6507380523958e-13,-4.6498073633415e-13,-0.00082476059164957,0.00082476059075298,-6.6955094273712e-13,-1.6669831924548e-13,-0.00086527250618452,0.00086527250426978,-0.00086527250602071,0.0008652725044335,-0.00086527250618454,0.00086527250426984,-0.00086527250602071,0.00086527250443355,-0.0009202062345398,0.00092020623402249,-0.00092020623453979,0.0009202062340223,0.43665130715676,120135,2834,0.0052098165246007,0.0052098165246007,0.0034315469752323,38.090197738059,0.00021992158190447,0.00021992158190447,0.00021992158190447,2516373.6633559,0.013947752503929
11419200,0.98286228691729,0.013712610547047,0.0048794235673875,0.0048794235673875,0.0039537634122714,-0.0012657383377178,0.0012657383376988,-9.4524759392309e-15,-9.5410614682979e-15,2.181521591307e-15,-2.1483402520329e-14,-0.00133077577474,0.001330775774729,-0.0013307757758722,0.0013307757758612,-0.001330775774771,0.0013307757747444,-0.0013307757758566,0.00133077577583,-0.0011356223455746,0.0011356223455478,-0.0011356223458405,0.0011356223458135,-2.1744041616807e-15,2.1489939142791e-14,5.0524674727376e-13,-4.8624084052903e-13,-0.0012657383376988,0.0012657383377178,-0.0013307757745977,0.0013307757749314,-0.0013307757759924,0.0013307757756807,-0.00133077577459,0.0013307757749393,-0.0013307757759846,0.0013307757756886,-0.0011356223450614,0.0011356223460852,-0.0011356223462999,0.00113562234533,-0.0012683922216626,0.0012683922213756,-0.0012683922216397,0.0012683922213989,-1.4366551889505e-12,-1.4365658786044e-12,-0.00081787895660094,0.00081787895297244,-1.790685928127e-12,-9.3971773344476e-13,-0.00086258559622548,0.00086258559191549,-0.00086258559595105,0.00086258559218983,-0.0008625855962255,0.00086258559191556,-0.00086258559595106,0.0008625855921899,-0.00091610692366046,0.00091610692114205,-0.00091610692366047,0.00091610692114188,0.40445605707229,120135,2834,0.0052598026407069,0.0052598026407069,0.0034030656425624,37.626520097802,0.00021621216078242,0.00021621216078242,0.00021621216078242,2392614.1250652,0.014020253785928
12419200,0.98975691645787,0.013779800682242,0.004904078128321,0.004904078128321,0.0039716444256004,-0.0012713216167099,0.001271321616691,-9.4325353719309e-15,-9.5237678789581e-15,2.1671984994558e-15,-2.1436345134371e-14,-0.0013371821813606,0.0013371821813497,-0.0013371821824083,0.0013371821823974,-0.0013371821813915,0.001337182181365,-0.0013371821823928,0.0013371821823662,-0.0011388042849951,0.0011388042849683,-0.0011388042852386,0.0011388042852116,-2.1603457676256e-15,2.1443399146817e-14,6.4477715819894e-13,-6.2579689336388e-13,-0.001271321616691,0.0012713216167099,-0.0013371821811709,0.0013371821815983,-0.0013371821825759,0.0013371821821705,-0.0013371821811632,0.0013371821816062,-0.0013371821825682,0.0013371821821784,-0.0011388042843446,0.0011388042856415,-0.0011388042858354,0.0011388042845923,-0.0012744756871403,0.00127447568676,-0.0012744756871174,0.0012744756867833,-1.2205986773686e-12,-1.2205078907923e-12,-0.00081399273864169,0.0008139927356312,-1.7162070857575e-12,-5.8398363028919e-13,-0.00085922755588295,0.00085922755198444,-0.00085922755551459,0.00085922755235272,-0.00085922755588297,0.00085922755198452,-0.00085922755551461,0.00085922755235279,-0.00091450261171335,0.00091450260976682,-0.00091450261171336,0.00091450260976664,0.45322610794666,120135,2834,0.005282935385017,0.005282935385017,0.0033869719134956,36.801457725383,0.00020961166180307,0.00020961166180307,0.00020961166180307,2351043.4629814,0.014050849162756
13419200,0.99360694433313,0.013814160513274,0.004916701901954,0.004916701901954,0.0039807567093661,-0.0012729554466288,0.0012729554466098,-9.4305354330277e-15,-9.5135917192446e-15,2.1618163109368e-15,-2.1413463480448e-14,-0.0013388564064762,0.0013388564064653,-0.001338856407318,0.001338856407307,-0.0013388564065064,0.0013388564064799,-0.0013388564073031,0.0013388564072766,-0.0011392281732185,0.0011392281731917,-0.0011392281733802,0.0011392281733532,-2.1515813294908e-15,2.1423147812356e-14,8.8863699998079e-13,-8.6968522583097e-13,-0.0012729554466098,0.0012729554466288,-0.0013388564062006,0.0013388564067939,-0.0013388564075714,0.001338856407,-0.0013388564061929,0.0013388564068018,-0.0013388564075637,0.0013388564070079,-0.0011392281723255,0.0011392281740989,-0.0011392281742195,0.0011392281724998,-0.0012766194036926,0.0012766194031485,-0.0012766194036698,0.0012766194031717,-6.1169031511899e-13,-6.1160763933586e-13,-0.00080433258193139,0.00080433258063945,-1.3597166086498e-12,2.6718476415945e-13,-0.0008529633477571,0.00085296334501747,-0.00085296334722289,0.0008529633455516,-0.00085296334775712,0.00085296334501754,-0.0008529633472229,0.00085296334555167,-0.00090605916077726,0.00090605916033968,-0.00090605916077726,0.00090605916033951,0.4150894025916,120135,2834,0.005289684215009,0.005289684215009,0.0033469199713436,34.787794546772,0.00019350235637418,0.00019350235637418,0.00019350235637418,2271828.1486966,0.014023929273644
14419200,0.99583012683392,0.013832486427575,0.0049234260802021,0.0049234260802021,0.0039856342671712,-0.0012705671662268,0.0012705671662079,-9.4297707505058e-15,-9.5098859501003e-15,2.1666691038638e-15,-2.1414316395569e-14,-0.001337191954345,0.0013371919543341,-0.0013371919551446,0.0013371919551336,-0.0013371919543755,0.001337191954349,-0.0013371919551295,0.0013371919551029,-0.0011352638228278,0.001135263822801,-0.0011352638229907,0.0011352638229638,-2.1559929594244e-15,2.1424565048472e-14,1.0758611491501e-12,-1.0568990341512e-12,-0.0012705671662078,0.0012705671662268,-0.0013371919540087,0.0013371919547256,-0.0013371919554587,0.0013371919547638,-0.001337191954001,0.0013371919547335,-0.001337191955451,0.0013371919547717,-0.0011352638217527,0.0011352638238934,-0.0011352638240121,0.0011352638219251,-0.0012743911050153,0.0012743911043469,-0.0012743911049925,0.0012743911043701,-5.0953433205386e-13,-5.0945461298187e-13,-0.00079855799665707,0.00079855799564836,-1.4424503164859e-12,5.5796910148578e-13,-0.00084638392752535,0.00084638392492955,-0.00084638392686703,0.0008463839255878,-0.00084638392752538,0.00084638392492963,-0.00084638392686704,0.00084638392558786,-0.000901639135831,0.00090163913573961,-0.00090163913583099,0.00090163913573945,0.38312450045663,120135,2834,0.0052797869519967,0.0052797869519967,0.003322952015114,32.63664700959,0.00017629317607672,0.00017629317607672,0.00017629317607672,2269309.5085502,0.01397955219101
15419200,0.99698735045782,0.01384523201874,0.0049280722770705,0.0049280722770705,0.0039890874645988,-0.0012611736938694,0.0012611736938505,-9.434123558707e-15,-9.5137093627094e-15,2.1788157916143e-15,-2.1439315631859e-14,-0.0013281198362561,0.0013281198362452,-0.0013281198365105,0.0013281198364995,-0.0013281198362843,0.0013281198362578,-0.0013281198364977,0.0013281198364711,-0.0011250006803971,0.0011250006803703,-0.0011250006803998,0.0011250006803728,-2.1719336489179e-15,2.1444487004208e-14,1.5831782637247e-12,-1.564219874083e-12,-0.0012611736938505,0.0012611736938694,-0.0013281198357341,0.0013281198368013,-0.0013281198370104,0.0013281198359651,-0.0013281198357264,0.0013281198368092,-0.0013281198370027,0.001328119835973,-0.0011250006788118,0.0011250006819421,-0.0011250006819313,0.0011250006788548,-0.0012651959905697,0.0012651959895588,-0.0012651959905468,0.0012651959895821,1.0683502461926e-12,1.0684290366969e-12,-0.00078666420516482,0.0007866642085687,-4.0294124924496e-13,2.637074439186e-12,-0.00083412319696168,0.00083412319760644,-0.00083412319595294,0.00083412319861509,-0.0008341231969617,0.00083412319760651,-0.00083412319595296,0.00083412319861516,-0.00089061639261859,0.00089061639632534,-0.00089061639261859,0.00089061639632518,0.51103778709309,120135,2834,0.0052408527806742,0.0052408527806742,0.0032735676346864,27.051280566046,0.00013161024452837,0.00013161024452837,0.00013161024452837,2278604.3055468,0.013850527846728
16419200,0.99773075592977,0.013852680983493,0.0049307996565659,0.0049307996565659,0.0039910816703613,-0.001260002298324,0.0012600022983051,-9.4408880579386e-15,-9.4953569821856e-15,2.1705807490716e-15,-2.1417522179987e-14,-0.0013262059157692,0.0013262059157583,-0.0013262059164794,0.0013262059164685,-0.0013262059158007,0.0013262059157742,-0.0013262059164634,0.0013262059164369,-0.0011238674699894,0.0011238674699626,-0.0011238674700925,0.0011238674700656,-2.1636986063752e-15,2.1422394503568e-14,1.6614878270739e-12,-1.6425503837133e-12,-0.0012600022983051,0.001260002298324,-0.0013262059152449,0.0013262059163469,-0.0013262059169817,0.0013262059159016,-0.0013262059152372,0.0013262059163548,-0.001326205916974,0.0013262059159095,-0.0011238674683464,0.0011238674716365,-0.0011238674716819,0.0011238674684455,-0.0012645161714725,0.0012645161704153,-0.0012645161714497,0.0012645161704385,-1.6885064049952e-13,-1.6880046090885e-13,-0.00077322277298345,0.00077322277291195,-1.6755736800213e-12,1.4886037447657e-12,-0.00082636223778732,0.00082636223545845,-0.00082636223674294,0.00082636223650275,-0.00082636223778735,0.00082636223545851,-0.00082636223674296,0.0008263622365028,-0.00087746525692094,0.00087746525797291,-0.00087746525692091,0.00087746525797277,0.46538451425637,120135,2834,0.0052359620873385,0.0052359620873385,0.0032178233476676,24.409540504951,0.00011047632403961,0.00011047632403961,0.00011047632403961,2173792.0328551,0.013784108390821
17419200,0.99823006727241,0.013858337177574,0.0049328596529568,0.0049328596529568,0.0039926178716607,-0.0012553282765499,0.001255328276531,-9.4399469102194e-15,-9.4923570738307e-15,2.1665514603989e-15,-2.1413904643442e-14,-0.0013224463563515,0.0013224463563406,-0.0013224463570709,0.0013224463570599,-0.0013224463563832,0.0013224463563567,-0.0013224463570546,0.0013224463570281,-0.0011174387486541,0.0011174387486273,-0.0011174387487857,0.0011174387487588,-2.1600516589634e-15,2.1419861837373e-14,1.6957182260967e-12,-1.6767746028927e-12,-0.0012553282765309,0.0012553282765499,-0.0013224463558174,0.001322446356941,-0.0013224463575829,0.0013224463564812,-0.0013224463558097,0.0013224463569489,-0.0013224463575752,0.0013224463564891,-0.0011174387469787,0.0011174387503364,-0.0011174387504074,0.0011174387471034,-0.0012599386778431,0.0012599386767635,-0.0012599386778202,0.0012599386767867,-2.498726131165e-13,-2.4982054462443e-13,-0.00076733059240609,0.00076733059211592,-1.7884824366186e-12,1.4430309899232e-12,-0.0008184026753126,0.00081840267285488,-0.0008184026742461,0.00081840267392127,-0.00081840267531263,0.00081840267285493,-0.00081840267424613,0.00081840267392134,-0.00087308657428688,0.00087308657518194,-0.00087308657428685,0.0008730865751818,0.52521873377382,120135,2834,0.0052165974973674,0.0052165974973674,0.0031933495896049,21.972225382147,9.0977803057174e-05,9.0977803057174e-05,9.0977803057174e-05,2189464.734577,0.013720031021055
18419200,0.99854030683134,0.013861715290306,0.0049340927027663,0.0049340927027663,0.003993529884773,-0.0012486936887229,0.001248693688704,-9.4475349137052e-15,-9.4864749005859e-15,2.175227665935e-15,-2.1426698370249e-14,-0.0013156925942321,0.0013156925942212,-0.0013156925946179,0.0013156925946069,-0.0013156925942623,0.0013156925942358,-0.0013156925946031,0.0013156925945766,-0.0011102336662038,0.0011102336661769,-0.001110233666213,0.0011102336661861,-2.1747570920754e-15,2.1424598365469e-14,1.9188212005505e-12,-1.8998832337684e-12,-0.001248693688704,0.0012486936887229,-0.0013156925936128,0.0013156925948931,-0.0013156925952151,0.0013156925939567,-0.0013156925936051,0.001315692594901,-0.0013156925952074,0.0013156925939646,-0.0011102336643013,0.0011102336680931,-0.0011102336680618,0.0011102336643237,-0.0012536792491592,0.001253679247928,-0.0012536792491364,0.0012536792479513,7.115921013084e-13,7.1163152485128e-13,-0.00075322408509831,0.0007532240875342,-1.0699942682919e-12,2.6233607993048e-12,-0.00080675326931313,0.00080675326881461,-0.00080675326809026,0.0008067532700374,-0.00080675326931317,0.00080675326881467,-0.00080675326809029,0.00080675327003745,-0.00085963487318107,0.0008596348763535,-0.00085963487318104,0.00085963487635338,0.50516361584657,120135,2834,0.0051890796610214,0.0051890796610214,0.0031348034116458,17.471447651829,5.4971581214632e-05,5.4971581214632e-05,5.4971581214632e-05,2141538.8155236,0.013604902587531
19419200,0.9987972985495,0.013865339647807,0.0049354085318912,0.0049354085318912,0.0039945225840246,-0.0012491116925159,0.001249111692497,-9.4378881495837e-15,-9.4745929106314e-15,2.1706101599378e-15,-2.1396669875834e-14,-0.0013166353652627,0.0013166353652518,-0.0013166353663565,0.0013166353663456,-0.0013166353652968,0.0013166353652703,-0.0013166353663378,0.0013166353663113,-0.0011095283079987,0.0011095283079719,-0.0011095283082531,0.0011095283082262,-2.1626398151911e-15,2.1404920025912e-14,1.6838825357962e-12,-1.6649594233972e-12,-0.001249111692497,0.0012491116925159,-0.0013166353647502,0.0013166353658529,-0.0013166353668469,0.0013166353657661,-0.0013166353647426,0.0013166353658608,-0.0013166353668392,0.001316635365774,-0.0011095283063489,0.0011095283096883,-0.0011095283098493,0.0011095283065635,-0.0012542376629462,0.0012542376618789,-0.0012542376629233,0.0012542376619021,-1.3133826714084e-12,-1.3133462605262e-12,-0.00075205255547728,0.00075205255218391,-2.8088757790083e-12,3.7589976652016e-13,-0.00080453366199414,0.0008045336571477,-0.00080453366094738,0.00080453365819438,-0.00080453366199417,0.00080453365714775,-0.00080453366094741,0.00080453365819444,-0.00085943792380719,0.00085943792235183,-0.00085943792380717,0.00085943792235172,0.65325215552177,120135,2834,0.0051908161422882,0.0051908161422882,0.0031299406640914,17.551642354017,5.5613138832137e-05,5.5613138832137e-05,5.5613138832137e-05,2136658.508456,0.013603491000915
20419200,0.99902096752063,0.013868719634427,0.0049366369076005,0.0049366369076005,0.0039954458192262,-0.0012543211512485,0.0012543211512296,-9.4197710559896e-15,-9.4557111345155e-15,2.1202587569621e-15,-2.1305231492744e-14,-0.0013212251950376,0.0013212251950267,-0.0013212251962786,0.0013212251962677,-0.0013212251950716,0.0013212251950452,-0.0013212251962599,0.0013212251962335,-0.0011147004310538,0.0011147004310271,-0.0011147004313397,0.001114700431313,-2.1161118248245e-15,2.1308670553583e-14,1.3524995294368e-12,-1.3336227697692e-12,-0.0012543211512296,0.0012543211512485,-0.0013212251946358,0.0013212251955172,-0.0013212251966584,0.0013212251957989,-0.0013212251946281,0.001321225195525,-0.0013212251966507,0.0013212251958067,-0.0011147004297289,0.0011147004324194,-0.0011147004326112,0.0011147004299742,-0.0012599129141082,0.0012599129132622,-0.0012599129140855,0.0012599129132853,-1.7731245217736e-12,-1.7730880392599e-12,-0.00074588338704817,0.00074588338250219,-2.935724815622e-12,-4.159545722851e-13,-0.00080342030328159,0.00080342029759264,-0.00080342030245652,0.00080342029841762,-0.00080342030328162,0.0008034202975927,-0.00080342030245656,0.00080342029841767,-0.00085352958737794,0.00085352958470663,-0.00085352958737791,0.00085352958470651,0.70012779305903,120135,2834,0.0052123761733483,0.0052123761733483,0.0031043925951069,18.598825232071,6.399060185657e-05,6.399060185657e-05,6.399060185657e-05,2029997.4401712,0.013621312278623
21419200,0.99917307715745,0.013870854193711,0.004937412060793,0.004937412060793,0.0039960300721248,-0.0012490768464452,0.0012490768464264,-9.443829144561e-15,-9.4527112261607e-15,2.152257779414e-15,-2.1358876912736e-14,-0.0013165656313324,0.0013165656313215,-0.0013165656318354,0.0013165656318245,-0.0013165656313626,0.0013165656313361,-0.0013165656318206,0.0013165656317941,-0.0011076947271369,0.0011076947271101,-0.0011076947271752,0.0011076947271484,-2.1464050170354e-15,2.1363118396213e-14,1.5574049208551e-12,-1.5385027608261e-12,-0.0012490768464264,0.0012490768464452,-0.0013165656308341,0.0013165656318731,-0.0013165656323116,0.0013165656312946,-0.0013165656308264,0.0013165656318809,-0.001316565632304,0.0013165656313024,-0.001107694725589,0.0011076947286728,-0.0011076947286696,0.0011076947256394,-0.0012550129904694,0.0012550129894794,-0.0012550129904466,0.0012550129895025,2.7075563634473e-13,2.7076808116216e-13,-0.00073362576559037,0.00073362576687266,-1.1471091918957e-12,1.8201213083081e-12,-0.00079174343316829,0.00079174343190244,-0.00079174343218765,0.000791743432883,-0.00079174343316833,0.00079174343190249,-0.00079174343218769,0.00079174343288305,-0.00084289181955979,0.00084289182155754,-0.00084289181955973,0.00084289182155745,0.64990944923706,120135,2834,0.0051906297687209,0.0051906297687209,0.003053514778382,15.220748075664,3.6965984605311e-05,3.6965984605311e-05,3.6965984605311e-05,1994420.9621946,0.013525661053772
22419200,0.99929903028113,0.013872667483155,0.0049380693579288,0.0049380693579288,0.0039965287672975,-0.0012480013672682,0.0012480013672493,-9.4402410188816e-15,-9.4519465436388e-15,2.1574635027356e-15,-2.1360700386442e-14,-0.0013164252988221,0.0013164252988112,-0.001316425299802,0.0013164252997911,-0.001316425298855,0.0013164252988285,-0.0013164252997844,0.001316425299758,-0.0011048697856425,0.0011048697856157,-0.0011048697858642,0.0011048697858374,-2.1512872208286e-15,2.1366358876263e-14,1.4447097290226e-12,-1.4258023434524e-12,-0.0012480013672493,0.0012480013672682,-0.001316425298381,0.0013164252993303,-0.001316425300221,0.0013164252992936,-0.0013164252983733,0.0013164252993382,-0.0013164253002133,0.0013164252993014,-0.0011048697842204,0.0011048697870889,-0.0011048697872327,0.0011048697844178,-0.0012541166472679,0.001254116646358,-0.0012541166472451,0.0012541166463812,-1.0893016973051e-12,-1.0892906346835e-12,-0.00073224582343273,0.00073224582084431,-2.3597471319332e-12,3.5625861654381e-13,-0.00078774955804722,0.00078774955387757,-0.00078774955715478,0.00078774955476994,-0.00078774955804726,0.00078774955387762,-0.00078774955715482,0.00078774955476998,-0.00084292691004504,0.00084292690895036,-0.00084292691004498,0.00084292690895026,0.66642562144511,120135,2834,0.0051861846303267,0.0051861846303267,0.003047771564458,14.858436540754,3.4067492326035e-05,3.4067492326035e-05,3.4067492326035e-05,2005505.7128168,0.013510823832653
23419200,0.99941088951672,0.013874186193558,0.0049386207343677,0.0049386207343677,0.0039969447248227,-0.0012503829825156,0.0012503829824967,-9.4331824109878e-15,-9.4418880273902e-15,2.1544047726483e-15,-2.1345230270808e-14,-0.0013189126364976,0.0013189126364867,-0.0013189126376745,0.0013189126376636,-0.0013189126365311,0.0013189126365046,-0.0013189126376563,0.0013189126376299,-0.0011067439079437,0.001106743907917,-0.0011067439082263,0.0011067439081996,-2.1468167691625e-15,2.1352867617915e-14,1.2113144291715e-12,-1.1924236145565e-12,-0.0012503829824967,0.0012503829825156,-0.001318912636139,0.0013189126369292,-0.001318912638011,0.0013189126372426,-0.0013189126361313,0.0013189126369371,-0.0013189126380034,0.0013189126372505,-0.001106743906754,0.0011067439091666,-0.0011067439093626,0.0011067439070035,-0.0012567291655273,0.0012567291647743,-0.0012567291655046,0.0012567291647974,-1.661816067908e-12,-1.6618078211471e-12,-0.00073164963027947,0.00073164962608539,-2.6898825465229e-12,-4.4811358984919e-13,-0.00078757174535403,0.00078757174005306,-0.00078757174462076,0.00078757174078625,-0.00078757174535407,0.0007875717400531,-0.0007875717446208,0.00078757174078629,-0.00084275963495934,0.00084275963244992,-0.00084275963495929,0.00084275963244984,0.62875729639221,120135,2834,0.0051960522086473,0.0051960522086473,0.0030453099267143,15.706940894259,4.0855527154072e-05,4.0855527154072e-05,4.0855527154072e-05,1978110.5299872,0.013528331789554
24419200,0.99951649266238,0.013875697878748,0.0049391683792322,0.0049391683792323,0.0039973611202836,-0.0012543504552051,0.0012543504551862,-9.4422997795173e-15,-9.4492407439462e-15,2.1654338474824e-15,-2.1374199974039e-14,-0.0013232966473275,0.0013232966473166,-0.0013232966487222,0.0013232966487113,-0.0013232966473617,0.0013232966473353,-0.0013232966487033,0.0013232966486769,-0.0011099924933631,0.0011099924933363,-0.0011099924937166,0.0011099924936898,-2.1564047115516e-15,2.138539661039e-14,9.1767873633956e-13,-8.987718776949e-13,-0.0012543504551862,0.0012543504552051,-0.0013232966470718,0.0013232966476627,-0.0013232966489559,0.0013232966483868,-0.0013232966470641,0.0013232966476706,-0.0013232966489482,0.0013232966483947,-0.0011099924924649,0.0011099924943035,-0.0011099924945611,0.0011099924927762,-0.0012607566499897,0.0012607566494336,-0.0012607566499669,0.0012607566494568,-2.3053161924517e-12,-2.3053098096619e-12,-0.00073607636502565,0.0007360763590319,-3.0301259023219e-12,-1.3838176223804e-12,-0.00079059156006064,0.0007905915535227,-0.00079059155952698,0.00079059155405627,-0.00079059156006068,0.00079059155352274,-0.00079059155952702,0.0007905915540563,-0.00084774676018428,0.00084774675606452,-0.00084774676018423,0.00084774675606444,0.66255127740754,120135,2834,0.0052125047975409,0.0052125047975409,0.0030636892612991,17.884730666162,5.8277845329298e-05,5.8277845329298e-05,5.8277845329298e-05,1979249.1715804,0.013580308195862
25419200,0.99961276653717,0.013877320942113,0.0049397551314727,0.0049397551314727,0.0039978106791679,-0.0012592664604212,0.0012592664604024,-9.4039480099611e-15,-9.4208886689062e-15,2.1656691344122e-15,-2.1333730622115e-14,-0.0013280399315727,0.0013280399315619,-0.0013280399329435,0.0013280399329326,-0.0013280399316062,0.0013280399315798,-0.0013280399329253,0.0013280399328989,-0.0011148839606893,0.0011148839606626,-0.0011148839610327,0.001114883961006,-2.1538753770563e-15,2.1344169124457e-14,7.1466529591247e-13,-6.9573342229211e-13,-0.0012592664604024,0.0012592664604213,-0.0013280399313796,0.0013280399318389,-0.0013280399331146,0.0013280399326772,-0.001328039931372,0.0013280399318468,-0.0013280399331069,0.0013280399326851,-0.0011148839599861,0.0011148839614257,-0.0011148839616825,0.0011148839602967,-0.0012658465680982,0.0012658465676762,-0.0012658465680754,0.0012658465676993,-2.2685902707453e-12,-2.2685739319177e-12,-0.00073772540061057,0.0007377253947443,-2.7987023103891e-12,-1.5529401028635e-12,-0.00079361850904283,0.00079361850272263,-0.00079361850864148,0.00079361850312389,-0.00079361850904284,0.00079361850272271,-0.00079361850864151,0.00079361850312394,-0.00084944175640741,0.00084944175224142,-0.00084944175640736,0.00084944175224139,0.77991302017261,120135,2834,0.0052328719592356,0.0052328719592356,0.0030705606561846,19.929537433299,7.4636299466394e-05,7.4636299466394e-05,7.4636299466394e-05,1941986.1579703,0.013628564293697
26419200,0.99969169448258,0.013878736044468,0.004940266329666,0.004940266329666,0.0039982033851364,-0.0012622918135322,0.0012622918135133,-9.4440644314908e-15,-9.4323589067336e-15,2.1612280936123e-15,-2.1352553576498e-14,-0.0013306829268183,0.0013306829268074,-0.0013306829279218,0.0013306829279109,-0.0013306829268501,0.0013306829268237,-0.0013306829279053,0.0013306829278789,-0.0011177825243059,0.0011177825242791,-0.0011177825245548,0.001117782524528,-2.1537577335914e-15,2.1359222835073e-14,7.1665606299112e-13,-6.9775924827216e-13,-0.0012622918135133,0.0012622918135322,-0.0013306829266124,0.0013306829270819,-0.0013306829281056,0.001330682927658,-0.0013306829266048,0.0013306829270898,-0.001330682928098,0.0013306829276659,-0.0011177825235912,0.0011177825250312,-0.001117782525216,0.0011177825238295,-0.0012691781754878,0.0012691781750614,-0.001269178175465,0.0012691781750846,-1.5255711013643e-12,-1.5255828062572e-12,-0.00073241592976143,0.00073241592601386,-2.0790380456383e-12,-8.1346511978721e-13,-0.0007919145909319,0.00079191458625108,-0.00079191459052119,0.00079191458666171,-0.00079191459093195,0.00079191458625112,-0.00079191459052124,0.00079191458666175,-0.00084439540721562,0.00084439540470069,-0.00084439540721554,0.00084439540470063,0.82922923068302,120135,2834,0.0052453866566882,0.0052453866566882,0.0030485642303255,20.394816730014,7.8358533840116e-05,7.8358533840116e-05,7.8358533840116e-05,1868416.997335,0.013631645664856
27419200,0.9997605347618,0.013879848303362,0.0049406681641424,0.0049406681641424,0.0039985119750776,-0.00126678110597,0.0012667811059512,-9.4295942853085e-15,-9.4395939798247e-15,2.1668161581949e-15,-2.1353730011147e-14,-0.0013355228279623,0.0013355228279514,-0.0013355228292944,0.0013355228292836,-0.0013355228279952,0.0013355228279688,-0.0013355228292769,0.0013355228292504,-0.0011211494050626,0.0011211494050359,-0.0011211494053889,0.0011211494053622,-2.1601693024283e-15,2.1357797786696e-14,5.9485027683623e-13,-5.7596264003082e-13,-0.0012667811059512,0.00126678110597,-0.0013355228278052,0.0013355228281874,-0.0013355228294294,0.0013355228290692,-0.0013355228277976,0.0013355228281952,-0.0013355228294218,0.001335522829077,-0.0011211494044738,0.0011211494056775,-0.0011211494059243,0.0011211494047741,-0.0012739160683024,0.0012739160679594,-0.0012739160682796,0.0012739160679825,-2.1888124519287e-12,-2.1888035747297e-12,-0.00073202927467398,0.00073202926905919,-2.605528682299e-12,-1.5949852448838e-12,-0.00079210764092377,0.00079210763485325,-0.00079210764059996,0.00079210763517698,-0.00079210764092381,0.00079210763485329,-0.00079210764060001,0.00079210763517702,-0.00084498346983346,0.00084498346577449,-0.00084498346983341,0.00084498346577442,0.74718867332313,120135,2834,0.0052639869326472,0.0052639869326472,0.0030469863220906,22.255539554092,9.3244316432732e-05,9.3244316432732e-05,9.3244316432732e-05,1827465.3216185,0.013667754884429
28419200,0.99981710840996,0.013880888277728,0.004941042377317,0.004941042377317,0.0039988035230936,-0.0012681799471194,0.0012681799471005,-9.4297707505058e-15,-9.4405939492763e-15,2.1644338780308e-15,-2.1355259376191e-14,-0.0013378702278981,0.0013378702278872,-0.0013378702291092,0.0013378702290983,-0.0013378702279303,0.0013378702279038,-0.0013378702290924,0.0013378702290659,-0.001120997873224,0.0011209978731973,-0.0011209978735232,0.0011209978734964,-2.1591105112442e-15,2.1359242940157e-14,5.5752309081193e-13,-5.3864387016715e-13,-0.0012681799471005,0.0012681799471194,-0.0013378702277479,0.0013378702281094,-0.0013378702292373,0.0013378702288977,-0.0013378702277402,0.0013378702281172,-0.0013378702292297,0.0013378702289056,-0.0011209978726673,0.0011209978737962,-0.0011209978740265,0.001120997872951,-0.001275387174146,0.0012753871738265,-0.0012753871741233,0.0012753871738497,-1.8847475738523e-12,-1.8847372461003e-12,-0.00073539053488068,0.00073539053014396,-2.2740928809647e-12,-1.330940164221e-12,-0.00079215457299252,0.00079215456766169,-0.00079215457268985,0.00079215456796428,-0.00079215457299257,0.00079215456766173,-0.00079215457268989,0.00079215456796432,-0.00084954791835307,0.00084954791494415,-0.00084954791835303,0.00084954791494408,0.8493285419621,120135,2834,0.0052698034259566,0.0052698034259566,0.0030609228200425,23.443518155284,0.00010274814524227,0.00010274814524227,0.00010274814524227,1850864.801327,0.013693666921875
29419200,0.99986307669189,0.013881492983588,0.0049412615582555,0.0049412615582555,0.0039989698670768,-0.0012725169127578,0.001272516912739,-9.4184181561433e-15,-9.4367117149347e-15,2.1345818488133e-15,-2.1312319511504e-14,-0.0013417285430543,0.0013417285430434,-0.0013417285442919,0.001341728544281,-0.0013417285430864,0.00134172854306,-0.0013417285442751,0.0013417285442487,-0.0011255745493805,0.0011255745493538,-0.0011255745496795,0.0011255745496528,-2.1526401206749e-15,2.1292010791388e-14,5.1852983097226e-13,-4.9967823884927e-13,-0.001272516912739,0.0012725169127578,-0.0013417285429174,0.0013417285432526,-0.0013417285444068,0.0013417285440935,-0.0013417285429098,0.0013417285432604,-0.0013417285443992,0.0013417285441013,-0.0011255745488622,0.0011255745499149,-0.0011255745501443,0.001125574549145,-0.0012800209067803,0.0012800209064868,-0.0012800209067576,0.0012800209065099,-1.9511018648464e-12,-1.9510850133392e-12,-0.00073327468756133,0.00073327468263865,-2.3007088472769e-12,-1.4362339034519e-12,-0.00079321309448199,0.00079321308900283,-0.00079321309420568,0.00079321308927909,-0.00079321309448203,0.00079321308900289,-0.00079321309420571,0.00079321308927914,-0.00084728022727801,0.00084728022369938,-0.000847280227278,0.00084728022369927,0.60881578646039,120135,2834,0.0052877574369902,0.0052877574369902,0.0030521793928968,24.782751597504,0.00011346201278003,0.00011346201278003,0.00011346201278003,1786682.1709039,0.013721210627997
30419200,0.99989964220075,0.013881900180454,0.0049414088892238,0.0049414088892238,0.0039990824020064,-0.0012717716119121,0.0012717716118932,-9.4337118065799e-15,-9.44212331432e-15,2.1725512771086e-15,-2.1359759238723e-14,-0.0013426546458531,0.0013426546458422,-0.0013426546470873,0.0013426546470764,-0.0013426546458854,0.0013426546458589,-0.0013426546470704,0.0013426546470439,-0.0011228818431354,0.0011228818431086,-0.0011228818434573,0.0011228818434305,-2.164992684489e-15,2.1366102794932e-14,4.855486786548e-13,-4.6665767591362e-13,-0.0012717716118932,0.0012717716119121,-0.0013426546457272,0.0013426546460406,-0.0013426546471912,0.0013426546468997,-0.0013426546457195,0.0013426546460485,-0.0013426546471835,0.0013426546469076,-0.0011228818426493,0.0011228818436372,-0.0011228818438899,0.0011228818429556,-0.0012789345181594,0.0012789345178879,-0.0012789345181367,0.0012789345179111,-1.984118336857e-12,-1.9841101809136e-12,-0.00074342975476929,0.00074342974976319,-2.3010765125156e-12,-1.5024105729765e-12,-0.00079525713072513,0.00079525712526391,-0.0007952571304706,0.00079525712551836,-0.00079525713072517,0.00079525712526396,-0.00079525713047064,0.0007952571255184,-0.00085891423287811,0.00085891422920134,-0.00085891423287805,0.00085891422920126,0.51512748248588,120135,2834,0.0052847181453353,0.0052847181453353,0.0030942709875086,26.133483771751,0.00012426787017401,0.00012426787017401,0.00012426787017401,1893864.1502592,0.013757701293843
31419200,0.9999292440213,0.013882325780075,0.0049415623889461,0.0049415623889461,0.0039992010021829,-0.0012752289418347,0.0012752289418158,-9.4283590289271e-15,-9.4408880579386e-15,2.1680514145763e-15,-2.1348936039953e-14,-0.0013459113085989,0.001345911308588,-0.0013459113100078,0.0013459113099969,-0.001345911308632,0.0013459113086055,-0.0013459113099901,0.0013459113099637,-0.001127273284655,0.0011272732846282,-0.0011272732850233,0.0011272732849965,-2.1641103585023e-15,2.1352329318643e-14,3.4295718230296e-13,-3.2407856653401e-13,-0.0012752289418158,0.0012752289418347,-0.0013459113085261,0.0013459113087404,-0.0013459113100586,0.0013459113098661,-0.0013459113085184,0.0013459113087483,-0.0013459113100509,0.001345911309874,-0.001127273284313,0.0011272732850229,-0.0011272732853117,0.0011272732846554,-0.0012822576900729,0.0012822576898977,-0.0012822576900502,0.0012822576899209,-2.4649502314698e-12,-2.4649382566518e-12,-0.00075258219153542,0.00075258218517314,-2.6289482756701e-12,-2.1238247509647e-12,-0.00080296359539491,0.00080296358892447,-0.00080296359523957,0.00080296358907973,-0.00080296359539494,0.00080296358892452,-0.00080296359523961,0.00080296358907977,-0.00086709553178936,0.00086709552695822,-0.00086709553178931,0.00086709552695814,0.66479676253864,120135,2834,0.0052990593515709,0.0052990593515709,0.0031322494317155,28.443691450269,0.00014274953160216,0.00014274953160216,0.00014274953160216,1927123.940528,0.013825279499982
32419200,0.99995086595759,0.013882692159879,0.0049416945425594,0.0049416945425594,0.0039993030747598,-0.0012796310887283,0.0012796310887095,-9.4081243529649e-15,-9.4208886689062e-15,2.1301702188797e-15,-2.1271497229185e-14,-0.0013488880136344,0.0013488880136236,-0.0013488880147992,0.0013488880147883,-0.0013488880136658,0.0013488880136395,-0.0013488880147831,0.0013488880147567,-0.0011333901261594,0.0011333901261327,-0.0011333901264395,0.0011333901264129,-2.1256997672136e-15,2.1276188779335e-14,4.0047777343398e-13,-3.8163305276926e-13,-0.0012796310887095,0.0012796310887283,-0.0013488880135313,0.001348888013792,-0.0013488880148804,0.0013488880146415,-0.0013488880135236,0.0013488880137998,-0.0013488880148728,0.0013488880146493,-0.0011333901257523,0.001133390126572,-0.0011333901267932,0.0011333901260269,-0.0012868934367772,0.001286893436561,-0.0012868934367546,0.001286893436584,-1.7502978965584e-12,-1.750285412335e-12,-0.00074847862929809,0.00074847862494158,-1.9915641443766e-12,-1.3564896484077e-12,-0.00080548867275103,0.0008054886678114,-0.0008054886725498,0.00080548866801255,-0.00080548867275106,0.00080548866781145,-0.00080548867254984,0.0008054886680126,-0.00086171927395998,0.0008617192707429,-0.00086171927395993,0.00086171927074282,0.7835582016357,120135,2834,0.0053172645868403,0.0053172645868403,0.0031152760170018,29.297401121003,0.00014957920896803,0.00014957920896803,0.00014957920896803,1832787.2598275,0.013844999259419
33419200,0.99996589297297,0.013882955397494,0.0049417892944971,0.0049417892944971,0.0039993768084995,-0.0012814697032264,0.0012814697032076,-9.411418369982e-15,-9.4300648591681e-15,2.1381993853589e-15,-2.1293584789719e-14,-0.0013504335148986,0.0013504335148877,-0.0013504335159148,0.0013504335159039,-0.0013504335149294,0.001350433514903,-0.0013504335158992,0.0013504335158729,-0.001135002566132,0.0011350025661053,-0.0011350025663536,0.0011350025663269,-2.1309937231339e-15,2.1300420231177e-14,5.1941074724792e-13,-5.0055353012443e-13,-0.0012814697032076,0.0012814697032265,-0.0013504335147515,0.0013504335150946,-0.0013504335160399,0.0013504335157185,-0.0013504335147438,0.0013504335151025,-0.0013504335160322,0.0013504335157264,-0.001135002565605,0.0011350025666565,-0.0011350025668272,0.0011350025658291,-0.0012889277737736,0.001288927773477,-0.0012889277737509,0.0012889277735001,-1.3211144168265e-12,-1.321097611963e-12,-0.00074245899725813,0.00074245899412054,-1.6891795437833e-12,-8.1004581248e-13,-0.00080290947162493,0.00080290946753675,-0.0008029094713414,0.00080290946782019,-0.00080290947162496,0.0008029094675368,-0.00080290947134145,0.00080290946782023,-0.00085607595511459,0.00085607595293097,-0.00085607595511455,0.00085607595293088,0.80945760226261,120135,2834,0.005324860564378,0.005324860564378,0.0030903307839699,29.31735690803,0.00014973885526424,0.00014973885526424,0.00014973885526424,1768130.1910824,0.013835117214189
34419200,0.99997726708904,0.013883136100312,0.0049418543273235,0.0049418543273235,0.003999427445665,-0.0012860373991363,0.0012860373991175,-9.4041244751584e-15,-9.4241238641908e-15,2.1367876637801e-15,-2.1282232195356e-14,-0.0013554480583412,0.0013554480583303,-0.0013554480597229,0.001355448059712,-0.001355448058374,0.0013554480583476,-0.0013554480597054,0.001355448059679,-0.0011384541396915,0.0011384541396648,-0.0011384541400375,0.0011384541400108,-2.1234057196481e-15,2.1293765792921e-14,4.1430375564381e-13,-3.9543532597223e-13,-0.0012860373991175,0.0012860373991363,-0.0013554480582438,0.001355448058506,-0.0013554480597982,0.0013554480595579,-0.0013554480582362,0.0013554480585139,-0.0013554480597906,0.0013554480595658,-0.0011384541392792,0.001138454140129,-0.0011384541403965,0.0011384541396001,-0.0012936757157321,0.0012936757155095,-0.0012936757157095,0.0012936757155325,-2.3700655952613e-12,-2.3700445379427e-12,-0.00074398889626475,0.0007439888901658,-2.6066473834176e-12,-1.9575232872426e-12,-0.00080426029081126,0.00080426028446865,-0.00080426029060781,0.00080426028467203,-0.0008042602908113,0.00080426028446872,-0.00080426029060786,0.00080426028467207,-0.00085851908380939,0.00085851907923859,-0.00085851908380937,0.00085851907923852,0.73398852679868,120135,2834,0.0053437897929939,0.0053437897929939,0.0030967013843829,31.487353024859,0.00016709882419887,0.00016709882419887,0.00016709882419887,1742069.2774979,0.013879957958478
35419200,0.99998618822065,0.013883261514158,0.0049418994772403,0.0049418994772403,0.0039994625596778,-0.0012936145321439,0.001293614532125,-9.4361823193427e-15,-9.4462408355913e-15,2.1850214843876e-15,-2.1344377355688e-14,-0.0013637618072776,0.0013637618072668,-0.0013637618090726,0.0013637618090617,-0.0013637618073123,0.0013637618072859,-0.0013637618090533,0.0013637618090268,-0.0011449706496679,0.0011449706496411,-0.0011449706501405,0.0011449706501136,-2.1604634110905e-15,2.1367177210639e-14,7.7890750546184e-14,-5.8993826455567e-14,-0.001293614532125,0.0012936145321439,-0.0013637618073058,0.001363761807334,-0.0013637618090224,0.0013637618090162,-0.0013637618072982,0.0013637618073419,-0.0013637618090148,0.0013637618090241,-0.0011449706495957,0.00114497064979,-0.0011449706501592,0.0011449706500185,-0.0013012670211129,0.0013012670211178,-0.0013012670210902,0.0013012670211409,-3.5505552177754e-12,-3.5505459744341e-12,-0.00075445482458388,0.00075445481516588,-3.4259572805332e-12,-3.4694184381188e-12,-0.00081175579693502,0.00081175578816735,-0.00081175579696549,0.00081175578813678,-0.00081175579693503,0.00081175578816739,-0.00081175579696554,0.00081175578813682,-0.00086971488924938,0.00086971488185358,-0.00086971488924928,0.00086971488185344,0.64952121200817,120135,2834,0.005375210220155,0.005375210220155,0.0031401438070677,35.940234885126,0.00020272187908101,0.00020272187908101,0.00020272187908101,1757439.4036725,0.013987715593015
36419200,0.99999189691597,0.013883345701543,0.0049419297383807,0.0049419297383807,0.0039994862247814,-0.0012956275665422,0.0012956275665234,-9.4311824720846e-15,-9.4480643092972e-15,2.1838744606049e-15,-2.1378582193107e-14,-0.0013661581286835,0.0013661581286726,-0.0013661581299574,0.0013661581299465,-0.001366158128715,0.0013661581286886,-0.0013661581299413,0.0013661581299148,-0.0011466558179758,0.001146655817949,-0.0011466558183,0.0011466558182732,-2.1788746133468e-15,2.1382063359737e-14,1.1799841832215e-13,-9.9104694846071e-14,-0.0012956275665233,0.0012956275665422,-0.001366158128675,0.001366158128747,-0.0013661581299439,0.0013661581298937,-0.0013661581286674,0.0013661581287549,-0.0013661581299362,0.0013661581299016,-0.0011466558178458,0.0011466558181123,-0.0011466558183764,0.0011466558181636,-0.0013032209452768,0.001303220945249,-0.001303220945254,0.0013032209452722,-2.1399880112093e-12,-2.1399720370879e-12,-0.00076011800706502,0.00076011800166038,-2.0971385809147e-12,-2.0290867333814e-12,-0.00081508065475363,0.00081508064916948,-0.00081508065474147,0.00081508064918156,-0.00081508065475366,0.00081508064916953,-0.00081508065474151,0.0008150806491816,-0.00087554338095669,0.0008755433767068,-0.00087554338095665,0.00087554337670672,0.6811981079479,120135,2834,0.0053835678060301,0.0053835678060301,0.0031636350757905,37.484275354001,0.00021507420283201,0.00021507420283201,0.00021507420283201,1785418.9605294,0.014028480736221
37419200,0.99999526772339,0.013883393478612,0.0049419469373675,0.0049419469373675,0.003999499603877,-0.0012967658994184,0.0012967658993996,-9.428476672392e-15,-9.441476275263e-15,2.1751100224701e-15,-2.1356935795566e-14,-0.0013668633984262,0.0013668633984153,-0.0013668633994632,0.0013668633994523,-0.0013668633984567,0.0013668633984302,-0.0013668633994482,0.0013668633994217,-0.0011483573585014,0.0011483573584747,-0.0011483573587511,0.0011483573587243,-2.168933740563e-15,2.1363018962211e-14,3.0123678168321e-13,-2.8235542570615e-13,-0.0012967658993995,0.0012967658994184,-0.0013668633983489,0.0013668633985487,-0.0013668633995185,0.0013668633993405,-0.0013668633983413,0.0013668633985566,-0.0013668633995108,0.0013668633993484,-0.0011483573581859,0.0011483573588092,-0.0011483573590132,0.0011483573584434,-0.0013044490106112,0.0013044490104593,-0.0013044490105884,0.0013044490104825,-1.4464743839831e-12,-1.4464617821737e-12,-0.00075903842183679,0.00075903841837224,-1.6012851847779e-12,-1.155222091111e-12,-0.00081580641440291,0.00081580641024194,-0.00081580641426296,0.0008158064103818,-0.00081580641440294,0.00081580641024199,-0.000815806414263,0.00081580641038185,-0.00087401728021557,0.00087401727761272,-0.00087401728021552,0.00087401727761263,0.65495763090949,120135,2834,0.005388274422246,0.005388274422246,0.0031591692329511,37.680911463207,0.00021664729170566,0.00021664729170566,0.00021664729170566,1759757.9995422,0.014033501544702
38419200,0.99999720509578,0.013883424057347,0.0049419579163081,0.0049419579163081,0.0039995082247314,-0.0012956938568153,0.0012956938567965,-9.4157123564507e-15,-9.4295354635761e-15,2.1851097169863e-15,-2.134287740151e-14,-0.0013659273182783,0.0013659273182674,-0.0013659273191934,0.0013659273191825,-0.0013659273183084,0.001365927318282,-0.0013659273191785,0.0013659273191521,-0.0011470513258834,0.0011470513258566,-0.0011470513260997,0.0011470513260729,-2.159875193766e-15,2.1366866960466e-14,5.0738749799432e-13,-4.8850031194491e-13,-0.0012956938567965,0.0012956938568153,-0.0013659273181303,0.001365927318469,-0.0013659273193193,0.0013659273190025,-0.0013659273181226,0.0013659273184768,-0.0013659273193116,0.0013659273190104,-0.0011470513253643,0.001147051326391,-0.0011470513265653,0.0011470513255921,-0.001303361211962,0.0013033612116722,-0.0013033612119392,0.0013033612116954,-1.0879446458738e-12,-1.0879314703227e-12,-0.00075815021657753,0.00075815021411037,-1.4529315551148e-12,-5.9092987396857e-13,-0.0008144944448994,0.00081449444141441,-0.00081449444462036,0.00081449444169336,-0.00081449444489942,0.00081449444141445,-0.00081449444462039,0.00081449444169341,-0.00087334974353359,0.00087334974185335,-0.00087334974353355,0.00087334974185326,0.72891346290552,120135,2834,0.0053838337519467,0.0053838337519467,0.0031554779680371,37.194787269471,0.00021275829815576,0.00021275829815576,0.00021275829815576,1765298.062376,0.014020751535586
38880000,0.99999788168004,0.013883434976975,0.0049419618376363,0.0049419618376363,0.0039995113017023,-0.0012968016046324,0.0012968016046135,-9.4253002988398e-15,-9.4391234059651e-15,2.1705807490716e-15,-2.1348083124832e-14,-0.0013665961603834,0.0013665961603726,-0.0013665961613857,0.0013665961613748,-0.0013665961604145,0.001366596160388,-0.00136659616137,0.0013665961613436,-0.0011485655283513,0.0011485655283245,-0.0011485655285819,0.0011485655285551,-2.1647573975592e-15,2.1353277244648e-14,6.1517361725429e-13,-5.9629852429822e-13,-0.0012968016046135,0.0012968016046324,-0.0013665961602057,0.0013665961606117,-0.0013665961615414,0.0013665961611572,-0.0013665961601981,0.0013665961606196,-0.0013665961615337,0.0013665961611651,-0.0011485655277315,0.0011485655289711,-0.0011485655291482,0.0011485655279622,-0.0013045888017665,0.0013045888014063,-0.0013045888017437,0.0013045888014295,-1.2984350938669e-12,-1.2984214223521e-12,-0.00075524945261625,0.00075524944954354,-1.7598621197732e-12,-6.9115972378016e-13,-0.00081406788785528,0.0008140678837861,-0.00081406788750887,0.00081406788413243,-0.00081406788785531,0.00081406788378616,-0.0008140678875089,0.00081406788413247,-0.00087017798800313,0.00087017798593007,-0.00087017798800308,0.00087017798592998,0.74537476942469,120135,2834,0.0053884086409016,0.0053884086409016,0.0031434612735555,37.193619224009,0.00021274895379207,0.00021274895379207,0.00021274895379207,1727191.2748312,0.01401784953975
