time,ASR_ext,ASR_strain,ASR_strain_xx,ASR_strain_yy,ASR_strain_zz,disp_x_101,disp_x_102,disp_x_103,disp_x_104,disp_x_105,disp_x_106,disp_x_p1_neg,disp_x_p1_pos,disp_x_p2_neg,disp_x_p2_pos,disp_x_p3_neg,disp_x_p3_pos,disp_x_p4_neg,disp_x_p4_pos,disp_x_p5_neg,disp_x_p5_pos,disp_x_p6_neg,disp_x_p6_pos,disp_y_101,disp_y_102,disp_y_103,disp_y_104,disp_y_105,disp_y_106,disp_y_p1_neg,disp_y_p1_pos,disp_y_p2_neg,disp_y_p2_pos,disp_y_p3_neg,disp_y_p3_pos,disp_y_p4_neg,disp_y_p4_pos,disp_y_p5_neg,disp_y_p5_pos,disp_y_p6_neg,disp_y_p6_pos,disp_y_p7_neg,disp_y_p7_pos,disp_y_p8_neg,disp_y_p8_pos,disp_z_101,disp_z_102,disp_z_103,disp_z_104,disp_z_105,disp_z_106,disp_z_p1_neg,disp_z_p1_pos,disp_z_p2_neg,disp_z_p2_pos,disp_z_p3_neg,disp_z_p3_pos,disp_z_p4_neg,disp_z_p4_pos,disp_z_p5_neg,disp_z_p5_pos,disp_z_p6_neg,disp_z_p6_pos,humidity,ndof,nelem,strain_xx,strain_yy,strain_zz,temp,thermal_strain_xx,thermal_strain_yy,thermal_strain_zz,vonmises,vstrain
2419200,0,0,0,0,0,0,0,0,0,0,0,0,0,0,0,0,0,0,0,0,0,0,0,0,0,0,0,0,0,0,0,0,0,0,0,0,0,0,0,0,0,0,0,0,0,0,0,0,0,0,0,0,0,0,0,0,0,0,0,0,0,0,0,0,0,0,0,0,0,0,0,0,0,0,0
3419200,0.15846859752088,0.0027326333901393,0.00091087779671312,0.00091087779671312,0.00091087779671312,-0.00024373659559196,0.00024706588855809,2.2079439913983e-06,9.0246327142793e-07,3.2470891623454e-07,3.4638817735132e-06,-0.0002476491046824,0.00025017600599143,-0.00024800752092735,0.00024976339397968,-0.00024661557373182,0.00025144352936961,-0.00024735945695927,0.00025110866313216,-0.00024516170303963,0.00025090513086225,-0.00024722952892574,0.00024974133476086,1.0000286381116e-06,-2.1240585484715e-06,-4.1329845801863e-07,1.9506596358432e-07,-0.00026290994092266,0.00026209019797131,-0.0002641090264109,0.00026406129144452,-0.00026394349598368,0.00026420331775832,-0.00026505699985276,0.00026275370191731,-0.00026468766894555,0.00026270028171325,-0.00026257457272331,0.00026073974767165,-0.00026150748551957,0.00026093057545826,-0.00025855444037199,0.00026028040793551,-0.00026033097629936,0.00025599327456569,-8.5373411880764e-07,4.5433202261223e-07,-0.00026272976563421,0.00026245296717249,2.1458534382267e-07,-3.9164497051411e-07,-0.00026428023051585,0.00026374842503728,-0.00026422733534139,0.00026322525885568,-0.00026391380954019,0.00026424245689013,-0.00026390075871399,0.00026397797719532,-0.00025822336214365,0.00025928372112069,-0.00025956742943892,0.00025716365961379,0.78396790076399,128736,2834,0.0010219831125938,0.0010931501139038,0.001093530082672,31.785376169997,0.00016948300935998,0.00016948300935998,0.00016948300935998,1157922.9426939,0.0032138176329482
4419200,0.35010909526506,0.005967359586844,0.0018785497168345,0.0020439765027951,0.0020448333672143,-0.00046124116546026,0.00046675126156592,4.5646152789667e-06,5.0627792187799e-07,6.4414358622963e-07,5.7285752223383e-06,-0.00047288878887449,0.00047769461325608,-0.00047407348996259,0.0004764206578523,-0.00047125156682524,0.0004798877997541,-0.00047323466980173,0.00047875085701253,-0.00047512388962678,0.00048631488334441,-0.00048040164777947,0.00048264630416572,1.7564838016252e-06,-3.2767993776023e-06,-6.3765497182534e-07,9.0703700441286e-07,-0.00054252512466166,0.0005417022160105,-0.0005507205210057,0.00055102512932484,-0.00055027549406163,0.00055141147175482,-0.00055218134166765,0.00054885158917133,-0.00055134629896494,0.00054880504767304,-0.00054211938834509,0.00053931337730491,-0.00053985291317638,0.00053985056415559,-0.00052192863393347,0.00052525019182033,-0.00052463006839055,0.00051812770431657,-2.4465104924212e-06,1.5729973713136e-06,-0.00054263990206245,0.00054202022045715,5.3697072378875e-07,-9.7482710594987e-07,-0.00055158217272626,0.00055011339284755,-0.00055153477459879,0.00054883811871302,-0.00055042097484787,0.00055163308731389,-0.0005504376563799,0.00055088526062938,-0.00052093192663717,0.00052415641247707,-0.00052473663997723,0.00051855182784285,0.77882048865511,128736,2834,0.0019314822411904,0.0022562446315214,0.0022571442395736,33.598604737371,0.00018398883789897,0.00018398883789897,0.00018398883789897,2074672.5224038,0.0064656944682697
5419200,0.550639831352,0.009296856448118,0.0028011786171514,0.0032476502590611,0.0032480275719056,-0.00066463171547717,0.00066690835258463,2.1966885841468e-06,-5.2011718790355e-08,1.500357565054e-07,2.59677018775e-06,-0.00068352645016157,0.00068551380929811,-0.00068421141636018,0.00068476360524388,-0.00068274512112382,0.00068665510107809,-0.00068397702315997,0.00068605836184291,-0.00070392065958364,0.00070927643049919,-0.00070679334688021,0.00070746709093783,5.5951313045084e-07,-1.8605862201504e-06,-6.6669013013498e-07,2.8578588656314e-07,-0.00084293856253459,0.00084196069277665,-0.000864715591511,0.00086426598397663,-0.00086442991377307,0.00086447841115747,-0.00086543362435075,0.00086307658092287,-0.00086482353230735,0.00086299516954873,-0.00084206457167931,0.00083994978003333,-0.00084079791029746,0.00084028944454654,-0.0007942033002858,0.00079539046303741,-0.00079565164550418,0.00079205789787861,-1.6370128060442e-06,5.2098104942128e-07,-0.00084303902340602,0.00084206497363997,-1.8444684844826e-08,-8.6591850579181e-07,-0.00086521692810629,0.00086373921642252,-0.00086501597552383,0.00086295416099847,-0.00086451629443518,0.00086452472646421,-0.00086453752891142,0.00086411359651301,-0.00079390366249891,0.00079479003284978,-0.00079591043516253,0.00079211619640157,0.77319620033036,128736,2834,0.0027703703814191,0.0035040070724696,0.0035044321503747,36.266592193325,0.0002053327375466,0.0002053327375466,0.0002053327375466,2724187.62608,0.0098268121953974
6419200,0.70716444390747,0.01173082315643,0.0034209221199924,0.0041547113923406,0.0041551896440967,-0.00078453616576027,0.00078628366909834,1.7014725812335e-06,-1.0902750541161e-07,8.5628528218644e-07,1.3806888843066e-06,-0.00081384023303687,0.00081577843777538,-0.00081436779647111,0.00081517388200305,-0.00081366678871721,0.00081626614445981,-0.00081473621696633,0.00081580102811036,-0.00084584308124148,0.00084963885753654,-0.00084835748642997,0.00084821814727481,2.2473089102025e-07,-2.9063517683083e-07,1.5756956577635e-06,-6.8268767582905e-07,-0.001068148680593,0.0010684198903767,-0.0011065083886472,0.001107723887058,-0.0011072533540913,0.0011068523190379,-0.0011066316217004,0.0011071984279762,-0.0011070671277071,0.0011060474386205,-0.0010622368839222,0.0010651694628554,-0.0010640009426823,0.001062318045264,-0.00098639979695936,0.00098572939370775,-0.00098587077583168,0.00098422584260085,-5.7738404442741e-07,1.1404871035774e-06,-0.001068053337713,0.0010687718448017,-7.4127058672642e-07,1.6065514791545e-06,-0.0011075026868911,0.0011067954186789,-0.0011062487617534,0.0011070693599786,-0.0011069531723083,0.0011074398240283,-0.0011059050918422,0.0011080809693675,-0.00098394120232743,0.0009871709357472,-0.00098556790385932,0.00098485877635154,0.72914356962745,128736,2834,0.0032676187725369,0.004441187980682,0.0044417203442386,36.738372753097,0.00020910698202477,0.00020910698202477,0.00020910698202477,3121697.4846284,0.01222474438442
7419200,0.83243889371078,0.013613411919032,0.0038829880551806,0.0048649856154637,0.0048654382483874,-0.00086279415765494,0.00086430154509447,1.8403859206483e-06,-4.5785667555997e-07,8.2025358210101e-07,1.1566221134986e-06,-0.00090220170298722,0.00090412466908166,-0.00090289940141465,0.00090334362811825,-0.00090209257722795,0.00090457133793708,-0.000903277458805,0.00090390013269627,-0.00094660988317496,0.00095052993855954,-0.00094955514593384,0.00094869949550307,3.0070284472931e-07,-2.9227899153111e-08,2.8227354273349e-06,-1.6194318677011e-06,-0.0012534289427118,0.0012540288030319,-0.0013107102330037,0.0013128963564138,-0.0013121774111319,0.0013113085375655,-0.001310786035242,0.0013124731900711,-0.0013119498513521,0.001310623820194,-0.0012422228535914,0.0012477598599529,-0.0012461555570433,0.001242757046616,-0.001135674172717,0.0011344377710852,-0.001135018152122,0.0011331919618547,-2.5096208063403e-07,1.9578475454137e-06,-0.0012528974277852,0.0012547728025367,-1.22501665805e-06,3.2843573888451e-06,-0.0013120472442329,0.0013115974323688,-0.0013101111502128,0.0013126577450824,-0.0013113278234359,0.0013124147306583,-0.0013096156895053,0.0013137992593103,-0.0011318813568894,0.0011373538239276,-0.0011339232292975,0.0011346617847789,0.71234621997565,128736,2834,0.0035924478001295,0.0052100613901976,0.0052105019042764,40.760780591652,0.00024128624473322,0.00024128624473322,0.00024128624473322,3226242.6321666,0.014111856177276
8419200,0.90800287073433,0.014724422797007,0.0041537407647315,0.0052851253007168,0.0052855567315586,-0.00088881465550642,0.00089018622941029,1.4767208694487e-06,-2.3522162764455e-07,9.557474812324e-07,8.5964861281674e-07,-0.0009364424204277,0.00093818484830209,-0.00093694142191254,0.00093760062588088,-0.0009364528887785,0.00093848832207877,-0.00093744071032536,0.00093799264329461,-0.00099090258727482,0.00099396115857155,-0.00099324291227293,0.00099266575852168,2.0646402006656e-07,3.0661899655376e-07,3.1097199944706e-06,-1.7031132073714e-06,-0.0013634068174067,0.0013642281965924,-0.0014345096057766,0.0014369045018219,-0.0014360884897383,0.0014351882463287,-0.0014344591819935,0.00143663282129,-0.0014357394870637,0.0014346481959396,-0.0013498865316129,0.001356102737426,-0.0013541984189374,0.0013507414151416,-0.0012185150844109,0.0012170191032148,-0.0012175270680241,0.0012162295529201,2.5825478781246e-07,1.8818681746257e-06,-0.0013627703023024,0.0013650716431035,-1.1927971693239e-06,3.6822238175813e-06,-0.0014357020896465,0.0014357495618737,-0.0014336456102193,0.0014369170239713,-0.0014351709356105,0.0014363646649342,-0.001433334775683,0.0014378705077094,-0.0012145985584013,0.0012200786917001,-0.0012160783980396,0.0012179376388473,0.69848786890845,128736,2834,0.0037005675701932,0.0056661857751556,0.0056666146265749,41.433084651938,0.00024666467721551,0.00024666467721551,0.00024666467721551,3065679.3302555,0.015147229296258
9419200,0.94981299694942,0.01532463887256,0.0043011585882102,0.0055115283467605,0.0055119519375891,-0.00089031456253206,0.00089177389849975,1.2532036123847e-06,8.4006346230625e-08,7.0236567921741e-07,1.2013740479108e-06,-0.00094390555866165,0.00094536560551758,-0.00094421464396849,0.0009449509273901,-0.00094371717899115,0.00094584466626028,-0.00094452306144708,0.00094552886346721,-0.0010047148179556,0.0010075761951945,-0.0010065300949423,0.0010067921808155,4.2403285004826e-07,-7.234993862517e-08,3.1149677795431e-06,-1.8624245438826e-06,-0.0014236294709102,0.0014242961006376,-0.0015034905758848,0.0015059917213388,-0.0015051393484225,0.0015042189820071,-0.0015036271294725,0.0015055073344181,-0.0015049663630758,0.0015034674219057,-0.0014094264685114,0.0014154293879992,-0.0014138867581486,0.0014099212265345,-0.0012600342807209,0.0012588729054445,-0.0012596301839462,0.0012575382551247,6.2092556431817e-07,1.7037084957242e-06,-0.0014228338428365,0.0014253138223932,-1.1866734800926e-06,3.849225900059e-06,-0.0015045799075582,0.0015049355991501,-0.0015024765680628,0.0015061567326758,-0.0015042331478212,0.0015053745057161,-0.0015023443141296,0.0015069324381962,-0.0012564110547663,0.0012616128358205,-0.0012574063685252,0.0012600175535793,0.67994985014668,128736,2834,0.0037072818407152,0.0059152725364691,0.0059157327226828,41.145479047522,0.00024436383238017,0.00024436383238017,0.00024436383238017,2874511.1081302,0.015659988383671
10419200,0.97072210639564,0.015632002825717,0.0043786885705202,0.0056264458649979,0.0056268683901989,-0.00088161736682858,0.00088317149690482,1.1484640568138e-06,2.7750695131693e-07,4.963424086751e-07,1.5244022484944e-06,-0.00093769758821749,0.0009389722614483,-0.00093790874924347,0.00093866665175731,-0.00093734599274096,0.00093960959500426,-0.00093804523486878,0.0009394072283962,-0.0010037684251351,0.0010066112328814,-0.001005274326214,0.0010060800557804,5.7365675813317e-07,-4.4917186223702e-07,1.6448243454917e-06,-6.5194114418179e-07,-0.0014488393391361,0.0014492649644387,-0.0015340850893376,0.0015356327595993,-0.0015348569457089,0.0015347601588485,-0.0015343833642469,0.0015349719137067,-0.0015348565483668,0.0015338266016088,-0.0014362411425024,0.0014391591529219,-0.0014381077935585,0.0014363182961883,-0.0012740155237521,0.0012740753750558,-0.001274111427746,0.0012721696778095,3.0471400944321e-07,1.0893183277512e-06,-0.0014483924590979,0.0014499352987781,-3.4705316695205e-07,2.0348864452769e-06,-0.0015346751252339,0.0015350875808682,-0.0015334511627909,0.0015354219225787,-0.0015344299817487,0.0015354204874733,-0.0015334181147393,0.0015361027416194,-0.0012720523497806,0.0012751668214304,-0.0012727578137033,0.0012738458213821,0.69329668183696,128736,2834,0.0036715652783717,0.0060191504535103,0.0060196133868146,38.100583821436,0.00022000467057149,0.00022000467057149,0.00022000467057149,2722467.5282792,0.015834765147039
11419200,0.98279358026435,0.015806214266909,0.0044231883734205,0.0056913018960571,0.0056917239974315,-0.00087539078630987,0.0008769290118113,9.7740762372943e-07,4.3471257129085e-07,4.9350643818161e-07,1.5088324753442e-06,-0.00093504920365004,0.000936204473505,-0.00093515086477149,0.00093600612960745,-0.00093470162091369,0.00093683723979322,-0.00093528773993516,0.00093673924772864,-0.0010023064580696,0.0010048069625956,-0.0010034812933194,0.0010045967517077,5.9843268952165e-07,-4.1046603948101e-07,1.636720324631e-06,-5.7369330898458e-07,-0.0014684923651549,0.0014689839912227,-0.0015558437673593,0.0015574218986631,-0.0015565878302256,0.0015565795155522,-0.0015561373041698,0.0015567667008037,-0.0015565828751758,0.0015556519693604,-0.0014568247836992,0.0014597367916478,-0.0014586079304493,0.0014569822656018,-0.0012874105094118,0.0012875478993241,-0.0012875019733977,0.0012856607251294,4.5116723767129e-07,9.0824566908318e-07,-0.0014680965588529,0.0014696039577592,-3.2295396535231e-07,1.9739139161475e-06,-0.0015563994273717,0.0015569135475291,-0.0015552028531824,0.0015572198361543,-0.0015562631782784,0.0015571379049225,-0.0015552792766121,0.0015577909651643,-0.0012856801615723,0.0012884045253091,-0.0012860639421169,0.0012874125279409,0.67906583903469,128736,2834,0.0036458388448053,0.006100639879965,0.0061011042524263,37.628197100073,0.00021622557680058,0.00021622557680058,0.00021622557680058,2576470.9964712,0.015974221257667
12419200,0.98971633116399,0.015908579004599,0.004449775976993,0.0057291905598344,0.005729612467772,-0.00086938349876845,0.00087088066510468,9.2334945268333e-07,4.5873449676176e-07,4.5534331625942e-07,1.496047531747e-06,-0.00093006396453014,0.00093115177166772,-0.00093014376808547,0.00093098455659149,-0.00092972542315008,0.00093177828714293,-0.00093027250127522,0.00093171001571172,-0.00099951038339034,0.0010019083774452,-0.0010005762810794,0.0010017457559927,5.8856235645284e-07,-4.4400897784262e-07,1.6032007766947e-06,-5.6713273048454e-07,-0.0014773290368027,0.0014777858175911,-0.0015666867184982,0.001568222993464,-0.0015674190062945,0.0015673946848363,-0.0015669844001121,0.0015675676589663,-0.0015674176315457,0.0015664517920945,-0.0014658494806433,0.0014686913496455,-0.00146758397505,0.0014659765162353,-0.0012922198765879,0.0012923414790288,-0.001292341493418,0.0012904462172855,7.0718596939116e-07,1.0877054960172e-06,-0.0014767079493269,0.0014786375926759,-9.5266081492045e-08,2.1717455984483e-06,-0.0015670149775933,0.0015679671618725,-0.0015658167407819,0.0015682593127999,-0.0015668979134102,0.0015681675404944,-0.0015659181152307,0.0015688130560264,-0.0012903094313711,0.0012933857690116,-0.001290628229915,0.0012924771368723,0.69355173632239,128736,2834,0.0036209010073711,0.0061371443144665,0.0061376222111516,36.804267200478,0.00020963413760382,0.00020963413760382,0.00020963413760382,2502366.8640967,0.016023081811664
13419200,0.99358248980132,0.015964304874438,0.0044643011261618,0.0057497908985976,0.0057502128496784,-0.00086196150472528,0.0008635092049382,8.9966013568338e-07,5.2408293977562e-07,4.4905140086789e-07,1.5637083473031e-06,-0.00092442817928337,0.0009255028297583,-0.00092447150407213,0.00092535616066406,-0.00092404536736591,0.00092616636212812,-0.00092457035803298,0.0009261198685088,-0.00099410705969954,0.00099649079979698,-0.00099510116210079,0.00099642478668923,6.0350969488168e-07,-5.0535409031877e-07,1.5784773596154e-06,-6.1043938649915e-07,-0.0014814674488401,0.001481867474865,-0.0015712972342127,0.0015728133232934,-0.001572040246558,0.0015719771772797,-0.001571623125313,0.00157212570765,-0.0015720678869044,0.0015710163962006,-0.0014708459380791,0.0014736060606081,-0.0014726105158186,0.0014708772693538,-0.0012936184587619,0.0012937727852692,-0.0012938080155763,0.0012917870356545,7.247036361822e-07,1.0170826200303e-06,-0.0014808393411181,0.0014827188791359,-1.3076186149296e-07,2.1499543575365e-06,-0.0015716099416189,0.0015725494405648,-0.0015704190958602,0.0015728527873761,-0.0015715276296818,0.0015727196229918,-0.0015705499944332,0.001573369102889,-0.0012917890167858,0.0012947318384462,-0.0012920151504692,0.0012939017661036,0.67550368710835,128736,2834,0.0035902675596576,0.0061541452758695,0.0061546078389255,34.794597943983,0.00019355678355186,0.00019355678355186,0.00019355678355186,2409529.186491,0.016026496107329
14419200,0.99581476495732,0.015996045607437,0.0044726076568081,0.0057615080289716,0.0057619299216569,-0.00085506552444494,0.00085660542058004,8.8309473419508e-07,5.3116562828499e-07,4.5252262712487e-07,1.5540590422146e-06,-0.00091702052824776,0.00091808399101353,-0.00091705749603748,0.00091794955095438,-0.00091664302945955,0.00091874167056206,-0.0009171603336098,0.00091870421955457,-0.00098896824548967,0.0009913160212072,-0.00098994668030485,0.00099127632805449,6.0042072817652e-07,-4.9523687330347e-07,1.5804148759445e-06,-6.0914842820164e-07,-0.0014797784284062,0.0014801839114203,-0.0015709779974371,0.0015724938020509,-0.0015717176168265,0.0015716587095758,-0.0015712996172987,0.0015718102633031,-0.0015717406924647,0.0015707019420316,-0.001469048027978,0.001471816090424,-0.0014708134536143,0.001469086625022,-0.0012896407217923,0.0012897880185418,-0.0012898133924184,0.0012878146657545,6.1368078493659e-07,8.8156899730435e-07,-0.001479273492606,0.0014809123009348,-2.4913275016663e-07,2.0288641555698e-06,-0.0015714030221939,0.0015721149812195,-0.0015702141575384,0.001572417779608,-0.0015713295142865,0.0015722764301114,-0.0015703532190241,0.0015729266227211,-0.0012879420405501,0.001290614747721,-0.0012881432475459,0.0012898045886993,0.66543916063357,128736,2834,0.0035616512719458,0.0061471604753636,0.0061476233725735,32.643906339659,0.00017635125071727,0.00017635125071727,0.00017635125071727,2373468.9620582,0.015983230140858
15419200,0.99697717299472,0.016013493647873,0.0044772608356984,0.005767905474683,0.0057683273374913,-0.00084374299719907,0.0008452732200291,8.6835981977645e-07,5.3747695069588e-07,4.4437257148832e-07,1.5488899602478e-06,-0.0009052759290439,0.00090632122745249,-0.00090530573797441,0.00090619892068367,-0.00090489507302543,0.00090698046784042,-0.00090540565697773,0.00090694634960558,-0.00097826336061923,0.000980587996984,-0.00097922576028425,0.00098055681415024,6.0157070476214e-07,-4.9713197167547e-07,1.5978683605379e-06,-6.4060024849475e-07,-0.0014702405245957,0.0014706398614141,-0.0015620708192777,0.0015635943733031,-0.0015628238816838,0.0015627461917727,-0.0015623933135844,0.001562910810208,-0.0015628482963366,0.0015617924499872,-0.0014594509291807,0.0014622456354691,-0.0014612746950804,0.0014594765088877,-0.0012791495467227,0.0012792811549403,-0.0012793311309235,0.0012773258459168,4.8559235335369e-07,7.3150664518488e-07,-0.0014698705544824,0.0014712318038724,-4.1104155706653e-07,1.9111140043286e-06,-0.0015626334156647,0.0015630674234226,-0.0015614361996606,0.001563385929156,-0.0015625676606093,0.0015632168087522,-0.0015615802319951,0.0015638881385097,-0.0012775866409211,0.0012799831419312,-0.0012777699486741,0.001279184634626,0.70138893886294,128736,2834,0.0035146291176322,0.0061076502062756,0.0061081100410022,27.069722384384,0.00013175777907507,0.00013175777907507,0.00013175777907507,2320628.0292642,0.0158551768605
16419200,0.99772338745203,0.01602430421994,0.0044801439706726,0.0057718692078024,0.0057722910414647,-0.00083700635341818,0.00083854061044856,8.4984680370574e-07,5.6949706581398e-07,4.1094859746879e-07,1.5879363784384e-06,-0.00090089461288592,0.00090190383136667,-0.00090091172232336,0.00090181194567637,-0.00090050361265984,0.00090256801390514,-0.00090099086695258,0.00090256433169369,-0.00097136125010795,0.00097367049385404,-0.00097223830208668,0.00097365639444751,6.30706617666e-07,-5.3681630500625e-07,1.5999793721422e-06,-6.5468323165492e-07,-0.0014698526466801,0.0014702396773296,-0.0015605185747585,0.0015620578041632,-0.0015612779330446,0.001561204329738,-0.0015608639809163,0.0015613530488408,-0.0015613210945614,0.0015602267856231,-0.00146021979302,0.001462985334511,-0.0014620504450609,0.0014602153872006,-0.0012787427135995,0.0012789279744945,-0.0012790019087267,0.0012768961450741,5.4900337911177e-07,7.4424360450511e-07,-0.0014694399061384,0.0014708725341536,-3.8454473626081e-07,1.9540930287318e-06,-0.0015610545045944,0.0015615650964288,-0.0015598449766287,0.0015618920169932,-0.0015610000795482,0.0015616942101041,-0.0015600104054923,0.0015623744138787,-0.0012771777376939,0.0012796280517865,-0.0012773269472313,0.0012788943162813,0.67697638693031,128736,2834,0.0034867078495079,0.0061060003375983,0.0061064563363347,24.418335343213,0.0001105466827457,0.0001105466827457,0.0001105466827457,2230697.5988758,0.015823461975331
17419200,0.99822451140257,0.01603176053964,0.0044821502814869,0.0057745942216436,0.005775016036509,-0.00083073447436969,0.0008322543882551,8.3580348220722e-07,5.6077415852645e-07,4.1816379138739e-07,1.5637099471529e-06,-0.00089377542130543,0.00089477819545145,-0.00089378682808827,0.00089467410637143,-0.00089338013960132,0.00089545254187084,-0.00089386880247678,0.00089543082437507,-0.00096581261081698,0.00096808812829649,-0.00096671721071237,0.00096810444751654,6.1469408871045e-07,-5.2552680795228e-07,1.6028040337123e-06,-6.6379872051303e-07,-0.0014643282811735,0.0014647110376669,-0.0015559589684065,0.0015574858192217,-0.0015567209696812,0.0015566308112048,-0.00155629362135,0.001556788909278,-0.0015567598903275,0.0015556652070663,-0.0014542426718814,0.0014570339384969,-0.0014561003322332,0.0014542398996899,-0.001272379565879,0.0012725258763398,-0.0012726041517985,0.0012705383477632,4.8564514771977e-07,6.7417516265861e-07,-0.0014639787073902,0.0014652811414239,-4.5438607895176e-07,1.8946161464534e-06,-0.0015565438256165,0.00155693270447,-0.0015553411905999,0.0015572599943427,-0.0015564981247621,0.0015570596713217,-0.0015555032020696,0.0015577429049586,-0.0012708775793858,0.0012731678283591,-0.0012710036494794,0.0012724221436541,0.69394003768118,128736,2834,0.0034606357965863,0.0060831172421783,0.0060835740986179,21.980202071775,9.1041616574201e-05,9.1041616574201e-05,9.1041616574201e-05,2217790.4950354,0.015750488070704
18419200,0.99853583116786,0.016036316461307,0.0044833780604903,0.0057762582997547,0.0057766801010623,-0.00082166286580729,0.00082320235813445,8.4150368562674e-07,5.731135606861e-07,4.3243549216067e-07,1.5740345408558e-06,-0.00088562007813578,0.00088663971539185,-0.00088563012798355,0.0008865375742331,-0.00088522701030956,0.00088731103449041,-0.00088571648208151,0.00088730041664045,-0.00095656208292934,0.00095884771944797,-0.00095745591355017,0.00095887582903716,6.1380245846384e-07,-5.2155981191888e-07,1.626849072571e-06,-6.7560749431523e-07,-0.0014575727480055,0.0014579615341765,-0.0015487224541147,0.0015502686827288,-0.0015494956992554,0.0015493979452272,-0.001549056986863,0.0015495721346619,-0.001549530702699,0.0015484281305629,-0.0014479781572589,0.0014508176332906,-0.0014498586154378,0.0014479834135833,-0.0012656204494768,0.001265758288103,-0.0012658330296866,0.0012637498804763,5.365378242632e-07,7.1921039688943e-07,-0.0014571788755437,0.0014585801234135,-4.2188193863014e-07,1.9643193731064e-06,-0.0015492800337182,0.0015497519028912,-0.0015480575505168,0.0015500901465853,-0.001549237062871,0.0015498829143658,-0.0015482253863179,0.0015505707560725,-0.0012640567168106,0.0012664547840761,-0.0012641797167285,0.0012657232398716,0.68267067278644,128736,2834,0.0034230228925962,0.0060551452096126,0.0060556107579352,17.477991042047,5.5023928336376e-05,5.5023928336376e-05,5.5023928336376e-05,2152031.8104437,0.015655472350787
19419200,0.99879360893336,0.01604031119332,0.0044844717923362,0.0057777088025478,0.0057781305984361,-0.00081949408764573,0.00082102435692943,8.358174464723e-07,5.688942186811e-07,4.4264356297279e-07,1.5549243965858e-06,-0.00088310891986075,0.00088413059780938,-0.0008831184656183,0.00088402609791377,-0.00088272713887188,0.0008847905909297,-0.00088321347078448,0.00088477911099683,-0.0009553233508581,0.00095758211994754,-0.00095621319746504,0.00095761925912887,6.0461976823481e-07,-5.0152707491004e-07,1.612441011199e-06,-6.4622411669848e-07,-0.0014577445982095,0.0014581460734076,-0.0015495323708427,0.0015510682373305,-0.0015502931768899,0.00155021134976,-0.0015498571284293,0.0015503813801165,-0.0015503191495107,0.0015492514578454,-0.0014481178662041,0.0014509440150018,-0.0014499510001807,0.0014481484059312,-0.0012648091451669,0.0012649415939229,-0.0012649914315668,0.0012629578137814,6.0611229122806e-07,7.8869575556737e-07,-0.0014572873547498,0.0014588266688677,-3.3167487449123e-07,2.0128461336539e-06,-0.0015500121129794,0.0015506322278075,-0.0015488020349699,0.0015509578959017,-0.001549967513094,0.0015507647575439,-0.001548969951566,0.0015514382671357,-0.0012631840127816,0.0012656965905535,-0.0012633009396023,0.0012649686109725,0.72158242884578,128736,2834,0.0034140119638668,0.0060558829147018,0.0060563456452659,17.551568034682,5.5612544277454e-05,5.5612544277454e-05,5.5612544277454e-05,2141467.2364852,0.015647815044427
20419200,0.99901794584964,0.016043824198957,0.0044854359973095,0.0057789832053618,0.0057794049962859,-0.00081908062977532,0.00082061008129346,7.9319156739081e-07,6.0997455551348e-07,4.3376348724134e-07,1.5643407939409e-06,-0.00088510989088613,0.00088609607672078,-0.00088509152616293,0.000886019820953,-0.00088472196579921,0.00088676273540536,-0.00088518006274012,0.00088677867284363,-0.00095476033540111,0.00095694165193323,-0.00095556504803195,0.0009570573773404,6.1108841243597e-07,-5.1287058716985e-07,1.5848078089108e-06,-6.2178010198853e-07,-0.0014635043822843,0.001463900663133,-0.001554174508487,0.0015556926842538,-0.0015549187825533,0.0015548531708164,-0.0015545047524929,0.0015549993436345,-0.0015549493108298,0.0015538864545693,-0.0014548818354846,0.0014576472515191,-0.0014566626738119,0.0014549030258389,-0.0012707332395713,0.0012708950047546,-0.0012709289647997,0.0012688891835504,6.3078417181272e-07,7.2963315499303e-07,-0.0014630620921711,0.0014645667763068,-3.2328195601512e-07,1.9694919025482e-06,-0.00155463989967,0.0015552708527326,-0.0015534461218558,0.0015555782125648,-0.0015546238605914,0.0015553754337653,-0.0015536425044568,0.0015560307953218,-0.0012691885959371,0.0012715687579316,-0.0012692219075523,0.0012709208817703,0.72910480520433,128736,2834,0.003412334488929,0.0060797078217159,0.0060801715145205,18.597312401887,6.3978499215098e-05,6.3978499215098e-05,6.3978499215098e-05,2087021.3596265,0.01569451350714
21419200,0.99917056543047,0.016046151273577,0.0044860715760449,0.0057798289548189,0.0057802507427127,-0.00081165261701865,0.00081317615443975,7.8715127266131e-07,6.1233694503746e-07,4.4061979144309e-07,1.5497226343564e-06,-0.00087815032977885,0.00087913346138856,-0.00087812863833759,0.00087906281681615,-0.00087776760773315,0.00087979240935177,-0.00087822264639253,0.00087981004540094,-0.0009473641967407,0.00094952875069805,-0.00094815988456657,0.0009496411501319,6.0210462182649e-07,-5.0044004433644e-07,1.596821510465e-06,-6.3831237466636e-07,-0.0014573153924509,0.0014577118709182,-0.001548011814304,0.0015495311316462,-0.0015487640308586,0.0015486846389551,-0.0015483347012137,0.0015488455612987,-0.001548788972732,0.001547726989723,-0.0014486627225959,0.0014514561765552,-0.0014504836747176,0.0014486906947029,-0.0012645247504928,0.0012646615563461,-0.0012647080029168,0.0012626878082172,5.8172092283588e-07,6.7134159557876e-07,-0.0014569274417316,0.0014583224210913,-3.9310688531305e-07,1.926311006448e-06,-0.0015485305743304,0.0015490500241332,-0.0015473315871185,0.0015493663025772,-0.0015485179943621,0.0015491476717818,-0.0015475297315363,0.001549815771837,-0.0012630196435661,0.0012652998161164,-0.0012630490523424,0.0012646554061272,0.70951084528703,128736,2834,0.0033814846263754,0.0060540725410875,0.0060545337033981,15.225615175098,3.7004921400784e-05,3.7004921400784e-05,3.7004921400784e-05,2046842.5772995,0.015611105876953
22419200,0.99929690473569,0.016048096558131,0.0044866060759823,0.00578053434895,0.0057809561331991,-0.00080906697316298,0.00081058573666829,7.8114892110559e-07,6.1208010592564e-07,4.5832006672371e-07,1.5272772455162e-06,-0.00087488797581219,0.00087587955770113,-0.00087486515494332,0.000875808312915,-0.00087451957126679,0.00087652495982263,-0.00087497233292447,0.0008765449687002,-0.00094566621537911,0.00094780396797111,-0.00094645763665525,0.00094793284965693,5.9199215925122e-07,-4.7066358656489e-07,1.5912950106281e-06,-6.0808323588199e-07,-0.001455822385349,0.0014562404542398,-0.0015473098049301,0.0015488273062611,-0.0015480512571924,0.0015479906579991,-0.0015476207044442,0.0015481548353765,-0.0015480628574592,0.001547045050914,-0.0014469406450029,0.0014497398789527,-0.0014487161069271,0.0014470031986585,-0.0012621333470417,0.0012622605071219,-0.0012622718790377,0.0012603192708781,6.2585473777339e-07,7.1055370860964e-07,-0.0014554027681852,0.0014568835891606,-3.3165161505271e-07,1.9537022917456e-06,-0.0015477832152175,0.0015483977884122,-0.0015465927379605,0.0015487035080853,-0.0015477715820415,0.0015484974049412,-0.001546793476642,0.0015491512894893,-0.0012605919941644,0.0012629316865879,-0.0012606131388684,0.0012622984603796,0.71604798150709,128736,2834,0.0033707437616319,0.0060479362049727,0.0060483992824253,14.858990590169,3.4071924721352e-05,3.4071924721352e-05,3.4071924721352e-05,2043871.3852927,0.015587733541117
23419200,0.9994090954903,0.016049794515455,0.0044870722681769,0.0057811502326356,0.0057815720146421,-0.00080849641658583,0.00081001873281779,7.7381565396906e-07,6.2491585853287e-07,4.4914417251906e-07,1.5397135289626e-06,-0.00087497927756832,0.00087596084139347,-0.00087495025818458,0.00087589609235566,-0.00087460554586918,0.00087661093415325,-0.00087505006302281,0.00087663952380745,-0.00094552959369204,0.00094765923283215,-0.00094629297731086,0.00094780365040928,6.0100418846724e-07,-4.8310670827068e-07,1.5808760305321e-06,-5.9733895080469e-07,-0.0014585314722676,0.0014589478365264,-0.0015499867675641,0.0015515032778677,-0.0015507226849818,0.001550673160266,-0.0015503051573219,0.0015508244488426,-0.0015507406950763,0.00154971961631,-0.0014499290561043,0.0014526995726866,-0.0014516779886186,0.0014499841211497,-0.0012643902250869,0.0012645398814069,-0.0012645489815097,0.0012625748692238,6.7606536321764e-07,7.4130503858765e-07,-0.0014580711424491,0.0014596311908575,-2.8168642615502e-07,1.9835948103546e-06,-0.0015504173356166,0.0015511206988008,-0.0015492312548382,0.0015514200282634,-0.001550410679622,0.0015512147845461,-0.0015494395283416,0.0015518612764518,-0.0012628302800127,0.0012652265668364,-0.0012628335569107,0.0012646169519384,0.70404422365401,128736,2834,0.0033684037532239,0.006059145704699,0.0060596077584305,15.705719495709,4.0845755965675e-05,4.0845755965675e-05,4.0845755965675e-05,2024512.3673267,0.015608125871216
24419200,0.9995150025657,0.016051424399896,0.0044875215654815,0.0057817405271568,0.0057821623072576,-0.0008099765245688,0.00081149406120344,7.6665991263498e-07,6.2608518016732e-07,4.4775915438667e-07,1.5363777854137e-06,-0.00087625134540882,0.00087722685147396,-0.00087621848453156,0.0008771618227004,-0.00087587629639726,0.00087787796405727,-0.00087631752151391,0.00087790503789721,-0.00094804147510795,0.00095015468471945,-0.00094880082957192,0.00095031256527984,5.9687725178164e-07,-4.858582942744e-07,1.5560369568576e-06,-5.8134159376776e-07,-0.0014627268459635,0.0014631360243361,-0.001554776701087,0.0015562723796838,-0.0015555004725723,0.0015554560307399,-0.0015550932192659,0.0015555929937252,-0.0015555191537732,0.0015545055578957,-0.0014541139963855,0.0014568401143334,-0.0014558283886374,0.0014541641407864,-0.0012675410863955,0.0012676961563563,-0.0012677005204626,0.0012657374792466,6.8814666239462e-07,7.4548011221581e-07,-0.0014622528846873,0.0014638283561416,-2.5441849702239e-07,1.9701525721337e-06,-0.0015551770715402,0.0015559134752388,-0.0015540069051575,0.0015562004453378,-0.0015551731223532,0.0015560042736652,-0.001554216599923,0.0015566381935212,-0.001265989710306,0.0012683729836626,-0.0012659810993163,0.0012677694206565,0.71549404729405,128736,2834,0.0033745585078595,0.0060765042233034,0.0060769566328942,17.881578696162,5.8252629569293e-05,5.8252629569293e-05,5.8252629569293e-05,2029010.1193437,0.015649626116723
25419200,0.99961155852476,0.016052984228304,0.0044879547849141,0.0057823038333139,0.0057827256100761,-0.00081137545075607,0.00081289816742957,7.6084114334917e-07,6.3688057614434e-07,4.4004785612291e-07,1.5504415126044e-06,-0.00087860012067751,0.00087956715857632,-0.00087856186623388,0.00087950908318405,-0.00087821863875215,0.00088022478445769,-0.00087865401067704,0.00088025927619223,-0.00094990535186309,0.00095201527690823,-0.00095064375886965,0.00095218527087698,6.0554256011033e-07,-4.9848750289752e-07,1.5393576955801e-06,-5.6752959661252e-07,-0.001468146621176,0.0014685517666395,-0.0015600323456551,0.0015615211570432,-0.0015607460407359,0.0015607149869835,-0.0015603566296527,0.0015608350682974,-0.0015607707379729,0.0015597552344434,-0.0014599373659103,0.0014626206810261,-0.001461618458613,0.0014599756780265,-0.0012724996760326,0.0012726828951087,-0.0012726778582679,0.0012706961001954,6.9587876592305e-07,7.36711251957e-07,-0.0014676734345653,0.001469248071748,-2.4002608755115e-07,1.9550361653058e-06,-0.0015604253979008,0.00156117525977,-0.0015592635581804,0.0015614517567353,-0.0015604274036528,0.0015612614014523,-0.0015594795908792,0.0015618847832354,-0.0012709748985371,0.001273336345398,-0.0012709518472315,0.0012727497934979,0.7506515719961,128736,2834,0.0033804064428263,0.0060989321837421,0.0060993944147599,19.926561128835,7.4612489030682e-05,7.4612489030682e-05,7.4612489030682e-05,2012386.714037,0.015701136744996
26419200,0.99969072653932,0.016054291321993,0.004488318272844,0.0057827756369107,0.0057831974122388,-0.00081026964078986,0.00081179750045613,7.5563367040157e-07,6.4949588962075e-07,4.2498247345211e-07,1.5724273608738e-06,-0.00087927279648977,0.00088022565657911,-0.00087922929439113,0.00088017879489718,-0.00087888303690635,0.00088088993678151,-0.0008793112839802,0.00088093638887815,-0.00094871604865746,0.00095082856477115,-0.00094942546034769,0.00095100212392587,6.1813043726289e-07,-5.2167835745911e-07,1.529491484226e-06,-5.6679799242346e-07,-0.0014712437559697,0.0014716387733087,-0.001562447557489,0.0015639349288436,-0.001563156963272,0.0015631322468141,-0.0015627841557791,0.0015632374867472,-0.0015631919374007,0.0015621585687688,-0.0014635959069432,0.0014662431553866,-0.00146526049726,0.0014636118740731,-0.0012757147609426,0.0012759270115259,-0.0012759294346741,0.0012738967759563,7.060150400888e-07,7.2945551337598e-07,-0.0014707644827745,0.0014723413682115,-2.3334377716405e-07,1.9512465429679e-06,-0.001562836302224,0.0015635955364808,-0.0015616751999263,0.0015638686720658,-0.0015628433540804,0.0015636755561372,-0.0015618993861534,0.0015642961475506,-0.0012742059882012,0.001276562687497,-0.0012741718155775,0.0012759943595529,0.76692112528045,128736,2834,0.0033758560083125,0.0061117232526932,0.0061121858999001,20.393280605255,7.8346244842042e-05,7.8346244842042e-05,7.8346244842042e-05,1973684.9837607,0.015722503645105
27419200,0.99975976276335,0.016055388119956,0.0044886215437805,0.0057831724009501,0.0057835941752258,-0.00081082586665935,0.00081233452096042,7.428194747938e-07,6.3990548270298e-07,4.687753838659e-07,1.5069979902757e-06,-0.00088104333724197,0.00088201252642869,-0.00088099828757472,0.00088196325919551,-0.00088068403402734,0.00088264746525874,-0.00088111300413115,0.00088268773210752,-0.00094967531089795,0.00095172741881464,-0.00095039566901425,0.00095191506042699,5.8264506669504e-07,-4.4891602233774e-07,1.5343623273858e-06,-5.3957832220436e-07,-0.0014756205877881,0.0014760492752498,-0.001566780478855,0.0015682559983719,-0.0015674819593464,0.0015674615939627,-0.0015670813899572,0.0015675935760602,-0.0015674828422342,0.0015665258943354,-0.0014680329914737,0.0014707302200159,-0.0014696854217948,0.0014681186027876,-0.0012799727798889,0.0012801227021997,-0.0012800782585838,0.001278209522373,6.4014007104121e-07,6.5877180109156e-07,-0.0014752257144599,0.0014766679111435,-2.8969266412414e-07,1.8715119508222e-06,-0.0015672209439369,0.0015678601932424,-0.0015660712080879,0.0015681244060147,-0.0015672316545647,0.0015679378652493,-0.0015662944599016,0.0015685501645594,-0.001278514261036,0.0012807113830958,-0.0012784693089117,0.0012801417150598,0.73788855816132,128736,2834,0.003378154210359,0.0061299068569403,0.0061303704037526,22.249487793028,9.3195902344224e-05,9.3195902344224e-05,9.3195902344224e-05,1958795.9740907,0.015761781211201
28419200,0.99981650825722,0.016056336046534,0.004488885860557,0.0057835142063637,0.0057839359796129,-0.00081103349110923,0.00081253670818816,7.4155330471236e-07,6.35966470677e-07,4.7441423645376e-07,1.492736419276e-06,-0.00088052607830929,0.00088149897273085,-0.00088048315850988,0.00088144534359449,-0.00088017363160234,0.00088213196669788,-0.00088060313464434,0.00088216683289662,-0.00095076332438228,0.00095280693614406,-0.00095149383372661,0.00095300139052124,5.7366179555595e-07,-4.38429078587e-07,1.521952180367e-06,-5.1739811544322e-07,-0.0014768732714535,0.0014773070385247,-0.0015688638547015,0.0015703247327683,-0.0015695517581436,0.0015695409610984,-0.001569157785373,0.0015696705271127,-0.001569546777747,0.001568609952669,-0.0014689473767896,0.001471633419014,-0.0014705626076177,0.0014690454358635,-0.001280412286721,0.0012805530825759,-0.0012804949899129,0.0012786645760491,6.5931575540548e-07,6.8010983467138e-07,-0.0014764624523701,0.0014779466638726,-2.507293825714e-07,1.8785111158039e-06,-0.0015692764010722,0.0015699648428897,-0.0015681357853637,0.0015702149935069,-0.0015692865795563,0.001570045555675,-0.0015683561813121,0.001570644564418,-0.0012789387908077,0.0012811584572425,-0.001278894306281,0.0012805868181551,0.77520834794461,128736,2834,0.003379011308572,0.0061351072978821,0.0061355812950783,23.439579026491,0.00010271663221193,0.00010271663221193,0.00010271663221193,1971372.0238761,0.015773224621473
29419200,0.99986261806773,0.016057019449108,0.0044890731261507,0.0057837622748348,0.0057841840481223,-0.00081138803877035,0.000812898237745,7.358205576582e-07,6.486562733947e-07,4.6023082832151e-07,1.5174578008021e-06,-0.00088266825717352,0.00088362733360227,-0.00088261747198303,0.00088358227663999,-0.00088230240840821,0.00088426813367192,-0.00088272492104043,0.00088431289497823,-0.00095122380796388,0.00095326822142352,-0.00095192370534474,0.00095346810504215,5.8913308788139e-07,-4.6153113763626e-07,1.5055251316048e-06,-5.1645533620846e-07,-0.0014817318177988,0.001482154579307,-0.0015730662049038,0.0015745255341846,-0.0015737519736069,0.0015737484848293,-0.0015733732832896,0.001573856817141,-0.0015737591362693,0.0015728063389908,-0.0014744381262571,0.0014770721015561,-0.0014760390189213,0.00147451255079,-0.0012851500288139,0.0012853300943907,-0.0012852748646707,0.001283395676522,6.7364049567982e-07,6.7715127630701e-07,-0.0014813088279904,0.0014828011642027,-2.3968025978112e-07,1.870724648883e-06,-0.0015734637254665,0.0015741737023648,-0.0015723307362611,0.001574421505257,-0.0015734792266358,0.0015742466498183,-0.0015725591109784,0.001574842214282,-0.0012836965846633,0.0012859142626261,-0.0012836368733739,0.0012853607021712,0.68889126564792,128736,2834,0.0033805340529267,0.0061551898696779,0.0061556530577903,24.778337361691,0.00011342669889353,0.00011342669889353,0.00011342669889353,1938504.4284554,0.015815564866696
30419200,0.99989929876821,0.016057553706116,0.0044892191990569,0.0057839563672031,0.0057843781398555,-0.00081266011615446,0.00081415648815978,7.5253239878344e-07,6.1889365122145e-07,4.9625410360272e-07,1.4647161157931e-06,-0.00088005647414771,0.00088104771511164,-0.00088002122026263,0.00088098748468098,-0.00087971939686483,0.00088165777168634,-0.00088015735172814,0.00088168714935901,-0.00095475046973575,0.00095679804226259,-0.00095550170318266,0.00095695702128982,5.6223956241081e-07,-4.002986265095e-07,1.5059646298605e-06,-4.8706513669964e-07,-0.0014804816382179,0.0014809377970979,-0.001574235728127,0.0015756910378269,-0.0015749111138002,0.0015749244240235,-0.001574515091114,0.0015750525741636,-0.0015748918481236,0.0015740129636448,-0.0014722314550945,0.0014748968330583,-0.0014738085356412,0.0014723672416818,-0.0012814463664004,0.0012815839958483,-0.0012814903541728,0.0012797445809573,6.2630173317193e-07,6.7613480550505e-07,-0.0014800987121384,0.0014815439895397,-2.494111063467e-07,1.8321100672675e-06,-0.0015746576145564,0.0015753159211106,-0.0015735358296801,0.0015755556619091,-0.0015746569335101,0.0015754038366507,-0.0015737478069132,0.0015759917497008,-0.0012799802361622,0.0012821835508665,-0.001279967905009,0.0012815860914642,0.67663456756646,128736,2834,0.0033857690792684,0.0061501058943363,0.0061505684125221,26.129009167386,0.00012423207333909,0.00012423207333909,0.00012423207333909,1999462.6264539,0.015810543585512
31419200,0.99992899230288,0.016058017833552,0.0044893478613908,0.0057841241000292,0.0057845458721318,-0.00081505938022548,0.00081655111739543,7.4722228128604e-07,6.1961038614229e-07,5.0527453455161e-07,1.4505709934989e-06,-0.00088210392536981,0.00088309639102878,-0.00088206630982407,0.00088303763275387,-0.00088177415713089,0.00088369836718614,-0.00088220958640749,0.0008837293748742,-0.00095808296804909,0.0009601118423805,-0.00095882717671291,0.00096027635377974,5.5535267392211e-07,-3.8416785949085e-07,1.4891870751639e-06,-4.6174911915553e-07,-0.0014850241344702,0.0014854892437924,-0.00157925370455,0.0015806969349472,-0.0015799160324438,0.0015799445519031,-0.0015795257902928,0.0015800662757689,-0.0015798897298432,0.0015790409341536,-0.0014768362068585,0.0014794765464855,-0.0014783731111261,0.0014769893471065,-0.0012850142051521,0.0012851522432501,-0.0012850364799179,0.001283336051713,6.3580834283483e-07,6.7989616257053e-07,-0.0014846393501084,0.0014860971756282,-2.2302875966118e-07,1.8171972996169e-06,-0.0015796560168717,0.0015803421962106,-0.0015785480907352,0.0015805686430405,-0.0015796569692278,0.0015804282187491,-0.0015787617965342,0.001581002803902,-0.0012835522587298,0.0012857489707742,-0.0012835341062913,0.0012851575204751,0.72615477742137,128736,2834,0.0033957387951402,0.0061689351785843,0.0061693974433949,28.436007572605,0.00014268806058084,0.00014268806058084,0.00014268806058084,2008293.0169231,0.015858924776329
32419200,0.99995068855748,0.016058373865891,0.0044894470599669,0.0057842525171179,0.0057846742888062,-0.00081506040998641,0.00081656159955865,7.2855459574286e-07,6.4684289085688e-07,4.859809205411e-07,1.4817868067263e-06,-0.00088504630341104,0.00088601467371497,-0.00088499300023804,0.00088597036373426,-0.0008846990315128,0.00088663449083404,-0.00088511857816229,0.00088668045815599,-0.00095729923413123,0.00095930921150215,-0.00095799079722919,0.0009595127129551,5.6995672886911e-07,-4.1990136659348e-07,1.4781879290267e-06,-4.6967216300301e-07,-0.0014903590637007,0.0014908032252773,-0.0015830808180416,0.001584518169984,-0.0015837435985198,0.001583766806299,-0.0015833688810829,0.001583869945027,-0.0015837324633443,0.0015828454283205,-0.0014832387436346,0.0014858387458225,-0.0014847704967544,0.001483356068914,-0.001291110869414,0.0012912790908201,-0.0012911789878434,0.0012894035511735,6.71128693666e-07,6.6954584352205e-07,-0.0014899518420683,0.0014914333930266,-2.0963299406105e-07,1.8273400186704e-06,-0.0015834599783277,0.0015841862289965,-0.0015823525088441,0.001584410741942,-0.0015834771005271,0.0015842570445471,-0.0015825826698542,0.0015848292405831,-0.0012896717459048,0.0012918511630209,-0.0012896076105666,0.0012913042726506,0.76213984990413,128736,2834,0.0033958002754991,0.0061909627387203,0.0061914245700217,29.294486928929,0.00014955589543143,0.00014955589543143,0.00014955589543143,1954517.2446651,0.015903748712502
33419200,0.99996576976824,0.016058624189388,0.0044895167960113,0.0057843428109862,0.0057847645823906,-0.00081326365365365,0.00081475474630712,7.1741008108511e-07,6.4797588908031e-07,5.0883337242761e-07,1.4476530023131e-06,-0.00088502934358195,0.00088600287957877,-0.00088497290049211,0.00088596443186024,-0.00088470139128889,0.0008866040992006,-0.00088511757514678,0.00088665388609011,-0.00095521469406027,0.00095718365400084,-0.00095589873028115,0.00095740075397216,5.5067664474339e-07,-3.8175893714727e-07,1.5174550802655e-06,-4.9019001646657e-07,-0.0014918592012066,0.0014923210723911,-0.0015839784304853,0.0015854325473424,-0.0015846588401023,0.0015846607042251,-0.0015842478408852,0.0015848033478345,-0.0015846282441212,0.0015837582004692,-0.0014849920585344,0.0014876894448643,-0.0014865806057874,0.0014851444978811,-0.0012931036755734,0.0012932125938592,-0.0012931131352429,0.0012913987433154,6.5383042960089e-07,6.3924232742157e-07,-0.0014914842882049,0.0014929198062463,-2.6091394524465e-07,1.83480303233e-06,-0.0015843959335573,0.0015850610933421,-0.0015832682265923,0.0015853041305771,-0.0015844174696821,0.0015851276118972,-0.0015835023499383,0.001585718802781,-0.0012916559169933,0.0012937927816642,-0.0012915786624967,0.0012932561280226,0.77028159813362,128736,2834,0.0033883424441971,0.006197197463424,0.0061976611049515,29.317261990342,0.00014973809592274,0.00014973809592274,0.00014973809592274,1920703.4127319,0.015908846265986
34419200,0.99997718175231,0.01605880660543,0.0044895673870887,0.0057844087235648,0.0057848304947766,-0.00081464088507793,0.00081614132243854,7.1580367133144e-07,6.5982480791725e-07,4.9714922013952e-07,1.4709766026937e-06,-0.00088715712891952,0.00088812418192616,-0.00088709956879687,0.00088809606647128,-0.00088682641123403,0.00088873414213516,-0.00088723758386164,0.00088879606838559,-0.00095708705034091,0.00095906545260081,-0.00095775289008809,0.00095929466047212,5.4939533039031e-07,-4.1571702067239e-07,1.487316612981e-06,-4.7680768814738e-07,-0.0014963439203938,0.0014967779218597,-0.0015886058076653,0.001590029339693,-0.0015892677863844,0.0015892687342983,-0.001588885748107,0.0015893905222583,-0.0015892443028706,0.0015883467967241,-0.0014894835307567,0.0014921117419614,-0.0014910084395958,0.0014895998387698,-0.0012972967203425,0.0012974145886234,-0.0012973286390316,0.0012955498018047,6.9499655620807e-07,6.6651741362866e-07,-0.0014959257171368,0.00149743461768,-1.998702570038e-07,1.8556836713626e-06,-0.0015889783658419,0.0015897271043572,-0.001587854679737,0.0015899520906187,-0.0015890057405425,0.0015897940434991,-0.0015880964161041,0.0015903670126174,-0.001295830037447,0.0012980169633976,-0.0012957457874585,0.0012974987582693,0.74169710772154,128736,2834,0.0033941045142667,0.0062157019303127,0.0062161959638422,31.480106610253,0.00016704085288202,0.00016704085288202,0.00016704085288202,1916082.79855,0.015952330851325
35419200,0.99998613170511,0.016058944763287,0.0044896055377664,0.0057844587269762,0.0057848804985446,-0.00082011649004015,0.00082161789414652,7.0673059077707e-07,6.6618933338898e-07,5.1705744221703e-07,1.4551893989779e-06,-0.00089212070485757,0.00089309445773607,-0.00089205675315975,0.00089306293405523,-0.00089179865133097,0.00089370205820442,-0.00089220896951451,0.00089376451117383,-0.00096378842682456,0.00096574098975475,-0.00096446090335653,0.00096600735830323,5.26162611669e-07,-4.0493529506411e-07,1.4413997528091e-06,-4.2594388717892e-07,-0.0015043498031576,0.0015047790167249,-0.0015974163894934,0.0015987920884898,-0.0015980471275789,0.0015980605153726,-0.0015976822667176,0.0015981649885274,-0.0015980102413829,0.0015971455336975,-0.0014973210611843,0.0014998879366791,-0.0014987500784043,0.0014974549517261,-0.0013042037275056,0.0013043019563412,-0.0013041835239245,0.0013024565179386,7.2902840906335e-07,6.8649220861077e-07,-0.0015039051031356,0.0015054738660753,-1.21077174555e-07,1.84156440055e-06,-0.0015977299847248,0.0015985743179957,-0.001596634274523,0.0015987592817158,-0.0015977659277486,0.0015986410403291,-0.0015968778119166,0.001599173594036,-0.0013027254025453,0.0013049095420442,-0.0013026252891496,0.0013044030467193,0.71641844387547,128736,2834,0.0034168620938736,0.0062488425162147,0.0062493606933298,35.925106723945,0.00020260085379156,0.00020260085379156,0.00020260085379156,1945882.9528151,0.016042816368642
36419200,0.99999186273932,0.016059034984215,0.0044896305076136,0.0057844913522659,0.005784913124335,-0.00082162396492118,0.00082310994448208,7.0190300607126e-07,6.5910792585028e-07,5.1538846287424e-07,1.4346927646235e-06,-0.00089245828687978,0.00089342507567904,-0.00089239245968654,0.00089339464533852,-0.0008921365232329,0.00089401848962735,-0.00089254281948579,0.00089407653068764,-0.00096662431817397,0.00096855565828944,-0.00096728230558092,0.00096879982411803,5.4635159475619e-07,-3.6688067488087e-07,1.4499061439563e-06,-4.1325503024575e-07,-0.0015067327340527,0.0015072053453558,-0.0016006430770241,0.0016020553292351,-0.001601277397351,0.0016013321696392,-0.00160090664455,0.0016014332436455,-0.0016012416864634,0.0016004367908851,-0.0014996612006162,0.0015022336120258,-0.001501110685061,0.0014998322859224,-0.0013050723741043,0.0013052205548282,-0.0013050662966821,0.0013034291923708,6.6933485777472e-07,6.2875002173923e-07,-0.0015063613793907,0.0015078008927427,-1.8905376841524e-07,1.7644541279755e-06,-0.0016010116676657,0.0016017359964059,-0.0015999317089096,0.0016019330631788,-0.0016010410615773,0.0016017940763793,-0.0016001738994181,0.0016023392776238,-0.0013036798594294,0.0013057469535254,-0.0013035780671972,0.0013052376026787,0.73065039159811,128736,2834,0.0034230992804867,0.0062588052805923,0.0062592696713473,37.478875595867,0.00021503100476694,0.00021503100476694,0.00021503100476694,1961972.5171017,0.016069342086946
37419200,0.9999952476837,0.016059087448713,0.0044896449983788,0.0057845103391603,0.0057849321111743,-0.00082086037887515,0.00082235432573445,6.9728713090705e-07,6.7402085312494e-07,5.055588719596e-07,1.4532742898339e-06,-0.00089260252469298,0.0008935601351332,-0.00089253049957695,0.0008935382039005,-0.00089227290254159,0.00089415986841652,-0.00089267166882162,0.0008942280538262,-0.00096582627878438,0.00096775925528403,-0.00096645629563423,0.00096801393859168,5.5464125483274e-07,-3.8672756433561e-07,1.4466471535029e-06,-4.2035762127436e-07,-0.0015083163224862,0.0015087780455513,-0.0016018707928283,0.0016032829754369,-0.0016025063996661,0.0016025586366282,-0.0016021436898425,0.0016026520188401,-0.0016024795925242,0.0016016530850117,-0.0015016106292138,0.0015041653089634,-0.001503062904953,0.0015017634631187,-0.0013066295706776,0.0013067934954562,-0.0013066528056048,0.0013049698300543,6.8718666404332e-07,6.2719329941855e-07,-0.0015079314867859,0.0015093860090512,-1.8341327156472e-07,1.773631584131e-06,-0.0016022305830819,0.0016029742229391,-0.0016011483073664,0.001603172452223,-0.0016022659600912,0.0016030252503544,-0.0016013981742538,0.0016035716906118,-0.001305240541329,0.0013073134255384,-0.0013051248360228,0.0013068268210845,0.71959281425477,128736,2834,0.0034199622117891,0.0062653325538883,0.0062657947361773,37.680188798337,0.00021664151038669,0.00021664151038669,0.00021664151038669,1940555.2940084,0.016079419186686
38419200,0.9999971933667,0.016059118725789,0.0044896536876156,0.0057845216330969,0.0057849434050768,-0.00081924551093072,0.00082073537627956,6.9492672409864e-07,6.6984852268799e-07,5.0381770930194e-07,1.45101225761e-06,-0.0008906537858799,0.00089160892607358,-0.00089058236932935,0.00089158491795092,-0.00089032291576985,0.00089221187239093,-0.00089072340476438,0.00089227580314397,-0.00096454426552077,0.00096647217544562,-0.00096518424437694,0.00096673227690343,5.5447838959751e-07,-3.8653969795682e-07,1.4573588699555e-06,-4.3245727341094e-07,-0.0015071328616946,0.0015075937796053,-0.001600965788337,0.0016023837074252,-0.0016016080756846,0.0016016517213437,-0.0016012380314837,0.0016017521651976,-0.0016015808736778,0.0016007466089328,-0.0015003614537375,0.0015029384027662,-0.0015018372991588,0.0015005111702248,-0.001305056904704,0.0013052129398014,-0.0013050771937284,0.0013033926359426,6.6247625626926e-07,6.0391081079299e-07,-0.001506771217713,0.0015081796817499,-2.1724682761281e-07,1.7620830615543e-06,-0.0016013531089101,0.0016020444726279,-0.0016002645389083,0.0016022497188553,-0.0016013890550829,0.0016020966918861,-0.0016005129940253,0.0016026500206303,-0.0013036878038925,0.0013057157052707,-0.0013035688665959,0.0013052237330212,0.7458304285499,128736,2834,0.0034132498710118,0.0062604321923354,0.0062608967172494,37.196433239794,0.00021277146591835,0.00021277146591835,0.00021277146591835,1936236.46492,0.016062641911421
38880000,0.99999787279158,0.016059129708873,0.0044896567432905,0.0057845255968066,0.0057849473687756,-0.00081855582267897,0.00082004229844236,6.8657618614715e-07,6.7444188162583e-07,5.1345964184879e-07,1.4380809360218e-06,-0.00089126507919104,0.00089221976496425,-0.00089118952599238,0.00089220034720911,-0.00089094151441492,0.00089281556645659,-0.00089133735313772,0.0008928834689207,-0.0009634486593309,0.00096535252243319,-0.00096407462923824,0.00096562389884139,5.4673708549739e-07,-3.7160477908209e-07,1.5363018982349e-06,-5.0401192674244e-07,-0.0015083795664973,0.001508847152143,-0.0016015968105277,0.0016030629899826,-0.0016022877528863,0.0016022803811037,-0.0016018617929685,0.0016024387556028,-0.0016022529297477,0.0016013826065759,-0.0015018525116539,0.0015045917194633,-0.0015034730363577,0.0015020148849807,-0.0013068006856916,0.0013068911420277,-0.0013067971897422,0.0013050916365381,6.9523995972887e-07,6.2370732158566e-07,-0.0015079949055096,0.0015094560009476,-2.6432288484242e-07,1.8640341158531e-06,-0.0016020042225085,0.0016027024330358,-0.0016008658461588,0.0016029568925886,-0.0016020446166878,0.0016027501659083,-0.0016011188455851,0.0016033528013351,-0.0013053539684965,0.0013074717546063,-0.0013052214644355,0.0013069915305299,0.74998939209368,128736,2834,0.0034103934862502,0.0062655987446191,0.0062660631195703,37.193663086548,0.00021274930469238,0.00021274930469238,0.00021274930469238,1913308.5522305,0.016070242103499
