time,ASR_ext,ASR_strain,ASR_strain_xx,ASR_strain_yy,ASR_strain_zz,disp_x_101,disp_x_102,disp_x_103,disp_x_104,disp_x_105,disp_x_106,disp_x_p1_neg,disp_x_p1_pos,disp_x_p2_neg,disp_x_p2_pos,disp_x_p3_neg,disp_x_p3_pos,disp_x_p4_neg,disp_x_p4_pos,disp_x_p5_neg,disp_x_p5_pos,disp_x_p6_neg,disp_x_p6_pos,disp_y_101,disp_y_102,disp_y_103,disp_y_104,disp_y_105,disp_y_106,disp_y_p1_neg,disp_y_p1_pos,disp_y_p2_neg,disp_y_p2_pos,disp_y_p3_neg,disp_y_p3_pos,disp_y_p4_neg,disp_y_p4_pos,disp_y_p5_neg,disp_y_p5_pos,disp_y_p6_neg,disp_y_p6_pos,disp_y_p7_neg,disp_y_p7_pos,disp_y_p8_neg,disp_y_p8_pos,disp_z_101,disp_z_102,disp_z_103,disp_z_104,disp_z_105,disp_z_106,disp_z_p1_neg,disp_z_p1_pos,disp_z_p2_neg,disp_z_p2_pos,disp_z_p3_neg,disp_z_p3_pos,disp_z_p4_neg,disp_z_p4_pos,disp_z_p5_neg,disp_z_p5_pos,disp_z_p6_neg,disp_z_p6_pos,humidity,ndof,nelem,strain_xx,strain_yy,strain_zz,temp,thermal_strain_xx,thermal_strain_yy,thermal_strain_zz,vonmises,vstrain
2419200,0,0,0,0,0,0,0,0,0,0,0,0,0,0,0,0,0,0,0,0,0,0,0,0,0,0,0,0,0,0,0,0,0,0,0,0,0,0,0,0,0,0,0,0,0,0,0,0,0,0,0,0,0,0,0,0,0,0,0,0,0,0,0,0,0,0,0,0,0,0,0,0,0,0,0
3419200,0.15854613080598,0.0030016159569636,0.0010005386523212,0.0010005386523212,0.0010005386523212,-0.0002838234233613,0.00028382342335965,-6.1049605564691e-16,-7.5472694360994e-16,4.7687513767424e-16,-3.1773661689387e-15,-0.00028601445126447,0.00028601445127562,-0.00028601504152491,0.00028601504152359,-0.00028601445714689,0.00028601445715605,-0.00028601503563579,0.00028601503563667,-0.00027963217698441,0.00027963217698905,-0.00027963269068702,0.00027963269070028,-4.2891336757927e-15,-5.966784056159e-16,-4.5840536076436e-10,4.5840067178627e-10,-0.0002838234233623,0.00028382342335859,-0.00028601464504119,0.00028601430953917,-0.00028601484775569,0.00028601518325232,-0.0002860146450338,0.00028601430953373,-0.00028601484775808,0.00028601518326365,-0.00027963265812112,0.00027963177157017,-0.00027963220955351,0.00027963309610539,-0.00028297667784521,0.0002829769940096,-0.00028297667783526,0.00028297699400784,-2.8459267365532e-09,-2.8459265926314e-09,-0.00026810574062107,0.00026809838196882,-2.3138504096384e-09,-3.2864413724058e-09,-0.0002721351011092,0.00027212927164169,-0.00027213543442273,0.0002721289383377,-0.00027213510110895,0.00027212927164845,-0.00027213543441715,0.00027212893834604,-0.00027123371331888,0.00027122744746036,-0.00027123371332004,0.00027122744747585,0.75746877217741,120135,2834,0.0011818960010783,0.0011818960010782,0.0011164681926762,31.790822006564,0.00016952657605251,0.00016952657605251,0.00016952657605251,1072497.7815524,0.0034863246997444
4419200,0.35032263177236,0.0065066223038567,0.0022213340137969,0.0022213340138035,0.0020639542762563,-0.00058476191656797,0.0005847619165639,-2.8853824417823e-15,-2.9002349292255e-15,-1.318915590387e-15,-6.5379767398867e-15,-0.0005946767167548,0.0005946767167707,-0.00059467869491259,0.00059467869491334,-0.00059467674412263,0.00059467674412995,-0.00059467866753392,0.00059467866753024,-0.00056483708202792,0.00056483708202564,-0.0005648388431814,0.00056483884318331,-4.020788932364e-15,-2.0710880968678e-15,-1.2405872482245e-09,1.2405786706502e-09,-0.00058476191657077,0.00058476191656435,-0.00059467727408219,0.0005946763525334,-0.00059467813760526,0.00059467905914063,-0.00059467727406683,0.00059467635251719,-0.00059467813760458,0.00059467905914753,-0.00056483840795771,0.00056483600720736,-0.0005648375172368,0.00056483991800338,-0.00058364433313785,0.00058364519827778,-0.00058364433312764,0.00058364519828027,-6.8619977088398e-09,-6.8619974318358e-09,-0.00050902688829828,0.00050901034626373,-5.3308308674012e-09,-8.0493125992607e-09,-0.00052024629663586,0.00052023229825698,-0.00052024723632364,0.0005202313585915,-0.00052024629663777,0.00052023229826922,-0.00052024723631293,0.00052023135860079,-0.00052723529199358,0.00052722036732777,-0.0005272352919929,0.00052722036733819,0.73992840791513,120135,2834,0.002433529419026,0.0024335294190328,0.0021186955112267,33.599136409017,0.00018399309127214,0.00018399309127214,0.00018399309127214,2087258.2720645,0.0070102231193681
5419200,0.55089185450136,0.010068723469009,0.0035121158256624,0.0035121158256684,0.0030444918176779,-0.00090620262262114,0.00090620262261954,-9.9438138703708e-17,-4.7880890212847e-17,6.7252357251356e-16,-4.9153498394364e-15,-0.00092766785709601,0.00092766785709795,-0.0009276691986885,0.00092766919869107,-0.00092766789745732,0.00092766789745665,-0.00092766915832427,0.00092766915831739,-0.00085922789994032,0.00085922789994209,-0.0008592281783349,0.00085922817834031,-3.8074425087743e-15,-1.3261310179386e-15,-4.4409841836086e-10,4.4409009282676e-10,-0.00090620262262468,0.00090620262261926,-0.00092766810132535,0.00092766776158563,-0.00092766895447363,0.00092766929420089,-0.00092766810131623,0.00092766776158002,-0.00092766895447742,0.00092766929420055,-0.00085922836695653,0.00085922753230357,-0.00085922771130541,0.00085922854597594,-0.00090788815196132,0.00090788851875138,-0.0009078881519602,0.00090788851876208,-3.9843706579309e-09,-3.9843703861315e-09,-0.00072479286902647,0.00072478279451841,-3.2762878992271e-09,-4.4190556539714e-09,-0.00074410877855198,0.00074409951055788,-0.00074410918030822,0.00074409910881671,-0.00074410877855455,0.00074409951056323,-0.00074410918029591,0.00074409910882335,-0.00076856893857301,0.00076856052481708,-0.00076856893857585,0.00076856052482835,0.72499638738019,120135,2834,0.0037686787048547,0.0037686787048615,0.0030155747044894,36.267290522762,0.00020533832418209,0.00020533832418209,0.00020533832418209,2713339.7490509,0.010608843257417
6419200,0.70737401862606,0.012346916658927,0.0043667856928116,0.004366785692813,0.0036133452733026,-0.0011192984898702,0.0011192984898653,-1.821944340851e-15,-1.8535022003095e-15,-1.1295537282031e-15,-6.7076774379998e-15,-0.0011585982416295,0.0011585982416305,-0.0011585993755946,0.0011585993755945,-0.0011585982761313,0.0011585982761279,-0.0011585993410921,0.0011585993410819,-0.0010391629783233,0.0010391629783217,-0.0010391631998925,0.0010391631998938,-4.3621608566272e-15,-3.2367662959416e-15,-2.3788907121329e-10,2.3787720615802e-10,-0.0011192984898717,0.0011192984898645,-0.0011585983687995,0.0011585981987443,-0.0011585992484391,0.0011585994184778,-0.0011585983687883,0.0011585981987357,-0.0011585992484425,0.001158599418479,-0.0010391631993796,0.0010391627724736,-0.0010391629788195,0.0010391634057314,-0.0011201721428353,0.0011201723722359,-0.0011201721428328,0.0011201723722429,-3.447057155205e-09,-3.4470569555115e-09,-0.00083396545651453,0.00083395704977026,-3.0120644542926e-09,-3.6901163340672e-09,-0.00086364743462188,0.0008636395064831,-0.00086364767137803,0.00086363926974339,-0.0008636474346241,0.00086363950648971,-0.00086364767136699,0.00086363926974929,-0.00089840613199765,0.00089839913083232,-0.00089840613200018,0.00089839913084313,0.59839168540088,120135,2834,0.0046527904766766,0.0046527904766781,0.00346923119669,36.738501437507,0.00020910801150005,0.00020910801150005,0.00020910801150005,3096963.3553032,0.012856851547718
7419200,0.83258641720589,0.013939550637496,0.004967785533751,0.0049677855337507,0.0040039795699943,-0.0012779675376256,0.0012779675376214,-1.6265973673905e-15,-1.6903601253644e-15,-8.7029694243757e-16,-6.5598878352236e-15,-0.0013346973056513,0.0013346973056531,-0.001334698467582,0.0013346984675825,-0.001334697339696,0.0013346973396944,-0.0013346984335335,0.0013346984335239,-0.001167192040415,0.0011671920404148,-0.0011671924020808,0.0011671924020833,-3.5426564801587e-15,-2.7635062822028e-15,-1.8666336644102e-10,1.8665330796515e-10,-0.0012779675376268,0.0012779675376209,-0.0013346974213173,0.0013346972826672,-0.0013346983519281,0.0013346984905665,-0.0013346974213071,0.0013346972826574,-0.0013346983519302,0.0013346984905663,-0.0011671922271827,0.0011671918996598,-0.0011671922153008,0.0011671925428301,-0.0012780892033427,0.0012780893977433,-0.0012780892033413,0.0012780893977517,-3.9483143561621e-09,-3.9483140953911e-09,-0.00090337735501801,0.00090336769008367,-3.5499043713288e-09,-4.1306493587916e-09,-0.00093865792380882,0.00093864893685496,-0.0009386581297789,0.00093864873090362,-0.00093865792381159,0.00093864893686246,-0.00093865812976792,0.00093864873090832,-0.00098764795130517,0.00098763990737539,-0.00098764795130822,0.0009876399073857,0.52694121020036,120135,2834,0.0053105678572971,0.0053105678572987,0.0037576874287657,40.761817997496,0.00024129454397997,0.00024129454397997,0.00024129454397997,3168308.6953074,0.014482861783039
8419200,0.90809243241103,0.014798645128051,0.0052921718365388,0.0052921718365383,0.0042143014549738,-0.0013641189649792,0.0013641189649754,-1.4118392222221e-15,-1.5382471252533e-15,-5.8592327691667e-16,-6.4063631135338e-15,-0.0014314606644376,0.0014314606644401,-0.0014314615838855,0.0014314615838867,-0.0014314606961267,0.001431460696125,-0.0014314615521946,0.0014314615521846,-0.0012326800770593,0.0012326800770581,-0.0012326803410221,0.0012326803410244,-2.8506187979054e-15,-1.9847591624663e-15,3.4001257155223e-12,-3.408867751136e-12,-0.0013641189649796,0.0013641189649748,-0.0014314607022508,0.0014314607012762,-0.0014314615460862,0.0014314615470484,-0.0014314607022405,0.0014314607012669,-0.0014314615460877,0.0014314615470487,-0.0012326800694218,0.001232680109451,-0.0012326803486441,0.0012326803086244,-0.0013649951589423,0.0013649952224895,-0.0013649951589402,0.0013649952224975,-2.93774193646e-09,-2.9377416339802e-09,-0.00092381700462453,0.00092381001023054,-2.755240538484e-09,-2.934216870174e-09,-0.00096379359725636,0.00096378675186598,-0.00096379366611975,0.00096378668301872,-0.00096379359725852,0.00096378675187321,-0.00096379366610952,0.00096378668302438,-0.0010226436407619,0.0010226378621829,-0.0010226436407636,0.0010226378621936,0.47156008474719,120135,2834,0.0056675128454228,0.0056675128454225,0.0038428005637367,41.433270376097,0.00024666616300877,0.00024666616300877,0.00024666616300877,3017536.478867,0.015293813382558
9419200,0.94986405198435,0.015208980969187,0.0054468665904848,0.0054468665904841,0.004315247788218,-0.0014061675723958,0.0014061675723916,-1.7191239525315e-15,-1.8327675396215e-15,-5.7627651279517e-16,-6.7369412498928e-15,-0.0014795587523411,0.0014795587523436,-0.0014795595374201,0.0014795595374209,-0.0014795587830514,0.0014795587830492,-0.0014795595067086,0.0014795595066984,-0.0012621051911045,0.0012621051911034,-0.0012621054007117,0.0012621054007136,-3.244136187984e-15,-2.0731409408644e-15,2.5917614696995e-10,-2.5918534533032e-10,-0.0014061675723961,0.0014061675723908,-0.0014795586997781,0.0014795588729262,-0.0014795595899964,0.0014795594168347,-0.0014795586997676,0.0014795588729169,-0.0014795595899976,0.0014795594168352,-0.0012621049298377,0.0012621054693382,-0.0012621056619624,0.0012621051224705,-0.0014079523276421,0.0014079522191278,-0.0014079523276391,0.0014079522191359,-2.3869269314544e-09,-2.3869266518234e-09,-0.00092285645613652,0.00092285086602654,-2.4700587625474e-09,-2.128581527369e-09,-0.00096652621891199,0.00096652043181721,-0.00096652611318396,0.00096652053756075,-0.00096652621891436,0.00096652043182453,-0.00096652611317406,0.00096652053756657,-0.0010307016329715,0.0010306971829217,-0.0010307016329731,0.0010306971829317,0.40621133923259,120135,2834,0.0058416676384272,0.0058416676384261,0.0038390142478043,41.145407270494,0.00024436325816396,0.00024436325816396,0.00024436325816396,2853221.0542346,0.015643698839393
10419200,0.97075205619513,0.015430454254011,0.0055295021674037,0.0055295021674029,0.0043714499192045,-0.0014232325835448,0.0014232325835408,-1.5877750239747e-15,-1.7189474873342e-15,-4.671327882375e-16,-6.763087509966e-15,-0.0014992139654817,0.0014992139654844,-0.0014992144753404,0.0014992144753413,-0.0014992139938684,0.0014992139938662,-0.0014992144469529,0.0014992144469426,-0.0012726901365366,0.0012726901365356,-0.0012726902193295,0.0012726902193312,-2.8614419966759e-15,-1.5635848737208e-15,6.8501231265656e-10,-6.8502036527453e-10,-0.0014232325835448,0.0014232325835405,-0.0014992137553567,0.0014992142236308,-0.0014992146854781,0.0014992142171923,-0.001499213755346,0.0014992142236217,-0.0014992146854793,0.0014992142171929,-0.0012726894463269,0.0012726908159683,-0.0012726909095219,0.0012726895398917,-0.0014261389300492,0.0014261385337615,-0.0014261389300464,0.0014261385337698,-1.1015739102639e-09,-1.1015736170939e-09,-0.00091567859118402,0.0009156762162336,-1.6398779911177e-09,-4.2259538555988e-10,-0.00096067164643149,0.00096066840624499,-0.00096067124509266,0.00096066880759907,-0.00096067164643376,0.0009606684062523,-0.00096067124508274,0.00096066880760469,-0.0010291594159652,0.0010291579395952,-0.0010291594159669,0.0010291579396055,0.43665130715676,120135,2834,0.0059123323149376,0.005912332314937,0.0038093458642914,38.099805936423,0.00021999844749138,0.00021999844749138,0.00021999844749138,2762119.7838823,0.01575712026388
11419200,0.98281134265159,0.015549019373585,0.0055737109056182,0.0055737109056173,0.0044015975623494,-0.0014370375401307,0.0014370375401268,-1.49371907379e-15,-1.6408910483754e-15,-4.3048684892226e-16,-6.8351735430813e-15,-0.0015139369585425,0.0015139369585454,-0.0015139376641299,0.001513937664131,-0.0015139369898876,0.0015139369898856,-0.0015139376327842,0.0015139376327741,-0.0012829235490033,0.0012829235490024,-0.0012829237221286,0.0012829237221305,-3.3174868883469e-15,-1.9051157430365e-15,8.6169937581073e-10,-8.6170822683532e-10,-0.001437037540131,0.0014370375401261,-0.0015139367113375,0.0015139372815261,-0.0015139379113482,0.0015139373411469,-0.0015139367113267,0.0015139372815171,-0.0015139379113493,0.0015139373411476,-0.0012829227030376,0.0012829244245481,-0.0012829245680785,0.0012829228465783,-0.0014408912759362,0.0014408907668096,-0.0014408912759334,0.001440890766818,-2.0203310581833e-09,-2.020330745959e-09,-0.00090827227754131,0.00090826759634094,-2.6962361952615e-09,-1.1548210860821e-09,-0.00095788825022711,0.00095788284715064,-0.00095788774627267,0.00095788335112094,-0.00095788825022934,0.00095788284715805,-0.00095788774626255,0.00095788335112652,-0.0010248879451599,0.0010248846640909,-0.001024887945162,0.0010248846641013,0.40445605707229,120135,2834,0.0059694739960308,0.0059694739960301,0.0037787204183326,37.628067497129,0.00021622453997703,0.00021622453997703,0.00021622453997703,2624658.0492595,0.015842113526618
12419200,0.98972696767397,0.015625425351148,0.0056019896055741,0.0056019896055732,0.0044214461400009,-0.0014436039228878,0.0014436039228839,-1.5428352203842e-15,-1.6887131168558e-15,-3.772237701904e-16,-6.8453497027948e-15,-0.0015214382007877,0.0015214382007904,-0.0015214388606278,0.0015214388606288,-0.0015214382320148,0.0015214382320126,-0.0015214388294,0.0015214388293898,-0.0012867984284613,0.0012867984284603,-0.0012867985818921,0.0012867985818939,-3.0362013637795e-15,-1.5671912663054e-15,1.0034923518302e-09,-1.0035004732365e-09,-0.0014436039228879,0.0014436039228835,-0.0015214379055616,0.0015214385708352,-0.0015214391558667,0.0015214384905814,-0.0015214379055508,0.0015214385708261,-0.0015214391558679,0.001521438490582,-0.0012867974431911,0.0012867994423455,-0.001286799567145,0.0012867975680022,-0.0014480117677318,0.0014480111639088,-0.0014480117677289,0.0014480111639172,-1.8257747130814e-09,-1.8257744009924e-09,-0.00090424874854584,0.00090424456281204,-2.6452739573876e-09,-8.1820411142603e-10,-0.00095445381678866,0.00095444875325395,-0.00095445321748298,0.0009544493525751,-0.00095445381679096,0.00095444875326121,-0.00095445321747292,0.00095444935258075,-0.0010234018683756,0.0010233990925984,-0.0010234018683775,0.0010233990926087,0.45322610794666,120135,2834,0.0059966596318707,0.00599665963187,0.0037620769132876,36.80405563858,0.00020963244510864,0.00020963244510864,0.00020963244510864,2578400.8048668,0.01588043997728
13419200,0.99358908250456,0.015664505767504,0.0056164729792586,0.0056164729792577,0.004431559808988,-0.0014459436513635,0.0014459436513593,-1.6925365294649e-15,-1.838473247669e-15,-4.3463378105986e-16,-6.9442584459065e-15,-0.0015238397512332,0.0015238397512357,-0.0015238402940071,0.001523840294008,-0.0015238397816416,0.0015238397816393,-0.001523840263598,0.0015238402635877,-0.0012877722641927,0.0012877722641914,-0.0012877723494311,0.0012877723494327,-3.0420247152919e-15,-1.524296953995e-15,1.1958594999215e-09,-1.1958674959917e-09,-0.0014459436513634,0.001445943651359,-0.0015238393862173,0.0015238401838823,-0.0015238406590357,0.0015238398613589,-0.0015238393862064,0.0015238401838732,-0.0015238406590369,0.0015238398613595,-0.0012877710860882,0.0012877734605985,-0.0012877735275182,0.0012877711530193,-0.0014509192526712,0.0014509185190851,-0.0014509192526681,0.0014509185190935,-1.2666003061015e-09,-1.2665999929161e-09,-0.0008940911420054,0.00089408836987815,-2.2888610112349e-09,-6.8685710036942e-11,-0.00094803386751872,0.00094802986765675,-0.00094803313598307,0.00094803059920767,-0.00094803386752113,0.00094802986766408,-0.00094803313597302,0.00094803059921336,-0.0010145890830419,0.0010145876134622,-0.0010145890830436,0.0010145876134724,0.4150894025916,120135,2834,0.0060063209414414,0.0060063209414407,0.003719995390813,34.794086321606,0.00019355269057285,0.00019355269057285,0.00019355269057285,2490250.5078163,0.015857328921559
14419200,0.99581902837934,0.015685350103701,0.0056241868118386,0.0056241868118377,0.0044369764800242,-0.0014437817302062,0.0014437817302021,-1.6331265796923e-15,-1.7727693725243e-15,-4.1469321375992e-16,-6.9421408635384e-15,-0.0015224803836218,0.0015224803836245,-0.0015224809028533,0.0015224809028543,-0.0015224804142515,0.0015224804142493,-0.001522480872223,0.0015224808722126,-0.0012838805729329,0.0012838805729318,-0.0012838806560597,0.0012838806560614,-3.0537302400491e-15,-1.5268202569649e-15,1.3816902205259e-09,-1.3816983247448e-09,-0.0014437817302061,0.0014437817302017,-0.001522479958212,0.0015224808786141,-0.0015224813282759,0.001522480407862,-0.0015224799582012,0.001522480878605,-0.001522481328277,0.0015224804078626,-0.0012838792139087,0.0012838819530263,-0.0012838820150665,0.0012838792759604,-0.0014489260230552,0.001448925165998,-0.0014489260230521,0.0014489251660064,-1.1648905454867e-09,-1.1648902381381e-09,-0.00088822212608343,0.00088821960485415,-2.3709984262432e-09,2.2018586936989e-10,-0.00094127926875779,0.00094127538822074,-0.00094127841391971,0.00094127624307415,-0.00094127926876009,0.00094127538822812,-0.00094127841390972,0.00094127624307983,-0.001010198427399,0.0010101972932527,-0.0010101984274009,0.0010101972932629,0.38312450045663,120135,2834,0.0059973687705421,0.0059973687705413,0.0036956484897731,32.643358743418,0.00017634686994734,0.00017634686994734,0.00017634686994734,2487132.1745456,0.015814406315721
15419200,0.99698018705328,0.015699850095434,0.0056295149415952,0.0056295149415943,0.0044408202122449,-0.001434564569874,0.0014345645698701,-1.5213652880406e-15,-1.6500672386373e-15,-3.4901874948149e-16,-6.8693783804999e-15,-0.0015136118031481,0.0015136118031509,-0.0015136120139214,0.0015136120139226,-0.0015136118308991,0.0015136118308971,-0.0015136119861697,0.0015136119861595,-0.0012737373463937,0.0012737373463924,-0.0012737372745323,0.0012737372745345,-3.2314895155076e-15,-1.7092357550687e-15,1.6865564940155e-09,-1.6865649440987e-09,-0.0014345645698742,0.0014345645698695,-0.0015136112555155,0.0015136123941828,-0.0015136125615672,0.0015136114228871,-0.0015136112555047,0.0015136123941738,-0.0015136125615682,0.0015136114228878,-0.0012737356731346,0.0012737390043053,-0.0012737389477739,0.001273735616614,-0.0014399189837161,0.0014399179185053,-0.0014399189837131,0.0014399179185139,2.9522512080436e-10,2.9522541621324e-10,-0.00087634926450464,0.00087635040413914,-1.2535843063746e-09,1.9774433683595e-09,-0.00092900371852227,0.00092900282814674,-0.00092900264567491,0.00092900390100945,-0.00092900371852466,0.00092900282815421,-0.00092900264566481,0.00092900390101499,-0.0009992431407745,0.00099924527359265,-0.00099924314077665,0.00099924527360328,0.51103778709309,120135,2834,0.0059591929165064,0.0059591929165054,0.0036463791382249,27.068329672274,0.0001317466373782,0.0001317466373782,0.0001317466373782,2495954.5060252,0.015686805534567
16419200,0.99772563671864,0.015708319902403,0.0056326418374879,0.0056326418374871,0.0044430362274285,-0.0014338127189143,0.0014338127189102,-1.6665373237228e-15,-1.8051213253708e-15,-4.2707518844027e-16,-6.9279354151521e-15,-0.0015120492334833,0.0015120492334859,-0.0015120497008691,0.00151204970087,-0.0015120492646353,0.0015120492646328,-0.0015120496697165,0.0015120496697062,-0.001272988059711,0.0012729880597098,-0.0012729881033101,0.0012729881033118,-3.0860233711632e-15,-1.5710086473892e-15,1.8010699415594e-09,-1.8010780430686e-09,-0.0014338127189143,0.0014338127189099,-0.0015120486723813,0.0015120498693198,-0.0015120502619839,0.0015120490650333,-0.0015120486723705,0.0015120498693107,-0.001512050261985,0.0015120490650339,-0.0012729862925907,0.0012729898544369,-0.0012729898704127,0.0012729863085779,-0.0014397255324042,0.0014397243964935,-0.001439725532401,0.0014397243965017,-8.6996230737563e-10,-8.6996200002277e-10,-0.0008621202014279,0.00086211842178474,-2.4891708423041e-09,9.3722540802477e-10,-0.00092099603398407,0.00092099246115187,-0.00092099490183653,0.00092099359331467,-0.00092099603398641,0.00092099246115921,-0.00092099490182654,0.0009209935933204,-0.00098535156274889,0.00098535132956892,-0.00098535156275081,0.00098535132957904,0.46538451425637,120135,2834,0.0059560339135417,0.005956033913541,0.0035874006438449,24.417667217799,0.00011054133774239,0.00011054133774239,0.00011054133774239,2379763.5780922,0.015620501313491
17419200,0.99822625212062,0.01571475104335,0.0056350024910297,0.0056350024910288,0.004444746061292,-0.0014291251426452,0.0014291251426411,-1.6880660777989e-15,-1.8215325887239e-15,-4.1895778936241e-16,-6.9400232811702e-15,-0.0015083574780508,0.0015083574780535,-0.0015083579541144,0.0015083579541152,-0.0015083575095734,0.0015083575095712,-0.0015083579225912,0.0015083579225807,-0.0012664239411543,0.0012664239411531,-0.0012664240008324,0.001266424000834,-3.0007318591133e-15,-1.478152855853e-15,1.8871255268038e-09,-1.8871333161281e-09,-0.001429125142645,0.0014291251426408,-0.0015083568908456,0.0015083581432683,-0.0015083585413323,0.0015083572888981,-0.0015083568908347,0.0015083581432592,-0.0015083585413335,0.0015083572888986,-0.0012664220922082,0.0012664258235776,-0.0012664258497607,0.0012664221184033,-0.001435127362733,0.0014351261702693,-0.0014351273627297,0.0014351261702776,-9.4144277180703e-10,-9.4144246775531e-10,-0.00085617612679367,0.00085617416573807,-2.6424785552558e-09,9.5358733934076e-10,-0.00091278866803765,0.00091278492084783,-0.00091278747996353,0.00091278610893688,-0.00091278866803996,0.00091278492085513,-0.0009127874799535,0.00091278610894268,-0.00098102626598577,0.00098102594009443,-0.00098102626598746,0.00098102594010452,0.52521873377382,120135,2834,0.0059366296366413,0.0059366296366405,0.0035627195356671,21.979598128808,9.1036785030464e-05,9.1036785030464e-05,9.1036785030464e-05,2396769.6992125,0.015556015384742
18419200,0.99853738130249,0.015718592992248,0.0056364160773252,0.0056364160773243,0.0044457608375986,-0.0014227048604705,0.0014227048604665,-1.5835986809709e-15,-1.7196533481236e-15,-3.6778288213247e-16,-6.9262001740449e-15,-0.0015018051424581,0.0015018051424608,-0.0015018054308503,0.0015018054308514,-0.001501805172388,0.0015018051723858,-0.0015018054009198,0.0015018054009094,-0.0012593777529047,0.0012593777529036,-0.0012593777076961,0.001259377707698,-3.112904902892e-15,-1.5404457023897e-15,2.077466390607e-09,-2.0774745316379e-09,-0.0014227048604705,0.0014227048604661,-0.0015018044803784,0.0015018058680997,-0.001501806092943,0.0015018047052098,-0.0015018044803674,0.0015018058680908,-0.0015018060929442,0.0015018047052105,-0.0012593757086733,0.0012593798098588,-0.0012593797519105,0.001259375650736,-0.0014291217548133,0.0014291204325266,-0.0014291217548103,0.0014291204325351,-5.8202441578523e-11,-5.8202134641209e-11,-0.00084164074599187,0.00084164102141762,-1.9703428552459e-09,2.0226585973006e-09,-0.0009009401222689,0.00090093814223165,-0.00090093879933535,0.00090093946518039,-0.00090094012227117,0.00090093814223896,-0.00090093879932518,0.00090093946518591,-0.00096719141369572,0.00096719307607533,-0.00096719141369771,0.00096719307608569,0.50516361584657,120135,2834,0.005910014842789,0.0059100148427883,0.0035024302265559,17.484909869086,5.5079278952688e-05,5.5079278952688e-05,5.5079278952688e-05,2342939.1572968,0.015440743622163
19419200,0.99879488594681,0.015722711707273,0.0056379226327686,0.0056379226327677,0.0044468664417366,-0.0014229904347283,0.0014229904347242,-1.6110684300242e-15,-1.7477113145014e-15,-3.7554735081563e-16,-6.9372880706114e-15,-0.0015022821118189,0.0015022821118217,-0.0015022823942452,0.0015022823942462,-0.0015022821417505,0.0015022821417483,-0.0015022823643131,0.0015022823643027,-0.0012593462169381,0.001259346216937,-0.0012593461738325,0.0012593461738343,-3.0433187934058e-15,-1.4754230449454e-15,2.0942887745154e-09,-2.0942967220808e-09,-0.0014229904347282,0.0014229904347239,-0.0015022814440968,0.0015022828430728,-0.0015022830619802,0.0015022816629926,-0.0015022814440859,0.0015022828430638,-0.0015022830619813,0.0015022816629932,-0.0012593441562682,0.0012593482904717,-0.001259348234485,0.0012593441002929,-0.001429402988512,0.0014294016550922,-0.0014294029885089,0.0014294016551006,-1.4551645760083e-09,-1.4551642698187e-09,-0.00084054031867837,0.00084053694916589,-3.3298324240816e-09,6.2444639682651e-10,-0.00089930066883064,0.00089929551040435,-0.00089929936030662,0.00089929681894358,-0.00089930066883297,0.00089929551041172,-0.00089929936029659,0.00089929681894925,-0.00096645801474204,0.00096645651952805,-0.00096645801474389,0.00096645651953823,0.65325215552182,120135,2834,0.0059111993942334,0.0059111993942327,0.0034978543348638,17.5515260566,5.5612208452798e-05,5.5612208452798e-05,5.5612208452798e-05,2334448.9920298,0.015438499281642
20419200,0.99901896698325,0.015726552153412,0.005639328815062,0.0056393288150612,0.0044478945232886,-0.0014286820809057,0.0014286820809014,-1.7914746834428e-15,-1.9257058768897e-15,-4.4998625322885e-16,-7.0726368769747e-15,-0.0015076651889967,0.0015076651889992,-0.0015076659563654,0.0015076659563661,-0.0015076652237581,0.0015076652237555,-0.0015076659216035,0.0015076659215929,-0.001264097411199,0.0012640974111975,-0.0012640976186062,0.0012640976186076,-3.0722002640378e-15,-1.4360028912077e-15,1.9140496187551e-09,-1.9140572651843e-09,-0.0014286820809055,0.0014286820809013,-0.0015076646172514,0.0015076658693429,-0.0015076665281233,0.0015076652760202,-0.0015076646172404,0.0015076658693338,-0.0015076665281243,0.0015076652760207,-0.001264095554435,0.0012640993456099,-0.0012640994753523,0.0012640956841899,-0.0014357721664895,0.0014357709622828,-0.0014357721664863,0.0014357709622912,-2.3351512771826e-09,-2.3351509715643e-09,-0.00083334801486671,0.00083334255061882,-4.0186655097184e-09,-4.0246946279006e-10,-0.00089706834258615,0.000897061519382,-0.00089706715348274,0.00089706270850065,-0.00089706834258863,0.00089706151938937,-0.00089706715347276,0.00089706270850637,-0.00096024154911129,0.00096023831064827,-0.00096024154911304,0.00096023831065812,0.70012779305906,120135,2834,0.0059347352170429,0.0059347352170422,0.0034680866882827,18.595707570058,6.3965660560467e-05,6.3965660560467e-05,6.3965660560467e-05,2220772.7457156,0.015456082925683
21419200,0.99917147138204,0.015728979609077,0.0056402170257228,0.0056402170257219,0.0044485455576323,-0.001423266426461,0.0014232664264567,-1.7645343299816e-15,-1.8990008103582e-15,-4.1322267044871e-16,-7.0539315660562e-15,-0.0015023776483049,0.0015023776483078,-0.0015023784138638,0.001502378413865,-0.0015023776830424,0.0015023776830392,-0.0015023783791255,0.0015023783791147,-0.0012583358932158,0.0012583358932142,-0.0012583360953605,0.0012583360953619,-3.3673088957305e-15,-1.7594318319072e-15,1.9001576450061e-09,-1.9001660128576e-09,-0.0014232664264613,0.001423266426456,-0.0015023770811043,0.0015023783239873,-0.0015023789810781,0.0015023777381817,-0.0015023770810938,0.0015023783239779,-0.0015023789810797,0.001502377738182,-0.0012583340501132,0.0012583378140299,-0.0012583379384459,0.0012583341745399,-0.0014304686920827,0.0014304674971105,-0.00143046869208,0.0014304674971187,-9.4764205622014e-10,-9.4764175187144e-10,-0.00082219537436174,0.00082219353079078,-2.6708998195939e-09,9.8897609581208e-10,-0.00088667888314446,0.00088667523252429,-0.00088667767800708,0.00088667643767591,-0.000886678883147,0.00088667523253203,-0.00088667767799649,0.0008866764376813,-0.00094989700886705,0.00094989691350001,-0.00094989700886978,0.0009498969135106,0.64990944923707,120135,2834,0.0059122899095074,0.0059122899095068,0.0034218193356297,15.230773464373,3.7046187714982e-05,3.7046187714982e-05,3.7046187714982e-05,2164502.3162299,0.015363519199653
22419200,0.99929767710988,0.015731040937484,0.0056409691998719,0.0056409691998711,0.0044491025377414,-0.001422416808917,0.0014224168089128,-1.6793604613965e-15,-1.8027684560729e-15,-4.3754545681605e-16,-6.966757758568e-15,-0.0015030487644151,0.0015030487644177,-0.0015030493904591,0.00150304939046,-0.00150304879772,0.0015030487977176,-0.0015030493571537,0.0015030493571434,-0.0012540568347142,0.0012540568347129,-0.0012540569782406,0.0012540569782422,-3.0282016081666e-15,-1.4982968866064e-15,1.8500607967573e-09,-1.8500686157546e-09,-0.0014224168089168,0.0014224168089126,-0.0015030482030926,0.0015030494207753,-0.0015030499517944,0.0015030487341,-0.0015030482030817,0.0015030494207662,-0.0015030499517956,0.0015030487341007,-0.0012540550327859,0.0012540586954135,-0.0012540587801513,0.0012540551175355,-0.0014300585946002,0.0014300574302594,-0.0014300585945972,0.0014300574302679,-1.7125099024848e-09,-1.7125096076835e-09,-0.0008192298940269,0.00081922602194358,-3.3523715437917e-09,1.5169950540483e-10,-0.0008807300366955,0.00088072463994806,-0.00088072888252665,0.00088072579413197,-0.00088073003669784,0.00088072463995542,-0.00088072888251665,0.00088072579413758,-0.00094938648313173,0.00094938452575845,-0.00094938648313349,0.00094938452576859,0.66642562144512,120135,2834,0.0059087897567524,0.0059087897567517,0.0034095008821296,14.859605974978,3.4076847799821e-05,3.4076847799821e-05,3.4076847799821e-05,2193656.7624258,0.015343897915339
23419200,0.99940973678099,0.015732766747215,0.0056416004671173,0.0056416004671164,0.0044495658129816,-0.0014244968148969,0.0014244968148929,-1.6322442537055e-15,-1.7583580480745e-15,-3.7360623364484e-16,-6.8971422382155e-15,-0.0015051392857408,0.0015051392857437,-0.0015051399106327,0.0015051399106339,-0.0015051393190178,0.0015051393190158,-0.0015051398773557,0.0015051398773456,-0.0012559863102733,0.0012559863102722,-0.0012559864532468,0.0012559864532486,-2.8525010933438e-15,-1.3127640664552e-15,1.8454807315503e-09,-1.8454881805992e-09,-0.0014244968148966,0.0014244968148929,-0.0015051387257863,0.0015051399405278,-0.0015051404705996,0.0015051392558478,-0.0015051387257755,0.0015051399405189,-0.0015051404706008,0.0015051392558486,-0.0012559845127214,0.0012559881663644,-0.0012559882507809,0.0012559845971505,-0.001432249849938,0.0014322486886338,-0.0014322498499351,0.0014322486886425,-2.0923552415487e-09,-2.0923549458456e-09,-0.00081869927160751,0.0008186944142399,-3.7129517300057e-09,-2.3783050695597e-10,-0.00088066536796609,0.00088065910962304,-0.00088066422384479,0.00088066025376001,-0.00088066536796859,0.00088065910963059,-0.00088066422383506,0.00088066025376593,-0.00094910424171114,0.00094910142148264,-0.00094910424171247,0.00094910142149228,0.62875729639222,120135,2834,0.005917399657781,0.0059173996577803,0.0034073096176559,15.704426241672,4.0835409933377e-05,4.0835409933377e-05,4.0835409933377e-05,2157710.0675334,0.015359157717643
24419200,0.99951551033863,0.015734484196807,0.0056422271329152,0.0056422271329143,0.0044500299309776,-0.0014288169420206,0.0014288169420164,-1.7070654973797e-15,-1.835590982779e-15,-4.3519258751812e-16,-6.9552581098743e-15,-0.0015100147076794,0.0015100147076821,-0.0015100155698198,0.0015100155698207,-0.0015100147431724,0.00151001474317,-0.0015100155343264,0.001510015534316,-0.0012591229584225,0.0012591229584212,-0.0012591232227657,0.0012591232227673,-3.0377895505556e-15,-1.5169783586392e-15,1.6366023464402e-09,-1.6366102781537e-09,-0.0014288169420204,0.0014288169420161,-0.0015100142334463,0.0015100152971599,-0.0015100160440659,0.0015100149803405,-0.0015100142334355,0.0015100152971508,-0.0015100160440669,0.0015100149803411,-0.0012591213778903,0.0012591246264835,-0.0012591248032802,0.001259121554699,-0.00143677722324,0.0014367762050446,-0.0014367772232369,0.001436776205053,-2.8265643828059e-09,-2.8265640841428e-09,-0.00082281640511955,0.00082280972893133,-4.2237418868199e-09,-1.1696169898715e-09,-0.00088325576809795,0.00088324809195071,-0.00088325476762525,0.00088324909243867,-0.00088325576810032,0.00088324809195806,-0.00088325476761524,0.00088324909244443,-0.000954058584789,0.00095405414209556,-0.00095405858479069,0.00095405414210557,0.66255127740755,120135,2834,0.0059353030018666,0.0059353030018658,0.0034243957254363,17.87822634432,5.8225810754564e-05,5.8225810754564e-05,5.8225810754564e-05,2165669.2135881,0.015412860877617
25419200,0.99961194979134,0.015736328475894,0.0056428986543842,0.0056428986543834,0.0044505311671269,-0.0014333437936561,0.0014333437936521,-1.644243887125e-15,-1.7720046900025e-15,-3.7607674640766e-16,-6.8833779528226e-15,-0.001514488475882,0.001514488475885,-0.0015144893376443,0.0015144893376455,-0.0015144885113011,0.0015144885112987,-0.001514489302226,0.0015144893022158,-0.0012635755325855,0.0012635755325844,-0.0012635757950492,0.0012635757950509,-2.6475073557617e-15,-1.1094914389783e-15,1.6197612303535e-09,-1.6197683336268e-09,-0.0014333437936554,0.0014333437936524,-0.0015144880067554,0.0015144890596107,-0.0015144898067828,0.0015144887539188,-0.0015144880067446,0.0015144890596013,-0.0015144898067839,0.0015144887539194,-0.0012635739683423,0.0012635771839367,-0.0012635773592738,0.0012635741436931,-0.0014413984174922,0.0014413974104894,-0.0014413984174891,0.0014413974104977,-2.7938858130694e-09,-2.7938855128919e-09,-0.00082436071557236,0.00082435413130293,-4.1764445711764e-09,-1.1534777513847e-09,-0.00088589930474441,0.00088589171481954,-0.00088589831451784,0.00088589270506287,-0.00088589930474708,0.0008858917148271,-0.00088589831450791,0.00088589270506868,-0.00095573524367988,0.00095573086730472,-0.00095573524368147,0.00095573086731457,0.77991302017261,120135,2834,0.005954043214048,0.0059540432140473,0.0034308302247705,19.923392634401,7.4587141075206e-05,7.4587141075206e-05,7.4587141075206e-05,2118834.2094712,0.01545745597981
26419200,0.99969103845302,0.015737936776725,0.005643483772359,0.0056434837723581,0.004450969232008,-0.0014371071142807,0.0014371071142765,-1.7483583535583e-15,-1.8698252310639e-15,-4.3104565538052e-16,-6.9756692510339e-15,-0.0015177107573548,0.0015177107573574,-0.0015177114562128,0.0015177114562136,-0.0015177107906961,0.0015177107906936,-0.0015177114228712,0.0015177114228607,-0.0012671987887759,0.0012671987887746,-0.0012671989588505,0.001267198958852,-2.9841441305629e-15,-1.4297865140181e-15,1.5575384182431e-09,-1.5575461153405e-09,-0.0014371071142804,0.0014371071142764,-0.0015177102943704,0.0015177113162981,-0.0015177119192099,0.0015177108972709,-0.0015177102943595,0.001517711316289,-0.001517711919211,0.0015177108972715,-0.0012671972743794,0.0012672003644154,-0.0012672004732289,0.0012671973832047,-0.0014456093182357,0.0014456083493154,-0.0014456093182324,0.0014456083493237,-2.1009598081397e-09,-2.1009595142172e-09,-0.00081831475249439,0.00081830992761253,-3.4455098066582e-09,-5.296384961428e-10,-0.00088421123005013,0.00088420516794599,-0.00088421027222361,0.00088420612578748,-0.00088421123005253,0.00088420516795348,-0.00088421027221362,0.00088420612579319,-0.00094992618299049,0.00094992322500333,-0.00094992618299219,0.00094992322501336,0.82922923068302,120135,2834,0.0059695966645223,0.0059695966645216,0.0034058077703559,20.393374402951,7.8346995223607e-05,7.8346995223607e-05,7.8346995223607e-05,2044352.067771,0.015463644335682
27419200,0.99976000658538,0.0157392009615,0.0056439437599405,0.0056439437599396,0.0044513134416199,-0.0014416855321908,0.0014416855321867,-1.7271237081445e-15,-1.8557668370087e-15,-4.1078156855211e-16,-6.9351998991095e-15,-0.0015226638734773,0.0015226638734798,-0.0015226646997764,0.0015226646997773,-0.0015226639078915,0.0015226639078891,-0.0015226646653618,0.0015226646653512,-0.0012705637811632,0.0012705637811618,-0.0012705640222283,0.0012705640222299,-2.981144222208e-15,-1.4476311549979e-15,1.415244047264e-09,-1.4152516022391e-09,-0.0014416855321906,0.0014416855321865,-0.001522663465868,0.0015226643870493,-0.001522665107398,0.0015226641862056,-0.0015226634658571,0.0015226643870401,-0.0015226651073991,0.0015226641862062,-0.0012705624120041,0.0012705652253119,-0.0012705653913696,0.0012705625780745,-0.0014504554062123,0.0014504545341079,-0.001450455406209,0.0014504545341161,-2.7178772585876e-09,-2.7178769573716e-09,-0.00081751299570187,0.00081750662162535,-3.9056592384383e-09,-1.2858701745194e-09,-0.00088407841099185,0.00088407111343987,-0.00088407755361892,0.00088407197082756,-0.00088407841099429,0.00088407111344729,-0.00088407755360896,0.00088407197083336,-0.00095018211254476,0.00095017776172609,-0.00095018211254636,0.000950177761736,0.74718867332314,120135,2834,0.0059885506207929,0.0059885506207922,0.0034025111088796,22.249950464304,9.3199603714429e-05,9.3199603714429e-05,9.3199603714429e-05,1999943.8961395,0.015498791850758
28419200,0.99981669532619,0.015740383207834,0.005644372078041,0.0056443720780401,0.0044516390517524,-0.0014429893291315,0.0014429893291272,-1.8618842971834e-15,-2.0035858506511e-15,-5.0224936250909e-16,-7.0142563075199e-15,-0.0015250006793196,0.0015250006793221,-0.0015250014389467,0.0015250014389474,-0.0015250007129755,0.001525000712973,-0.0015250014052904,0.0015250014052798,-0.0012702114130658,0.0012702114130643,-0.0012702116262845,0.0012702116262858,-3.0113785926864e-15,-1.4978824346536e-15,1.3457968093851e-09,-1.3458046043707e-09,-0.0014429893291313,0.0014429893291271,-0.0015250002890058,0.0015250011683653,-0.0015250018292731,0.0015250009499019,-0.0015250002889949,0.0015250011683562,-0.0015250018292742,0.0015250009499024,-0.001270210107621,0.001270212783017,-0.0012702129317116,0.0012702102563274,-0.0014518250042035,0.0014518241768212,-0.0014518250042002,0.0014518241768295,-2.4409461845029e-09,-2.4409458716615e-09,-0.00082097795611118,0.00082097229088332,-3.5694869735937e-09,-1.0812573551829e-09,-0.00088392913866555,0.00088392250638744,-0.00088392832381066,0.00088392332125715,-0.00088392913866801,0.00088392250639501,-0.00088392832380075,0.00088392332126299,-0.00095493410537151,0.00095493029340914,-0.00095493410537309,0.00095493029341892,0.8493285419621,120135,2834,0.0059939741388351,0.0059939741388344,0.0034168682781169,23.43989388266,0.00010271915106128,0.00010271915106128,0.00010271915106128,2026066.6097871,0.01552437803142
29419200,0.99986275883276,0.015741070713957,0.0056446231212742,0.0056446231212734,0.0044518244714091,-0.0014475238465609,0.0014475238465567,-1.7453584452034e-15,-1.8911186982101e-15,-4.8122059315885e-16,-6.9440525698429e-15,-0.0015290202741024,0.0015290202741049,-0.0015290210472712,0.0015290210472721,-0.0015290203076436,0.0015290203076412,-0.0015290210137295,0.0015290210137191,-0.0012749454755072,0.001274945475506,-0.0012749456926467,0.0012749456926481,-2.9819089047298e-15,-1.508717294373e-15,1.2794537015385e-09,-1.2794613908989e-09,-0.0014475238465607,0.0014475238465565,-0.0015290199054159,0.0015290207407855,-0.0015290214159702,0.001529020580589,-0.001529019905405,0.0015290207407764,-0.0015290214159713,0.0015290205805897,-0.0012749442344706,0.0012749467798961,-0.0012749469336652,0.0012749443882518,-0.0014567036876369,0.0014567029044078,-0.0014567036876339,0.0014567029044162,-2.5100805851797e-09,-2.5100802685649e-09,-0.00081838221938831,0.00081837638601153,-3.572849796303e-09,-1.2172025652972e-09,-0.00088480811322134,0.00088480136386503,-0.00088480734244837,0.000884802134653,-0.00088480811322379,0.00088480136387241,-0.00088480734243844,0.00088480213465878,-0.00095221962093335,0.00095221562095178,-0.00095221962093508,0.00095221562096154,0.6088157864604,120135,2834,0.0060127276862871,0.0060127276862864,0.0034061470133431,24.778673928656,0.00011342939142925,0.00011342939142925,0.00011342939142925,1955787.9641348,0.015551588474065
30419200,0.99989940249917,0.015741533740491,0.0056447918730578,0.0056447918730569,0.004451949994376,-0.0014464086359854,0.0014464086359809,-1.9171767256847e-15,-2.0541137188241e-15,-5.6583565528561e-16,-7.0264324061367e-15,-0.0015297379613702,0.0015297379613725,-0.0015297387347635,0.0015297387347641,-0.0015297379950228,0.0015297379950202,-0.0015297387011102,0.0015297387010995,-0.0012717393711721,0.0012717393711703,-0.0012717396013309,0.0012717396013322,-2.878912051213e-15,-1.4227658760122e-15,1.2115624157038e-09,-1.2115700587892e-09,-0.001446408635985,0.0014464086359809,-0.0015297376152974,0.0015297384057243,-0.001529739080848,0.0015297382904099,-0.0015297376152867,0.0015297384057153,-0.0015297390808489,0.0015297382904104,-0.0012717381967378,0.0012717406086542,-0.0012717407757469,0.0012717383638425,-0.0014551923934141,0.0014551916552448,-0.0014551923934107,0.0014551916552527,-2.5386860423741e-09,-2.5386857385698e-09,-0.00082927128523005,0.00082926538283161,-3.533788083685e-09,-1.3140298009827e-09,-0.00088679718961635,0.00088679046046473,-0.00088679646409304,0.00088679118600293,-0.00088679718961875,0.00088679046047219,-0.00088679646408322,0.00088679118600874,-0.00096470713090881,0.00096470302537264,-0.00096470713091017,0.00096470302538265,0.51512748248588,120135,2834,0.0060081718092257,0.0060081718092247,0.0034512482695703,26.129350264187,0.00012423480211349,0.00012423480211349,0.00012423480211349,2074258.1873024,0.015588117041035
31419200,0.99992906617506,0.015742017555171,0.0056449676015691,0.0056449676015682,0.0044520823520337,-0.001449783809399,0.0014497838093947,-1.78900417068e-15,-1.9297057546962e-15,-4.9663188706028e-16,-6.9742575294551e-15,-0.001532896287319,0.0015328962873216,-0.0015328971591507,0.0015328971591514,-0.0015328963217971,0.0015328963217946,-0.0015328971246721,0.0015328971246616,-0.0012761054299924,0.0012761054299911,-0.0012761057045876,0.001276105704589,-2.9208519464486e-15,-1.4499771885672e-15,1.0783974047563e-09,-1.0784051732931e-09,-0.0014497838093987,0.0014497838093945,-0.0015328959914983,0.0015328966889242,-0.001532897454984,0.0015328967575467,-0.0015328959914875,0.001532896688915,-0.0015328974549851,0.0015328967575473,-0.0012761043905914,0.0012761065431109,-0.0012761067439708,0.0012761045914632,-0.0014584301910711,0.0014584295430102,-0.0014584301910679,0.0014584295430183,-2.9922791510781e-09,-2.9922788440529e-09,-0.00083882376464395,0.0008388167233841,-3.843249527865e-09,-1.8987750955477e-09,-0.00089476241011089,0.00089475477087557,-0.00089476177778993,0.00089475540321124,-0.00089476241011325,0.00089475477088299,-0.00089476177778013,0.00089475540321703,-0.0009732320145523,0.00097322686769264,-0.00097323201455395,0.00097322686770249,0.66479676253864,120135,2834,0.0060221654637351,0.0060221654637343,0.0034908622995839,28.436598935312,0.0001426927914825,0.0001426927914825,0.0001426927914825,2111259.0640633,0.015656771999131
32419200,0.99995074006522,0.015742434140809,0.0056451189324485,0.0056451189324476,0.0044521962759129,-0.0014536157060476,0.0014536157060434,-1.753299379084e-15,-1.8948832890868e-15,-4.6666221437792e-16,-6.9387292030564e-15,-0.0015362257161709,0.0015362257161736,-0.0015362265877912,0.0015362265877919,-0.0015362257505109,0.0015362257505085,-0.0015362265534514,0.0015362265534408,-0.0012803212197529,0.0012803212197516,-0.0012803214902521,0.0012803214902534,-2.8145610759147e-15,-1.3309319971911e-15,1.0689523161091e-09,-1.068959816436e-09,-0.0014536157060471,0.0014536157060435,-0.0015362254226512,0.0015362261143443,-0.0015362268813232,0.0015362261896199,-0.0015362254226404,0.0015362261143352,-0.0015362268813243,0.0015362261896205,-0.0012803201892343,0.0012803223233678,-0.0012803225207523,0.0012803203866314,-0.0014625828382593,0.0014625821965524,-0.0014625828382561,0.0014625821965605,-2.5213774072146e-09,-2.5213770969546e-09,-0.00083506050544306,0.00083505469505009,-3.3829266713388e-09,-1.4311601582454e-09,-0.00089564714118254,0.00089564057455948,-0.00089564650571685,0.00089564121004078,-0.00089564714118499,0.00089564057456686,-0.00089564650570697,0.00089564121004646,-0.00096948673274302,0.00096948264911044,-0.00096948673274466,0.00096948264912045,0.78355820163569,120135,2834,0.0060379972051617,0.006037997205161,0.0034753158352192,29.294721284594,0.00014955777027675,0.00014955777027675,0.00014955777027675,1989525.2234223,0.015673154743188
33419200,0.99996580552889,0.015742733503044,0.0056452273953628,0.0056452273953619,0.0044522787123197,-0.0014564244614361,0.0014564244614319,-1.8281794444905e-15,-1.9448229399353e-15,-4.6586812098987e-16,-6.9319352929586e-15,-0.0015380235429593,0.001538023542962,-0.0015380242166195,0.0015380242166203,-0.0015380235751865,0.001538023575184,-0.0015380241843919,0.0015380241843814,-0.0012837621737762,0.0012837621737749,-0.0012837622948006,0.0012837622948019,-2.9776149182611e-15,-1.5015426514211e-15,1.0798194655142e-09,-1.0798272244276e-09,-0.0014564244614359,0.0014564244614318,-0.0015380232311146,0.0015380239407741,-0.0015380245284767,0.001538023818806,-0.0015380232311038,0.0015380239407648,-0.0015380245284778,0.0015380238188066,-0.0012837611223664,0.0012837632750089,-0.001283763346193,0.0012837611935624,-0.0014656884277464,0.0014656877757979,-0.0014656884277431,0.0014656877758061,-1.9635325981216e-09,-1.963532310671e-09,-0.00082767818097281,0.00082767375435129,-2.8471060565261e-09,-8.7363576055662e-10,-0.00089379138861033,0.00089378597697656,-0.00089379074341489,0.00089378662218651,-0.00089379138861271,0.00089378597698406,-0.0008937907434051,0.00089378662219233,-0.00096158620326898,0.00096158328465424,-0.00096158620327054,0.00096158328466386,0.80945760226261,120135,2834,0.0060495899950747,0.006049589995074,0.0034447521593218,29.31727074256,0.00014973816594048,0.00014973816594048,0.00014973816594048,1934699.421338,0.015665671944815
34419200,0.9999772058355,0.015742938998063,0.0056453018616206,0.0056453018616197,0.004452335274823,-0.00146112469408,0.0014611246940758,-1.7964745307009e-15,-1.9095299004664e-15,-4.9924945415423e-16,-6.9332293710725e-15,-0.0015428586999683,0.0015428586999709,-0.001542859555041,0.0015428595550419,-0.001542858733775,0.0015428587337726,-0.001542859521234,0.0015428595212235,-0.0012878082448529,0.0012878082448515,-0.0012878085042241,0.0012878085042255,-2.9794972136995e-15,-1.5403588484254e-15,1.0002403094037e-09,-1.0002479338622e-09,-0.0014611246940798,0.0014611246940757,-0.0015428584262645,0.0015428590741168,-0.0015428598287576,0.0015428591808938,-0.0015428584262536,0.0015428590741076,-0.0015428598287587,0.0015428591808943,-0.0012878072787627,0.0012878092775624,-0.0012878094702966,0.0012878074715087,-0.0014704559100403,0.0014704553134616,-0.0014704559100372,0.0014704553134698,-2.9217544264855e-09,-2.9217541412401e-09,-0.00082876882092065,0.00082876196526759,-3.7013707956482e-09,-1.9080858874918e-09,-0.00089555538367311,0.00089554793408719,-0.00089555480074779,0.00089554851702733,-0.00089555538367551,0.0008955479340946,-0.00089555480073786,0.00089554851703318,-0.00096322409078747,0.00096321904593386,-0.00096322409078906,0.00096321904594358,0.73398852679868,120135,2834,0.0060690509478744,0.0060690509478738,0.0034492959894932,31.480665663818,0.00016704532531054,0.00016704532531054,0.00016704532531054,1908315.367041,0.015709818743404
35419200,0.99998614669515,0.015743081613824,0.0056453535609798,0.005645353560979,0.0044523744918655,-0.0014685966104354,0.0014685966104313,-1.6566552726715e-15,-1.7681224556609e-15,-4.3554551791281e-16,-6.8852602482609e-15,-0.0015511403451338,0.0015511403451364,-0.0015511414367279,0.0015511414367288,-0.0015511403811126,0.0015511403811103,-0.0015511414007487,0.0015511414007384,-0.001294113144694,0.0012941131446928,-0.0012941135197201,0.0012941135197219,-2.9883792952991e-15,-1.5392061952191e-15,7.4904137449646e-10,-7.4904904528642e-10,-0.0014685966104353,0.0014685966104311,-0.0015511401708032,0.0015511406398314,-0.001551141611071,0.0015511411420316,-0.0015511401707924,0.0015511406398223,-0.0015511416110722,0.0015511411420322,-0.0012941124371078,0.0012941139477198,-0.0012941142272887,0.0012941127166887,-0.0014779427799318,0.0014779423545919,-0.0014779427799288,0.0014779423546002,-4.0315997473615e-09,-4.0315994649038e-09,-0.00083933297866441,0.00083932333454928,-4.5313192640422e-09,-3.2630344182884e-09,-0.00090287310594617,0.00090286340827823,-0.00090287270164945,0.00090286381258969,-0.00090287310594854,0.00090286340828561,-0.00090287270163946,0.00090286381259538,-0.00097460582216541,0.00097459827850144,-0.0009746058221672,0.00097459827851159,0.64952121200817,120135,2834,0.00610001746441,0.0061000174644093,0.0034931184129228,35.926267947593,0.00020261014358074,0.00020261014358074,0.00020261014358074,1926374.3464287,0.015817233142459
36419200,0.99999187161345,0.015743177402715,0.0056453882292264,0.0056453882292255,0.0044524009442627,-0.0014705293334542,0.0014705293334501,-1.7195945263911e-15,-1.831002887648e-15,-4.4251589320792e-16,-6.9142005406255e-15,-0.0015535007478441,0.0015535007478467,-0.0015535015455111,0.001553501545512,-0.0015535007804866,0.0015535007804843,-0.0015535015128681,0.0015535015128577,-0.0012956728162066,0.0012956728162053,-0.0012956730530028,0.0012956730530044,-2.9167932469097e-15,-1.4468414847284e-15,7.4051115754134e-10,-7.4051874286292e-10,-0.0014705293334539,0.0014705293334499,-0.0015535005519364,0.0015535010332401,-0.0015535017414313,0.0015535012601164,-0.0015535005519255,0.001553501033231,-0.0015535017414324,0.0015535012601169,-0.0012956720981636,0.0012956735854658,-0.001295673771028,0.001295672283738,-0.0014798094088022,0.0014798089831839,-0.0014798094087991,0.0014798089831921,-2.7201426499903e-09,-2.7201423698413e-09,-0.00084526146582766,0.00084525514323282,-3.2547721655475e-09,-1.9708439592464e-09,-0.00090623175808305,0.0009062249430166,-0.00090623134285479,0.00090622535825969,-0.00090623175808541,0.00090622494302399,-0.00090623134284491,0.00090622535826543,-0.0009807268582814,0.00098072206966456,-0.00098072685828301,0.0009807220696745,0.6811981079479,120135,2834,0.0061080404230647,0.0061080404230639,0.0035177020781983,37.479298079985,0.00021503438463988,0.00021503438463988,0.00021503438463988,1957478.6543227,0.015858500659424
37419200,0.99999525287269,0.015743231777135,0.0056454079405745,0.0056454079405737,0.0044524158959868,-0.0014717652581424,0.0014717652581383,-1.7377116199852e-15,-1.8507081680182e-15,-4.4757456219847e-16,-6.9195533182783e-15,-0.0015542591409879,0.0015542591409905,-0.0015542598009773,0.0015542598009781,-0.0015542591722482,0.0015542591722459,-0.0015542597697164,0.001554259769706,-0.0012975169915854,0.0012975169915841,-0.0012975171607017,0.0012975171607033,-2.958439033483e-15,-1.4835383186286e-15,8.3705671274224e-10,-8.3706437829827e-10,-0.0014717652581422,0.0014717652581381,-0.0015542589029913,0.0015542594558764,-0.0015542600389863,0.00155425948609,-0.0015542589029805,0.0015542594558673,-0.0015542600389874,0.0015542594860905,-0.0012975161709923,0.0012975178447865,-0.0012975179812769,0.0012975163074948,-0.0014811483238129,0.0014811478313526,-0.0014811483238098,0.0014811478313609,-2.0691467248866e-09,-2.0691464428788e-09,-0.0008440384878937,0.0008440337976693,-2.7182476429298e-09,-1.2275024759949e-09,-0.00090700323475823,0.00090699776645411,-0.00090700274828168,0.00090699825294542,-0.00090700323476062,0.00090699776646151,-0.00090700274827176,0.00090699825295118,-0.00097901756091014,0.0009790142024481,-0.00097901756091178,0.00097901420245803,0.65495763090949,120135,2834,0.0061131447974823,0.0061131447974815,0.0035126504820224,37.680246522541,0.00021664197218033,0.00021664197218033,0.00021664197218033,1929132.393584,0.015863744614778
38419200,0.99999719642303,0.015743266579204,0.0056454205209197,0.0056454205209188,0.0044524255373655,-0.001470676680841,0.0014706766808368,-1.7501818272642e-15,-1.8640018795515e-15,-4.6739748603352e-16,-6.9364057446247e-15,-0.0015533208858997,0.0015533208859023,-0.0015533214765176,0.0015533214765184,-0.0015533209167042,0.0015533209167018,-0.0015533214457127,0.0015533214457022,-0.0012961802203068,0.0012961802203055,-0.0012961803576929,0.0012961803576945,-2.9546744426063e-15,-1.4845579910629e-15,9.7193738038173e-10,-9.7194503904035e-10,-0.0014706766808407,0.0014706766808366,-0.0015533205995813,0.001553321244843,-0.0015533217628486,0.0015533211175756,-0.0015533205995705,0.0015533212448339,-0.0015533217628497,0.0015533211175762,-0.0012961792647766,0.0012961812019605,-0.0012961813132053,0.0012961793760334,-0.0014800389632769,0.0014800383800631,-0.0014800389632738,0.0014800383800713,-1.7349416401942e-09,-1.7349413572913e-09,-0.0008431722715429,0.00084316841713861,-2.52560947707e-09,-7.5947882067865e-10,-0.00090566759737135,0.00090566277239425,-0.00090566701831116,0.00090566335146924,-0.00090566759737373,0.00090566277240165,-0.00090566701830123,0.000905663351475,-0.00097838477236094,0.0009783822051096,-0.00097838477236259,0.00097838220511953,0.72891346290552,120135,2834,0.0061086394871922,0.0061086394871915,0.0035090529200754,37.196304551414,0.00021277043641131,0.00021277043641131,0.00021277043641131,1935136.2607227,0.015850935196855
38880000,0.9999978751079,0.015743279005876,0.0056454250138639,0.005645425013863,0.0044524289781489,-0.0014719002397239,0.001471900239709,-7.9923440746688e-15,-7.7269992395949e-15,-1.4676992804415e-14,-1.2672759914707e-14,-0.0015541042132592,0.001554104213261,-0.0015541048506296,0.001554104850612,-0.0015541042447075,0.0015541042446957,-0.0015541048191681,0.0015541048191575,-0.0012977428508998,0.0012977428509146,-0.0012977430106815,0.0012977430107175,-2.0849951283594e-15,-8.807852766677e-15,1.0162692562695e-09,-1.0162988516758e-09,-0.0014719002397264,0.0014719002397094,-0.0015541039168751,0.0015541045882196,-0.0015541051470231,0.0015541044756364,-0.0015541039168721,0.0015541045882067,-0.0015541051470203,0.0015541044756536,-0.0012977418552607,0.0012977438803799,-0.0012977440063631,0.0012977419812203,-0.0014814225592098,0.0014814219474254,-0.0014814225592304,0.0014814219474664,-1.9399038859687e-09,-1.9399039681477e-09,-0.00083998498414781,0.0008399806132034,-2.766363662989e-09,-9.1817709476119e-10,-0.00090511073459631,0.00090510541589386,-0.00090511012927804,0.00090510602124636,-0.00090511073459153,0.00090510541591333,-0.00090511012926347,0.00090510602123521,-0.00097498113860194,0.00097497816663782,-0.0009749811386285,0.00097497816671062,0.74537476942469,120135,2834,0.0061136867468547,0.0061136867468608,0.0034958583409076,37.193658282558,0.00021274926626046,0.00021274926626046,0.00021274926626046,1893171.8265636,0.015847792334248
